     Program PWSCF v.5.1rc2 (svn rev. 11289) starts on  1Jan2019 at 17:40:41

     Current dimensions of program PWSCF are:
     Max number of different atomic species (ntypx) = 10
     Max number of k-points (npk) =  40000
     Max angular momentum in pseudopotentials (lmaxx) =  3
     Presently stress not available with electric field

     IMPORTANT: XC functional enforced from input :
     Exchange-correlation      = BEEF-VDW ( 1  4 27 13 2)
     Any further DFT definition will be discarded
     Please, verify this is what you really want

     Subspace diagonalization in iterative solution of the eigenvalue problem:
     a serial algorithm will be used

     bravais-lattice index     =            0
     lattice parameter (alat)  =       1.8897  a.u.
     unit-cell volume          =    4942.8252 (a.u.)^3
     number of atoms/cell      =           12
     number of atomic types    =            2
     number of electrons       =       165.00
     number of Kohn-Sham states=          112
     kinetic-energy cutoff     =      36.7493  Ry
     charge density cutoff     =     367.4932  Ry
     convergence threshold     =      1.0E-06
     mixing beta               =       0.1000
     number of iterations used =           10  plain     mixing
     Exchange-correlation      = BEEF-VDW ( 1  4 27 13 2)
     nstep                     =           50

     celldm(1)=   1.889726  celldm(2)=   0.000000  celldm(3)=   0.000000
     celldm(4)=   0.000000  celldm(5)=   0.000000  celldm(6)=   0.000000

     crystal axes: (cart. coord. in units of alat)
               a(1) = (   5.843223   0.000000   0.000000 )
               a(2) = (  -2.921612   5.060380   0.000000 )
               a(3) = (   0.000000   0.000000  24.770972 )

     reciprocal axes: (cart. coord. in units 2 pi/alat)
               b(1) = (  0.171138  0.098807  0.000000 )
               b(2) = (  0.000000  0.197614  0.000000 )
               b(3) = (  0.000000  0.000000  0.040370 )

     PseudoPot. # 1 for Ta read from file:
     /afs/slac.stanford.edu/u/if/mamunm/psp/gbrv1.5pbe/Ta.UPF
     MD5 check sum: f8bbe9446314a3b8ea5d9f3e3836c939
     Pseudo is Ultrasoft + core correction, Zval = 13.0
     Generated by new atomic code, or converted to UPF format
     Using radial grid of  921 points,  7 beta functions with:
                l(1) =   0
                l(2) =   0
                l(3) =   1
                l(4) =   1
                l(5) =   2
                l(6) =   2
                l(7) =   3
     Q(r) pseudized with  6 coefficients,  rinner =    1.300   1.300   1.300
                                                       1.300   1.300   1.300
                                                       1.300

     PseudoPot. # 2 for Pd read from file:
     /afs/slac.stanford.edu/u/if/mamunm/psp/gbrv1.5pbe/Pd.UPF
     MD5 check sum: 2d733d2bc2cbfd217af676df1668a4bc
     Pseudo is Ultrasoft + core correction, Zval = 16.0
     Generated by new atomic code, or converted to UPF format
     Using radial grid of  887 points,  6 beta functions with:
                l(1) =   0
                l(2) =   0
                l(3) =   1
                l(4) =   1
                l(5) =   2
                l(6) =   2
     Q(r) pseudized with  8 coefficients,  rinner =    1.130   1.130   1.130
                                                       1.130   1.130

     vdW kernel table read from file vdW_kernel_table
     MD5 check sum: 095c7af220d748ca6e76c0b4c6cfb241

     atomic species   valence    mass     pseudopotential
        Ta1           13.00   180.94788     Ta( 1.00)
        Pd1           16.00   106.42000     Pd( 1.00)

     No symmetry found

   Cartesian axes

     site n.     atom                  positions (alat units)
         1           Ta1 tau(   1) = (   0.0000000   0.0000000  10.0000000  )
         2           Ta1 tau(   2) = (  -1.4608058   2.5301899  10.0000000  )
         3           Ta1 tau(   3) = (   1.4608058   2.5301899  10.0000000  )
         4           Pd1 tau(   4) = (   2.9216117   0.0000000  10.0000000  )
         5           Ta1 tau(   5) = (   2.9216117   1.6867933  12.3854859  )
         6           Ta1 tau(   6) = (   1.4608058   4.2169832  12.3854859  )
         7           Ta1 tau(   7) = (  -1.4608058   4.2169832  12.3854859  )
         8           Pd1 tau(   8) = (   0.0000000   1.6867933  12.3854859  )
         9           Ta1 tau(   9) = (  -0.0000000   3.3735866  14.7709719  )
        10           Ta1 tau(  10) = (   1.4608058   0.8433966  14.7709719  )
        11           Ta1 tau(  11) = (   4.3824175   0.8433966  14.7709719  )
        12           Pd1 tau(  12) = (   2.9216117   3.3735866  14.7709719  )

     number of k points=    20  Fermi-Dirac smearing, width (Ry)=  0.0110
                       cart. coord. in units 2pi/alat
        k(    1) = (   0.0000000   0.0000000   0.0000000), wk =   0.0555556
        k(    2) = (   0.0000000   0.0329356   0.0000000), wk =   0.1111111
        k(    3) = (   0.0000000   0.0658712   0.0000000), wk =   0.1111111
        k(    4) = (   0.0000000  -0.0988068   0.0000000), wk =   0.0555556
        k(    5) = (   0.0285231   0.0164678   0.0000000), wk =   0.1111111
        k(    6) = (   0.0285231   0.0494034   0.0000000), wk =   0.1111111
        k(    7) = (   0.0285231   0.0823390   0.0000000), wk =   0.1111111
        k(    8) = (   0.0285231  -0.0823390   0.0000000), wk =   0.1111111
        k(    9) = (   0.0285231  -0.0494034   0.0000000), wk =   0.1111111
        k(   10) = (   0.0285231  -0.0164678   0.0000000), wk =   0.1111111
        k(   11) = (   0.0570461   0.0329356   0.0000000), wk =   0.1111111
        k(   12) = (   0.0570461   0.0658712   0.0000000), wk =   0.1111111
        k(   13) = (   0.0570461   0.0988068   0.0000000), wk =   0.1111111
        k(   14) = (   0.0570461  -0.0658712   0.0000000), wk =   0.1111111
        k(   15) = (   0.0570461  -0.0329356   0.0000000), wk =   0.1111111
        k(   16) = (   0.0570461   0.0000000   0.0000000), wk =   0.1111111
        k(   17) = (  -0.0855692  -0.0494034   0.0000000), wk =   0.0555556
        k(   18) = (  -0.0855692  -0.0164678   0.0000000), wk =   0.1111111
        k(   19) = (  -0.0855692   0.0164678   0.0000000), wk =   0.1111111
        k(   20) = (  -0.0855692  -0.1482102   0.0000000), wk =   0.0555556

     Largest allocated arrays     est. size (Mb)     dimensions
     Largest temporary arrays     est. size (Mb)     dimensions

     Initial potential from superposition of free atoms
     Check: negative starting charge=   -1.063517

     starting charge  163.48997, renormalised to  165.00000

     negative rho (up, down):  1.073E+00 0.000E+00

     *
     * You are using vdW-DF for exchange-correlation in this calculation.
     * Please cite the following three references that made this development
     * possible:
     *
     *   M. Dion, H. Rydberg, E. Schroder, D. C. Langreth, and
     *   B. I. Lundqvist, Phys. Rev. Lett. 92, 246401 (2004).
     *
     *   T. Thonhauser, V. R. Cooper, S. Li, A. Puzder, P. Hyldgaard, and
     *   D. C. Langreth, Phys. Rev. B 76, 125112 (2007).
     *
     *   G. Roman-Perez and J. M. Soler, Phys. Rev. Lett. 103, 096102 (2009).
     *
     *
     * If you are using vdW-DF2, please also cite:
     *
     *   K. Lee, E. D. Murray, L. Kong, B. I. Lundqvist, and
     *   D. C. Langreth, Phys. Rev. B 82, 081101(R) (2010).
     *
     *
     * If you are calculating the stress with vdW-DF, please also cite:
     *
     *   R. Sabatini, E. Kucukbenli, B. Kolb, T. Thonhauser, and
     *   S. de Gironcoli, J. Phys.: Condens. Matter 24, 424209 (2012).
     *

     Carrying out vdW-DF run using the following parameters:

     Nqs =      20    Nr_points =    1024   r_max =   100.000
     q_mesh =
               0.00001000     0.04494208     0.09755937     0.15916263
               0.23128650     0.31572767     0.41458969     0.53033537
               0.66584808     0.82450364     1.01025438     1.22772762
               1.48234092     1.78043706     2.12944203     2.53805004
               3.01644009     3.57652955     4.23227104     5.00000000

     Gradients computed in reciprocal space

     Adding external electric field

     Computed dipole along edir(3) :
        Dipole               -0.0000 Ry au,         -0.0000 Debye
        Dipole field         -0.0000 Ry au

        Potential amp.        0.0000 Ry
        Total length         45.6401 bohr

     Starting wfc are  153 randomized atomic wfcs

     Self-consistent Calculation

     iteration #  1     ecut=    36.75 Ry     beta=0.10
     Davidson diagonalization with overlap
     ethr =  1.00E-02,  avg # of iterations =  2.0

[...]

     total energy              =   -1887.26798411 Ry
     Harris-Foulkes estimate   =   -1889.21851834 Ry
     estimated scf accuracy    <      11.21047185 Ry

[...]

     End of self-consistent calculation

          k = 0.0000 0.0000 0.0000 ( 18679 PWs)   bands (ev):

   -66.3896 -66.3870 -66.3334 -66.3334 -66.3328 -66.3328 -66.1432 -66.0899
   -66.0898 -48.8185 -48.8007 -48.8007 -48.5443 -48.5443 -48.5442 -48.5442
   -48.5032 -48.5027 -33.1133 -33.0382 -32.9911 -32.9289 -32.9254 -32.9254
   -32.8993 -32.8993 -32.8561 -32.8468 -32.8468 -32.7579 -32.7579 -32.5759
   -32.5759 -32.5010 -32.4644 -32.3201 -32.3201 -32.3124 -32.2398 -32.2398
   -32.2319 -32.2319 -32.2300 -32.0909 -32.0909  -5.3331  -3.7828  -3.0879
    -2.7506  -2.7506  -2.6246  -2.6246  -2.2090  -2.1125  -2.1125  -2.0619
    -2.0442  -2.0442  -1.9005  -1.4642  -1.2207  -1.2207  -0.9465  -0.9465
    -0.5897  -0.1837   0.1098   0.5489   0.6810   0.6810   1.0983   1.0983
     1.1170   1.1170   1.4812   1.6697   1.7694   1.7694   1.8380   1.8381
     2.0062   2.0062   2.4592   2.4592   2.5308   2.5499   2.7922   3.1245
     3.1245   3.5751   3.7805   3.7805   3.7838   4.5056   4.8426   4.8426
     5.2620   5.2620   5.3742   5.3743   5.6378   5.6727   5.6727   5.7542
     5.7542   5.9422   6.1243   6.1697   6.1697   6.2970   6.2970   6.3163

[...]

          k =-0.0856-0.0494 0.0000 ( 18584 PWs)   bands (ev):

[...]

     the Fermi energy is     2.0205 ev

!    total energy              =   -1888.12439988 Ry
     Harris-Foulkes estimate   =   -1888.12440553 Ry
     estimated scf accuracy    <       0.00000097 Ry

     The total energy is the sum of the following terms:

     one-electron contribution =  -13482.27308015 Ry
     hartree contribution      =    6740.01497428 Ry
     xc contribution           =    -489.49927159 Ry
     ewald contribution        =    5343.72724957 Ry
     electric field correction =       0.00000000 Ry
     smearing contrib. (-TS)   =      -0.09427199 Ry

     convergence has been achieved in  16 iterations

 BEEF-vdW xc energy contributions
           1 :   -429.963173315012
           2 :    396.382187854867
           3 :   -337.836414820380
           4 :    268.103466666466
           5 :   -201.088564524193
           6 :    146.475314943614
           7 :   -107.699344544904
           8 :    82.6582441002133
           9 :   -66.3264229047752
          10 :    53.7460211860972
          11 :   -42.0185177564182
          12 :    30.6923409267364
[...]
     MD5 check sum: f8bbe9446314a3b8ea5d9f3e3836c939
     Pseudo is Ultrasoft + core correction, Zval = 13.0
     Generated by new atomic code, or converted to UPF format
     Using radial grid of  921 points,  7 beta functions with:
                l(1) =   0
                l(2) =   0
                l(3) =   1
                l(4) =   1
                l(5) =   2
                l(6) =   2
                l(7) =   3
     Q(r) pseudized with  6 coefficients,  rinner =    1.300   1.300   1.300
                                                       1.300   1.300   1.300
                                                       1.300

     PseudoPot. # 2 for Pd read from file:
     /afs/slac.stanford.edu/u/if/mamunm/psp/gbrv1.5pbe/Pd.UPF
     MD5 check sum: 2d733d2bc2cbfd217af676df1668a4bc
     Pseudo is Ultrasoft + core correction, Zval = 16.0
     Generated by new atomic code, or converted to UPF format
     Using radial grid of  887 points,  6 beta functions with:
                l(1) =   0
                l(2) =   0
                l(3) =   1
                l(4) =   1
                l(5) =   2
                l(6) =   2
     Q(r) pseudized with  8 coefficients,  rinner =    1.130   1.130   1.130
                                                       1.130   1.130

     vdW kernel table read from file vdW_kernel_table
     MD5 check sum: 095c7af220d748ca6e76c0b4c6cfb241

     atomic species   valence    mass     pseudopotential
        Ta1           13.00   180.94788     Ta( 1.00)
        Pd1           16.00   106.42000     Pd( 1.00)

     No symmetry found

   Cartesian axes

     site n.     atom                  positions (alat units)
         1           Ta1 tau(   1) = (   0.0000000   0.0000000  10.0000000  )
         2           Ta1 tau(   2) = (  -1.4608058   2.5301899  10.0000000  )
         3           Ta1 tau(   3) = (   1.4608058   2.5301899  10.0000000  )
         4           Pd1 tau(   4) = (   2.9216117   0.0000000  10.0000000  )
         5           Ta1 tau(   5) = (   2.9216117   1.6867933  12.3854859  )
         6           Ta1 tau(   6) = (   1.4608058   4.2169832  12.3854859  )
         7           Ta1 tau(   7) = (  -1.4608058   4.2169832  12.3854859  )
         8           Pd1 tau(   8) = (   0.0000000   1.6867933  12.3854859  )
         9           Ta1 tau(   9) = (  -0.0000065   3.3619472  14.7023331  )
        10           Ta1 tau(  10) = (   1.4507193   0.8492091  14.7023343  )
        11           Ta1 tau(  11) = (   4.3924986   0.8492142  14.7023415  )
        12           Pd1 tau(  12) = (   2.9216024   3.3735806  14.7547100  )

     number of k points=    20  Fermi-Dirac smearing, width (Ry)=  0.0110
                       cart. coord. in units 2pi/alat
        k(    1) = (   0.0000000   0.0000000   0.0000000), wk =   0.0555556
        k(    2) = (   0.0000000   0.0329356   0.0000000), wk =   0.1111111
        k(    3) = (   0.0000000   0.0658712   0.0000000), wk =   0.1111111
        k(    4) = (   0.0000000  -0.0988068   0.0000000), wk =   0.0555556
        k(    5) = (   0.0285231   0.0164678   0.0000000), wk =   0.1111111
        k(    6) = (   0.0285231   0.0494034   0.0000000), wk =   0.1111111
        k(    7) = (   0.0285231   0.0823390   0.0000000), wk =   0.1111111
        k(    8) = (   0.0285231  -0.0823390   0.0000000), wk =   0.1111111
        k(    9) = (   0.0285231  -0.0494034   0.0000000), wk =   0.1111111
        k(   10) = (   0.0285231  -0.0164678   0.0000000), wk =   0.1111111
        k(   11) = (   0.0570461   0.0329356   0.0000000), wk =   0.1111111
        k(   12) = (   0.0570461   0.0658712   0.0000000), wk =   0.1111111
        k(   13) = (   0.0570461   0.0988068   0.0000000), wk =   0.1111111
        k(   14) = (   0.0570461  -0.0658712   0.0000000), wk =   0.1111111
        k(   15) = (   0.0570461  -0.0329356   0.0000000), wk =   0.1111111
        k(   16) = (   0.0570461   0.0000000   0.0000000), wk =   0.1111111
        k(   17) = (  -0.0855692  -0.0494034   0.0000000), wk =   0.0555556
        k(   18) = (  -0.0855692  -0.0164678   0.0000000), wk =   0.1111111
        k(   19) = (  -0.0855692   0.0164678   0.0000000), wk =   0.1111111
        k(   20) = (  -0.0855692  -0.1482102   0.0000000), wk =   0.0555556

     Largest allocated arrays     est. size (Mb)     dimensions
     Largest temporary arrays     est. size (Mb)     dimensions

     Initial potential from superposition of free atoms
     Check: negative starting charge=   -1.065593

     starting charge  163.48997, renormalised to  165.00000

[...]

     *
     * You are using vdW-DF for exchange-correlation in this calculation.
     * Please cite the following three references that made this development
     * possible:
     *
     *   M. Dion, H. Rydberg, E. Schroder, D. C. Langreth, and
     *   B. I. Lundqvist, Phys. Rev. Lett. 92, 246401 (2004).
     *
     *   T. Thonhauser, V. R. Cooper, S. Li, A. Puzder, P. Hyldgaard, and
     *   D. C. Langreth, Phys. Rev. B 76, 125112 (2007).
     *
     *   G. Roman-Perez and J. M. Soler, Phys. Rev. Lett. 103, 096102 (2009).
     *
     *
     * If you are using vdW-DF2, please also cite:
     *
     *   K. Lee, E. D. Murray, L. Kong, B. I. Lundqvist, and
     *   D. C. Langreth, Phys. Rev. B 82, 081101(R) (2010).
     *
     *
     * If you are calculating the stress with vdW-DF, please also cite:
     *
     *   R. Sabatini, E. Kucukbenli, B. Kolb, T. Thonhauser, and
     *   S. de Gironcoli, J. Phys.: Condens. Matter 24, 424209 (2012).
     *

     Carrying out vdW-DF run using the following parameters:

     Nqs =      20    Nr_points =    1024   r_max =   100.000
     q_mesh =
               0.00001000     0.04494208     0.09755937     0.15916263
               0.23128650     0.31572767     0.41458969     0.53033537
               0.66584808     0.82450364     1.01025438     1.22772762
               1.48234092     1.78043706     2.12944203     2.53805004
               3.01644009     3.57652955     4.23227104     5.00000000

     Gradients computed in reciprocal space

[...]

     Starting wfc are  153 randomized atomic wfcs

     Self-consistent Calculation

[...]

     total energy              =   -1888.13484571 Ry
     Harris-Foulkes estimate   =   -1888.13484677 Ry
     estimated scf accuracy    <       0.00000204 Ry

     iteration # 16     ecut=    36.75 Ry     beta=0.10
     Davidson diagonalization with overlap
     ethr =  1.23E-09,  avg # of iterations =  2.0

[...]

     negative rho (up, down):  1.117E+00 0.000E+00

     Adding external electric field

     Computed dipole along edir(3) :
        Dipole                0.0058 Ry au,          0.0148 Debye
        Dipole field          0.0000 Ry au

        Potential amp.       -0.0013 Ry
        Total length         45.6401 bohr

     End of self-consistent calculation

[...]

          k = 0.0570 0.0000 0.0000 ( 18573 PWs)   bands (ev):

[...]

          k =-0.0856-0.1482 0.0000 ( 18584 PWs)   bands (ev):

   -66.3701 -66.3518 -66.3333 -66.3208 -66.3019 -66.2831 -66.0819 -66.0644
   -66.0466 -48.8774 -48.8457 -48.8452 -48.5451 -48.5446 -48.5348 -48.5344
   -48.5041 -48.4857 -32.9731 -32.9650 -32.9243 -32.8649 -32.8561 -32.8342
   -32.8015 -32.7718 -32.7351 -32.7225 -32.6815 -32.6596 -32.6506 -32.6334
   -32.6054 -32.5815 -32.5485 -32.4912 -32.3964 -32.3893 -32.3806 -32.2728
   -32.2397 -32.2199 -32.2128 -32.1947 -32.0682  -3.6421  -3.5612  -2.4175
    -2.3572  -2.2097  -2.1592  -1.9293  -1.7791  -1.7298  -1.6818  -1.5114
    -1.3023  -1.2985  -1.2464  -1.1455  -1.0898  -1.0584  -0.9633  -0.7855
    -0.7833  -0.5019  -0.3287  -0.2715   0.1878   0.2595   0.7110   0.8481
     0.8585   0.9808   0.9854   1.0628   1.1042   1.2115   1.4270   1.4788
     1.4935   1.6704   1.8407   1.8959   2.0573   2.3281   2.5578   2.6763
     2.7182   2.9785   3.0516   3.1224   3.2353   3.4761   4.1086   4.2219
     4.2469   4.4696   4.4991   4.7595   4.7945   4.9443   5.0244   5.1200
     5.1719   5.3979   5.6395   6.0390   6.0999   6.3441   6.4219   6.6948

     the Fermi energy is     2.0171 ev

!    total energy              =   -1888.13484162 Ry
     Harris-Foulkes estimate   =   -1888.13484574 Ry
     estimated scf accuracy    <       0.00000100 Ry

     The total energy is the sum of the following terms:

     one-electron contribution =  -13585.29344697 Ry
     hartree contribution      =    6791.58174996 Ry
     xc contribution           =    -489.62945803 Ry
     ewald contribution        =    5395.29999085 Ry
     electric field correction =       0.00000009 Ry
     smearing contrib. (-TS)   =      -0.09367752 Ry

     convergence has been achieved in  16 iterations

 BEEF-vdW xc energy contributions
           1 :   -430.314690485605
           2 :    396.773007072288
           3 :   -338.273740255435
           4 :    268.551500178073
           5 :   -201.486835365173
           6 :    146.775476378886
           7 :   -107.897110051979
           8 :    82.7992497721286
           9 :   -66.4814564398469
          10 :    53.9707307340594
          11 :   -42.3224444164908
          12 :    31.0360717982493
          13 :   -21.1655556622521
          14 :    13.9442204580108
          15 :   -9.75922997642886
          16 :    7.90915068603488
          17 :   -7.07234182109471
          18 :    6.06344606759978
          19 :   -4.39987076236650
          20 :    2.39262567988931
          21 :  -0.781880230160255
          22 :   0.182771920852929
          23 :  -0.681704361223638
          24 :    1.79628564780148
          25 :   -2.77891886479199
          26 :    3.04653557206041
          27 :   -2.47496831672623
          28 :    1.40702305782463
          29 :  -0.408073590237336
          30 :  -6.162590613541852E-002
          31 :   -39.0387315336662
          32 :   -28.9907453383146

     Forces acting on atoms (Ry/au):

     negative rho (up, down):  1.117E+00 0.000E+00
     atom    1 type  1   force =     0.00000061    0.00521822    0.01386887
     atom    2 type  1   force =     0.00451903   -0.00260880    0.01386851
     atom    3 type  1   force =    -0.00451875   -0.00260948    0.01386864
     atom    4 type  2   force =    -0.00000006   -0.00000015    0.00200955
     atom    5 type  1   force =     0.00000014    0.00412464   -0.00980634
     atom    6 type  1   force =     0.00357253   -0.00206216   -0.00980674
     atom    7 type  1   force =    -0.00357281   -0.00206277   -0.00980809
     atom    8 type  2   force =    -0.00000040   -0.00000011   -0.01450283
     atom    9 type  1   force =     0.00000031   -0.00014431   -0.00001388
     atom   10 type  1   force =    -0.00012301    0.00007292   -0.00001415
     atom   11 type  1   force =     0.00012170    0.00007209   -0.00001560
     atom   12 type  2   force =     0.00000071   -0.00000008    0.00035206

     Total force =     0.034826     Total SCF correction =     0.002132

     entering subroutine stress ...

     negative rho (up, down):  1.117E+00 0.000E+00
          total   stress  (Ry/bohr**3)                   (kbar)     P=  -23.47
  -0.00019926  -0.00000000  -0.00000000        -29.31     -0.00     -0.00
  -0.00000000  -0.00019926  -0.00000000         -0.00    -29.31     -0.00
  -0.00000000  -0.00000000  -0.00008002         -0.00     -0.00    -11.77

 !ASE

     Writing output data file calc.save

     General routines

     Parallel routines

   This run was terminated on:  18:33:51   1Jan2019

   JOB DONE.
Job  /afs/slac/g/suncat/bin/suncat-tsmpirun -x LD_LIBRARY_PATH -wdir /scratch/qe649121_UTsQD pw.x -in pw.inp

TID   HOST_NAME   COMMAND_LINE            STATUS            TERMINATION_TIME
00000 suncat0146 pw.x -in pw.inp   Done                     01/01/2019 18:33:51
00001 suncat0146 pw.x -in pw.inp   Done                     01/01/2019 18:33:51
00002 suncat0146 pw.x -in pw.inp   Done                     01/01/2019 18:33:51
00003 suncat0146 pw.x -in pw.inp   Done                     01/01/2019 18:33:51
00004 suncat0146 pw.x -in pw.inp   Done                     01/01/2019 18:33:51
00005 suncat0146 pw.x -in pw.inp   Done                     01/01/2019 18:33:51
00006 suncat0146 pw.x -in pw.inp   Done                     01/01/2019 18:33:51
00007 suncat0146 pw.x -in pw.inp   Done                     01/01/2019 18:33:51
00008 suncat0136 pw.x -in pw.inp   Done                     01/01/2019 18:33:51
00009 suncat0136 pw.x -in pw.inp   Done                     01/01/2019 18:33:51
00010 suncat0136 pw.x -in pw.inp   Done                     01/01/2019 18:33:51
00011 suncat0136 pw.x -in pw.inp   Done                     01/01/2019 18:33:51
00012 suncat0136 pw.x -in pw.inp   Done                     01/01/2019 18:33:51
00013 suncat0136 pw.x -in pw.inp   Done                     01/01/2019 18:33:51
00014 suncat0136 pw.x -in pw.inp   Done                     01/01/2019 18:33:51
00015 suncat0136 pw.x -in pw.inp   Done                     01/01/2019 18:33:51
00016 suncat0248 pw.x -in pw.inp   Done                     01/01/2019 18:33:51
00017 suncat0248 pw.x -in pw.inp   Done                     01/01/2019 18:33:51
00018 suncat0248 pw.x -in pw.inp   Done                     01/01/2019 18:33:51
00019 suncat0248 pw.x -in pw.inp   Done                     01/01/2019 18:33:51
00020 suncat0248 pw.x -in pw.inp   Done                     01/01/2019 18:33:51
00021 suncat0248 pw.x -in pw.inp   Done                     01/01/2019 18:33:51
00022 suncat0248 pw.x -in pw.inp   Done                     01/01/2019 18:33:51
00023 suncat0248 pw.x -in pw.inp   Done                     01/01/2019 18:33:51
00024 suncat0247 pw.x -in pw.inp   Done                     01/01/2019 18:33:51
00025 suncat0247 pw.x -in pw.inp   Done                     01/01/2019 18:33:51
00026 suncat0247 pw.x -in pw.inp   Done                     01/01/2019 18:33:51
00027 suncat0247 pw.x -in pw.inp   Done                     01/01/2019 18:33:51
00028 suncat0247 pw.x -in pw.inp   Done                     01/01/2019 18:33:51
00029 suncat0247 pw.x -in pw.inp   Done                     01/01/2019 18:33:51
00030 suncat0247 pw.x -in pw.inp   Done                     01/01/2019 18:33:51
00031 suncat0247 pw.x -in pw.inp   Done                     01/01/2019 18:33:51
00032 suncat0246 pw.x -in pw.inp   Done                     01/01/2019 18:33:51
00033 suncat0246 pw.x -in pw.inp   Done                     01/01/2019 18:33:51
00034 suncat0246 pw.x -in pw.inp   Done                     01/01/2019 18:33:51
00035 suncat0246 pw.x -in pw.inp   Done                     01/01/2019 18:33:51
00036 suncat0246 pw.x -in pw.inp   Done                     01/01/2019 18:33:51
00037 suncat0246 pw.x -in pw.inp   Done                     01/01/2019 18:33:51
00038 suncat0246 pw.x -in pw.inp   Done                     01/01/2019 18:33:51
00039 suncat0246 pw.x -in pw.inp   Done                     01/01/2019 18:33:51
00040 suncat0245 pw.x -in pw.inp   Done                     01/01/2019 18:33:51
00041 suncat0245 pw.x -in pw.inp   Done                     01/01/2019 18:33:51
00042 suncat0245 pw.x -in pw.inp   Done                     01/01/2019 18:33:51
00043 suncat0245 pw.x -in pw.inp   Done                     01/01/2019 18:33:51
00044 suncat0245 pw.x -in pw.inp   Done                     01/01/2019 18:33:51
00045 suncat0245 pw.x -in pw.inp   Done                     01/01/2019 18:33:51
00046 suncat0245 pw.x -in pw.inp   Done                     01/01/2019 18:33:51
00047 suncat0245 pw.x -in pw.inp   Done                     01/01/2019 18:33:51
00048 suncat0214 pw.x -in pw.inp   Done                     01/01/2019 18:33:51
00049 suncat0214 pw.x -in pw.inp   Done                     01/01/2019 18:33:51
00050 suncat0214 pw.x -in pw.inp   Done                     01/01/2019 18:33:51
00051 suncat0214 pw.x -in pw.inp   Done                     01/01/2019 18:33:51
00052 suncat0214 pw.x -in pw.inp   Done                     01/01/2019 18:33:51
00053 suncat0214 pw.x -in pw.inp   Done                     01/01/2019 18:33:51
00054 suncat0214 pw.x -in pw.inp   Done                     01/01/2019 18:33:51
00055 suncat0214 pw.x -in pw.inp   Done                     01/01/2019 18:33:51
00056 suncat0213 pw.x -in pw.inp   Done                     01/01/2019 18:33:51
00057 suncat0213 pw.x -in pw.inp   Done                     01/01/2019 18:33:51
00058 suncat0213 pw.x -in pw.inp   Done                     01/01/2019 18:33:51
00059 suncat0213 pw.x -in pw.inp   Done                     01/01/2019 18:33:51
00060 suncat0213 pw.x -in pw.inp   Done                     01/01/2019 18:33:51
00061 suncat0213 pw.x -in pw.inp   Done                     01/01/2019 18:33:51
00062 suncat0213 pw.x -in pw.inp   Done                     01/01/2019 18:33:51
00063 suncat0213 pw.x -in pw.inp   Done                     01/01/2019 18:33:51