     Program PWSCF v.5.1rc2 (svn rev. 11289) starts on 26Dec2018 at  1:54: 7

     Current dimensions of program PWSCF are:
     Max number of different atomic species (ntypx) = 10
     Max number of k-points (npk) =  40000
     Max angular momentum in pseudopotentials (lmaxx) =  3
     Presently stress not available with electric field

     IMPORTANT: XC functional enforced from input :
     Exchange-correlation      = BEEF-VDW ( 1  4 27 13 2)
     Any further DFT definition will be discarded
     Please, verify this is what you really want

     Subspace diagonalization in iterative solution of the eigenvalue problem:
     a serial algorithm will be used

     bravais-lattice index     =            0
     lattice parameter (alat)  =       1.8897  a.u.
     unit-cell volume          =    4714.2889 (a.u.)^3
     number of atoms/cell      =           12
     number of atomic types    =            2
     number of electrons       =       210.00
     number of Kohn-Sham states=          135
     kinetic-energy cutoff     =      36.7493  Ry
     charge density cutoff     =     367.4932  Ry
     convergence threshold     =      1.0E-06
     mixing beta               =       0.1000
     number of iterations used =           10  plain     mixing
     Exchange-correlation      = BEEF-VDW ( 1  4 27 13 2)
     nstep                     =           50

     celldm(1)=   1.889726  celldm(2)=   0.000000  celldm(3)=   0.000000
     celldm(4)=   0.000000  celldm(5)=   0.000000  celldm(6)=   0.000000

     crystal axes: (cart. coord. in units of alat)
               a(1) = (   5.718324   0.000000   0.000000 )
               a(2) = (  -2.859162   4.952214   0.000000 )
               a(3) = (   0.000000   0.000000  24.668992 )

     reciprocal axes: (cart. coord. in units 2 pi/alat)
               b(1) = (  0.174876  0.100965  0.000000 )
               b(2) = (  0.000000  0.201930  0.000000 )
               b(3) = (  0.000000  0.000000  0.040537 )

     PseudoPot. # 1 for Ga read from file:
     /afs/slac.stanford.edu/u/if/mamunm/psp/gbrv1.5pbe/Ga.UPF
     MD5 check sum: ccd671392a58a050fbb373893b4fcd66
     Pseudo is Ultrasoft + core correction, Zval = 19.0
     Generated by new atomic code, or converted to UPF format
     Using radial grid of  871 points,  6 beta functions with:
                l(1) =   0
                l(2) =   0
                l(3) =   1
                l(4) =   1
                l(5) =   2
                l(6) =   2
     Q(r) pseudized with  8 coefficients,  rinner =    1.250   1.250   1.250
                                                       1.250   1.250

     PseudoPot. # 2 for Nb read from file:
     /afs/slac.stanford.edu/u/if/mamunm/psp/gbrv1.5pbe/Nb.UPF
     MD5 check sum: 573aab8a2fa660278ed4a62cd769473f
     Pseudo is Ultrasoft + core correction, Zval = 13.0
     Generated by new atomic code, or converted to UPF format
     Using radial grid of  887 points,  6 beta functions with:
                l(1) =   0
                l(2) =   0
                l(3) =   1
                l(4) =   1
                l(5) =   2
                l(6) =   2
     Q(r) pseudized with  6 coefficients,  rinner =    1.000   1.000   1.000
                                                       1.000   1.000

     vdW kernel table read from file vdW_kernel_table
     MD5 check sum: 095c7af220d748ca6e76c0b4c6cfb241

     atomic species   valence    mass     pseudopotential
        Ga1           19.00    69.72300     Ga( 1.00)
        Nb1           13.00    92.90637     Nb( 1.00)

     No symmetry found

   Cartesian axes

     site n.     atom                  positions (alat units)
         1           Ga1 tau(   1) = (   0.0000000   0.0000000  10.0000000  )
         2           Ga1 tau(   2) = (  -1.4295811   2.4761070  10.0000000  )
         3           Ga1 tau(   3) = (   1.4295811   2.4761070  10.0000000  )
         4           Nb1 tau(   4) = (   2.8591621   0.0000000  10.0000000  )
         5           Ga1 tau(   5) = (   2.8591621   1.6507380  12.3344961  )
         6           Ga1 tau(   6) = (   1.4295811   4.1268451  12.3344961  )
         7           Ga1 tau(   7) = (  -1.4295811   4.1268451  12.3344961  )
         8           Nb1 tau(   8) = (   0.0000000   1.6507380  12.3344961  )
         9           Ga1 tau(   9) = (  -0.0000000   3.3014761  14.6689922  )
        10           Ga1 tau(  10) = (   1.4295811   0.8253690  14.6689922  )
        11           Ga1 tau(  11) = (   4.2887432   0.8253690  14.6689922  )
        12           Nb1 tau(  12) = (   2.8591621   3.3014761  14.6689922  )

     number of k points=    20  Fermi-Dirac smearing, width (Ry)=  0.0110
                       cart. coord. in units 2pi/alat
        k(    1) = (   0.0000000   0.0000000   0.0000000), wk =   0.0555556
        k(    2) = (   0.0000000   0.0336550   0.0000000), wk =   0.1111111
        k(    3) = (   0.0000000   0.0673100   0.0000000), wk =   0.1111111
        k(    4) = (   0.0000000  -0.1009649   0.0000000), wk =   0.0555556
        k(    5) = (   0.0291461   0.0168275   0.0000000), wk =   0.1111111
        k(    6) = (   0.0291461   0.0504825   0.0000000), wk =   0.1111111
        k(    7) = (   0.0291461   0.0841375   0.0000000), wk =   0.1111111
        k(    8) = (   0.0291461  -0.0841375   0.0000000), wk =   0.1111111
        k(    9) = (   0.0291461  -0.0504825   0.0000000), wk =   0.1111111
        k(   10) = (   0.0291461  -0.0168275   0.0000000), wk =   0.1111111
        k(   11) = (   0.0582921   0.0336550   0.0000000), wk =   0.1111111
        k(   12) = (   0.0582921   0.0673100   0.0000000), wk =   0.1111111
        k(   13) = (   0.0582921   0.1009649   0.0000000), wk =   0.1111111
        k(   14) = (   0.0582921  -0.0673100   0.0000000), wk =   0.1111111
        k(   15) = (   0.0582921  -0.0336550   0.0000000), wk =   0.1111111
        k(   16) = (   0.0582921   0.0000000   0.0000000), wk =   0.1111111
        k(   17) = (  -0.0874382  -0.0504825   0.0000000), wk =   0.0555556
        k(   18) = (  -0.0874382  -0.0168275   0.0000000), wk =   0.1111111
        k(   19) = (  -0.0874382   0.0168275   0.0000000), wk =   0.1111111
        k(   20) = (  -0.0874382  -0.1514474   0.0000000), wk =   0.0555556

     Largest allocated arrays     est. size (Mb)     dimensions
     Largest temporary arrays     est. size (Mb)     dimensions

     Initial potential from superposition of free atoms
     Check: negative starting charge=   -0.002871

     starting charge  200.99179, renormalised to  210.00000

     negative rho (up, down):  3.000E-03 0.000E+00

     *
     * You are using vdW-DF for exchange-correlation in this calculation.
     * Please cite the following three references that made this development
     * possible:
     *
     *   M. Dion, H. Rydberg, E. Schroder, D. C. Langreth, and
     *   B. I. Lundqvist, Phys. Rev. Lett. 92, 246401 (2004).
     *
     *   T. Thonhauser, V. R. Cooper, S. Li, A. Puzder, P. Hyldgaard, and
     *   D. C. Langreth, Phys. Rev. B 76, 125112 (2007).
     *
     *   G. Roman-Perez and J. M. Soler, Phys. Rev. Lett. 103, 096102 (2009).
     *
     *
     * If you are using vdW-DF2, please also cite:
     *
     *   K. Lee, E. D. Murray, L. Kong, B. I. Lundqvist, and
     *   D. C. Langreth, Phys. Rev. B 82, 081101(R) (2010).
     *
     *
     * If you are calculating the stress with vdW-DF, please also cite:
     *
     *   R. Sabatini, E. Kucukbenli, B. Kolb, T. Thonhauser, and
     *   S. de Gironcoli, J. Phys.: Condens. Matter 24, 424209 (2012).
     *

     Carrying out vdW-DF run using the following parameters:

     Nqs =      20    Nr_points =    1024   r_max =   100.000
     q_mesh =
               0.00001000     0.04494208     0.09755937     0.15916263
               0.23128650     0.31572767     0.41458969     0.53033537
               0.66584808     0.82450364     1.01025438     1.22772762
               1.48234092     1.78043706     2.12944203     2.53805004
               3.01644009     3.57652955     4.23227104     5.00000000

     Gradients computed in reciprocal space

     Adding external electric field

     Computed dipole along edir(3) :
        Dipole               -0.0000 Ry au,         -0.0000 Debye
        Dipole field         -0.0000 Ry au

        Potential amp.        0.0000 Ry
        Total length         45.4522 bohr

     Starting wfc are  147 randomized atomic wfcs

     Self-consistent Calculation

     iteration #  1     ecut=    36.75 Ry     beta=0.10
     Davidson diagonalization with overlap
     ethr =  1.00E-02,  avg # of iterations =  7.5

[...]

     total energy              =   -4106.79892280 Ry
     Harris-Foulkes estimate   =   -4116.34810278 Ry
     estimated scf accuracy    <      54.03544340 Ry

[...]

     End of self-consistent calculation

          k = 0.0000 0.0000 0.0000 ( 17777 PWs)   bands (ev):

   -94.0173 -94.0151 -94.0139 -93.9685 -93.9679 -93.9662 -93.9598 -93.9587
   -93.9575 -93.7137 -93.7137 -93.7118 -93.7118 -93.7118 -93.7117 -93.6813
   -93.6812 -93.6794 -93.6794 -93.6794 -93.6794 -93.6403 -93.6403 -93.6403
   -93.6403 -93.6390 -93.6389 -54.7138 -54.7138 -54.5206 -30.8050 -30.8032
   -30.6914 -30.6914 -30.6910 -30.6910 -30.5967 -30.5967 -30.5524 -14.5673
   -14.5198 -14.5192 -14.5001 -14.4128 -14.4049 -14.4046 -14.3371 -14.3368
   -14.3081 -14.2761 -14.2753 -14.2712 -14.2706 -14.2479 -14.2473 -14.1703
   -14.1703 -14.1475 -14.1475 -14.1428 -14.1216 -14.1172 -14.0717 -14.0611
   -14.0544 -14.0544 -14.0104 -14.0104 -13.9725 -13.9725 -13.9616 -13.9616
   -13.9568 -13.9568 -13.9509 -13.9504 -13.9504 -13.9262 -13.9262 -13.9137
   -13.8959 -13.8959 -13.7972 -13.7970  -9.8238  -8.0261  -6.0010  -4.9394
    -4.9393  -3.9853  -3.9853  -3.2094  -3.1229  -3.1229  -2.2811  -1.8123
    -1.6319  -1.6319  -1.0267   0.0280   0.0280   0.1718   0.2563   0.2563
     0.8143   0.8143   0.9220   0.9220   1.4471   1.6784   2.0144   2.0144
     3.0557   3.0557   3.0835   3.0835   3.4041   3.7921   3.7957   3.7958
     4.2525   4.3531   4.9294   5.1085   5.6966   5.6966   5.9151   6.1181
     6.2213   6.2213   6.3945   6.6381   6.7360   7.9547   8.0470

[...]

          k =-0.0874-0.0505 0.0000 ( 17736 PWs)   bands (ev):

[...]

     the Fermi energy is     0.9791 ev

!    total energy              =   -4104.97926460 Ry
     Harris-Foulkes estimate   =   -4104.97925995 Ry
     estimated scf accuracy    <       0.00000080 Ry

     The total energy is the sum of the following terms:

     one-electron contribution =  -25554.17723407 Ry
     hartree contribution      =   12780.96656375 Ry
     xc contribution           =    -505.14086533 Ry
     ewald contribution        =    9173.41128074 Ry
     electric field correction =       0.00000000 Ry
     smearing contrib. (-TS)   =      -0.03900970 Ry

     convergence has been achieved in  18 iterations

 BEEF-vdW xc energy contributions
           1 :   -449.154592280035
           2 :    408.419325758310
           3 :   -339.798751047492
           4 :    262.837543854083
           5 :   -195.152014799460
           6 :    145.868393800941
           7 :   -114.156688537924
           8 :    92.7902797499527
           9 :   -73.9930397431430
[...]
     Generated by new atomic code, or converted to UPF format
     Using radial grid of  871 points,  6 beta functions with:
                l(1) =   0
                l(2) =   0
                l(3) =   1
                l(4) =   1
                l(5) =   2
                l(6) =   2
     Q(r) pseudized with  8 coefficients,  rinner =    1.250   1.250   1.250
                                                       1.250   1.250

     PseudoPot. # 2 for Nb read from file:
     /afs/slac.stanford.edu/u/if/mamunm/psp/gbrv1.5pbe/Nb.UPF
     MD5 check sum: 573aab8a2fa660278ed4a62cd769473f
     Pseudo is Ultrasoft + core correction, Zval = 13.0
     Generated by new atomic code, or converted to UPF format
     Using radial grid of  887 points,  6 beta functions with:
                l(1) =   0
                l(2) =   0
                l(3) =   1
                l(4) =   1
                l(5) =   2
                l(6) =   2
     Q(r) pseudized with  6 coefficients,  rinner =    1.000   1.000   1.000
                                                       1.000   1.000

     vdW kernel table read from file vdW_kernel_table
     MD5 check sum: 095c7af220d748ca6e76c0b4c6cfb241

     atomic species   valence    mass     pseudopotential
        Ga1           19.00    69.72300     Ga( 1.00)
        Nb1           13.00    92.90637     Nb( 1.00)

     No symmetry found

   Cartesian axes

     site n.     atom                  positions (alat units)
         1           Ga1 tau(   1) = (   0.0000000   0.0000000  10.0000000  )
         2           Ga1 tau(   2) = (  -1.4295811   2.4761070  10.0000000  )
         3           Ga1 tau(   3) = (   1.4295811   2.4761070  10.0000000  )
         4           Nb1 tau(   4) = (   2.8591621   0.0000000  10.0000000  )
         5           Ga1 tau(   5) = (   2.8591621   1.6507380  12.3344961  )
         6           Ga1 tau(   6) = (   1.4295811   4.1268451  12.3344961  )
         7           Ga1 tau(   7) = (  -1.4295811   4.1268451  12.3344961  )
         8           Nb1 tau(   8) = (   0.0000000   1.6507380  12.3344961  )
         9           Ga1 tau(   9) = (   0.0000478   3.2935316  14.9082251  )
        10           Ga1 tau(  10) = (   1.4227567   0.8293074  14.9082340  )
        11           Ga1 tau(  11) = (   4.2955797   0.8293117  14.9081645  )
        12           Nb1 tau(  12) = (   2.8591831   3.3014795  14.4427038  )

     number of k points=    20  Fermi-Dirac smearing, width (Ry)=  0.0110
                       cart. coord. in units 2pi/alat
        k(    1) = (   0.0000000   0.0000000   0.0000000), wk =   0.0555556
        k(    2) = (   0.0000000   0.0336550   0.0000000), wk =   0.1111111
        k(    3) = (   0.0000000   0.0673100   0.0000000), wk =   0.1111111
        k(    4) = (   0.0000000  -0.1009649   0.0000000), wk =   0.0555556
        k(    5) = (   0.0291461   0.0168275   0.0000000), wk =   0.1111111
        k(    6) = (   0.0291461   0.0504825   0.0000000), wk =   0.1111111
        k(    7) = (   0.0291461   0.0841375   0.0000000), wk =   0.1111111
        k(    8) = (   0.0291461  -0.0841375   0.0000000), wk =   0.1111111
        k(    9) = (   0.0291461  -0.0504825   0.0000000), wk =   0.1111111
        k(   10) = (   0.0291461  -0.0168275   0.0000000), wk =   0.1111111
        k(   11) = (   0.0582921   0.0336550   0.0000000), wk =   0.1111111
        k(   12) = (   0.0582921   0.0673100   0.0000000), wk =   0.1111111
        k(   13) = (   0.0582921   0.1009649   0.0000000), wk =   0.1111111
        k(   14) = (   0.0582921  -0.0673100   0.0000000), wk =   0.1111111
        k(   15) = (   0.0582921  -0.0336550   0.0000000), wk =   0.1111111
        k(   16) = (   0.0582921   0.0000000   0.0000000), wk =   0.1111111
        k(   17) = (  -0.0874382  -0.0504825   0.0000000), wk =   0.0555556
        k(   18) = (  -0.0874382  -0.0168275   0.0000000), wk =   0.1111111
        k(   19) = (  -0.0874382   0.0168275   0.0000000), wk =   0.1111111
        k(   20) = (  -0.0874382  -0.1514474   0.0000000), wk =   0.0555556

     Largest allocated arrays     est. size (Mb)     dimensions
     Largest temporary arrays     est. size (Mb)     dimensions

     Initial potential from superposition of free atoms
     Check: negative starting charge=   -0.002956

     starting charge  200.99179, renormalised to  210.00000

[...]

     *
     * You are using vdW-DF for exchange-correlation in this calculation.
     * Please cite the following three references that made this development
     * possible:
     *
     *   M. Dion, H. Rydberg, E. Schroder, D. C. Langreth, and
     *   B. I. Lundqvist, Phys. Rev. Lett. 92, 246401 (2004).
     *
     *   T. Thonhauser, V. R. Cooper, S. Li, A. Puzder, P. Hyldgaard, and
     *   D. C. Langreth, Phys. Rev. B 76, 125112 (2007).
     *
     *   G. Roman-Perez and J. M. Soler, Phys. Rev. Lett. 103, 096102 (2009).
     *
     *
     * If you are using vdW-DF2, please also cite:
     *
     *   K. Lee, E. D. Murray, L. Kong, B. I. Lundqvist, and
     *   D. C. Langreth, Phys. Rev. B 82, 081101(R) (2010).
     *
     *
     * If you are calculating the stress with vdW-DF, please also cite:
     *
     *   R. Sabatini, E. Kucukbenli, B. Kolb, T. Thonhauser, and
     *   S. de Gironcoli, J. Phys.: Condens. Matter 24, 424209 (2012).
     *

     Carrying out vdW-DF run using the following parameters:

     Nqs =      20    Nr_points =    1024   r_max =   100.000
     q_mesh =
               0.00001000     0.04494208     0.09755937     0.15916263
               0.23128650     0.31572767     0.41458969     0.53033537
               0.66584808     0.82450364     1.01025438     1.22772762
               1.48234092     1.78043706     2.12944203     2.53805004
               3.01644009     3.57652955     4.23227104     5.00000000

     Gradients computed in reciprocal space

[...]

     Starting wfc are  147 randomized atomic wfcs

     Self-consistent Calculation

[...]

     total energy              =   -4105.04932890 Ry
     Harris-Foulkes estimate   =   -4105.04932851 Ry
     estimated scf accuracy    <       0.00000499 Ry

     iteration # 17     ecut=    36.75 Ry     beta=0.10
     Davidson diagonalization with overlap
     ethr =  2.18E-09,  avg # of iterations =  1.2

[...]

     negative rho (up, down):  2.542E-03 0.000E+00

     Adding external electric field

     Computed dipole along edir(3) :
        Dipole                0.0241 Ry au,          0.0614 Debye
        Dipole field          0.0001 Ry au

        Potential amp.       -0.0059 Ry
        Total length         45.4522 bohr

     End of self-consistent calculation

[...]

          k = 0.0583 0.0000 0.0000 ( 17753 PWs)   bands (ev):

[...]

          k =-0.0874-0.1514 0.0000 ( 17736 PWs)   bands (ev):

   -93.9011 -93.9003 -93.8995 -93.8494 -93.8490 -93.8485 -93.8369 -93.8364
   -93.8360 -93.7851 -93.7846 -93.7842 -93.7582 -93.7574 -93.7566 -93.7071
   -93.7066 -93.7061 -93.6430 -93.6423 -93.6416 -93.6097 -93.6091 -93.6085
   -93.5705 -93.5700 -93.5695 -54.6910 -54.5326 -54.4989 -30.8014 -30.6571
   -30.6553 -30.5818 -30.5741 -30.5695 -30.5528 -30.5496 -30.5130 -14.3971
   -14.3303 -14.3156 -14.2830 -14.2703 -14.2615 -14.2559 -14.2458 -14.2381
   -14.2348 -14.2340 -14.2167 -14.2023 -14.1698 -14.1557 -14.1545 -14.1390
   -14.1161 -14.1112 -14.1041 -14.1019 -14.0752 -14.0732 -14.0666 -14.0644
   -14.0644 -14.0615 -14.0396 -14.0170 -14.0144 -14.0047 -13.9999 -13.9773
   -13.9631 -13.9412 -13.9382 -13.9379 -13.9356 -13.9268 -13.9242 -13.9228
   -13.8968 -13.8727 -13.8682 -13.8003  -8.2168  -7.8283  -6.4195  -6.3443
    -5.3968  -5.0515  -4.5599  -3.6726  -3.0512  -2.3150  -2.0086  -1.6147
    -1.2768  -0.8757  -0.7628  -0.6426  -0.4991  -0.0184   0.2939   0.8039
     1.1256   1.5879   1.7987   1.9562   2.0366   2.2422   2.2774   2.4733
     2.6869   2.8616   3.5980   3.6848   3.8663   4.0758   4.1244   4.4680
     4.6966   4.7699   4.9858   5.1868   5.3991   5.7684   5.9314   5.9680
     6.2014   6.3301   6.5459   6.7437   6.9047   6.9962   7.3714

     the Fermi energy is     1.0013 ev

!    total energy              =   -4105.04933419 Ry
     Harris-Foulkes estimate   =   -4105.04932906 Ry
     estimated scf accuracy    <       0.00000099 Ry

     The total energy is the sum of the following terms:

     one-electron contribution =  -25046.24227909 Ry
     hartree contribution      =   12527.33025803 Ry
     xc contribution           =    -505.07308139 Ry
     ewald contribution        =    8918.96728485 Ry
     electric field correction =       0.00000155 Ry
     smearing contrib. (-TS)   =      -0.03151816 Ry

     convergence has been achieved in  17 iterations

 BEEF-vdW xc energy contributions
           1 :   -449.688716457683
           2 :    408.900741997252
           3 :   -340.211179193918
           4 :    263.211428333684
           5 :   -195.541358333247
           6 :    146.313331523247
           7 :   -114.656256902907
           8 :    93.3045714466143
           9 :   -74.4743991679610
          10 :    54.3939081853781
          11 :   -34.2324713886904
          12 :    17.6714315201004
          13 :   -7.37592214444874
          14 :    2.90083899744968
          15 :   -1.19301122758816
          16 :   -1.09623341186000
          17 :    5.38530474557354
          18 :   -10.5944954874788
          19 :    14.4187268702198
          20 :   -15.3016791988426
          21 :    13.6024846085823
          22 :   -11.2050877676909
          23 :    10.0262361599823
          24 :   -10.6387224602400
          25 :    12.0168931031749
          26 :   -12.4943304596399
          27 :    11.1149087330468
          28 :   -8.34013492140593
          29 :    5.63632088780224
          30 :   -4.33944149043623
          31 :   -35.1220918000867
          32 :   -24.4226560498411

     Forces acting on atoms (Ry/au):

     negative rho (up, down):  2.542E-03 0.000E+00
     atom    1 type  1   force =     0.00000184    0.00096252   -0.03752151
     atom    2 type  1   force =     0.00082825   -0.00048373   -0.03752584
     atom    3 type  1   force =    -0.00082975   -0.00048424   -0.03752545
     atom    4 type  2   force =     0.00000066    0.00000042    0.10610550
     atom    5 type  1   force =    -0.00000193   -0.01304309   -0.00500027
     atom    6 type  1   force =    -0.01130826    0.00651937   -0.00500261
     atom    7 type  1   force =     0.01130971    0.00652660   -0.00500334
     atom    8 type  2   force =     0.00000274    0.00000089    0.02084096
     atom    9 type  1   force =    -0.00000198   -0.00003389    0.00022347
     atom   10 type  1   force =    -0.00003034    0.00002004    0.00021866
     atom   11 type  1   force =     0.00002847    0.00001576    0.00022242
     atom   12 type  2   force =     0.00000058   -0.00000065   -0.00003199

     Total force =     0.128475     Total SCF correction =     0.004217

     entering subroutine stress ...

     negative rho (up, down):  2.542E-03 0.000E+00
          total   stress  (Ry/bohr**3)                   (kbar)     P=  -19.02
  -0.00019664   0.00000000  -0.00000000        -28.93      0.00     -0.00
   0.00000000  -0.00019664   0.00000000          0.00    -28.93      0.00
  -0.00000000   0.00000000   0.00000543         -0.00      0.00      0.80

 !ASE

     Writing output data file calc.save

     General routines

     Parallel routines

   This run was terminated on:   4: 2: 2  26Dec2018

   JOB DONE.
Job  /afs/slac/g/suncat/bin/suncat-tsmpirun -x LD_LIBRARY_PATH -wdir /scratch/qe109686_xUqZy pw.x -in pw.inp

TID   HOST_NAME   COMMAND_LINE            STATUS            TERMINATION_TIME
00000 suncat0075 pw.x -in pw.inp   Done                     12/26/2018 04:02:02
00001 suncat0075 pw.x -in pw.inp   Done                     12/26/2018 04:02:02
00002 suncat0075 pw.x -in pw.inp   Done                     12/26/2018 04:02:02
00003 suncat0075 pw.x -in pw.inp   Done                     12/26/2018 04:02:02
00004 suncat0075 pw.x -in pw.inp   Done                     12/26/2018 04:02:02
00005 suncat0075 pw.x -in pw.inp   Done                     12/26/2018 04:02:02
00006 suncat0075 pw.x -in pw.inp   Done                     12/26/2018 04:02:02
00007 suncat0075 pw.x -in pw.inp   Done                     12/26/2018 04:02:02
00008 suncat0074 pw.x -in pw.inp   Done                     12/26/2018 04:02:02
00009 suncat0074 pw.x -in pw.inp   Done                     12/26/2018 04:02:02
00010 suncat0074 pw.x -in pw.inp   Done                     12/26/2018 04:02:02
00011 suncat0074 pw.x -in pw.inp   Done                     12/26/2018 04:02:02
00012 suncat0074 pw.x -in pw.inp   Done                     12/26/2018 04:02:02
00013 suncat0074 pw.x -in pw.inp   Done                     12/26/2018 04:02:02
00014 suncat0074 pw.x -in pw.inp   Done                     12/26/2018 04:02:02
00015 suncat0074 pw.x -in pw.inp   Done                     12/26/2018 04:02:02
00016 suncat0172 pw.x -in pw.inp   Done                     12/26/2018 04:02:02
00017 suncat0172 pw.x -in pw.inp   Done                     12/26/2018 04:02:02
00018 suncat0172 pw.x -in pw.inp   Done                     12/26/2018 04:02:02
00019 suncat0172 pw.x -in pw.inp   Done                     12/26/2018 04:02:02
00020 suncat0172 pw.x -in pw.inp   Done                     12/26/2018 04:02:02
00021 suncat0172 pw.x -in pw.inp   Done                     12/26/2018 04:02:02
00022 suncat0172 pw.x -in pw.inp   Done                     12/26/2018 04:02:02
00023 suncat0172 pw.x -in pw.inp   Done                     12/26/2018 04:02:02
00024 suncat0171 pw.x -in pw.inp   Done                     12/26/2018 04:02:02
00025 suncat0171 pw.x -in pw.inp   Done                     12/26/2018 04:02:02
00026 suncat0171 pw.x -in pw.inp   Done                     12/26/2018 04:02:02
00027 suncat0171 pw.x -in pw.inp   Done                     12/26/2018 04:02:02
00028 suncat0171 pw.x -in pw.inp   Done                     12/26/2018 04:02:02
00029 suncat0171 pw.x -in pw.inp   Done                     12/26/2018 04:02:02
00030 suncat0171 pw.x -in pw.inp   Done                     12/26/2018 04:02:02
00031 suncat0171 pw.x -in pw.inp   Done                     12/26/2018 04:02:02
00032 suncat0270 pw.x -in pw.inp   Done                     12/26/2018 04:02:02
00033 suncat0270 pw.x -in pw.inp   Done                     12/26/2018 04:02:02
00034 suncat0270 pw.x -in pw.inp   Done                     12/26/2018 04:02:02
00035 suncat0270 pw.x -in pw.inp   Done                     12/26/2018 04:02:02
00036 suncat0270 pw.x -in pw.inp   Done                     12/26/2018 04:02:02
00037 suncat0270 pw.x -in pw.inp   Done                     12/26/2018 04:02:02
00038 suncat0270 pw.x -in pw.inp   Done                     12/26/2018 04:02:02
00039 suncat0270 pw.x -in pw.inp   Done                     12/26/2018 04:02:02
00040 suncat0268 pw.x -in pw.inp   Done                     12/26/2018 04:02:02
00041 suncat0268 pw.x -in pw.inp   Done                     12/26/2018 04:02:02
00042 suncat0268 pw.x -in pw.inp   Done                     12/26/2018 04:02:02
00043 suncat0268 pw.x -in pw.inp   Done                     12/26/2018 04:02:02
00044 suncat0268 pw.x -in pw.inp   Done                     12/26/2018 04:02:02
00045 suncat0268 pw.x -in pw.inp   Done                     12/26/2018 04:02:02
00046 suncat0268 pw.x -in pw.inp   Done                     12/26/2018 04:02:02
00047 suncat0268 pw.x -in pw.inp   Done                     12/26/2018 04:02:02
00048 suncat0207 pw.x -in pw.inp   Done                     12/26/2018 04:02:02
00049 suncat0207 pw.x -in pw.inp   Done                     12/26/2018 04:02:02
00050 suncat0207 pw.x -in pw.inp   Done                     12/26/2018 04:02:02
00051 suncat0207 pw.x -in pw.inp   Done                     12/26/2018 04:02:02
00052 suncat0207 pw.x -in pw.inp   Done                     12/26/2018 04:02:02
00053 suncat0207 pw.x -in pw.inp   Done                     12/26/2018 04:02:02
00054 suncat0207 pw.x -in pw.inp   Done                     12/26/2018 04:02:02
00055 suncat0207 pw.x -in pw.inp   Done                     12/26/2018 04:02:02
00056 suncat0206 pw.x -in pw.inp   Done                     12/26/2018 04:02:02
00057 suncat0206 pw.x -in pw.inp   Done                     12/26/2018 04:02:02
00058 suncat0206 pw.x -in pw.inp   Done                     12/26/2018 04:02:02
00059 suncat0206 pw.x -in pw.inp   Done                     12/26/2018 04:02:02
00060 suncat0206 pw.x -in pw.inp   Done                     12/26/2018 04:02:02
00061 suncat0206 pw.x -in pw.inp   Done                     12/26/2018 04:02:02
00062 suncat0206 pw.x -in pw.inp   Done                     12/26/2018 04:02:02
00063 suncat0206 pw.x -in pw.inp   Done                     12/26/2018 04:02:02