     Program PWSCF v.5.1rc2 (svn rev. 11289) starts on  1Jan2019 at 21:28:45

     Current dimensions of program PWSCF are:
     Max number of different atomic species (ntypx) = 10
     Max number of k-points (npk) =  40000
     Max angular momentum in pseudopotentials (lmaxx) =  3
     Presently stress not available with electric field

     IMPORTANT: XC functional enforced from input :
     Exchange-correlation      = BEEF-VDW ( 1  4 27 13 2)
     Any further DFT definition will be discarded
     Please, verify this is what you really want

     Subspace diagonalization in iterative solution of the eigenvalue problem:
     a serial algorithm will be used

     bravais-lattice index     =            0
     lattice parameter (alat)  =       1.8897  a.u.
     unit-cell volume          =    4821.7808 (a.u.)^3
     number of atoms/cell      =           12
     number of atomic types    =            2
     number of electrons       =       141.00
     number of Kohn-Sham states=          100
     kinetic-energy cutoff     =      36.7493  Ry
     charge density cutoff     =     367.4932  Ry
     convergence threshold     =      1.0E-06
     mixing beta               =       0.1000
     number of iterations used =           10  plain     mixing
     Exchange-correlation      = BEEF-VDW ( 1  4 27 13 2)
     nstep                     =           50

     celldm(1)=   1.889726  celldm(2)=   0.000000  celldm(3)=   0.000000
     celldm(4)=   0.000000  celldm(5)=   0.000000  celldm(6)=   0.000000

     crystal axes: (cart. coord. in units of alat)
               a(1) = (   5.777495   0.000000   0.000000 )
               a(2) = (  -2.888747   5.003457   0.000000 )
               a(3) = (   0.000000   0.000000  24.717305 )

     reciprocal axes: (cart. coord. in units 2 pi/alat)
               b(1) = (  0.173085  0.099931  0.000000 )
               b(2) = (  0.000000  0.199862  0.000000 )
               b(3) = (  0.000000  0.000000  0.040457 )

     PseudoPot. # 1 for Ti read from file:
     /afs/slac.stanford.edu/u/if/mamunm/psp/gbrv1.5pbe/Ti.UPF
     MD5 check sum: 88a00a6731bd790ddea75d31a80cb452
     Pseudo is Ultrasoft + core correction, Zval = 12.0
     Generated by new atomic code, or converted to UPF format
     Using radial grid of  851 points,  6 beta functions with:
                l(1) =   0
                l(2) =   0
                l(3) =   1
                l(4) =   1
                l(5) =   2
                l(6) =   2
     Q(r) pseudized with  6 coefficients,  rinner =    1.000   1.000   1.000
                                                       1.000   1.000

     PseudoPot. # 2 for Au read from file:
     /afs/slac.stanford.edu/u/if/mamunm/psp/gbrv1.5pbe/Au.UPF
     MD5 check sum: 9d7f43293ad2c663164586bc4b293ffc
     Pseudo is Ultrasoft + core correction, Zval = 11.0
     Generated by new atomic code, or converted to UPF format
     Using radial grid of  985 points,  7 beta functions with:
                l(1) =   0
                l(2) =   0
                l(3) =   1
                l(4) =   1
                l(5) =   2
                l(6) =   2
                l(7) =   3
     Q(r) pseudized with  6 coefficients,  rinner =    1.900   1.900   1.900
                                                       1.900   1.900   1.900
                                                       1.900

     vdW kernel table read from file vdW_kernel_table
     MD5 check sum: 095c7af220d748ca6e76c0b4c6cfb241

     atomic species   valence    mass     pseudopotential
        Ti1           12.00    47.86700     Ti( 1.00)
        Au1           11.00   196.96657     Au( 1.00)

     No symmetry found

   Cartesian axes

     site n.     atom                  positions (alat units)
         1           Ti1 tau(   1) = (   0.0000000   0.0000000  10.0000000  )
         2           Ti1 tau(   2) = (  -1.4443737   2.5017286  10.0000000  )
         3           Ti1 tau(   3) = (   1.4443737   2.5017286  10.0000000  )
         4           Au1 tau(   4) = (   2.8887474   0.0000000  10.0000000  )
         5           Ti1 tau(   5) = (   2.8887474   1.6678191  12.3586523  )
         6           Ti1 tau(   6) = (   1.4443737   4.1695477  12.3586523  )
         7           Ti1 tau(   7) = (  -1.4443737   4.1695477  12.3586523  )
         8           Au1 tau(   8) = (   0.0000000   1.6678191  12.3586523  )
         9           Ti1 tau(   9) = (  -0.0000000   3.3356381  14.7173047  )
        10           Ti1 tau(  10) = (   1.4443737   0.8339095  14.7173047  )
        11           Ti1 tau(  11) = (   4.3331210   0.8339095  14.7173047  )
        12           Au1 tau(  12) = (   2.8887474   3.3356381  14.7173047  )

     number of k points=    20  Fermi-Dirac smearing, width (Ry)=  0.0110
                       cart. coord. in units 2pi/alat
        k(    1) = (   0.0000000   0.0000000   0.0000000), wk =   0.0555556
        k(    2) = (   0.0000000   0.0333103   0.0000000), wk =   0.1111111
        k(    3) = (   0.0000000   0.0666206   0.0000000), wk =   0.1111111
        k(    4) = (   0.0000000  -0.0999309   0.0000000), wk =   0.0555556
        k(    5) = (   0.0288476   0.0166552   0.0000000), wk =   0.1111111
        k(    6) = (   0.0288476   0.0499655   0.0000000), wk =   0.1111111
        k(    7) = (   0.0288476   0.0832758   0.0000000), wk =   0.1111111
        k(    8) = (   0.0288476  -0.0832758   0.0000000), wk =   0.1111111
        k(    9) = (   0.0288476  -0.0499655   0.0000000), wk =   0.1111111
        k(   10) = (   0.0288476  -0.0166552   0.0000000), wk =   0.1111111
        k(   11) = (   0.0576951   0.0333103   0.0000000), wk =   0.1111111
        k(   12) = (   0.0576951   0.0666206   0.0000000), wk =   0.1111111
        k(   13) = (   0.0576951   0.0999309   0.0000000), wk =   0.1111111
        k(   14) = (   0.0576951  -0.0666206   0.0000000), wk =   0.1111111
        k(   15) = (   0.0576951  -0.0333103   0.0000000), wk =   0.1111111
        k(   16) = (   0.0576951   0.0000000   0.0000000), wk =   0.1111111
        k(   17) = (  -0.0865427  -0.0499655   0.0000000), wk =   0.0555556
        k(   18) = (  -0.0865427  -0.0166552   0.0000000), wk =   0.1111111
        k(   19) = (  -0.0865427   0.0166552   0.0000000), wk =   0.1111111
        k(   20) = (  -0.0865427  -0.1498964   0.0000000), wk =   0.0555556

     Largest allocated arrays     est. size (Mb)     dimensions
     Largest temporary arrays     est. size (Mb)     dimensions

     Check: negative/imaginary core charge=   -0.000005    0.000000

     Initial potential from superposition of free atoms
     Check: negative starting charge=   -0.009770

     starting charge  131.99924, renormalised to  141.00000

     negative rho (up, down):  1.044E-02 0.000E+00

     *
     * You are using vdW-DF for exchange-correlation in this calculation.
     * Please cite the following three references that made this development
     * possible:
     *
     *   M. Dion, H. Rydberg, E. Schroder, D. C. Langreth, and
     *   B. I. Lundqvist, Phys. Rev. Lett. 92, 246401 (2004).
     *
     *   T. Thonhauser, V. R. Cooper, S. Li, A. Puzder, P. Hyldgaard, and
     *   D. C. Langreth, Phys. Rev. B 76, 125112 (2007).
     *
     *   G. Roman-Perez and J. M. Soler, Phys. Rev. Lett. 103, 096102 (2009).
     *
     *
     * If you are using vdW-DF2, please also cite:
     *
     *   K. Lee, E. D. Murray, L. Kong, B. I. Lundqvist, and
     *   D. C. Langreth, Phys. Rev. B 82, 081101(R) (2010).
     *
     *
     * If you are calculating the stress with vdW-DF, please also cite:
     *
     *   R. Sabatini, E. Kucukbenli, B. Kolb, T. Thonhauser, and
     *   S. de Gironcoli, J. Phys.: Condens. Matter 24, 424209 (2012).
     *

     Carrying out vdW-DF run using the following parameters:

     Nqs =      20    Nr_points =    1024   r_max =   100.000
     q_mesh =
               0.00001000     0.04494208     0.09755937     0.15916263
               0.23128650     0.31572767     0.41458969     0.53033537
               0.66584808     0.82450364     1.01025438     1.22772762
               1.48234092     1.78043706     2.12944203     2.53805004
               3.01644009     3.57652955     4.23227104     5.00000000

     Gradients computed in reciprocal space

     Adding external electric field

     Computed dipole along edir(3) :
        Dipole                0.0000 Ry au,          0.0000 Debye
        Dipole field          0.0000 Ry au

        Potential amp.       -0.0000 Ry
        Total length         45.5412 bohr

     Starting wfc are  117 randomized atomic wfcs

     Self-consistent Calculation

     iteration #  1     ecut=    36.75 Ry     beta=0.10
     Davidson diagonalization with overlap
     ethr =  1.00E-02,  avg # of iterations =  3.2

[...]

     total energy              =   -1425.86097491 Ry
     Harris-Foulkes estimate   =   -1433.17089525 Ry
     estimated scf accuracy    <      41.04086770 Ry

[...]

     End of self-consistent calculation

          k = 0.0000 0.0000 0.0000 ( 18151 PWs)   bands (ev):

   -56.1936 -56.1889 -56.1269 -56.1269 -56.1258 -56.1258 -55.9952 -55.9348
   -55.9347 -32.5975 -32.5585 -32.5483 -32.5278 -32.5278 -32.5127 -32.5127
   -32.4982 -32.4822 -32.4822 -32.4727 -32.4618 -32.4617 -32.2940 -32.2940
   -32.2745 -32.2589 -32.1509 -32.1509 -32.1029 -32.0767 -32.0713 -32.0713
   -32.0653 -32.0653 -31.9195 -31.9194  -5.8686  -4.6611  -4.4681  -4.4681
    -4.4024  -4.3462  -4.3461  -4.0579  -4.0579  -4.0021  -4.0021  -3.9396
    -3.5935  -3.5935  -3.4524  -3.4524  -3.3492  -3.2757  -1.6653  -1.3551
    -0.7261  -0.0559   0.2269   0.3047   0.3047   0.4532   0.4532   0.6611
     0.6611   0.8891   0.9025   0.9623   0.9624   0.9646   0.9646   1.1997
     1.3621   1.3622   1.5074   1.5893   1.5893   1.8413   1.8958   1.8958
     2.1971   2.3184   2.3184   2.4135   2.6969   2.9982   2.9982   3.0666
     3.0667   3.2853   3.2853   3.3781   3.3781   3.4661   3.4662   3.5927
     3.5928   3.7856   3.7856   3.8141

[...]

          k =-0.0865-0.0500 0.0000 ( 18100 PWs)   bands (ev):

[...]

     the Fermi energy is     0.9964 ev

!    total energy              =   -1429.15862673 Ry
     Harris-Foulkes estimate   =   -1429.15862506 Ry
     estimated scf accuracy    <       0.00000038 Ry

     The total energy is the sum of the following terms:

     one-electron contribution =  -10222.10268428 Ry
     hartree contribution      =    5123.88431557 Ry
     xc contribution           =    -360.40629481 Ry
     ewald contribution        =    4029.58817778 Ry
     electric field correction =       0.00000000 Ry
     smearing contrib. (-TS)   =      -0.12214099 Ry

     convergence has been achieved in  21 iterations

 BEEF-vdW xc energy contributions
           1 :   -316.253271360069
           2 :    288.922679023640
           3 :   -242.222535384781
           4 :    188.191413161693
           5 :   -137.789073663626
           6 :    97.2701740000424
           7 :   -67.6008828982262
           8 :    46.3466396284459
           9 :   -30.3258310364799
          10 :    17.4203246550278
          11 :   -6.94210994119663
          12 :   -1.07305480132919
          13 :    6.76281162454268
          14 :   -10.8101191072342
[...]
     MD5 check sum: 88a00a6731bd790ddea75d31a80cb452
     Pseudo is Ultrasoft + core correction, Zval = 12.0
     Generated by new atomic code, or converted to UPF format
     Using radial grid of  851 points,  6 beta functions with:
                l(1) =   0
                l(2) =   0
                l(3) =   1
                l(4) =   1
                l(5) =   2
                l(6) =   2
     Q(r) pseudized with  6 coefficients,  rinner =    1.000   1.000   1.000
                                                       1.000   1.000

     PseudoPot. # 2 for Au read from file:
     /afs/slac.stanford.edu/u/if/mamunm/psp/gbrv1.5pbe/Au.UPF
     MD5 check sum: 9d7f43293ad2c663164586bc4b293ffc
     Pseudo is Ultrasoft + core correction, Zval = 11.0
     Generated by new atomic code, or converted to UPF format
     Using radial grid of  985 points,  7 beta functions with:
                l(1) =   0
                l(2) =   0
                l(3) =   1
                l(4) =   1
                l(5) =   2
                l(6) =   2
                l(7) =   3
     Q(r) pseudized with  6 coefficients,  rinner =    1.900   1.900   1.900
                                                       1.900   1.900   1.900
                                                       1.900

     vdW kernel table read from file vdW_kernel_table
     MD5 check sum: 095c7af220d748ca6e76c0b4c6cfb241

     atomic species   valence    mass     pseudopotential
        Ti1           12.00    47.86700     Ti( 1.00)
        Au1           11.00   196.96657     Au( 1.00)

     No symmetry found

   Cartesian axes

     site n.     atom                  positions (alat units)
         1           Ti1 tau(   1) = (   0.0000000   0.0000000  10.0000000  )
         2           Ti1 tau(   2) = (  -1.4443737   2.5017286  10.0000000  )
         3           Ti1 tau(   3) = (   1.4443737   2.5017286  10.0000000  )
         4           Au1 tau(   4) = (   2.8887474   0.0000000  10.0000000  )
         5           Ti1 tau(   5) = (   2.8887474   1.6678191  12.3586523  )
         6           Ti1 tau(   6) = (   1.4443737   4.1695477  12.3586523  )
         7           Ti1 tau(   7) = (  -1.4443737   4.1695477  12.3586523  )
         8           Au1 tau(   8) = (   0.0000000   1.6678191  12.3586523  )
         9           Ti1 tau(   9) = (  -0.0000151   3.3187758  14.6980257  )
        10           Ti1 tau(  10) = (   1.4297679   0.8423356  14.6980221  )
        11           Ti1 tau(  11) = (   4.3477262   0.8423515  14.6980264  )
        12           Au1 tau(  12) = (   2.8888075   3.3356217  14.7012163  )

     number of k points=    20  Fermi-Dirac smearing, width (Ry)=  0.0110
                       cart. coord. in units 2pi/alat
        k(    1) = (   0.0000000   0.0000000   0.0000000), wk =   0.0555556
        k(    2) = (   0.0000000   0.0333103   0.0000000), wk =   0.1111111
        k(    3) = (   0.0000000   0.0666206   0.0000000), wk =   0.1111111
        k(    4) = (   0.0000000  -0.0999309   0.0000000), wk =   0.0555556
        k(    5) = (   0.0288476   0.0166552   0.0000000), wk =   0.1111111
        k(    6) = (   0.0288476   0.0499655   0.0000000), wk =   0.1111111
        k(    7) = (   0.0288476   0.0832758   0.0000000), wk =   0.1111111
        k(    8) = (   0.0288476  -0.0832758   0.0000000), wk =   0.1111111
        k(    9) = (   0.0288476  -0.0499655   0.0000000), wk =   0.1111111
        k(   10) = (   0.0288476  -0.0166552   0.0000000), wk =   0.1111111
        k(   11) = (   0.0576951   0.0333103   0.0000000), wk =   0.1111111
        k(   12) = (   0.0576951   0.0666206   0.0000000), wk =   0.1111111
        k(   13) = (   0.0576951   0.0999309   0.0000000), wk =   0.1111111
        k(   14) = (   0.0576951  -0.0666206   0.0000000), wk =   0.1111111
        k(   15) = (   0.0576951  -0.0333103   0.0000000), wk =   0.1111111
        k(   16) = (   0.0576951   0.0000000   0.0000000), wk =   0.1111111
        k(   17) = (  -0.0865427  -0.0499655   0.0000000), wk =   0.0555556
        k(   18) = (  -0.0865427  -0.0166552   0.0000000), wk =   0.1111111
        k(   19) = (  -0.0865427   0.0166552   0.0000000), wk =   0.1111111
        k(   20) = (  -0.0865427  -0.1498964   0.0000000), wk =   0.0555556

     Largest allocated arrays     est. size (Mb)     dimensions
     Largest temporary arrays     est. size (Mb)     dimensions

     Check: negative/imaginary core charge=   -0.000005    0.000000

     Initial potential from superposition of free atoms
     Check: negative starting charge=   -0.010490

     starting charge  131.99924, renormalised to  141.00000

[...]

     *
     * You are using vdW-DF for exchange-correlation in this calculation.
     * Please cite the following three references that made this development
     * possible:
     *
     *   M. Dion, H. Rydberg, E. Schroder, D. C. Langreth, and
     *   B. I. Lundqvist, Phys. Rev. Lett. 92, 246401 (2004).
     *
     *   T. Thonhauser, V. R. Cooper, S. Li, A. Puzder, P. Hyldgaard, and
     *   D. C. Langreth, Phys. Rev. B 76, 125112 (2007).
     *
     *   G. Roman-Perez and J. M. Soler, Phys. Rev. Lett. 103, 096102 (2009).
     *
     *
     * If you are using vdW-DF2, please also cite:
     *
     *   K. Lee, E. D. Murray, L. Kong, B. I. Lundqvist, and
     *   D. C. Langreth, Phys. Rev. B 82, 081101(R) (2010).
     *
     *
     * If you are calculating the stress with vdW-DF, please also cite:
     *
     *   R. Sabatini, E. Kucukbenli, B. Kolb, T. Thonhauser, and
     *   S. de Gironcoli, J. Phys.: Condens. Matter 24, 424209 (2012).
     *

     Carrying out vdW-DF run using the following parameters:

     Nqs =      20    Nr_points =    1024   r_max =   100.000
     q_mesh =
               0.00001000     0.04494208     0.09755937     0.15916263
               0.23128650     0.31572767     0.41458969     0.53033537
               0.66584808     0.82450364     1.01025438     1.22772762
               1.48234092     1.78043706     2.12944203     2.53805004
               3.01644009     3.57652955     4.23227104     5.00000000

     Gradients computed in reciprocal space

[...]

     Starting wfc are  117 randomized atomic wfcs

     Self-consistent Calculation

[...]

     total energy              =   -1429.16764701 Ry
     Harris-Foulkes estimate   =   -1429.16764784 Ry
     estimated scf accuracy    <       0.00000164 Ry

     iteration # 20     ecut=    36.75 Ry     beta=0.10
     Davidson diagonalization with overlap
     ethr =  1.17E-09,  avg # of iterations =  2.0

[...]

     negative rho (up, down):  6.064E-03 0.000E+00

     Adding external electric field

     Computed dipole along edir(3) :
        Dipole               -0.0007 Ry au,         -0.0017 Debye
        Dipole field         -0.0000 Ry au

        Potential amp.        0.0002 Ry
        Total length         45.5412 bohr

     End of self-consistent calculation

[...]

          k = 0.0577 0.0000 0.0000 ( 18155 PWs)   bands (ev):

[...]

          k =-0.0865-0.1499 0.0000 ( 18100 PWs)   bands (ev):

   -56.1676 -56.1581 -56.1464 -56.1358 -56.1244 -56.1140 -55.9661 -55.9467
   -55.9260 -32.5525 -32.5436 -32.5411 -32.5061 -32.4933 -32.4839 -32.4810
   -32.4756 -32.4098 -32.3874 -32.3753 -32.3546 -32.3442 -32.3389 -32.3372
   -32.2741 -32.2456 -32.2424 -32.1949 -32.1942 -32.1839 -32.1177 -32.0826
   -32.0704 -32.0444 -32.0226 -31.9219  -4.8274  -4.3616  -4.2840  -4.2658
    -4.2534  -4.0577  -3.9942  -3.8751  -3.8710  -3.8215  -3.7145  -3.6794
    -3.6254  -3.5863  -3.4750  -3.3649  -3.3161  -2.9635  -2.1590  -1.4031
    -1.1729  -0.8247  -0.4621  -0.0736   0.1069   0.3074   0.3557   0.3580
     0.4588   0.5062   0.6075   0.6308   0.6584   0.7850   0.8378   1.0211
     1.0729   1.1908   1.2347   1.4059   1.4427   1.6714   1.7520   1.7777
     1.9110   1.9622   2.0163   2.0399   2.2386   2.5615   2.6714   2.7163
     2.8341   2.8813   2.8967   2.9018   2.9631   3.0457   3.0894   3.0970
     3.3601   3.5344   3.6947   3.7246

     the Fermi energy is     0.9983 ev

!    total energy              =   -1429.16765494 Ry
     Harris-Foulkes estimate   =   -1429.16764706 Ry
     estimated scf accuracy    <       0.00000072 Ry

     The total energy is the sum of the following terms:

     one-electron contribution =  -10248.85732580 Ry
     hartree contribution      =    5137.27592600 Ry
     xc contribution           =    -360.43983634 Ry
     ewald contribution        =    4042.97553053 Ry
     electric field correction =       0.00000000 Ry
     smearing contrib. (-TS)   =      -0.12194933 Ry

     convergence has been achieved in  20 iterations

 BEEF-vdW xc energy contributions
           1 :   -316.536756282354
           2 :    289.216850484499
           3 :   -242.527983436228
           4 :    188.496983886023
           5 :   -138.079780809393
           6 :    97.5380979574652
           7 :   -67.8503332474369
           8 :    46.5901849700145
           9 :   -30.5752141812399
          10 :    17.6795751996028
          11 :   -7.20757850966618
          12 :  -0.807103842922231
          13 :    6.49868263123579
          14 :   -10.5462483728206
          15 :    13.8522458279913
          16 :   -16.9319636216858
          17 :    19.5940812191193
          18 :   -21.2001634748573
          19 :    21.2666457777055
          20 :   -19.9057509353568
          21 :    17.7607855086501
          22 :   -15.5315124670083
          23 :    13.4862185082696
          24 :   -11.3345678724713
          25 :    8.53169238819686
          26 :   -4.77435796694863
          27 :   0.324536299141755
          28 :    4.05877333895876
          29 :   -7.52149942317249
          30 :    9.56391947969399
          31 :   -28.9026936998816
          32 :   -20.8353500485804

     Forces acting on atoms (Ry/au):

     negative rho (up, down):  6.064E-03 0.000E+00
     atom    1 type  1   force =     0.00000226    0.00312129    0.00350447
     atom    2 type  1   force =     0.00270436   -0.00155975    0.00350381
     atom    3 type  1   force =    -0.00270300   -0.00156154    0.00350380
     atom    4 type  2   force =    -0.00000492    0.00000099    0.00317933
     atom    5 type  1   force =     0.00000117   -0.00015296   -0.00177917
     atom    6 type  1   force =    -0.00013066    0.00007556   -0.00177463
     atom    7 type  1   force =     0.00013353    0.00007589   -0.00178142
     atom    8 type  2   force =    -0.00000904    0.00000224   -0.00487063
     atom    9 type  1   force =     0.00000740    0.00123331   -0.00093292
     atom   10 type  1   force =     0.00106973   -0.00061562   -0.00093369
     atom   11 type  1   force =    -0.00106471   -0.00062150   -0.00092984
     atom   12 type  2   force =    -0.00000611    0.00000208   -0.00068910

     Total force =     0.010821     Total SCF correction =     0.002742
     SCF correction compared to forces is large: reduce conv_thr to get better values

     entering subroutine stress ...

     negative rho (up, down):  6.064E-03 0.000E+00
          total   stress  (Ry/bohr**3)                   (kbar)     P=  -10.48
  -0.00009929  -0.00000000  -0.00000000        -14.61     -0.00     -0.00
  -0.00000000  -0.00009929   0.00000000         -0.00    -14.61      0.00
  -0.00000000   0.00000000  -0.00001515         -0.00      0.00     -2.23

 !ASE

     Writing output data file calc.save

     General routines

     Parallel routines

   This run was terminated on:  22:20:13   1Jan2019

   JOB DONE.
Job  /afs/slac/g/suncat/bin/suncat-tsmpirun -x LD_LIBRARY_PATH -wdir /scratch/qe649186_ZA3T3 pw.x -in pw.inp

TID   HOST_NAME   COMMAND_LINE            STATUS            TERMINATION_TIME
00000 suncat0024 pw.x -in pw.inp   Done                     01/01/2019 22:20:13
00001 suncat0024 pw.x -in pw.inp   Done                     01/01/2019 22:20:13
00002 suncat0024 pw.x -in pw.inp   Done                     01/01/2019 22:20:13
00003 suncat0024 pw.x -in pw.inp   Done                     01/01/2019 22:20:13
00004 suncat0024 pw.x -in pw.inp   Done                     01/01/2019 22:20:13
00005 suncat0024 pw.x -in pw.inp   Done                     01/01/2019 22:20:13
00006 suncat0024 pw.x -in pw.inp   Done                     01/01/2019 22:20:13
00007 suncat0024 pw.x -in pw.inp   Done                     01/01/2019 22:20:13
00008 suncat0023 pw.x -in pw.inp   Done                     01/01/2019 22:20:13
00009 suncat0023 pw.x -in pw.inp   Done                     01/01/2019 22:20:13
00010 suncat0023 pw.x -in pw.inp   Done                     01/01/2019 22:20:13
00011 suncat0023 pw.x -in pw.inp   Done                     01/01/2019 22:20:13
00012 suncat0023 pw.x -in pw.inp   Done                     01/01/2019 22:20:13
00013 suncat0023 pw.x -in pw.inp   Done                     01/01/2019 22:20:13
00014 suncat0023 pw.x -in pw.inp   Done                     01/01/2019 22:20:13
00015 suncat0023 pw.x -in pw.inp   Done                     01/01/2019 22:20:13
00016 suncat0190 pw.x -in pw.inp   Done                     01/01/2019 22:20:13
00017 suncat0190 pw.x -in pw.inp   Done                     01/01/2019 22:20:13
00018 suncat0190 pw.x -in pw.inp   Done                     01/01/2019 22:20:13
00019 suncat0190 pw.x -in pw.inp   Done                     01/01/2019 22:20:13
00020 suncat0190 pw.x -in pw.inp   Done                     01/01/2019 22:20:13
00021 suncat0190 pw.x -in pw.inp   Done                     01/01/2019 22:20:13
00022 suncat0190 pw.x -in pw.inp   Done                     01/01/2019 22:20:13
00023 suncat0190 pw.x -in pw.inp   Done                     01/01/2019 22:20:13
00024 suncat0009 pw.x -in pw.inp   Done                     01/01/2019 22:20:13
00025 suncat0009 pw.x -in pw.inp   Done                     01/01/2019 22:20:13
00026 suncat0009 pw.x -in pw.inp   Done                     01/01/2019 22:20:13
00027 suncat0009 pw.x -in pw.inp   Done                     01/01/2019 22:20:13
00028 suncat0009 pw.x -in pw.inp   Done                     01/01/2019 22:20:13
00029 suncat0009 pw.x -in pw.inp   Done                     01/01/2019 22:20:13
00030 suncat0009 pw.x -in pw.inp   Done                     01/01/2019 22:20:13
00031 suncat0009 pw.x -in pw.inp   Done                     01/01/2019 22:20:13
00032 suncat0166 pw.x -in pw.inp   Done                     01/01/2019 22:20:13
00033 suncat0166 pw.x -in pw.inp   Done                     01/01/2019 22:20:13
00034 suncat0166 pw.x -in pw.inp   Done                     01/01/2019 22:20:13
00035 suncat0166 pw.x -in pw.inp   Done                     01/01/2019 22:20:13
00036 suncat0166 pw.x -in pw.inp   Done                     01/01/2019 22:20:13
00037 suncat0166 pw.x -in pw.inp   Done                     01/01/2019 22:20:13
00038 suncat0166 pw.x -in pw.inp   Done                     01/01/2019 22:20:13
00039 suncat0166 pw.x -in pw.inp   Done                     01/01/2019 22:20:13
00040 suncat0149 pw.x -in pw.inp   Done                     01/01/2019 22:20:13
00041 suncat0149 pw.x -in pw.inp   Done                     01/01/2019 22:20:13
00042 suncat0149 pw.x -in pw.inp   Done                     01/01/2019 22:20:13
00043 suncat0149 pw.x -in pw.inp   Done                     01/01/2019 22:20:13
00044 suncat0149 pw.x -in pw.inp   Done                     01/01/2019 22:20:13
00045 suncat0149 pw.x -in pw.inp   Done                     01/01/2019 22:20:13
00046 suncat0149 pw.x -in pw.inp   Done                     01/01/2019 22:20:13
00047 suncat0149 pw.x -in pw.inp   Done                     01/01/2019 22:20:13
00048 suncat0148 pw.x -in pw.inp   Done                     01/01/2019 22:20:13
00049 suncat0148 pw.x -in pw.inp   Done                     01/01/2019 22:20:13
00050 suncat0148 pw.x -in pw.inp   Done                     01/01/2019 22:20:13
00051 suncat0148 pw.x -in pw.inp   Done                     01/01/2019 22:20:13
00052 suncat0148 pw.x -in pw.inp   Done                     01/01/2019 22:20:13
00053 suncat0148 pw.x -in pw.inp   Done                     01/01/2019 22:20:13
00054 suncat0148 pw.x -in pw.inp   Done                     01/01/2019 22:20:13
00055 suncat0148 pw.x -in pw.inp   Done                     01/01/2019 22:20:13
00056 suncat0142 pw.x -in pw.inp   Done                     01/01/2019 22:20:13
00057 suncat0142 pw.x -in pw.inp   Done                     01/01/2019 22:20:13
00058 suncat0142 pw.x -in pw.inp   Done                     01/01/2019 22:20:13
00059 suncat0142 pw.x -in pw.inp   Done                     01/01/2019 22:20:13
00060 suncat0142 pw.x -in pw.inp   Done                     01/01/2019 22:20:13
00061 suncat0142 pw.x -in pw.inp   Done                     01/01/2019 22:20:13
00062 suncat0142 pw.x -in pw.inp   Done                     01/01/2019 22:20:13
00063 suncat0142 pw.x -in pw.inp   Done                     01/01/2019 22:20:13