     Program PWSCF v.5.1rc2 (svn rev. 11289) starts on 19Dec2018 at 15: 8: 3

     Current dimensions of program PWSCF are:
     Max number of different atomic species (ntypx) = 10
     Max number of k-points (npk) =  40000
     Max angular momentum in pseudopotentials (lmaxx) =  3
     Presently stress not available with electric field

     IMPORTANT: XC functional enforced from input :
     Exchange-correlation      = BEEF-VDW ( 1  4 27 13 2)
     Any further DFT definition will be discarded
     Please, verify this is what you really want

     Subspace diagonalization in iterative solution of the eigenvalue problem:
     a serial algorithm will be used

     bravais-lattice index     =            0
     lattice parameter (alat)  =       1.8897  a.u.
     unit-cell volume          =    4884.4787 (a.u.)^3
     number of atoms/cell      =           12
     number of atomic types    =            2
     number of electrons       =       216.00
     number of Kohn-Sham states=          138
     kinetic-energy cutoff     =      36.7493  Ry
     charge density cutoff     =     367.4932  Ry
     convergence threshold     =      1.0E-06
     mixing beta               =       0.1000
     number of iterations used =           10  plain     mixing
     Exchange-correlation      = BEEF-VDW ( 1  4 27 13 2)
     nstep                     =           50

     celldm(1)=   1.889726  celldm(2)=   0.000000  celldm(3)=   0.000000
     celldm(4)=   0.000000  celldm(5)=   0.000000  celldm(6)=   0.000000

     crystal axes: (cart. coord. in units of alat)
               a(1) = (   5.811658   0.000000   0.000000 )
               a(2) = (  -2.905829   5.033043   0.000000 )
               a(3) = (   0.000000   0.000000  24.745199 )

     reciprocal axes: (cart. coord. in units 2 pi/alat)
               b(1) = (  0.172068  0.099343  0.000000 )
               b(2) = (  0.000000  0.198687  0.000000 )
               b(3) = (  0.000000  0.000000  0.040412 )

     PseudoPot. # 1 for Ag read from file:
     /afs/slac.stanford.edu/u/if/mamunm/psp/gbrv1.5pbe/Ag.UPF
     MD5 check sum: d66d668201baa78d5eb5b04ef7011058
     Pseudo is Ultrasoft + core correction, Zval = 19.0
     Generated by new atomic code, or converted to UPF format
     Using radial grid of  887 points,  6 beta functions with:
                l(1) =   0
                l(2) =   0
                l(3) =   1
                l(4) =   1
                l(5) =   2
                l(6) =   2
     Q(r) pseudized with  6 coefficients,  rinner =    1.300   1.300   1.300
                                                       1.300   1.300

     PseudoPot. # 2 for Re read from file:
     /afs/slac.stanford.edu/u/if/mamunm/psp/gbrv1.5pbe/Re.UPF
     MD5 check sum: 85f993410f3e006da9d71c142b4ad953
     Pseudo is Ultrasoft + core correction, Zval = 15.0
     Generated by new atomic code, or converted to UPF format
     Using radial grid of  981 points,  8 beta functions with:
                l(1) =   0
                l(2) =   0
                l(3) =   1
                l(4) =   1
                l(5) =   2
                l(6) =   2
                l(7) =   3
                l(8) =   3
     Q(r) pseudized with  8 coefficients,  rinner =    1.150   1.150   1.150
                                                       1.150   1.150   1.150
                                                       1.150

     vdW kernel table read from file vdW_kernel_table
     MD5 check sum: 095c7af220d748ca6e76c0b4c6cfb241

     atomic species   valence    mass     pseudopotential
        Ag1           19.00   107.86820     Ag( 1.00)
        Re1           15.00   186.20700     Re( 1.00)

     No symmetry found

   Cartesian axes

     site n.     atom                  positions (alat units)
         1           Ag1 tau(   1) = (   0.0000000   0.0000000  10.0000000  )
         2           Ag1 tau(   2) = (  -1.4529144   2.5165216  10.0000000  )
         3           Ag1 tau(   3) = (   1.4529144   2.5165216  10.0000000  )
         4           Re1 tau(   4) = (   2.9058288   0.0000000  10.0000000  )
         5           Ag1 tau(   5) = (   2.9058288   1.6776810  12.3725993  )
         6           Ag1 tau(   6) = (   1.4529144   4.1942026  12.3725993  )
         7           Ag1 tau(   7) = (  -1.4529144   4.1942026  12.3725993  )
         8           Re1 tau(   8) = (   0.0000000   1.6776810  12.3725993  )
         9           Ag1 tau(   9) = (  -0.0000000   3.3553621  14.7451986  )
        10           Ag1 tau(  10) = (   1.4529144   0.8388405  14.7451986  )
        11           Ag1 tau(  11) = (   4.3587432   0.8388405  14.7451986  )
        12           Re1 tau(  12) = (   2.9058288   3.3553621  14.7451986  )

     number of k points=    20  Fermi-Dirac smearing, width (Ry)=  0.0110
                       cart. coord. in units 2pi/alat
        k(    1) = (   0.0000000   0.0000000   0.0000000), wk =   0.0555556
        k(    2) = (   0.0000000   0.0331145   0.0000000), wk =   0.1111111
        k(    3) = (   0.0000000   0.0662290   0.0000000), wk =   0.1111111
        k(    4) = (   0.0000000  -0.0993435   0.0000000), wk =   0.0555556
        k(    5) = (   0.0286780   0.0165572   0.0000000), wk =   0.1111111
        k(    6) = (   0.0286780   0.0496717   0.0000000), wk =   0.1111111
        k(    7) = (   0.0286780   0.0827862   0.0000000), wk =   0.1111111
        k(    8) = (   0.0286780  -0.0827862   0.0000000), wk =   0.1111111
        k(    9) = (   0.0286780  -0.0496717   0.0000000), wk =   0.1111111
        k(   10) = (   0.0286780  -0.0165572   0.0000000), wk =   0.1111111
        k(   11) = (   0.0573560   0.0331145   0.0000000), wk =   0.1111111
        k(   12) = (   0.0573560   0.0662290   0.0000000), wk =   0.1111111
        k(   13) = (   0.0573560   0.0993435   0.0000000), wk =   0.1111111
        k(   14) = (   0.0573560  -0.0662290   0.0000000), wk =   0.1111111
        k(   15) = (   0.0573560  -0.0331145   0.0000000), wk =   0.1111111
        k(   16) = (   0.0573560   0.0000000   0.0000000), wk =   0.1111111
        k(   17) = (  -0.0860340  -0.0496717   0.0000000), wk =   0.0555556
        k(   18) = (  -0.0860340  -0.0165572   0.0000000), wk =   0.1111111
        k(   19) = (  -0.0860340   0.0165572   0.0000000), wk =   0.1111111
        k(   20) = (  -0.0860340  -0.1490152   0.0000000), wk =   0.0555556

     Largest allocated arrays     est. size (Mb)     dimensions
     Largest temporary arrays     est. size (Mb)     dimensions

     Initial potential from superposition of free atoms
     Check: negative starting charge=   -0.385646

     starting charge  209.99944, renormalised to  216.00000

     negative rho (up, down):  3.967E-01 0.000E+00

     *
     * You are using vdW-DF for exchange-correlation in this calculation.
     * Please cite the following three references that made this development
     * possible:
     *
     *   M. Dion, H. Rydberg, E. Schroder, D. C. Langreth, and
     *   B. I. Lundqvist, Phys. Rev. Lett. 92, 246401 (2004).
     *
     *   T. Thonhauser, V. R. Cooper, S. Li, A. Puzder, P. Hyldgaard, and
     *   D. C. Langreth, Phys. Rev. B 76, 125112 (2007).
     *
     *   G. Roman-Perez and J. M. Soler, Phys. Rev. Lett. 103, 096102 (2009).
     *
     *
     * If you are using vdW-DF2, please also cite:
     *
     *   K. Lee, E. D. Murray, L. Kong, B. I. Lundqvist, and
     *   D. C. Langreth, Phys. Rev. B 82, 081101(R) (2010).
     *
     *
     * If you are calculating the stress with vdW-DF, please also cite:
     *
     *   R. Sabatini, E. Kucukbenli, B. Kolb, T. Thonhauser, and
     *   S. de Gironcoli, J. Phys.: Condens. Matter 24, 424209 (2012).
     *

     Carrying out vdW-DF run using the following parameters:

     Nqs =      20    Nr_points =    1024   r_max =   100.000
     q_mesh =
               0.00001000     0.04494208     0.09755937     0.15916263
               0.23128650     0.31572767     0.41458969     0.53033537
               0.66584808     0.82450364     1.01025438     1.22772762
               1.48234092     1.78043706     2.12944203     2.53805004
               3.01644009     3.57652955     4.23227104     5.00000000

     Gradients computed in reciprocal space

     Adding external electric field

     Computed dipole along edir(3) :
        Dipole                0.0000 Ry au,          0.0000 Debye
        Dipole field          0.0000 Ry au

        Potential amp.       -0.0000 Ry
        Total length         45.5926 bohr

     Starting wfc are  156 randomized atomic wfcs

     Self-consistent Calculation

     iteration #  1     ecut=    36.75 Ry     beta=0.10
     Davidson diagonalization with overlap
     ethr =  1.00E-02,  avg # of iterations =  7.7

[...]

     total energy              =   -3243.66784451 Ry
     Harris-Foulkes estimate   =   -3250.25923602 Ry
     estimated scf accuracy    <      37.51379324 Ry

[...]

     End of self-consistent calculation

          k = 0.0000 0.0000 0.0000 ( 18439 PWs)   bands (ev):

   -90.3899 -90.3820 -90.3820 -90.3371 -90.3368 -90.3293 -90.3293 -90.3293
   -90.3293 -78.6663 -78.4136 -78.4136 -53.9216 -53.9216 -53.9181 -53.9012
   -53.9012 -53.8847 -53.8847 -53.8793 -53.8770 -53.8711 -53.8702 -53.8666
   -53.8666 -53.8412 -53.8369 -53.7996 -53.7996 -53.7993 -53.7993 -53.7896
   -53.7896 -53.7775 -53.7614 -53.7438 -53.7438 -53.7398 -53.7398 -40.4499
   -40.3004 -40.3004 -40.1336 -40.1323 -40.1049 -40.1049 -40.1045 -40.1045
    -5.4477  -4.4907  -4.3497  -4.3236  -4.1412  -4.1396  -4.1396  -4.0202
    -4.0057  -3.9744  -3.9744  -3.9324  -3.9324  -3.7627  -3.7627  -3.3123
    -3.0865  -3.0865  -3.0777  -3.0777  -2.8334  -2.8079  -2.7945  -2.6153
    -2.6153  -2.5676  -2.5676  -2.4983  -2.4983  -2.3554  -2.3554  -2.3529
    -2.1947  -2.1947  -2.1484  -1.9638  -1.9638  -1.8667  -1.8667  -1.6635
    -1.6635  -1.5431  -1.3890  -1.3890  -1.2787  -1.2246  -1.1662  -0.1623
     0.4311   0.8941   1.1627   1.1627   1.2410   1.2410   1.3164   1.3164
     1.5040   1.5040   1.9296   1.9296   1.9595   2.1351   2.2535   2.2535
     2.7016   2.7016   2.7042   3.9874   3.9874   4.0927   4.0927   4.0985
     4.2251   5.4782   5.8303   6.0560   6.3680   6.6354   7.1152   7.1152
     7.1817   7.2082   7.2082   7.5152   7.9530   8.2609   8.2609   9.5134
     9.8315   9.9580

[...]

          k =-0.0860-0.0497 0.0000 ( 18308 PWs)   bands (ev):

[...]

     the Fermi energy is     1.5729 ev

!    total energy              =   -3245.47528463 Ry
     Harris-Foulkes estimate   =   -3245.47528578 Ry
     estimated scf accuracy    <       0.00000046 Ry

     The total energy is the sum of the following terms:

     one-electron contribution =  -24196.98505451 Ry
     hartree contribution      =   12088.64811324 Ry
     xc contribution           =    -432.51266676 Ry
     ewald contribution        =    9295.47006625 Ry
     electric field correction =       0.00000000 Ry
     smearing contrib. (-TS)   =      -0.09574285 Ry

     convergence has been achieved in  18 iterations

 BEEF-vdW xc energy contributions
           1 :   -378.417073533223
           2 :    346.226663575074
           3 :   -291.025178689871
           4 :    227.226296700019
           5 :   -168.869972634493
[...]
                l(1) =   0
                l(2) =   0
                l(3) =   1
                l(4) =   1
                l(5) =   2
                l(6) =   2
     Q(r) pseudized with  6 coefficients,  rinner =    1.300   1.300   1.300
                                                       1.300   1.300

     PseudoPot. # 2 for Re read from file:
     /afs/slac.stanford.edu/u/if/mamunm/psp/gbrv1.5pbe/Re.UPF
     MD5 check sum: 85f993410f3e006da9d71c142b4ad953
     Pseudo is Ultrasoft + core correction, Zval = 15.0
     Generated by new atomic code, or converted to UPF format
     Using radial grid of  981 points,  8 beta functions with:
                l(1) =   0
                l(2) =   0
                l(3) =   1
                l(4) =   1
                l(5) =   2
                l(6) =   2
                l(7) =   3
                l(8) =   3
     Q(r) pseudized with  8 coefficients,  rinner =    1.150   1.150   1.150
                                                       1.150   1.150   1.150
                                                       1.150

     vdW kernel table read from file vdW_kernel_table
     MD5 check sum: 095c7af220d748ca6e76c0b4c6cfb241

     atomic species   valence    mass     pseudopotential
        Ag1           19.00   107.86820     Ag( 1.00)
        Re1           15.00   186.20700     Re( 1.00)

     No symmetry found

   Cartesian axes

     site n.     atom                  positions (alat units)
         1           Ag1 tau(   1) = (   0.0000000   0.0000000  10.0000000  )
         2           Ag1 tau(   2) = (  -1.4529144   2.5165216  10.0000000  )
         3           Ag1 tau(   3) = (   1.4529144   2.5165216  10.0000000  )
         4           Re1 tau(   4) = (   2.9058288   0.0000000  10.0000000  )
         5           Ag1 tau(   5) = (   2.9058288   1.6776810  12.3725993  )
         6           Ag1 tau(   6) = (   1.4529144   4.1942026  12.3725993  )
         7           Ag1 tau(   7) = (  -1.4529144   4.1942026  12.3725993  )
         8           Re1 tau(   8) = (   0.0000000   1.6776810  12.3725993  )
         9           Ag1 tau(   9) = (  -0.0000007   3.3468863  14.8066517  )
        10           Ag1 tau(  10) = (   1.4455704   0.8430784  14.8066499  )
        11           Ag1 tau(  11) = (   4.3660822   0.8430761  14.8066541  )
        12           Re1 tau(  12) = (   2.9058122   3.3553633  14.5549784  )

     number of k points=    20  Fermi-Dirac smearing, width (Ry)=  0.0110
                       cart. coord. in units 2pi/alat
        k(    1) = (   0.0000000   0.0000000   0.0000000), wk =   0.0555556
        k(    2) = (   0.0000000   0.0331145   0.0000000), wk =   0.1111111
        k(    3) = (   0.0000000   0.0662290   0.0000000), wk =   0.1111111
        k(    4) = (   0.0000000  -0.0993435   0.0000000), wk =   0.0555556
        k(    5) = (   0.0286780   0.0165572   0.0000000), wk =   0.1111111
        k(    6) = (   0.0286780   0.0496717   0.0000000), wk =   0.1111111
        k(    7) = (   0.0286780   0.0827862   0.0000000), wk =   0.1111111
        k(    8) = (   0.0286780  -0.0827862   0.0000000), wk =   0.1111111
        k(    9) = (   0.0286780  -0.0496717   0.0000000), wk =   0.1111111
        k(   10) = (   0.0286780  -0.0165572   0.0000000), wk =   0.1111111
        k(   11) = (   0.0573560   0.0331145   0.0000000), wk =   0.1111111
        k(   12) = (   0.0573560   0.0662290   0.0000000), wk =   0.1111111
        k(   13) = (   0.0573560   0.0993435   0.0000000), wk =   0.1111111
        k(   14) = (   0.0573560  -0.0662290   0.0000000), wk =   0.1111111
        k(   15) = (   0.0573560  -0.0331145   0.0000000), wk =   0.1111111
        k(   16) = (   0.0573560   0.0000000   0.0000000), wk =   0.1111111
        k(   17) = (  -0.0860340  -0.0496717   0.0000000), wk =   0.0555556
        k(   18) = (  -0.0860340  -0.0165572   0.0000000), wk =   0.1111111
        k(   19) = (  -0.0860340   0.0165572   0.0000000), wk =   0.1111111
        k(   20) = (  -0.0860340  -0.1490152   0.0000000), wk =   0.0555556

     Largest allocated arrays     est. size (Mb)     dimensions
     Largest temporary arrays     est. size (Mb)     dimensions

     Initial potential from superposition of free atoms
     Check: negative starting charge=   -0.385634

     starting charge  209.99944, renormalised to  216.00000

[...]

     *
     * You are using vdW-DF for exchange-correlation in this calculation.
     * Please cite the following three references that made this development
     * possible:
     *
     *   M. Dion, H. Rydberg, E. Schroder, D. C. Langreth, and
     *   B. I. Lundqvist, Phys. Rev. Lett. 92, 246401 (2004).
     *
     *   T. Thonhauser, V. R. Cooper, S. Li, A. Puzder, P. Hyldgaard, and
     *   D. C. Langreth, Phys. Rev. B 76, 125112 (2007).
     *
     *   G. Roman-Perez and J. M. Soler, Phys. Rev. Lett. 103, 096102 (2009).
     *
     *
     * If you are using vdW-DF2, please also cite:
     *
     *   K. Lee, E. D. Murray, L. Kong, B. I. Lundqvist, and
     *   D. C. Langreth, Phys. Rev. B 82, 081101(R) (2010).
     *
     *
     * If you are calculating the stress with vdW-DF, please also cite:
     *
     *   R. Sabatini, E. Kucukbenli, B. Kolb, T. Thonhauser, and
     *   S. de Gironcoli, J. Phys.: Condens. Matter 24, 424209 (2012).
     *

     Carrying out vdW-DF run using the following parameters:

     Nqs =      20    Nr_points =    1024   r_max =   100.000
     q_mesh =
               0.00001000     0.04494208     0.09755937     0.15916263
               0.23128650     0.31572767     0.41458969     0.53033537
               0.66584808     0.82450364     1.01025438     1.22772762
               1.48234092     1.78043706     2.12944203     2.53805004
               3.01644009     3.57652955     4.23227104     5.00000000

     Gradients computed in reciprocal space

[...]

     Starting wfc are  156 randomized atomic wfcs

     Self-consistent Calculation

[...]

     total energy              =   -3245.48915620 Ry
     Harris-Foulkes estimate   =   -3245.48915575 Ry
     estimated scf accuracy    <       0.00001469 Ry

     iteration # 18     ecut=    36.75 Ry     beta=0.10
     Davidson diagonalization with overlap
     ethr =  4.38E-09,  avg # of iterations =  1.6

[...]

     negative rho (up, down):  3.746E-01 0.000E+00

     Adding external electric field

     Computed dipole along edir(3) :
        Dipole                0.0046 Ry au,          0.0117 Debye
        Dipole field          0.0000 Ry au

        Potential amp.       -0.0011 Ry
        Total length         45.5926 bohr

     End of self-consistent calculation

[...]

          k = 0.0574 0.0000 0.0000 ( 18391 PWs)   bands (ev):

[...]

          k =-0.0860-0.1490 0.0000 ( 18308 PWs)   bands (ev):

   -90.4478 -90.4452 -90.4426 -90.3378 -90.3352 -90.3326 -90.2875 -90.2849
   -90.2823 -78.6794 -78.4264 -78.4078 -53.9915 -53.9765 -53.9680 -53.9588
   -53.9474 -53.9358 -53.8983 -53.8883 -53.8724 -53.8707 -53.8614 -53.8453
   -53.8433 -53.8387 -53.8247 -53.8221 -53.8132 -53.8027 -53.7945 -53.7730
   -53.7670 -53.7596 -53.7490 -53.7459 -53.7183 -53.7114 -53.7004 -40.4592
   -40.3146 -40.3135 -40.1536 -40.1251 -40.1241 -40.1195 -40.1049 -40.1038
    -4.2677  -4.2003  -3.9183  -3.8415  -3.7984  -3.6929  -3.6222  -3.5784
    -3.5696  -3.5691  -3.5290  -3.4872  -3.3106  -3.2822  -3.2767  -3.2040
    -3.1781  -3.1159  -3.0482  -2.9273  -2.8110  -2.8051  -2.7378  -2.7025
    -2.6741  -2.6517  -2.6141  -2.6109  -2.5004  -2.4773  -2.4684  -2.4527
    -2.4423  -2.3913  -2.2850  -2.2790  -2.2635  -2.2221  -2.1754  -2.1599
    -2.1170  -2.0655  -2.0381  -1.8285  -1.7586  -1.6960  -1.5014  -1.3075
    -0.8018  -0.7536   0.1112   0.2392   0.8796   0.9548   1.0004   1.0887
     1.1269   1.1764   1.2474   1.3088   1.3495   1.5588   1.6572   2.1014
     2.1863   2.5841   2.9589   3.5918   3.9811   4.3677   5.0623   5.3165
     5.7803   5.9079   6.8416   6.8768   7.4304   7.4517   7.6209   7.6356
     7.9780   8.3974   8.5274   8.6354   8.6606   8.7549   8.8075   9.0839
     9.1702   9.2290

     the Fermi energy is     1.5621 ev

!    total energy              =   -3245.48915680 Ry
     Harris-Foulkes estimate   =   -3245.48915665 Ry
     estimated scf accuracy    <       0.00000038 Ry

     The total energy is the sum of the following terms:

     one-electron contribution =  -24162.83452950 Ry
     hartree contribution      =   12071.49963190 Ry
     xc contribution           =    -432.54176662 Ry
     ewald contribution        =    9278.48240196 Ry
     electric field correction =       0.00000005 Ry
     smearing contrib. (-TS)   =      -0.09489459 Ry

     convergence has been achieved in  18 iterations

 BEEF-vdW xc energy contributions
           1 :   -378.597588262524
           2 :    346.414069691853
           3 :   -291.226321614873
           4 :    227.440996779487
           5 :   -169.084154206561
           6 :    125.150935755750
           7 :   -97.7046302171079
           8 :    83.0366503315385
           9 :   -74.8442391145275
          10 :    67.6427475938066
          11 :   -58.8501049146779
          12 :    48.9003617139020
          13 :   -39.8441317914963
          14 :    33.5352527798703
          15 :   -30.4612717765055
          16 :    29.6705121316248
          17 :   -29.5501739144245
          18 :    28.7975624375111
          19 :   -26.9861941508719
          20 :    24.5036272876812
          21 :   -22.0589303576779
          22 :    20.1559018009074
          23 :   -18.8517023970526
          24 :    17.8665176103203
          25 :   -16.8853227090191
          26 :    15.8081223519416
          27 :   -14.7913802396226
          28 :    14.0869718444736
          29 :   -13.8233273709012
          30 :    13.8913033416229
          31 :   -35.3098021673212
          32 :   -25.8513709705902

     Forces acting on atoms (Ry/au):

     negative rho (up, down):  3.746E-01 0.000E+00
     atom    1 type  1   force =    -0.00000078    0.00491938   -0.00759211
     atom    2 type  1   force =     0.00426113   -0.00245842   -0.00759173
     atom    3 type  1   force =    -0.00426078   -0.00245830   -0.00759243
     atom    4 type  2   force =    -0.00000248   -0.00000330    0.03417610
     atom    5 type  1   force =     0.00000091   -0.01124670   -0.00796794
     atom    6 type  1   force =    -0.00974083    0.00562462   -0.00796993
     atom    7 type  1   force =     0.00974002    0.00562331   -0.00796791
     atom    8 type  2   force =    -0.00000000    0.00000182    0.00921226
     atom    9 type  1   force =    -0.00000105   -0.00119617    0.00060680
     atom   10 type  1   force =    -0.00103652    0.00059815    0.00060779
     atom   11 type  1   force =     0.00103614    0.00059946    0.00060660
     atom   12 type  2   force =     0.00000425   -0.00000385    0.00147251

     Total force =     0.045563     Total SCF correction =     0.002577

     entering subroutine stress ...

     negative rho (up, down):  3.746E-01 0.000E+00
          total   stress  (Ry/bohr**3)                   (kbar)     P=   -9.21
  -0.00007898   0.00000000   0.00000000        -11.62      0.00      0.00
   0.00000000  -0.00007898   0.00000000          0.00    -11.62      0.00
   0.00000000   0.00000000  -0.00002982          0.00      0.00     -4.39

 !ASE

     Writing output data file calc.save

     General routines

     Parallel routines

   This run was terminated on:  16:56:51  19Dec2018

   JOB DONE.
Job  /afs/slac/g/suncat/bin/suncat-tsmpirun -x LD_LIBRARY_PATH -wdir /scratch/qe773190_jslij pw.x -in pw.inp

TID   HOST_NAME   COMMAND_LINE            STATUS            TERMINATION_TIME
00000 suncat0089 pw.x -in pw.inp   Done                     12/19/2018 16:56:51
00001 suncat0089 pw.x -in pw.inp   Done                     12/19/2018 16:56:51
00002 suncat0089 pw.x -in pw.inp   Done                     12/19/2018 16:56:51
00003 suncat0089 pw.x -in pw.inp   Done                     12/19/2018 16:56:51
00004 suncat0089 pw.x -in pw.inp   Done                     12/19/2018 16:56:51
00005 suncat0089 pw.x -in pw.inp   Done                     12/19/2018 16:56:51
00006 suncat0089 pw.x -in pw.inp   Done                     12/19/2018 16:56:51
00007 suncat0089 pw.x -in pw.inp   Done                     12/19/2018 16:56:51
00008 suncat0088 pw.x -in pw.inp   Done                     12/19/2018 16:56:51
00009 suncat0088 pw.x -in pw.inp   Done                     12/19/2018 16:56:51
00010 suncat0088 pw.x -in pw.inp   Done                     12/19/2018 16:56:51
00011 suncat0088 pw.x -in pw.inp   Done                     12/19/2018 16:56:51
00012 suncat0088 pw.x -in pw.inp   Done                     12/19/2018 16:56:51
00013 suncat0088 pw.x -in pw.inp   Done                     12/19/2018 16:56:51
00014 suncat0088 pw.x -in pw.inp   Done                     12/19/2018 16:56:51
00015 suncat0088 pw.x -in pw.inp   Done                     12/19/2018 16:56:51
00016 suncat0087 pw.x -in pw.inp   Done                     12/19/2018 16:56:51
00017 suncat0087 pw.x -in pw.inp   Done                     12/19/2018 16:56:51
00018 suncat0087 pw.x -in pw.inp   Done                     12/19/2018 16:56:51
00019 suncat0087 pw.x -in pw.inp   Done                     12/19/2018 16:56:51
00020 suncat0087 pw.x -in pw.inp   Done                     12/19/2018 16:56:51
00021 suncat0087 pw.x -in pw.inp   Done                     12/19/2018 16:56:51
00022 suncat0087 pw.x -in pw.inp   Done                     12/19/2018 16:56:51
00023 suncat0087 pw.x -in pw.inp   Done                     12/19/2018 16:56:51
00024 suncat0086 pw.x -in pw.inp   Done                     12/19/2018 16:56:51
00025 suncat0086 pw.x -in pw.inp   Done                     12/19/2018 16:56:51
00026 suncat0086 pw.x -in pw.inp   Done                     12/19/2018 16:56:51
00027 suncat0086 pw.x -in pw.inp   Done                     12/19/2018 16:56:51
00028 suncat0086 pw.x -in pw.inp   Done                     12/19/2018 16:56:51
00029 suncat0086 pw.x -in pw.inp   Done                     12/19/2018 16:56:51
00030 suncat0086 pw.x -in pw.inp   Done                     12/19/2018 16:56:51
00031 suncat0086 pw.x -in pw.inp   Done                     12/19/2018 16:56:51
00032 suncat0085 pw.x -in pw.inp   Done                     12/19/2018 16:56:51
00033 suncat0085 pw.x -in pw.inp   Done                     12/19/2018 16:56:51
00034 suncat0085 pw.x -in pw.inp   Done                     12/19/2018 16:56:51
00035 suncat0085 pw.x -in pw.inp   Done                     12/19/2018 16:56:51
00036 suncat0085 pw.x -in pw.inp   Done                     12/19/2018 16:56:51
00037 suncat0085 pw.x -in pw.inp   Done                     12/19/2018 16:56:51
00038 suncat0085 pw.x -in pw.inp   Done                     12/19/2018 16:56:51
00039 suncat0085 pw.x -in pw.inp   Done                     12/19/2018 16:56:51
00040 suncat0084 pw.x -in pw.inp   Done                     12/19/2018 16:56:51
00041 suncat0084 pw.x -in pw.inp   Done                     12/19/2018 16:56:51
00042 suncat0084 pw.x -in pw.inp   Done                     12/19/2018 16:56:51
00043 suncat0084 pw.x -in pw.inp   Done                     12/19/2018 16:56:51
00044 suncat0084 pw.x -in pw.inp   Done                     12/19/2018 16:56:51
00045 suncat0084 pw.x -in pw.inp   Done                     12/19/2018 16:56:51
00046 suncat0084 pw.x -in pw.inp   Done                     12/19/2018 16:56:51
00047 suncat0084 pw.x -in pw.inp   Done                     12/19/2018 16:56:51
00048 suncat0083 pw.x -in pw.inp   Done                     12/19/2018 16:56:51
00049 suncat0083 pw.x -in pw.inp   Done                     12/19/2018 16:56:51
00050 suncat0083 pw.x -in pw.inp   Done                     12/19/2018 16:56:51
00051 suncat0083 pw.x -in pw.inp   Done                     12/19/2018 16:56:51
00052 suncat0083 pw.x -in pw.inp   Done                     12/19/2018 16:56:51
00053 suncat0083 pw.x -in pw.inp   Done                     12/19/2018 16:56:51
00054 suncat0083 pw.x -in pw.inp   Done                     12/19/2018 16:56:51
00055 suncat0083 pw.x -in pw.inp   Done                     12/19/2018 16:56:51
00056 suncat0082 pw.x -in pw.inp   Done                     12/19/2018 16:56:51
00057 suncat0082 pw.x -in pw.inp   Done                     12/19/2018 16:56:51
00058 suncat0082 pw.x -in pw.inp   Done                     12/19/2018 16:56:51
00059 suncat0082 pw.x -in pw.inp   Done                     12/19/2018 16:56:51
00060 suncat0082 pw.x -in pw.inp   Done                     12/19/2018 16:56:51
00061 suncat0082 pw.x -in pw.inp   Done                     12/19/2018 16:56:51
00062 suncat0082 pw.x -in pw.inp   Done                     12/19/2018 16:56:51
00063 suncat0082 pw.x -in pw.inp   Done                     12/19/2018 16:56:51