     Program PWSCF v.5.1rc2 (svn rev. 11289) starts on  2Jan2019 at 19:24: 0

     Current dimensions of program PWSCF are:
     Max number of different atomic species (ntypx) = 10
     Max number of k-points (npk) =  40000
     Max angular momentum in pseudopotentials (lmaxx) =  3
     Presently stress not available with electric field

     IMPORTANT: XC functional enforced from input :
     Exchange-correlation      = BEEF-VDW ( 1  4 27 13 2)
     Any further DFT definition will be discarded
     Please, verify this is what you really want

     Subspace diagonalization in iterative solution of the eigenvalue problem:
     a serial algorithm will be used

     bravais-lattice index     =            0
     lattice parameter (alat)  =       1.8897  a.u.
     unit-cell volume          =    5483.0364 (a.u.)^3
     number of atoms/cell      =           12
     number of atomic types    =            2
     number of electrons       =       150.00
     number of Kohn-Sham states=          105
     kinetic-energy cutoff     =      36.7493  Ry
     charge density cutoff     =     367.4932  Ry
     convergence threshold     =      1.0E-06
     mixing beta               =       0.1000
     number of iterations used =           10  plain     mixing
     Exchange-correlation      = BEEF-VDW ( 1  4 27 13 2)
     nstep                     =           50

     celldm(1)=   1.889726  celldm(2)=   0.000000  celldm(3)=   0.000000
     celldm(4)=   0.000000  celldm(5)=   0.000000  celldm(6)=   0.000000

     crystal axes: (cart. coord. in units of alat)
               a(1) = (   6.125792   0.000000   0.000000 )
               a(2) = (  -3.062896   5.305092   0.000000 )
               a(3) = (   0.000000   0.000000  25.001689 )

     reciprocal axes: (cart. coord. in units 2 pi/alat)
               b(1) = (  0.163244  0.094249  0.000000 )
               b(2) = (  0.000000  0.188498  0.000000 )
               b(3) = (  0.000000  0.000000  0.039997 )

     PseudoPot. # 1 for Zr read from file:
     /afs/slac.stanford.edu/u/if/mamunm/psp/gbrv1.5pbe/Zr.UPF
     MD5 check sum: 5db81b1e868ab7776c4564c113de050b
     Pseudo is Ultrasoft + core correction, Zval = 12.0
     Generated by new atomic code, or converted to UPF format
     Using radial grid of  887 points,  6 beta functions with:
                l(1) =   0
                l(2) =   0
                l(3) =   1
                l(4) =   1
                l(5) =   2
                l(6) =   2
     Q(r) pseudized with  6 coefficients,  rinner =    1.200   1.200   1.200
                                                       1.200   1.200

     PseudoPot. # 2 for Cr read from file:
     /afs/slac.stanford.edu/u/if/mamunm/psp/gbrv1.5pbe/Cr.UPF
     MD5 check sum: 0d52af634a40206e4dee301ad30da4bf
     Pseudo is Ultrasoft + core correction, Zval = 14.0
     Generated by new atomic code, or converted to UPF format
     Using radial grid of  857 points,  6 beta functions with:
                l(1) =   0
                l(2) =   0
                l(3) =   1
                l(4) =   1
                l(5) =   2
                l(6) =   2
     Q(r) pseudized with  8 coefficients,  rinner =    0.950   0.950   0.950
                                                       0.950   0.950

     vdW kernel table read from file vdW_kernel_table
     MD5 check sum: 095c7af220d748ca6e76c0b4c6cfb241

     atomic species   valence    mass     pseudopotential
        Zr1           12.00    91.22400     Zr( 1.00)
        Cr1           14.00    51.99610     Cr( 1.00)

     No symmetry found

   Cartesian axes

     site n.     atom                  positions (alat units)
         1           Zr1 tau(   1) = (   0.0000000   0.0000000  10.0000000  )
         2           Zr1 tau(   2) = (  -1.5314481   2.6525459  10.0000000  )
         3           Zr1 tau(   3) = (   1.5314481   2.6525459  10.0000000  )
         4           Cr1 tau(   4) = (   3.0628962   0.0000000  10.0000000  )
         5           Zr1 tau(   5) = (   3.0628962   1.7683640  12.5008443  )
         6           Zr1 tau(   6) = (   1.5314481   4.4209099  12.5008443  )
         7           Zr1 tau(   7) = (  -1.5314481   4.4209099  12.5008443  )
         8           Cr1 tau(   8) = (   0.0000000   1.7683640  12.5008443  )
         9           Zr1 tau(   9) = (  -0.0000000   3.5367279  15.0016886  )
        10           Zr1 tau(  10) = (   1.5314481   0.8841820  15.0016886  )
        11           Zr1 tau(  11) = (   4.5943443   0.8841820  15.0016886  )
        12           Cr1 tau(  12) = (   3.0628962   3.5367279  15.0016886  )

     number of k points=    20  Fermi-Dirac smearing, width (Ry)=  0.0110
                       cart. coord. in units 2pi/alat
        k(    1) = (   0.0000000   0.0000000   0.0000000), wk =   0.0555556
        k(    2) = (   0.0000000   0.0314164   0.0000000), wk =   0.1111111
        k(    3) = (   0.0000000   0.0628327   0.0000000), wk =   0.1111111
        k(    4) = (   0.0000000  -0.0942491   0.0000000), wk =   0.0555556
        k(    5) = (   0.0272074   0.0157082   0.0000000), wk =   0.1111111
        k(    6) = (   0.0272074   0.0471245   0.0000000), wk =   0.1111111
        k(    7) = (   0.0272074   0.0785409   0.0000000), wk =   0.1111111
        k(    8) = (   0.0272074  -0.0785409   0.0000000), wk =   0.1111111
        k(    9) = (   0.0272074  -0.0471245   0.0000000), wk =   0.1111111
        k(   10) = (   0.0272074  -0.0157082   0.0000000), wk =   0.1111111
        k(   11) = (   0.0544147   0.0314164   0.0000000), wk =   0.1111111
        k(   12) = (   0.0544147   0.0628327   0.0000000), wk =   0.1111111
        k(   13) = (   0.0544147   0.0942491   0.0000000), wk =   0.1111111
        k(   14) = (   0.0544147  -0.0628327   0.0000000), wk =   0.1111111
        k(   15) = (   0.0544147  -0.0314164   0.0000000), wk =   0.1111111
        k(   16) = (   0.0544147   0.0000000   0.0000000), wk =   0.1111111
        k(   17) = (  -0.0816221  -0.0471245   0.0000000), wk =   0.0555556
        k(   18) = (  -0.0816221  -0.0157082   0.0000000), wk =   0.1111111
        k(   19) = (  -0.0816221   0.0157082   0.0000000), wk =   0.1111111
        k(   20) = (  -0.0816221  -0.1413736   0.0000000), wk =   0.0555556

     Largest allocated arrays     est. size (Mb)     dimensions
     Largest temporary arrays     est. size (Mb)     dimensions

     Check: negative/imaginary core charge=   -0.000001    0.000000

     Initial potential from superposition of free atoms
     Check: negative starting charge=   -0.559686

     starting charge  146.98061, renormalised to  150.00000

     negative rho (up, down):  5.712E-01 0.000E+00

     *
     * You are using vdW-DF for exchange-correlation in this calculation.
     * Please cite the following three references that made this development
     * possible:
     *
     *   M. Dion, H. Rydberg, E. Schroder, D. C. Langreth, and
     *   B. I. Lundqvist, Phys. Rev. Lett. 92, 246401 (2004).
     *
     *   T. Thonhauser, V. R. Cooper, S. Li, A. Puzder, P. Hyldgaard, and
     *   D. C. Langreth, Phys. Rev. B 76, 125112 (2007).
     *
     *   G. Roman-Perez and J. M. Soler, Phys. Rev. Lett. 103, 096102 (2009).
     *
     *
     * If you are using vdW-DF2, please also cite:
     *
     *   K. Lee, E. D. Murray, L. Kong, B. I. Lundqvist, and
     *   D. C. Langreth, Phys. Rev. B 82, 081101(R) (2010).
     *
     *
     * If you are calculating the stress with vdW-DF, please also cite:
     *
     *   R. Sabatini, E. Kucukbenli, B. Kolb, T. Thonhauser, and
     *   S. de Gironcoli, J. Phys.: Condens. Matter 24, 424209 (2012).
     *

     Carrying out vdW-DF run using the following parameters:

     Nqs =      20    Nr_points =    1024   r_max =   100.000
     q_mesh =
               0.00001000     0.04494208     0.09755937     0.15916263
               0.23128650     0.31572767     0.41458969     0.53033537
               0.66584808     0.82450364     1.01025438     1.22772762
               1.48234092     1.78043706     2.12944203     2.53805004
               3.01644009     3.57652955     4.23227104     5.00000000

     Gradients computed in reciprocal space

     Adding external electric field

     Computed dipole along edir(3) :
        Dipole                0.0000 Ry au,          0.0000 Debye
        Dipole field          0.0000 Ry au

        Potential amp.       -0.0000 Ry
        Total length         46.0652 bohr

     Starting wfc are  147 randomized atomic wfcs

     Self-consistent Calculation

     iteration #  1     ecut=    36.75 Ry     beta=0.10
     Davidson diagonalization with overlap
     ethr =  1.00E-02,  avg # of iterations =  2.0

[...]

     total energy              =   -1422.78203113 Ry
     Harris-Foulkes estimate   =   -1428.19741365 Ry
     estimated scf accuracy    <      29.97410387 Ry

[...]

     End of self-consistent calculation

          k = 0.0000 0.0000 0.0000 ( 20647 PWs)   bands (ev):

   -70.1926 -70.0620 -70.0620 -47.7511 -47.7424 -47.6302 -47.6302 -47.6282
   -47.6282 -47.4199 -47.3112 -47.3112 -41.4836 -41.4836 -41.4518 -41.3930
   -41.3925 -41.3472 -41.3472 -41.3471 -41.3471 -26.2805 -26.2122 -26.0288
   -25.9440 -25.9440 -25.8579 -25.8579 -25.8437 -25.8437 -25.8434 -25.7856
   -25.6601 -25.6601 -25.4413 -25.4413 -25.4115 -25.3776 -25.2515 -25.2515
   -25.2442 -25.2442 -25.2333 -25.1896 -25.1896 -25.0478 -24.9683 -24.9682
    -3.7825  -2.5809  -1.8978  -1.7723  -1.3990  -1.0583  -1.0461  -1.0461
    -0.9150  -0.9150  -0.6133  -0.5018  -0.5018  -0.4900  -0.4900   0.0919
     0.4068   0.4068   1.0711   1.1909   1.1909   1.1972   1.3727   1.5457
     1.6672   1.8294   1.8294   1.9355   1.9355   1.9435   1.9435   2.1024
     2.1024   2.1128   2.1128   2.2370   2.5304   2.5799   2.5799   2.7597
     2.7597   2.8143   3.1212   3.1212   3.3569   3.3569   3.4429   3.6037
     4.2432   4.5856   4.5856   4.7932   4.7932   5.0193   5.0221   5.0221
     5.2263

[...]

          k =-0.0816-0.0471 0.0000 ( 20656 PWs)   bands (ev):

[...]

     the Fermi energy is     1.4075 ev

!    total energy              =   -1426.16810269 Ry
     Harris-Foulkes estimate   =   -1426.16810213 Ry
     estimated scf accuracy    <       0.00000030 Ry

     The total energy is the sum of the following terms:

     one-electron contribution =  -10109.07005381 Ry
     hartree contribution      =    5046.04579337 Ry
     xc contribution           =    -235.15211360 Ry
     ewald contribution        =    3872.15457452 Ry
     electric field correction =       0.00000000 Ry
     smearing contrib. (-TS)   =      -0.14630318 Ry

     convergence has been achieved in  25 iterations

 BEEF-vdW xc energy contributions
           1 :   -202.044820443679
           2 :    182.567262283754
           3 :   -149.836580783209
           4 :    113.306674942217
           5 :   -81.5269311169614
           6 :    59.0434167859932
           7 :   -45.6578402649130
           8 :    37.9684370385093
           9 :   -31.9746825983151
          10 :    25.2213148700059
          11 :   -17.5285510172639
          12 :    10.3012859538070
          13 :   -5.15284644609034
          14 :    2.76445595719855
          15 :   -2.56482863800326
[...]

     PseudoPot. # 1 for Zr read from file:
     /afs/slac.stanford.edu/u/if/mamunm/psp/gbrv1.5pbe/Zr.UPF
     MD5 check sum: 5db81b1e868ab7776c4564c113de050b
     Pseudo is Ultrasoft + core correction, Zval = 12.0
     Generated by new atomic code, or converted to UPF format
     Using radial grid of  887 points,  6 beta functions with:
                l(1) =   0
                l(2) =   0
                l(3) =   1
                l(4) =   1
                l(5) =   2
                l(6) =   2
     Q(r) pseudized with  6 coefficients,  rinner =    1.200   1.200   1.200
                                                       1.200   1.200

     PseudoPot. # 2 for Cr read from file:
     /afs/slac.stanford.edu/u/if/mamunm/psp/gbrv1.5pbe/Cr.UPF
     MD5 check sum: 0d52af634a40206e4dee301ad30da4bf
     Pseudo is Ultrasoft + core correction, Zval = 14.0
     Generated by new atomic code, or converted to UPF format
     Using radial grid of  857 points,  6 beta functions with:
                l(1) =   0
                l(2) =   0
                l(3) =   1
                l(4) =   1
                l(5) =   2
                l(6) =   2
     Q(r) pseudized with  8 coefficients,  rinner =    0.950   0.950   0.950
                                                       0.950   0.950

     vdW kernel table read from file vdW_kernel_table
     MD5 check sum: 095c7af220d748ca6e76c0b4c6cfb241

     atomic species   valence    mass     pseudopotential
        Zr1           12.00    91.22400     Zr( 1.00)
        Cr1           14.00    51.99610     Cr( 1.00)

     No symmetry found

   Cartesian axes

     site n.     atom                  positions (alat units)
         1           Zr1 tau(   1) = (   0.0000000   0.0000000  10.0000000  )
         2           Zr1 tau(   2) = (  -1.5314481   2.6525459  10.0000000  )
         3           Zr1 tau(   3) = (   1.5314481   2.6525459  10.0000000  )
         4           Cr1 tau(   4) = (   3.0628962   0.0000000  10.0000000  )
         5           Zr1 tau(   5) = (   3.0628962   1.7683640  12.5008443  )
         6           Zr1 tau(   6) = (   1.5314481   4.4209099  12.5008443  )
         7           Zr1 tau(   7) = (  -1.5314481   4.4209099  12.5008443  )
         8           Cr1 tau(   8) = (   0.0000000   1.7683640  12.5008443  )
         9           Zr1 tau(   9) = (   0.0000044   3.4686898  14.9771546  )
        10           Zr1 tau(  10) = (   1.4725288   0.9181934  14.9771560  )
        11           Zr1 tau(  11) = (   4.6532693   0.9181892  14.9771526  )
        12           Cr1 tau(  12) = (   3.0628967   3.5367277  14.5857384  )

     number of k points=    20  Fermi-Dirac smearing, width (Ry)=  0.0110
                       cart. coord. in units 2pi/alat
        k(    1) = (   0.0000000   0.0000000   0.0000000), wk =   0.0555556
        k(    2) = (   0.0000000   0.0314164   0.0000000), wk =   0.1111111
        k(    3) = (   0.0000000   0.0628327   0.0000000), wk =   0.1111111
        k(    4) = (   0.0000000  -0.0942491   0.0000000), wk =   0.0555556
        k(    5) = (   0.0272074   0.0157082   0.0000000), wk =   0.1111111
        k(    6) = (   0.0272074   0.0471245   0.0000000), wk =   0.1111111
        k(    7) = (   0.0272074   0.0785409   0.0000000), wk =   0.1111111
        k(    8) = (   0.0272074  -0.0785409   0.0000000), wk =   0.1111111
        k(    9) = (   0.0272074  -0.0471245   0.0000000), wk =   0.1111111
        k(   10) = (   0.0272074  -0.0157082   0.0000000), wk =   0.1111111
        k(   11) = (   0.0544147   0.0314164   0.0000000), wk =   0.1111111
        k(   12) = (   0.0544147   0.0628327   0.0000000), wk =   0.1111111
        k(   13) = (   0.0544147   0.0942491   0.0000000), wk =   0.1111111
        k(   14) = (   0.0544147  -0.0628327   0.0000000), wk =   0.1111111
        k(   15) = (   0.0544147  -0.0314164   0.0000000), wk =   0.1111111
        k(   16) = (   0.0544147   0.0000000   0.0000000), wk =   0.1111111
        k(   17) = (  -0.0816221  -0.0471245   0.0000000), wk =   0.0555556
        k(   18) = (  -0.0816221  -0.0157082   0.0000000), wk =   0.1111111
        k(   19) = (  -0.0816221   0.0157082   0.0000000), wk =   0.1111111
        k(   20) = (  -0.0816221  -0.1413736   0.0000000), wk =   0.0555556

     Largest allocated arrays     est. size (Mb)     dimensions
     Largest temporary arrays     est. size (Mb)     dimensions

     Check: negative/imaginary core charge=   -0.000001    0.000000

     Initial potential from superposition of free atoms
     Check: negative starting charge=   -0.556052

     starting charge  146.98061, renormalised to  150.00000

[...]

     *
     * You are using vdW-DF for exchange-correlation in this calculation.
     * Please cite the following three references that made this development
     * possible:
     *
     *   M. Dion, H. Rydberg, E. Schroder, D. C. Langreth, and
     *   B. I. Lundqvist, Phys. Rev. Lett. 92, 246401 (2004).
     *
     *   T. Thonhauser, V. R. Cooper, S. Li, A. Puzder, P. Hyldgaard, and
     *   D. C. Langreth, Phys. Rev. B 76, 125112 (2007).
     *
     *   G. Roman-Perez and J. M. Soler, Phys. Rev. Lett. 103, 096102 (2009).
     *
     *
     * If you are using vdW-DF2, please also cite:
     *
     *   K. Lee, E. D. Murray, L. Kong, B. I. Lundqvist, and
     *   D. C. Langreth, Phys. Rev. B 82, 081101(R) (2010).
     *
     *
     * If you are calculating the stress with vdW-DF, please also cite:
     *
     *   R. Sabatini, E. Kucukbenli, B. Kolb, T. Thonhauser, and
     *   S. de Gironcoli, J. Phys.: Condens. Matter 24, 424209 (2012).
     *

     Carrying out vdW-DF run using the following parameters:

     Nqs =      20    Nr_points =    1024   r_max =   100.000
     q_mesh =
               0.00001000     0.04494208     0.09755937     0.15916263
               0.23128650     0.31572767     0.41458969     0.53033537
               0.66584808     0.82450364     1.01025438     1.22772762
               1.48234092     1.78043706     2.12944203     2.53805004
               3.01644009     3.57652955     4.23227104     5.00000000

     Gradients computed in reciprocal space

[...]

     Starting wfc are  147 randomized atomic wfcs

     Self-consistent Calculation

[...]

     total energy              =   -1426.19418288 Ry
     Harris-Foulkes estimate   =   -1426.19418363 Ry
     estimated scf accuracy    <       0.00000128 Ry

     iteration # 23     ecut=    36.75 Ry     beta=0.10
     Davidson diagonalization with overlap
     ethr =  8.56E-10,  avg # of iterations =  2.2

[...]

     negative rho (up, down):  5.677E-01 0.000E+00

     Adding external electric field

     Computed dipole along edir(3) :
        Dipole                0.0789 Ry au,          0.2004 Debye
        Dipole field          0.0002 Ry au

        Potential amp.       -0.0166 Ry
        Total length         46.0652 bohr

     End of self-consistent calculation

[...]

          k = 0.0544 0.0000 0.0000 ( 20575 PWs)   bands (ev):

[...]

          k =-0.0816-0.1414 0.0000 ( 20656 PWs)   bands (ev):

   -70.1547 -69.9854 -69.9060 -47.6931 -47.6375 -47.6304 -47.5983 -47.5975
   -47.5591 -47.2355 -47.1989 -47.1610 -41.4453 -41.4447 -41.4168 -41.3094
   -41.2752 -41.2746 -41.2307 -41.2303 -41.1902 -26.0413 -25.9689 -25.8896
   -25.8150 -25.7937 -25.7319 -25.7298 -25.6892 -25.6691 -25.6579 -25.6298
   -25.5950 -25.5878 -25.5370 -25.5320 -25.5195 -25.5155 -25.2511 -25.2477
   -25.2193 -25.1756 -25.1310 -25.0972 -25.0940 -25.0750 -25.0454 -24.8540
    -2.2361  -2.2213  -1.2493  -1.1586  -0.8490  -0.6784  -0.4561  -0.4390
    -0.3142  -0.2316  -0.0325   0.2498   0.2872   0.2911   0.3517   0.3860
     0.6238   0.6702   0.7205   0.7662   0.7797   0.9423   1.0611   1.1072
     1.1243   1.1629   1.3202   1.3855   1.4045   1.4379   1.5547   1.6503
     1.7382   1.7968   1.8258   1.9126   2.1475   2.2511   2.3726   2.4505
     2.4738   2.8358   2.9796   3.0448   3.1037   3.1479   3.2935   3.3779
     3.3988   3.9269   3.9980   4.0991   4.1870   4.3644   4.4525   4.4854
     4.6452

     the Fermi energy is     1.4680 ev

!    total energy              =   -1426.19417319 Ry
     Harris-Foulkes estimate   =   -1426.19418312 Ry
     estimated scf accuracy    <       0.00000064 Ry

     The total energy is the sum of the following terms:

     one-electron contribution =  -10296.72656191 Ry
     hartree contribution      =    5140.30999265 Ry
     xc contribution           =    -235.31913685 Ry
     ewald contribution        =    3965.67961642 Ry
     electric field correction =       0.00001425 Ry
     smearing contrib. (-TS)   =      -0.13809774 Ry

     convergence has been achieved in  23 iterations

 BEEF-vdW xc energy contributions
           1 :   -202.273318554219
           2 :    182.851527084623
           3 :   -150.177287949832
           4 :    113.636393020050
           5 :   -81.7486601878907
           6 :    59.0952831129003
           7 :   -45.5604978152661
           8 :    37.8199257154373
           9 :   -31.8917905748190
          10 :    25.2652362921656
          11 :   -17.6662759499443
          12 :    10.4301902362569
          13 :   -5.17129397935844
          14 :    2.63945440023633
          15 :   -2.35147677836568
          16 :    3.03518894852118
          17 :   -3.46404743905589
          18 :    3.11254012987106
          19 :   -2.27030341234007
          20 :    1.64069054415700
          21 :   -1.76383317549789
          22 :    2.65522123531565
          23 :   -3.84981432625688
          24 :    4.75124830708742
          25 :   -5.01070719852206
          26 :    4.69066522743606
          27 :   -4.15055499539534
          28 :    3.77542956147607
          29 :   -3.74235343845618
          30 :    3.95819708560379
          31 :   -22.3465356810290
          32 :   -16.5022442215915

     Forces acting on atoms (Ry/au):

     negative rho (up, down):  5.677E-01 0.000E+00
     atom    1 type  1   force =     0.00000039    0.02400196   -0.00200349
     atom    2 type  1   force =     0.02078669   -0.01200054   -0.00200361
     atom    3 type  1   force =    -0.02078658   -0.01200110   -0.00200407
     atom    4 type  2   force =    -0.00000012    0.00000002    0.03649319
     atom    5 type  1   force =    -0.00000095   -0.01158078   -0.00955955
     atom    6 type  1   force =    -0.01002822    0.00579012   -0.00956118
     atom    7 type  1   force =     0.01002859    0.00579082   -0.00956001
     atom    8 type  2   force =     0.00000016   -0.00000014    0.00135259
     atom    9 type  1   force =    -0.00000068   -0.00040366   -0.00103594
     atom   10 type  1   force =    -0.00034897    0.00020107   -0.00103689
     atom   11 type  1   force =     0.00034910    0.00020246   -0.00103500
     atom   12 type  2   force =     0.00000059   -0.00000023   -0.00004605

     Total force =     0.061271     Total SCF correction =     0.001691

     entering subroutine stress ...

     negative rho (up, down):  5.677E-01 0.000E+00
          total   stress  (Ry/bohr**3)                   (kbar)     P=   -9.36
  -0.00008008   0.00000000   0.00000000        -11.78      0.00      0.00
   0.00000000  -0.00008008   0.00000000          0.00    -11.78      0.00
   0.00000000   0.00000000  -0.00003068          0.00      0.00     -4.51

 !ASE

     Writing output data file calc.save

     General routines

     Parallel routines

   This run was terminated on:  21: 2:38   2Jan2019

   JOB DONE.
Job  /afs/slac/g/suncat/bin/suncat-tsmpirun -x LD_LIBRARY_PATH -wdir /scratch/qe649533_V8MHf pw.x -in pw.inp

TID   HOST_NAME   COMMAND_LINE            STATUS            TERMINATION_TIME
00000 suncat0010 pw.x -in pw.inp   Done                     01/02/2019 21:02:38
00001 suncat0010 pw.x -in pw.inp   Done                     01/02/2019 21:02:38
00002 suncat0010 pw.x -in pw.inp   Done                     01/02/2019 21:02:38
00003 suncat0010 pw.x -in pw.inp   Done                     01/02/2019 21:02:38
00004 suncat0010 pw.x -in pw.inp   Done                     01/02/2019 21:02:38
00005 suncat0010 pw.x -in pw.inp   Done                     01/02/2019 21:02:38
00006 suncat0010 pw.x -in pw.inp   Done                     01/02/2019 21:02:38
00007 suncat0010 pw.x -in pw.inp   Done                     01/02/2019 21:02:38
00008 suncat0191 pw.x -in pw.inp   Done                     01/02/2019 21:02:38
00009 suncat0191 pw.x -in pw.inp   Done                     01/02/2019 21:02:38
00010 suncat0191 pw.x -in pw.inp   Done                     01/02/2019 21:02:38
00011 suncat0191 pw.x -in pw.inp   Done                     01/02/2019 21:02:38
00012 suncat0191 pw.x -in pw.inp   Done                     01/02/2019 21:02:38
00013 suncat0191 pw.x -in pw.inp   Done                     01/02/2019 21:02:38
00014 suncat0191 pw.x -in pw.inp   Done                     01/02/2019 21:02:38
00015 suncat0191 pw.x -in pw.inp   Done                     01/02/2019 21:02:38
00016 suncat0007 pw.x -in pw.inp   Done                     01/02/2019 21:02:38
00017 suncat0007 pw.x -in pw.inp   Done                     01/02/2019 21:02:38
00018 suncat0007 pw.x -in pw.inp   Done                     01/02/2019 21:02:38
00019 suncat0007 pw.x -in pw.inp   Done                     01/02/2019 21:02:38
00020 suncat0007 pw.x -in pw.inp   Done                     01/02/2019 21:02:38
00021 suncat0007 pw.x -in pw.inp   Done                     01/02/2019 21:02:38
00022 suncat0007 pw.x -in pw.inp   Done                     01/02/2019 21:02:38
00023 suncat0007 pw.x -in pw.inp   Done                     01/02/2019 21:02:38
00024 suncat0180 pw.x -in pw.inp   Done                     01/02/2019 21:02:38
00025 suncat0180 pw.x -in pw.inp   Done                     01/02/2019 21:02:38
00026 suncat0180 pw.x -in pw.inp   Done                     01/02/2019 21:02:38
00027 suncat0180 pw.x -in pw.inp   Done                     01/02/2019 21:02:38
00028 suncat0180 pw.x -in pw.inp   Done                     01/02/2019 21:02:38
00029 suncat0180 pw.x -in pw.inp   Done                     01/02/2019 21:02:38
00030 suncat0180 pw.x -in pw.inp   Done                     01/02/2019 21:02:38
00031 suncat0180 pw.x -in pw.inp   Done                     01/02/2019 21:02:38
00032 suncat0167 pw.x -in pw.inp   Done                     01/02/2019 21:02:38
00033 suncat0167 pw.x -in pw.inp   Done                     01/02/2019 21:02:38
00034 suncat0167 pw.x -in pw.inp   Done                     01/02/2019 21:02:38
00035 suncat0167 pw.x -in pw.inp   Done                     01/02/2019 21:02:38
00036 suncat0167 pw.x -in pw.inp   Done                     01/02/2019 21:02:38
00037 suncat0167 pw.x -in pw.inp   Done                     01/02/2019 21:02:38
00038 suncat0167 pw.x -in pw.inp   Done                     01/02/2019 21:02:38
00039 suncat0167 pw.x -in pw.inp   Done                     01/02/2019 21:02:38
00040 suncat0161 pw.x -in pw.inp   Done                     01/02/2019 21:02:38
00041 suncat0161 pw.x -in pw.inp   Done                     01/02/2019 21:02:38
00042 suncat0161 pw.x -in pw.inp   Done                     01/02/2019 21:02:38
00043 suncat0161 pw.x -in pw.inp   Done                     01/02/2019 21:02:38
00044 suncat0161 pw.x -in pw.inp   Done                     01/02/2019 21:02:38
00045 suncat0161 pw.x -in pw.inp   Done                     01/02/2019 21:02:38
00046 suncat0161 pw.x -in pw.inp   Done                     01/02/2019 21:02:38
00047 suncat0161 pw.x -in pw.inp   Done                     01/02/2019 21:02:38
00048 suncat0137 pw.x -in pw.inp   Done                     01/02/2019 21:02:38
00049 suncat0137 pw.x -in pw.inp   Done                     01/02/2019 21:02:38
00050 suncat0137 pw.x -in pw.inp   Done                     01/02/2019 21:02:38
00051 suncat0137 pw.x -in pw.inp   Done                     01/02/2019 21:02:38
00052 suncat0137 pw.x -in pw.inp   Done                     01/02/2019 21:02:38
00053 suncat0137 pw.x -in pw.inp   Done                     01/02/2019 21:02:38
00054 suncat0137 pw.x -in pw.inp   Done                     01/02/2019 21:02:38
00055 suncat0137 pw.x -in pw.inp   Done                     01/02/2019 21:02:38
00056 suncat0100 pw.x -in pw.inp   Done                     01/02/2019 21:02:38
00057 suncat0100 pw.x -in pw.inp   Done                     01/02/2019 21:02:38
00058 suncat0100 pw.x -in pw.inp   Done                     01/02/2019 21:02:38
00059 suncat0100 pw.x -in pw.inp   Done                     01/02/2019 21:02:38
00060 suncat0100 pw.x -in pw.inp   Done                     01/02/2019 21:02:38
00061 suncat0100 pw.x -in pw.inp   Done                     01/02/2019 21:02:38
00062 suncat0100 pw.x -in pw.inp   Done                     01/02/2019 21:02:38
00063 suncat0100 pw.x -in pw.inp   Done                     01/02/2019 21:02:38