     Program PWSCF v.5.1rc2 (svn rev. 11289) starts on 19Dec2018 at  9:47:24

     Current dimensions of program PWSCF are:
     Max number of different atomic species (ntypx) = 10
     Max number of k-points (npk) =  40000
     Max angular momentum in pseudopotentials (lmaxx) =  3
     Presently stress not available with electric field

     IMPORTANT: XC functional enforced from input :
     Exchange-correlation      = BEEF-VDW ( 1  4 27 13 2)
     Any further DFT definition will be discarded
     Please, verify this is what you really want

     Subspace diagonalization in iterative solution of the eigenvalue problem:
     a serial algorithm will be used

     Found symmetry operation: I + ( -0.5000  0.0000  0.0000)
     This is a supercell, fractional translations are disabled

     bravais-lattice index     =            0
     lattice parameter (alat)  =       1.8897  a.u.
     unit-cell volume          =    4264.4116 (a.u.)^3
     number of atoms/cell      =           12
     number of atomic types    =            2
     number of electrons       =       174.00
     number of Kohn-Sham states=          117
     kinetic-energy cutoff     =      36.7493  Ry
     charge density cutoff     =     367.4932  Ry
     convergence threshold     =      1.0E-06
     mixing beta               =       0.1000
     number of iterations used =           10  plain     mixing
     Exchange-correlation      = BEEF-VDW ( 1  4 27 13 2)
     nstep                     =           50

     celldm(1)=   1.889726  celldm(2)=   0.000000  celldm(3)=   0.000000
     celldm(4)=   0.000000  celldm(5)=   0.000000  celldm(6)=   0.000000

     crystal axes: (cart. coord. in units of alat)
               a(1) = (   5.402779   0.000000   0.000000 )
               a(2) = (  -2.701390   4.782127   0.000000 )
               a(3) = (   0.000000   0.000000  24.458180 )

     reciprocal axes: (cart. coord. in units 2 pi/alat)
               b(1) = (  0.185090  0.104556  0.000000 )
               b(2) = (  0.000000  0.209112  0.000000 )
               b(3) = (  0.000000  0.000000  0.040886 )

     PseudoPot. # 1 for V  read from file:
     /afs/slac.stanford.edu/u/if/mamunm/psp/gbrv1.5pbe/V.UPF
     MD5 check sum: 22b79981416ebb76fdaf5b1b8640f6fb
     Pseudo is Ultrasoft + core correction, Zval = 13.0
     Generated by new atomic code, or converted to UPF format
     Using radial grid of  853 points,  6 beta functions with:
                l(1) =   0
                l(2) =   0
                l(3) =   1
                l(4) =   1
                l(5) =   2
                l(6) =   2
     Q(r) pseudized with  8 coefficients,  rinner =    1.100   1.100   1.100
                                                       1.100   1.100

     PseudoPot. # 2 for Pd read from file:
     /afs/slac.stanford.edu/u/if/mamunm/psp/gbrv1.5pbe/Pd.UPF
     MD5 check sum: 2d733d2bc2cbfd217af676df1668a4bc
     Pseudo is Ultrasoft + core correction, Zval = 16.0
     Generated by new atomic code, or converted to UPF format
     Using radial grid of  887 points,  6 beta functions with:
                l(1) =   0
                l(2) =   0
                l(3) =   1
                l(4) =   1
                l(5) =   2
                l(6) =   2
     Q(r) pseudized with  8 coefficients,  rinner =    1.130   1.130   1.130
                                                       1.130   1.130

     vdW kernel table read from file vdW_kernel_table
     MD5 check sum: 095c7af220d748ca6e76c0b4c6cfb241

     atomic species   valence    mass     pseudopotential
        V1            13.00    50.94150     V ( 1.00)
        Pd1           16.00   106.42000     Pd( 1.00)

     No symmetry found

   Cartesian axes

     site n.     atom                  positions (alat units)
         1           V1  tau(   1) = (   0.0000000   0.0000000  10.0000000  )
         2           V1  tau(   2) = (   2.7013897   0.0000000  10.0000000  )
         3           Pd1 tau(   3) = (   1.3506949   2.3910636  10.0000000  )
         4           Pd1 tau(   4) = (  -1.3506949   2.3910636  10.0000000  )
         5           V1  tau(   5) = (   2.7013897   1.5259959  12.2290902  )
         6           V1  tau(   6) = (   0.0000000   1.5259959  12.2290902  )
         7           Pd1 tau(   7) = (  -1.3506949   3.9170595  12.2290902  )
         8           Pd1 tau(   8) = (   1.3506949   3.9170595  12.2290902  )
         9           V1  tau(   9) = (  -0.0000000   3.0519918  14.4581804  )
        10           V1  tau(  10) = (   2.7013897   3.0519918  14.4581804  )
        11           Pd1 tau(  11) = (   4.0520846   0.6609282  14.4581804  )
        12           Pd1 tau(  12) = (   1.3506949   0.6609282  14.4581804  )

     number of k points=    20  Fermi-Dirac smearing, width (Ry)=  0.0110
                       cart. coord. in units 2pi/alat
        k(    1) = (   0.0000000   0.0000000   0.0000000), wk =   0.0555556
        k(    2) = (   0.0000000   0.0348520   0.0000000), wk =   0.1111111
        k(    3) = (   0.0000000   0.0697040   0.0000000), wk =   0.1111111
        k(    4) = (   0.0000000  -0.1045560   0.0000000), wk =   0.0555556
        k(    5) = (   0.0308483   0.0174260   0.0000000), wk =   0.1111111
        k(    6) = (   0.0308483   0.0522780   0.0000000), wk =   0.1111111
        k(    7) = (   0.0308483   0.0871300   0.0000000), wk =   0.1111111
        k(    8) = (   0.0308483  -0.0871300   0.0000000), wk =   0.1111111
        k(    9) = (   0.0308483  -0.0522780   0.0000000), wk =   0.1111111
        k(   10) = (   0.0308483  -0.0174260   0.0000000), wk =   0.1111111
        k(   11) = (   0.0616966   0.0348520   0.0000000), wk =   0.1111111
        k(   12) = (   0.0616966   0.0697040   0.0000000), wk =   0.1111111
        k(   13) = (   0.0616966   0.1045560   0.0000000), wk =   0.1111111
        k(   14) = (   0.0616966  -0.0697040   0.0000000), wk =   0.1111111
        k(   15) = (   0.0616966  -0.0348520   0.0000000), wk =   0.1111111
        k(   16) = (   0.0616966   0.0000000   0.0000000), wk =   0.1111111
        k(   17) = (  -0.0925450  -0.0522780   0.0000000), wk =   0.0555556
        k(   18) = (  -0.0925450  -0.0174260   0.0000000), wk =   0.1111111
        k(   19) = (  -0.0925450   0.0174260   0.0000000), wk =   0.1111111
        k(   20) = (  -0.0925450  -0.1568340   0.0000000), wk =   0.0555556

     Largest allocated arrays     est. size (Mb)     dimensions
     Largest temporary arrays     est. size (Mb)     dimensions

     Initial potential from superposition of free atoms
     Check: negative starting charge=   -0.453193

     starting charge  170.99259, renormalised to  174.00000

     negative rho (up, down):  4.612E-01 0.000E+00

     *
     * You are using vdW-DF for exchange-correlation in this calculation.
     * Please cite the following three references that made this development
     * possible:
     *
     *   M. Dion, H. Rydberg, E. Schroder, D. C. Langreth, and
     *   B. I. Lundqvist, Phys. Rev. Lett. 92, 246401 (2004).
     *
     *   T. Thonhauser, V. R. Cooper, S. Li, A. Puzder, P. Hyldgaard, and
     *   D. C. Langreth, Phys. Rev. B 76, 125112 (2007).
     *
     *   G. Roman-Perez and J. M. Soler, Phys. Rev. Lett. 103, 096102 (2009).
     *
     *
     * If you are using vdW-DF2, please also cite:
     *
     *   K. Lee, E. D. Murray, L. Kong, B. I. Lundqvist, and
     *   D. C. Langreth, Phys. Rev. B 82, 081101(R) (2010).
     *
     *
     * If you are calculating the stress with vdW-DF, please also cite:
     *
     *   R. Sabatini, E. Kucukbenli, B. Kolb, T. Thonhauser, and
     *   S. de Gironcoli, J. Phys.: Condens. Matter 24, 424209 (2012).
     *

     Carrying out vdW-DF run using the following parameters:

     Nqs =      20    Nr_points =    1024   r_max =   100.000
     q_mesh =
               0.00001000     0.04494208     0.09755937     0.15916263
               0.23128650     0.31572767     0.41458969     0.53033537
               0.66584808     0.82450364     1.01025438     1.22772762
               1.48234092     1.78043706     2.12944203     2.53805004
               3.01644009     3.57652955     4.23227104     5.00000000

     Gradients computed in reciprocal space

     Adding external electric field

     Computed dipole along edir(3) :
        Dipole               -0.0000 Ry au,         -0.0000 Debye
        Dipole field         -0.0000 Ry au

        Potential amp.        0.0000 Ry
        Total length         45.0638 bohr

     Starting wfc are  132 randomized atomic wfcs

     Self-consistent Calculation

     iteration #  1     ecut=    36.75 Ry     beta=0.10
     Davidson diagonalization with overlap
     ethr =  1.00E-02,  avg # of iterations =  5.8

[...]

     total energy              =   -2070.20710621 Ry
     Harris-Foulkes estimate   =   -2075.90084607 Ry
     estimated scf accuracy    <      32.22058367 Ry

[...]

     End of self-consistent calculation

          k = 0.0000 0.0000 0.0000 ( 15941 PWs)   bands (ev):

   -63.1846 -63.1738 -63.1430 -63.1330 -63.1230 -63.0922 -49.6021 -49.5414
   -49.5154 -49.4643 -49.4380 -49.3468 -49.1930 -49.1928 -49.1886 -49.1837
   -49.1625 -49.1576 -48.9901 -48.9754 -48.9657 -48.9511 -48.9376 -48.9375
   -37.1437 -37.1149 -37.0876 -37.0694 -37.0657 -37.0435 -37.0290 -37.0240
   -37.0104 -37.0065 -36.9918 -36.9839 -36.9493 -36.7475 -36.7372 -36.7082
   -36.6059 -36.6045  -5.2180  -3.8838  -3.7962  -3.6732  -3.6380  -3.6193
    -3.3533  -3.2129  -3.1233  -3.0812  -3.0396  -2.9830  -2.9401  -2.7573
    -2.3804  -2.2814  -1.9973  -1.7928  -1.7258  -1.6303  -1.6136  -1.4025
    -1.2609  -1.1775  -1.0889  -0.9703  -0.8689  -0.7201  -0.7037  -0.2007
     0.0520   0.3278   0.4009   0.4590   0.5878   0.6144   0.9263   0.9329
     1.0093   1.2548   1.3267   1.4206   1.4730   1.5863   1.9313   1.9428
     2.0031   2.0248   2.0496   2.0960   2.3776   2.4947   2.6335   2.8164
     2.8377   2.8481   3.0191   3.0394   3.0835   3.1130   3.2251   3.2262
     3.2926   3.3811   3.4408   3.5378   3.7757   4.7079   4.8230   4.8382
     5.0856   5.2939   5.3239   5.3449   5.5577

[...]

          k =-0.0925-0.0523 0.0000 ( 16042 PWs)   bands (ev):

[...]

     the Fermi energy is     1.4094 ev

!    total energy              =   -2073.27128934 Ry
     Harris-Foulkes estimate   =   -2073.27129004 Ry
     estimated scf accuracy    <       0.00000053 Ry

     The total energy is the sum of the following terms:

     one-electron contribution =  -17834.97268352 Ry
     hartree contribution      =    8933.82519540 Ry
     xc contribution           =    -317.00543693 Ry
     ewald contribution        =    7144.98564802 Ry
     electric field correction =       0.00000000 Ry
     smearing contrib. (-TS)   =      -0.10401231 Ry

     convergence has been achieved in  22 iterations

 BEEF-vdW xc energy contributions
           1 :   -275.044290908415
           2 :    249.871610770566
           3 :   -207.381706895146
           4 :    159.641407324224
           5 :   -117.873616799630
           6 :    88.5458634818034
           7 :   -72.2051402624470
           8 :    65.0065117700845
           9 :   -61.6432483350117
          10 :    58.0186277896358
[...]
00030 suncat2067 pw.x -in pw.inp   Done                     12/19/2018 10:03:30
00031 suncat2067 pw.x -in pw.inp   Done                     12/19/2018 10:03:30

     Program PWSCF v.5.1rc2 (svn rev. 11289) starts on 19Dec2018 at 10: 3:36

[...]

   This run was terminated on:  10:18:54  19Dec2018

[...]

     Program PWSCF v.5.1rc2 (svn rev. 11289) starts on 19Dec2018 at 10:19: 0

[...]

     Program PWSCF v.5.1rc2 (svn rev. 11289) starts on 19Dec2018 at 10:36:23

     Current dimensions of program PWSCF are:
     Max number of different atomic species (ntypx) = 10
     Max number of k-points (npk) =  40000
     Max angular momentum in pseudopotentials (lmaxx) =  3
     Presently stress not available with electric field

     IMPORTANT: XC functional enforced from input :
     Exchange-correlation      = BEEF-VDW ( 1  4 27 13 2)
     Any further DFT definition will be discarded
     Please, verify this is what you really want

     Subspace diagonalization in iterative solution of the eigenvalue problem:
     a serial algorithm will be used

     Found symmetry operation: I + ( -0.5000  0.0000  0.0000)
     This is a supercell, fractional translations are disabled

     bravais-lattice index     =            0
     lattice parameter (alat)  =       1.8897  a.u.
     unit-cell volume          =    4264.4116 (a.u.)^3
     number of atoms/cell      =           12
     number of atomic types    =            2
     number of electrons       =       174.00
     number of Kohn-Sham states=          117
     kinetic-energy cutoff     =      36.7493  Ry
     charge density cutoff     =     367.4932  Ry
     convergence threshold     =      1.0E-06
     mixing beta               =       0.1000
     number of iterations used =           10  plain     mixing
     Exchange-correlation      = BEEF-VDW ( 1  4 27 13 2)
     nstep                     =           50

     celldm(1)=   1.889726  celldm(2)=   0.000000  celldm(3)=   0.000000
     celldm(4)=   0.000000  celldm(5)=   0.000000  celldm(6)=   0.000000

     crystal axes: (cart. coord. in units of alat)
               a(1) = (   5.402779   0.000000   0.000000 )
               a(2) = (  -2.701390   4.782127   0.000000 )
               a(3) = (   0.000000   0.000000  24.458180 )

     reciprocal axes: (cart. coord. in units 2 pi/alat)
               b(1) = (  0.185090  0.104556  0.000000 )
               b(2) = (  0.000000  0.209112  0.000000 )
               b(3) = (  0.000000  0.000000  0.040886 )

     PseudoPot. # 1 for V  read from file:
     /afs/slac.stanford.edu/u/if/mamunm/psp/gbrv1.5pbe/V.UPF
     MD5 check sum: 22b79981416ebb76fdaf5b1b8640f6fb
     Pseudo is Ultrasoft + core correction, Zval = 13.0
     Generated by new atomic code, or converted to UPF format
     Using radial grid of  853 points,  6 beta functions with:
                l(1) =   0
                l(2) =   0
                l(3) =   1
                l(4) =   1
                l(5) =   2
                l(6) =   2
     Q(r) pseudized with  8 coefficients,  rinner =    1.100   1.100   1.100
                                                       1.100   1.100

     PseudoPot. # 2 for Pd read from file:
     /afs/slac.stanford.edu/u/if/mamunm/psp/gbrv1.5pbe/Pd.UPF
     MD5 check sum: 2d733d2bc2cbfd217af676df1668a4bc
     Pseudo is Ultrasoft + core correction, Zval = 16.0
     Generated by new atomic code, or converted to UPF format
     Using radial grid of  887 points,  6 beta functions with:
                l(1) =   0
                l(2) =   0
                l(3) =   1
                l(4) =   1
                l(5) =   2
                l(6) =   2
     Q(r) pseudized with  8 coefficients,  rinner =    1.130   1.130   1.130
                                                       1.130   1.130

     vdW kernel table read from file vdW_kernel_table
     MD5 check sum: 095c7af220d748ca6e76c0b4c6cfb241

     atomic species   valence    mass     pseudopotential
        V1            13.00    50.94150     V ( 1.00)
        Pd1           16.00   106.42000     Pd( 1.00)

     No symmetry found

   Cartesian axes

     site n.     atom                  positions (alat units)
         1           V1  tau(   1) = (   0.0000000   0.0000000  10.0000000  )
         2           V1  tau(   2) = (   2.7013897   0.0000000  10.0000000  )
         3           Pd1 tau(   3) = (   1.3506949   2.3910636  10.0000000  )
         4           Pd1 tau(   4) = (  -1.3506949   2.3910636  10.0000000  )
         5           V1  tau(   5) = (   2.7013897   1.5259959  12.2290902  )
         6           V1  tau(   6) = (   0.0000000   1.5259959  12.2290902  )
         7           Pd1 tau(   7) = (  -1.3506949   3.9170595  12.2290902  )
         8           Pd1 tau(   8) = (   1.3506949   3.9170595  12.2290902  )
         9           V1  tau(   9) = (  -0.0000002   3.0232652  14.2915299  )
        10           V1  tau(  10) = (   2.7013896   3.0232718  14.2915271  )
        11           Pd1 tau(  11) = (   4.0520979   0.7385394  14.4824256  )
        12           Pd1 tau(  12) = (   1.3506813   0.7385397  14.4824263  )

     number of k points=    20  Fermi-Dirac smearing, width (Ry)=  0.0110
                       cart. coord. in units 2pi/alat
        k(    1) = (   0.0000000   0.0000000   0.0000000), wk =   0.0555556
        k(    2) = (   0.0000000   0.0348520   0.0000000), wk =   0.1111111
        k(    3) = (   0.0000000   0.0697040   0.0000000), wk =   0.1111111
        k(    4) = (   0.0000000  -0.1045560   0.0000000), wk =   0.0555556
        k(    5) = (   0.0308483   0.0174260   0.0000000), wk =   0.1111111
        k(    6) = (   0.0308483   0.0522780   0.0000000), wk =   0.1111111
        k(    7) = (   0.0308483   0.0871300   0.0000000), wk =   0.1111111
        k(    8) = (   0.0308483  -0.0871300   0.0000000), wk =   0.1111111
        k(    9) = (   0.0308483  -0.0522780   0.0000000), wk =   0.1111111
        k(   10) = (   0.0308483  -0.0174260   0.0000000), wk =   0.1111111
        k(   11) = (   0.0616966   0.0348520   0.0000000), wk =   0.1111111
        k(   12) = (   0.0616966   0.0697040   0.0000000), wk =   0.1111111
        k(   13) = (   0.0616966   0.1045560   0.0000000), wk =   0.1111111
        k(   14) = (   0.0616966  -0.0697040   0.0000000), wk =   0.1111111
        k(   15) = (   0.0616966  -0.0348520   0.0000000), wk =   0.1111111
        k(   16) = (   0.0616966   0.0000000   0.0000000), wk =   0.1111111
        k(   17) = (  -0.0925450  -0.0522780   0.0000000), wk =   0.0555556
        k(   18) = (  -0.0925450  -0.0174260   0.0000000), wk =   0.1111111
        k(   19) = (  -0.0925450   0.0174260   0.0000000), wk =   0.1111111
        k(   20) = (  -0.0925450  -0.1568340   0.0000000), wk =   0.0555556

     Largest allocated arrays     est. size (Mb)     dimensions
     Largest temporary arrays     est. size (Mb)     dimensions

     Initial potential from superposition of free atoms
     Check: negative starting charge=   -0.451453

     starting charge  170.99259, renormalised to  174.00000

[...]

     *
     * You are using vdW-DF for exchange-correlation in this calculation.
     * Please cite the following three references that made this development
     * possible:
     *
     *   M. Dion, H. Rydberg, E. Schroder, D. C. Langreth, and
     *   B. I. Lundqvist, Phys. Rev. Lett. 92, 246401 (2004).
     *
     *   T. Thonhauser, V. R. Cooper, S. Li, A. Puzder, P. Hyldgaard, and
     *   D. C. Langreth, Phys. Rev. B 76, 125112 (2007).
     *
     *   G. Roman-Perez and J. M. Soler, Phys. Rev. Lett. 103, 096102 (2009).
     *
     *
     * If you are using vdW-DF2, please also cite:
     *
     *   K. Lee, E. D. Murray, L. Kong, B. I. Lundqvist, and
     *   D. C. Langreth, Phys. Rev. B 82, 081101(R) (2010).
     *
     *
     * If you are calculating the stress with vdW-DF, please also cite:
     *
     *   R. Sabatini, E. Kucukbenli, B. Kolb, T. Thonhauser, and
     *   S. de Gironcoli, J. Phys.: Condens. Matter 24, 424209 (2012).
     *

     Carrying out vdW-DF run using the following parameters:

     Nqs =      20    Nr_points =    1024   r_max =   100.000
     q_mesh =
               0.00001000     0.04494208     0.09755937     0.15916263
               0.23128650     0.31572767     0.41458969     0.53033537
               0.66584808     0.82450364     1.01025438     1.22772762
               1.48234092     1.78043706     2.12944203     2.53805004
               3.01644009     3.57652955     4.23227104     5.00000000

     Gradients computed in reciprocal space

[...]

     Starting wfc are  132 randomized atomic wfcs

     Self-consistent Calculation

[...]

     total energy              =   -2073.28574269 Ry
     Harris-Foulkes estimate   =   -2073.28574139 Ry
     estimated scf accuracy    <       0.00000385 Ry

     iteration # 22     ecut=    36.75 Ry     beta=0.10
     Davidson diagonalization with overlap
     ethr =  2.21E-09,  avg # of iterations =  2.2

[...]

     negative rho (up, down):  4.810E-01 0.000E+00

     Adding external electric field

     Computed dipole along edir(3) :
        Dipole               -0.0154 Ry au,         -0.0392 Debye
        Dipole field         -0.0000 Ry au

        Potential amp.        0.0041 Ry
        Total length         45.0638 bohr

     End of self-consistent calculation

[...]

          k = 0.0617 0.0000 0.0000 ( 16056 PWs)   bands (ev):

[...]

          k =-0.0925-0.1568 0.0000 ( 16042 PWs)   bands (ev):

   -63.2063 -63.2059 -63.1583 -63.1582 -63.1090 -63.1089 -49.7010 -49.7010
   -49.6364 -49.6364 -49.5647 -49.5647 -49.2040 -49.2040 -49.1758 -49.1758
   -49.0992 -49.0992 -49.0823 -49.0823 -49.0001 -49.0001 -48.9710 -48.9710
   -37.1496 -37.1493 -37.0957 -37.0955 -37.0626 -37.0626 -37.0213 -37.0212
   -37.0015 -37.0015 -36.9708 -36.9707 -36.8552 -36.8548 -36.8280 -36.8280
   -36.6813 -36.6813  -3.7644  -3.7644  -3.1786  -3.1786  -3.0130  -3.0129
    -2.9433  -2.9433  -2.6742  -2.6742  -2.5016  -2.5016  -2.4154  -2.4153
    -2.0953  -2.0953  -1.9001  -1.9001  -1.8200  -1.8200  -1.5698  -1.5697
    -1.5226  -1.5225  -1.4293  -1.4293  -1.3203  -1.3202  -1.1649  -1.1649
    -1.0670  -1.0669  -0.8151  -0.8151   0.1956   0.1957   0.6683   0.6683
     0.7121   0.7121   0.8898   0.8899   1.1847   1.1848   1.5436   1.5437
     1.6920   1.6920   1.7792   1.7794   1.8972   1.8972   1.9534   1.9535
     1.9992   1.9992   2.2867   2.2868   2.7385   2.7386   2.9248   2.9249
     3.0823   3.0823   3.8812   3.8813   4.4878   4.4879   5.0762   5.0762
     5.6726   5.6726   6.8046   6.8049   6.9989

     the Fermi energy is     1.3699 ev

!    total energy              =   -2073.28574210 Ry
     Harris-Foulkes estimate   =   -2073.28574331 Ry
     estimated scf accuracy    <       0.00000077 Ry

     The total energy is the sum of the following terms:

     one-electron contribution =  -17986.00580848 Ry
     hartree contribution      =    9009.07440898 Ry
     xc contribution           =    -317.13727477 Ry
     ewald contribution        =    7220.88164251 Ry
     electric field correction =       0.00000070 Ry
     smearing contrib. (-TS)   =      -0.09871104 Ry

     convergence has been achieved in  22 iterations

 BEEF-vdW xc energy contributions
           1 :   -275.178939636145
           2 :    250.048376797327
           3 :   -207.603213268727
           4 :    159.860727536769
           5 :   -118.023090636416
           6 :    88.5833924727962
           7 :   -72.1433305262070
           8 :    64.9054546828400
           9 :   -61.5745986669363
          10 :    58.0247751867155
          11 :   -52.6139901076658
          12 :    45.9369901835291
          13 :   -39.6070519496352
          14 :    34.9547761960384
          15 :   -32.3305453515959
          16 :    31.1760661208373
          17 :   -30.5709417126301
          18 :    29.7830032272766
          19 :   -28.5168734132212
          20 :    26.8445468437431
          21 :   -25.0035882000420
          22 :    23.2395060129558
          23 :   -21.7461362962885
          24 :    20.6479719172557
          25 :   -19.9696606637101
          26 :    19.5978613885605
          27 :   -19.2919630407009
          28 :    18.7784816072859
          29 :   -17.8970978482146
          30 :    16.7063660805512
          31 :   -27.4001258507114
          32 :   -20.1055914664827

     Forces acting on atoms (Ry/au):

     negative rho (up, down):  4.810E-01 0.000E+00
     atom    1 type  1   force =     0.00000004    0.01459018    0.02557261
     atom    2 type  1   force =    -0.00000000    0.01458735    0.02556158
     atom    3 type  2   force =     0.00000598   -0.02413224   -0.01146665
     atom    4 type  2   force =    -0.00000568   -0.02413260   -0.01146573
     atom    5 type  1   force =    -0.00000015    0.00034824   -0.00505714
     atom    6 type  1   force =     0.00000007    0.00036194   -0.00503408
     atom    7 type  2   force =    -0.00001949    0.00891628   -0.00799471
     atom    8 type  2   force =     0.00001948    0.00891617   -0.00799476
     atom    9 type  1   force =    -0.00000002    0.00064369    0.00001003
     atom   10 type  1   force =    -0.00000002    0.00064162    0.00001236
     atom   11 type  2   force =    -0.00001336   -0.00037043   -0.00107162
     atom   12 type  2   force =     0.00001316   -0.00037020   -0.00107189

     Total force =     0.059179     Total SCF correction =     0.002586

     entering subroutine stress ...

     negative rho (up, down):  4.810E-01 0.000E+00
          total   stress  (Ry/bohr**3)                   (kbar)     P=   -9.79
  -0.00004419  -0.00000000   0.00000000         -6.50     -0.00      0.00
  -0.00000000  -0.00011316   0.00001887         -0.00    -16.65      2.78
   0.00000000   0.00001887  -0.00004233          0.00      2.78     -6.23

 !ASE

     Writing output data file calc.save

     General routines

     Parallel routines

   This run was terminated on:  10:52:21  19Dec2018

   JOB DONE.
Job  /afs/slac/g/suncat/bin/suncat-tsmpirun -x LD_LIBRARY_PATH -wdir /scratch/qe530767_VzcLI pw.x -in pw.inp

TID   HOST_NAME   COMMAND_LINE            STATUS            TERMINATION_TIME
00000 suncat2068 pw.x -in pw.inp   Done                     12/19/2018 10:52:21
00001 suncat2068 pw.x -in pw.inp   Done                     12/19/2018 10:52:21
00002 suncat2068 pw.x -in pw.inp   Done                     12/19/2018 10:52:21
00003 suncat2068 pw.x -in pw.inp   Done                     12/19/2018 10:52:21
00004 suncat2068 pw.x -in pw.inp   Done                     12/19/2018 10:52:21
00005 suncat2068 pw.x -in pw.inp   Done                     12/19/2018 10:52:21
00006 suncat2068 pw.x -in pw.inp   Done                     12/19/2018 10:52:21
00007 suncat2068 pw.x -in pw.inp   Done                     12/19/2018 10:52:21
00008 suncat2068 pw.x -in pw.inp   Done                     12/19/2018 10:52:21
00009 suncat2068 pw.x -in pw.inp   Done                     12/19/2018 10:52:21
00010 suncat2068 pw.x -in pw.inp   Done                     12/19/2018 10:52:21
00011 suncat2068 pw.x -in pw.inp   Done                     12/19/2018 10:52:21
00012 suncat2068 pw.x -in pw.inp   Done                     12/19/2018 10:52:21
00013 suncat2068 pw.x -in pw.inp   Done                     12/19/2018 10:52:21
00014 suncat2068 pw.x -in pw.inp   Done                     12/19/2018 10:52:21
00015 suncat2068 pw.x -in pw.inp   Done                     12/19/2018 10:52:21
00016 suncat2067 pw.x -in pw.inp   Done                     12/19/2018 10:52:21
00017 suncat2067 pw.x -in pw.inp   Done                     12/19/2018 10:52:21
00018 suncat2067 pw.x -in pw.inp   Done                     12/19/2018 10:52:21
00019 suncat2067 pw.x -in pw.inp   Done                     12/19/2018 10:52:21
00020 suncat2067 pw.x -in pw.inp   Done                     12/19/2018 10:52:21
00021 suncat2067 pw.x -in pw.inp   Done                     12/19/2018 10:52:21
00022 suncat2067 pw.x -in pw.inp   Done                     12/19/2018 10:52:21
00023 suncat2067 pw.x -in pw.inp   Done                     12/19/2018 10:52:21
00024 suncat2067 pw.x -in pw.inp   Done                     12/19/2018 10:52:21
00025 suncat2067 pw.x -in pw.inp   Done                     12/19/2018 10:52:21
00026 suncat2067 pw.x -in pw.inp   Done                     12/19/2018 10:52:21
00027 suncat2067 pw.x -in pw.inp   Done                     12/19/2018 10:52:21
00028 suncat2067 pw.x -in pw.inp   Done                     12/19/2018 10:52:21
00029 suncat2067 pw.x -in pw.inp   Done                     12/19/2018 10:52:21
00030 suncat2067 pw.x -in pw.inp   Done                     12/19/2018 10:52:21
00031 suncat2067 pw.x -in pw.inp   Done                     12/19/2018 10:52:21