     Program PWSCF v.5.1rc2 (svn rev. 11289) starts on 19Dec2018 at 17:56:18

     Current dimensions of program PWSCF are:
     Max number of different atomic species (ntypx) = 10
     Max number of k-points (npk) =  40000
     Max angular momentum in pseudopotentials (lmaxx) =  3
     Presently stress not available with electric field

     IMPORTANT: XC functional enforced from input :
     Exchange-correlation      = BEEF-VDW ( 1  4 27 13 2)
     Any further DFT definition will be discarded
     Please, verify this is what you really want

     Subspace diagonalization in iterative solution of the eigenvalue problem:
     a serial algorithm will be used

     bravais-lattice index     =            0
     lattice parameter (alat)  =       1.8897  a.u.
     unit-cell volume          =    5692.8000 (a.u.)^3
     number of atoms/cell      =           12
     number of atomic types    =            2
     number of electrons       =        69.00
     number of Kohn-Sham states=           64
     kinetic-energy cutoff     =      36.7493  Ry
     charge density cutoff     =     367.4932  Ry
     convergence threshold     =      1.0E-06
     mixing beta               =       0.1000
     number of iterations used =           10  plain     mixing
     Exchange-correlation      = BEEF-VDW ( 1  4 27 13 2)
     nstep                     =           50

     celldm(1)=   1.889726  celldm(2)=   0.000000  celldm(3)=   0.000000
     celldm(4)=   0.000000  celldm(5)=   0.000000  celldm(6)=   0.000000

     crystal axes: (cart. coord. in units of alat)
               a(1) = (   6.231158   0.000000   0.000000 )
               a(2) = (  -3.115579   5.396341   0.000000 )
               a(3) = (   0.000000   0.000000  25.087719 )

     reciprocal axes: (cart. coord. in units 2 pi/alat)
               b(1) = (  0.160484  0.092655  0.000000 )
               b(2) = (  0.000000  0.185311  0.000000 )
               b(3) = (  0.000000  0.000000  0.039860 )

     PseudoPot. # 1 for Al read from file:
     /afs/slac.stanford.edu/u/if/mamunm/psp/gbrv1.5pbe/Al.UPF
     MD5 check sum: 0a6289f5291fc8f409219462bc851e1f
     Pseudo is Ultrasoft + core correction, Zval =  3.0
     Generated by new atomic code, or converted to UPF format
     Using radial grid of  893 points,  3 beta functions with:
                l(1) =   0
                l(2) =   1
                l(3) =   2
     Q(r) pseudized with  8 coefficients,  rinner =    0.900   0.900   0.900
                                                       0.900   0.900

     PseudoPot. # 2 for Pb read from file:
     /afs/slac.stanford.edu/u/if/mamunm/psp/gbrv1.5pbe/Pb.UPF
     MD5 check sum: 3d1c1779aa92214d1e8f3a7db79003e2
     Pseudo is Ultrasoft + core correction, Zval = 14.0
     Generated by new atomic code, or converted to UPF format
     Using radial grid of  899 points,  6 beta functions with:
                l(1) =   0
                l(2) =   0
                l(3) =   1
                l(4) =   1
                l(5) =   2
                l(6) =   2
     Q(r) pseudized with  6 coefficients,  rinner =    1.000   1.000   1.000
                                                       1.000   1.000

     vdW kernel table read from file vdW_kernel_table
     MD5 check sum: 095c7af220d748ca6e76c0b4c6cfb241

     atomic species   valence    mass     pseudopotential
        Al1            3.00    26.98154     Al( 1.00)
        Pb1           14.00   207.20000     Pb( 1.00)

     No symmetry found

   Cartesian axes

     site n.     atom                  positions (alat units)
         1           Al1 tau(   1) = (   0.0000000   0.0000000  10.0000000  )
         2           Al1 tau(   2) = (  -1.5577895   2.6981705  10.0000000  )
         3           Al1 tau(   3) = (   1.5577895   2.6981705  10.0000000  )
         4           Pb1 tau(   4) = (   3.1155790   0.0000000  10.0000000  )
         5           Al1 tau(   5) = (   3.1155790   1.7987804  12.5438596  )
         6           Al1 tau(   6) = (   1.5577895   4.4969509  12.5438596  )
         7           Al1 tau(   7) = (  -1.5577895   4.4969509  12.5438596  )
         8           Pb1 tau(   8) = (   0.0000000   1.7987804  12.5438596  )
         9           Al1 tau(   9) = (  -0.0000000   3.5975607  15.0877191  )
        10           Al1 tau(  10) = (   1.5577895   0.8993902  15.0877191  )
        11           Al1 tau(  11) = (   4.6733684   0.8993902  15.0877191  )
        12           Pb1 tau(  12) = (   3.1155790   3.5975607  15.0877191  )

     number of k points=    20  Fermi-Dirac smearing, width (Ry)=  0.0110
                       cart. coord. in units 2pi/alat
        k(    1) = (   0.0000000   0.0000000   0.0000000), wk =   0.0555556
        k(    2) = (   0.0000000   0.0308851   0.0000000), wk =   0.1111111
        k(    3) = (   0.0000000   0.0617702   0.0000000), wk =   0.1111111
        k(    4) = (   0.0000000  -0.0926554   0.0000000), wk =   0.0555556
        k(    5) = (   0.0267473   0.0154426   0.0000000), wk =   0.1111111
        k(    6) = (   0.0267473   0.0463277   0.0000000), wk =   0.1111111
        k(    7) = (   0.0267473   0.0772128   0.0000000), wk =   0.1111111
        k(    8) = (   0.0267473  -0.0772128   0.0000000), wk =   0.1111111
        k(    9) = (   0.0267473  -0.0463277   0.0000000), wk =   0.1111111
        k(   10) = (   0.0267473  -0.0154426   0.0000000), wk =   0.1111111
        k(   11) = (   0.0534946   0.0308851   0.0000000), wk =   0.1111111
        k(   12) = (   0.0534946   0.0617702   0.0000000), wk =   0.1111111
        k(   13) = (   0.0534946   0.0926554   0.0000000), wk =   0.1111111
        k(   14) = (   0.0534946  -0.0617702   0.0000000), wk =   0.1111111
        k(   15) = (   0.0534946  -0.0308851   0.0000000), wk =   0.1111111
        k(   16) = (   0.0534946   0.0000000   0.0000000), wk =   0.1111111
        k(   17) = (  -0.0802419  -0.0463277   0.0000000), wk =   0.0555556
        k(   18) = (  -0.0802419  -0.0154426   0.0000000), wk =   0.1111111
        k(   19) = (  -0.0802419   0.0154426   0.0000000), wk =   0.1111111
        k(   20) = (  -0.0802419  -0.1389831   0.0000000), wk =   0.0555556

     Largest allocated arrays     est. size (Mb)     dimensions
     Largest temporary arrays     est. size (Mb)     dimensions

     Initial potential from superposition of free atoms
     Check: negative starting charge=   -0.048742

     starting charge   68.97076, renormalised to   69.00000

     negative rho (up, down):  4.876E-02 0.000E+00

     *
     * You are using vdW-DF for exchange-correlation in this calculation.
     * Please cite the following three references that made this development
     * possible:
     *
     *   M. Dion, H. Rydberg, E. Schroder, D. C. Langreth, and
     *   B. I. Lundqvist, Phys. Rev. Lett. 92, 246401 (2004).
     *
     *   T. Thonhauser, V. R. Cooper, S. Li, A. Puzder, P. Hyldgaard, and
     *   D. C. Langreth, Phys. Rev. B 76, 125112 (2007).
     *
     *   G. Roman-Perez and J. M. Soler, Phys. Rev. Lett. 103, 096102 (2009).
     *
     *
     * If you are using vdW-DF2, please also cite:
     *
     *   K. Lee, E. D. Murray, L. Kong, B. I. Lundqvist, and
     *   D. C. Langreth, Phys. Rev. B 82, 081101(R) (2010).
     *
     *
     * If you are calculating the stress with vdW-DF, please also cite:
     *
     *   R. Sabatini, E. Kucukbenli, B. Kolb, T. Thonhauser, and
     *   S. de Gironcoli, J. Phys.: Condens. Matter 24, 424209 (2012).
     *

     Carrying out vdW-DF run using the following parameters:

     Nqs =      20    Nr_points =    1024   r_max =   100.000
     q_mesh =
               0.00001000     0.04494208     0.09755937     0.15916263
               0.23128650     0.31572767     0.41458969     0.53033537
               0.66584808     0.82450364     1.01025438     1.22772762
               1.48234092     1.78043706     2.12944203     2.53805004
               3.01644009     3.57652955     4.23227104     5.00000000

     Gradients computed in reciprocal space

     Adding external electric field

     Computed dipole along edir(3) :
        Dipole               -0.0000 Ry au,         -0.0000 Debye
        Dipole field         -0.0000 Ry au

        Potential amp.        0.0000 Ry
        Total length         46.2237 bohr

     Starting wfc are   63 randomized atomic wfcs +    1 random wfc

     Self-consistent Calculation

     iteration #  1     ecut=    36.75 Ry     beta=0.10
     Davidson diagonalization with overlap
     ethr =  1.00E-02,  avg # of iterations =  6.5

     Threshold (ethr) on eigenvalues was too large:
     Diagonalizing with lowered threshold

     Davidson diagonalization with overlap
     ethr =  5.64E-04,  avg # of iterations =  4.0

[...]

     total energy              =    -559.58596122 Ry
     Harris-Foulkes estimate   =    -559.64578341 Ry
     estimated scf accuracy    <       0.39072506 Ry

[...]

     End of self-consistent calculation

          k = 0.0000 0.0000 0.0000 ( 21487 PWs)   bands (ev):

   -17.5758 -17.5758 -17.5742 -17.5719 -17.5719 -17.5710 -17.5620 -17.5620
   -17.5513 -17.5513 -17.5316 -17.5316 -17.5253 -17.5054 -17.5054 -11.0749
    -9.8950  -8.7730  -5.8827  -5.6269  -4.7869  -4.7523  -4.7523  -4.6643
    -4.6643  -3.6402  -3.5340  -3.5340  -3.0855  -3.0548  -3.0548  -1.9229
    -1.7802  -1.2896  -1.2896  -1.0130  -1.0130   0.0114   1.5011   1.6549
     1.9999   1.9999   2.0867   2.0867   2.2472   3.0865   3.7601   4.0276
     4.0521   4.2842   4.2842   4.5620   4.8012   4.8012   5.2551   5.4079
     5.4285   5.4852   5.6051   5.6052   5.7067   5.7067   5.9976   6.5399

[...]

          k =-0.0802-0.0463 0.0000 ( 21424 PWs)   bands (ev):

[...]

     the Fermi energy is    -0.2394 ev

!    total energy              =    -559.59023381 Ry
     Harris-Foulkes estimate   =    -559.59030680 Ry
     estimated scf accuracy    <       0.00000008 Ry

     The total energy is the sum of the following terms:

     one-electron contribution =   -2111.47947148 Ry
     hartree contribution      =    1076.54347305 Ry
     xc contribution           =    -235.13967898 Ry
     ewald contribution        =     710.51671295 Ry
     electric field correction =       0.00000000 Ry
     smearing contrib. (-TS)   =      -0.03126935 Ry

     convergence has been achieved in  13 iterations

 BEEF-vdW xc energy contributions
           1 :   -206.675175216093
           2 :    189.628458702351
           3 :   -160.629644729638
           4 :    127.227968726461
           5 :   -96.1030699280229
           6 :    70.9363017343756
           7 :   -52.2255143780819
           8 :    38.5399047610836
           9 :   -28.0515908070331
          10 :    19.4276625650276
          11 :   -11.9565687719290
          12 :    5.35172780181611
          13 :   0.350891188903404
          14 :   -4.80007344639347
          15 :    7.49529994679014
          16 :   -8.19931121807787
          17 :    7.31624530877019
          18 :   -5.84613429218774
          19 :    4.84314340109648
          20 :   -4.76856476392757
          21 :    5.26493226189132
          22 :   -5.53521277662838
          23 :    5.00253717062827
          24 :   -3.72154777249798
[...]

     reciprocal axes: (cart. coord. in units 2 pi/alat)
               b(1) = (  0.160484  0.092655  0.000000 )
               b(2) = (  0.000000  0.185311  0.000000 )
               b(3) = (  0.000000  0.000000  0.039860 )

     PseudoPot. # 1 for Al read from file:
     /afs/slac.stanford.edu/u/if/mamunm/psp/gbrv1.5pbe/Al.UPF
     MD5 check sum: 0a6289f5291fc8f409219462bc851e1f
     Pseudo is Ultrasoft + core correction, Zval =  3.0
     Generated by new atomic code, or converted to UPF format
     Using radial grid of  893 points,  3 beta functions with:
                l(1) =   0
                l(2) =   1
                l(3) =   2
     Q(r) pseudized with  8 coefficients,  rinner =    0.900   0.900   0.900
                                                       0.900   0.900

     PseudoPot. # 2 for Pb read from file:
     /afs/slac.stanford.edu/u/if/mamunm/psp/gbrv1.5pbe/Pb.UPF
     MD5 check sum: 3d1c1779aa92214d1e8f3a7db79003e2
     Pseudo is Ultrasoft + core correction, Zval = 14.0
     Generated by new atomic code, or converted to UPF format
     Using radial grid of  899 points,  6 beta functions with:
                l(1) =   0
                l(2) =   0
                l(3) =   1
                l(4) =   1
                l(5) =   2
                l(6) =   2
     Q(r) pseudized with  6 coefficients,  rinner =    1.000   1.000   1.000
                                                       1.000   1.000

     vdW kernel table read from file vdW_kernel_table
     MD5 check sum: 095c7af220d748ca6e76c0b4c6cfb241

     atomic species   valence    mass     pseudopotential
        Al1            3.00    26.98154     Al( 1.00)
        Pb1           14.00   207.20000     Pb( 1.00)

     No symmetry found

   Cartesian axes

     site n.     atom                  positions (alat units)
         1           Al1 tau(   1) = (   0.0000000   0.0000000  10.0000000  )
         2           Al1 tau(   2) = (  -1.5577895   2.6981705  10.0000000  )
         3           Al1 tau(   3) = (   1.5577895   2.6981705  10.0000000  )
         4           Pb1 tau(   4) = (   3.1155790   0.0000000  10.0000000  )
         5           Al1 tau(   5) = (   3.1155790   1.7987804  12.5438596  )
         6           Al1 tau(   6) = (   1.5577895   4.4969509  12.5438596  )
         7           Al1 tau(   7) = (  -1.5577895   4.4969509  12.5438596  )
         8           Pb1 tau(   8) = (   0.0000000   1.7987804  12.5438596  )
         9           Al1 tau(   9) = (  -0.0000023   3.7549152  14.8254091  )
        10           Al1 tau(  10) = (   1.6940605   0.8207119  14.8254085  )
        11           Al1 tau(  11) = (   4.5370924   0.8207119  14.8254081  )
        12           Pb1 tau(  12) = (   3.1155764   3.5975619  15.4477871  )

     number of k points=    20  Fermi-Dirac smearing, width (Ry)=  0.0110
                       cart. coord. in units 2pi/alat
        k(    1) = (   0.0000000   0.0000000   0.0000000), wk =   0.0555556
        k(    2) = (   0.0000000   0.0308851   0.0000000), wk =   0.1111111
        k(    3) = (   0.0000000   0.0617702   0.0000000), wk =   0.1111111
        k(    4) = (   0.0000000  -0.0926554   0.0000000), wk =   0.0555556
        k(    5) = (   0.0267473   0.0154426   0.0000000), wk =   0.1111111
        k(    6) = (   0.0267473   0.0463277   0.0000000), wk =   0.1111111
        k(    7) = (   0.0267473   0.0772128   0.0000000), wk =   0.1111111
        k(    8) = (   0.0267473  -0.0772128   0.0000000), wk =   0.1111111
        k(    9) = (   0.0267473  -0.0463277   0.0000000), wk =   0.1111111
        k(   10) = (   0.0267473  -0.0154426   0.0000000), wk =   0.1111111
        k(   11) = (   0.0534946   0.0308851   0.0000000), wk =   0.1111111
        k(   12) = (   0.0534946   0.0617702   0.0000000), wk =   0.1111111
        k(   13) = (   0.0534946   0.0926554   0.0000000), wk =   0.1111111
        k(   14) = (   0.0534946  -0.0617702   0.0000000), wk =   0.1111111
        k(   15) = (   0.0534946  -0.0308851   0.0000000), wk =   0.1111111
        k(   16) = (   0.0534946   0.0000000   0.0000000), wk =   0.1111111
        k(   17) = (  -0.0802419  -0.0463277   0.0000000), wk =   0.0555556
        k(   18) = (  -0.0802419  -0.0154426   0.0000000), wk =   0.1111111
        k(   19) = (  -0.0802419   0.0154426   0.0000000), wk =   0.1111111
        k(   20) = (  -0.0802419  -0.1389831   0.0000000), wk =   0.0555556

     Largest allocated arrays     est. size (Mb)     dimensions
     Largest temporary arrays     est. size (Mb)     dimensions

     Initial potential from superposition of free atoms
     Check: negative starting charge=   -0.049606

     starting charge   68.97076, renormalised to   69.00000

[...]

     *
     * You are using vdW-DF for exchange-correlation in this calculation.
     * Please cite the following three references that made this development
     * possible:
     *
     *   M. Dion, H. Rydberg, E. Schroder, D. C. Langreth, and
     *   B. I. Lundqvist, Phys. Rev. Lett. 92, 246401 (2004).
     *
     *   T. Thonhauser, V. R. Cooper, S. Li, A. Puzder, P. Hyldgaard, and
     *   D. C. Langreth, Phys. Rev. B 76, 125112 (2007).
     *
     *   G. Roman-Perez and J. M. Soler, Phys. Rev. Lett. 103, 096102 (2009).
     *
     *
     * If you are using vdW-DF2, please also cite:
     *
     *   K. Lee, E. D. Murray, L. Kong, B. I. Lundqvist, and
     *   D. C. Langreth, Phys. Rev. B 82, 081101(R) (2010).
     *
     *
     * If you are calculating the stress with vdW-DF, please also cite:
     *
     *   R. Sabatini, E. Kucukbenli, B. Kolb, T. Thonhauser, and
     *   S. de Gironcoli, J. Phys.: Condens. Matter 24, 424209 (2012).
     *

     Carrying out vdW-DF run using the following parameters:

     Nqs =      20    Nr_points =    1024   r_max =   100.000
     q_mesh =
               0.00001000     0.04494208     0.09755937     0.15916263
               0.23128650     0.31572767     0.41458969     0.53033537
               0.66584808     0.82450364     1.01025438     1.22772762
               1.48234092     1.78043706     2.12944203     2.53805004
               3.01644009     3.57652955     4.23227104     5.00000000

     Gradients computed in reciprocal space

[...]

     Starting wfc are   63 randomized atomic wfcs +    1 random wfc

     Self-consistent Calculation

[...]

     Threshold (ethr) on eigenvalues was too large:
     Diagonalizing with lowered threshold

     Davidson diagonalization with overlap
     ethr =  7.47E-04,  avg # of iterations =  2.1

[...]

     total energy              =    -559.62012460 Ry
     Harris-Foulkes estimate   =    -559.62011778 Ry
     estimated scf accuracy    <       0.00000143 Ry

     iteration # 13     ecut=    36.75 Ry     beta=0.10
     Davidson diagonalization with overlap
     ethr =  2.07E-09,  avg # of iterations =  5.0

[...]

     negative rho (up, down):  5.362E-02 0.000E+00

     Adding external electric field

     Computed dipole along edir(3) :
        Dipole                0.0099 Ry au,          0.0252 Debye
        Dipole field          0.0000 Ry au

        Potential amp.       -0.0020 Ry
        Total length         46.2237 bohr

     End of self-consistent calculation

[...]

          k = 0.0535 0.0000 0.0000 ( 21431 PWs)   bands (ev):

[...]

          k =-0.0802-0.1390 0.0000 ( 21424 PWs)   bands (ev):

   -17.6289 -17.6137 -17.6136 -17.6069 -17.6058 -17.5904 -17.5886 -17.5690
   -17.5654 -17.5636 -17.5417 -17.5395 -17.5292 -17.5144 -17.5111 -10.3158
    -9.7225  -9.2098  -7.8130  -6.9020  -6.2056  -6.1753  -4.8554  -4.6107
    -4.4909  -3.7147  -2.5307  -1.9837  -1.8070  -1.2922  -1.2253  -1.2070
    -0.8782  -0.5341   0.1396   0.2964   0.6006   0.6248   0.9963   1.1501
     1.2196   1.3247   1.5993   2.1916   2.3672   2.5356   2.7453   2.8442
     2.9532   3.1781   3.5764   3.7788   3.8170   4.3270   4.4018   4.7182
     4.8931   5.0221   5.0466   5.2035   5.3067   5.3413   5.3726   5.4642

     the Fermi energy is    -0.2655 ev

!    total energy              =    -559.62004128 Ry
     Harris-Foulkes estimate   =    -559.62012509 Ry
     estimated scf accuracy    <       0.00000096 Ry

     The total energy is the sum of the following terms:

     one-electron contribution =   -2076.29001844 Ry
     hartree contribution      =    1058.91378629 Ry
     xc contribution           =    -235.22989063 Ry
     ewald contribution        =     693.01529827 Ry
     electric field correction =       0.00000022 Ry
     smearing contrib. (-TS)   =      -0.02921698 Ry

     convergence has been achieved in  13 iterations

 BEEF-vdW xc energy contributions
           1 :   -206.923562814734
           2 :    189.870119847920
           3 :   -160.871920931070
           4 :    127.495471287248
           5 :   -96.4271828451650
           6 :    71.3368784786920
           7 :   -52.6928946586237
           8 :    39.0286007256998
           9 :   -28.4964653509755
          10 :    19.7808593298242
          11 :   -12.2229334695233
          12 :    5.59251479773903
          13 :   5.601194693332445E-002
          14 :   -4.40885523087684
          15 :    7.03555480373282
          16 :   -7.75206048469764
          17 :    6.96154027020330
          18 :   -5.61287102293758
          19 :    4.69845510663734
          20 :   -4.64933638353833
          21 :    5.12323399367929
          22 :   -5.36491485341597
          23 :    4.83478025349902
          24 :   -3.60112856029238
          25 :    2.22716102549683
          26 :   -1.31672872084548
          27 :    1.11900672315275
          28 :   -1.46604272200585
          29 :    1.99354683394697
          30 :   -2.39560441125005
          31 :   -18.7979459436041
          32 :   -13.7457369461948

     Forces acting on atoms (Ry/au):

     negative rho (up, down):  5.362E-02 0.000E+00
     atom    1 type  1   force =    -0.00000005   -0.00730943    0.01073885
     atom    2 type  1   force =    -0.00633044    0.00365521    0.01073882
     atom    3 type  1   force =     0.00633036    0.00365520    0.01073885
     atom    4 type  2   force =     0.00000012   -0.00000203   -0.01499699
     atom    5 type  1   force =    -0.00000009    0.01027390   -0.00289609
     atom    6 type  1   force =     0.00889708   -0.00513648   -0.00289618
     atom    7 type  1   force =    -0.00889720   -0.00513644   -0.00289626
     atom    8 type  2   force =    -0.00000040    0.00000014   -0.01179847
     atom    9 type  1   force =    -0.00000003   -0.00094549    0.00072765
     atom   10 type  1   force =    -0.00081900    0.00047337    0.00072780
     atom   11 type  1   force =     0.00081901    0.00047340    0.00072775
     atom   12 type  2   force =     0.00000062   -0.00000134    0.00108424

     Total force =     0.034895     Total SCF correction =     0.005827
     SCF correction compared to forces is large: reduce conv_thr to get better values

     entering subroutine stress ...

     negative rho (up, down):  5.362E-02 0.000E+00
          total   stress  (Ry/bohr**3)                   (kbar)     P=   -4.26
  -0.00003930  -0.00000000   0.00000000         -5.78     -0.00      0.00
  -0.00000000  -0.00003930  -0.00000000         -0.00     -5.78     -0.00
   0.00000000  -0.00000000  -0.00000819          0.00     -0.00     -1.20

 !ASE

     Writing output data file calc.save

     General routines

     Parallel routines

   This run was terminated on:  19:26:48  19Dec2018

   JOB DONE.
Job  /afs/slac/g/suncat/bin/suncat-tsmpirun -x LD_LIBRARY_PATH -wdir /scratch/qe773285_8ESxq pw.x -in pw.inp

TID   HOST_NAME   COMMAND_LINE            STATUS            TERMINATION_TIME
00000 suncat0071 pw.x -in pw.inp   Done                     12/19/2018 19:26:48
00001 suncat0071 pw.x -in pw.inp   Done                     12/19/2018 19:26:48
00002 suncat0071 pw.x -in pw.inp   Done                     12/19/2018 19:26:48
00003 suncat0071 pw.x -in pw.inp   Done                     12/19/2018 19:26:48
00004 suncat0071 pw.x -in pw.inp   Done                     12/19/2018 19:26:48
00005 suncat0071 pw.x -in pw.inp   Done                     12/19/2018 19:26:48
00006 suncat0071 pw.x -in pw.inp   Done                     12/19/2018 19:26:48
00007 suncat0071 pw.x -in pw.inp   Done                     12/19/2018 19:26:48
00008 suncat0065 pw.x -in pw.inp   Done                     12/19/2018 19:26:48
00009 suncat0065 pw.x -in pw.inp   Done                     12/19/2018 19:26:48
00010 suncat0065 pw.x -in pw.inp   Done                     12/19/2018 19:26:48
00011 suncat0065 pw.x -in pw.inp   Done                     12/19/2018 19:26:48
00012 suncat0065 pw.x -in pw.inp   Done                     12/19/2018 19:26:48
00013 suncat0065 pw.x -in pw.inp   Done                     12/19/2018 19:26:48
00014 suncat0065 pw.x -in pw.inp   Done                     12/19/2018 19:26:48
00015 suncat0065 pw.x -in pw.inp   Done                     12/19/2018 19:26:48
00016 suncat0064 pw.x -in pw.inp   Done                     12/19/2018 19:26:48
00017 suncat0064 pw.x -in pw.inp   Done                     12/19/2018 19:26:48
00018 suncat0064 pw.x -in pw.inp   Done                     12/19/2018 19:26:48
00019 suncat0064 pw.x -in pw.inp   Done                     12/19/2018 19:26:48
00020 suncat0064 pw.x -in pw.inp   Done                     12/19/2018 19:26:48
00021 suncat0064 pw.x -in pw.inp   Done                     12/19/2018 19:26:48
00022 suncat0064 pw.x -in pw.inp   Done                     12/19/2018 19:26:48
00023 suncat0064 pw.x -in pw.inp   Done                     12/19/2018 19:26:48
00024 suncat0063 pw.x -in pw.inp   Done                     12/19/2018 19:26:48
00025 suncat0063 pw.x -in pw.inp   Done                     12/19/2018 19:26:48
00026 suncat0063 pw.x -in pw.inp   Done                     12/19/2018 19:26:48
00027 suncat0063 pw.x -in pw.inp   Done                     12/19/2018 19:26:48
00028 suncat0063 pw.x -in pw.inp   Done                     12/19/2018 19:26:48
00029 suncat0063 pw.x -in pw.inp   Done                     12/19/2018 19:26:48
00030 suncat0063 pw.x -in pw.inp   Done                     12/19/2018 19:26:48
00031 suncat0063 pw.x -in pw.inp   Done                     12/19/2018 19:26:48
00032 suncat0062 pw.x -in pw.inp   Done                     12/19/2018 19:26:48
00033 suncat0062 pw.x -in pw.inp   Done                     12/19/2018 19:26:48
00034 suncat0062 pw.x -in pw.inp   Done                     12/19/2018 19:26:48
00035 suncat0062 pw.x -in pw.inp   Done                     12/19/2018 19:26:48
00036 suncat0062 pw.x -in pw.inp   Done                     12/19/2018 19:26:48
00037 suncat0062 pw.x -in pw.inp   Done                     12/19/2018 19:26:48
00038 suncat0062 pw.x -in pw.inp   Done                     12/19/2018 19:26:48
00039 suncat0062 pw.x -in pw.inp   Done                     12/19/2018 19:26:48
00040 suncat0057 pw.x -in pw.inp   Done                     12/19/2018 19:26:48
00041 suncat0057 pw.x -in pw.inp   Done                     12/19/2018 19:26:48
00042 suncat0057 pw.x -in pw.inp   Done                     12/19/2018 19:26:48
00043 suncat0057 pw.x -in pw.inp   Done                     12/19/2018 19:26:48
00044 suncat0057 pw.x -in pw.inp   Done                     12/19/2018 19:26:48
00045 suncat0057 pw.x -in pw.inp   Done                     12/19/2018 19:26:48
00046 suncat0057 pw.x -in pw.inp   Done                     12/19/2018 19:26:48
00047 suncat0057 pw.x -in pw.inp   Done                     12/19/2018 19:26:48
00048 suncat0056 pw.x -in pw.inp   Done                     12/19/2018 19:26:48
00049 suncat0056 pw.x -in pw.inp   Done                     12/19/2018 19:26:48
00050 suncat0056 pw.x -in pw.inp   Done                     12/19/2018 19:26:48
00051 suncat0056 pw.x -in pw.inp   Done                     12/19/2018 19:26:48
00052 suncat0056 pw.x -in pw.inp   Done                     12/19/2018 19:26:48
00053 suncat0056 pw.x -in pw.inp   Done                     12/19/2018 19:26:48
00054 suncat0056 pw.x -in pw.inp   Done                     12/19/2018 19:26:48
00055 suncat0056 pw.x -in pw.inp   Done                     12/19/2018 19:26:48
00056 suncat0055 pw.x -in pw.inp   Done                     12/19/2018 19:26:48
00057 suncat0055 pw.x -in pw.inp   Done                     12/19/2018 19:26:48
00058 suncat0055 pw.x -in pw.inp   Done                     12/19/2018 19:26:48
00059 suncat0055 pw.x -in pw.inp   Done                     12/19/2018 19:26:48
00060 suncat0055 pw.x -in pw.inp   Done                     12/19/2018 19:26:48
00061 suncat0055 pw.x -in pw.inp   Done                     12/19/2018 19:26:48
00062 suncat0055 pw.x -in pw.inp   Done                     12/19/2018 19:26:48
00063 suncat0055 pw.x -in pw.inp   Done                     12/19/2018 19:26:48