     Program PWSCF v.5.1rc2 (svn rev. 11289) starts on 20Dec2018 at  8:38:55

     Current dimensions of program PWSCF are:
     Max number of different atomic species (ntypx) = 10
     Max number of k-points (npk) =  40000
     Max angular momentum in pseudopotentials (lmaxx) =  3
     Presently stress not available with electric field

     IMPORTANT: XC functional enforced from input :
     Exchange-correlation      = BEEF-VDW ( 1  4 27 13 2)
     Any further DFT definition will be discarded
     Please, verify this is what you really want

     Subspace diagonalization in iterative solution of the eigenvalue problem:
     a serial algorithm will be used

     Generating pointlists ...
     new r_m :   0.4125 (alat units)  0.7795 (a.u.) for type    1
     new r_m :   0.4125 (alat units)  0.7795 (a.u.) for type    2

     bravais-lattice index     =            0
     lattice parameter (alat)  =       1.8897  a.u.
     unit-cell volume          =    3612.3254 (a.u.)^3
     number of atoms/cell      =           12
     number of atomic types    =            2
     number of electrons       =       201.00
     number of Kohn-Sham states=          130
     kinetic-energy cutoff     =      36.7493  Ry
     charge density cutoff     =     367.4932  Ry
     convergence threshold     =      1.0E-06
     mixing beta               =       0.1000
     number of iterations used =           10  plain     mixing
     Exchange-correlation      = BEEF-VDW ( 1  4 27 13 2)
     nstep                     =           50

     celldm(1)=   1.889726  celldm(2)=   0.000000  celldm(3)=   0.000000
     celldm(4)=   0.000000  celldm(5)=   0.000000  celldm(6)=   0.000000

     crystal axes: (cart. coord. in units of alat)
               a(1) = (   5.060938   0.000000   0.000000 )
               a(2) = (  -2.530469   4.382901   0.000000 )
               a(3) = (   0.000000   0.000000  24.132238 )

     reciprocal axes: (cart. coord. in units 2 pi/alat)
               b(1) = (  0.197592  0.114080  0.000000 )
               b(2) = (  0.000000  0.228159  0.000000 )
               b(3) = (  0.000000  0.000000  0.041438 )

     PseudoPot. # 1 for Co read from file:
     /afs/slac.stanford.edu/u/if/mamunm/psp/gbrv1.5pbe/Co.UPF
     MD5 check sum: 5f91765df6ddd3222702df6e7b74a16d
     Pseudo is Ultrasoft + core correction, Zval = 17.0
     Generated by new atomic code, or converted to UPF format
     Using radial grid of  863 points,  6 beta functions with:
                l(1) =   0
                l(2) =   0
                l(3) =   1
                l(4) =   1
                l(5) =   2
                l(6) =   2
     Q(r) pseudized with  8 coefficients,  rinner =    1.200   1.200   1.200
                                                       1.200   1.200

     PseudoPot. # 2 for Os read from file:
     /afs/slac.stanford.edu/u/if/mamunm/psp/gbrv1.5pbe/Os.UPF
     MD5 check sum: a3fb40a04f0c37c25c34bbc47164c9a8
     Pseudo is Ultrasoft + core correction, Zval = 16.0
     Generated by new atomic code, or converted to UPF format
     Using radial grid of  983 points,  8 beta functions with:
                l(1) =   0
                l(2) =   0
                l(3) =   1
                l(4) =   1
                l(5) =   2
                l(6) =   2
                l(7) =   3
                l(8) =   3
     Q(r) pseudized with  8 coefficients,  rinner =    1.150   1.150   1.150
                                                       1.150   1.150   1.150
                                                       1.150

     vdW kernel table read from file vdW_kernel_table
     MD5 check sum: 095c7af220d748ca6e76c0b4c6cfb241

     atomic species   valence    mass     pseudopotential
        Co1           17.00    58.93319     Co( 1.00)
        Os1           16.00   190.23000     Os( 1.00)

     Starting magnetic structure
     atomic species   magnetization
        Co1          0.118
        Os1          0.125

     No symmetry found

   Cartesian axes

     site n.     atom                  positions (alat units)
         1           Co1 tau(   1) = (   0.0000000   0.0000000  10.0000000  )
         2           Co1 tau(   2) = (  -1.2652345   2.1914504  10.0000000  )
         3           Co1 tau(   3) = (   1.2652345   2.1914504  10.0000000  )
         4           Os1 tau(   4) = (   2.5304690   0.0000000  10.0000000  )
         5           Co1 tau(   5) = (   2.5304690   1.4609669  12.0661192  )
         6           Co1 tau(   6) = (   1.2652345   3.6524173  12.0661192  )
         7           Co1 tau(   7) = (  -1.2652345   3.6524173  12.0661192  )
         8           Os1 tau(   8) = (   0.0000000   1.4609669  12.0661192  )
         9           Co1 tau(   9) = (  -0.0000000   2.9219339  14.1322385  )
        10           Co1 tau(  10) = (   1.2652345   0.7304835  14.1322385  )
        11           Co1 tau(  11) = (   3.7957034   0.7304835  14.1322385  )
        12           Os1 tau(  12) = (   2.5304690   2.9219339  14.1322385  )

     number of k points=    40  Fermi-Dirac smearing, width (Ry)=  0.0110
                       cart. coord. in units 2pi/alat
        k(    1) = (   0.0000000   0.0000000   0.0000000), wk =   0.0277778
        k(    2) = (   0.0000000   0.0380266   0.0000000), wk =   0.0555556
        k(    3) = (   0.0000000   0.0760531   0.0000000), wk =   0.0555556
        k(    4) = (   0.0000000  -0.1140797   0.0000000), wk =   0.0277778
        k(    5) = (   0.0329320   0.0190133   0.0000000), wk =   0.0555556
        k(    6) = (   0.0329320   0.0570398   0.0000000), wk =   0.0555556
        k(    7) = (   0.0329320   0.0950664   0.0000000), wk =   0.0555556
        k(    8) = (   0.0329320  -0.0950664   0.0000000), wk =   0.0555556
        k(    9) = (   0.0329320  -0.0570398   0.0000000), wk =   0.0555556
        k(   10) = (   0.0329320  -0.0190133   0.0000000), wk =   0.0555556
        k(   11) = (   0.0658639   0.0380266   0.0000000), wk =   0.0555556
        k(   12) = (   0.0658639   0.0760531   0.0000000), wk =   0.0555556
        k(   13) = (   0.0658639   0.1140797   0.0000000), wk =   0.0555556
        k(   14) = (   0.0658639  -0.0760531   0.0000000), wk =   0.0555556
        k(   15) = (   0.0658639  -0.0380266   0.0000000), wk =   0.0555556
        k(   16) = (   0.0658639   0.0000000   0.0000000), wk =   0.0555556
        k(   17) = (  -0.0987959  -0.0570398   0.0000000), wk =   0.0277778
        k(   18) = (  -0.0987959  -0.0190133   0.0000000), wk =   0.0555556
        k(   19) = (  -0.0987959   0.0190133   0.0000000), wk =   0.0555556
        k(   20) = (  -0.0987959  -0.1711195   0.0000000), wk =   0.0277778
        k(   21) = (   0.0000000   0.0000000   0.0000000), wk =   0.0277778
        k(   22) = (   0.0000000   0.0380266   0.0000000), wk =   0.0555556
        k(   23) = (   0.0000000   0.0760531   0.0000000), wk =   0.0555556
        k(   24) = (   0.0000000  -0.1140797   0.0000000), wk =   0.0277778
        k(   25) = (   0.0329320   0.0190133   0.0000000), wk =   0.0555556
        k(   26) = (   0.0329320   0.0570398   0.0000000), wk =   0.0555556
        k(   27) = (   0.0329320   0.0950664   0.0000000), wk =   0.0555556
        k(   28) = (   0.0329320  -0.0950664   0.0000000), wk =   0.0555556
        k(   29) = (   0.0329320  -0.0570398   0.0000000), wk =   0.0555556
        k(   30) = (   0.0329320  -0.0190133   0.0000000), wk =   0.0555556
        k(   31) = (   0.0658639   0.0380266   0.0000000), wk =   0.0555556
        k(   32) = (   0.0658639   0.0760531   0.0000000), wk =   0.0555556
        k(   33) = (   0.0658639   0.1140797   0.0000000), wk =   0.0555556
        k(   34) = (   0.0658639  -0.0760531   0.0000000), wk =   0.0555556
        k(   35) = (   0.0658639  -0.0380266   0.0000000), wk =   0.0555556
        k(   36) = (   0.0658639   0.0000000   0.0000000), wk =   0.0555556
        k(   37) = (  -0.0987959  -0.0570398   0.0000000), wk =   0.0277778
        k(   38) = (  -0.0987959  -0.0190133   0.0000000), wk =   0.0555556
        k(   39) = (  -0.0987959   0.0190133   0.0000000), wk =   0.0555556
        k(   40) = (  -0.0987959  -0.1711195   0.0000000), wk =   0.0277778

     Largest allocated arrays     est. size (Mb)     dimensions
     Largest temporary arrays     est. size (Mb)     dimensions

     Check: negative/imaginary core charge=   -0.000005    0.000000

     Initial potential from superposition of free atoms
     Check: negative starting charge=(component1):   -0.213160
     Check: negative starting charge=(component2):   -0.165784

     starting charge  190.49983, renormalised to  201.00000

     negative rho (up, down):  2.249E-01 1.749E-01

     *
     * You are using vdW-DF for exchange-correlation in this calculation.
     * Please cite the following three references that made this development
     * possible:
     *
     *   M. Dion, H. Rydberg, E. Schroder, D. C. Langreth, and
     *   B. I. Lundqvist, Phys. Rev. Lett. 92, 246401 (2004).
     *
     *   T. Thonhauser, V. R. Cooper, S. Li, A. Puzder, P. Hyldgaard, and
     *   D. C. Langreth, Phys. Rev. B 76, 125112 (2007).
     *
     *   G. Roman-Perez and J. M. Soler, Phys. Rev. Lett. 103, 096102 (2009).
     *
     *
     * If you are using vdW-DF2, please also cite:
     *
     *   K. Lee, E. D. Murray, L. Kong, B. I. Lundqvist, and
     *   D. C. Langreth, Phys. Rev. B 82, 081101(R) (2010).
     *
     *
     * If you are calculating the stress with vdW-DF, please also cite:
     *
     *   R. Sabatini, E. Kucukbenli, B. Kolb, T. Thonhauser, and
     *   S. de Gironcoli, J. Phys.: Condens. Matter 24, 424209 (2012).
     *

     Carrying out vdW-DF run using the following parameters:

     Nqs =      20    Nr_points =    1024   r_max =   100.000
     q_mesh =
               0.00001000     0.04494208     0.09755937     0.15916263
               0.23128650     0.31572767     0.41458969     0.53033537
               0.66584808     0.82450364     1.01025438     1.22772762
               1.48234092     1.78043706     2.12944203     2.53805004
               3.01644009     3.57652955     4.23227104     5.00000000

     Gradients computed in reciprocal space

     Adding external electric field

     Computed dipole along edir(3) :
        Dipole                0.0000 Ry au,          0.0000 Debye
        Dipole field          0.0000 Ry au

        Potential amp.       -0.0000 Ry
        Total length         44.4632 bohr

[...]

     Starting wfc are  156 randomized atomic wfcs

     Self-consistent Calculation

     iteration #  1     ecut=    36.75 Ry     beta=0.10
     Davidson diagonalization with overlap
     ethr =  1.00E-02,  avg # of iterations =  6.8

[...]

     Magnetic moment per site:
     atom:    1    charge:    8.4391    magn:    0.9605    constr:    0.0000
     atom:    2    charge:    8.4391    magn:    0.9605    constr:    0.0000
     atom:    3    charge:    8.4391    magn:    0.9605    constr:    0.0000
     atom:    4    charge:    2.2947    magn:    0.2612    constr:    0.0000
     atom:    5    charge:    8.4458    magn:    0.9546    constr:    0.0000
     atom:    6    charge:    8.4458    magn:    0.9547    constr:    0.0000
[...]
        k(    5) = (   0.0329320   0.0190133   0.0000000), wk =   0.0555556
        k(    6) = (   0.0329320   0.0570398   0.0000000), wk =   0.0555556
        k(    7) = (   0.0329320   0.0950664   0.0000000), wk =   0.0555556
        k(    8) = (   0.0329320  -0.0950664   0.0000000), wk =   0.0555556
        k(    9) = (   0.0329320  -0.0570398   0.0000000), wk =   0.0555556
        k(   10) = (   0.0329320  -0.0190133   0.0000000), wk =   0.0555556
        k(   11) = (   0.0658639   0.0380266   0.0000000), wk =   0.0555556
        k(   12) = (   0.0658639   0.0760531   0.0000000), wk =   0.0555556
        k(   13) = (   0.0658639   0.1140797   0.0000000), wk =   0.0555556
        k(   14) = (   0.0658639  -0.0760531   0.0000000), wk =   0.0555556
        k(   15) = (   0.0658639  -0.0380266   0.0000000), wk =   0.0555556
        k(   16) = (   0.0658639   0.0000000   0.0000000), wk =   0.0555556
        k(   17) = (  -0.0987959  -0.0570398   0.0000000), wk =   0.0277778
        k(   18) = (  -0.0987959  -0.0190133   0.0000000), wk =   0.0555556
        k(   19) = (  -0.0987959   0.0190133   0.0000000), wk =   0.0555556
        k(   20) = (  -0.0987959  -0.1711195   0.0000000), wk =   0.0277778
        k(   21) = (   0.0000000   0.0000000   0.0000000), wk =   0.0277778
        k(   22) = (   0.0000000   0.0380266   0.0000000), wk =   0.0555556
        k(   23) = (   0.0000000   0.0760531   0.0000000), wk =   0.0555556
        k(   24) = (   0.0000000  -0.1140797   0.0000000), wk =   0.0277778
        k(   25) = (   0.0329320   0.0190133   0.0000000), wk =   0.0555556
        k(   26) = (   0.0329320   0.0570398   0.0000000), wk =   0.0555556
        k(   27) = (   0.0329320   0.0950664   0.0000000), wk =   0.0555556
        k(   28) = (   0.0329320  -0.0950664   0.0000000), wk =   0.0555556
        k(   29) = (   0.0329320  -0.0570398   0.0000000), wk =   0.0555556
        k(   30) = (   0.0329320  -0.0190133   0.0000000), wk =   0.0555556
        k(   31) = (   0.0658639   0.0380266   0.0000000), wk =   0.0555556
        k(   32) = (   0.0658639   0.0760531   0.0000000), wk =   0.0555556
        k(   33) = (   0.0658639   0.1140797   0.0000000), wk =   0.0555556
        k(   34) = (   0.0658639  -0.0760531   0.0000000), wk =   0.0555556
        k(   35) = (   0.0658639  -0.0380266   0.0000000), wk =   0.0555556
        k(   36) = (   0.0658639   0.0000000   0.0000000), wk =   0.0555556
        k(   37) = (  -0.0987959  -0.0570398   0.0000000), wk =   0.0277778
        k(   38) = (  -0.0987959  -0.0190133   0.0000000), wk =   0.0555556
        k(   39) = (  -0.0987959   0.0190133   0.0000000), wk =   0.0555556
        k(   40) = (  -0.0987959  -0.1711195   0.0000000), wk =   0.0277778

     Largest allocated arrays     est. size (Mb)     dimensions
     Largest temporary arrays     est. size (Mb)     dimensions

     Check: negative/imaginary core charge=   -0.000005    0.000000

     Initial potential from superposition of free atoms
     Check: negative starting charge=(component1):   -0.212842
     Check: negative starting charge=(component2):   -0.165536

     starting charge  190.49983, renormalised to  201.00000

[...]

     *
     * You are using vdW-DF for exchange-correlation in this calculation.
     * Please cite the following three references that made this development
     * possible:
     *
     *   M. Dion, H. Rydberg, E. Schroder, D. C. Langreth, and
     *   B. I. Lundqvist, Phys. Rev. Lett. 92, 246401 (2004).
     *
     *   T. Thonhauser, V. R. Cooper, S. Li, A. Puzder, P. Hyldgaard, and
     *   D. C. Langreth, Phys. Rev. B 76, 125112 (2007).
     *
     *   G. Roman-Perez and J. M. Soler, Phys. Rev. Lett. 103, 096102 (2009).
     *
     *
     * If you are using vdW-DF2, please also cite:
     *
     *   K. Lee, E. D. Murray, L. Kong, B. I. Lundqvist, and
     *   D. C. Langreth, Phys. Rev. B 82, 081101(R) (2010).
     *
     *
     * If you are calculating the stress with vdW-DF, please also cite:
     *
     *   R. Sabatini, E. Kucukbenli, B. Kolb, T. Thonhauser, and
     *   S. de Gironcoli, J. Phys.: Condens. Matter 24, 424209 (2012).
     *

     Carrying out vdW-DF run using the following parameters:

     Nqs =      20    Nr_points =    1024   r_max =   100.000
     q_mesh =
               0.00001000     0.04494208     0.09755937     0.15916263
               0.23128650     0.31572767     0.41458969     0.53033537
               0.66584808     0.82450364     1.01025438     1.22772762
               1.48234092     1.78043706     2.12944203     2.53805004
               3.01644009     3.57652955     4.23227104     5.00000000

     Gradients computed in reciprocal space

[...]

     Starting wfc are  156 randomized atomic wfcs

     Self-consistent Calculation

[...]

     total energy              =   -3294.90769467 Ry
     Harris-Foulkes estimate   =   -3294.90769411 Ry
     estimated scf accuracy    <       0.00000103 Ry

[...]

     iteration # 41     ecut=    36.75 Ry     beta=0.10
     Davidson diagonalization with overlap
     ethr =  5.13E-10,  avg # of iterations =  1.0

[...]

     negative rho (up, down):  1.737E-01 2.033E-01

[...]

     Adding external electric field

     Computed dipole along edir(3) :
        Dipole                0.0027 Ry au,          0.0068 Debye
        Dipole field          0.0000 Ry au

        Potential amp.       -0.0008 Ry
        Total length         44.4632 bohr

     Magnetic moment per site:
     atom:    1    charge:    8.2812    magn:    0.7640    constr:    0.0000
     atom:    2    charge:    8.2812    magn:    0.7640    constr:    0.0000
     atom:    3    charge:    8.2813    magn:    0.7640    constr:    0.0000
     atom:    4    charge:    2.1812    magn:    0.0324    constr:    0.0000
     atom:    5    charge:    8.2793    magn:    0.7328    constr:    0.0000
     atom:    6    charge:    8.2793    magn:    0.7328    constr:    0.0000
     atom:    7    charge:    8.2793    magn:    0.7328    constr:    0.0000
     atom:    8    charge:    2.1870    magn:    0.0242    constr:    0.0000
     atom:    9    charge:    8.2827    magn:    0.7674    constr:    0.0000
     atom:   10    charge:    8.2828    magn:    0.7673    constr:    0.0000
     atom:   11    charge:    8.2827    magn:    0.7674    constr:    0.0000
     atom:   12    charge:    2.1845    magn:    0.0315    constr:    0.0000

     End of self-consistent calculation

 ------ SPIN UP ------------

[...]

 ------ SPIN DOWN ----------

[...]

          k = 0.0659 0.0000 0.0000 ( 13583 PWs)   bands (ev):

[...]

          k =-0.0988-0.1711 0.0000 ( 13606 PWs)   bands (ev):

   -92.9537 -92.9461 -92.9382 -92.6776 -92.6770 -92.6700 -92.6692 -92.6625
   -92.6617 -85.1546 -84.6504 -84.6366 -56.3975 -56.3555 -56.3549 -56.3441
   -56.3417 -56.3116 -56.2172 -56.1903 -56.1448 -56.1411 -56.1301 -56.1155
   -56.0998 -56.0930 -56.0835 -56.0528 -56.0520 -56.0134 -56.0110 -55.9691
   -55.9665 -55.9100 -55.9062 -55.9000 -55.8877 -55.8707 -55.8680 -44.4607
   -44.3823 -44.3763 -43.9287 -43.9227 -43.9151 -43.9091 -43.8313 -43.8087
    -5.4091  -4.9837  -3.8332  -3.2638  -3.1970  -3.0750  -2.6703  -2.4033
    -2.3558  -2.3323  -1.9204  -1.8920  -1.7768  -1.7335  -1.4251  -1.3472
    -1.2387  -1.1059  -1.0887  -0.8666  -0.7213  -0.5868  -0.5327  -0.3406
    -0.3142  -0.2183  -0.1987  -0.0267   0.0953   0.1145   0.1179   0.1742
     0.3051   0.3263   0.3509   0.3684   0.4577   0.4989   0.6247   0.6509
     0.9941   1.0421   1.1147   1.1795   1.2539   1.2842   1.3109   1.3981
     1.5726   1.6603   1.7233   1.7520   1.8471   1.8659   1.9497   1.9696
     2.1538   2.2520   2.3609   2.3803   2.5705   2.7292   2.7575   3.2371
     3.6968   3.9195   3.9992   5.0005   5.3300   5.7937   6.0553   6.2539
     7.3419   7.3992   7.7454   7.7722   8.2505   8.2746   8.4318   8.4400
     9.4777   9.5107

     the Fermi energy is     1.4575 ev

!    total energy              =   -3294.90769558 Ry
     Harris-Foulkes estimate   =   -3294.90769473 Ry
     estimated scf accuracy    <       0.00000057 Ry

     The total energy is the sum of the following terms:

     one-electron contribution =  -29151.98148325 Ry
     hartree contribution      =   14577.32301192 Ry
     xc contribution           =    -420.00916103 Ry
     ewald contribution        =   11699.86836389 Ry
     electric field correction =       0.00000003 Ry
     smearing contrib. (-TS)   =      -0.10842714 Ry

     total magnetization       =    13.16 Bohr mag/cell
     absolute magnetization    =    14.41 Bohr mag/cell

     convergence has been achieved in  41 iterations

 BEEF-vdW xc energy contributions
           1 :   -369.474599076568
           2 :    337.179980594516
           3 :   -281.613263786102
           4 :    216.883712056820
           5 :   -156.605594668460
           6 :    109.327032088601
           7 :   -76.8721100545032
           8 :    55.8009014072782
           9 :   -40.7224976526147
          10 :    27.4888817943705
          11 :   -14.7743559579503
          12 :    3.64975995660575
          13 :    4.07737510254560
          14 :   -7.51775282154108
          15 :    7.37138402089045
          16 :   -5.44117742632130
          17 :    3.51579187075174
          18 :   -2.45019032173218
          19 :    1.98330829163558
          20 :   -1.29953757339041
          21 :  -0.155455883974128
          22 :    2.17726154772777
          23 :   -3.93247451897798
          24 :    4.55440268328988
          25 :   -3.76028890415034
          26 :    2.05314919883290
          27 :  -0.398640521511879
          28 :  -0.390232967658221
          29 :   0.136099128277522
          30 :   0.650331177481064
          31 :   -32.2895469272411
          32 :   -23.0895083507679

     Forces acting on atoms (Ry/au):

     negative rho (up, down):  1.737E-01 2.033E-01
     atom    1 type  1   force =     0.00000547   -0.00357980    0.00048248
     atom    2 type  1   force =    -0.00309622    0.00178999    0.00049721
     atom    3 type  1   force =     0.00309564    0.00178366    0.00047927
     atom    4 type  2   force =     0.00000236   -0.00000140    0.00561348
     atom    5 type  1   force =     0.00003351   -0.00090554   -0.00142286
     atom    6 type  1   force =    -0.00079560    0.00047653   -0.00140623
     atom    7 type  1   force =     0.00077604    0.00042672   -0.00144397
     atom    8 type  2   force =     0.00001955    0.00000070   -0.00002195
     atom    9 type  1   force =     0.00000528   -0.00073618   -0.00059612
     atom   10 type  1   force =    -0.00067250    0.00038262   -0.00058451
     atom   11 type  1   force =     0.00064420    0.00036120   -0.00058668
     atom   12 type  2   force =    -0.00001773    0.00000149   -0.00101013

     Total force =     0.009105     Total SCF correction =     0.003296
     SCF correction compared to forces is large: reduce conv_thr to get better values

     entering subroutine stress ...

     negative rho (up, down):  1.737E-01 2.033E-01
          total   stress  (Ry/bohr**3)                   (kbar)     P=  -12.67
  -0.00010510   0.00000000   0.00000001        -15.46      0.00      0.00
   0.00000000  -0.00010510  -0.00000000          0.00    -15.46     -0.00
   0.00000001  -0.00000000  -0.00004821          0.00     -0.00     -7.09

 !ASE

     Writing output data file calc.save

     General routines

     Parallel routines

   This run was terminated on:  11: 4:58  20Dec2018

   JOB DONE.
Job  /afs/slac/g/suncat/bin/suncat-tsmpirun -x LD_LIBRARY_PATH -wdir /scratch/qe773525_I5KxQ pw.x -in pw.inp

TID   HOST_NAME   COMMAND_LINE            STATUS            TERMINATION_TIME
00000 suncat0046 pw.x -in pw.inp   Done                     12/20/2018 11:04:58
00001 suncat0046 pw.x -in pw.inp   Done                     12/20/2018 11:04:58
00002 suncat0046 pw.x -in pw.inp   Done                     12/20/2018 11:04:58
00003 suncat0046 pw.x -in pw.inp   Done                     12/20/2018 11:04:58
00004 suncat0046 pw.x -in pw.inp   Done                     12/20/2018 11:04:58
00005 suncat0046 pw.x -in pw.inp   Done                     12/20/2018 11:04:58
00006 suncat0046 pw.x -in pw.inp   Done                     12/20/2018 11:04:58
00007 suncat0046 pw.x -in pw.inp   Done                     12/20/2018 11:04:58
00008 suncat0044 pw.x -in pw.inp   Done                     12/20/2018 11:04:58
00009 suncat0044 pw.x -in pw.inp   Done                     12/20/2018 11:04:58
00010 suncat0044 pw.x -in pw.inp   Done                     12/20/2018 11:04:58
00011 suncat0044 pw.x -in pw.inp   Done                     12/20/2018 11:04:58
00012 suncat0044 pw.x -in pw.inp   Done                     12/20/2018 11:04:58
00013 suncat0044 pw.x -in pw.inp   Done                     12/20/2018 11:04:58
00014 suncat0044 pw.x -in pw.inp   Done                     12/20/2018 11:04:58
00015 suncat0044 pw.x -in pw.inp   Done                     12/20/2018 11:04:58
00016 suncat0043 pw.x -in pw.inp   Done                     12/20/2018 11:04:58
00017 suncat0043 pw.x -in pw.inp   Done                     12/20/2018 11:04:58
00018 suncat0043 pw.x -in pw.inp   Done                     12/20/2018 11:04:58
00019 suncat0043 pw.x -in pw.inp   Done                     12/20/2018 11:04:58
00020 suncat0043 pw.x -in pw.inp   Done                     12/20/2018 11:04:58
00021 suncat0043 pw.x -in pw.inp   Done                     12/20/2018 11:04:58
00022 suncat0043 pw.x -in pw.inp   Done                     12/20/2018 11:04:58
00023 suncat0043 pw.x -in pw.inp   Done                     12/20/2018 11:04:58
00024 suncat0042 pw.x -in pw.inp   Done                     12/20/2018 11:04:58
00025 suncat0042 pw.x -in pw.inp   Done                     12/20/2018 11:04:58
00026 suncat0042 pw.x -in pw.inp   Done                     12/20/2018 11:04:58
00027 suncat0042 pw.x -in pw.inp   Done                     12/20/2018 11:04:58
00028 suncat0042 pw.x -in pw.inp   Done                     12/20/2018 11:04:58
00029 suncat0042 pw.x -in pw.inp   Done                     12/20/2018 11:04:58
00030 suncat0042 pw.x -in pw.inp   Done                     12/20/2018 11:04:58
00031 suncat0042 pw.x -in pw.inp   Done                     12/20/2018 11:04:58
00032 suncat0026 pw.x -in pw.inp   Done                     12/20/2018 11:04:58
00033 suncat0026 pw.x -in pw.inp   Done                     12/20/2018 11:04:58
00034 suncat0026 pw.x -in pw.inp   Done                     12/20/2018 11:04:58
00035 suncat0026 pw.x -in pw.inp   Done                     12/20/2018 11:04:58
00036 suncat0026 pw.x -in pw.inp   Done                     12/20/2018 11:04:58
00037 suncat0026 pw.x -in pw.inp   Done                     12/20/2018 11:04:58
00038 suncat0026 pw.x -in pw.inp   Done                     12/20/2018 11:04:58
00039 suncat0026 pw.x -in pw.inp   Done                     12/20/2018 11:04:58
00040 suncat0180 pw.x -in pw.inp   Done                     12/20/2018 11:04:58
00041 suncat0180 pw.x -in pw.inp   Done                     12/20/2018 11:04:58
00042 suncat0180 pw.x -in pw.inp   Done                     12/20/2018 11:04:58
00043 suncat0180 pw.x -in pw.inp   Done                     12/20/2018 11:04:58
00044 suncat0180 pw.x -in pw.inp   Done                     12/20/2018 11:04:58
00045 suncat0180 pw.x -in pw.inp   Done                     12/20/2018 11:04:58
00046 suncat0180 pw.x -in pw.inp   Done                     12/20/2018 11:04:58
00047 suncat0180 pw.x -in pw.inp   Done                     12/20/2018 11:04:58
00048 suncat0149 pw.x -in pw.inp   Done                     12/20/2018 11:04:58
00049 suncat0149 pw.x -in pw.inp   Done                     12/20/2018 11:04:58
00050 suncat0149 pw.x -in pw.inp   Done                     12/20/2018 11:04:58
00051 suncat0149 pw.x -in pw.inp   Done                     12/20/2018 11:04:58
00052 suncat0149 pw.x -in pw.inp   Done                     12/20/2018 11:04:58
00053 suncat0149 pw.x -in pw.inp   Done                     12/20/2018 11:04:58
00054 suncat0149 pw.x -in pw.inp   Done                     12/20/2018 11:04:58
00055 suncat0149 pw.x -in pw.inp   Done                     12/20/2018 11:04:58
00056 suncat0148 pw.x -in pw.inp   Done                     12/20/2018 11:04:58
00057 suncat0148 pw.x -in pw.inp   Done                     12/20/2018 11:04:58
00058 suncat0148 pw.x -in pw.inp   Done                     12/20/2018 11:04:58
00059 suncat0148 pw.x -in pw.inp   Done                     12/20/2018 11:04:58
00060 suncat0148 pw.x -in pw.inp   Done                     12/20/2018 11:04:58
00061 suncat0148 pw.x -in pw.inp   Done                     12/20/2018 11:04:58
00062 suncat0148 pw.x -in pw.inp   Done                     12/20/2018 11:04:58
00063 suncat0148 pw.x -in pw.inp   Done                     12/20/2018 11:04:58