     Program PWSCF v.5.1rc2 (svn rev. 11289) starts on 26Dec2018 at  6:50:24

     Current dimensions of program PWSCF are:
     Max number of different atomic species (ntypx) = 10
     Max number of k-points (npk) =  40000
     Max angular momentum in pseudopotentials (lmaxx) =  3
     Presently stress not available with electric field

     IMPORTANT: XC functional enforced from input :
     Exchange-correlation      = BEEF-VDW ( 1  4 27 13 2)
     Any further DFT definition will be discarded
     Please, verify this is what you really want

     Subspace diagonalization in iterative solution of the eigenvalue problem:
     a serial algorithm will be used

     bravais-lattice index     =            0
     lattice parameter (alat)  =       1.8897  a.u.
     unit-cell volume          =    5923.3988 (a.u.)^3
     number of atoms/cell      =           12
     number of atomic types    =            2
     number of electrons       =       150.00
     number of Kohn-Sham states=          105
     kinetic-energy cutoff     =      36.7493  Ry
     charge density cutoff     =     367.4932  Ry
     convergence threshold     =      1.0E-06
     mixing beta               =       0.1000
     number of iterations used =           10  plain     mixing
     Exchange-correlation      = BEEF-VDW ( 1  4 27 13 2)
     nstep                     =           50

     celldm(1)=   1.889726  celldm(2)=   0.000000  celldm(3)=   0.000000
     celldm(4)=   0.000000  celldm(5)=   0.000000  celldm(6)=   0.000000

     crystal axes: (cart. coord. in units of alat)
               a(1) = (   6.344425   0.000000   0.000000 )
               a(2) = (  -3.172213   5.494433   0.000000 )
               a(3) = (   0.000000   0.000000  25.180201 )

     reciprocal axes: (cart. coord. in units 2 pi/alat)
               b(1) = (  0.157619  0.091001  0.000000 )
               b(2) = (  0.000000  0.182002  0.000000 )
               b(3) = (  0.000000  0.000000  0.039714 )

     PseudoPot. # 1 for Hf read from file:
     /afs/slac.stanford.edu/u/if/mamunm/psp/gbrv1.5pbe/Hf.UPF
     MD5 check sum: 8ee9378dfe14276e333edf04c5e4aa26
     Pseudo is Ultrasoft + core correction, Zval = 12.0
     Generated by new atomic code, or converted to UPF format
     Using radial grid of  921 points,  8 beta functions with:
                l(1) =   0
                l(2) =   0
                l(3) =   0
                l(4) =   1
                l(5) =   1
                l(6) =   2
                l(7) =   2
                l(8) =   3
     Q(r) pseudized with  6 coefficients,  rinner =    1.200   1.200   1.200
                                                       1.200   1.200   1.200
                                                       1.200

     PseudoPot. # 2 for Pb read from file:
     /afs/slac.stanford.edu/u/if/mamunm/psp/gbrv1.5pbe/Pb.UPF
     MD5 check sum: 3d1c1779aa92214d1e8f3a7db79003e2
     Pseudo is Ultrasoft + core correction, Zval = 14.0
     Generated by new atomic code, or converted to UPF format
     Using radial grid of  899 points,  6 beta functions with:
                l(1) =   0
                l(2) =   0
                l(3) =   1
                l(4) =   1
                l(5) =   2
                l(6) =   2
     Q(r) pseudized with  6 coefficients,  rinner =    1.000   1.000   1.000
                                                       1.000   1.000

     vdW kernel table read from file vdW_kernel_table
     MD5 check sum: 095c7af220d748ca6e76c0b4c6cfb241

     atomic species   valence    mass     pseudopotential
        Hf1           12.00   178.49000     Hf( 1.00)
        Pb1           14.00   207.20000     Pb( 1.00)

     No symmetry found

   Cartesian axes

     site n.     atom                  positions (alat units)
         1           Hf1 tau(   1) = (   0.0000000   0.0000000  10.0000000  )
         2           Hf1 tau(   2) = (  -1.5861063   2.7472166  10.0000000  )
         3           Hf1 tau(   3) = (   1.5861063   2.7472166  10.0000000  )
         4           Pb1 tau(   4) = (   3.1722125   0.0000000  10.0000000  )
         5           Hf1 tau(   5) = (   3.1722125   1.8314778  12.5901007  )
         6           Hf1 tau(   6) = (   1.5861063   4.5786944  12.5901007  )
         7           Hf1 tau(   7) = (  -1.5861063   4.5786944  12.5901007  )
         8           Pb1 tau(   8) = (   0.0000000   1.8314778  12.5901007  )
         9           Hf1 tau(   9) = (  -0.0000000   3.6629555  15.1802014  )
        10           Hf1 tau(  10) = (   1.5861063   0.9157389  15.1802014  )
        11           Hf1 tau(  11) = (   4.7583188   0.9157389  15.1802014  )
        12           Pb1 tau(  12) = (   3.1722125   3.6629555  15.1802014  )

     number of k points=    20  Fermi-Dirac smearing, width (Ry)=  0.0110
                       cart. coord. in units 2pi/alat
        k(    1) = (   0.0000000   0.0000000   0.0000000), wk =   0.0555556
        k(    2) = (   0.0000000   0.0303337   0.0000000), wk =   0.1111111
        k(    3) = (   0.0000000   0.0606675   0.0000000), wk =   0.1111111
        k(    4) = (   0.0000000  -0.0910012   0.0000000), wk =   0.0555556
        k(    5) = (   0.0262698   0.0151669   0.0000000), wk =   0.1111111
        k(    6) = (   0.0262698   0.0455006   0.0000000), wk =   0.1111111
        k(    7) = (   0.0262698   0.0758343   0.0000000), wk =   0.1111111
        k(    8) = (   0.0262698  -0.0758343   0.0000000), wk =   0.1111111
        k(    9) = (   0.0262698  -0.0455006   0.0000000), wk =   0.1111111
        k(   10) = (   0.0262698  -0.0151669   0.0000000), wk =   0.1111111
        k(   11) = (   0.0525396   0.0303337   0.0000000), wk =   0.1111111
        k(   12) = (   0.0525396   0.0606675   0.0000000), wk =   0.1111111
        k(   13) = (   0.0525396   0.0910012   0.0000000), wk =   0.1111111
        k(   14) = (   0.0525396  -0.0606675   0.0000000), wk =   0.1111111
        k(   15) = (   0.0525396  -0.0303337   0.0000000), wk =   0.1111111
        k(   16) = (   0.0525396   0.0000000   0.0000000), wk =   0.1111111
        k(   17) = (  -0.0788093  -0.0455006   0.0000000), wk =   0.0555556
        k(   18) = (  -0.0788093  -0.0151669   0.0000000), wk =   0.1111111
        k(   19) = (  -0.0788093   0.0151669   0.0000000), wk =   0.1111111
        k(   20) = (  -0.0788093  -0.1365018   0.0000000), wk =   0.0555556

     Largest allocated arrays     est. size (Mb)     dimensions
     Largest temporary arrays     est. size (Mb)     dimensions

     Check: negative/imaginary core charge=   -0.000003    0.000000

     Initial potential from superposition of free atoms
     Check: negative starting charge=   -1.023170

     starting charge  131.99293, renormalised to  150.00000

     negative rho (up, down):  1.163E+00 0.000E+00

     *
     * You are using vdW-DF for exchange-correlation in this calculation.
     * Please cite the following three references that made this development
     * possible:
     *
     *   M. Dion, H. Rydberg, E. Schroder, D. C. Langreth, and
     *   B. I. Lundqvist, Phys. Rev. Lett. 92, 246401 (2004).
     *
     *   T. Thonhauser, V. R. Cooper, S. Li, A. Puzder, P. Hyldgaard, and
     *   D. C. Langreth, Phys. Rev. B 76, 125112 (2007).
     *
     *   G. Roman-Perez and J. M. Soler, Phys. Rev. Lett. 103, 096102 (2009).
     *
     *
     * If you are using vdW-DF2, please also cite:
     *
     *   K. Lee, E. D. Murray, L. Kong, B. I. Lundqvist, and
     *   D. C. Langreth, Phys. Rev. B 82, 081101(R) (2010).
     *
     *
     * If you are calculating the stress with vdW-DF, please also cite:
     *
     *   R. Sabatini, E. Kucukbenli, B. Kolb, T. Thonhauser, and
     *   S. de Gironcoli, J. Phys.: Condens. Matter 24, 424209 (2012).
     *

     Carrying out vdW-DF run using the following parameters:

     Nqs =      20    Nr_points =    1024   r_max =   100.000
     q_mesh =
               0.00001000     0.04494208     0.09755937     0.15916263
               0.23128650     0.31572767     0.41458969     0.53033537
               0.66584808     0.82450364     1.01025438     1.22772762
               1.48234092     1.78043706     2.12944203     2.53805004
               3.01644009     3.57652955     4.23227104     5.00000000

     Gradients computed in reciprocal space

     Adding external electric field

     Computed dipole along edir(3) :
        Dipole               -0.0000 Ry au,         -0.0000 Debye
        Dipole field         -0.0000 Ry au

        Potential amp.        0.0000 Ry
        Total length         46.3941 bohr

     Starting wfc are  144 randomized atomic wfcs

     Self-consistent Calculation

     iteration #  1     ecut=    36.75 Ry     beta=0.10
     Davidson diagonalization with overlap
     ethr =  1.00E-02,  avg # of iterations =  8.4

[...]

     total energy              =   -1942.87981824 Ry
     Harris-Foulkes estimate   =   -1953.29615887 Ry
     estimated scf accuracy    <      62.24377578 Ry

[...]

     End of self-consistent calculation

          k = 0.0000 0.0000 0.0000 ( 22333 PWs)   bands (ev):

   -61.0597 -61.0594 -61.0317 -61.0317 -61.0315 -61.0315 -60.5722 -60.5443
   -60.5434 -29.7719 -29.7654 -29.7101 -29.7101 -29.6923 -29.6923 -29.6890
   -29.6710 -29.6709 -29.6337 -29.6293 -29.6293 -29.4606 -29.4522 -29.4098
   -29.2921 -29.2918 -29.2096 -29.2096 -29.1946 -29.1945 -29.0628 -29.0624
   -29.0384 -28.9905 -28.7809 -28.7804 -15.3655 -15.3654 -15.3654 -15.3346
   -15.3346 -15.0494 -15.0411 -15.0309 -15.0309 -15.0267 -15.0267 -15.0103
   -15.0103 -15.0038 -15.0037  -8.2134  -7.1933  -7.0297  -2.4065  -2.1923
    -1.8422  -1.0100  -1.0099  -0.9340  -0.9340  -0.2890  -0.2890  -0.2488
     0.1287   0.5208   0.5208   0.5927   0.5927   0.8841   1.1452   1.1788
     1.1788   1.3966   1.4912   1.4912   2.0723   2.0723   2.0837   2.3330
     2.4030   2.4030   2.7265   2.9714   3.1182   3.8935   3.9655   4.2574
     4.2873   4.2873   4.3995   4.3995   4.4551   4.4684   4.4684   4.6239
     4.6239   4.9050   4.9203   4.9205   5.1514   5.1514   5.1795   5.2922
     5.3779

[...]

          k =-0.0788-0.0455 0.0000 ( 22260 PWs)   bands (ev):

[...]

     the Fermi energy is     1.7500 ev

!    total energy              =   -1943.00519125 Ry
     Harris-Foulkes estimate   =   -1943.00517731 Ry
     estimated scf accuracy    <       0.00000073 Ry

     The total energy is the sum of the following terms:

     one-electron contribution =   -9124.25273820 Ry
     hartree contribution      =    4569.10036655 Ry
     xc contribution           =    -892.18316493 Ry
     ewald contribution        =    3504.41655765 Ry
     electric field correction =       0.00000000 Ry
     smearing contrib. (-TS)   =      -0.08621232 Ry

     convergence has been achieved in  19 iterations

 BEEF-vdW xc energy contributions
           1 :   -804.202480876304
           2 :    747.862943565306
           3 :   -647.894942269536
           4 :    524.880086528531
           5 :   -400.319449246099
           6 :    290.566111813483
           7 :   -203.949061332988
           8 :    141.370628189869
           9 :   -99.1085391466452
          10 :    71.8840455865500
          11 :   -54.8558240924935
          12 :    44.2069612884178
[...]
     MD5 check sum: 8ee9378dfe14276e333edf04c5e4aa26
     Pseudo is Ultrasoft + core correction, Zval = 12.0
     Generated by new atomic code, or converted to UPF format
     Using radial grid of  921 points,  8 beta functions with:
                l(1) =   0
                l(2) =   0
                l(3) =   0
                l(4) =   1
                l(5) =   1
                l(6) =   2
                l(7) =   2
                l(8) =   3
     Q(r) pseudized with  6 coefficients,  rinner =    1.200   1.200   1.200
                                                       1.200   1.200   1.200
                                                       1.200

     PseudoPot. # 2 for Pb read from file:
     /afs/slac.stanford.edu/u/if/mamunm/psp/gbrv1.5pbe/Pb.UPF
     MD5 check sum: 3d1c1779aa92214d1e8f3a7db79003e2
     Pseudo is Ultrasoft + core correction, Zval = 14.0
     Generated by new atomic code, or converted to UPF format
     Using radial grid of  899 points,  6 beta functions with:
                l(1) =   0
                l(2) =   0
                l(3) =   1
                l(4) =   1
                l(5) =   2
                l(6) =   2
     Q(r) pseudized with  6 coefficients,  rinner =    1.000   1.000   1.000
                                                       1.000   1.000

     vdW kernel table read from file vdW_kernel_table
     MD5 check sum: 095c7af220d748ca6e76c0b4c6cfb241

     atomic species   valence    mass     pseudopotential
        Hf1           12.00   178.49000     Hf( 1.00)
        Pb1           14.00   207.20000     Pb( 1.00)

     No symmetry found

   Cartesian axes

     site n.     atom                  positions (alat units)
         1           Hf1 tau(   1) = (   0.0000000   0.0000000  10.0000000  )
         2           Hf1 tau(   2) = (  -1.5861063   2.7472166  10.0000000  )
         3           Hf1 tau(   3) = (   1.5861063   2.7472166  10.0000000  )
         4           Pb1 tau(   4) = (   3.1722125   0.0000000  10.0000000  )
         5           Hf1 tau(   5) = (   3.1722125   1.8314778  12.5901007  )
         6           Hf1 tau(   6) = (   1.5861063   4.5786944  12.5901007  )
         7           Hf1 tau(   7) = (  -1.5861063   4.5786944  12.5901007  )
         8           Pb1 tau(   8) = (   0.0000000   1.8314778  12.5901007  )
         9           Hf1 tau(   9) = (  -0.0000400   3.6777848  15.0563618  )
        10           Hf1 tau(  10) = (   1.6000947   0.9071333  15.0559669  )
        11           Hf1 tau(  11) = (   4.7442611   0.9071457  15.0559820  )
        12           Pb1 tau(  12) = (   3.1721910   3.6627258  15.5007667  )

     number of k points=    20  Fermi-Dirac smearing, width (Ry)=  0.0110
                       cart. coord. in units 2pi/alat
        k(    1) = (   0.0000000   0.0000000   0.0000000), wk =   0.0555556
        k(    2) = (   0.0000000   0.0303337   0.0000000), wk =   0.1111111
        k(    3) = (   0.0000000   0.0606675   0.0000000), wk =   0.1111111
        k(    4) = (   0.0000000  -0.0910012   0.0000000), wk =   0.0555556
        k(    5) = (   0.0262698   0.0151669   0.0000000), wk =   0.1111111
        k(    6) = (   0.0262698   0.0455006   0.0000000), wk =   0.1111111
        k(    7) = (   0.0262698   0.0758343   0.0000000), wk =   0.1111111
        k(    8) = (   0.0262698  -0.0758343   0.0000000), wk =   0.1111111
        k(    9) = (   0.0262698  -0.0455006   0.0000000), wk =   0.1111111
        k(   10) = (   0.0262698  -0.0151669   0.0000000), wk =   0.1111111
        k(   11) = (   0.0525396   0.0303337   0.0000000), wk =   0.1111111
        k(   12) = (   0.0525396   0.0606675   0.0000000), wk =   0.1111111
        k(   13) = (   0.0525396   0.0910012   0.0000000), wk =   0.1111111
        k(   14) = (   0.0525396  -0.0606675   0.0000000), wk =   0.1111111
        k(   15) = (   0.0525396  -0.0303337   0.0000000), wk =   0.1111111
        k(   16) = (   0.0525396   0.0000000   0.0000000), wk =   0.1111111
        k(   17) = (  -0.0788093  -0.0455006   0.0000000), wk =   0.0555556
        k(   18) = (  -0.0788093  -0.0151669   0.0000000), wk =   0.1111111
        k(   19) = (  -0.0788093   0.0151669   0.0000000), wk =   0.1111111
        k(   20) = (  -0.0788093  -0.1365018   0.0000000), wk =   0.0555556

     Largest allocated arrays     est. size (Mb)     dimensions
     Largest temporary arrays     est. size (Mb)     dimensions

     Check: negative/imaginary core charge=   -0.000003    0.000000

     Initial potential from superposition of free atoms
     Check: negative starting charge=   -1.021506

     starting charge  131.99293, renormalised to  150.00000

[...]

     *
     * You are using vdW-DF for exchange-correlation in this calculation.
     * Please cite the following three references that made this development
     * possible:
     *
     *   M. Dion, H. Rydberg, E. Schroder, D. C. Langreth, and
     *   B. I. Lundqvist, Phys. Rev. Lett. 92, 246401 (2004).
     *
     *   T. Thonhauser, V. R. Cooper, S. Li, A. Puzder, P. Hyldgaard, and
     *   D. C. Langreth, Phys. Rev. B 76, 125112 (2007).
     *
     *   G. Roman-Perez and J. M. Soler, Phys. Rev. Lett. 103, 096102 (2009).
     *
     *
     * If you are using vdW-DF2, please also cite:
     *
     *   K. Lee, E. D. Murray, L. Kong, B. I. Lundqvist, and
     *   D. C. Langreth, Phys. Rev. B 82, 081101(R) (2010).
     *
     *
     * If you are calculating the stress with vdW-DF, please also cite:
     *
     *   R. Sabatini, E. Kucukbenli, B. Kolb, T. Thonhauser, and
     *   S. de Gironcoli, J. Phys.: Condens. Matter 24, 424209 (2012).
     *

     Carrying out vdW-DF run using the following parameters:

     Nqs =      20    Nr_points =    1024   r_max =   100.000
     q_mesh =
               0.00001000     0.04494208     0.09755937     0.15916263
               0.23128650     0.31572767     0.41458969     0.53033537
               0.66584808     0.82450364     1.01025438     1.22772762
               1.48234092     1.78043706     2.12944203     2.53805004
               3.01644009     3.57652955     4.23227104     5.00000000

     Gradients computed in reciprocal space

[...]

     Starting wfc are  144 randomized atomic wfcs

     Self-consistent Calculation

[...]

     total energy              =   -1943.03603929 Ry
     Harris-Foulkes estimate   =   -1943.03603611 Ry
     estimated scf accuracy    <       0.00000475 Ry

     iteration # 19     ecut=    36.75 Ry     beta=0.10
     Davidson diagonalization with overlap
     ethr =  3.17E-09,  avg # of iterations =  2.0

[...]

     negative rho (up, down):  1.083E+00 0.000E+00

     Adding external electric field

     Computed dipole along edir(3) :
        Dipole               -0.0343 Ry au,         -0.0872 Debye
        Dipole field         -0.0001 Ry au

        Potential amp.        0.0068 Ry
        Total length         46.3941 bohr

     End of self-consistent calculation

[...]

          k = 0.0525 0.0000 0.0000 ( 22319 PWs)   bands (ev):

[...]

          k =-0.0788-0.1365 0.0000 ( 22260 PWs)   bands (ev):

   -61.1141 -61.1047 -61.0954 -60.9381 -60.9277 -60.9187 -60.5312 -60.5218
   -60.5124 -29.7895 -29.7490 -29.7424 -29.7183 -29.6516 -29.6398 -29.6082
   -29.6006 -29.5892 -29.5726 -29.5663 -29.4913 -29.4702 -29.4431 -29.4354
   -29.3416 -29.2973 -29.2779 -29.1770 -29.1400 -29.1352 -29.1131 -29.0956
   -29.0101 -28.9022 -28.8656 -28.7710 -15.4261 -15.4144 -15.4137 -15.3923
   -15.3888 -15.0765 -15.0555 -15.0512 -15.0427 -15.0386 -14.9643 -14.9292
   -14.9271 -14.9267 -14.9203  -7.6156  -6.9796  -6.6092  -3.4558  -2.5978
    -2.4894  -2.1665  -0.8988  -0.8512  -0.7155  -0.3880  -0.2977  -0.2575
     0.0099   0.5985   0.7818   0.8505   0.8893   1.0148   1.3302   1.3352
     1.3946   1.4678   1.5443   1.6671   1.8314   1.9611   2.2700   2.3897
     2.4654   2.6391   2.7958   2.9234   3.1829   3.5483   3.6253   3.9377
     3.9909   4.0724   4.1159   4.1520   4.2287   4.3535   4.4144   4.4465
     4.5523   4.5981   4.8550   4.9845   5.1429   5.2037   5.3490   5.7031
     5.7257

     the Fermi energy is     1.6982 ev

!    total energy              =   -1943.03605558 Ry
     Harris-Foulkes estimate   =   -1943.03603938 Ry
     estimated scf accuracy    <       0.00000086 Ry

     The total energy is the sum of the following terms:

     one-electron contribution =   -9118.02494723 Ry
     hartree contribution      =    4566.07650502 Ry
     xc contribution           =    -892.25355055 Ry
     ewald contribution        =    3501.24891934 Ry
     electric field correction =       0.00000250 Ry
     smearing contrib. (-TS)   =      -0.08298465 Ry

     convergence has been achieved in  19 iterations

 BEEF-vdW xc energy contributions
           1 :   -804.587792820201
           2 :    748.252038923102
           3 :   -648.283670963981
           4 :    525.253347361646
           5 :   -400.662938760799
           6 :    290.881987804362
           7 :   -204.259890137571
           8 :    141.702023658616
           9 :   -99.4652475546789
          10 :    72.2418462449509
          11 :   -55.1788822252470
          12 :    44.4771682497543
          13 :   -37.1314698721858
          14 :    30.5897292385087
          15 :   -22.8300864175858
          16 :    12.7935952968443
          17 :  -0.779432702829126
          18 :   -11.6139678561207
          19 :    22.0952437418453
          20 :   -28.5938787766015
          21 :    30.0424830585898
          22 :   -26.7041512470098
          23 :    19.9799027715110
          24 :   -11.8971779018575
          25 :    4.54495473733971
          26 :   0.363583712663399
          27 :   -1.77818431024480
          28 :  -0.513451516733880
          29 :    5.81193802906887
          30 :   -12.6033997932416
          31 :   -59.1147755085254
          32 :   -42.8053938944557

     Forces acting on atoms (Ry/au):

     negative rho (up, down):  1.083E+00 0.000E+00
     atom    1 type  1   force =     0.00000696   -0.00847509    0.01964813
     atom    2 type  1   force =    -0.00736056    0.00428381    0.01957338
     atom    3 type  1   force =     0.00737123    0.00428217    0.01958648
     atom    4 type  2   force =     0.00000735    0.00005382   -0.04145770
     atom    5 type  1   force =    -0.00002703    0.01085161    0.00020792
     atom    6 type  1   force =     0.00933139   -0.00542896    0.00023907
     atom    7 type  1   force =    -0.00932375   -0.00539340    0.00026192
     atom    8 type  2   force =    -0.00003026   -0.00001066   -0.01868387
     atom    9 type  1   force =     0.00001005    0.00084244    0.00022807
     atom   10 type  1   force =     0.00070437   -0.00048149    0.00026982
     atom   11 type  1   force =    -0.00069113   -0.00048686    0.00027825
     atom   12 type  2   force =     0.00000138   -0.00003738   -0.00015146

     Total force =     0.061567     Total SCF correction =     0.001622

     entering subroutine stress ...

     negative rho (up, down):  1.083E+00 0.000E+00
          total   stress  (Ry/bohr**3)                   (kbar)     P=  -12.72
  -0.00011413  -0.00000000   0.00000000        -16.79     -0.00      0.00
  -0.00000000  -0.00011399   0.00000005         -0.00    -16.77      0.01
   0.00000000   0.00000005  -0.00003136          0.00      0.01     -4.61

 !ASE

     Writing output data file calc.save

     General routines

     Parallel routines

   This run was terminated on:   9:46: 6  26Dec2018

   JOB DONE.
Job  /afs/slac/g/suncat/bin/suncat-tsmpirun -x LD_LIBRARY_PATH -wdir /scratch/qe109755_8UEfK pw.x -in pw.inp

TID   HOST_NAME   COMMAND_LINE            STATUS            TERMINATION_TIME
00000 suncat0044 pw.x -in pw.inp   Done                     12/26/2018 09:46:06
00001 suncat0044 pw.x -in pw.inp   Done                     12/26/2018 09:46:06
00002 suncat0044 pw.x -in pw.inp   Done                     12/26/2018 09:46:06
00003 suncat0044 pw.x -in pw.inp   Done                     12/26/2018 09:46:06
00004 suncat0044 pw.x -in pw.inp   Done                     12/26/2018 09:46:06
00005 suncat0044 pw.x -in pw.inp   Done                     12/26/2018 09:46:06
00006 suncat0044 pw.x -in pw.inp   Done                     12/26/2018 09:46:06
00007 suncat0044 pw.x -in pw.inp   Done                     12/26/2018 09:46:06
00008 suncat0038 pw.x -in pw.inp   Done                     12/26/2018 09:46:06
00009 suncat0038 pw.x -in pw.inp   Done                     12/26/2018 09:46:06
00010 suncat0038 pw.x -in pw.inp   Done                     12/26/2018 09:46:06
00011 suncat0038 pw.x -in pw.inp   Done                     12/26/2018 09:46:06
00012 suncat0038 pw.x -in pw.inp   Done                     12/26/2018 09:46:06
00013 suncat0038 pw.x -in pw.inp   Done                     12/26/2018 09:46:06
00014 suncat0038 pw.x -in pw.inp   Done                     12/26/2018 09:46:06
00015 suncat0038 pw.x -in pw.inp   Done                     12/26/2018 09:46:06
00016 suncat0037 pw.x -in pw.inp   Done                     12/26/2018 09:46:06
00017 suncat0037 pw.x -in pw.inp   Done                     12/26/2018 09:46:06
00018 suncat0037 pw.x -in pw.inp   Done                     12/26/2018 09:46:06
00019 suncat0037 pw.x -in pw.inp   Done                     12/26/2018 09:46:06
00020 suncat0037 pw.x -in pw.inp   Done                     12/26/2018 09:46:06
00021 suncat0037 pw.x -in pw.inp   Done                     12/26/2018 09:46:06
00022 suncat0037 pw.x -in pw.inp   Done                     12/26/2018 09:46:06
00023 suncat0037 pw.x -in pw.inp   Done                     12/26/2018 09:46:06
00024 suncat0036 pw.x -in pw.inp   Done                     12/26/2018 09:46:06
00025 suncat0036 pw.x -in pw.inp   Done                     12/26/2018 09:46:06
00026 suncat0036 pw.x -in pw.inp   Done                     12/26/2018 09:46:06
00027 suncat0036 pw.x -in pw.inp   Done                     12/26/2018 09:46:06
00028 suncat0036 pw.x -in pw.inp   Done                     12/26/2018 09:46:06
00029 suncat0036 pw.x -in pw.inp   Done                     12/26/2018 09:46:06
00030 suncat0036 pw.x -in pw.inp   Done                     12/26/2018 09:46:06
00031 suncat0036 pw.x -in pw.inp   Done                     12/26/2018 09:46:06
00032 suncat0035 pw.x -in pw.inp   Done                     12/26/2018 09:46:06
00033 suncat0035 pw.x -in pw.inp   Done                     12/26/2018 09:46:06
00034 suncat0035 pw.x -in pw.inp   Done                     12/26/2018 09:46:06
00035 suncat0035 pw.x -in pw.inp   Done                     12/26/2018 09:46:06
00036 suncat0035 pw.x -in pw.inp   Done                     12/26/2018 09:46:06
00037 suncat0035 pw.x -in pw.inp   Done                     12/26/2018 09:46:06
00038 suncat0035 pw.x -in pw.inp   Done                     12/26/2018 09:46:06
00039 suncat0035 pw.x -in pw.inp   Done                     12/26/2018 09:46:06
00040 suncat0033 pw.x -in pw.inp   Done                     12/26/2018 09:46:06
00041 suncat0033 pw.x -in pw.inp   Done                     12/26/2018 09:46:06
00042 suncat0033 pw.x -in pw.inp   Done                     12/26/2018 09:46:06
00043 suncat0033 pw.x -in pw.inp   Done                     12/26/2018 09:46:06
00044 suncat0033 pw.x -in pw.inp   Done                     12/26/2018 09:46:06
00045 suncat0033 pw.x -in pw.inp   Done                     12/26/2018 09:46:06
00046 suncat0033 pw.x -in pw.inp   Done                     12/26/2018 09:46:06
00047 suncat0033 pw.x -in pw.inp   Done                     12/26/2018 09:46:06
00048 suncat0032 pw.x -in pw.inp   Done                     12/26/2018 09:46:06
00049 suncat0032 pw.x -in pw.inp   Done                     12/26/2018 09:46:06
00050 suncat0032 pw.x -in pw.inp   Done                     12/26/2018 09:46:06
00051 suncat0032 pw.x -in pw.inp   Done                     12/26/2018 09:46:06
00052 suncat0032 pw.x -in pw.inp   Done                     12/26/2018 09:46:06
00053 suncat0032 pw.x -in pw.inp   Done                     12/26/2018 09:46:06
00054 suncat0032 pw.x -in pw.inp   Done                     12/26/2018 09:46:06
00055 suncat0032 pw.x -in pw.inp   Done                     12/26/2018 09:46:06
00056 suncat0019 pw.x -in pw.inp   Done                     12/26/2018 09:46:06
00057 suncat0019 pw.x -in pw.inp   Done                     12/26/2018 09:46:06
00058 suncat0019 pw.x -in pw.inp   Done                     12/26/2018 09:46:06
00059 suncat0019 pw.x -in pw.inp   Done                     12/26/2018 09:46:06
00060 suncat0019 pw.x -in pw.inp   Done                     12/26/2018 09:46:06
00061 suncat0019 pw.x -in pw.inp   Done                     12/26/2018 09:46:06
00062 suncat0019 pw.x -in pw.inp   Done                     12/26/2018 09:46:06
00063 suncat0019 pw.x -in pw.inp   Done                     12/26/2018 09:46:06