     Program PWSCF v.5.1rc2 (svn rev. 11289) starts on 26Dec2018 at 17:27:45

     Current dimensions of program PWSCF are:
     Max number of different atomic species (ntypx) = 10
     Max number of k-points (npk) =  40000
     Max angular momentum in pseudopotentials (lmaxx) =  3
     Presently stress not available with electric field

     IMPORTANT: XC functional enforced from input :
     Exchange-correlation      = BEEF-VDW ( 1  4 27 13 2)
     Any further DFT definition will be discarded
     Please, verify this is what you really want

     Subspace diagonalization in iterative solution of the eigenvalue problem:
     a serial algorithm will be used

     bravais-lattice index     =            0
     lattice parameter (alat)  =       1.8897  a.u.
     unit-cell volume          =    7369.6702 (a.u.)^3
     number of atoms/cell      =           12
     number of atomic types    =            2
     number of electrons       =       147.00
     number of Kohn-Sham states=          103
     kinetic-energy cutoff     =      36.7493  Ry
     charge density cutoff     =     367.4932  Ry
     convergence threshold     =      1.0E-06
     mixing beta               =       0.1000
     number of iterations used =           10  plain     mixing
     Exchange-correlation      = BEEF-VDW ( 1  4 27 13 2)
     nstep                     =           50

     celldm(1)=   1.889726  celldm(2)=   0.000000  celldm(3)=   0.000000
     celldm(4)=   0.000000  celldm(5)=   0.000000  celldm(6)=   0.000000

     crystal axes: (cart. coord. in units of alat)
               a(1) = (   7.002395   0.000000   0.000000 )
               a(2) = (  -3.501198   6.064252   0.000000 )
               a(3) = (   0.000000   0.000000  25.717432 )

     reciprocal axes: (cart. coord. in units 2 pi/alat)
               b(1) = (  0.142808  0.082450  0.000000 )
               b(2) = (  0.000000  0.164901  0.000000 )
               b(3) = (  0.000000  0.000000  0.038884 )

     PseudoPot. # 1 for La read from file:
     /afs/slac.stanford.edu/u/if/mamunm/psp/gbrv1.5pbe/La.UPF
     MD5 check sum: 5937b0c7494ba0601a847275249473aa
     Pseudo is Ultrasoft + core correction, Zval = 11.0
     Generated by new atomic code, or converted to UPF format
     Using radial grid of  995 points,  8 beta functions with:
                l(1) =   0
                l(2) =   0
                l(3) =   1
                l(4) =   1
                l(5) =   2
                l(6) =   2
                l(7) =   3
                l(8) =   3
     Q(r) pseudized with  8 coefficients,  rinner =    1.700   1.700   1.700
                                                       1.700   1.700   1.700
                                                       1.700

     PseudoPot. # 2 for Pd read from file:
     /afs/slac.stanford.edu/u/if/mamunm/psp/gbrv1.5pbe/Pd.UPF
     MD5 check sum: 2d733d2bc2cbfd217af676df1668a4bc
     Pseudo is Ultrasoft + core correction, Zval = 16.0
     Generated by new atomic code, or converted to UPF format
     Using radial grid of  887 points,  6 beta functions with:
                l(1) =   0
                l(2) =   0
                l(3) =   1
                l(4) =   1
                l(5) =   2
                l(6) =   2
     Q(r) pseudized with  8 coefficients,  rinner =    1.130   1.130   1.130
                                                       1.130   1.130

     vdW kernel table read from file vdW_kernel_table
     MD5 check sum: 095c7af220d748ca6e76c0b4c6cfb241

     atomic species   valence    mass     pseudopotential
        La1           11.00   138.90547     La( 1.00)
        Pd1           16.00   106.42000     Pd( 1.00)

     No symmetry found

   Cartesian axes

     site n.     atom                  positions (alat units)
         1           La1 tau(   1) = (   0.0000000   0.0000000  10.0000000  )
         2           La1 tau(   2) = (  -1.7505988   3.0321260  10.0000000  )
         3           La1 tau(   3) = (   1.7505988   3.0321260  10.0000000  )
         4           Pd1 tau(   4) = (   3.5011976   0.0000000  10.0000000  )
         5           La1 tau(   5) = (   3.5011976   2.0214174  12.8587158  )
         6           La1 tau(   6) = (   1.7505988   5.0535434  12.8587158  )
         7           La1 tau(   7) = (  -1.7505988   5.0535434  12.8587158  )
         8           Pd1 tau(   8) = (   0.0000000   2.0214174  12.8587158  )
         9           La1 tau(   9) = (  -0.0000000   4.0428347  15.7174317  )
        10           La1 tau(  10) = (   1.7505988   1.0107087  15.7174317  )
        11           La1 tau(  11) = (   5.2517963   1.0107087  15.7174317  )
        12           Pd1 tau(  12) = (   3.5011976   4.0428347  15.7174317  )

     number of k points=    20  Fermi-Dirac smearing, width (Ry)=  0.0110
                       cart. coord. in units 2pi/alat
        k(    1) = (   0.0000000   0.0000000   0.0000000), wk =   0.0555556
        k(    2) = (   0.0000000   0.0274835   0.0000000), wk =   0.1111111
        k(    3) = (   0.0000000   0.0549669   0.0000000), wk =   0.1111111
        k(    4) = (   0.0000000  -0.0824504   0.0000000), wk =   0.0555556
        k(    5) = (   0.0238014   0.0137417   0.0000000), wk =   0.1111111
        k(    6) = (   0.0238014   0.0412252   0.0000000), wk =   0.1111111
        k(    7) = (   0.0238014   0.0687087   0.0000000), wk =   0.1111111
        k(    8) = (   0.0238014  -0.0687087   0.0000000), wk =   0.1111111
        k(    9) = (   0.0238014  -0.0412252   0.0000000), wk =   0.1111111
        k(   10) = (   0.0238014  -0.0137417   0.0000000), wk =   0.1111111
        k(   11) = (   0.0476028   0.0274835   0.0000000), wk =   0.1111111
        k(   12) = (   0.0476028   0.0549669   0.0000000), wk =   0.1111111
        k(   13) = (   0.0476028   0.0824504   0.0000000), wk =   0.1111111
        k(   14) = (   0.0476028  -0.0549669   0.0000000), wk =   0.1111111
        k(   15) = (   0.0476028  -0.0274835   0.0000000), wk =   0.1111111
        k(   16) = (   0.0476028   0.0000000   0.0000000), wk =   0.1111111
        k(   17) = (  -0.0714041  -0.0412252   0.0000000), wk =   0.0555556
        k(   18) = (  -0.0714041  -0.0137417   0.0000000), wk =   0.1111111
        k(   19) = (  -0.0714041   0.0137417   0.0000000), wk =   0.1111111
        k(   20) = (  -0.0714041  -0.1236756   0.0000000), wk =   0.0555556

     Largest allocated arrays     est. size (Mb)     dimensions
     Largest temporary arrays     est. size (Mb)     dimensions

     Initial potential from superposition of free atoms
     Check: negative starting charge=   -0.853239

     starting charge  145.21136, renormalised to  147.00000

     negative rho (up, down):  8.637E-01 0.000E+00

     *
     * You are using vdW-DF for exchange-correlation in this calculation.
     * Please cite the following three references that made this development
     * possible:
     *
     *   M. Dion, H. Rydberg, E. Schroder, D. C. Langreth, and
     *   B. I. Lundqvist, Phys. Rev. Lett. 92, 246401 (2004).
     *
     *   T. Thonhauser, V. R. Cooper, S. Li, A. Puzder, P. Hyldgaard, and
     *   D. C. Langreth, Phys. Rev. B 76, 125112 (2007).
     *
     *   G. Roman-Perez and J. M. Soler, Phys. Rev. Lett. 103, 096102 (2009).
     *
     *
     * If you are using vdW-DF2, please also cite:
     *
     *   K. Lee, E. D. Murray, L. Kong, B. I. Lundqvist, and
     *   D. C. Langreth, Phys. Rev. B 82, 081101(R) (2010).
     *
     *
     * If you are calculating the stress with vdW-DF, please also cite:
     *
     *   R. Sabatini, E. Kucukbenli, B. Kolb, T. Thonhauser, and
     *   S. de Gironcoli, J. Phys.: Condens. Matter 24, 424209 (2012).
     *

     Carrying out vdW-DF run using the following parameters:

     Nqs =      20    Nr_points =    1024   r_max =   100.000
     q_mesh =
               0.00001000     0.04494208     0.09755937     0.15916263
               0.23128650     0.31572767     0.41458969     0.53033537
               0.66584808     0.82450364     1.01025438     1.22772762
               1.48234092     1.78043706     2.12944203     2.53805004
               3.01644009     3.57652955     4.23227104     5.00000000

     Gradients computed in reciprocal space

     Adding external electric field

     Computed dipole along edir(3) :
        Dipole               -0.0000 Ry au,         -0.0000 Debye
        Dipole field         -0.0000 Ry au

        Potential amp.        0.0000 Ry
        Total length         47.3839 bohr

     Starting wfc are  216 randomized atomic wfcs

     Self-consistent Calculation

     iteration #  1     ecut=    36.75 Ry     beta=0.10
     Davidson diagonalization with overlap
     ethr =  1.00E-02,  avg # of iterations =  2.0

[...]

     total energy              =   -1529.09373399 Ry
     Harris-Foulkes estimate   =   -1537.63269842 Ry
     estimated scf accuracy    <      46.98218612 Ry

[...]

     iteration # 11     ecut=    36.75 Ry     beta=0.10
     Davidson diagonalization with overlap
     c_bands:  1 eigenvalues not converged
     c_bands:  3 eigenvalues not converged
     c_bands:  1 eigenvalues not converged
     c_bands:  1 eigenvalues not converged
     c_bands:  1 eigenvalues not converged
     ethr =  6.69E-06,  avg # of iterations = 17.9

[...]

     End of self-consistent calculation

          k = 0.0000 0.0000 0.0000 ( 27735 PWs)   bands (ev):

   -47.9601 -47.9475 -47.9475 -47.7191 -47.7191 -47.7190 -47.7190 -47.6464
   -47.6463 -31.3705 -31.3504 -31.1596 -31.1596 -31.1548 -31.1548 -30.9475
   -30.7646 -30.7637 -15.8649 -15.7349 -15.4990 -15.3570 -15.3569 -15.2458
   -15.2191 -15.2190 -15.2098 -15.2098 -15.0523 -14.8239 -14.8239 -14.5762
   -14.5762 -14.4799 -14.4092 -14.2382 -14.1830 -14.1829 -14.1582 -14.1582
   -14.1348 -14.1347 -13.9749 -13.8259 -13.8258  -1.3912  -0.8294  -0.7654
    -0.7523  -0.7523  -0.5836  -0.5712  -0.5712  -0.4836  -0.4836  -0.4582
    -0.4582  -0.3676  -0.2579  -0.0974  -0.0974  -0.0876  -0.0876   0.1569
     0.4175   1.0703   1.1775   1.4538   1.8275   1.8275   1.9185   1.9185
     2.1215   2.1215   2.2431   2.3637   2.3698   2.3698   2.7373   2.7373
     2.9688   2.9688   3.0631   3.1799   3.1826   3.2865   3.3219   3.3221
     3.3325   3.3598   3.4276   3.4277   3.4501   3.4501   3.4689   3.4920
     3.5055   3.5056   3.5368   3.5437   3.5438   3.5551   3.5553

[...]

          k =-0.0714-0.0412 0.0000 ( 27690 PWs)   bands (ev):

[...]

     the Fermi energy is     2.0620 ev

!    total energy              =   -1535.60365831 Ry
     Harris-Foulkes estimate   =   -1535.60367053 Ry
     estimated scf accuracy    <       0.00000076 Ry

     The total energy is the sum of the following terms:

     one-electron contribution =   -7022.13334768 Ry
     hartree contribution      =    3533.96474916 Ry
     xc contribution           =    -554.30558807 Ry
     ewald contribution        =    2506.99637645 Ry
     electric field correction =       0.00000000 Ry
     smearing contrib. (-TS)   =      -0.12584817 Ry

     convergence has been achieved in  22 iterations

 BEEF-vdW xc energy contributions
           1 :   -489.637540880836
           2 :    449.956683373033
           3 :   -380.120113603765
[...]
                l(1) =   0
                l(2) =   0
                l(3) =   1
                l(4) =   1
                l(5) =   2
                l(6) =   2
                l(7) =   3
                l(8) =   3
     Q(r) pseudized with  8 coefficients,  rinner =    1.700   1.700   1.700
                                                       1.700   1.700   1.700
                                                       1.700

     PseudoPot. # 2 for Pd read from file:
     /afs/slac.stanford.edu/u/if/mamunm/psp/gbrv1.5pbe/Pd.UPF
     MD5 check sum: 2d733d2bc2cbfd217af676df1668a4bc
     Pseudo is Ultrasoft + core correction, Zval = 16.0
     Generated by new atomic code, or converted to UPF format
     Using radial grid of  887 points,  6 beta functions with:
                l(1) =   0
                l(2) =   0
                l(3) =   1
                l(4) =   1
                l(5) =   2
                l(6) =   2
     Q(r) pseudized with  8 coefficients,  rinner =    1.130   1.130   1.130
                                                       1.130   1.130

     vdW kernel table read from file vdW_kernel_table
     MD5 check sum: 095c7af220d748ca6e76c0b4c6cfb241

     atomic species   valence    mass     pseudopotential
        La1           11.00   138.90547     La( 1.00)
        Pd1           16.00   106.42000     Pd( 1.00)

     No symmetry found

   Cartesian axes

     site n.     atom                  positions (alat units)
         1           La1 tau(   1) = (   0.0000000   0.0000000  10.0000000  )
         2           La1 tau(   2) = (  -1.7505988   3.0321260  10.0000000  )
         3           La1 tau(   3) = (   1.7505988   3.0321260  10.0000000  )
         4           Pd1 tau(   4) = (   3.5011976   0.0000000  10.0000000  )
         5           La1 tau(   5) = (   3.5011976   2.0214174  12.8587158  )
         6           La1 tau(   6) = (   1.7505988   5.0535434  12.8587158  )
         7           La1 tau(   7) = (  -1.7505988   5.0535434  12.8587158  )
         8           Pd1 tau(   8) = (   0.0000000   2.0214174  12.8587158  )
         9           La1 tau(   9) = (  -0.0000300   3.9344468  15.7801508  )
        10           La1 tau(  10) = (   1.6564047   1.0650829  15.7803234  )
        11           La1 tau(  11) = (   5.3460087   1.0650493  15.7803240  )
        12           Pd1 tau(  12) = (   3.5011720   4.0427962  15.1999097  )

     number of k points=    20  Fermi-Dirac smearing, width (Ry)=  0.0110
                       cart. coord. in units 2pi/alat
        k(    1) = (   0.0000000   0.0000000   0.0000000), wk =   0.0555556
        k(    2) = (   0.0000000   0.0274835   0.0000000), wk =   0.1111111
        k(    3) = (   0.0000000   0.0549669   0.0000000), wk =   0.1111111
        k(    4) = (   0.0000000  -0.0824504   0.0000000), wk =   0.0555556
        k(    5) = (   0.0238014   0.0137417   0.0000000), wk =   0.1111111
        k(    6) = (   0.0238014   0.0412252   0.0000000), wk =   0.1111111
        k(    7) = (   0.0238014   0.0687087   0.0000000), wk =   0.1111111
        k(    8) = (   0.0238014  -0.0687087   0.0000000), wk =   0.1111111
        k(    9) = (   0.0238014  -0.0412252   0.0000000), wk =   0.1111111
        k(   10) = (   0.0238014  -0.0137417   0.0000000), wk =   0.1111111
        k(   11) = (   0.0476028   0.0274835   0.0000000), wk =   0.1111111
        k(   12) = (   0.0476028   0.0549669   0.0000000), wk =   0.1111111
        k(   13) = (   0.0476028   0.0824504   0.0000000), wk =   0.1111111
        k(   14) = (   0.0476028  -0.0549669   0.0000000), wk =   0.1111111
        k(   15) = (   0.0476028  -0.0274835   0.0000000), wk =   0.1111111
        k(   16) = (   0.0476028   0.0000000   0.0000000), wk =   0.1111111
        k(   17) = (  -0.0714041  -0.0412252   0.0000000), wk =   0.0555556
        k(   18) = (  -0.0714041  -0.0137417   0.0000000), wk =   0.1111111
        k(   19) = (  -0.0714041   0.0137417   0.0000000), wk =   0.1111111
        k(   20) = (  -0.0714041  -0.1236756   0.0000000), wk =   0.0555556

     Largest allocated arrays     est. size (Mb)     dimensions
     Largest temporary arrays     est. size (Mb)     dimensions

     Initial potential from superposition of free atoms
     Check: negative starting charge=   -0.854051

     starting charge  145.21136, renormalised to  147.00000

[...]

     *
     * You are using vdW-DF for exchange-correlation in this calculation.
     * Please cite the following three references that made this development
     * possible:
     *
     *   M. Dion, H. Rydberg, E. Schroder, D. C. Langreth, and
     *   B. I. Lundqvist, Phys. Rev. Lett. 92, 246401 (2004).
     *
     *   T. Thonhauser, V. R. Cooper, S. Li, A. Puzder, P. Hyldgaard, and
     *   D. C. Langreth, Phys. Rev. B 76, 125112 (2007).
     *
     *   G. Roman-Perez and J. M. Soler, Phys. Rev. Lett. 103, 096102 (2009).
     *
     *
     * If you are using vdW-DF2, please also cite:
     *
     *   K. Lee, E. D. Murray, L. Kong, B. I. Lundqvist, and
     *   D. C. Langreth, Phys. Rev. B 82, 081101(R) (2010).
     *
     *
     * If you are calculating the stress with vdW-DF, please also cite:
     *
     *   R. Sabatini, E. Kucukbenli, B. Kolb, T. Thonhauser, and
     *   S. de Gironcoli, J. Phys.: Condens. Matter 24, 424209 (2012).
     *

     Carrying out vdW-DF run using the following parameters:

     Nqs =      20    Nr_points =    1024   r_max =   100.000
     q_mesh =
               0.00001000     0.04494208     0.09755937     0.15916263
               0.23128650     0.31572767     0.41458969     0.53033537
               0.66584808     0.82450364     1.01025438     1.22772762
               1.48234092     1.78043706     2.12944203     2.53805004
               3.01644009     3.57652955     4.23227104     5.00000000

     Gradients computed in reciprocal space

[...]

     Starting wfc are  216 randomized atomic wfcs

     Self-consistent Calculation

[...]

     iteration # 11     ecut=    36.75 Ry     beta=0.10
     Davidson diagonalization with overlap
     c_bands:  1 eigenvalues not converged
     c_bands:  1 eigenvalues not converged
     c_bands:  1 eigenvalues not converged
     ethr =  1.18E-05,  avg # of iterations = 16.3

[...]

     total energy              =   -1535.62973696 Ry
     Harris-Foulkes estimate   =   -1535.62973958 Ry
     estimated scf accuracy    <       0.00000169 Ry

     iteration # 24     ecut=    36.75 Ry     beta=0.10
     Davidson diagonalization with overlap
     ethr =  1.15E-09,  avg # of iterations =  4.8

[...]

     negative rho (up, down):  6.473E-01 0.000E+00

     Adding external electric field

     Computed dipole along edir(3) :
        Dipole                0.0725 Ry au,          0.1842 Debye
        Dipole field          0.0001 Ry au

        Potential amp.       -0.0117 Ry
        Total length         47.3839 bohr

     End of self-consistent calculation

[...]

          k = 0.0476 0.0000 0.0000 ( 27721 PWs)   bands (ev):

[...]

          k =-0.0714-0.1237 0.0000 ( 27690 PWs)   bands (ev):

   -48.0428 -48.0183 -48.0183 -47.8959 -47.8892 -47.8892 -47.6644 -47.6644
   -47.5909 -31.2862 -31.2439 -31.1789 -31.1543 -31.1087 -31.1025 -30.8231
   -30.7642 -30.6988 -15.5230 -15.4298 -15.3185 -15.1773 -15.1019 -15.0478
   -15.0184 -14.9792 -14.9246 -14.8972 -14.8537 -14.8350 -14.8328 -14.8021
   -14.7274 -14.6308 -14.6104 -14.4890 -14.3558 -14.3032 -14.2895 -14.1769
   -14.1526 -14.1116 -14.0957 -14.0667 -13.8193  -0.7012  -0.6399  -0.5821
    -0.5504  -0.4992  -0.4909  -0.3813  -0.3621  -0.3327  -0.3163  -0.2228
    -0.1754  -0.0730  -0.0161   0.0130   0.1127   0.1908   0.4668   0.7596
     0.8588   0.9544   1.2389   1.5439   1.6664   1.8208   1.9279   1.9294
     1.9832   2.1534   2.2673   2.4069   2.4897   2.5116   2.5565   2.5719
     2.7138   2.7617   2.8200   2.9767   3.0018   3.0071   3.1440   3.1777
     3.2779   3.2822   3.3307   3.3699   3.3981   3.4479   3.4503   3.5250
     3.5320   3.5438   3.5505   3.5747   3.6059   3.6133   3.6604

     the Fermi energy is     2.1191 ev

!    total energy              =   -1535.62972966 Ry
     Harris-Foulkes estimate   =   -1535.62973724 Ry
     estimated scf accuracy    <       0.00000015 Ry

     The total energy is the sum of the following terms:

     one-electron contribution =   -7141.07978662 Ry
     hartree contribution      =    3593.49728476 Ry
     xc contribution           =    -554.34290350 Ry
     ewald contribution        =    2566.41865053 Ry
     electric field correction =       0.00000896 Ry
     smearing contrib. (-TS)   =      -0.12298379 Ry

     convergence has been achieved in  24 iterations

 BEEF-vdW xc energy contributions
           1 :   -489.823515463934
           2 :    450.183576992954
           3 :   -380.391178459779
           4 :    295.895975969763
           5 :   -212.947860471016
           6 :    144.027851659542
           7 :   -95.3885861515494
           8 :    67.0021666422040
           9 :   -54.3189558611559
          10 :    50.8250669513925
          11 :   -50.4074718327973
          12 :    48.8232942293262
          13 :   -44.0806896832455
          14 :    36.0260422778106
          15 :   -25.6600076413154
          16 :    14.5559895223881
          17 :   -4.45879804304309
          18 :   -3.05015457922627
          19 :    6.90238239836276
          20 :   -6.86139061215317
          21 :    3.66933412591345
          22 :    1.10591288612079
          23 :   -5.54731798868283
          24 :    8.04745815672118
          25 :   -7.88168797897163
          26 :    5.42543295011581
          27 :   -1.90920138523575
          28 :   -1.16810706735180
          29 :    2.68558381247919
          30 :   -2.32148667461911
          31 :   -42.5744734152122
          32 :   -30.7061108316467

     Forces acting on atoms (Ry/au):

     negative rho (up, down):  6.473E-01 0.000E+00
     atom    1 type  1   force =    -0.00000164    0.01527194   -0.00614776
     atom    2 type  1   force =     0.01321929   -0.00762568   -0.00617865
     atom    3 type  1   force =    -0.01321885   -0.00762700   -0.00617868
     atom    4 type  2   force =     0.00000011    0.00000034    0.02655775
     atom    5 type  1   force =     0.00000034   -0.00989432   -0.00052406
     atom    6 type  1   force =    -0.00856293    0.00495019   -0.00053457
     atom    7 type  1   force =     0.00856205    0.00494755   -0.00053464
     atom    8 type  2   force =     0.00000076    0.00000995   -0.00224251
     atom    9 type  1   force =    -0.00000067    0.00049349   -0.00162308
     atom   10 type  1   force =     0.00042366   -0.00026278   -0.00163137
     atom   11 type  1   force =    -0.00042205   -0.00026652   -0.00162984
     atom   12 type  2   force =    -0.00000008    0.00000284    0.00066741

     Total force =     0.042744     Total SCF correction =     0.001000

     entering subroutine stress ...

     negative rho (up, down):  6.473E-01 0.000E+00
          total   stress  (Ry/bohr**3)                   (kbar)     P=   -3.59
  -0.00003027  -0.00000000   0.00000000         -4.45     -0.00      0.00
  -0.00000000  -0.00003027  -0.00000000         -0.00     -4.45     -0.00
   0.00000000  -0.00000000  -0.00001258          0.00     -0.00     -1.85

 !ASE

     Writing output data file calc.save

     General routines

     Parallel routines

   This run was terminated on:  21:49:32  26Dec2018

   JOB DONE.
Job  /afs/slac/g/suncat/bin/suncat-tsmpirun -x LD_LIBRARY_PATH -wdir /scratch/qe110017_eQM9A pw.x -in pw.inp

TID   HOST_NAME   COMMAND_LINE            STATUS            TERMINATION_TIME
00000 suncat0068 pw.x -in pw.inp   Done                     12/26/2018 21:49:32
00001 suncat0068 pw.x -in pw.inp   Done                     12/26/2018 21:49:32
00002 suncat0068 pw.x -in pw.inp   Done                     12/26/2018 21:49:32
00003 suncat0068 pw.x -in pw.inp   Done                     12/26/2018 21:49:32
00004 suncat0068 pw.x -in pw.inp   Done                     12/26/2018 21:49:32
00005 suncat0068 pw.x -in pw.inp   Done                     12/26/2018 21:49:32
00006 suncat0068 pw.x -in pw.inp   Done                     12/26/2018 21:49:32
00007 suncat0068 pw.x -in pw.inp   Done                     12/26/2018 21:49:32
00008 suncat0025 pw.x -in pw.inp   Done                     12/26/2018 21:49:32
00009 suncat0025 pw.x -in pw.inp   Done                     12/26/2018 21:49:32
00010 suncat0025 pw.x -in pw.inp   Done                     12/26/2018 21:49:32
00011 suncat0025 pw.x -in pw.inp   Done                     12/26/2018 21:49:32
00012 suncat0025 pw.x -in pw.inp   Done                     12/26/2018 21:49:32
00013 suncat0025 pw.x -in pw.inp   Done                     12/26/2018 21:49:32
00014 suncat0025 pw.x -in pw.inp   Done                     12/26/2018 21:49:32
00015 suncat0025 pw.x -in pw.inp   Done                     12/26/2018 21:49:32
00016 suncat0013 pw.x -in pw.inp   Done                     12/26/2018 21:49:32
00017 suncat0013 pw.x -in pw.inp   Done                     12/26/2018 21:49:32
00018 suncat0013 pw.x -in pw.inp   Done                     12/26/2018 21:49:32
00019 suncat0013 pw.x -in pw.inp   Done                     12/26/2018 21:49:32
00020 suncat0013 pw.x -in pw.inp   Done                     12/26/2018 21:49:32
00021 suncat0013 pw.x -in pw.inp   Done                     12/26/2018 21:49:32
00022 suncat0013 pw.x -in pw.inp   Done                     12/26/2018 21:49:32
00023 suncat0013 pw.x -in pw.inp   Done                     12/26/2018 21:49:32
00024 suncat0008 pw.x -in pw.inp   Done                     12/26/2018 21:49:32
00025 suncat0008 pw.x -in pw.inp   Done                     12/26/2018 21:49:32
00026 suncat0008 pw.x -in pw.inp   Done                     12/26/2018 21:49:32
00027 suncat0008 pw.x -in pw.inp   Done                     12/26/2018 21:49:32
00028 suncat0008 pw.x -in pw.inp   Done                     12/26/2018 21:49:32
00029 suncat0008 pw.x -in pw.inp   Done                     12/26/2018 21:49:32
00030 suncat0008 pw.x -in pw.inp   Done                     12/26/2018 21:49:32
00031 suncat0008 pw.x -in pw.inp   Done                     12/26/2018 21:49:32
00032 suncat0001 pw.x -in pw.inp   Done                     12/26/2018 21:49:32
00033 suncat0001 pw.x -in pw.inp   Done                     12/26/2018 21:49:32
00034 suncat0001 pw.x -in pw.inp   Done                     12/26/2018 21:49:32
00035 suncat0001 pw.x -in pw.inp   Done                     12/26/2018 21:49:32
00036 suncat0001 pw.x -in pw.inp   Done                     12/26/2018 21:49:32
00037 suncat0001 pw.x -in pw.inp   Done                     12/26/2018 21:49:32
00038 suncat0001 pw.x -in pw.inp   Done                     12/26/2018 21:49:32
00039 suncat0001 pw.x -in pw.inp   Done                     12/26/2018 21:49:32
00040 suncat0184 pw.x -in pw.inp   Done                     12/26/2018 21:49:32
00041 suncat0184 pw.x -in pw.inp   Done                     12/26/2018 21:49:32
00042 suncat0184 pw.x -in pw.inp   Done                     12/26/2018 21:49:32
00043 suncat0184 pw.x -in pw.inp   Done                     12/26/2018 21:49:32
00044 suncat0184 pw.x -in pw.inp   Done                     12/26/2018 21:49:32
00045 suncat0184 pw.x -in pw.inp   Done                     12/26/2018 21:49:32
00046 suncat0184 pw.x -in pw.inp   Done                     12/26/2018 21:49:32
00047 suncat0184 pw.x -in pw.inp   Done                     12/26/2018 21:49:32
00048 suncat0178 pw.x -in pw.inp   Done                     12/26/2018 21:49:32
00049 suncat0178 pw.x -in pw.inp   Done                     12/26/2018 21:49:32
00050 suncat0178 pw.x -in pw.inp   Done                     12/26/2018 21:49:32
00051 suncat0178 pw.x -in pw.inp   Done                     12/26/2018 21:49:32
00052 suncat0178 pw.x -in pw.inp   Done                     12/26/2018 21:49:32
00053 suncat0178 pw.x -in pw.inp   Done                     12/26/2018 21:49:32
00054 suncat0178 pw.x -in pw.inp   Done                     12/26/2018 21:49:32
00055 suncat0178 pw.x -in pw.inp   Done                     12/26/2018 21:49:32
00056 suncat0177 pw.x -in pw.inp   Done                     12/26/2018 21:49:32
00057 suncat0177 pw.x -in pw.inp   Done                     12/26/2018 21:49:32
00058 suncat0177 pw.x -in pw.inp   Done                     12/26/2018 21:49:32
00059 suncat0177 pw.x -in pw.inp   Done                     12/26/2018 21:49:32
00060 suncat0177 pw.x -in pw.inp   Done                     12/26/2018 21:49:32
00061 suncat0177 pw.x -in pw.inp   Done                     12/26/2018 21:49:32
00062 suncat0177 pw.x -in pw.inp   Done                     12/26/2018 21:49:32
00063 suncat0177 pw.x -in pw.inp   Done                     12/26/2018 21:49:32