     Program PWSCF v.5.1rc2 (svn rev. 11289) starts on 25Dec2018 at  3:16:22

     Current dimensions of program PWSCF are:
     Max number of different atomic species (ntypx) = 10
     Max number of k-points (npk) =  40000
     Max angular momentum in pseudopotentials (lmaxx) =  3
     Presently stress not available with electric field

     IMPORTANT: XC functional enforced from input :
     Exchange-correlation      = BEEF-VDW ( 1  4 27 13 2)
     Any further DFT definition will be discarded
     Please, verify this is what you really want

     Subspace diagonalization in iterative solution of the eigenvalue problem:
     a serial algorithm will be used

     Found symmetry operation: I + ( -0.5000  0.0000  0.0000)
     This is a supercell, fractional translations are disabled

     bravais-lattice index     =            0
     lattice parameter (alat)  =       1.8897  a.u.
     unit-cell volume          =    4535.3883 (a.u.)^3
     number of atoms/cell      =           12
     number of atomic types    =            2
     number of electrons       =       180.00
     number of Kohn-Sham states=          120
     kinetic-energy cutoff     =      36.7493  Ry
     charge density cutoff     =     367.4932  Ry
     convergence threshold     =      1.0E-06
     mixing beta               =       0.1000
     number of iterations used =           10  plain     mixing
     Exchange-correlation      = BEEF-VDW ( 1  4 27 13 2)
     nstep                     =           50

     celldm(1)=   1.889726  celldm(2)=   0.000000  celldm(3)=   0.000000
     celldm(4)=   0.000000  celldm(5)=   0.000000  celldm(6)=   0.000000

     crystal axes: (cart. coord. in units of alat)
               a(1) = (   5.488975   0.000000   0.000000 )
               a(2) = (  -2.744488   4.981185   0.000000 )
               a(3) = (   0.000000   0.000000  24.580684 )

     reciprocal axes: (cart. coord. in units 2 pi/alat)
               b(1) = (  0.182183  0.100378  0.000000 )
               b(2) = (  0.000000  0.200755  0.000000 )
               b(3) = (  0.000000  0.000000  0.040682 )

     PseudoPot. # 1 for W  read from file:
     /afs/slac.stanford.edu/u/if/mamunm/psp/gbrv1.5pbe/W.UPF
     MD5 check sum: 9c083fa34c2a2ea0f02f1f893e16e1c8
     Pseudo is Ultrasoft + core correction, Zval = 14.0
     Generated by new atomic code, or converted to UPF format
     Using radial grid of  923 points,  8 beta functions with:
                l(1) =   0
                l(2) =   0
                l(3) =   0
                l(4) =   1
                l(5) =   1
                l(6) =   2
                l(7) =   2
                l(8) =   3
     Q(r) pseudized with  6 coefficients,  rinner =    1.350   1.350   1.350
                                                       1.350   1.350   1.350
                                                       1.350

     PseudoPot. # 2 for Pt read from file:
     /afs/slac.stanford.edu/u/if/mamunm/psp/gbrv1.5pbe/Pt.UPF
     MD5 check sum: f09d6de1a584b5a045c4fc126da2d0c4
     Pseudo is Ultrasoft + core correction, Zval = 16.0
     Generated by new atomic code, or converted to UPF format
     Using radial grid of  985 points,  6 beta functions with:
                l(1) =   0
                l(2) =   0
                l(3) =   1
                l(4) =   1
                l(5) =   2
                l(6) =   2
     Q(r) pseudized with  8 coefficients,  rinner =    1.300   1.300   1.300
                                                       1.300   1.300

     vdW kernel table read from file vdW_kernel_table
     MD5 check sum: 095c7af220d748ca6e76c0b4c6cfb241

     atomic species   valence    mass     pseudopotential
        W1            14.00   183.84000     W ( 1.00)
        Pt1           16.00   195.08400     Pt( 1.00)

     No symmetry found

   Cartesian axes

     site n.     atom                  positions (alat units)
         1           W1  tau(   1) = (   0.0000000   0.0000000  10.0000000  )
         2           W1  tau(   2) = (   2.7444875   0.0000000  10.0000000  )
         3           Pt1 tau(   3) = (   1.3722438   2.4905923  10.0000000  )
         4           Pt1 tau(   4) = (  -1.3722438   2.4905923  10.0000000  )
         5           W1  tau(   5) = (   2.7444875   1.5121326  12.2903421  )
         6           W1  tau(   6) = (   0.0000000   1.5121326  12.2903421  )
         7           Pt1 tau(   7) = (  -1.3722438   4.0027250  12.2903421  )
         8           Pt1 tau(   8) = (   1.3722438   4.0027250  12.2903421  )
         9           W1  tau(   9) = (  -0.0000000   3.0242653  14.5806841  )
        10           W1  tau(  10) = (   2.7444875   3.0242653  14.5806841  )
        11           Pt1 tau(  11) = (   4.1167313   0.5336729  14.5806841  )
        12           Pt1 tau(  12) = (   1.3722438   0.5336729  14.5806841  )

     number of k points=    20  Fermi-Dirac smearing, width (Ry)=  0.0110
                       cart. coord. in units 2pi/alat
        k(    1) = (   0.0000000   0.0000000   0.0000000), wk =   0.0555556
        k(    2) = (   0.0000000   0.0334592   0.0000000), wk =   0.1111111
        k(    3) = (   0.0000000   0.0669185   0.0000000), wk =   0.1111111
        k(    4) = (   0.0000000  -0.1003777   0.0000000), wk =   0.0555556
        k(    5) = (   0.0303639   0.0167296   0.0000000), wk =   0.1111111
        k(    6) = (   0.0303639   0.0501889   0.0000000), wk =   0.1111111
        k(    7) = (   0.0303639   0.0836481   0.0000000), wk =   0.1111111
        k(    8) = (   0.0303639  -0.0836481   0.0000000), wk =   0.1111111
        k(    9) = (   0.0303639  -0.0501889   0.0000000), wk =   0.1111111
        k(   10) = (   0.0303639  -0.0167296   0.0000000), wk =   0.1111111
        k(   11) = (   0.0607278   0.0334592   0.0000000), wk =   0.1111111
        k(   12) = (   0.0607278   0.0669185   0.0000000), wk =   0.1111111
        k(   13) = (   0.0607278   0.1003777   0.0000000), wk =   0.1111111
        k(   14) = (   0.0607278  -0.0669185   0.0000000), wk =   0.1111111
        k(   15) = (   0.0607278  -0.0334592   0.0000000), wk =   0.1111111
        k(   16) = (   0.0607278   0.0000000   0.0000000), wk =   0.1111111
        k(   17) = (  -0.0910917  -0.0501889   0.0000000), wk =   0.0555556
        k(   18) = (  -0.0910917  -0.0167296   0.0000000), wk =   0.1111111
        k(   19) = (  -0.0910917   0.0167296   0.0000000), wk =   0.1111111
        k(   20) = (  -0.0910917  -0.1505666   0.0000000), wk =   0.0555556

     Largest allocated arrays     est. size (Mb)     dimensions
     Largest temporary arrays     est. size (Mb)     dimensions

     Initial potential from superposition of free atoms
     Check: negative starting charge=   -1.479586

     starting charge  176.39789, renormalised to  180.00000

     negative rho (up, down):  1.510E+00 0.000E+00

     *
     * You are using vdW-DF for exchange-correlation in this calculation.
     * Please cite the following three references that made this development
     * possible:
     *
     *   M. Dion, H. Rydberg, E. Schroder, D. C. Langreth, and
     *   B. I. Lundqvist, Phys. Rev. Lett. 92, 246401 (2004).
     *
     *   T. Thonhauser, V. R. Cooper, S. Li, A. Puzder, P. Hyldgaard, and
     *   D. C. Langreth, Phys. Rev. B 76, 125112 (2007).
     *
     *   G. Roman-Perez and J. M. Soler, Phys. Rev. Lett. 103, 096102 (2009).
     *
     *
     * If you are using vdW-DF2, please also cite:
     *
     *   K. Lee, E. D. Murray, L. Kong, B. I. Lundqvist, and
     *   D. C. Langreth, Phys. Rev. B 82, 081101(R) (2010).
     *
     *
     * If you are calculating the stress with vdW-DF, please also cite:
     *
     *   R. Sabatini, E. Kucukbenli, B. Kolb, T. Thonhauser, and
     *   S. de Gironcoli, J. Phys.: Condens. Matter 24, 424209 (2012).
     *

     Carrying out vdW-DF run using the following parameters:

     Nqs =      20    Nr_points =    1024   r_max =   100.000
     q_mesh =
               0.00001000     0.04494208     0.09755937     0.15916263
               0.23128650     0.31572767     0.41458969     0.53033537
               0.66584808     0.82450364     1.01025438     1.22772762
               1.48234092     1.78043706     2.12944203     2.53805004
               3.01644009     3.57652955     4.23227104     5.00000000

     Gradients computed in reciprocal space

     Adding external electric field

     Computed dipole along edir(3) :
        Dipole                0.0000 Ry au,          0.0000 Debye
        Dipole field          0.0000 Ry au

        Potential amp.       -0.0000 Ry
        Total length         45.2895 bohr

     Starting wfc are  150 randomized atomic wfcs

     Self-consistent Calculation

     iteration #  1     ecut=    36.75 Ry     beta=0.10
     Davidson diagonalization with overlap
     ethr =  1.00E-02,  avg # of iterations =  7.0

[...]

     total energy              =   -2236.25747590 Ry
     Harris-Foulkes estimate   =   -2238.74522062 Ry
     estimated scf accuracy    <      14.69179524 Ry

[...]

     End of self-consistent calculation

          k = 0.0000 0.0000 0.0000 ( 17061 PWs)   bands (ev):

   -72.5219 -72.4665 -72.4301 -72.4258 -72.3761 -72.3720 -51.3958 -51.2609
   -51.2336 -51.2174 -51.1907 -51.1264 -50.8594 -50.8592 -50.8226 -50.8192
   -50.7958 -50.7923 -50.6303 -50.6168 -50.6056 -50.5922 -50.5922 -50.5921
   -36.9804 -36.8329 -36.7349 -36.7176 -36.7103 -36.6794 -36.6140 -36.5921
   -36.5720 -36.5254 -36.5030 -36.4861 -36.4173 -36.2372 -36.1605 -36.1545
   -35.9063 -35.9033  -6.7831  -4.9204  -4.4939  -4.2034  -4.1669  -4.0225
    -3.9753  -3.8584  -3.6711  -3.3661  -3.3487  -3.2948  -3.2208  -3.1651
    -2.8906  -2.0664  -1.8660  -1.7740  -1.6171  -1.4782  -1.1650  -1.0867
    -0.8828  -0.6924  -0.5428  -0.4550  -0.4193  -0.2689  -0.0407  -0.0058
     0.0434   0.0573   0.7145   0.7347   0.7435   1.0713   1.0825   1.1123
     1.1992   1.5039   1.5576   1.9674   2.2072   2.4056   2.4191   2.6614
     2.8625   2.8926   3.1145   3.3436   3.4100   3.5126   3.7115   3.7429
     3.8319   3.9733   4.3387   4.4261   4.5863   4.8997   5.1596   5.2794
     5.4363   5.4428   5.4541   5.5276   5.8830   5.8866   6.0158   6.1624
     6.3197   6.5163   6.8222   7.0069   7.4608   7.6200   8.3548   8.8412

[...]

          k =-0.0911-0.0502 0.0000 ( 17096 PWs)   bands (ev):

[...]

     the Fermi energy is     2.3617 ev

!    total energy              =   -2236.68119094 Ry
     Harris-Foulkes estimate   =   -2236.68119076 Ry
     estimated scf accuracy    <       0.00000094 Ry

     The total energy is the sum of the following terms:

     one-electron contribution =  -17454.64107475 Ry
     hartree contribution      =    8734.71589911 Ry
     xc contribution           =    -606.67141648 Ry
     ewald contribution        =    7089.98201088 Ry
     electric field correction =       0.00000000 Ry
     smearing contrib. (-TS)   =      -0.06660971 Ry

     convergence has been achieved in  15 iterations

 BEEF-vdW xc energy contributions
           1 :   -537.661690258048
           2 :    499.481061229520
           3 :   -431.360606926558
           4 :    346.896782399917
           5 :   -260.792387796324
           6 :    184.862906405913
[...]
     Pseudo is Ultrasoft + core correction, Zval = 14.0
     Generated by new atomic code, or converted to UPF format
     Using radial grid of  923 points,  8 beta functions with:
                l(1) =   0
                l(2) =   0
                l(3) =   0
                l(4) =   1
                l(5) =   1
                l(6) =   2
                l(7) =   2
                l(8) =   3
     Q(r) pseudized with  6 coefficients,  rinner =    1.350   1.350   1.350
                                                       1.350   1.350   1.350
                                                       1.350

     PseudoPot. # 2 for Pt read from file:
     /afs/slac.stanford.edu/u/if/mamunm/psp/gbrv1.5pbe/Pt.UPF
     MD5 check sum: f09d6de1a584b5a045c4fc126da2d0c4
     Pseudo is Ultrasoft + core correction, Zval = 16.0
     Generated by new atomic code, or converted to UPF format
     Using radial grid of  985 points,  6 beta functions with:
                l(1) =   0
                l(2) =   0
                l(3) =   1
                l(4) =   1
                l(5) =   2
                l(6) =   2
     Q(r) pseudized with  8 coefficients,  rinner =    1.300   1.300   1.300
                                                       1.300   1.300

     vdW kernel table read from file vdW_kernel_table
     MD5 check sum: 095c7af220d748ca6e76c0b4c6cfb241

     atomic species   valence    mass     pseudopotential
        W1            14.00   183.84000     W ( 1.00)
        Pt1           16.00   195.08400     Pt( 1.00)

     No symmetry found

   Cartesian axes

     site n.     atom                  positions (alat units)
         1           W1  tau(   1) = (   0.0000000   0.0000000  10.0000000  )
         2           W1  tau(   2) = (   2.7444875   0.0000000  10.0000000  )
         3           Pt1 tau(   3) = (   1.3722438   2.4905923  10.0000000  )
         4           Pt1 tau(   4) = (  -1.3722438   2.4905923  10.0000000  )
         5           W1  tau(   5) = (   2.7444875   1.5121326  12.2903421  )
         6           W1  tau(   6) = (   0.0000000   1.5121326  12.2903421  )
         7           Pt1 tau(   7) = (  -1.3722438   4.0027250  12.2903421  )
         8           Pt1 tau(   8) = (   1.3722438   4.0027250  12.2903421  )
         9           W1  tau(   9) = (  -0.0000190   3.1127508  14.4874036  )
        10           W1  tau(  10) = (   2.7444710   3.1127491  14.4874017  )
        11           Pt1 tau(  11) = (   4.1167102   0.7216922  14.5456926  )
        12           Pt1 tau(  12) = (   1.3722254   0.7216922  14.5456928  )

     number of k points=    20  Fermi-Dirac smearing, width (Ry)=  0.0110
                       cart. coord. in units 2pi/alat
        k(    1) = (   0.0000000   0.0000000   0.0000000), wk =   0.0555556
        k(    2) = (   0.0000000   0.0334592   0.0000000), wk =   0.1111111
        k(    3) = (   0.0000000   0.0669185   0.0000000), wk =   0.1111111
        k(    4) = (   0.0000000  -0.1003777   0.0000000), wk =   0.0555556
        k(    5) = (   0.0303639   0.0167296   0.0000000), wk =   0.1111111
        k(    6) = (   0.0303639   0.0501889   0.0000000), wk =   0.1111111
        k(    7) = (   0.0303639   0.0836481   0.0000000), wk =   0.1111111
        k(    8) = (   0.0303639  -0.0836481   0.0000000), wk =   0.1111111
        k(    9) = (   0.0303639  -0.0501889   0.0000000), wk =   0.1111111
        k(   10) = (   0.0303639  -0.0167296   0.0000000), wk =   0.1111111
        k(   11) = (   0.0607278   0.0334592   0.0000000), wk =   0.1111111
        k(   12) = (   0.0607278   0.0669185   0.0000000), wk =   0.1111111
        k(   13) = (   0.0607278   0.1003777   0.0000000), wk =   0.1111111
        k(   14) = (   0.0607278  -0.0669185   0.0000000), wk =   0.1111111
        k(   15) = (   0.0607278  -0.0334592   0.0000000), wk =   0.1111111
        k(   16) = (   0.0607278   0.0000000   0.0000000), wk =   0.1111111
        k(   17) = (  -0.0910917  -0.0501889   0.0000000), wk =   0.0555556
        k(   18) = (  -0.0910917  -0.0167296   0.0000000), wk =   0.1111111
        k(   19) = (  -0.0910917   0.0167296   0.0000000), wk =   0.1111111
        k(   20) = (  -0.0910917  -0.1505666   0.0000000), wk =   0.0555556

     Largest allocated arrays     est. size (Mb)     dimensions
     Largest temporary arrays     est. size (Mb)     dimensions

     Initial potential from superposition of free atoms
     Check: negative starting charge=   -1.479245

     starting charge  176.39789, renormalised to  180.00000

[...]

     *
     * You are using vdW-DF for exchange-correlation in this calculation.
     * Please cite the following three references that made this development
     * possible:
     *
     *   M. Dion, H. Rydberg, E. Schroder, D. C. Langreth, and
     *   B. I. Lundqvist, Phys. Rev. Lett. 92, 246401 (2004).
     *
     *   T. Thonhauser, V. R. Cooper, S. Li, A. Puzder, P. Hyldgaard, and
     *   D. C. Langreth, Phys. Rev. B 76, 125112 (2007).
     *
     *   G. Roman-Perez and J. M. Soler, Phys. Rev. Lett. 103, 096102 (2009).
     *
     *
     * If you are using vdW-DF2, please also cite:
     *
     *   K. Lee, E. D. Murray, L. Kong, B. I. Lundqvist, and
     *   D. C. Langreth, Phys. Rev. B 82, 081101(R) (2010).
     *
     *
     * If you are calculating the stress with vdW-DF, please also cite:
     *
     *   R. Sabatini, E. Kucukbenli, B. Kolb, T. Thonhauser, and
     *   S. de Gironcoli, J. Phys.: Condens. Matter 24, 424209 (2012).
     *

     Carrying out vdW-DF run using the following parameters:

     Nqs =      20    Nr_points =    1024   r_max =   100.000
     q_mesh =
               0.00001000     0.04494208     0.09755937     0.15916263
               0.23128650     0.31572767     0.41458969     0.53033537
               0.66584808     0.82450364     1.01025438     1.22772762
               1.48234092     1.78043706     2.12944203     2.53805004
               3.01644009     3.57652955     4.23227104     5.00000000

     Gradients computed in reciprocal space

[...]

     Starting wfc are  150 randomized atomic wfcs

     Self-consistent Calculation

[...]

     total energy              =   -2236.69766717 Ry
     Harris-Foulkes estimate   =   -2236.69766696 Ry
     estimated scf accuracy    <       0.00000108 Ry

     iteration # 16     ecut=    36.75 Ry     beta=0.10
     Davidson diagonalization with overlap
     ethr =  6.01E-10,  avg # of iterations =  2.3

[...]

     negative rho (up, down):  1.448E+00 0.000E+00

     Adding external electric field

     Computed dipole along edir(3) :
        Dipole                0.0203 Ry au,          0.0517 Debye
        Dipole field          0.0001 Ry au

        Potential amp.       -0.0051 Ry
        Total length         45.2895 bohr

     End of self-consistent calculation

[...]

          k = 0.0607 0.0000 0.0000 ( 17076 PWs)   bands (ev):

[...]

          k =-0.0911-0.1506 0.0000 ( 17096 PWs)   bands (ev):

   -72.4689 -72.4689 -72.3607 -72.3607 -72.3559 -72.3559 -51.3413 -51.3413
   -51.3337 -51.3337 -51.2508 -51.2507 -50.8715 -50.8715 -50.8164 -50.8164
   -50.7692 -50.7692 -50.6991 -50.6991 -50.6923 -50.6923 -50.5733 -50.5733
   -36.7808 -36.7808 -36.6241 -36.6241 -36.5654 -36.5654 -36.5309 -36.5309
   -36.5015 -36.5015 -36.4330 -36.4330 -36.2930 -36.2930 -36.2803 -36.2803
   -36.1632 -36.1632  -4.9597  -4.9597  -3.5234  -3.5234  -3.2275  -3.2275
    -3.1547  -3.1547  -2.9959  -2.9959  -2.6166  -2.6166  -2.3193  -2.3193
    -2.2698  -2.2698  -1.9095  -1.9095  -1.5886  -1.5886  -1.4356  -1.4356
    -1.0687  -1.0687  -1.0383  -1.0383  -0.9361  -0.9361  -0.8334  -0.8334
    -0.6334  -0.6334  -0.2362  -0.2362   0.1592   0.1592   0.6313   0.6313
     0.8164   0.8164   1.0214   1.0214   1.5600   1.5600   2.0190   2.0190
     2.4231   2.4231   2.4756   2.4756   2.6412   2.6412   2.7719   2.7719
     2.8963   2.8963   3.3960   3.3960   3.8977   3.8977   4.5011   4.5011
     4.8531   4.8531   5.3910   5.3910   6.1435   6.1435   6.6398   6.6398
     7.3456   7.3456   8.1124   8.1124   8.3951   8.3951   8.9694   8.9694

     the Fermi energy is     2.3926 ev

!    total energy              =   -2236.69766343 Ry
     Harris-Foulkes estimate   =   -2236.69766718 Ry
     estimated scf accuracy    <       0.00000053 Ry

     The total energy is the sum of the following terms:

     one-electron contribution =  -17611.24259059 Ry
     hartree contribution      =    8812.96366274 Ry
     xc contribution           =    -606.84434790 Ry
     ewald contribution        =    7168.49092343 Ry
     electric field correction =       0.00000114 Ry
     smearing contrib. (-TS)   =      -0.06531225 Ry

     convergence has been achieved in  16 iterations

 BEEF-vdW xc energy contributions
           1 :   -537.837708643631
           2 :    499.718267550675
           3 :   -431.681283036154
           4 :    347.265156302262
           5 :   -261.127230908201
           6 :    185.076508333426
           7 :   -125.637764986848
           8 :    83.6797975327203
           9 :   -55.8755170764609
          10 :    37.1160916992606
          11 :   -22.8181009276334
          12 :    10.3053406863144
          13 :   0.990963559915713
          14 :   -10.2526428685226
          15 :    16.3524237398602
          16 :   -18.7488375391019
          17 :    17.8688903661021
          18 :   -14.9453406907877
          19 :    11.5008169854962
          20 :   -8.78452798799356
          21 :    7.41406040588106
          22 :   -7.33300864880744
          23 :    8.02613497990956
          24 :   -8.84325385188777
          25 :    9.27534024749116
          26 :   -9.09592215964585
          27 :    8.35814306557825
          28 :   -7.29942175806741
          29 :    6.21777374352280
          30 :   -5.36891179946599
          31 :   -45.9296202326799
          32 :   -34.2288470237042

     Forces acting on atoms (Ry/au):

     negative rho (up, down):  1.448E+00 0.000E+00
     atom    1 type  1   force =    -0.00000330    0.01561190    0.02039422
     atom    2 type  1   force =    -0.00000353    0.01561192    0.02039384
     atom    3 type  2   force =    -0.00000252   -0.03436312    0.00346978
     atom    4 type  2   force =    -0.00000240   -0.03436314    0.00346976
     atom    5 type  1   force =    -0.00000003    0.00728818   -0.02143954
     atom    6 type  1   force =     0.00000025    0.00728840   -0.02143923
     atom    7 type  2   force =    -0.00000070    0.01078049   -0.00314571
     atom    8 type  2   force =    -0.00000074    0.01078059   -0.00314543
     atom    9 type  1   force =    -0.00000233    0.00036214   -0.00000237
     atom   10 type  1   force =    -0.00000242    0.00036254   -0.00000146
     atom   11 type  2   force =     0.00001003    0.00031990    0.00072311
     atom   12 type  2   force =     0.00000769    0.00032020    0.00072303

     Total force =     0.070600     Total SCF correction =     0.001378

     entering subroutine stress ...

     negative rho (up, down):  1.448E+00 0.000E+00
          total   stress  (Ry/bohr**3)                   (kbar)     P=  -29.36
  -0.00017410  -0.00000000   0.00000001        -25.61     -0.00      0.00
  -0.00000000  -0.00033153   0.00003756         -0.00    -48.77      5.52
   0.00000001   0.00003756  -0.00009321          0.00      5.52    -13.71

 !ASE

     Writing output data file calc.save

     General routines

     Parallel routines

   This run was terminated on:   5: 5:15  25Dec2018

   JOB DONE.
Job  /afs/slac/g/suncat/bin/suncat-tsmpirun -x LD_LIBRARY_PATH -wdir /scratch/qe109168_PRioD pw.x -in pw.inp

TID   HOST_NAME   COMMAND_LINE            STATUS            TERMINATION_TIME
00000 suncat0068 pw.x -in pw.inp   Done                     12/25/2018 05:05:15
00001 suncat0068 pw.x -in pw.inp   Done                     12/25/2018 05:05:15
00002 suncat0068 pw.x -in pw.inp   Done                     12/25/2018 05:05:15
00003 suncat0068 pw.x -in pw.inp   Done                     12/25/2018 05:05:15
00004 suncat0068 pw.x -in pw.inp   Done                     12/25/2018 05:05:15
00005 suncat0068 pw.x -in pw.inp   Done                     12/25/2018 05:05:15
00006 suncat0068 pw.x -in pw.inp   Done                     12/25/2018 05:05:15
00007 suncat0068 pw.x -in pw.inp   Done                     12/25/2018 05:05:15
00008 suncat0066 pw.x -in pw.inp   Done                     12/25/2018 05:05:15
00009 suncat0066 pw.x -in pw.inp   Done                     12/25/2018 05:05:15
00010 suncat0066 pw.x -in pw.inp   Done                     12/25/2018 05:05:15
00011 suncat0066 pw.x -in pw.inp   Done                     12/25/2018 05:05:15
00012 suncat0066 pw.x -in pw.inp   Done                     12/25/2018 05:05:15
00013 suncat0066 pw.x -in pw.inp   Done                     12/25/2018 05:05:15
00014 suncat0066 pw.x -in pw.inp   Done                     12/25/2018 05:05:15
00015 suncat0066 pw.x -in pw.inp   Done                     12/25/2018 05:05:15
00016 suncat0061 pw.x -in pw.inp   Done                     12/25/2018 05:05:15
00017 suncat0061 pw.x -in pw.inp   Done                     12/25/2018 05:05:15
00018 suncat0061 pw.x -in pw.inp   Done                     12/25/2018 05:05:15
00019 suncat0061 pw.x -in pw.inp   Done                     12/25/2018 05:05:15
00020 suncat0061 pw.x -in pw.inp   Done                     12/25/2018 05:05:15
00021 suncat0061 pw.x -in pw.inp   Done                     12/25/2018 05:05:15
00022 suncat0061 pw.x -in pw.inp   Done                     12/25/2018 05:05:15
00023 suncat0061 pw.x -in pw.inp   Done                     12/25/2018 05:05:15
00024 suncat0053 pw.x -in pw.inp   Done                     12/25/2018 05:05:15
00025 suncat0053 pw.x -in pw.inp   Done                     12/25/2018 05:05:15
00026 suncat0053 pw.x -in pw.inp   Done                     12/25/2018 05:05:15
00027 suncat0053 pw.x -in pw.inp   Done                     12/25/2018 05:05:15
00028 suncat0053 pw.x -in pw.inp   Done                     12/25/2018 05:05:15
00029 suncat0053 pw.x -in pw.inp   Done                     12/25/2018 05:05:15
00030 suncat0053 pw.x -in pw.inp   Done                     12/25/2018 05:05:15
00031 suncat0053 pw.x -in pw.inp   Done                     12/25/2018 05:05:15
00032 suncat0052 pw.x -in pw.inp   Done                     12/25/2018 05:05:15
00033 suncat0052 pw.x -in pw.inp   Done                     12/25/2018 05:05:15
00034 suncat0052 pw.x -in pw.inp   Done                     12/25/2018 05:05:15
00035 suncat0052 pw.x -in pw.inp   Done                     12/25/2018 05:05:15
00036 suncat0052 pw.x -in pw.inp   Done                     12/25/2018 05:05:15
00037 suncat0052 pw.x -in pw.inp   Done                     12/25/2018 05:05:15
00038 suncat0052 pw.x -in pw.inp   Done                     12/25/2018 05:05:15
00039 suncat0052 pw.x -in pw.inp   Done                     12/25/2018 05:05:15
00040 suncat0046 pw.x -in pw.inp   Done                     12/25/2018 05:05:15
00041 suncat0046 pw.x -in pw.inp   Done                     12/25/2018 05:05:15
00042 suncat0046 pw.x -in pw.inp   Done                     12/25/2018 05:05:15
00043 suncat0046 pw.x -in pw.inp   Done                     12/25/2018 05:05:15
00044 suncat0046 pw.x -in pw.inp   Done                     12/25/2018 05:05:15
00045 suncat0046 pw.x -in pw.inp   Done                     12/25/2018 05:05:15
00046 suncat0046 pw.x -in pw.inp   Done                     12/25/2018 05:05:15
00047 suncat0046 pw.x -in pw.inp   Done                     12/25/2018 05:05:15
00048 suncat0141 pw.x -in pw.inp   Done                     12/25/2018 05:05:15
00049 suncat0141 pw.x -in pw.inp   Done                     12/25/2018 05:05:15
00050 suncat0141 pw.x -in pw.inp   Done                     12/25/2018 05:05:15
00051 suncat0141 pw.x -in pw.inp   Done                     12/25/2018 05:05:15
00052 suncat0141 pw.x -in pw.inp   Done                     12/25/2018 05:05:15
00053 suncat0141 pw.x -in pw.inp   Done                     12/25/2018 05:05:15
00054 suncat0141 pw.x -in pw.inp   Done                     12/25/2018 05:05:15
00055 suncat0141 pw.x -in pw.inp   Done                     12/25/2018 05:05:15
00056 suncat0140 pw.x -in pw.inp   Done                     12/25/2018 05:05:15
00057 suncat0140 pw.x -in pw.inp   Done                     12/25/2018 05:05:15
00058 suncat0140 pw.x -in pw.inp   Done                     12/25/2018 05:05:15
00059 suncat0140 pw.x -in pw.inp   Done                     12/25/2018 05:05:15
00060 suncat0140 pw.x -in pw.inp   Done                     12/25/2018 05:05:15
00061 suncat0140 pw.x -in pw.inp   Done                     12/25/2018 05:05:15
00062 suncat0140 pw.x -in pw.inp   Done                     12/25/2018 05:05:15
00063 suncat0140 pw.x -in pw.inp   Done                     12/25/2018 05:05:15