     Program PWSCF v.5.1rc2 (svn rev. 11289) starts on 19Dec2018 at 19:46: 6

     Current dimensions of program PWSCF are:
     Max number of different atomic species (ntypx) = 10
     Max number of k-points (npk) =  40000
     Max angular momentum in pseudopotentials (lmaxx) =  3
     Presently stress not available with electric field

     IMPORTANT: XC functional enforced from input :
     Exchange-correlation      = BEEF-VDW ( 1  4 27 13 2)
     Any further DFT definition will be discarded
     Please, verify this is what you really want

     Subspace diagonalization in iterative solution of the eigenvalue problem:
     a serial algorithm will be used

     bravais-lattice index     =            0
     lattice parameter (alat)  =       1.8897  a.u.
     unit-cell volume          =    5285.5025 (a.u.)^3
     number of atoms/cell      =           12
     number of atomic types    =            2
     number of electrons       =       132.00
     number of Kohn-Sham states=           96
     kinetic-energy cutoff     =      36.7493  Ry
     charge density cutoff     =     367.4932  Ry
     convergence threshold     =      1.0E-06
     mixing beta               =       0.1000
     number of iterations used =           10  plain     mixing
     Exchange-correlation      = BEEF-VDW ( 1  4 27 13 2)
     nstep                     =           50

     celldm(1)=   1.889726  celldm(2)=   0.000000  celldm(3)=   0.000000
     celldm(4)=   0.000000  celldm(5)=   0.000000  celldm(6)=   0.000000

     crystal axes: (cart. coord. in units of alat)
               a(1) = (   6.024416   0.000000   0.000000 )
               a(2) = (  -3.012208   5.217297   0.000000 )
               a(3) = (   0.000000   0.000000  24.918915 )

     reciprocal axes: (cart. coord. in units 2 pi/alat)
               b(1) = (  0.165991  0.095835  0.000000 )
               b(2) = (  0.000000  0.191670  0.000000 )
               b(3) = (  0.000000  0.000000  0.040130 )

     PseudoPot. # 1 for Au read from file:
     /afs/slac.stanford.edu/u/if/mamunm/psp/gbrv1.5pbe/Au.UPF
     MD5 check sum: 9d7f43293ad2c663164586bc4b293ffc
     Pseudo is Ultrasoft + core correction, Zval = 11.0
     Generated by new atomic code, or converted to UPF format
     Using radial grid of  985 points,  7 beta functions with:
                l(1) =   0
                l(2) =   0
                l(3) =   1
                l(4) =   1
                l(5) =   2
                l(6) =   2
                l(7) =   3
     Q(r) pseudized with  6 coefficients,  rinner =    1.900   1.900   1.900
                                                       1.900   1.900   1.900
                                                       1.900

     PseudoPot. # 2 for Sc read from file:
     /afs/slac.stanford.edu/u/if/mamunm/psp/gbrv1.5pbe/Sc.UPF
     MD5 check sum: db30a2753ba66ef00f23801d899b7e7f
     Pseudo is Ultrasoft + core correction, Zval = 11.0
     Generated by new atomic code, or converted to UPF format
     Using radial grid of  849 points,  6 beta functions with:
                l(1) =   0
                l(2) =   0
                l(3) =   1
                l(4) =   1
                l(5) =   2
                l(6) =   2
     Q(r) pseudized with  6 coefficients,  rinner =    1.200   1.200   1.200
                                                       1.200   1.200

     vdW kernel table read from file vdW_kernel_table
     MD5 check sum: 095c7af220d748ca6e76c0b4c6cfb241

     atomic species   valence    mass     pseudopotential
        Au1           11.00   196.96657     Au( 1.00)
        Sc1           11.00    44.95591     Sc( 1.00)

     No symmetry found

   Cartesian axes

     site n.     atom                  positions (alat units)
         1           Au1 tau(   1) = (   0.0000000   0.0000000  10.0000000  )
         2           Au1 tau(   2) = (   4.5183121   2.6086487  10.0000000  )
         3           Au1 tau(   3) = (   1.5061040   2.6086487  10.0000000  )
         4           Sc1 tau(   4) = (   3.0122080   0.0000000  10.0000000  )
         5           Au1 tau(   5) = (   3.0122080   1.7390991  12.4594576  )
         6           Au1 tau(   6) = (   1.5061040   4.3477478  12.4594576  )
         7           Au1 tau(   7) = (  -1.5061040   4.3477478  12.4594576  )
         8           Sc1 tau(   8) = (   0.0000000   1.7390991  12.4594576  )
         9           Au1 tau(   9) = (  -0.0000000   3.4781982  14.9189151  )
        10           Au1 tau(  10) = (   1.5061040   0.8695496  14.9189151  )
        11           Au1 tau(  11) = (   4.5183121   0.8695496  14.9189151  )
        12           Sc1 tau(  12) = (   3.0122080   3.4781982  14.9189151  )

     number of k points=    20  Fermi-Dirac smearing, width (Ry)=  0.0110
                       cart. coord. in units 2pi/alat
        k(    1) = (   0.0000000   0.0000000   0.0000000), wk =   0.0555556
        k(    2) = (   0.0000000   0.0319450   0.0000000), wk =   0.1111111
        k(    3) = (   0.0000000   0.0638900   0.0000000), wk =   0.1111111
        k(    4) = (   0.0000000  -0.0958351   0.0000000), wk =   0.0555556
        k(    5) = (   0.0276652   0.0159725   0.0000000), wk =   0.1111111
        k(    6) = (   0.0276652   0.0479175   0.0000000), wk =   0.1111111
        k(    7) = (   0.0276652   0.0798625   0.0000000), wk =   0.1111111
        k(    8) = (   0.0276652  -0.0798625   0.0000000), wk =   0.1111111
        k(    9) = (   0.0276652  -0.0479175   0.0000000), wk =   0.1111111
        k(   10) = (   0.0276652  -0.0159725   0.0000000), wk =   0.1111111
        k(   11) = (   0.0553304   0.0319450   0.0000000), wk =   0.1111111
        k(   12) = (   0.0553304   0.0638900   0.0000000), wk =   0.1111111
        k(   13) = (   0.0553304   0.0958351   0.0000000), wk =   0.1111111
        k(   14) = (   0.0553304  -0.0638900   0.0000000), wk =   0.1111111
        k(   15) = (   0.0553304  -0.0319450   0.0000000), wk =   0.1111111
        k(   16) = (   0.0553304   0.0000000   0.0000000), wk =   0.1111111
        k(   17) = (  -0.0829956  -0.0479175   0.0000000), wk =   0.0555556
        k(   18) = (  -0.0829956  -0.0159725   0.0000000), wk =   0.1111111
        k(   19) = (  -0.0829956   0.0159725   0.0000000), wk =   0.1111111
        k(   20) = (  -0.0829956  -0.1437526   0.0000000), wk =   0.0555556

     Largest allocated arrays     est. size (Mb)     dimensions
     Largest temporary arrays     est. size (Mb)     dimensions

     Check: negative/imaginary core charge=   -0.000002    0.000000

     Initial potential from superposition of free atoms
     Check: negative starting charge=   -0.000160

     starting charge  131.99169, renormalised to  132.00000

     negative rho (up, down):  1.596E-04 0.000E+00

     *
     * You are using vdW-DF for exchange-correlation in this calculation.
     * Please cite the following three references that made this development
     * possible:
     *
     *   M. Dion, H. Rydberg, E. Schroder, D. C. Langreth, and
     *   B. I. Lundqvist, Phys. Rev. Lett. 92, 246401 (2004).
     *
     *   T. Thonhauser, V. R. Cooper, S. Li, A. Puzder, P. Hyldgaard, and
     *   D. C. Langreth, Phys. Rev. B 76, 125112 (2007).
     *
     *   G. Roman-Perez and J. M. Soler, Phys. Rev. Lett. 103, 096102 (2009).
     *
     *
     * If you are using vdW-DF2, please also cite:
     *
     *   K. Lee, E. D. Murray, L. Kong, B. I. Lundqvist, and
     *   D. C. Langreth, Phys. Rev. B 82, 081101(R) (2010).
     *
     *
     * If you are calculating the stress with vdW-DF, please also cite:
     *
     *   R. Sabatini, E. Kucukbenli, B. Kolb, T. Thonhauser, and
     *   S. de Gironcoli, J. Phys.: Condens. Matter 24, 424209 (2012).
     *

     Carrying out vdW-DF run using the following parameters:

     Nqs =      20    Nr_points =    1024   r_max =   100.000
     q_mesh =
               0.00001000     0.04494208     0.09755937     0.15916263
               0.23128650     0.31572767     0.41458969     0.53033537
               0.66584808     0.82450364     1.01025438     1.22772762
               1.48234092     1.78043706     2.12944203     2.53805004
               3.01644009     3.57652955     4.23227104     5.00000000

     Gradients computed in reciprocal space

     Adding external electric field

     Computed dipole along edir(3) :
        Dipole                0.0000 Ry au,          0.0000 Debye
        Dipole field          0.0000 Ry au

        Potential amp.       -0.0000 Ry
        Total length         45.9127 bohr

     Starting wfc are  120 randomized atomic wfcs

     Self-consistent Calculation

     iteration #  1     ecut=    36.75 Ry     beta=0.10
     Davidson diagonalization with overlap
     ethr =  1.00E-02,  avg # of iterations =  6.5

     Threshold (ethr) on eigenvalues was too large:
     Diagonalizing with lowered threshold

     Davidson diagonalization with overlap
     ethr =  5.10E-04,  avg # of iterations =  7.5

[...]

     total energy              =   -1335.19730576 Ry
     Harris-Foulkes estimate   =   -1335.31395171 Ry
     estimated scf accuracy    <       0.76301646 Ry

[...]

     End of self-consistent calculation

          k = 0.0000 0.0000 0.0000 ( 19711 PWs)   bands (ev):

   -50.3439 -50.3438 -50.1319 -28.9575 -28.9552 -28.8500 -28.8500 -28.8494
   -28.8494 -28.6884 -28.6884 -28.6506  -7.0304  -5.7129  -5.4381  -5.1350
    -5.1349  -5.1324  -5.0756  -4.9799  -4.9798  -4.7747  -4.7546  -4.7546
    -4.6578  -4.5965  -4.5965  -3.9558  -3.8983  -3.8983  -3.7383  -3.7383
    -3.6110  -3.5274  -3.3557  -3.2992  -3.2989  -3.2902  -3.1381  -3.1379
    -3.0286  -3.0285  -2.9072  -2.9071  -2.8521  -2.8521  -2.6931  -2.3683
    -2.3683  -2.3378  -2.3377  -2.1717  -2.1715  -2.0486  -1.7647  -1.7647
    -1.7436  -1.5270  -1.4829  -1.3056   0.1291   0.5882   0.5883   0.6525
     0.6525   0.8291   0.9592   1.2736   1.2737   1.2844   1.2845   1.6162
     1.8885   1.8885   1.9303   1.9479   1.9479   2.3485   2.3485   2.9373
     2.9373   3.1276   3.1277   3.1453   3.4757   4.2608   4.3613   4.3614
     4.5536   4.5536   4.5685   4.8349   5.3429   5.3430   5.7676   5.9163

[...]

          k =-0.0830-0.0479 0.0000 ( 19922 PWs)   bands (ev):

[...]

     the Fermi energy is     0.7598 ev

!    total energy              =   -1335.17095929 Ry
     Harris-Foulkes estimate   =   -1335.17095857 Ry
     estimated scf accuracy    <       0.00000039 Ry

     The total energy is the sum of the following terms:

     one-electron contribution =   -7858.32291004 Ry
     hartree contribution      =    3995.97503251 Ry
     xc contribution           =    -617.34662937 Ry
     ewald contribution        =    3144.57309583 Ry
     electric field correction =       0.00000000 Ry
     smearing contrib. (-TS)   =      -0.04954823 Ry

     convergence has been achieved in  14 iterations

 BEEF-vdW xc energy contributions
           1 :   -549.494238026342
           2 :    509.071295569281
           3 :   -437.656254007955
           4 :    350.214652335499
           5 :   -262.009617692791
           6 :    184.489310226648
           7 :   -123.568921845991
           8 :    80.0765304517826
           9 :   -51.4519992374045
[...]
     Generated by new atomic code, or converted to UPF format
     Using radial grid of  985 points,  7 beta functions with:
                l(1) =   0
                l(2) =   0
                l(3) =   1
                l(4) =   1
                l(5) =   2
                l(6) =   2
                l(7) =   3
     Q(r) pseudized with  6 coefficients,  rinner =    1.900   1.900   1.900
                                                       1.900   1.900   1.900
                                                       1.900

     PseudoPot. # 2 for Sc read from file:
     /afs/slac.stanford.edu/u/if/mamunm/psp/gbrv1.5pbe/Sc.UPF
     MD5 check sum: db30a2753ba66ef00f23801d899b7e7f
     Pseudo is Ultrasoft + core correction, Zval = 11.0
     Generated by new atomic code, or converted to UPF format
     Using radial grid of  849 points,  6 beta functions with:
                l(1) =   0
                l(2) =   0
                l(3) =   1
                l(4) =   1
                l(5) =   2
                l(6) =   2
     Q(r) pseudized with  6 coefficients,  rinner =    1.200   1.200   1.200
                                                       1.200   1.200

     vdW kernel table read from file vdW_kernel_table
     MD5 check sum: 095c7af220d748ca6e76c0b4c6cfb241

     atomic species   valence    mass     pseudopotential
        Au1           11.00   196.96657     Au( 1.00)
        Sc1           11.00    44.95591     Sc( 1.00)

     No symmetry found

   Cartesian axes

     site n.     atom                  positions (alat units)
         1           Au1 tau(   1) = (   0.0000000   0.0000000  10.0000000  )
         2           Au1 tau(   2) = (   4.5183121   2.6086487  10.0000000  )
         3           Au1 tau(   3) = (   1.5061040   2.6086487  10.0000000  )
         4           Sc1 tau(   4) = (   3.0122080   0.0000000  10.0000000  )
         5           Au1 tau(   5) = (   3.0122080   1.7390991  12.4594576  )
         6           Au1 tau(   6) = (   1.5061040   4.3477478  12.4594576  )
         7           Au1 tau(   7) = (  -1.5061040   4.3477478  12.4594576  )
         8           Sc1 tau(   8) = (   0.0000000   1.7390991  12.4594576  )
         9           Au1 tau(   9) = (  -0.0000398   3.4613496  14.9240403  )
        10           Au1 tau(  10) = (   1.4915410   0.8779725  14.9239295  )
        11           Au1 tau(  11) = (   4.5328896   0.8780353  14.9240615  )
        12           Sc1 tau(  12) = (   3.0122535   3.4781547  14.8026136  )

     number of k points=    20  Fermi-Dirac smearing, width (Ry)=  0.0110
                       cart. coord. in units 2pi/alat
        k(    1) = (   0.0000000   0.0000000   0.0000000), wk =   0.0555556
        k(    2) = (   0.0000000   0.0319450   0.0000000), wk =   0.1111111
        k(    3) = (   0.0000000   0.0638900   0.0000000), wk =   0.1111111
        k(    4) = (   0.0000000  -0.0958351   0.0000000), wk =   0.0555556
        k(    5) = (   0.0276652   0.0159725   0.0000000), wk =   0.1111111
        k(    6) = (   0.0276652   0.0479175   0.0000000), wk =   0.1111111
        k(    7) = (   0.0276652   0.0798625   0.0000000), wk =   0.1111111
        k(    8) = (   0.0276652  -0.0798625   0.0000000), wk =   0.1111111
        k(    9) = (   0.0276652  -0.0479175   0.0000000), wk =   0.1111111
        k(   10) = (   0.0276652  -0.0159725   0.0000000), wk =   0.1111111
        k(   11) = (   0.0553304   0.0319450   0.0000000), wk =   0.1111111
        k(   12) = (   0.0553304   0.0638900   0.0000000), wk =   0.1111111
        k(   13) = (   0.0553304   0.0958351   0.0000000), wk =   0.1111111
        k(   14) = (   0.0553304  -0.0638900   0.0000000), wk =   0.1111111
        k(   15) = (   0.0553304  -0.0319450   0.0000000), wk =   0.1111111
        k(   16) = (   0.0553304   0.0000000   0.0000000), wk =   0.1111111
        k(   17) = (  -0.0829956  -0.0479175   0.0000000), wk =   0.0555556
        k(   18) = (  -0.0829956  -0.0159725   0.0000000), wk =   0.1111111
        k(   19) = (  -0.0829956   0.0159725   0.0000000), wk =   0.1111111
        k(   20) = (  -0.0829956  -0.1437526   0.0000000), wk =   0.0555556

     Largest allocated arrays     est. size (Mb)     dimensions
     Largest temporary arrays     est. size (Mb)     dimensions

     Check: negative/imaginary core charge=   -0.000002    0.000000

     Initial potential from superposition of free atoms
     Check: negative starting charge=   -0.000160

     starting charge  131.99169, renormalised to  132.00000

[...]

     *
     * You are using vdW-DF for exchange-correlation in this calculation.
     * Please cite the following three references that made this development
     * possible:
     *
     *   M. Dion, H. Rydberg, E. Schroder, D. C. Langreth, and
     *   B. I. Lundqvist, Phys. Rev. Lett. 92, 246401 (2004).
     *
     *   T. Thonhauser, V. R. Cooper, S. Li, A. Puzder, P. Hyldgaard, and
     *   D. C. Langreth, Phys. Rev. B 76, 125112 (2007).
     *
     *   G. Roman-Perez and J. M. Soler, Phys. Rev. Lett. 103, 096102 (2009).
     *
     *
     * If you are using vdW-DF2, please also cite:
     *
     *   K. Lee, E. D. Murray, L. Kong, B. I. Lundqvist, and
     *   D. C. Langreth, Phys. Rev. B 82, 081101(R) (2010).
     *
     *
     * If you are calculating the stress with vdW-DF, please also cite:
     *
     *   R. Sabatini, E. Kucukbenli, B. Kolb, T. Thonhauser, and
     *   S. de Gironcoli, J. Phys.: Condens. Matter 24, 424209 (2012).
     *

     Carrying out vdW-DF run using the following parameters:

     Nqs =      20    Nr_points =    1024   r_max =   100.000
     q_mesh =
               0.00001000     0.04494208     0.09755937     0.15916263
               0.23128650     0.31572767     0.41458969     0.53033537
               0.66584808     0.82450364     1.01025438     1.22772762
               1.48234092     1.78043706     2.12944203     2.53805004
               3.01644009     3.57652955     4.23227104     5.00000000

     Gradients computed in reciprocal space

[...]

     Starting wfc are  120 randomized atomic wfcs

     Self-consistent Calculation

[...]

     Threshold (ethr) on eigenvalues was too large:
     Diagonalizing with lowered threshold

     Davidson diagonalization with overlap
     ethr =  5.20E-04,  avg # of iterations =  7.2

[...]

     total energy              =   -1335.19168156 Ry
     Harris-Foulkes estimate   =   -1335.19168161 Ry
     estimated scf accuracy    <       0.00000254 Ry

     iteration # 14     ecut=    36.75 Ry     beta=0.10
     Davidson diagonalization with overlap
     ethr =  1.93E-09,  avg # of iterations =  2.0

[...]

     negative rho (up, down):  1.463E-04 0.000E+00

     Adding external electric field

     Computed dipole along edir(3) :
        Dipole               -0.0324 Ry au,         -0.0824 Debye
        Dipole field         -0.0001 Ry au

        Potential amp.        0.0071 Ry
        Total length         45.9127 bohr

     End of self-consistent calculation

[...]

          k = 0.0553 0.0000 0.0000 ( 19907 PWs)   bands (ev):

[...]

          k =-0.0830-0.1438 0.0000 ( 19922 PWs)   bands (ev):

   -50.3911 -50.3201 -50.1662 -29.0078 -28.9274 -28.8987 -28.8965 -28.8405
   -28.8383 -28.7251 -28.7227 -28.6892  -5.8972  -5.5894  -4.9668  -4.7905
    -4.7452  -4.7295  -4.6781  -4.5362  -4.4831  -4.4742  -4.4082  -4.3164
    -4.1664  -4.1086  -4.1075  -4.0848  -4.0831  -3.9821  -3.8148  -3.8090
    -3.5265  -3.4886  -3.4663  -3.4499  -3.3882  -3.3464  -3.3053  -3.3007
    -3.2761  -3.2557  -3.2430  -3.1985  -3.1578  -3.1287  -3.0542  -3.0290
    -2.9923  -2.9126  -2.8313  -2.7961  -2.7888  -2.7354  -2.6399  -2.5516
    -2.3113  -2.2086  -1.9224  -1.8717  -1.7125  -1.3063  -0.2259  -0.1453
     0.0607   0.1805   0.6649   0.9842   1.3147   1.3284   1.3393   1.4145
     1.4832   1.5651   1.6929   1.9634   2.0768   2.3002   2.5807   2.6391
     3.4109   3.5478   3.7093   3.9565   4.1620   4.5819   5.4084   5.4591
     5.6703   6.0613   6.0884   6.1443   6.1666   6.2062   6.7210   6.7452

     the Fermi energy is     0.7212 ev

!    total energy              =   -1335.19168243 Ry
     Harris-Foulkes estimate   =   -1335.19168197 Ry
     estimated scf accuracy    <       0.00000031 Ry

     The total energy is the sum of the following terms:

     one-electron contribution =   -7886.48738316 Ry
     hartree contribution      =    4009.85057151 Ry
     xc contribution           =    -617.39354022 Ry
     ewald contribution        =    3158.88723727 Ry
     electric field correction =       0.00000250 Ry
     smearing contrib. (-TS)   =      -0.04857034 Ry

     convergence has been achieved in  14 iterations

 BEEF-vdW xc energy contributions
           1 :   -550.086861835088
           2 :    509.674619447827
           3 :   -438.270683626690
           4 :    350.829028703698
           5 :   -262.609816233454
           6 :    185.067147744211
           7 :   -124.124301389698
           8 :    80.6152437767444
           9 :   -51.9837351982286
          10 :    34.2313260385284
          11 :   -23.4509509757421
          12 :    16.6735462488709
          13 :   -12.1090754991167
          14 :    8.95424218891401
          15 :   -6.93851780679870
          16 :    5.79220480475340
          17 :   -4.90989109778661
          18 :    3.41857476946416
          19 :  -0.625287938128395
          20 :   -3.47341153411833
          21 :    8.00751360751872
          22 :   -11.5751099372848
          23 :    12.9448559199507
          24 :   -11.7018614014466
          25 :    8.44480099264376
          26 :   -4.45296384956941
          27 :    1.06285060332254
          28 :   0.877851457816860
          29 :   -1.23433363390734
          30 :   0.459330446421745
          31 :   -44.7694542634351
          32 :   -32.5513746558474

     Forces acting on atoms (Ry/au):

     negative rho (up, down):  1.463E-04 0.000E+00
     atom    1 type  1   force =     0.00000106    0.00300127   -0.00103212
     atom    2 type  1   force =     0.00259395   -0.00150257   -0.00103520
     atom    3 type  1   force =    -0.00259532   -0.00150153   -0.00103441
     atom    4 type  2   force =    -0.00000038    0.00000136    0.01173511
     atom    5 type  1   force =    -0.00000120   -0.00341151   -0.00258946
     atom    6 type  1   force =    -0.00295571    0.00170625   -0.00257426
     atom    7 type  1   force =     0.00295401    0.00170589   -0.00258622
     atom    8 type  2   force =     0.00000088    0.00000180    0.00037709
     atom    9 type  1   force =     0.00001796    0.00092361   -0.00019762
     atom   10 type  1   force =     0.00079427   -0.00045716   -0.00018565
     atom   11 type  1   force =    -0.00079593   -0.00047467   -0.00019302
     atom   12 type  2   force =    -0.00001358    0.00000725   -0.00068423

     Total force =     0.015037     Total SCF correction =     0.001495

     entering subroutine stress ...

     negative rho (up, down):  1.463E-04 0.000E+00
          total   stress  (Ry/bohr**3)                   (kbar)     P=  -11.82
  -0.00011618  -0.00000000   0.00000000        -17.09     -0.00      0.00
  -0.00000000  -0.00011618  -0.00000000         -0.00    -17.09     -0.00
   0.00000000  -0.00000000  -0.00000876          0.00     -0.00     -1.29

 !ASE

     Writing output data file calc.save

     General routines

     Parallel routines

   This run was terminated on:  20:24:18  19Dec2018

   JOB DONE.
Job  /afs/slac/g/suncat/bin/suncat-tsmpirun -x LD_LIBRARY_PATH -wdir /scratch/qe773390_7tt6B pw.x -in pw.inp

TID   HOST_NAME   COMMAND_LINE            STATUS            TERMINATION_TIME
00000 suncat0277 pw.x -in pw.inp   Done                     12/19/2018 20:24:18
00001 suncat0277 pw.x -in pw.inp   Done                     12/19/2018 20:24:18
00002 suncat0277 pw.x -in pw.inp   Done                     12/19/2018 20:24:18
00003 suncat0277 pw.x -in pw.inp   Done                     12/19/2018 20:24:18
00004 suncat0277 pw.x -in pw.inp   Done                     12/19/2018 20:24:18
00005 suncat0277 pw.x -in pw.inp   Done                     12/19/2018 20:24:18
00006 suncat0277 pw.x -in pw.inp   Done                     12/19/2018 20:24:18
00007 suncat0277 pw.x -in pw.inp   Done                     12/19/2018 20:24:18
00008 suncat0276 pw.x -in pw.inp   Done                     12/19/2018 20:24:18
00009 suncat0276 pw.x -in pw.inp   Done                     12/19/2018 20:24:18
00010 suncat0276 pw.x -in pw.inp   Done                     12/19/2018 20:24:18
00011 suncat0276 pw.x -in pw.inp   Done                     12/19/2018 20:24:18
00012 suncat0276 pw.x -in pw.inp   Done                     12/19/2018 20:24:18
00013 suncat0276 pw.x -in pw.inp   Done                     12/19/2018 20:24:18
00014 suncat0276 pw.x -in pw.inp   Done                     12/19/2018 20:24:18
00015 suncat0276 pw.x -in pw.inp   Done                     12/19/2018 20:24:18
00016 suncat0274 pw.x -in pw.inp   Done                     12/19/2018 20:24:18
00017 suncat0274 pw.x -in pw.inp   Done                     12/19/2018 20:24:18
00018 suncat0274 pw.x -in pw.inp   Done                     12/19/2018 20:24:18
00019 suncat0274 pw.x -in pw.inp   Done                     12/19/2018 20:24:18
00020 suncat0274 pw.x -in pw.inp   Done                     12/19/2018 20:24:18
00021 suncat0274 pw.x -in pw.inp   Done                     12/19/2018 20:24:18
00022 suncat0274 pw.x -in pw.inp   Done                     12/19/2018 20:24:18
00023 suncat0274 pw.x -in pw.inp   Done                     12/19/2018 20:24:18
00024 suncat0273 pw.x -in pw.inp   Done                     12/19/2018 20:24:18
00025 suncat0273 pw.x -in pw.inp   Done                     12/19/2018 20:24:18
00026 suncat0273 pw.x -in pw.inp   Done                     12/19/2018 20:24:18
00027 suncat0273 pw.x -in pw.inp   Done                     12/19/2018 20:24:18
00028 suncat0273 pw.x -in pw.inp   Done                     12/19/2018 20:24:18
00029 suncat0273 pw.x -in pw.inp   Done                     12/19/2018 20:24:18
00030 suncat0273 pw.x -in pw.inp   Done                     12/19/2018 20:24:18
00031 suncat0273 pw.x -in pw.inp   Done                     12/19/2018 20:24:18
00032 suncat0272 pw.x -in pw.inp   Done                     12/19/2018 20:24:18
00033 suncat0272 pw.x -in pw.inp   Done                     12/19/2018 20:24:18
00034 suncat0272 pw.x -in pw.inp   Done                     12/19/2018 20:24:18
00035 suncat0272 pw.x -in pw.inp   Done                     12/19/2018 20:24:18
00036 suncat0272 pw.x -in pw.inp   Done                     12/19/2018 20:24:18
00037 suncat0272 pw.x -in pw.inp   Done                     12/19/2018 20:24:18
00038 suncat0272 pw.x -in pw.inp   Done                     12/19/2018 20:24:18
00039 suncat0272 pw.x -in pw.inp   Done                     12/19/2018 20:24:18
00040 suncat0271 pw.x -in pw.inp   Done                     12/19/2018 20:24:18
00041 suncat0271 pw.x -in pw.inp   Done                     12/19/2018 20:24:18
00042 suncat0271 pw.x -in pw.inp   Done                     12/19/2018 20:24:18
00043 suncat0271 pw.x -in pw.inp   Done                     12/19/2018 20:24:18
00044 suncat0271 pw.x -in pw.inp   Done                     12/19/2018 20:24:18
00045 suncat0271 pw.x -in pw.inp   Done                     12/19/2018 20:24:18
00046 suncat0271 pw.x -in pw.inp   Done                     12/19/2018 20:24:18
00047 suncat0271 pw.x -in pw.inp   Done                     12/19/2018 20:24:18
00048 suncat0270 pw.x -in pw.inp   Done                     12/19/2018 20:24:18
00049 suncat0270 pw.x -in pw.inp   Done                     12/19/2018 20:24:18
00050 suncat0270 pw.x -in pw.inp   Done                     12/19/2018 20:24:18
00051 suncat0270 pw.x -in pw.inp   Done                     12/19/2018 20:24:18
00052 suncat0270 pw.x -in pw.inp   Done                     12/19/2018 20:24:18
00053 suncat0270 pw.x -in pw.inp   Done                     12/19/2018 20:24:18
00054 suncat0270 pw.x -in pw.inp   Done                     12/19/2018 20:24:18
00055 suncat0270 pw.x -in pw.inp   Done                     12/19/2018 20:24:18
00056 suncat0268 pw.x -in pw.inp   Done                     12/19/2018 20:24:18
00057 suncat0268 pw.x -in pw.inp   Done                     12/19/2018 20:24:18
00058 suncat0268 pw.x -in pw.inp   Done                     12/19/2018 20:24:18
00059 suncat0268 pw.x -in pw.inp   Done                     12/19/2018 20:24:18
00060 suncat0268 pw.x -in pw.inp   Done                     12/19/2018 20:24:18
00061 suncat0268 pw.x -in pw.inp   Done                     12/19/2018 20:24:18
00062 suncat0268 pw.x -in pw.inp   Done                     12/19/2018 20:24:18
00063 suncat0268 pw.x -in pw.inp   Done                     12/19/2018 20:24:18