     Program PWSCF v.5.1rc2 (svn rev. 11289) starts on 31Dec2018 at 22:56:30

     Current dimensions of program PWSCF are:
     Max number of different atomic species (ntypx) = 10
     Max number of k-points (npk) =  40000
     Max angular momentum in pseudopotentials (lmaxx) =  3
     Presently stress not available with electric field

     IMPORTANT: XC functional enforced from input :
     Exchange-correlation      = BEEF-VDW ( 1  4 27 13 2)
     Any further DFT definition will be discarded
     Please, verify this is what you really want

     Subspace diagonalization in iterative solution of the eigenvalue problem:
     a serial algorithm will be used

     bravais-lattice index     =            0
     lattice parameter (alat)  =       1.8897  a.u.
     unit-cell volume          =    4292.8165 (a.u.)^3
     number of atoms/cell      =           12
     number of atomic types    =            2
     number of electrons       =       177.00
     number of Kohn-Sham states=          118
     kinetic-energy cutoff     =      36.7493  Ry
     charge density cutoff     =     367.4932  Ry
     convergence threshold     =      1.0E-06
     mixing beta               =       0.1000
     number of iterations used =           10  plain     mixing
     Exchange-correlation      = BEEF-VDW ( 1  4 27 13 2)
     nstep                     =           50

     celldm(1)=   1.889726  celldm(2)=   0.000000  celldm(3)=   0.000000
     celldm(4)=   0.000000  celldm(5)=   0.000000  celldm(6)=   0.000000

     crystal axes: (cart. coord. in units of alat)
               a(1) = (   5.478508   0.000000   0.000000 )
               a(2) = (  -2.739254   4.744527   0.000000 )
               a(3) = (   0.000000   0.000000  24.473183 )

     reciprocal axes: (cart. coord. in units 2 pi/alat)
               b(1) = (  0.182531  0.105385  0.000000 )
               b(2) = (  0.000000  0.210769  0.000000 )
               b(3) = (  0.000000  0.000000  0.040861 )

     PseudoPot. # 1 for Rh read from file:
     /afs/slac.stanford.edu/u/if/mamunm/psp/gbrv1.5pbe/Rh.UPF
     MD5 check sum: 761627e959a2e3a1f56b0b5fe687810e
     Pseudo is Ultrasoft + core correction, Zval = 15.0
     Generated by new atomic code, or converted to UPF format
     Using radial grid of  969 points,  7 beta functions with:
                l(1) =   0
                l(2) =   0
                l(3) =   1
                l(4) =   1
                l(5) =   2
                l(6) =   2
                l(7) =   2
     Q(r) pseudized with  8 coefficients,  rinner =    1.200   1.200   1.200
                                                       1.200   1.200

     PseudoPot. # 2 for Mo read from file:
     /afs/slac.stanford.edu/u/if/mamunm/psp/gbrv1.5pbe/Mo.UPF
     MD5 check sum: 30c4dcd161f5d35cd49bb5239c51a633
     Pseudo is Ultrasoft + core correction, Zval = 14.0
     Generated by new atomic code, or converted to UPF format
     Using radial grid of  889 points,  6 beta functions with:
                l(1) =   0
                l(2) =   0
                l(3) =   1
                l(4) =   1
                l(5) =   2
                l(6) =   2
     Q(r) pseudized with  6 coefficients,  rinner =    1.000   1.000   1.000
                                                       1.000   1.000

     vdW kernel table read from file vdW_kernel_table
     MD5 check sum: 095c7af220d748ca6e76c0b4c6cfb241

     atomic species   valence    mass     pseudopotential
        Rh1           15.00   102.90550     Rh( 1.00)
        Mo1           14.00    95.95000     Mo( 1.00)

     No symmetry found

   Cartesian axes

     site n.     atom                  positions (alat units)
         1           Rh1 tau(   1) = (   0.0000000   0.0000000  10.0000000  )
         2           Rh1 tau(   2) = (  -1.3696270   2.3722636  10.0000000  )
         3           Rh1 tau(   3) = (   1.3696270   2.3722636  10.0000000  )
         4           Mo1 tau(   4) = (   2.7392541   0.0000000  10.0000000  )
         5           Rh1 tau(   5) = (   2.7392541   1.5815091  12.2365916  )
         6           Rh1 tau(   6) = (   1.3696270   3.9537727  12.2365916  )
         7           Rh1 tau(   7) = (  -1.3696270   3.9537727  12.2365916  )
         8           Mo1 tau(   8) = (   0.0000000   1.5815091  12.2365916  )
         9           Rh1 tau(   9) = (  -0.0000000   3.1630182  14.4731832  )
        10           Rh1 tau(  10) = (   1.3696270   0.7907545  14.4731832  )
        11           Rh1 tau(  11) = (   4.1088811   0.7907545  14.4731832  )
        12           Mo1 tau(  12) = (   2.7392541   3.1630182  14.4731832  )

     number of k points=    20  Fermi-Dirac smearing, width (Ry)=  0.0110
                       cart. coord. in units 2pi/alat
        k(    1) = (   0.0000000   0.0000000   0.0000000), wk =   0.0555556
        k(    2) = (   0.0000000   0.0351282   0.0000000), wk =   0.1111111
        k(    3) = (   0.0000000   0.0702564   0.0000000), wk =   0.1111111
        k(    4) = (   0.0000000  -0.1053846   0.0000000), wk =   0.0555556
        k(    5) = (   0.0304219   0.0175641   0.0000000), wk =   0.1111111
        k(    6) = (   0.0304219   0.0526923   0.0000000), wk =   0.1111111
        k(    7) = (   0.0304219   0.0878205   0.0000000), wk =   0.1111111
        k(    8) = (   0.0304219  -0.0878205   0.0000000), wk =   0.1111111
        k(    9) = (   0.0304219  -0.0526923   0.0000000), wk =   0.1111111
        k(   10) = (   0.0304219  -0.0175641   0.0000000), wk =   0.1111111
        k(   11) = (   0.0608438   0.0351282   0.0000000), wk =   0.1111111
        k(   12) = (   0.0608438   0.0702564   0.0000000), wk =   0.1111111
        k(   13) = (   0.0608438   0.1053846   0.0000000), wk =   0.1111111
        k(   14) = (   0.0608438  -0.0702564   0.0000000), wk =   0.1111111
        k(   15) = (   0.0608438  -0.0351282   0.0000000), wk =   0.1111111
        k(   16) = (   0.0608438   0.0000000   0.0000000), wk =   0.1111111
        k(   17) = (  -0.0912657  -0.0526923   0.0000000), wk =   0.0555556
        k(   18) = (  -0.0912657  -0.0175641   0.0000000), wk =   0.1111111
        k(   19) = (  -0.0912657   0.0175641   0.0000000), wk =   0.1111111
        k(   20) = (  -0.0912657  -0.1580769   0.0000000), wk =   0.0555556

     Largest allocated arrays     est. size (Mb)     dimensions
     Largest temporary arrays     est. size (Mb)     dimensions

     Initial potential from superposition of free atoms
     Check: negative starting charge=   -0.492272

     starting charge  172.49592, renormalised to  177.00000

     negative rho (up, down):  5.051E-01 0.000E+00

     *
     * You are using vdW-DF for exchange-correlation in this calculation.
     * Please cite the following three references that made this development
     * possible:
     *
     *   M. Dion, H. Rydberg, E. Schroder, D. C. Langreth, and
     *   B. I. Lundqvist, Phys. Rev. Lett. 92, 246401 (2004).
     *
     *   T. Thonhauser, V. R. Cooper, S. Li, A. Puzder, P. Hyldgaard, and
     *   D. C. Langreth, Phys. Rev. B 76, 125112 (2007).
     *
     *   G. Roman-Perez and J. M. Soler, Phys. Rev. Lett. 103, 096102 (2009).
     *
     *
     * If you are using vdW-DF2, please also cite:
     *
     *   K. Lee, E. D. Murray, L. Kong, B. I. Lundqvist, and
     *   D. C. Langreth, Phys. Rev. B 82, 081101(R) (2010).
     *
     *
     * If you are calculating the stress with vdW-DF, please also cite:
     *
     *   R. Sabatini, E. Kucukbenli, B. Kolb, T. Thonhauser, and
     *   S. de Gironcoli, J. Phys.: Condens. Matter 24, 424209 (2012).
     *

     Carrying out vdW-DF run using the following parameters:

     Nqs =      20    Nr_points =    1024   r_max =   100.000
     q_mesh =
               0.00001000     0.04494208     0.09755937     0.15916263
               0.23128650     0.31572767     0.41458969     0.53033537
               0.66584808     0.82450364     1.01025438     1.22772762
               1.48234092     1.78043706     2.12944203     2.53805004
               3.01644009     3.57652955     4.23227104     5.00000000

     Gradients computed in reciprocal space

     Adding external electric field

     Computed dipole along edir(3) :
        Dipole               -0.0000 Ry au,         -0.0000 Debye
        Dipole field         -0.0000 Ry au

        Potential amp.        0.0000 Ry
        Total length         45.0914 bohr

     Starting wfc are  147 randomized atomic wfcs

     Self-consistent Calculation

     iteration #  1     ecut=    36.75 Ry     beta=0.10
     Davidson diagonalization with overlap
     ethr =  1.00E-02,  avg # of iterations =  7.8

[...]

     total energy              =   -1970.14234481 Ry
     Harris-Foulkes estimate   =   -1970.70018620 Ry
     estimated scf accuracy    <       3.64423397 Ry

[...]

     End of self-consistent calculation

          k = 0.0000 0.0000 0.0000 ( 16037 PWs)   bands (ev):

   -60.0382 -59.7584 -59.7580 -45.1756 -45.0343 -45.0343 -44.9832 -44.9341
   -44.9341 -44.8138 -44.7547 -44.7547 -44.6661 -44.6590 -44.6334 -44.6334
   -44.5972 -44.5972 -44.4397 -44.4331 -44.3836 -44.3438 -44.3388 -44.3388
   -44.3183 -44.3183 -44.2702 -44.2702 -44.2680 -44.2680 -34.0377 -34.0377
   -33.9622 -33.8060 -33.7932 -33.7164 -33.7164 -33.7130 -33.7130  -4.8027
    -3.5818  -3.5818  -3.4912  -3.4048  -3.3478  -3.1925  -3.1925  -3.1785
    -2.9751  -2.9751  -2.8549  -2.6322  -2.6322  -2.5647  -1.5190  -1.5190
    -1.4804  -1.1130  -1.1130  -0.9583  -0.7650  -0.6522  -0.6522  -0.5404
    -0.4295  -0.3531  -0.3531  -0.0820  -0.0820  -0.0675  -0.0675   0.3090
     0.3090   0.8692   1.0698   1.2099   1.2099   1.2313   1.2313   1.2691
     1.2691   1.5380   1.9556   2.0810   2.1176   2.1176   2.3375   2.5067
     2.5067   2.7325   2.7761   2.9362   3.0351   3.0351   3.3053   3.3202
     3.3202   3.5762   3.5762   3.8478   3.8478   4.1172   4.1172   4.1643
     4.1845   4.1845   6.0981   6.0981   6.1011   6.1011   6.2355   6.2378
     6.4217   6.4886   6.9096   7.8212   8.7698   9.5426

[...]

          k =-0.0913-0.0527 0.0000 ( 16164 PWs)   bands (ev):

[...]

     the Fermi energy is     1.8704 ev

!    total energy              =   -1969.77650233 Ry
     Harris-Foulkes estimate   =   -1969.77649985 Ry
     estimated scf accuracy    <       0.00000064 Ry

     The total energy is the sum of the following terms:

     one-electron contribution =  -17997.75192778 Ry
     hartree contribution      =    9027.06077011 Ry
     xc contribution           =    -338.92184090 Ry
     ewald contribution        =    7339.92204535 Ry
     electric field correction =       0.00000000 Ry
     smearing contrib. (-TS)   =      -0.08554910 Ry

     convergence has been achieved in  16 iterations

 BEEF-vdW xc energy contributions
           1 :   -294.530155996758
           2 :    270.344978504963
           3 :   -228.529696937164
           4 :    179.554682546355
           5 :   -134.021773833912
           6 :    99.3282213660937
           7 :   -77.9652310311146
           8 :    67.8076129609403
           9 :   -63.9791957933311
          10 :    61.3203285752133
          11 :   -56.4115173917970
          12 :    48.4381284407069
          13 :   -38.7882335442482
[...]
                l(1) =   0
                l(2) =   0
                l(3) =   1
                l(4) =   1
                l(5) =   2
                l(6) =   2
                l(7) =   2
     Q(r) pseudized with  8 coefficients,  rinner =    1.200   1.200   1.200
                                                       1.200   1.200

     PseudoPot. # 2 for Mo read from file:
     /afs/slac.stanford.edu/u/if/mamunm/psp/gbrv1.5pbe/Mo.UPF
     MD5 check sum: 30c4dcd161f5d35cd49bb5239c51a633
     Pseudo is Ultrasoft + core correction, Zval = 14.0
     Generated by new atomic code, or converted to UPF format
     Using radial grid of  889 points,  6 beta functions with:
                l(1) =   0
                l(2) =   0
                l(3) =   1
                l(4) =   1
                l(5) =   2
                l(6) =   2
     Q(r) pseudized with  6 coefficients,  rinner =    1.000   1.000   1.000
                                                       1.000   1.000

     vdW kernel table read from file vdW_kernel_table
     MD5 check sum: 095c7af220d748ca6e76c0b4c6cfb241

     atomic species   valence    mass     pseudopotential
        Rh1           15.00   102.90550     Rh( 1.00)
        Mo1           14.00    95.95000     Mo( 1.00)

     No symmetry found

   Cartesian axes

     site n.     atom                  positions (alat units)
         1           Rh1 tau(   1) = (   0.0000000   0.0000000  10.0000000  )
         2           Rh1 tau(   2) = (  -1.3696270   2.3722636  10.0000000  )
         3           Rh1 tau(   3) = (   1.3696270   2.3722636  10.0000000  )
         4           Mo1 tau(   4) = (   2.7392541   0.0000000  10.0000000  )
         5           Rh1 tau(   5) = (   2.7392541   1.5815091  12.2365916  )
         6           Rh1 tau(   6) = (   1.3696270   3.9537727  12.2365916  )
         7           Rh1 tau(   7) = (  -1.3696270   3.9537727  12.2365916  )
         8           Mo1 tau(   8) = (   0.0000000   1.5815091  12.2365916  )
         9           Rh1 tau(   9) = (   0.0000001   3.1295332  14.4074262  )
        10           Rh1 tau(  10) = (   1.3406281   0.8074966  14.4074254  )
        11           Rh1 tau(  11) = (   4.1378803   0.8074968  14.4074261  )
        12           Mo1 tau(  12) = (   2.7392535   3.1630184  14.3569810  )

     number of k points=    20  Fermi-Dirac smearing, width (Ry)=  0.0110
                       cart. coord. in units 2pi/alat
        k(    1) = (   0.0000000   0.0000000   0.0000000), wk =   0.0555556
        k(    2) = (   0.0000000   0.0351282   0.0000000), wk =   0.1111111
        k(    3) = (   0.0000000   0.0702564   0.0000000), wk =   0.1111111
        k(    4) = (   0.0000000  -0.1053846   0.0000000), wk =   0.0555556
        k(    5) = (   0.0304219   0.0175641   0.0000000), wk =   0.1111111
        k(    6) = (   0.0304219   0.0526923   0.0000000), wk =   0.1111111
        k(    7) = (   0.0304219   0.0878205   0.0000000), wk =   0.1111111
        k(    8) = (   0.0304219  -0.0878205   0.0000000), wk =   0.1111111
        k(    9) = (   0.0304219  -0.0526923   0.0000000), wk =   0.1111111
        k(   10) = (   0.0304219  -0.0175641   0.0000000), wk =   0.1111111
        k(   11) = (   0.0608438   0.0351282   0.0000000), wk =   0.1111111
        k(   12) = (   0.0608438   0.0702564   0.0000000), wk =   0.1111111
        k(   13) = (   0.0608438   0.1053846   0.0000000), wk =   0.1111111
        k(   14) = (   0.0608438  -0.0702564   0.0000000), wk =   0.1111111
        k(   15) = (   0.0608438  -0.0351282   0.0000000), wk =   0.1111111
        k(   16) = (   0.0608438   0.0000000   0.0000000), wk =   0.1111111
        k(   17) = (  -0.0912657  -0.0526923   0.0000000), wk =   0.0555556
        k(   18) = (  -0.0912657  -0.0175641   0.0000000), wk =   0.1111111
        k(   19) = (  -0.0912657   0.0175641   0.0000000), wk =   0.1111111
        k(   20) = (  -0.0912657  -0.1580769   0.0000000), wk =   0.0555556

     Largest allocated arrays     est. size (Mb)     dimensions
     Largest temporary arrays     est. size (Mb)     dimensions

     Initial potential from superposition of free atoms
     Check: negative starting charge=   -0.493326

     starting charge  172.49592, renormalised to  177.00000

[...]

     *
     * You are using vdW-DF for exchange-correlation in this calculation.
     * Please cite the following three references that made this development
     * possible:
     *
     *   M. Dion, H. Rydberg, E. Schroder, D. C. Langreth, and
     *   B. I. Lundqvist, Phys. Rev. Lett. 92, 246401 (2004).
     *
     *   T. Thonhauser, V. R. Cooper, S. Li, A. Puzder, P. Hyldgaard, and
     *   D. C. Langreth, Phys. Rev. B 76, 125112 (2007).
     *
     *   G. Roman-Perez and J. M. Soler, Phys. Rev. Lett. 103, 096102 (2009).
     *
     *
     * If you are using vdW-DF2, please also cite:
     *
     *   K. Lee, E. D. Murray, L. Kong, B. I. Lundqvist, and
     *   D. C. Langreth, Phys. Rev. B 82, 081101(R) (2010).
     *
     *
     * If you are calculating the stress with vdW-DF, please also cite:
     *
     *   R. Sabatini, E. Kucukbenli, B. Kolb, T. Thonhauser, and
     *   S. de Gironcoli, J. Phys.: Condens. Matter 24, 424209 (2012).
     *

     Carrying out vdW-DF run using the following parameters:

     Nqs =      20    Nr_points =    1024   r_max =   100.000
     q_mesh =
               0.00001000     0.04494208     0.09755937     0.15916263
               0.23128650     0.31572767     0.41458969     0.53033537
               0.66584808     0.82450364     1.01025438     1.22772762
               1.48234092     1.78043706     2.12944203     2.53805004
               3.01644009     3.57652955     4.23227104     5.00000000

     Gradients computed in reciprocal space

[...]

     Starting wfc are  147 randomized atomic wfcs

     Self-consistent Calculation

[...]

     iteration #  9     ecut=    36.75 Ry     beta=0.10
     Davidson diagonalization with overlap
     c_bands:  1 eigenvalues not converged
     c_bands:  1 eigenvalues not converged
     ethr =  3.97E-06,  avg # of iterations =  8.8

[...]

     total energy              =   -1969.78492107 Ry
     Harris-Foulkes estimate   =   -1969.78492039 Ry
     estimated scf accuracy    <       0.00000203 Ry

     iteration # 17     ecut=    36.75 Ry     beta=0.10
     Davidson diagonalization with overlap
     ethr =  1.14E-09,  avg # of iterations =  1.6

[...]

     negative rho (up, down):  5.232E-01 0.000E+00

     Adding external electric field

     Computed dipole along edir(3) :
        Dipole                0.0035 Ry au,          0.0090 Debye
        Dipole field          0.0000 Ry au

        Potential amp.       -0.0009 Ry
        Total length         45.0914 bohr

     End of self-consistent calculation

[...]

          k = 0.0608 0.0000 0.0000 ( 16168 PWs)   bands (ev):

[...]

          k =-0.0913-0.1581 0.0000 ( 16164 PWs)   bands (ev):

   -60.0419 -59.7719 -59.7421 -45.1581 -45.0541 -45.0447 -45.0212 -44.9907
   -44.9800 -44.9756 -44.9587 -44.8223 -44.6785 -44.6127 -44.5900 -44.5819
   -44.5379 -44.5218 -44.4945 -44.4891 -44.4773 -44.4227 -44.4121 -44.3983
   -44.3965 -44.3444 -44.3364 -44.3187 -44.3119 -44.2690 -34.0677 -34.0551
   -33.9732 -33.8253 -33.7860 -33.7537 -33.7420 -33.7181 -33.7057  -3.4037
    -3.3703  -2.8416  -2.7637  -2.7247  -2.7203  -2.5158  -2.4442  -2.3886
    -2.2863  -2.2674  -2.1762  -1.9493  -1.8825  -1.7955  -1.7614  -1.5334
    -1.4506  -1.4333  -1.2406  -1.0918  -1.0207  -0.7936  -0.6521  -0.5293
    -0.5056  -0.3823  -0.3681  -0.2863  -0.2251  -0.2149  -0.1162  -0.0836
    -0.0770  -0.0418   0.0242   0.1107   0.1517   0.3087   0.4819   0.4929
     0.5853   0.7851   0.7891   0.9720   1.0011   1.3521   1.4043   1.4363
     1.4943   1.7949   1.9049   2.0821   2.1748   2.2618   2.2799   2.3021
     2.4448   2.7168   2.8987   3.0020   3.2670   3.3049   3.9533   4.5431
     4.8571   5.0513   6.0787   6.3139   6.6808   6.7790   6.9312   7.8915
     7.9150   8.1326   8.1543   8.4716   8.5075   8.5302

     the Fermi energy is     1.8752 ev

!    total energy              =   -1969.78492312 Ry
     Harris-Foulkes estimate   =   -1969.78492120 Ry
     estimated scf accuracy    <       0.00000059 Ry

     The total energy is the sum of the following terms:

     one-electron contribution =  -18197.93027845 Ry
     hartree contribution      =    9126.96773577 Ry
     xc contribution           =    -339.07673891 Ry
     ewald contribution        =    7440.33718705 Ry
     electric field correction =       0.00000004 Ry
     smearing contrib. (-TS)   =      -0.08282863 Ry

     convergence has been achieved in  17 iterations

 BEEF-vdW xc energy contributions
           1 :   -294.692715091810
           2 :    270.580765838581
           3 :   -228.863513461489
           4 :    179.940979802955
           5 :   -134.363112213349
           6 :    99.5247300514677
           7 :   -77.9689185285861
           8 :    67.6520815707822
           9 :   -63.7676700891405
          10 :    61.1770293549610
          11 :   -56.4213129035205
          12 :    48.6050144313355
          13 :   -39.0350371882521
          14 :    30.0170155137129
          15 :   -23.4924161315918
          16 :    20.1324704229919
          17 :   -19.2054719012464
          18 :    19.1329119440418
          19 :   -18.3647980809333
          20 :    16.1089028024581
          21 :   -12.5866227676029
          22 :    8.75452432514692
          23 :   -5.70650116278773
          24 :    4.09299911809649
          25 :   -3.84120475729333
          26 :    4.26982522613571
          27 :   -4.49427230066618
          28 :    3.88864233792214
          29 :   -2.37060768918167
          30 :   0.382096960109436
          31 :   -29.8704212120881
          32 :   -22.5371084543358

     Forces acting on atoms (Ry/au):

     negative rho (up, down):  5.232E-01 0.000E+00
     atom    1 type  1   force =     0.00000004    0.01649090    0.01172209
     atom    2 type  1   force =     0.01428139   -0.00824550    0.01172218
     atom    3 type  1   force =    -0.01428155   -0.00824526    0.01172204
     atom    4 type  2   force =     0.00000021    0.00000010    0.02213861
     atom    5 type  1   force =    -0.00000009   -0.00104553   -0.01366477
     atom    6 type  1   force =    -0.00090558    0.00052269   -0.01366463
     atom    7 type  1   force =     0.00090558    0.00052291   -0.01366484
     atom    8 type  2   force =     0.00000005   -0.00000004   -0.01562944
     atom    9 type  1   force =     0.00000009   -0.00014600   -0.00016868
     atom   10 type  1   force =    -0.00012627    0.00007292   -0.00016777
     atom   11 type  1   force =     0.00012622    0.00007283   -0.00016842
     atom   12 type  2   force =    -0.00000011   -0.00000002   -0.00017636

     Total force =     0.050260     Total SCF correction =     0.002267

     entering subroutine stress ...

     negative rho (up, down):  5.232E-01 0.000E+00
          total   stress  (Ry/bohr**3)                   (kbar)     P=  -33.43
  -0.00025295  -0.00000000   0.00000000        -37.21     -0.00      0.00
  -0.00000000  -0.00025295   0.00000000         -0.00    -37.21      0.00
   0.00000000   0.00000000  -0.00017584          0.00      0.00    -25.87

 !ASE

     Writing output data file calc.save

     General routines

     Parallel routines

   This run was terminated on:  23:49:38  31Dec2018

   JOB DONE.
Job  /afs/slac/g/suncat/bin/suncat-tsmpirun -x LD_LIBRARY_PATH -wdir /scratch/qe648886_ahHBf pw.x -in pw.inp

TID   HOST_NAME   COMMAND_LINE            STATUS            TERMINATION_TIME
00000 suncat0056 pw.x -in pw.inp   Done                     12/31/2018 23:49:38
00001 suncat0056 pw.x -in pw.inp   Done                     12/31/2018 23:49:38
00002 suncat0056 pw.x -in pw.inp   Done                     12/31/2018 23:49:38
00003 suncat0056 pw.x -in pw.inp   Done                     12/31/2018 23:49:38
00004 suncat0056 pw.x -in pw.inp   Done                     12/31/2018 23:49:38
00005 suncat0056 pw.x -in pw.inp   Done                     12/31/2018 23:49:38
00006 suncat0056 pw.x -in pw.inp   Done                     12/31/2018 23:49:38
00007 suncat0056 pw.x -in pw.inp   Done                     12/31/2018 23:49:38
00008 suncat0052 pw.x -in pw.inp   Done                     12/31/2018 23:49:38
00009 suncat0052 pw.x -in pw.inp   Done                     12/31/2018 23:49:38
00010 suncat0052 pw.x -in pw.inp   Done                     12/31/2018 23:49:38
00011 suncat0052 pw.x -in pw.inp   Done                     12/31/2018 23:49:38
00012 suncat0052 pw.x -in pw.inp   Done                     12/31/2018 23:49:38
00013 suncat0052 pw.x -in pw.inp   Done                     12/31/2018 23:49:38
00014 suncat0052 pw.x -in pw.inp   Done                     12/31/2018 23:49:38
00015 suncat0052 pw.x -in pw.inp   Done                     12/31/2018 23:49:38
00016 suncat0048 pw.x -in pw.inp   Done                     12/31/2018 23:49:38
00017 suncat0048 pw.x -in pw.inp   Done                     12/31/2018 23:49:38
00018 suncat0048 pw.x -in pw.inp   Done                     12/31/2018 23:49:38
00019 suncat0048 pw.x -in pw.inp   Done                     12/31/2018 23:49:38
00020 suncat0048 pw.x -in pw.inp   Done                     12/31/2018 23:49:38
00021 suncat0048 pw.x -in pw.inp   Done                     12/31/2018 23:49:38
00022 suncat0048 pw.x -in pw.inp   Done                     12/31/2018 23:49:38
00023 suncat0048 pw.x -in pw.inp   Done                     12/31/2018 23:49:38
00024 suncat0047 pw.x -in pw.inp   Done                     12/31/2018 23:49:38
00025 suncat0047 pw.x -in pw.inp   Done                     12/31/2018 23:49:38
00026 suncat0047 pw.x -in pw.inp   Done                     12/31/2018 23:49:38
00027 suncat0047 pw.x -in pw.inp   Done                     12/31/2018 23:49:38
00028 suncat0047 pw.x -in pw.inp   Done                     12/31/2018 23:49:38
00029 suncat0047 pw.x -in pw.inp   Done                     12/31/2018 23:49:38
00030 suncat0047 pw.x -in pw.inp   Done                     12/31/2018 23:49:38
00031 suncat0047 pw.x -in pw.inp   Done                     12/31/2018 23:49:38
00032 suncat0041 pw.x -in pw.inp   Done                     12/31/2018 23:49:38
00033 suncat0041 pw.x -in pw.inp   Done                     12/31/2018 23:49:38
00034 suncat0041 pw.x -in pw.inp   Done                     12/31/2018 23:49:38
00035 suncat0041 pw.x -in pw.inp   Done                     12/31/2018 23:49:38
00036 suncat0041 pw.x -in pw.inp   Done                     12/31/2018 23:49:38
00037 suncat0041 pw.x -in pw.inp   Done                     12/31/2018 23:49:38
00038 suncat0041 pw.x -in pw.inp   Done                     12/31/2018 23:49:38
00039 suncat0041 pw.x -in pw.inp   Done                     12/31/2018 23:49:38
00040 suncat0039 pw.x -in pw.inp   Done                     12/31/2018 23:49:38
00041 suncat0039 pw.x -in pw.inp   Done                     12/31/2018 23:49:38
00042 suncat0039 pw.x -in pw.inp   Done                     12/31/2018 23:49:38
00043 suncat0039 pw.x -in pw.inp   Done                     12/31/2018 23:49:38
00044 suncat0039 pw.x -in pw.inp   Done                     12/31/2018 23:49:38
00045 suncat0039 pw.x -in pw.inp   Done                     12/31/2018 23:49:38
00046 suncat0039 pw.x -in pw.inp   Done                     12/31/2018 23:49:38
00047 suncat0039 pw.x -in pw.inp   Done                     12/31/2018 23:49:38
00048 suncat0207 pw.x -in pw.inp   Done                     12/31/2018 23:49:38
00049 suncat0207 pw.x -in pw.inp   Done                     12/31/2018 23:49:38
00050 suncat0207 pw.x -in pw.inp   Done                     12/31/2018 23:49:38
00051 suncat0207 pw.x -in pw.inp   Done                     12/31/2018 23:49:38
00052 suncat0207 pw.x -in pw.inp   Done                     12/31/2018 23:49:38
00053 suncat0207 pw.x -in pw.inp   Done                     12/31/2018 23:49:38
00054 suncat0207 pw.x -in pw.inp   Done                     12/31/2018 23:49:38
00055 suncat0207 pw.x -in pw.inp   Done                     12/31/2018 23:49:38
00056 suncat0206 pw.x -in pw.inp   Done                     12/31/2018 23:49:38
00057 suncat0206 pw.x -in pw.inp   Done                     12/31/2018 23:49:38
00058 suncat0206 pw.x -in pw.inp   Done                     12/31/2018 23:49:38
00059 suncat0206 pw.x -in pw.inp   Done                     12/31/2018 23:49:38
00060 suncat0206 pw.x -in pw.inp   Done                     12/31/2018 23:49:38
00061 suncat0206 pw.x -in pw.inp   Done                     12/31/2018 23:49:38
00062 suncat0206 pw.x -in pw.inp   Done                     12/31/2018 23:49:38
00063 suncat0206 pw.x -in pw.inp   Done                     12/31/2018 23:49:38