     Program PWSCF v.5.1rc2 (svn rev. 11289) starts on  1Jan2019 at  1:37:58

     Current dimensions of program PWSCF are:
     Max number of different atomic species (ntypx) = 10
     Max number of k-points (npk) =  40000
     Max angular momentum in pseudopotentials (lmaxx) =  3
     Presently stress not available with electric field

     IMPORTANT: XC functional enforced from input :
     Exchange-correlation      = BEEF-VDW ( 1  4 27 13 2)
     Any further DFT definition will be discarded
     Please, verify this is what you really want

     Subspace diagonalization in iterative solution of the eigenvalue problem:
     a serial algorithm will be used

     bravais-lattice index     =            0
     lattice parameter (alat)  =       1.8897  a.u.
     unit-cell volume          =    4967.6994 (a.u.)^3
     number of atoms/cell      =           12
     number of atomic types    =            2
     number of electrons       =       177.00
     number of Kohn-Sham states=          118
     kinetic-energy cutoff     =      36.7493  Ry
     charge density cutoff     =     367.4932  Ry
     convergence threshold     =      1.0E-06
     mixing beta               =       0.1000
     number of iterations used =           10  plain     mixing
     Exchange-correlation      = BEEF-VDW ( 1  4 27 13 2)
     nstep                     =           50

     celldm(1)=   1.889726  celldm(2)=   0.000000  celldm(3)=   0.000000
     celldm(4)=   0.000000  celldm(5)=   0.000000  celldm(6)=   0.000000

     crystal axes: (cart. coord. in units of alat)
               a(1) = (   5.856615   0.000000   0.000000 )
               a(2) = (  -2.928308   5.071977   0.000000 )
               a(3) = (   0.000000   0.000000  24.781906 )

     reciprocal axes: (cart. coord. in units 2 pi/alat)
               b(1) = (  0.170747  0.098581  0.000000 )
               b(2) = (  0.000000  0.197162  0.000000 )
               b(3) = (  0.000000  0.000000  0.040352 )

     PseudoPot. # 1 for Ru read from file:
     /afs/slac.stanford.edu/u/if/mamunm/psp/gbrv1.5pbe/Ru.UPF
     MD5 check sum: 7158a806dd851261a58e6920c40ebe78
     Pseudo is Ultrasoft + core correction, Zval = 16.0
     Generated by new atomic code, or converted to UPF format
     Using radial grid of  967 points,  6 beta functions with:
                l(1) =   0
                l(2) =   0
                l(3) =   1
                l(4) =   1
                l(5) =   2
                l(6) =   2
     Q(r) pseudized with  8 coefficients,  rinner =    1.300   1.300   1.300
                                                       1.300   1.300

     PseudoPot. # 2 for La read from file:
     /afs/slac.stanford.edu/u/if/mamunm/psp/gbrv1.5pbe/La.UPF
     MD5 check sum: 5937b0c7494ba0601a847275249473aa
     Pseudo is Ultrasoft + core correction, Zval = 11.0
     Generated by new atomic code, or converted to UPF format
     Using radial grid of  995 points,  8 beta functions with:
                l(1) =   0
                l(2) =   0
                l(3) =   1
                l(4) =   1
                l(5) =   2
                l(6) =   2
                l(7) =   3
                l(8) =   3
     Q(r) pseudized with  8 coefficients,  rinner =    1.700   1.700   1.700
                                                       1.700   1.700   1.700
                                                       1.700

     vdW kernel table read from file vdW_kernel_table
     MD5 check sum: 095c7af220d748ca6e76c0b4c6cfb241

     atomic species   valence    mass     pseudopotential
        Ru1           16.00   101.07000     Ru( 1.00)
        La1           11.00   138.90547     La( 1.00)

     No symmetry found

   Cartesian axes

     site n.     atom                  positions (alat units)
         1           Ru1 tau(   1) = (   0.0000000   0.0000000  10.0000000  )
         2           Ru1 tau(   2) = (  -1.4641538   2.5359887  10.0000000  )
         3           Ru1 tau(   3) = (   1.4641538   2.5359887  10.0000000  )
         4           La1 tau(   4) = (   2.9283075   0.0000000  10.0000000  )
         5           Ru1 tau(   5) = (   2.9283075   1.6906592  12.3909531  )
         6           Ru1 tau(   6) = (   1.4641538   4.2266479  12.3909531  )
         7           Ru1 tau(   7) = (  -1.4641538   4.2266479  12.3909531  )
         8           La1 tau(   8) = (   0.0000000   1.6906592  12.3909531  )
         9           Ru1 tau(   9) = (  -0.0000000   3.3813183  14.7819062  )
        10           Ru1 tau(  10) = (   1.4641538   0.8453296  14.7819062  )
        11           Ru1 tau(  11) = (   4.3924613   0.8453296  14.7819062  )
        12           La1 tau(  12) = (   2.9283075   3.3813183  14.7819062  )

     number of k points=    20  Fermi-Dirac smearing, width (Ry)=  0.0110
                       cart. coord. in units 2pi/alat
        k(    1) = (   0.0000000   0.0000000   0.0000000), wk =   0.0555556
        k(    2) = (   0.0000000   0.0328603   0.0000000), wk =   0.1111111
        k(    3) = (   0.0000000   0.0657206   0.0000000), wk =   0.1111111
        k(    4) = (   0.0000000  -0.0985809   0.0000000), wk =   0.0555556
        k(    5) = (   0.0284578   0.0164301   0.0000000), wk =   0.1111111
        k(    6) = (   0.0284578   0.0492904   0.0000000), wk =   0.1111111
        k(    7) = (   0.0284578   0.0821507   0.0000000), wk =   0.1111111
        k(    8) = (   0.0284578  -0.0821507   0.0000000), wk =   0.1111111
        k(    9) = (   0.0284578  -0.0492904   0.0000000), wk =   0.1111111
        k(   10) = (   0.0284578  -0.0164301   0.0000000), wk =   0.1111111
        k(   11) = (   0.0569157   0.0328603   0.0000000), wk =   0.1111111
        k(   12) = (   0.0569157   0.0657206   0.0000000), wk =   0.1111111
        k(   13) = (   0.0569157   0.0985809   0.0000000), wk =   0.1111111
        k(   14) = (   0.0569157  -0.0657206   0.0000000), wk =   0.1111111
        k(   15) = (   0.0569157  -0.0328603   0.0000000), wk =   0.1111111
        k(   16) = (   0.0569157   0.0000000   0.0000000), wk =   0.1111111
        k(   17) = (  -0.0853735  -0.0492904   0.0000000), wk =   0.0555556
        k(   18) = (  -0.0853735  -0.0164301   0.0000000), wk =   0.1111111
        k(   19) = (  -0.0853735   0.0164301   0.0000000), wk =   0.1111111
        k(   20) = (  -0.0853735  -0.1478713   0.0000000), wk =   0.0555556

     Largest allocated arrays     est. size (Mb)     dimensions
     Largest temporary arrays     est. size (Mb)     dimensions

     Initial potential from superposition of free atoms
     Check: negative starting charge=   -0.867999

     starting charge  167.90365, renormalised to  177.00000

     negative rho (up, down):  9.150E-01 0.000E+00

     *
     * You are using vdW-DF for exchange-correlation in this calculation.
     * Please cite the following three references that made this development
     * possible:
     *
     *   M. Dion, H. Rydberg, E. Schroder, D. C. Langreth, and
     *   B. I. Lundqvist, Phys. Rev. Lett. 92, 246401 (2004).
     *
     *   T. Thonhauser, V. R. Cooper, S. Li, A. Puzder, P. Hyldgaard, and
     *   D. C. Langreth, Phys. Rev. B 76, 125112 (2007).
     *
     *   G. Roman-Perez and J. M. Soler, Phys. Rev. Lett. 103, 096102 (2009).
     *
     *
     * If you are using vdW-DF2, please also cite:
     *
     *   K. Lee, E. D. Murray, L. Kong, B. I. Lundqvist, and
     *   D. C. Langreth, Phys. Rev. B 82, 081101(R) (2010).
     *
     *
     * If you are calculating the stress with vdW-DF, please also cite:
     *
     *   R. Sabatini, E. Kucukbenli, B. Kolb, T. Thonhauser, and
     *   S. de Gironcoli, J. Phys.: Condens. Matter 24, 424209 (2012).
     *

     Carrying out vdW-DF run using the following parameters:

     Nqs =      20    Nr_points =    1024   r_max =   100.000
     q_mesh =
               0.00001000     0.04494208     0.09755937     0.15916263
               0.23128650     0.31572767     0.41458969     0.53033537
               0.66584808     0.82450364     1.01025438     1.22772762
               1.48234092     1.78043706     2.12944203     2.53805004
               3.01644009     3.57652955     4.23227104     5.00000000

     Gradients computed in reciprocal space

     Adding external electric field

     Computed dipole along edir(3) :
        Dipole                0.0000 Ry au,          0.0000 Debye
        Dipole field          0.0000 Ry au

        Potential amp.       -0.0000 Ry
        Total length         45.6602 bohr

     Starting wfc are  177 randomized atomic wfcs

     Self-consistent Calculation

     iteration #  1     ecut=    36.75 Ry     beta=0.10
     Davidson diagonalization with overlap
     ethr =  1.00E-02,  avg # of iterations =  2.0

[...]

     total energy              =   -2067.66324907 Ry
     Harris-Foulkes estimate   =   -2071.44312239 Ry
     estimated scf accuracy    <      22.30336791 Ry

[...]

     End of self-consistent calculation

          k = 0.0000 0.0000 0.0000 ( 18847 PWs)   bands (ev):

   -69.8869 -69.8579 -69.8579 -69.6152 -69.6146 -69.5867 -69.5867 -69.5865
   -69.5865 -40.0454 -39.9393 -39.9393 -39.9164 -39.8839 -39.8839 -39.8308
   -39.8107 -39.7541 -39.6921 -39.6921 -39.6474 -39.6474 -39.6281 -39.6281
   -39.6086 -39.5757 -39.5745 -39.5745 -39.5577 -39.5577 -39.4794 -39.4794
   -39.4748 -39.4748 -39.4431 -39.4388 -29.2028 -29.1894 -28.4877 -13.1311
   -13.0248 -13.0172 -13.0172 -12.9964 -12.9964 -12.5293 -12.4213 -12.4213
    -2.2648  -1.4878  -1.4878  -1.4824  -1.2668  -1.2560  -1.2560  -0.9549
    -0.8987  -0.8987  -0.7595  -0.7595  -0.6755  -0.1819  -0.0682   0.2693
     0.3083   0.3083   0.5846   0.5846   0.9709   1.0826   1.1265   1.2895
     1.4208   1.4208   1.4927   1.4927   1.7148   1.7148   1.8819   1.8819
     1.9677   1.9677   2.2386   2.5357   2.5357   2.5424   2.7094   2.7094
     2.9796   2.9796   3.1916   3.2919   3.2919   3.2977   3.7876   4.0041
     4.0440   4.0517   4.7257   4.9626   5.4942   5.7360   5.7484   5.7484
     5.9907   5.9907   6.0198   6.0583   6.0583   6.0953   6.1245   6.1245
     6.2940   6.3148   6.3148   6.3516   6.3766   6.4399

[...]

          k =-0.0854-0.0493 0.0000 ( 18672 PWs)   bands (ev):

[...]

     the Fermi energy is     2.3969 ev

!    total energy              =   -2067.80715380 Ry
     Harris-Foulkes estimate   =   -2067.80715532 Ry
     estimated scf accuracy    <       0.00000084 Ry

     The total energy is the sum of the following terms:

     one-electron contribution =  -15567.84990113 Ry
     hartree contribution      =    7793.53881047 Ry
     xc contribution           =    -394.68951713 Ry
     ewald contribution        =    6101.30234606 Ry
     electric field correction =       0.00000003 Ry
     smearing contrib. (-TS)   =      -0.10889209 Ry

     convergence has been achieved in  22 iterations

 BEEF-vdW xc energy contributions
           1 :   -345.088637293912
           2 :    316.923585916468
           3 :   -267.702467698515
           4 :    208.919432043520
           5 :   -152.520251853550
           6 :    107.419795544497
           7 :   -77.5618047648929
           8 :    61.8864794283665
           9 :   -55.9015217813209
          10 :    54.0388748880351
[...]
     Pseudo is Ultrasoft + core correction, Zval = 16.0
     Generated by new atomic code, or converted to UPF format
     Using radial grid of  967 points,  6 beta functions with:
                l(1) =   0
                l(2) =   0
                l(3) =   1
                l(4) =   1
                l(5) =   2
                l(6) =   2
     Q(r) pseudized with  8 coefficients,  rinner =    1.300   1.300   1.300
                                                       1.300   1.300

     PseudoPot. # 2 for La read from file:
     /afs/slac.stanford.edu/u/if/mamunm/psp/gbrv1.5pbe/La.UPF
     MD5 check sum: 5937b0c7494ba0601a847275249473aa
     Pseudo is Ultrasoft + core correction, Zval = 11.0
     Generated by new atomic code, or converted to UPF format
     Using radial grid of  995 points,  8 beta functions with:
                l(1) =   0
                l(2) =   0
                l(3) =   1
                l(4) =   1
                l(5) =   2
                l(6) =   2
                l(7) =   3
                l(8) =   3
     Q(r) pseudized with  8 coefficients,  rinner =    1.700   1.700   1.700
                                                       1.700   1.700   1.700
                                                       1.700

     vdW kernel table read from file vdW_kernel_table
     MD5 check sum: 095c7af220d748ca6e76c0b4c6cfb241

     atomic species   valence    mass     pseudopotential
        Ru1           16.00   101.07000     Ru( 1.00)
        La1           11.00   138.90547     La( 1.00)

     No symmetry found

   Cartesian axes

     site n.     atom                  positions (alat units)
         1           Ru1 tau(   1) = (   0.0000000   0.0000000  10.0000000  )
         2           Ru1 tau(   2) = (  -1.4641538   2.5359887  10.0000000  )
         3           Ru1 tau(   3) = (   1.4641538   2.5359887  10.0000000  )
         4           La1 tau(   4) = (   2.9283075   0.0000000  10.0000000  )
         5           Ru1 tau(   5) = (   2.9283075   1.6906592  12.3909531  )
         6           Ru1 tau(   6) = (   1.4641538   4.2266479  12.3909531  )
         7           Ru1 tau(   7) = (  -1.4641538   4.2266479  12.3909531  )
         8           La1 tau(   8) = (   0.0000000   1.6906592  12.3909531  )
         9           Ru1 tau(   9) = (   0.0000046   3.5340128  14.5246659  )
        10           Ru1 tau(  10) = (   1.5964193   0.7689582  14.5246387  )
        11           Ru1 tau(  11) = (   4.2602021   0.7689565  14.5246553  )
        12           La1 tau(  12) = (   2.9283111   3.3813111  15.1583795  )

     number of k points=    20  Fermi-Dirac smearing, width (Ry)=  0.0110
                       cart. coord. in units 2pi/alat
        k(    1) = (   0.0000000   0.0000000   0.0000000), wk =   0.0555556
        k(    2) = (   0.0000000   0.0328603   0.0000000), wk =   0.1111111
        k(    3) = (   0.0000000   0.0657206   0.0000000), wk =   0.1111111
        k(    4) = (   0.0000000  -0.0985809   0.0000000), wk =   0.0555556
        k(    5) = (   0.0284578   0.0164301   0.0000000), wk =   0.1111111
        k(    6) = (   0.0284578   0.0492904   0.0000000), wk =   0.1111111
        k(    7) = (   0.0284578   0.0821507   0.0000000), wk =   0.1111111
        k(    8) = (   0.0284578  -0.0821507   0.0000000), wk =   0.1111111
        k(    9) = (   0.0284578  -0.0492904   0.0000000), wk =   0.1111111
        k(   10) = (   0.0284578  -0.0164301   0.0000000), wk =   0.1111111
        k(   11) = (   0.0569157   0.0328603   0.0000000), wk =   0.1111111
        k(   12) = (   0.0569157   0.0657206   0.0000000), wk =   0.1111111
        k(   13) = (   0.0569157   0.0985809   0.0000000), wk =   0.1111111
        k(   14) = (   0.0569157  -0.0657206   0.0000000), wk =   0.1111111
        k(   15) = (   0.0569157  -0.0328603   0.0000000), wk =   0.1111111
        k(   16) = (   0.0569157   0.0000000   0.0000000), wk =   0.1111111
        k(   17) = (  -0.0853735  -0.0492904   0.0000000), wk =   0.0555556
        k(   18) = (  -0.0853735  -0.0164301   0.0000000), wk =   0.1111111
        k(   19) = (  -0.0853735   0.0164301   0.0000000), wk =   0.1111111
        k(   20) = (  -0.0853735  -0.1478713   0.0000000), wk =   0.0555556

     Largest allocated arrays     est. size (Mb)     dimensions
     Largest temporary arrays     est. size (Mb)     dimensions

     Initial potential from superposition of free atoms
     Check: negative starting charge=   -0.867309

     starting charge  167.90365, renormalised to  177.00000

[...]

     *
     * You are using vdW-DF for exchange-correlation in this calculation.
     * Please cite the following three references that made this development
     * possible:
     *
     *   M. Dion, H. Rydberg, E. Schroder, D. C. Langreth, and
     *   B. I. Lundqvist, Phys. Rev. Lett. 92, 246401 (2004).
     *
     *   T. Thonhauser, V. R. Cooper, S. Li, A. Puzder, P. Hyldgaard, and
     *   D. C. Langreth, Phys. Rev. B 76, 125112 (2007).
     *
     *   G. Roman-Perez and J. M. Soler, Phys. Rev. Lett. 103, 096102 (2009).
     *
     *
     * If you are using vdW-DF2, please also cite:
     *
     *   K. Lee, E. D. Murray, L. Kong, B. I. Lundqvist, and
     *   D. C. Langreth, Phys. Rev. B 82, 081101(R) (2010).
     *
     *
     * If you are calculating the stress with vdW-DF, please also cite:
     *
     *   R. Sabatini, E. Kucukbenli, B. Kolb, T. Thonhauser, and
     *   S. de Gironcoli, J. Phys.: Condens. Matter 24, 424209 (2012).
     *

     Carrying out vdW-DF run using the following parameters:

     Nqs =      20    Nr_points =    1024   r_max =   100.000
     q_mesh =
               0.00001000     0.04494208     0.09755937     0.15916263
               0.23128650     0.31572767     0.41458969     0.53033537
               0.66584808     0.82450364     1.01025438     1.22772762
               1.48234092     1.78043706     2.12944203     2.53805004
               3.01644009     3.57652955     4.23227104     5.00000000

     Gradients computed in reciprocal space

[...]

     Starting wfc are  177 randomized atomic wfcs

     Self-consistent Calculation

[...]

     total energy              =   -2067.87612814 Ry
     Harris-Foulkes estimate   =   -2067.87613038 Ry
     estimated scf accuracy    <       0.00000186 Ry

     iteration # 21     ecut=    36.75 Ry     beta=0.10
     Davidson diagonalization with overlap
     ethr =  1.05E-09,  avg # of iterations =  2.0

[...]

     negative rho (up, down):  7.794E-01 0.000E+00

     Adding external electric field

     Computed dipole along edir(3) :
        Dipole                0.2771 Ry au,          0.7043 Debye
        Dipole field          0.0007 Ry au

        Potential amp.       -0.0640 Ry
        Total length         45.6602 bohr

     End of self-consistent calculation

[...]

          k = 0.0569 0.0000 0.0000 ( 18681 PWs)   bands (ev):

[...]

          k =-0.0854-0.1479 0.0000 ( 18672 PWs)   bands (ev):

   -69.7155 -69.7041 -69.6936 -69.5329 -69.4931 -69.4892 -69.2707 -69.2611
   -69.2517 -39.9465 -39.8779 -39.8374 -39.7461 -39.7234 -39.6911 -39.6667
   -39.6441 -39.6242 -39.5367 -39.5338 -39.5060 -39.4388 -39.4348 -39.4212
   -39.4161 -39.3805 -39.3726 -39.3390 -39.3294 -39.2667 -39.2471 -39.2318
   -39.2173 -39.2098 -39.1810 -39.1243 -29.7246 -28.8489 -28.1963 -13.5252
   -13.4722 -13.4592 -12.8666 -12.7727 -12.7501 -12.3664 -12.3189 -12.2530
    -1.3429  -0.9423  -0.6098  -0.4759  -0.4718  -0.3893  -0.3811  -0.2508
    -0.0652  -0.0118   0.0333   0.1660   0.1858   0.3125   0.4277   0.5287
     0.6643   0.6692   0.8538   0.9988   1.1145   1.1521   1.2957   1.3059
     1.4234   1.5292   1.5317   1.5986   1.6022   1.7692   1.8658   1.9286
     2.0092   2.0659   2.1413   2.2207   2.2744   2.4140   2.4153   2.4432
     2.4941   2.5425   2.6141   2.6703   3.1231   3.1918   3.3145   3.4344
     3.5984   3.6544   4.0043   4.2364   4.3084   4.7966   5.0814   5.2292
     5.3891   5.4696   5.4955   5.5023   5.6159   5.7784   5.7844   6.0082
     6.1276   6.3498   6.3722   6.3800   6.4582   6.5099

     the Fermi energy is     2.7136 ev

!    total energy              =   -2067.87612306 Ry
     Harris-Foulkes estimate   =   -2067.87613620 Ry
     estimated scf accuracy    <       0.00000099 Ry

     The total energy is the sum of the following terms:

     one-electron contribution =  -15871.12107507 Ry
     hartree contribution      =    7946.08513976 Ry
     xc contribution           =    -394.73392925 Ry
     ewald contribution        =    6252.00086059 Ry
     electric field correction =       0.00019422 Ry
     smearing contrib. (-TS)   =      -0.10731331 Ry

     convergence has been achieved in  21 iterations

 BEEF-vdW xc energy contributions
           1 :   -345.332288578775
           2 :    317.275847998572
           3 :   -268.197960028092
           4 :    209.486691944793
           5 :   -153.012473259891
           6 :    107.699714037808
           7 :   -77.5885093191126
           8 :    61.7409031894040
           9 :   -55.7383086852337
          10 :    54.0034523960553
          11 :   -51.9629904258546
          12 :    47.2833971842019
          13 :   -39.9436632826012
          14 :    31.4234164723446
          15 :   -23.5644817775798
          16 :    17.6464647924403
          17 :   -13.9900855152205
          18 :    12.0997808118694
          19 :   -11.1271529562147
          20 :    10.3530616562188
          21 :   -9.45670656382293
          22 :    8.49741902025477
          23 :   -7.69613892567781
          24 :    7.18664790075235
          25 :   -6.88691739199453
          26 :    6.54444345204109
          27 :   -5.90311960095528
          28 :    4.87589865237521
          29 :   -3.61564345452814
          30 :    2.44160812234605
          31 :   -33.1917766116945
          32 :   -24.6571667010261

     Forces acting on atoms (Ry/au):

     negative rho (up, down):  7.794E-01 0.000E+00
     atom    1 type  1   force =     0.00000403   -0.02552503    0.02881463
     atom    2 type  1   force =    -0.02210418    0.01276628    0.02881642
     atom    3 type  1   force =     0.02210508    0.01276159    0.02881088
     atom    4 type  2   force =    -0.00000475   -0.00000226   -0.06121164
     atom    5 type  1   force =     0.00000229    0.01954009    0.00057921
     atom    6 type  1   force =     0.01692616   -0.00976628    0.00057659
     atom    7 type  1   force =    -0.01692948   -0.00977160    0.00057495
     atom    8 type  2   force =     0.00000080   -0.00000760   -0.02550535
     atom    9 type  1   force =    -0.00000218    0.00179795   -0.00036962
     atom   10 type  1   force =     0.00155239   -0.00089802   -0.00036757
     atom   11 type  1   force =    -0.00155259   -0.00089658   -0.00035937
     atom   12 type  2   force =     0.00000244    0.00000146   -0.00035915

     Total force =     0.099998     Total SCF correction =     0.006312

     entering subroutine stress ...

     negative rho (up, down):  7.794E-01 0.000E+00
          total   stress  (Ry/bohr**3)                   (kbar)     P=  -10.91
  -0.00009740   0.00000000  -0.00000000        -14.33      0.00     -0.00
   0.00000000  -0.00009739  -0.00000000          0.00    -14.33     -0.00
  -0.00000000  -0.00000000  -0.00002775         -0.00     -0.00     -4.08

 !ASE

     Writing output data file calc.save

     General routines

     Parallel routines

   This run was terminated on:   2:59:40   1Jan2019

   JOB DONE.
Job  /afs/slac/g/suncat/bin/suncat-tsmpirun -x LD_LIBRARY_PATH -wdir /scratch/qe648923_POaP7 pw.x -in pw.inp

TID   HOST_NAME   COMMAND_LINE            STATUS            TERMINATION_TIME
00000 suncat0056 pw.x -in pw.inp   Done                     01/01/2019 02:59:40
00001 suncat0056 pw.x -in pw.inp   Done                     01/01/2019 02:59:40
00002 suncat0056 pw.x -in pw.inp   Done                     01/01/2019 02:59:40
00003 suncat0056 pw.x -in pw.inp   Done                     01/01/2019 02:59:40
00004 suncat0056 pw.x -in pw.inp   Done                     01/01/2019 02:59:40
00005 suncat0056 pw.x -in pw.inp   Done                     01/01/2019 02:59:40
00006 suncat0056 pw.x -in pw.inp   Done                     01/01/2019 02:59:40
00007 suncat0056 pw.x -in pw.inp   Done                     01/01/2019 02:59:40
00008 suncat0052 pw.x -in pw.inp   Done                     01/01/2019 02:59:40
00009 suncat0052 pw.x -in pw.inp   Done                     01/01/2019 02:59:40
00010 suncat0052 pw.x -in pw.inp   Done                     01/01/2019 02:59:40
00011 suncat0052 pw.x -in pw.inp   Done                     01/01/2019 02:59:40
00012 suncat0052 pw.x -in pw.inp   Done                     01/01/2019 02:59:40
00013 suncat0052 pw.x -in pw.inp   Done                     01/01/2019 02:59:40
00014 suncat0052 pw.x -in pw.inp   Done                     01/01/2019 02:59:40
00015 suncat0052 pw.x -in pw.inp   Done                     01/01/2019 02:59:40
00016 suncat0048 pw.x -in pw.inp   Done                     01/01/2019 02:59:40
00017 suncat0048 pw.x -in pw.inp   Done                     01/01/2019 02:59:40
00018 suncat0048 pw.x -in pw.inp   Done                     01/01/2019 02:59:40
00019 suncat0048 pw.x -in pw.inp   Done                     01/01/2019 02:59:40
00020 suncat0048 pw.x -in pw.inp   Done                     01/01/2019 02:59:40
00021 suncat0048 pw.x -in pw.inp   Done                     01/01/2019 02:59:40
00022 suncat0048 pw.x -in pw.inp   Done                     01/01/2019 02:59:40
00023 suncat0048 pw.x -in pw.inp   Done                     01/01/2019 02:59:40
00024 suncat0047 pw.x -in pw.inp   Done                     01/01/2019 02:59:40
00025 suncat0047 pw.x -in pw.inp   Done                     01/01/2019 02:59:40
00026 suncat0047 pw.x -in pw.inp   Done                     01/01/2019 02:59:40
00027 suncat0047 pw.x -in pw.inp   Done                     01/01/2019 02:59:40
00028 suncat0047 pw.x -in pw.inp   Done                     01/01/2019 02:59:40
00029 suncat0047 pw.x -in pw.inp   Done                     01/01/2019 02:59:40
00030 suncat0047 pw.x -in pw.inp   Done                     01/01/2019 02:59:40
00031 suncat0047 pw.x -in pw.inp   Done                     01/01/2019 02:59:40
00032 suncat0041 pw.x -in pw.inp   Done                     01/01/2019 02:59:40
00033 suncat0041 pw.x -in pw.inp   Done                     01/01/2019 02:59:40
00034 suncat0041 pw.x -in pw.inp   Done                     01/01/2019 02:59:40
00035 suncat0041 pw.x -in pw.inp   Done                     01/01/2019 02:59:40
00036 suncat0041 pw.x -in pw.inp   Done                     01/01/2019 02:59:40
00037 suncat0041 pw.x -in pw.inp   Done                     01/01/2019 02:59:40
00038 suncat0041 pw.x -in pw.inp   Done                     01/01/2019 02:59:40
00039 suncat0041 pw.x -in pw.inp   Done                     01/01/2019 02:59:40
00040 suncat0039 pw.x -in pw.inp   Done                     01/01/2019 02:59:40
00041 suncat0039 pw.x -in pw.inp   Done                     01/01/2019 02:59:40
00042 suncat0039 pw.x -in pw.inp   Done                     01/01/2019 02:59:40
00043 suncat0039 pw.x -in pw.inp   Done                     01/01/2019 02:59:40
00044 suncat0039 pw.x -in pw.inp   Done                     01/01/2019 02:59:40
00045 suncat0039 pw.x -in pw.inp   Done                     01/01/2019 02:59:40
00046 suncat0039 pw.x -in pw.inp   Done                     01/01/2019 02:59:40
00047 suncat0039 pw.x -in pw.inp   Done                     01/01/2019 02:59:40
00048 suncat0207 pw.x -in pw.inp   Done                     01/01/2019 02:59:40
00049 suncat0207 pw.x -in pw.inp   Done                     01/01/2019 02:59:40
00050 suncat0207 pw.x -in pw.inp   Done                     01/01/2019 02:59:40
00051 suncat0207 pw.x -in pw.inp   Done                     01/01/2019 02:59:40
00052 suncat0207 pw.x -in pw.inp   Done                     01/01/2019 02:59:40
00053 suncat0207 pw.x -in pw.inp   Done                     01/01/2019 02:59:40
00054 suncat0207 pw.x -in pw.inp   Done                     01/01/2019 02:59:40
00055 suncat0207 pw.x -in pw.inp   Done                     01/01/2019 02:59:40
00056 suncat0206 pw.x -in pw.inp   Done                     01/01/2019 02:59:40
00057 suncat0206 pw.x -in pw.inp   Done                     01/01/2019 02:59:40
00058 suncat0206 pw.x -in pw.inp   Done                     01/01/2019 02:59:40
00059 suncat0206 pw.x -in pw.inp   Done                     01/01/2019 02:59:40
00060 suncat0206 pw.x -in pw.inp   Done                     01/01/2019 02:59:40
00061 suncat0206 pw.x -in pw.inp   Done                     01/01/2019 02:59:40
00062 suncat0206 pw.x -in pw.inp   Done                     01/01/2019 02:59:40
00063 suncat0206 pw.x -in pw.inp   Done                     01/01/2019 02:59:40