     Program PWSCF v.5.1rc2 (svn rev. 11289) starts on 25Dec2018 at 10:24:59

     Current dimensions of program PWSCF are:
     Max number of different atomic species (ntypx) = 10
     Max number of k-points (npk) =  40000
     Max angular momentum in pseudopotentials (lmaxx) =  3
     Presently stress not available with electric field

     IMPORTANT: XC functional enforced from input :
     Exchange-correlation      = BEEF-VDW ( 1  4 27 13 2)
     Any further DFT definition will be discarded
     Please, verify this is what you really want

     Subspace diagonalization in iterative solution of the eigenvalue problem:
     a serial algorithm will be used

     bravais-lattice index     =            0
     lattice parameter (alat)  =       1.8897  a.u.
     unit-cell volume          =    4140.9547 (a.u.)^3
     number of atoms/cell      =           12
     number of atomic types    =            2
     number of electrons       =       162.00
     number of Kohn-Sham states=          111
     kinetic-energy cutoff     =      36.7493  Ry
     charge density cutoff     =     367.4932  Ry
     convergence threshold     =      1.0E-06
     mixing beta               =       0.1000
     number of iterations used =           10  plain     mixing
     Exchange-correlation      = BEEF-VDW ( 1  4 27 13 2)
     nstep                     =           50

     celldm(1)=   1.889726  celldm(2)=   0.000000  celldm(3)=   0.000000
     celldm(4)=   0.000000  celldm(5)=   0.000000  celldm(6)=   0.000000

     crystal axes: (cart. coord. in units of alat)
               a(1) = (   5.388802   0.000000   0.000000 )
               a(2) = (  -2.694401   4.666840   0.000000 )
               a(3) = (   0.000000   0.000000  24.399939 )

     reciprocal axes: (cart. coord. in units 2 pi/alat)
               b(1) = (  0.185570  0.107139  0.000000 )
               b(2) = (  0.000000  0.214278  0.000000 )
               b(3) = (  0.000000  0.000000  0.040984 )

     PseudoPot. # 1 for Cr read from file:
     /afs/slac.stanford.edu/u/if/mamunm/psp/gbrv1.5pbe/Cr.UPF
     MD5 check sum: 0d52af634a40206e4dee301ad30da4bf
     Pseudo is Ultrasoft + core correction, Zval = 14.0
     Generated by new atomic code, or converted to UPF format
     Using radial grid of  857 points,  6 beta functions with:
                l(1) =   0
                l(2) =   0
                l(3) =   1
                l(4) =   1
                l(5) =   2
                l(6) =   2
     Q(r) pseudized with  8 coefficients,  rinner =    0.950   0.950   0.950
                                                       0.950   0.950

     PseudoPot. # 2 for Hg read from file:
     /afs/slac.stanford.edu/u/if/mamunm/psp/gbrv1.5pbe/Hg.UPF
     MD5 check sum: 8f42caffe07f7fd9c0a564347f8c5498
     Pseudo is Ultrasoft + core correction, Zval = 12.0
     Generated by new atomic code, or converted to UPF format
     Using radial grid of  985 points,  6 beta functions with:
                l(1) =   0
                l(2) =   0
                l(3) =   1
                l(4) =   1
                l(5) =   2
                l(6) =   2
     Q(r) pseudized with  8 coefficients,  rinner =    2.000   2.000   2.000
                                                       2.000   2.000

     vdW kernel table read from file vdW_kernel_table
     MD5 check sum: 095c7af220d748ca6e76c0b4c6cfb241

     atomic species   valence    mass     pseudopotential
        Cr1           14.00    51.99610     Cr( 1.00)
        Hg1           12.00   200.59200     Hg( 1.00)

     No symmetry found

   Cartesian axes

     site n.     atom                  positions (alat units)
         1           Cr1 tau(   1) = (   0.0000000   0.0000000  10.0000000  )
         2           Cr1 tau(   2) = (  -1.3472006   2.3334199  10.0000000  )
         3           Cr1 tau(   3) = (   1.3472006   2.3334199  10.0000000  )
         4           Hg1 tau(   4) = (   2.6944012   0.0000000  10.0000000  )
         5           Cr1 tau(   5) = (   2.6944012   1.5556132  12.1999693  )
         6           Cr1 tau(   6) = (   1.3472006   3.8890331  12.1999693  )
         7           Cr1 tau(   7) = (  -1.3472006   3.8890331  12.1999693  )
         8           Hg1 tau(   8) = (   0.0000000   1.5556132  12.1999693  )
         9           Cr1 tau(   9) = (  -0.0000000   3.1112265  14.3999387  )
        10           Cr1 tau(  10) = (   1.3472006   0.7778066  14.3999387  )
        11           Cr1 tau(  11) = (   4.0416018   0.7778066  14.3999387  )
        12           Hg1 tau(  12) = (   2.6944012   3.1112265  14.3999387  )

     number of k points=    20  Fermi-Dirac smearing, width (Ry)=  0.0110
                       cart. coord. in units 2pi/alat
        k(    1) = (   0.0000000   0.0000000   0.0000000), wk =   0.0555556
        k(    2) = (   0.0000000   0.0357130   0.0000000), wk =   0.1111111
        k(    3) = (   0.0000000   0.0714259   0.0000000), wk =   0.1111111
        k(    4) = (   0.0000000  -0.1071389   0.0000000), wk =   0.0555556
        k(    5) = (   0.0309283   0.0178565   0.0000000), wk =   0.1111111
        k(    6) = (   0.0309283   0.0535694   0.0000000), wk =   0.1111111
        k(    7) = (   0.0309283   0.0892824   0.0000000), wk =   0.1111111
        k(    8) = (   0.0309283  -0.0892824   0.0000000), wk =   0.1111111
        k(    9) = (   0.0309283  -0.0535694   0.0000000), wk =   0.1111111
        k(   10) = (   0.0309283  -0.0178565   0.0000000), wk =   0.1111111
        k(   11) = (   0.0618567   0.0357130   0.0000000), wk =   0.1111111
        k(   12) = (   0.0618567   0.0714259   0.0000000), wk =   0.1111111
        k(   13) = (   0.0618567   0.1071389   0.0000000), wk =   0.1111111
        k(   14) = (   0.0618567  -0.0714259   0.0000000), wk =   0.1111111
        k(   15) = (   0.0618567  -0.0357130   0.0000000), wk =   0.1111111
        k(   16) = (   0.0618567   0.0000000   0.0000000), wk =   0.1111111
        k(   17) = (  -0.0927850  -0.0535694   0.0000000), wk =   0.0555556
        k(   18) = (  -0.0927850  -0.0178565   0.0000000), wk =   0.1111111
        k(   19) = (  -0.0927850   0.0178565   0.0000000), wk =   0.1111111
        k(   20) = (  -0.0927850  -0.1607083   0.0000000), wk =   0.0555556

     Largest allocated arrays     est. size (Mb)     dimensions
     Largest temporary arrays     est. size (Mb)     dimensions

     Check: negative/imaginary core charge=   -0.000003    0.000000

     Initial potential from superposition of free atoms
     Check: negative starting charge=   -0.012185

     starting charge  152.99969, renormalised to  162.00000

     negative rho (up, down):  1.290E-02 0.000E+00

     *
     * You are using vdW-DF for exchange-correlation in this calculation.
     * Please cite the following three references that made this development
     * possible:
     *
     *   M. Dion, H. Rydberg, E. Schroder, D. C. Langreth, and
     *   B. I. Lundqvist, Phys. Rev. Lett. 92, 246401 (2004).
     *
     *   T. Thonhauser, V. R. Cooper, S. Li, A. Puzder, P. Hyldgaard, and
     *   D. C. Langreth, Phys. Rev. B 76, 125112 (2007).
     *
     *   G. Roman-Perez and J. M. Soler, Phys. Rev. Lett. 103, 096102 (2009).
     *
     *
     * If you are using vdW-DF2, please also cite:
     *
     *   K. Lee, E. D. Murray, L. Kong, B. I. Lundqvist, and
     *   D. C. Langreth, Phys. Rev. B 82, 081101(R) (2010).
     *
     *
     * If you are calculating the stress with vdW-DF, please also cite:
     *
     *   R. Sabatini, E. Kucukbenli, B. Kolb, T. Thonhauser, and
     *   S. de Gironcoli, J. Phys.: Condens. Matter 24, 424209 (2012).
     *

     Carrying out vdW-DF run using the following parameters:

     Nqs =      20    Nr_points =    1024   r_max =   100.000
     q_mesh =
               0.00001000     0.04494208     0.09755937     0.15916263
               0.23128650     0.31572767     0.41458969     0.53033537
               0.66584808     0.82450364     1.01025438     1.22772762
               1.48234092     1.78043706     2.12944203     2.53805004
               3.01644009     3.57652955     4.23227104     5.00000000

     Gradients computed in reciprocal space

     Adding external electric field

     Computed dipole along edir(3) :
        Dipole               -0.0000 Ry au,         -0.0000 Debye
        Dipole field         -0.0000 Ry au

        Potential amp.        0.0000 Ry
        Total length         44.9565 bohr

     Starting wfc are  117 randomized atomic wfcs

     Self-consistent Calculation

     iteration #  1     ecut=    36.75 Ry     beta=0.10
     Davidson diagonalization with overlap
     ethr =  1.00E-02,  avg # of iterations =  6.0

[...]

     total energy              =   -1914.31607823 Ry
     Harris-Foulkes estimate   =   -1916.84442685 Ry
     estimated scf accuracy    <      15.47966363 Ry

[...]

     End of self-consistent calculation

          k = 0.0000 0.0000 0.0000 ( 15557 PWs)   bands (ev):

   -70.7097 -70.6603 -70.6600 -70.5840 -70.5801 -70.5381 -70.5379 -70.5371
   -70.5370 -42.1860 -42.1232 -42.1230 -42.0987 -42.0390 -42.0388 -42.0051
   -41.9980 -41.9510 -41.9509 -41.9332 -41.9325 -41.9223 -41.9223 -41.9188
   -41.9187 -41.8446 -41.8446 -41.8227 -41.8097 -41.8095 -41.7853 -41.7737
   -41.6337 -41.6336 -41.6315 -41.6314  -7.5563  -7.3420  -7.3420  -7.2421
    -7.2421  -7.2099  -6.8368  -6.8368  -6.8022  -6.8022  -6.7913  -6.6839
    -6.4359  -6.4359  -6.3524  -6.3524  -5.3230  -4.6416  -2.3289  -1.9546
    -1.4929  -0.7206  -0.6736  -0.6658  -0.6657  -0.4581  -0.4581  -0.3755
    -0.3755  -0.1477  -0.1476   0.0952   0.0952   0.1578   0.3324   0.3668
     0.3668   0.7293   0.7293   0.7305   0.9589   1.0432   1.0734   1.0735
     1.3537   1.6646   1.8672   1.8672   1.9300   1.9301   2.0470   2.0471
     2.0620   2.0621   2.2490   2.2492   2.2863   2.2864   2.3701   2.3701
     2.3761   2.5474   2.6685   2.6687   2.9359   3.1324   3.1691   3.6499
     3.7298   3.9219   3.9219   4.0004   4.0005   4.9735   5.2251

[...]

          k =-0.0928-0.0536 0.0000 ( 15608 PWs)   bands (ev):

[...]

     the Fermi energy is     1.0798 ev

!    total energy              =   -1913.03078032 Ry
     Harris-Foulkes estimate   =   -1913.03078477 Ry
     estimated scf accuracy    <       0.00000093 Ry

     The total energy is the sum of the following terms:

     one-electron contribution =  -16046.53674832 Ry
     hartree contribution      =    8038.54717814 Ry
     xc contribution           =    -330.61804179 Ry
     ewald contribution        =    6425.69535556 Ry
     electric field correction =       0.00000000 Ry
     smearing contrib. (-TS)   =      -0.11852391 Ry

     convergence has been achieved in  26 iterations

 BEEF-vdW xc energy contributions
           1 :   -287.675828414876
           2 :    261.367074504849
           3 :   -216.799831316060
           4 :    166.364097374876
           5 :   -121.609637447198
           6 :    89.2383614946012
           7 :   -69.9279579646621
           8 :    59.9575112273746
           9 :   -54.2487211485794
          10 :    49.0324533057935
          11 :   -42.9746589556052
          12 :    36.6750671592533
          13 :   -31.3254760189117
          14 :    27.5418244585575
[...]
     /afs/slac.stanford.edu/u/if/mamunm/psp/gbrv1.5pbe/Cr.UPF
     MD5 check sum: 0d52af634a40206e4dee301ad30da4bf
     Pseudo is Ultrasoft + core correction, Zval = 14.0
     Generated by new atomic code, or converted to UPF format
     Using radial grid of  857 points,  6 beta functions with:
                l(1) =   0
                l(2) =   0
                l(3) =   1
                l(4) =   1
                l(5) =   2
                l(6) =   2
     Q(r) pseudized with  8 coefficients,  rinner =    0.950   0.950   0.950
                                                       0.950   0.950

     PseudoPot. # 2 for Hg read from file:
     /afs/slac.stanford.edu/u/if/mamunm/psp/gbrv1.5pbe/Hg.UPF
     MD5 check sum: 8f42caffe07f7fd9c0a564347f8c5498
     Pseudo is Ultrasoft + core correction, Zval = 12.0
     Generated by new atomic code, or converted to UPF format
     Using radial grid of  985 points,  6 beta functions with:
                l(1) =   0
                l(2) =   0
                l(3) =   1
                l(4) =   1
                l(5) =   2
                l(6) =   2
     Q(r) pseudized with  8 coefficients,  rinner =    2.000   2.000   2.000
                                                       2.000   2.000

     vdW kernel table read from file vdW_kernel_table
     MD5 check sum: 095c7af220d748ca6e76c0b4c6cfb241

     atomic species   valence    mass     pseudopotential
        Cr1           14.00    51.99610     Cr( 1.00)
        Hg1           12.00   200.59200     Hg( 1.00)

     No symmetry found

   Cartesian axes

     site n.     atom                  positions (alat units)
         1           Cr1 tau(   1) = (   0.0000000   0.0000000  10.0000000  )
         2           Cr1 tau(   2) = (  -1.3472006   2.3334199  10.0000000  )
         3           Cr1 tau(   3) = (   1.3472006   2.3334199  10.0000000  )
         4           Hg1 tau(   4) = (   2.6944012   0.0000000  10.0000000  )
         5           Cr1 tau(   5) = (   2.6944012   1.5556132  12.1999693  )
         6           Cr1 tau(   6) = (   1.3472006   3.8890331  12.1999693  )
         7           Cr1 tau(   7) = (  -1.3472006   3.8890331  12.1999693  )
         8           Hg1 tau(   8) = (   0.0000000   1.5556132  12.1999693  )
         9           Cr1 tau(   9) = (   0.0001207   3.3909373  14.2285045  )
        10           Cr1 tau(  10) = (   1.5893603   0.6381724  14.2285697  )
        11           Cr1 tau(  11) = (   3.7993884   0.6380025  14.2285769  )
        12           Hg1 tau(  12) = (   2.6945382   3.1113379  14.9470870  )

     number of k points=    20  Fermi-Dirac smearing, width (Ry)=  0.0110
                       cart. coord. in units 2pi/alat
        k(    1) = (   0.0000000   0.0000000   0.0000000), wk =   0.0555556
        k(    2) = (   0.0000000   0.0357130   0.0000000), wk =   0.1111111
        k(    3) = (   0.0000000   0.0714259   0.0000000), wk =   0.1111111
        k(    4) = (   0.0000000  -0.1071389   0.0000000), wk =   0.0555556
        k(    5) = (   0.0309283   0.0178565   0.0000000), wk =   0.1111111
        k(    6) = (   0.0309283   0.0535694   0.0000000), wk =   0.1111111
        k(    7) = (   0.0309283   0.0892824   0.0000000), wk =   0.1111111
        k(    8) = (   0.0309283  -0.0892824   0.0000000), wk =   0.1111111
        k(    9) = (   0.0309283  -0.0535694   0.0000000), wk =   0.1111111
        k(   10) = (   0.0309283  -0.0178565   0.0000000), wk =   0.1111111
        k(   11) = (   0.0618567   0.0357130   0.0000000), wk =   0.1111111
        k(   12) = (   0.0618567   0.0714259   0.0000000), wk =   0.1111111
        k(   13) = (   0.0618567   0.1071389   0.0000000), wk =   0.1111111
        k(   14) = (   0.0618567  -0.0714259   0.0000000), wk =   0.1111111
        k(   15) = (   0.0618567  -0.0357130   0.0000000), wk =   0.1111111
        k(   16) = (   0.0618567   0.0000000   0.0000000), wk =   0.1111111
        k(   17) = (  -0.0927850  -0.0535694   0.0000000), wk =   0.0555556
        k(   18) = (  -0.0927850  -0.0178565   0.0000000), wk =   0.1111111
        k(   19) = (  -0.0927850   0.0178565   0.0000000), wk =   0.1111111
        k(   20) = (  -0.0927850  -0.1607083   0.0000000), wk =   0.0555556

     Largest allocated arrays     est. size (Mb)     dimensions
     Largest temporary arrays     est. size (Mb)     dimensions

     Check: negative/imaginary core charge=   -0.000003    0.000000

     Initial potential from superposition of free atoms
     Check: negative starting charge=   -0.011760

     starting charge  152.99969, renormalised to  162.00000

[...]

     *
     * You are using vdW-DF for exchange-correlation in this calculation.
     * Please cite the following three references that made this development
     * possible:
     *
     *   M. Dion, H. Rydberg, E. Schroder, D. C. Langreth, and
     *   B. I. Lundqvist, Phys. Rev. Lett. 92, 246401 (2004).
     *
     *   T. Thonhauser, V. R. Cooper, S. Li, A. Puzder, P. Hyldgaard, and
     *   D. C. Langreth, Phys. Rev. B 76, 125112 (2007).
     *
     *   G. Roman-Perez and J. M. Soler, Phys. Rev. Lett. 103, 096102 (2009).
     *
     *
     * If you are using vdW-DF2, please also cite:
     *
     *   K. Lee, E. D. Murray, L. Kong, B. I. Lundqvist, and
     *   D. C. Langreth, Phys. Rev. B 82, 081101(R) (2010).
     *
     *
     * If you are calculating the stress with vdW-DF, please also cite:
     *
     *   R. Sabatini, E. Kucukbenli, B. Kolb, T. Thonhauser, and
     *   S. de Gironcoli, J. Phys.: Condens. Matter 24, 424209 (2012).
     *

     Carrying out vdW-DF run using the following parameters:

     Nqs =      20    Nr_points =    1024   r_max =   100.000
     q_mesh =
               0.00001000     0.04494208     0.09755937     0.15916263
               0.23128650     0.31572767     0.41458969     0.53033537
               0.66584808     0.82450364     1.01025438     1.22772762
               1.48234092     1.78043706     2.12944203     2.53805004
               3.01644009     3.57652955     4.23227104     5.00000000

     Gradients computed in reciprocal space

[...]

     Starting wfc are  117 randomized atomic wfcs

     Self-consistent Calculation

[...]

     total energy              =   -1913.13361163 Ry
     Harris-Foulkes estimate   =   -1913.13361249 Ry
     estimated scf accuracy    <       0.00000233 Ry

     iteration # 25     ecut=    36.75 Ry     beta=0.10
     Davidson diagonalization with overlap
     ethr =  1.44E-09,  avg # of iterations =  2.0

[...]

     negative rho (up, down):  1.075E-02 0.000E+00

     Adding external electric field

     Computed dipole along edir(3) :
        Dipole               -0.0453 Ry au,         -0.1152 Debye
        Dipole field         -0.0001 Ry au

        Potential amp.        0.0124 Ry
        Total length         44.9565 bohr

     End of self-consistent calculation

[...]

          k = 0.0619 0.0000 0.0000 ( 15550 PWs)   bands (ev):

[...]

          k =-0.0928-0.1607 0.0000 ( 15608 PWs)   bands (ev):

   -70.7393 -70.6982 -70.6757 -70.6569 -70.6269 -70.6126 -70.5980 -70.4821
   -70.4795 -42.5220 -42.2343 -42.2020 -42.2002 -42.1478 -42.0744 -42.0675
   -42.0428 -42.0417 -42.0194 -42.0031 -41.9838 -41.9803 -41.9339 -41.9191
   -41.9166 -41.8856 -41.8627 -41.8523 -41.8364 -41.7819 -41.7739 -41.7718
   -41.7064 -41.5842 -41.4724 -41.4494  -7.2702  -7.1219  -7.0762  -7.0629
    -7.0141  -6.8720  -6.6632  -6.6294  -6.5638  -6.4512  -6.1314  -6.0333
    -6.0033  -5.8359  -5.7995  -5.5346  -5.1454  -4.0656  -3.0640  -2.3561
    -2.0493  -1.8060  -1.7233  -1.1195  -1.0104  -0.8634  -0.8065  -0.6408
    -0.4523  -0.4442  -0.3887  -0.3031  -0.1753  -0.1099   0.0124   0.0245
     0.0584   0.2262   0.2827   0.4208   0.4357   0.5399   0.7049   0.8406
     0.9938   1.0013   1.0216   1.0530   1.4013   1.4449   1.5556   1.7134
     1.7743   1.8132   1.8376   1.9211   1.9996   2.0697   2.1801   2.3572
     2.4419   2.5568   2.7514   2.7897   2.9609   3.0695   3.2509   4.0424
     4.1696   4.4530   4.4591   5.0045   5.6877   5.7810   6.5085

     the Fermi energy is     1.0154 ev

!    total energy              =   -1913.13360930 Ry
     Harris-Foulkes estimate   =   -1913.13361223 Ry
     estimated scf accuracy    <       0.00000093 Ry

     The total energy is the sum of the following terms:

     one-electron contribution =  -16076.64859072 Ry
     hartree contribution      =    8053.60330207 Ry
     xc contribution           =    -330.86754460 Ry
     ewald contribution        =    6440.87868101 Ry
     electric field correction =       0.00000623 Ry
     smearing contrib. (-TS)   =      -0.09946329 Ry

     convergence has been achieved in  25 iterations

 BEEF-vdW xc energy contributions
           1 :   -287.921013809435
           2 :    261.601295731232
           3 :   -216.991379698163
           4 :    166.448143555559
           5 :   -121.509744662671
           6 :    88.9192829393820
           7 :   -69.4381411005157
           8 :    59.4225855075336
           9 :   -53.8110259180582
          10 :    48.7665803117955
          11 :   -42.8292619782791
          12 :    36.4860479613097
          13 :   -30.9105385744440
          14 :    26.8327528578174
          15 :   -24.1379776672870
          16 :    22.1856801591090
          17 :   -20.4088358666539
          18 :    18.6920291017865
          19 :   -17.3043175949693
          20 :    16.5243836559554
          21 :   -16.3023906552147
          22 :    16.2269461629458
          23 :   -15.8052701607232
          24 :    14.8191462429888
          25 :   -13.4795266017950
          26 :    12.2712711216699
          27 :   -11.6161484964446
          28 :    11.5989093429970
          29 :   -11.9353316522672
          30 :    12.1780714153747
          31 :   -27.7751866020504
          32 :   -20.1872677521780

     Forces acting on atoms (Ry/au):

     negative rho (up, down):  1.075E-02 0.000E+00
     atom    1 type  1   force =     0.00000269   -0.02727216    0.02784855
     atom    2 type  1   force =    -0.02361047    0.01363396    0.02785177
     atom    3 type  1   force =     0.02360960    0.01363042    0.02785113
     atom    4 type  2   force =     0.00000416   -0.00001583   -0.06957861
     atom    5 type  1   force =    -0.00000524    0.02293846   -0.00869818
     atom    6 type  1   force =     0.01986617   -0.01147190   -0.00870126
     atom    7 type  1   force =    -0.01984558   -0.01145381   -0.00869166
     atom    8 type  2   force =    -0.00001011    0.00000683    0.01057252
     atom    9 type  1   force =    -0.00000944    0.00021647    0.00024543
     atom   10 type  1   force =     0.00019569   -0.00011973    0.00023197
     atom   11 type  1   force =    -0.00018657   -0.00010314    0.00023895
     atom   12 type  2   force =    -0.00001090    0.00001043    0.00082938

     Total force =     0.106375     Total SCF correction =     0.004056

     entering subroutine stress ...

     negative rho (up, down):  1.075E-02 0.000E+00
          total   stress  (Ry/bohr**3)                   (kbar)     P=   -8.97
  -0.00008244   0.00000001   0.00000001        -12.13      0.00      0.00
   0.00000001  -0.00008245  -0.00000001          0.00    -12.13     -0.00
   0.00000001  -0.00000001  -0.00001801          0.00     -0.00     -2.65

 !ASE

     Writing output data file calc.save

     General routines

     Parallel routines

   This run was terminated on:  14:25:58  25Dec2018

   JOB DONE.
Job  /afs/slac/g/suncat/bin/suncat-tsmpirun -x LD_LIBRARY_PATH -wdir /scratch/qe109508_13ZXv pw.x -in pw.inp

TID   HOST_NAME   COMMAND_LINE            STATUS            TERMINATION_TIME
00000 suncat0152 pw.x -in pw.inp   Done                     12/25/2018 14:25:58
00001 suncat0152 pw.x -in pw.inp   Done                     12/25/2018 14:25:58
00002 suncat0152 pw.x -in pw.inp   Done                     12/25/2018 14:25:58
00003 suncat0152 pw.x -in pw.inp   Done                     12/25/2018 14:25:58
00004 suncat0152 pw.x -in pw.inp   Done                     12/25/2018 14:25:58
00005 suncat0152 pw.x -in pw.inp   Done                     12/25/2018 14:25:58
00006 suncat0152 pw.x -in pw.inp   Done                     12/25/2018 14:25:58
00007 suncat0152 pw.x -in pw.inp   Done                     12/25/2018 14:25:58
00008 suncat0150 pw.x -in pw.inp   Done                     12/25/2018 14:25:58
00009 suncat0150 pw.x -in pw.inp   Done                     12/25/2018 14:25:58
00010 suncat0150 pw.x -in pw.inp   Done                     12/25/2018 14:25:58
00011 suncat0150 pw.x -in pw.inp   Done                     12/25/2018 14:25:58
00012 suncat0150 pw.x -in pw.inp   Done                     12/25/2018 14:25:58
00013 suncat0150 pw.x -in pw.inp   Done                     12/25/2018 14:25:58
00014 suncat0150 pw.x -in pw.inp   Done                     12/25/2018 14:25:58
00015 suncat0150 pw.x -in pw.inp   Done                     12/25/2018 14:25:58
00016 suncat0248 pw.x -in pw.inp   Done                     12/25/2018 14:25:58
00017 suncat0248 pw.x -in pw.inp   Done                     12/25/2018 14:25:58
00018 suncat0248 pw.x -in pw.inp   Done                     12/25/2018 14:25:58
00019 suncat0248 pw.x -in pw.inp   Done                     12/25/2018 14:25:58
00020 suncat0248 pw.x -in pw.inp   Done                     12/25/2018 14:25:58
00021 suncat0248 pw.x -in pw.inp   Done                     12/25/2018 14:25:58
00022 suncat0248 pw.x -in pw.inp   Done                     12/25/2018 14:25:58
00023 suncat0248 pw.x -in pw.inp   Done                     12/25/2018 14:25:58
00024 suncat0247 pw.x -in pw.inp   Done                     12/25/2018 14:25:58
00025 suncat0247 pw.x -in pw.inp   Done                     12/25/2018 14:25:58
00026 suncat0247 pw.x -in pw.inp   Done                     12/25/2018 14:25:58
00027 suncat0247 pw.x -in pw.inp   Done                     12/25/2018 14:25:58
00028 suncat0247 pw.x -in pw.inp   Done                     12/25/2018 14:25:58
00029 suncat0247 pw.x -in pw.inp   Done                     12/25/2018 14:25:58
00030 suncat0247 pw.x -in pw.inp   Done                     12/25/2018 14:25:58
00031 suncat0247 pw.x -in pw.inp   Done                     12/25/2018 14:25:58
00032 suncat0246 pw.x -in pw.inp   Done                     12/25/2018 14:25:58
00033 suncat0246 pw.x -in pw.inp   Done                     12/25/2018 14:25:58
00034 suncat0246 pw.x -in pw.inp   Done                     12/25/2018 14:25:58
00035 suncat0246 pw.x -in pw.inp   Done                     12/25/2018 14:25:58
00036 suncat0246 pw.x -in pw.inp   Done                     12/25/2018 14:25:58
00037 suncat0246 pw.x -in pw.inp   Done                     12/25/2018 14:25:58
00038 suncat0246 pw.x -in pw.inp   Done                     12/25/2018 14:25:58
00039 suncat0246 pw.x -in pw.inp   Done                     12/25/2018 14:25:58
00040 suncat0245 pw.x -in pw.inp   Done                     12/25/2018 14:25:58
00041 suncat0245 pw.x -in pw.inp   Done                     12/25/2018 14:25:58
00042 suncat0245 pw.x -in pw.inp   Done                     12/25/2018 14:25:58
00043 suncat0245 pw.x -in pw.inp   Done                     12/25/2018 14:25:58
00044 suncat0245 pw.x -in pw.inp   Done                     12/25/2018 14:25:58
00045 suncat0245 pw.x -in pw.inp   Done                     12/25/2018 14:25:58
00046 suncat0245 pw.x -in pw.inp   Done                     12/25/2018 14:25:58
00047 suncat0245 pw.x -in pw.inp   Done                     12/25/2018 14:25:58
00048 suncat0214 pw.x -in pw.inp   Done                     12/25/2018 14:25:58
00049 suncat0214 pw.x -in pw.inp   Done                     12/25/2018 14:25:58
00050 suncat0214 pw.x -in pw.inp   Done                     12/25/2018 14:25:58
00051 suncat0214 pw.x -in pw.inp   Done                     12/25/2018 14:25:58
00052 suncat0214 pw.x -in pw.inp   Done                     12/25/2018 14:25:58
00053 suncat0214 pw.x -in pw.inp   Done                     12/25/2018 14:25:58
00054 suncat0214 pw.x -in pw.inp   Done                     12/25/2018 14:25:58
00055 suncat0214 pw.x -in pw.inp   Done                     12/25/2018 14:25:58
00056 suncat0213 pw.x -in pw.inp   Done                     12/25/2018 14:25:58
00057 suncat0213 pw.x -in pw.inp   Done                     12/25/2018 14:25:58
00058 suncat0213 pw.x -in pw.inp   Done                     12/25/2018 14:25:58
00059 suncat0213 pw.x -in pw.inp   Done                     12/25/2018 14:25:58
00060 suncat0213 pw.x -in pw.inp   Done                     12/25/2018 14:25:58
00061 suncat0213 pw.x -in pw.inp   Done                     12/25/2018 14:25:58
00062 suncat0213 pw.x -in pw.inp   Done                     12/25/2018 14:25:58
00063 suncat0213 pw.x -in pw.inp   Done                     12/25/2018 14:25:58