     Program PWSCF v.5.1rc2 (svn rev. 11289) starts on 25Dec2018 at 19:34:18

     Current dimensions of program PWSCF are:
     Max number of different atomic species (ntypx) = 10
     Max number of k-points (npk) =  40000
     Max angular momentum in pseudopotentials (lmaxx) =  3
     Presently stress not available with electric field

     IMPORTANT: XC functional enforced from input :
     Exchange-correlation      = BEEF-VDW ( 1  4 27 13 2)
     Any further DFT definition will be discarded
     Please, verify this is what you really want

     Subspace diagonalization in iterative solution of the eigenvalue problem:
     a serial algorithm will be used

     Generating pointlists ...
     new r_m :   0.4125 (alat units)  0.7795 (a.u.) for type    1
     new r_m :   0.4125 (alat units)  0.7795 (a.u.) for type    2

     bravais-lattice index     =            0
     lattice parameter (alat)  =       1.8897  a.u.
     unit-cell volume          =    3796.1088 (a.u.)^3
     number of atoms/cell      =           12
     number of atomic types    =            2
     number of electrons       =       189.00
     number of Kohn-Sham states=          124
     kinetic-energy cutoff     =      36.7493  Ry
     charge density cutoff     =     367.4932  Ry
     convergence threshold     =      1.0E-06
     mixing beta               =       0.1000
     number of iterations used =           10  plain     mixing
     Exchange-correlation      = BEEF-VDW ( 1  4 27 13 2)
     nstep                     =           50

     celldm(1)=   1.889726  celldm(2)=   0.000000  celldm(3)=   0.000000
     celldm(4)=   0.000000  celldm(5)=   0.000000  celldm(6)=   0.000000

     crystal axes: (cart. coord. in units of alat)
               a(1) = (   5.177852   0.000000   0.000000 )
               a(2) = (  -2.588926   4.484151   0.000000 )
               a(3) = (   0.000000   0.000000  24.227698 )

     reciprocal axes: (cart. coord. in units 2 pi/alat)
               b(1) = (  0.193130  0.111504  0.000000 )
               b(2) = (  0.000000  0.223008  0.000000 )
               b(3) = (  0.000000  0.000000  0.041275 )

     PseudoPot. # 1 for Fe read from file:
     /afs/slac.stanford.edu/u/if/mamunm/psp/gbrv1.5pbe/Fe.UPF
     MD5 check sum: a130daea23fe5165f5d574ae7f82ed95
     Pseudo is Ultrasoft + core correction, Zval = 16.0
     Generated by new atomic code, or converted to UPF format
     Using radial grid of  861 points,  6 beta functions with:
                l(1) =   0
                l(2) =   0
                l(3) =   1
                l(4) =   1
                l(5) =   2
                l(6) =   2
     Q(r) pseudized with  8 coefficients,  rinner =    1.000   1.000   1.000
                                                       1.000   1.000

     PseudoPot. # 2 for Ir read from file:
     /afs/slac.stanford.edu/u/if/mamunm/psp/gbrv1.5pbe/Ir.UPF
     MD5 check sum: 8836f839c3459d2b385c504ce6d91f2c
     Pseudo is Ultrasoft + core correction, Zval = 15.0
     Generated by new atomic code, or converted to UPF format
     Using radial grid of  983 points,  7 beta functions with:
                l(1) =   0
                l(2) =   0
                l(3) =   1
                l(4) =   1
                l(5) =   1
                l(6) =   2
                l(7) =   2
     Q(r) pseudized with  8 coefficients,  rinner =    1.400   1.400   1.400
                                                       1.400   1.400

     vdW kernel table read from file vdW_kernel_table
     MD5 check sum: 095c7af220d748ca6e76c0b4c6cfb241

     atomic species   valence    mass     pseudopotential
        Fe1           16.00    55.84500     Fe( 1.00)
        Ir1           15.00   192.21700     Ir( 1.00)

     Starting magnetic structure
     atomic species   magnetization
        Fe1          0.125
        Ir1          0.133

     No symmetry found

   Cartesian axes

     site n.     atom                  positions (alat units)
         1           Fe1 tau(   1) = (   0.0000000   0.0000000  10.0000000  )
         2           Fe1 tau(   2) = (  -1.2944630   2.2420757  10.0000000  )
         3           Fe1 tau(   3) = (   1.2944630   2.2420757  10.0000000  )
         4           Ir1 tau(   4) = (   2.5889260   0.0000000  10.0000000  )
         5           Fe1 tau(   5) = (   2.5889260   1.4947171  12.1138492  )
         6           Fe1 tau(   6) = (   1.2944630   3.7367928  12.1138492  )
         7           Fe1 tau(   7) = (  -1.2944630   3.7367928  12.1138492  )
         8           Ir1 tau(   8) = (   0.0000000   1.4947171  12.1138492  )
         9           Fe1 tau(   9) = (  -0.0000000   2.9894342  14.2276984  )
        10           Fe1 tau(  10) = (   1.2944630   0.7473586  14.2276984  )
        11           Fe1 tau(  11) = (   3.8833890   0.7473586  14.2276984  )
        12           Ir1 tau(  12) = (   2.5889260   2.9894342  14.2276984  )

     number of k points=    40  Fermi-Dirac smearing, width (Ry)=  0.0110
                       cart. coord. in units 2pi/alat
        k(    1) = (   0.0000000   0.0000000   0.0000000), wk =   0.0277778
        k(    2) = (   0.0000000   0.0371679   0.0000000), wk =   0.0555556
        k(    3) = (   0.0000000   0.0743359   0.0000000), wk =   0.0555556
        k(    4) = (   0.0000000  -0.1115038   0.0000000), wk =   0.0277778
        k(    5) = (   0.0321884   0.0185840   0.0000000), wk =   0.0555556
        k(    6) = (   0.0321884   0.0557519   0.0000000), wk =   0.0555556
        k(    7) = (   0.0321884   0.0929198   0.0000000), wk =   0.0555556
        k(    8) = (   0.0321884  -0.0929198   0.0000000), wk =   0.0555556
        k(    9) = (   0.0321884  -0.0557519   0.0000000), wk =   0.0555556
        k(   10) = (   0.0321884  -0.0185840   0.0000000), wk =   0.0555556
        k(   11) = (   0.0643768   0.0371679   0.0000000), wk =   0.0555556
        k(   12) = (   0.0643768   0.0743359   0.0000000), wk =   0.0555556
        k(   13) = (   0.0643768   0.1115038   0.0000000), wk =   0.0555556
        k(   14) = (   0.0643768  -0.0743359   0.0000000), wk =   0.0555556
        k(   15) = (   0.0643768  -0.0371679   0.0000000), wk =   0.0555556
        k(   16) = (   0.0643768   0.0000000   0.0000000), wk =   0.0555556
        k(   17) = (  -0.0965651  -0.0557519   0.0000000), wk =   0.0277778
        k(   18) = (  -0.0965651  -0.0185840   0.0000000), wk =   0.0555556
        k(   19) = (  -0.0965651   0.0185840   0.0000000), wk =   0.0555556
        k(   20) = (  -0.0965651  -0.1672557   0.0000000), wk =   0.0277778
        k(   21) = (   0.0000000   0.0000000   0.0000000), wk =   0.0277778
        k(   22) = (   0.0000000   0.0371679   0.0000000), wk =   0.0555556
        k(   23) = (   0.0000000   0.0743359   0.0000000), wk =   0.0555556
        k(   24) = (   0.0000000  -0.1115038   0.0000000), wk =   0.0277778
        k(   25) = (   0.0321884   0.0185840   0.0000000), wk =   0.0555556
        k(   26) = (   0.0321884   0.0557519   0.0000000), wk =   0.0555556
        k(   27) = (   0.0321884   0.0929198   0.0000000), wk =   0.0555556
        k(   28) = (   0.0321884  -0.0929198   0.0000000), wk =   0.0555556
        k(   29) = (   0.0321884  -0.0557519   0.0000000), wk =   0.0555556
        k(   30) = (   0.0321884  -0.0185840   0.0000000), wk =   0.0555556
        k(   31) = (   0.0643768   0.0371679   0.0000000), wk =   0.0555556
        k(   32) = (   0.0643768   0.0743359   0.0000000), wk =   0.0555556
        k(   33) = (   0.0643768   0.1115038   0.0000000), wk =   0.0555556
        k(   34) = (   0.0643768  -0.0743359   0.0000000), wk =   0.0555556
        k(   35) = (   0.0643768  -0.0371679   0.0000000), wk =   0.0555556
        k(   36) = (   0.0643768   0.0000000   0.0000000), wk =   0.0555556
        k(   37) = (  -0.0965651  -0.0557519   0.0000000), wk =   0.0277778
        k(   38) = (  -0.0965651  -0.0185840   0.0000000), wk =   0.0555556
        k(   39) = (  -0.0965651   0.0185840   0.0000000), wk =   0.0555556
        k(   40) = (  -0.0965651  -0.1672557   0.0000000), wk =   0.0277778

     Largest allocated arrays     est. size (Mb)     dimensions
     Largest temporary arrays     est. size (Mb)     dimensions

     Check: negative/imaginary core charge=   -0.000006    0.000000

     Initial potential from superposition of free atoms
     Check: negative starting charge=(component1):   -0.617199
     Check: negative starting charge=(component2):   -0.471951

     starting charge  178.49985, renormalised to  189.00000

     negative rho (up, down):  6.535E-01 4.997E-01

     *
     * You are using vdW-DF for exchange-correlation in this calculation.
     * Please cite the following three references that made this development
     * possible:
     *
     *   M. Dion, H. Rydberg, E. Schroder, D. C. Langreth, and
     *   B. I. Lundqvist, Phys. Rev. Lett. 92, 246401 (2004).
     *
     *   T. Thonhauser, V. R. Cooper, S. Li, A. Puzder, P. Hyldgaard, and
     *   D. C. Langreth, Phys. Rev. B 76, 125112 (2007).
     *
     *   G. Roman-Perez and J. M. Soler, Phys. Rev. Lett. 103, 096102 (2009).
     *
     *
     * If you are using vdW-DF2, please also cite:
     *
     *   K. Lee, E. D. Murray, L. Kong, B. I. Lundqvist, and
     *   D. C. Langreth, Phys. Rev. B 82, 081101(R) (2010).
     *
     *
     * If you are calculating the stress with vdW-DF, please also cite:
     *
     *   R. Sabatini, E. Kucukbenli, B. Kolb, T. Thonhauser, and
     *   S. de Gironcoli, J. Phys.: Condens. Matter 24, 424209 (2012).
     *

     Carrying out vdW-DF run using the following parameters:

     Nqs =      20    Nr_points =    1024   r_max =   100.000
     q_mesh =
               0.00001000     0.04494208     0.09755937     0.15916263
               0.23128650     0.31572767     0.41458969     0.53033537
               0.66584808     0.82450364     1.01025438     1.22772762
               1.48234092     1.78043706     2.12944203     2.53805004
               3.01644009     3.57652955     4.23227104     5.00000000

     Gradients computed in reciprocal space

     Adding external electric field

     Computed dipole along edir(3) :
        Dipole                0.0000 Ry au,          0.0000 Debye
        Dipole field          0.0000 Ry au

        Potential amp.       -0.0000 Ry
        Total length         44.6391 bohr

[...]

     Starting wfc are  153 randomized atomic wfcs

     Self-consistent Calculation

     iteration #  1     ecut=    36.75 Ry     beta=0.10
     Davidson diagonalization with overlap
     ethr =  1.00E-02,  avg # of iterations =  8.1

[...]

     Magnetic moment per site:
     atom:    1    charge:    7.3156    magn:    0.8866    constr:    0.0000
     atom:    2    charge:    7.3156    magn:    0.8866    constr:    0.0000
     atom:    3    charge:    7.3156    magn:    0.8866    constr:    0.0000
     atom:    4    charge:    1.6212    magn:    0.1980    constr:    0.0000
     atom:    5    charge:    7.3174    magn:    0.8803    constr:    0.0000
     atom:    6    charge:    7.3174    magn:    0.8803    constr:    0.0000
     atom:    7    charge:    7.3174    magn:    0.8803    constr:    0.0000
[...]
        k(    3) = (   0.0000000   0.0743359   0.0000000), wk =   0.0555556
        k(    4) = (   0.0000000  -0.1115038   0.0000000), wk =   0.0277778
        k(    5) = (   0.0321884   0.0185840   0.0000000), wk =   0.0555556
        k(    6) = (   0.0321884   0.0557519   0.0000000), wk =   0.0555556
        k(    7) = (   0.0321884   0.0929198   0.0000000), wk =   0.0555556
        k(    8) = (   0.0321884  -0.0929198   0.0000000), wk =   0.0555556
        k(    9) = (   0.0321884  -0.0557519   0.0000000), wk =   0.0555556
        k(   10) = (   0.0321884  -0.0185840   0.0000000), wk =   0.0555556
        k(   11) = (   0.0643768   0.0371679   0.0000000), wk =   0.0555556
        k(   12) = (   0.0643768   0.0743359   0.0000000), wk =   0.0555556
        k(   13) = (   0.0643768   0.1115038   0.0000000), wk =   0.0555556
        k(   14) = (   0.0643768  -0.0743359   0.0000000), wk =   0.0555556
        k(   15) = (   0.0643768  -0.0371679   0.0000000), wk =   0.0555556
        k(   16) = (   0.0643768   0.0000000   0.0000000), wk =   0.0555556
        k(   17) = (  -0.0965651  -0.0557519   0.0000000), wk =   0.0277778
        k(   18) = (  -0.0965651  -0.0185840   0.0000000), wk =   0.0555556
        k(   19) = (  -0.0965651   0.0185840   0.0000000), wk =   0.0555556
        k(   20) = (  -0.0965651  -0.1672557   0.0000000), wk =   0.0277778
        k(   21) = (   0.0000000   0.0000000   0.0000000), wk =   0.0277778
        k(   22) = (   0.0000000   0.0371679   0.0000000), wk =   0.0555556
        k(   23) = (   0.0000000   0.0743359   0.0000000), wk =   0.0555556
        k(   24) = (   0.0000000  -0.1115038   0.0000000), wk =   0.0277778
        k(   25) = (   0.0321884   0.0185840   0.0000000), wk =   0.0555556
        k(   26) = (   0.0321884   0.0557519   0.0000000), wk =   0.0555556
        k(   27) = (   0.0321884   0.0929198   0.0000000), wk =   0.0555556
        k(   28) = (   0.0321884  -0.0929198   0.0000000), wk =   0.0555556
        k(   29) = (   0.0321884  -0.0557519   0.0000000), wk =   0.0555556
        k(   30) = (   0.0321884  -0.0185840   0.0000000), wk =   0.0555556
        k(   31) = (   0.0643768   0.0371679   0.0000000), wk =   0.0555556
        k(   32) = (   0.0643768   0.0743359   0.0000000), wk =   0.0555556
        k(   33) = (   0.0643768   0.1115038   0.0000000), wk =   0.0555556
        k(   34) = (   0.0643768  -0.0743359   0.0000000), wk =   0.0555556
        k(   35) = (   0.0643768  -0.0371679   0.0000000), wk =   0.0555556
        k(   36) = (   0.0643768   0.0000000   0.0000000), wk =   0.0555556
        k(   37) = (  -0.0965651  -0.0557519   0.0000000), wk =   0.0277778
        k(   38) = (  -0.0965651  -0.0185840   0.0000000), wk =   0.0555556
        k(   39) = (  -0.0965651   0.0185840   0.0000000), wk =   0.0555556
        k(   40) = (  -0.0965651  -0.1672557   0.0000000), wk =   0.0277778

     Largest allocated arrays     est. size (Mb)     dimensions
     Largest temporary arrays     est. size (Mb)     dimensions

     Check: negative/imaginary core charge=   -0.000006    0.000000

     Initial potential from superposition of free atoms
     Check: negative starting charge=(component1):   -0.616891
     Check: negative starting charge=(component2):   -0.471717

     starting charge  178.49985, renormalised to  189.00000

[...]

     *
     * You are using vdW-DF for exchange-correlation in this calculation.
     * Please cite the following three references that made this development
     * possible:
     *
     *   M. Dion, H. Rydberg, E. Schroder, D. C. Langreth, and
     *   B. I. Lundqvist, Phys. Rev. Lett. 92, 246401 (2004).
     *
     *   T. Thonhauser, V. R. Cooper, S. Li, A. Puzder, P. Hyldgaard, and
     *   D. C. Langreth, Phys. Rev. B 76, 125112 (2007).
     *
     *   G. Roman-Perez and J. M. Soler, Phys. Rev. Lett. 103, 096102 (2009).
     *
     *
     * If you are using vdW-DF2, please also cite:
     *
     *   K. Lee, E. D. Murray, L. Kong, B. I. Lundqvist, and
     *   D. C. Langreth, Phys. Rev. B 82, 081101(R) (2010).
     *
     *
     * If you are calculating the stress with vdW-DF, please also cite:
     *
     *   R. Sabatini, E. Kucukbenli, B. Kolb, T. Thonhauser, and
     *   S. de Gironcoli, J. Phys.: Condens. Matter 24, 424209 (2012).
     *

     Carrying out vdW-DF run using the following parameters:

     Nqs =      20    Nr_points =    1024   r_max =   100.000
     q_mesh =
               0.00001000     0.04494208     0.09755937     0.15916263
               0.23128650     0.31572767     0.41458969     0.53033537
               0.66584808     0.82450364     1.01025438     1.22772762
               1.48234092     1.78043706     2.12944203     2.53805004
               3.01644009     3.57652955     4.23227104     5.00000000

     Gradients computed in reciprocal space

[...]

     Starting wfc are  153 randomized atomic wfcs

     Self-consistent Calculation

[...]

     total energy              =   -2811.95901763 Ry
     Harris-Foulkes estimate   =   -2811.95901698 Ry
     estimated scf accuracy    <       0.00000645 Ry

[...]

     iteration # 33     ecut=    36.75 Ry     beta=0.10
     Davidson diagonalization with overlap
     ethr =  8.04E-10,  avg # of iterations =  1.1

[...]

     negative rho (up, down):  5.208E-01 4.441E-01

[...]

     Adding external electric field

     Computed dipole along edir(3) :
        Dipole               -0.0022 Ry au,         -0.0057 Debye
        Dipole field         -0.0000 Ry au

        Potential amp.        0.0007 Ry
        Total length         44.6391 bohr

     Magnetic moment per site:
     atom:    1    charge:    7.0967    magn:    1.3079    constr:    0.0000
     atom:    2    charge:    7.0968    magn:    1.3078    constr:    0.0000
     atom:    3    charge:    7.0968    magn:    1.3078    constr:    0.0000
     atom:    4    charge:    1.6179    magn:    0.0204    constr:    0.0000
     atom:    5    charge:    7.0988    magn:    1.2879    constr:    0.0000
     atom:    6    charge:    7.0987    magn:    1.2879    constr:    0.0000
     atom:    7    charge:    7.0987    magn:    1.2879    constr:    0.0000
     atom:    8    charge:    1.6273    magn:    0.0240    constr:    0.0000
     atom:    9    charge:    7.0950    magn:    1.3329    constr:    0.0000
     atom:   10    charge:    7.0950    magn:    1.3329    constr:    0.0000
     atom:   11    charge:    7.0950    magn:    1.3329    constr:    0.0000
     atom:   12    charge:    1.6057    magn:    0.0211    constr:    0.0000

     End of self-consistent calculation

 ------ SPIN UP ------------

[...]

 ------ SPIN DOWN ----------

[...]

          k = 0.0644 0.0000 0.0000 ( 14295 PWs)   bands (ev):

[...]

          k =-0.0966-0.1673 0.0000 ( 14238 PWs)   bands (ev):

   -84.0268 -84.0169 -84.0068 -83.9440 -83.9433 -83.9346 -83.9339 -83.9251
   -83.9247 -50.2468 -50.2067 -50.1845 -50.1788 -50.1787 -50.1493 -50.1472
   -50.1315 -50.1111 -50.1018 -50.0832 -50.0785 -50.0699 -50.0670 -50.0637
   -50.0588 -50.0362 -50.0274 -49.9988 -49.9907 -49.9878 -49.9862 -49.9599
   -49.9581 -49.9413 -49.9298 -49.9194 -47.3059 -47.2941 -47.2905 -47.1002
   -47.0889 -47.0753 -47.0640 -46.9397 -46.9132  -4.9794  -4.5758  -3.5195
    -2.9224  -2.8623  -2.6496  -2.2591  -2.1193  -2.0386  -1.9953  -1.6396
    -1.5757  -1.5251  -1.3874  -1.2995  -1.0237  -1.0036  -0.9058  -0.8601
    -0.2682  -0.2226  -0.2022  -0.1856   0.0960   0.2101   0.3817   0.5596
     0.6092   0.7261   0.7968   0.8467   0.8933   0.9100   0.9938   1.0242
     1.2147   1.2220   1.3408   1.6164   1.6902   1.7370   1.8893   1.9029
     2.0075   2.1209   2.1955   2.2410   2.3310   2.3632   2.4245   2.5133
     2.5417   2.5794   2.6583   2.7354   2.7697   2.8772   2.9145   3.1879
     3.2048   3.4325   3.4508   3.5106   3.6082   4.1405   4.2002   4.7918
     5.3022   5.3704   5.6782   5.9642   6.1093   7.1901   7.3063   7.4318
     7.4547   7.9603   7.9710   8.1165

     the Fermi energy is     1.4198 ev

!    total energy              =   -2811.95901990 Ry
     Harris-Foulkes estimate   =   -2811.95901773 Ry
     estimated scf accuracy    <       0.00000059 Ry

     The total energy is the sum of the following terms:

     one-electron contribution =  -23996.12319922 Ry
     hartree contribution      =   12006.14073721 Ry
     xc contribution           =    -428.87387684 Ry
     ewald contribution        =    9606.99474452 Ry
     electric field correction =       0.00000002 Ry
     smearing contrib. (-TS)   =      -0.09742558 Ry

     total magnetization       =    26.00 Bohr mag/cell
     absolute magnetization    =    27.20 Bohr mag/cell

     convergence has been achieved in  33 iterations

 BEEF-vdW xc energy contributions
           1 :   -377.133029805229
           2 :    344.738734771854
           3 :   -289.439394711931
           4 :    225.855388609629
           5 :   -167.722570115488
           6 :    123.256246399524
           7 :   -93.7911045582162
           8 :    75.5588961707679
           9 :   -63.0419029921326
          10 :    51.9510994038846
          11 :   -40.5931543710164
          12 :    29.4705418569108
          13 :   -19.9112664349793
          14 :    12.7819573977015
          15 :   -8.00113201804459
          16 :    4.85316985803257
          17 :   -2.62008578176250
          18 :   0.977442058532517
          19 :   4.473173738790592E-002
          20 :  -0.384502218516957
          21 :   0.221685392493555
          22 :   4.170944721238357E-003
          23 :   0.171709726182428
          24 :  -0.953287104462902
          25 :    2.15017126563276
          26 :   -3.29250981089200
          27 :    3.90156034062733
          28 :   -3.75017160446390
          29 :    2.96800656444151
          30 :   -1.97029872649654
          31 :   -32.8130603778788
          32 :   -23.6744921856626

     Forces acting on atoms (Ry/au):

     negative rho (up, down):  5.208E-01 4.441E-01
     atom    1 type  1   force =     0.00000089   -0.00713694   -0.01806574
     atom    2 type  1   force =    -0.00615265    0.00357180   -0.01808157
     atom    3 type  1   force =     0.00616509    0.00357797   -0.01806955
     atom    4 type  2   force =     0.00000085   -0.00000316   -0.00949805
     atom    5 type  1   force =    -0.00001436   -0.00063209    0.01311173
     atom    6 type  1   force =    -0.00053631    0.00031556    0.01307683
     atom    7 type  1   force =     0.00053552    0.00033169    0.01309203
     atom    8 type  2   force =     0.00000024   -0.00000002    0.02492266
     atom    9 type  1   force =    -0.00005736   -0.00072679   -0.00005271
     atom   10 type  1   force =    -0.00062860    0.00033605   -0.00002135
     atom   11 type  1   force =     0.00060885    0.00039094   -0.00003373
     atom   12 type  2   force =     0.00007784   -0.00002500   -0.00038055

     Total force =     0.048588     Total SCF correction =     0.003874

     entering subroutine stress ...

     negative rho (up, down):  5.208E-01 4.441E-01
          total   stress  (Ry/bohr**3)                   (kbar)     P=   -3.63
  -0.00006067  -0.00000000   0.00000000         -8.93     -0.00      0.00
  -0.00000000  -0.00006069  -0.00000001         -0.00     -8.93     -0.00
   0.00000000  -0.00000001   0.00004727          0.00     -0.00      6.95

 !ASE

     Writing output data file calc.save

     General routines

     Parallel routines

   This run was terminated on:  23:22:37  25Dec2018

   JOB DONE.
Job  /afs/slac/g/suncat/bin/suncat-tsmpirun -x LD_LIBRARY_PATH -wdir /scratch/qe109626_nPKMR pw.x -in pw.inp

TID   HOST_NAME   COMMAND_LINE            STATUS            TERMINATION_TIME
00000 suncat0180 pw.x -in pw.inp   Done                     12/25/2018 23:22:37
00001 suncat0180 pw.x -in pw.inp   Done                     12/25/2018 23:22:37
00002 suncat0180 pw.x -in pw.inp   Done                     12/25/2018 23:22:37
00003 suncat0180 pw.x -in pw.inp   Done                     12/25/2018 23:22:37
00004 suncat0180 pw.x -in pw.inp   Done                     12/25/2018 23:22:37
00005 suncat0180 pw.x -in pw.inp   Done                     12/25/2018 23:22:37
00006 suncat0180 pw.x -in pw.inp   Done                     12/25/2018 23:22:37
00007 suncat0180 pw.x -in pw.inp   Done                     12/25/2018 23:22:37
00008 suncat0167 pw.x -in pw.inp   Done                     12/25/2018 23:22:37
00009 suncat0167 pw.x -in pw.inp   Done                     12/25/2018 23:22:37
00010 suncat0167 pw.x -in pw.inp   Done                     12/25/2018 23:22:37
00011 suncat0167 pw.x -in pw.inp   Done                     12/25/2018 23:22:37
00012 suncat0167 pw.x -in pw.inp   Done                     12/25/2018 23:22:37
00013 suncat0167 pw.x -in pw.inp   Done                     12/25/2018 23:22:37
00014 suncat0167 pw.x -in pw.inp   Done                     12/25/2018 23:22:37
00015 suncat0167 pw.x -in pw.inp   Done                     12/25/2018 23:22:37
00016 suncat0166 pw.x -in pw.inp   Done                     12/25/2018 23:22:37
00017 suncat0166 pw.x -in pw.inp   Done                     12/25/2018 23:22:37
00018 suncat0166 pw.x -in pw.inp   Done                     12/25/2018 23:22:37
00019 suncat0166 pw.x -in pw.inp   Done                     12/25/2018 23:22:37
00020 suncat0166 pw.x -in pw.inp   Done                     12/25/2018 23:22:37
00021 suncat0166 pw.x -in pw.inp   Done                     12/25/2018 23:22:37
00022 suncat0166 pw.x -in pw.inp   Done                     12/25/2018 23:22:37
00023 suncat0166 pw.x -in pw.inp   Done                     12/25/2018 23:22:37
00024 suncat0165 pw.x -in pw.inp   Done                     12/25/2018 23:22:37
00025 suncat0165 pw.x -in pw.inp   Done                     12/25/2018 23:22:37
00026 suncat0165 pw.x -in pw.inp   Done                     12/25/2018 23:22:37
00027 suncat0165 pw.x -in pw.inp   Done                     12/25/2018 23:22:37
00028 suncat0165 pw.x -in pw.inp   Done                     12/25/2018 23:22:37
00029 suncat0165 pw.x -in pw.inp   Done                     12/25/2018 23:22:37
00030 suncat0165 pw.x -in pw.inp   Done                     12/25/2018 23:22:37
00031 suncat0165 pw.x -in pw.inp   Done                     12/25/2018 23:22:37
00032 suncat0164 pw.x -in pw.inp   Done                     12/25/2018 23:22:37
00033 suncat0164 pw.x -in pw.inp   Done                     12/25/2018 23:22:37
00034 suncat0164 pw.x -in pw.inp   Done                     12/25/2018 23:22:37
00035 suncat0164 pw.x -in pw.inp   Done                     12/25/2018 23:22:37
00036 suncat0164 pw.x -in pw.inp   Done                     12/25/2018 23:22:37
00037 suncat0164 pw.x -in pw.inp   Done                     12/25/2018 23:22:37
00038 suncat0164 pw.x -in pw.inp   Done                     12/25/2018 23:22:37
00039 suncat0164 pw.x -in pw.inp   Done                     12/25/2018 23:22:37
00040 suncat0149 pw.x -in pw.inp   Done                     12/25/2018 23:22:37
00041 suncat0149 pw.x -in pw.inp   Done                     12/25/2018 23:22:37
00042 suncat0149 pw.x -in pw.inp   Done                     12/25/2018 23:22:37
00043 suncat0149 pw.x -in pw.inp   Done                     12/25/2018 23:22:37
00044 suncat0149 pw.x -in pw.inp   Done                     12/25/2018 23:22:37
00045 suncat0149 pw.x -in pw.inp   Done                     12/25/2018 23:22:37
00046 suncat0149 pw.x -in pw.inp   Done                     12/25/2018 23:22:37
00047 suncat0149 pw.x -in pw.inp   Done                     12/25/2018 23:22:37
00048 suncat0148 pw.x -in pw.inp   Done                     12/25/2018 23:22:37
00049 suncat0148 pw.x -in pw.inp   Done                     12/25/2018 23:22:37
00050 suncat0148 pw.x -in pw.inp   Done                     12/25/2018 23:22:37
00051 suncat0148 pw.x -in pw.inp   Done                     12/25/2018 23:22:37
00052 suncat0148 pw.x -in pw.inp   Done                     12/25/2018 23:22:37
00053 suncat0148 pw.x -in pw.inp   Done                     12/25/2018 23:22:37
00054 suncat0148 pw.x -in pw.inp   Done                     12/25/2018 23:22:37
00055 suncat0148 pw.x -in pw.inp   Done                     12/25/2018 23:22:37
00056 suncat0137 pw.x -in pw.inp   Done                     12/25/2018 23:22:37
00057 suncat0137 pw.x -in pw.inp   Done                     12/25/2018 23:22:37
00058 suncat0137 pw.x -in pw.inp   Done                     12/25/2018 23:22:37
00059 suncat0137 pw.x -in pw.inp   Done                     12/25/2018 23:22:37
00060 suncat0137 pw.x -in pw.inp   Done                     12/25/2018 23:22:37
00061 suncat0137 pw.x -in pw.inp   Done                     12/25/2018 23:22:37
00062 suncat0137 pw.x -in pw.inp   Done                     12/25/2018 23:22:37
00063 suncat0137 pw.x -in pw.inp   Done                     12/25/2018 23:22:37