     Program PWSCF v.5.1rc2 (svn rev. 11289) starts on 20Dec2018 at  9: 5: 9

     Current dimensions of program PWSCF are:
     Max number of different atomic species (ntypx) = 10
     Max number of k-points (npk) =  40000
     Max angular momentum in pseudopotentials (lmaxx) =  3
     Presently stress not available with electric field

     IMPORTANT: XC functional enforced from input :
     Exchange-correlation      = BEEF-VDW ( 1  4 27 13 2)
     Any further DFT definition will be discarded
     Please, verify this is what you really want

     Subspace diagonalization in iterative solution of the eigenvalue problem:
     a serial algorithm will be used

     Generating pointlists ...
     new r_m :   0.4125 (alat units)  0.7795 (a.u.) for type    1
     new r_m :   0.4125 (alat units)  0.7795 (a.u.) for type    2

     bravais-lattice index     =            0
     lattice parameter (alat)  =       1.8897  a.u.
     unit-cell volume          =    3756.0888 (a.u.)^3
     number of atoms/cell      =           12
     number of atomic types    =            2
     number of electrons       =       192.00
     number of Kohn-Sham states=          126
     kinetic-energy cutoff     =      36.7493  Ry
     charge density cutoff     =     367.4932  Ry
     convergence threshold     =      1.0E-06
     mixing beta               =       0.1000
     number of iterations used =           10  plain     mixing
     Exchange-correlation      = BEEF-VDW ( 1  4 27 13 2)
     nstep                     =           50

     celldm(1)=   1.889726  celldm(2)=   0.000000  celldm(3)=   0.000000
     celldm(4)=   0.000000  celldm(5)=   0.000000  celldm(6)=   0.000000

     crystal axes: (cart. coord. in units of alat)
               a(1) = (   5.152673   0.000000   0.000000 )
               a(2) = (  -2.576336   4.462346   0.000000 )
               a(3) = (   0.000000   0.000000  24.207140 )

     reciprocal axes: (cart. coord. in units 2 pi/alat)
               b(1) = (  0.194074  0.112049  0.000000 )
               b(2) = (  0.000000  0.224097  0.000000 )
               b(3) = (  0.000000  0.000000  0.041310 )

     PseudoPot. # 1 for Co read from file:
     /afs/slac.stanford.edu/u/if/mamunm/psp/gbrv1.5pbe/Co.UPF
     MD5 check sum: 5f91765df6ddd3222702df6e7b74a16d
     Pseudo is Ultrasoft + core correction, Zval = 17.0
     Generated by new atomic code, or converted to UPF format
     Using radial grid of  863 points,  6 beta functions with:
                l(1) =   0
                l(2) =   0
                l(3) =   1
                l(4) =   1
                l(5) =   2
                l(6) =   2
     Q(r) pseudized with  8 coefficients,  rinner =    1.200   1.200   1.200
                                                       1.200   1.200

     PseudoPot. # 2 for Ta read from file:
     /afs/slac.stanford.edu/u/if/mamunm/psp/gbrv1.5pbe/Ta.UPF
     MD5 check sum: f8bbe9446314a3b8ea5d9f3e3836c939
     Pseudo is Ultrasoft + core correction, Zval = 13.0
     Generated by new atomic code, or converted to UPF format
     Using radial grid of  921 points,  7 beta functions with:
                l(1) =   0
                l(2) =   0
                l(3) =   1
                l(4) =   1
                l(5) =   2
                l(6) =   2
                l(7) =   3
     Q(r) pseudized with  6 coefficients,  rinner =    1.300   1.300   1.300
                                                       1.300   1.300   1.300
                                                       1.300

     vdW kernel table read from file vdW_kernel_table
     MD5 check sum: 095c7af220d748ca6e76c0b4c6cfb241

     atomic species   valence    mass     pseudopotential
        Co1           17.00    58.93319     Co( 1.00)
        Ta1           13.00   180.94788     Ta( 1.00)

     Starting magnetic structure
     atomic species   magnetization
        Co1          0.118
        Ta1          0.154

     No symmetry found

   Cartesian axes

     site n.     atom                  positions (alat units)
         1           Co1 tau(   1) = (   0.0000000   0.0000000  10.0000000  )
         2           Co1 tau(   2) = (  -1.2881682   2.2311728  10.0000000  )
         3           Co1 tau(   3) = (   1.2881682   2.2311728  10.0000000  )
         4           Ta1 tau(   4) = (   2.5763364   0.0000000  10.0000000  )
         5           Co1 tau(   5) = (   2.5763364   1.4874485  12.1035699  )
         6           Co1 tau(   6) = (   1.2881682   3.7186213  12.1035699  )
         7           Co1 tau(   7) = (  -1.2881682   3.7186213  12.1035699  )
         8           Ta1 tau(   8) = (   0.0000000   1.4874485  12.1035699  )
         9           Co1 tau(   9) = (  -0.0000000   2.9748971  14.2071398  )
        10           Co1 tau(  10) = (   1.2881682   0.7437243  14.2071398  )
        11           Co1 tau(  11) = (   3.8645047   0.7437243  14.2071398  )
        12           Ta1 tau(  12) = (   2.5763364   2.9748971  14.2071398  )

     number of k points=    40  Fermi-Dirac smearing, width (Ry)=  0.0110
                       cart. coord. in units 2pi/alat
        k(    1) = (   0.0000000   0.0000000   0.0000000), wk =   0.0277778
        k(    2) = (   0.0000000   0.0373496   0.0000000), wk =   0.0555556
        k(    3) = (   0.0000000   0.0746991   0.0000000), wk =   0.0555556
        k(    4) = (   0.0000000  -0.1120487   0.0000000), wk =   0.0277778
        k(    5) = (   0.0323457   0.0186748   0.0000000), wk =   0.0555556
        k(    6) = (   0.0323457   0.0560243   0.0000000), wk =   0.0555556
        k(    7) = (   0.0323457   0.0933739   0.0000000), wk =   0.0555556
        k(    8) = (   0.0323457  -0.0933739   0.0000000), wk =   0.0555556
        k(    9) = (   0.0323457  -0.0560243   0.0000000), wk =   0.0555556
        k(   10) = (   0.0323457  -0.0186748   0.0000000), wk =   0.0555556
        k(   11) = (   0.0646913   0.0373496   0.0000000), wk =   0.0555556
        k(   12) = (   0.0646913   0.0746991   0.0000000), wk =   0.0555556
        k(   13) = (   0.0646913   0.1120487   0.0000000), wk =   0.0555556
        k(   14) = (   0.0646913  -0.0746991   0.0000000), wk =   0.0555556
        k(   15) = (   0.0646913  -0.0373496   0.0000000), wk =   0.0555556
        k(   16) = (   0.0646913  -0.0000000   0.0000000), wk =   0.0555556
        k(   17) = (  -0.0970370  -0.0560243   0.0000000), wk =   0.0277778
        k(   18) = (  -0.0970370  -0.0186748   0.0000000), wk =   0.0555556
        k(   19) = (  -0.0970370   0.0186748   0.0000000), wk =   0.0555556
        k(   20) = (  -0.0970370  -0.1680730   0.0000000), wk =   0.0277778
        k(   21) = (   0.0000000   0.0000000   0.0000000), wk =   0.0277778
        k(   22) = (   0.0000000   0.0373496   0.0000000), wk =   0.0555556
        k(   23) = (   0.0000000   0.0746991   0.0000000), wk =   0.0555556
        k(   24) = (   0.0000000  -0.1120487   0.0000000), wk =   0.0277778
        k(   25) = (   0.0323457   0.0186748   0.0000000), wk =   0.0555556
        k(   26) = (   0.0323457   0.0560243   0.0000000), wk =   0.0555556
        k(   27) = (   0.0323457   0.0933739   0.0000000), wk =   0.0555556
        k(   28) = (   0.0323457  -0.0933739   0.0000000), wk =   0.0555556
        k(   29) = (   0.0323457  -0.0560243   0.0000000), wk =   0.0555556
        k(   30) = (   0.0323457  -0.0186748   0.0000000), wk =   0.0555556
        k(   31) = (   0.0646913   0.0373496   0.0000000), wk =   0.0555556
        k(   32) = (   0.0646913   0.0746991   0.0000000), wk =   0.0555556
        k(   33) = (   0.0646913   0.1120487   0.0000000), wk =   0.0555556
        k(   34) = (   0.0646913  -0.0746991   0.0000000), wk =   0.0555556
        k(   35) = (   0.0646913  -0.0373496   0.0000000), wk =   0.0555556
        k(   36) = (   0.0646913  -0.0000000   0.0000000), wk =   0.0555556
        k(   37) = (  -0.0970370  -0.0560243   0.0000000), wk =   0.0277778
        k(   38) = (  -0.0970370  -0.0186748   0.0000000), wk =   0.0555556
        k(   39) = (  -0.0970370   0.0186748   0.0000000), wk =   0.0555556
        k(   40) = (  -0.0970370  -0.1680730   0.0000000), wk =   0.0277778

     Largest allocated arrays     est. size (Mb)     dimensions
     Largest temporary arrays     est. size (Mb)     dimensions

     Check: negative/imaginary core charge=   -0.000004    0.000000

     Initial potential from superposition of free atoms
     Check: negative starting charge=(component1):   -0.164470
     Check: negative starting charge=(component2):   -0.120582

     starting charge  182.99660, renormalised to  192.00000

     negative rho (up, down):  1.726E-01 1.265E-01

     *
     * You are using vdW-DF for exchange-correlation in this calculation.
     * Please cite the following three references that made this development
     * possible:
     *
     *   M. Dion, H. Rydberg, E. Schroder, D. C. Langreth, and
     *   B. I. Lundqvist, Phys. Rev. Lett. 92, 246401 (2004).
     *
     *   T. Thonhauser, V. R. Cooper, S. Li, A. Puzder, P. Hyldgaard, and
     *   D. C. Langreth, Phys. Rev. B 76, 125112 (2007).
     *
     *   G. Roman-Perez and J. M. Soler, Phys. Rev. Lett. 103, 096102 (2009).
     *
     *
     * If you are using vdW-DF2, please also cite:
     *
     *   K. Lee, E. D. Murray, L. Kong, B. I. Lundqvist, and
     *   D. C. Langreth, Phys. Rev. B 82, 081101(R) (2010).
     *
     *
     * If you are calculating the stress with vdW-DF, please also cite:
     *
     *   R. Sabatini, E. Kucukbenli, B. Kolb, T. Thonhauser, and
     *   S. de Gironcoli, J. Phys.: Condens. Matter 24, 424209 (2012).
     *

     Carrying out vdW-DF run using the following parameters:

     Nqs =      20    Nr_points =    1024   r_max =   100.000
     q_mesh =
               0.00001000     0.04494208     0.09755937     0.15916263
               0.23128650     0.31572767     0.41458969     0.53033537
               0.66584808     0.82450364     1.01025438     1.22772762
               1.48234092     1.78043706     2.12944203     2.53805004
               3.01644009     3.57652955     4.23227104     5.00000000

     Gradients computed in reciprocal space

     Adding external electric field

     Computed dipole along edir(3) :
        Dipole                0.0000 Ry au,          0.0000 Debye
        Dipole field          0.0000 Ry au

        Potential amp.       -0.0000 Ry
        Total length         44.6012 bohr

[...]

     Starting wfc are  156 randomized atomic wfcs

     Self-consistent Calculation

     iteration #  1     ecut=    36.75 Ry     beta=0.10
     Davidson diagonalization with overlap
     ethr =  1.00E-02,  avg # of iterations =  7.5

[...]

     Magnetic moment per site:
     atom:    1    charge:    8.4316    magn:    0.9650    constr:    0.0000
     atom:    2    charge:    8.4316    magn:    0.9650    constr:    0.0000
     atom:    3    charge:    8.4316    magn:    0.9650    constr:    0.0000
     atom:    4    charge:    1.4263    magn:    0.1979    constr:    0.0000
     atom:    5    charge:    8.4467    magn:    0.9608    constr:    0.0000
     atom:    6    charge:    8.4467    magn:    0.9608    constr:    0.0000
[...]
        k(    5) = (   0.0323457   0.0186748   0.0000000), wk =   0.0555556
        k(    6) = (   0.0323457   0.0560243   0.0000000), wk =   0.0555556
        k(    7) = (   0.0323457   0.0933739   0.0000000), wk =   0.0555556
        k(    8) = (   0.0323457  -0.0933739   0.0000000), wk =   0.0555556
        k(    9) = (   0.0323457  -0.0560243   0.0000000), wk =   0.0555556
        k(   10) = (   0.0323457  -0.0186748   0.0000000), wk =   0.0555556
        k(   11) = (   0.0646913   0.0373496   0.0000000), wk =   0.0555556
        k(   12) = (   0.0646913   0.0746991   0.0000000), wk =   0.0555556
        k(   13) = (   0.0646913   0.1120487   0.0000000), wk =   0.0555556
        k(   14) = (   0.0646913  -0.0746991   0.0000000), wk =   0.0555556
        k(   15) = (   0.0646913  -0.0373496   0.0000000), wk =   0.0555556
        k(   16) = (   0.0646913  -0.0000000   0.0000000), wk =   0.0555556
        k(   17) = (  -0.0970370  -0.0560243   0.0000000), wk =   0.0277778
        k(   18) = (  -0.0970370  -0.0186748   0.0000000), wk =   0.0555556
        k(   19) = (  -0.0970370   0.0186748   0.0000000), wk =   0.0555556
        k(   20) = (  -0.0970370  -0.1680730   0.0000000), wk =   0.0277778
        k(   21) = (   0.0000000   0.0000000   0.0000000), wk =   0.0277778
        k(   22) = (   0.0000000   0.0373496   0.0000000), wk =   0.0555556
        k(   23) = (   0.0000000   0.0746991   0.0000000), wk =   0.0555556
        k(   24) = (   0.0000000  -0.1120487   0.0000000), wk =   0.0277778
        k(   25) = (   0.0323457   0.0186748   0.0000000), wk =   0.0555556
        k(   26) = (   0.0323457   0.0560243   0.0000000), wk =   0.0555556
        k(   27) = (   0.0323457   0.0933739   0.0000000), wk =   0.0555556
        k(   28) = (   0.0323457  -0.0933739   0.0000000), wk =   0.0555556
        k(   29) = (   0.0323457  -0.0560243   0.0000000), wk =   0.0555556
        k(   30) = (   0.0323457  -0.0186748   0.0000000), wk =   0.0555556
        k(   31) = (   0.0646913   0.0373496   0.0000000), wk =   0.0555556
        k(   32) = (   0.0646913   0.0746991   0.0000000), wk =   0.0555556
        k(   33) = (   0.0646913   0.1120487   0.0000000), wk =   0.0555556
        k(   34) = (   0.0646913  -0.0746991   0.0000000), wk =   0.0555556
        k(   35) = (   0.0646913  -0.0373496   0.0000000), wk =   0.0555556
        k(   36) = (   0.0646913  -0.0000000   0.0000000), wk =   0.0555556
        k(   37) = (  -0.0970370  -0.0560243   0.0000000), wk =   0.0277778
        k(   38) = (  -0.0970370  -0.0186748   0.0000000), wk =   0.0555556
        k(   39) = (  -0.0970370   0.0186748   0.0000000), wk =   0.0555556
        k(   40) = (  -0.0970370  -0.1680730   0.0000000), wk =   0.0277778

     Largest allocated arrays     est. size (Mb)     dimensions
     Largest temporary arrays     est. size (Mb)     dimensions

     Check: negative/imaginary core charge=   -0.000004    0.000000

     Initial potential from superposition of free atoms
     Check: negative starting charge=(component1):   -0.164508
     Check: negative starting charge=(component2):   -0.120608

     starting charge  182.99660, renormalised to  192.00000

[...]

     *
     * You are using vdW-DF for exchange-correlation in this calculation.
     * Please cite the following three references that made this development
     * possible:
     *
     *   M. Dion, H. Rydberg, E. Schroder, D. C. Langreth, and
     *   B. I. Lundqvist, Phys. Rev. Lett. 92, 246401 (2004).
     *
     *   T. Thonhauser, V. R. Cooper, S. Li, A. Puzder, P. Hyldgaard, and
     *   D. C. Langreth, Phys. Rev. B 76, 125112 (2007).
     *
     *   G. Roman-Perez and J. M. Soler, Phys. Rev. Lett. 103, 096102 (2009).
     *
     *
     * If you are using vdW-DF2, please also cite:
     *
     *   K. Lee, E. D. Murray, L. Kong, B. I. Lundqvist, and
     *   D. C. Langreth, Phys. Rev. B 82, 081101(R) (2010).
     *
     *
     * If you are calculating the stress with vdW-DF, please also cite:
     *
     *   R. Sabatini, E. Kucukbenli, B. Kolb, T. Thonhauser, and
     *   S. de Gironcoli, J. Phys.: Condens. Matter 24, 424209 (2012).
     *

     Carrying out vdW-DF run using the following parameters:

     Nqs =      20    Nr_points =    1024   r_max =   100.000
     q_mesh =
               0.00001000     0.04494208     0.09755937     0.15916263
               0.23128650     0.31572767     0.41458969     0.53033537
               0.66584808     0.82450364     1.01025438     1.22772762
               1.48234092     1.78043706     2.12944203     2.53805004
               3.01644009     3.57652955     4.23227104     5.00000000

     Gradients computed in reciprocal space

[...]

     Starting wfc are  156 randomized atomic wfcs

     Self-consistent Calculation

[...]

     total energy              =   -3125.44067350 Ry
     Harris-Foulkes estimate   =   -3125.44067338 Ry
     estimated scf accuracy    <       0.00000151 Ry

[...]

     iteration # 36     ecut=    36.75 Ry     beta=0.10
     Davidson diagonalization with overlap
     ethr =  7.85E-10,  avg # of iterations =  1.0

[...]

     negative rho (up, down):  1.481E-01 1.484E-01

[...]

     Adding external electric field

     Computed dipole along edir(3) :
        Dipole               -0.0033 Ry au,         -0.0085 Debye
        Dipole field         -0.0000 Ry au

        Potential amp.        0.0010 Ry
        Total length         44.6012 bohr

     Magnetic moment per site:
     atom:    1    charge:    8.2915    magn:    0.5944    constr:    0.0000
     atom:    2    charge:    8.2916    magn:    0.5943    constr:    0.0000
     atom:    3    charge:    8.2916    magn:    0.5944    constr:    0.0000
     atom:    4    charge:    1.3697    magn:   -0.0137    constr:    0.0000
     atom:    5    charge:    8.2877    magn:    0.4140    constr:    0.0000
     atom:    6    charge:    8.2877    magn:    0.4140    constr:    0.0000
     atom:    7    charge:    8.2878    magn:    0.4140    constr:    0.0000
     atom:    8    charge:    1.3731    magn:   -0.0118    constr:    0.0000
     atom:    9    charge:    8.2880    magn:    0.6017    constr:    0.0000
     atom:   10    charge:    8.2879    magn:    0.6018    constr:    0.0000
     atom:   11    charge:    8.2879    magn:    0.6019    constr:    0.0000
     atom:   12    charge:    1.3652    magn:   -0.0134    constr:    0.0000

     End of self-consistent calculation

 ------ SPIN UP ------------

[...]

 ------ SPIN DOWN ----------

[...]

          k = 0.0647-0.0000 0.0000 ( 14135 PWs)   bands (ev):

[...]

          k =-0.0970-0.1681 0.0000 ( 14106 PWs)   bands (ev):

   -93.1211 -93.1151 -93.1091 -92.6944 -92.6886 -92.6868 -92.6825 -92.6804
   -92.6747 -67.3435 -67.2650 -67.0873 -56.5845 -56.5533 -56.5309 -56.4674
   -56.4494 -56.4286 -56.3550 -56.3324 -56.2994 -56.1509 -56.1398 -56.1297
   -56.1177 -56.1117 -56.1006 -56.0136 -56.0110 -55.9834 -55.9779 -55.9686
   -55.9675 -55.9628 -55.9616 -55.9510 -55.9440 -55.9091 -55.9053 -33.8383
   -33.7623 -33.6746 -33.6654 -33.6175 -33.6088 -33.5354 -33.5226 -33.4504
    -4.8625  -4.5808  -3.3346  -2.7954  -2.5676  -2.4139  -2.2458  -2.0083
    -1.8225  -1.6140  -1.5659  -1.2500  -1.2067  -1.1228  -1.0508  -0.8438
    -0.8230  -0.6510  -0.5689  -0.5643  -0.5068  -0.3238  -0.1497  -0.0818
     0.0688   0.1310   0.1381   0.1610   0.2003   0.2139   0.2418   0.3095
     0.3803   0.4527   0.4598   0.5422   0.5426   0.5930   0.5936   0.8684
     0.8961   0.9643   1.0525   1.1481   1.3176   1.3786   1.4810   1.5355
     1.6395   1.6660   1.9931   2.0245   2.1436   2.2174   2.6946   2.7779
     2.9165   3.0138   3.0503   3.2265   3.3508   3.4900   3.5029   3.8129
     3.9364   4.4873   4.8649   5.6774   6.3207   6.5389   6.7647   6.8955
     7.4282   7.5296   7.7410   7.9712   8.0425   8.1049

     the Fermi energy is     1.3984 ev

!    total energy              =   -3125.44067440 Ry
     Harris-Foulkes estimate   =   -3125.44067356 Ry
     estimated scf accuracy    <       0.00000083 Ry

     The total energy is the sum of the following terms:

     one-electron contribution =  -25795.86069749 Ry
     hartree contribution      =   12901.14451207 Ry
     xc contribution           =    -434.79808517 Ry
     ewald contribution        =   10204.14950498 Ry
     electric field correction =       0.00000004 Ry
     smearing contrib. (-TS)   =      -0.07590883 Ry

     total magnetization       =     6.96 Bohr mag/cell
     absolute magnetization    =    10.99 Bohr mag/cell

     convergence has been achieved in  36 iterations

 BEEF-vdW xc energy contributions
           1 :   -383.015454154057
           2 :    349.465971229107
           3 :   -291.740488586425
           4 :    224.482465009249
           5 :   -161.754485758896
           6 :    112.259009730439
           7 :   -77.6606965092982
           8 :    54.2266062876710
           9 :   -36.4002973077378
          10 :    20.1812173489257
          11 :   -4.70414000497323
          12 :   -8.37351012405355
          13 :    16.8102141857929
          14 :   -19.6635593243989
          15 :    18.0213885089169
          16 :   -14.3666218415359
          17 :    11.1703801337950
          18 :   -9.67757257375087
          19 :    9.56662813536298
          20 :   -9.56491421215009
          21 :    8.50803081548116
          22 :   -6.15197875817233
          23 :    3.27188375895554
          24 :   -1.08858279352313
          25 :   0.457549752075920
          26 :   -1.36216785799417
          27 :    2.98908547157254
          28 :   -4.28335798322740
          29 :    4.58426833799183
          30 :   -3.94893909696947
          31 :   -32.9714185860448
          32 :   -23.4209572029401

     Forces acting on atoms (Ry/au):

     negative rho (up, down):  1.481E-01 1.484E-01
     atom    1 type  1   force =    -0.00000454   -0.00507679    0.00181701
     atom    2 type  1   force =    -0.00439274    0.00251355    0.00181959
     atom    3 type  1   force =     0.00441183    0.00252922    0.00183251
     atom    4 type  2   force =     0.00000034   -0.00000793    0.01743266
     atom    5 type  1   force =    -0.00001933   -0.00312685   -0.00763191
     atom    6 type  1   force =    -0.00266735    0.00157137   -0.00768510
     atom    7 type  1   force =     0.00267095    0.00159599   -0.00767359
     atom    8 type  2   force =    -0.00001071    0.00001397    0.00032783
     atom    9 type  1   force =     0.00000780    0.00010346   -0.00050579
     atom   10 type  1   force =     0.00015583   -0.00004803   -0.00055380
     atom   11 type  1   force =    -0.00014689   -0.00005249   -0.00060136
     atom   12 type  2   force =    -0.00000518   -0.00001548    0.00142195

     Total force =     0.024484     Total SCF correction =     0.003521
     SCF correction compared to forces is large: reduce conv_thr to get better values

     entering subroutine stress ...

     negative rho (up, down):  1.481E-01 1.484E-01
          total   stress  (Ry/bohr**3)                   (kbar)     P=  -17.93
  -0.00014475  -0.00000000   0.00000000        -21.29     -0.00      0.00
  -0.00000000  -0.00014474   0.00000002         -0.00    -21.29      0.00
   0.00000000   0.00000002  -0.00007608          0.00      0.00    -11.19

 !ASE

     Writing output data file calc.save

     General routines

     Parallel routines

   This run was terminated on:  11:39:53  20Dec2018

   JOB DONE.
Job  /afs/slac/g/suncat/bin/suncat-tsmpirun -x LD_LIBRARY_PATH -wdir /scratch/qe773544_kNoIR pw.x -in pw.inp

TID   HOST_NAME   COMMAND_LINE            STATUS            TERMINATION_TIME
00000 suncat0054 pw.x -in pw.inp   Done                     12/20/2018 11:39:53
00001 suncat0054 pw.x -in pw.inp   Done                     12/20/2018 11:39:53
00002 suncat0054 pw.x -in pw.inp   Done                     12/20/2018 11:39:53
00003 suncat0054 pw.x -in pw.inp   Done                     12/20/2018 11:39:53
00004 suncat0054 pw.x -in pw.inp   Done                     12/20/2018 11:39:53
00005 suncat0054 pw.x -in pw.inp   Done                     12/20/2018 11:39:53
00006 suncat0054 pw.x -in pw.inp   Done                     12/20/2018 11:39:53
00007 suncat0054 pw.x -in pw.inp   Done                     12/20/2018 11:39:53
00008 suncat0053 pw.x -in pw.inp   Done                     12/20/2018 11:39:53
00009 suncat0053 pw.x -in pw.inp   Done                     12/20/2018 11:39:53
00010 suncat0053 pw.x -in pw.inp   Done                     12/20/2018 11:39:53
00011 suncat0053 pw.x -in pw.inp   Done                     12/20/2018 11:39:53
00012 suncat0053 pw.x -in pw.inp   Done                     12/20/2018 11:39:53
00013 suncat0053 pw.x -in pw.inp   Done                     12/20/2018 11:39:53
00014 suncat0053 pw.x -in pw.inp   Done                     12/20/2018 11:39:53
00015 suncat0053 pw.x -in pw.inp   Done                     12/20/2018 11:39:53
00016 suncat0040 pw.x -in pw.inp   Done                     12/20/2018 11:39:53
00017 suncat0040 pw.x -in pw.inp   Done                     12/20/2018 11:39:53
00018 suncat0040 pw.x -in pw.inp   Done                     12/20/2018 11:39:53
00019 suncat0040 pw.x -in pw.inp   Done                     12/20/2018 11:39:53
00020 suncat0040 pw.x -in pw.inp   Done                     12/20/2018 11:39:53
00021 suncat0040 pw.x -in pw.inp   Done                     12/20/2018 11:39:53
00022 suncat0040 pw.x -in pw.inp   Done                     12/20/2018 11:39:53
00023 suncat0040 pw.x -in pw.inp   Done                     12/20/2018 11:39:53
00024 suncat0039 pw.x -in pw.inp   Done                     12/20/2018 11:39:53
00025 suncat0039 pw.x -in pw.inp   Done                     12/20/2018 11:39:53
00026 suncat0039 pw.x -in pw.inp   Done                     12/20/2018 11:39:53
00027 suncat0039 pw.x -in pw.inp   Done                     12/20/2018 11:39:53
00028 suncat0039 pw.x -in pw.inp   Done                     12/20/2018 11:39:53
00029 suncat0039 pw.x -in pw.inp   Done                     12/20/2018 11:39:53
00030 suncat0039 pw.x -in pw.inp   Done                     12/20/2018 11:39:53
00031 suncat0039 pw.x -in pw.inp   Done                     12/20/2018 11:39:53
00032 suncat0267 pw.x -in pw.inp   Done                     12/20/2018 11:39:53
00033 suncat0267 pw.x -in pw.inp   Done                     12/20/2018 11:39:53
00034 suncat0267 pw.x -in pw.inp   Done                     12/20/2018 11:39:53
00035 suncat0267 pw.x -in pw.inp   Done                     12/20/2018 11:39:53
00036 suncat0267 pw.x -in pw.inp   Done                     12/20/2018 11:39:53
00037 suncat0267 pw.x -in pw.inp   Done                     12/20/2018 11:39:53
00038 suncat0267 pw.x -in pw.inp   Done                     12/20/2018 11:39:53
00039 suncat0267 pw.x -in pw.inp   Done                     12/20/2018 11:39:53
00040 suncat0266 pw.x -in pw.inp   Done                     12/20/2018 11:39:53
00041 suncat0266 pw.x -in pw.inp   Done                     12/20/2018 11:39:53
00042 suncat0266 pw.x -in pw.inp   Done                     12/20/2018 11:39:53
00043 suncat0266 pw.x -in pw.inp   Done                     12/20/2018 11:39:53
00044 suncat0266 pw.x -in pw.inp   Done                     12/20/2018 11:39:53
00045 suncat0266 pw.x -in pw.inp   Done                     12/20/2018 11:39:53
00046 suncat0266 pw.x -in pw.inp   Done                     12/20/2018 11:39:53
00047 suncat0266 pw.x -in pw.inp   Done                     12/20/2018 11:39:53
00048 suncat0264 pw.x -in pw.inp   Done                     12/20/2018 11:39:53
00049 suncat0264 pw.x -in pw.inp   Done                     12/20/2018 11:39:53
00050 suncat0264 pw.x -in pw.inp   Done                     12/20/2018 11:39:53
00051 suncat0264 pw.x -in pw.inp   Done                     12/20/2018 11:39:53
00052 suncat0264 pw.x -in pw.inp   Done                     12/20/2018 11:39:53
00053 suncat0264 pw.x -in pw.inp   Done                     12/20/2018 11:39:53
00054 suncat0264 pw.x -in pw.inp   Done                     12/20/2018 11:39:53
00055 suncat0264 pw.x -in pw.inp   Done                     12/20/2018 11:39:53
00056 suncat0262 pw.x -in pw.inp   Done                     12/20/2018 11:39:53
00057 suncat0262 pw.x -in pw.inp   Done                     12/20/2018 11:39:53
00058 suncat0262 pw.x -in pw.inp   Done                     12/20/2018 11:39:53
00059 suncat0262 pw.x -in pw.inp   Done                     12/20/2018 11:39:53
00060 suncat0262 pw.x -in pw.inp   Done                     12/20/2018 11:39:53
00061 suncat0262 pw.x -in pw.inp   Done                     12/20/2018 11:39:53
00062 suncat0262 pw.x -in pw.inp   Done                     12/20/2018 11:39:53
00063 suncat0262 pw.x -in pw.inp   Done                     12/20/2018 11:39:53