     Program PWSCF v.5.1rc2 (svn rev. 11289) starts on  1Jan2019 at 12:38:58

     Current dimensions of program PWSCF are:
     Max number of different atomic species (ntypx) = 10
     Max number of k-points (npk) =  40000
     Max angular momentum in pseudopotentials (lmaxx) =  3
     Presently stress not available with electric field

     IMPORTANT: XC functional enforced from input :
     Exchange-correlation      = BEEF-VDW ( 1  4 27 13 2)
     Any further DFT definition will be discarded
     Please, verify this is what you really want

     Subspace diagonalization in iterative solution of the eigenvalue problem:
     a serial algorithm will be used

     bravais-lattice index     =            0
     lattice parameter (alat)  =       1.8897  a.u.
     unit-cell volume          =    5934.0204 (a.u.)^3
     number of atoms/cell      =           12
     number of atomic types    =            2
     number of electrons       =       168.00
     number of Kohn-Sham states=          114
     kinetic-energy cutoff     =      36.7493  Ry
     charge density cutoff     =     367.4932  Ry
     convergence threshold     =      1.0E-06
     mixing beta               =       0.1000
     number of iterations used =           10  plain     mixing
     Exchange-correlation      = BEEF-VDW ( 1  4 27 13 2)
     nstep                     =           50

     celldm(1)=   1.889726  celldm(2)=   0.000000  celldm(3)=   0.000000
     celldm(4)=   0.000000  celldm(5)=   0.000000  celldm(6)=   0.000000

     crystal axes: (cart. coord. in units of alat)
               a(1) = (   6.349580   0.000000   0.000000 )
               a(2) = (  -3.174790   5.498898   0.000000 )
               a(3) = (   0.000000   0.000000  25.184410 )

     reciprocal axes: (cart. coord. in units 2 pi/alat)
               b(1) = (  0.157491  0.090927  0.000000 )
               b(2) = (  0.000000  0.181855  0.000000 )
               b(3) = (  0.000000  0.000000  0.039707 )

     PseudoPot. # 1 for Sn read from file:
     /afs/slac.stanford.edu/u/if/mamunm/psp/gbrv1.5pbe/Sn.UPF
     MD5 check sum: 469debedee59599fedebd795477fea03
     Pseudo is Ultrasoft + core correction, Zval = 14.0
     Generated by new atomic code, or converted to UPF format
     Using radial grid of  891 points,  6 beta functions with:
                l(1) =   0
                l(2) =   0
                l(3) =   1
                l(4) =   1
                l(5) =   2
                l(6) =   2
     Q(r) pseudized with  8 coefficients,  rinner =    1.350   1.350   1.350
                                                       1.350   1.350

     PseudoPot. # 2 for Mo read from file:
     /afs/slac.stanford.edu/u/if/mamunm/psp/gbrv1.5pbe/Mo.UPF
     MD5 check sum: 30c4dcd161f5d35cd49bb5239c51a633
     Pseudo is Ultrasoft + core correction, Zval = 14.0
     Generated by new atomic code, or converted to UPF format
     Using radial grid of  889 points,  6 beta functions with:
                l(1) =   0
                l(2) =   0
                l(3) =   1
                l(4) =   1
                l(5) =   2
                l(6) =   2
     Q(r) pseudized with  6 coefficients,  rinner =    1.000   1.000   1.000
                                                       1.000   1.000

     vdW kernel table read from file vdW_kernel_table
     MD5 check sum: 095c7af220d748ca6e76c0b4c6cfb241

     atomic species   valence    mass     pseudopotential
        Sn1           14.00   118.71000     Sn( 1.00)
        Mo1           14.00    95.95000     Mo( 1.00)

     No symmetry found

   Cartesian axes

     site n.     atom                  positions (alat units)
         1           Sn1 tau(   1) = (   0.0000000   0.0000000  10.0000000  )
         2           Sn1 tau(   2) = (  -1.5873950   2.7494488  10.0000000  )
         3           Sn1 tau(   3) = (   1.5873950   2.7494488  10.0000000  )
         4           Mo1 tau(   4) = (   3.1747901   0.0000000  10.0000000  )
         5           Sn1 tau(   5) = (   3.1747901   1.8329659  12.5922052  )
         6           Sn1 tau(   6) = (   1.5873950   4.5824147  12.5922052  )
         7           Sn1 tau(   7) = (  -1.5873950   4.5824147  12.5922052  )
         8           Mo1 tau(   8) = (   0.0000000   1.8329659  12.5922052  )
         9           Sn1 tau(   9) = (  -0.0000000   3.6659318  15.1844105  )
        10           Sn1 tau(  10) = (   1.5873950   0.9164829  15.1844105  )
        11           Sn1 tau(  11) = (   4.7621851   0.9164829  15.1844105  )
        12           Mo1 tau(  12) = (   3.1747901   3.6659318  15.1844105  )

     number of k points=    20  Fermi-Dirac smearing, width (Ry)=  0.0110
                       cart. coord. in units 2pi/alat
        k(    1) = (   0.0000000   0.0000000   0.0000000), wk =   0.0555556
        k(    2) = (   0.0000000   0.0303091   0.0000000), wk =   0.1111111
        k(    3) = (   0.0000000   0.0606182   0.0000000), wk =   0.1111111
        k(    4) = (   0.0000000  -0.0909273   0.0000000), wk =   0.0555556
        k(    5) = (   0.0262485   0.0151546   0.0000000), wk =   0.1111111
        k(    6) = (   0.0262485   0.0454637   0.0000000), wk =   0.1111111
        k(    7) = (   0.0262485   0.0757728   0.0000000), wk =   0.1111111
        k(    8) = (   0.0262485  -0.0757728   0.0000000), wk =   0.1111111
        k(    9) = (   0.0262485  -0.0454637   0.0000000), wk =   0.1111111
        k(   10) = (   0.0262485  -0.0151546   0.0000000), wk =   0.1111111
        k(   11) = (   0.0524969   0.0303091   0.0000000), wk =   0.1111111
        k(   12) = (   0.0524969   0.0606182   0.0000000), wk =   0.1111111
        k(   13) = (   0.0524969   0.0909273   0.0000000), wk =   0.1111111
        k(   14) = (   0.0524969  -0.0606182   0.0000000), wk =   0.1111111
        k(   15) = (   0.0524969  -0.0303091   0.0000000), wk =   0.1111111
        k(   16) = (   0.0524969  -0.0000000   0.0000000), wk =   0.1111111
        k(   17) = (  -0.0787454  -0.0454637   0.0000000), wk =   0.0555556
        k(   18) = (  -0.0787454  -0.0151546   0.0000000), wk =   0.1111111
        k(   19) = (  -0.0787454   0.0151546   0.0000000), wk =   0.1111111
        k(   20) = (  -0.0787454  -0.1363910   0.0000000), wk =   0.0555556

     Largest allocated arrays     est. size (Mb)     dimensions
     Largest temporary arrays     est. size (Mb)     dimensions

     Initial potential from superposition of free atoms
     Check: negative starting charge=   -0.003018

     starting charge  158.99640, renormalised to  168.00000

     negative rho (up, down):  3.189E-03 0.000E+00

     *
     * You are using vdW-DF for exchange-correlation in this calculation.
     * Please cite the following three references that made this development
     * possible:
     *
     *   M. Dion, H. Rydberg, E. Schroder, D. C. Langreth, and
     *   B. I. Lundqvist, Phys. Rev. Lett. 92, 246401 (2004).
     *
     *   T. Thonhauser, V. R. Cooper, S. Li, A. Puzder, P. Hyldgaard, and
     *   D. C. Langreth, Phys. Rev. B 76, 125112 (2007).
     *
     *   G. Roman-Perez and J. M. Soler, Phys. Rev. Lett. 103, 096102 (2009).
     *
     *
     * If you are using vdW-DF2, please also cite:
     *
     *   K. Lee, E. D. Murray, L. Kong, B. I. Lundqvist, and
     *   D. C. Langreth, Phys. Rev. B 82, 081101(R) (2010).
     *
     *
     * If you are calculating the stress with vdW-DF, please also cite:
     *
     *   R. Sabatini, E. Kucukbenli, B. Kolb, T. Thonhauser, and
     *   S. de Gironcoli, J. Phys.: Condens. Matter 24, 424209 (2012).
     *

     Carrying out vdW-DF run using the following parameters:

     Nqs =      20    Nr_points =    1024   r_max =   100.000
     q_mesh =
               0.00001000     0.04494208     0.09755937     0.15916263
               0.23128650     0.31572767     0.41458969     0.53033537
               0.66584808     0.82450364     1.01025438     1.22772762
               1.48234092     1.78043706     2.12944203     2.53805004
               3.01644009     3.57652955     4.23227104     5.00000000

     Gradients computed in reciprocal space

     Adding external electric field

     Computed dipole along edir(3) :
        Dipole               -0.0000 Ry au,         -0.0000 Debye
        Dipole field         -0.0000 Ry au

        Potential amp.        0.0000 Ry
        Total length         46.4018 bohr

     Starting wfc are  120 randomized atomic wfcs

     Self-consistent Calculation

     iteration #  1     ecut=    36.75 Ry     beta=0.10
     Davidson diagonalization with overlap
     ethr =  1.00E-02,  avg # of iterations =  8.3

[...]

     total energy              =   -1866.97309704 Ry
     Harris-Foulkes estimate   =   -1868.46866073 Ry
     estimated scf accuracy    <       8.97175379 Ry

[...]

     iteration # 10     ecut=    36.75 Ry     beta=0.10
     Davidson diagonalization with overlap
     c_bands:  1 eigenvalues not converged
     c_bands:  1 eigenvalues not converged
     ethr =  3.71E-06,  avg # of iterations =  7.7

[...]

     End of self-consistent calculation

          k = 0.0000 0.0000 0.0000 ( 22393 PWs)   bands (ev):

   -59.8832 -59.8831 -59.7672 -33.9575 -33.9575 -33.9574 -33.9574 -33.8785
   -33.8781 -33.8686 -33.8685 -33.7095 -20.9576 -20.9198 -20.9196 -20.9020
   -20.8168 -20.8166 -20.7996 -20.7971 -20.7773 -20.7771 -20.7632 -20.7543
   -20.7402 -20.7401 -20.7296 -20.7294 -20.7119 -20.7023 -20.7023 -20.6819
   -20.6816 -20.6777 -20.6369 -20.6369 -20.6146 -20.6077 -20.6077 -20.6046
   -20.6008 -20.5798 -20.5798 -20.5587 -20.5515 -20.5515 -20.5500 -20.5499
   -20.5451 -20.5451 -20.5414 -20.5414 -20.5182 -20.5182 -20.5147 -20.4492
   -20.4492  -9.7785  -8.3948  -6.6749  -5.7254  -5.7252  -4.9406  -4.9406
    -3.9698  -3.9698  -3.6668  -2.8842  -2.4402  -2.1954  -2.1954  -1.8434
    -0.8014  -0.8014  -0.6713  -0.6713  -0.3191   0.4861   0.4861   0.4929
     0.4929   1.0018   1.1912   1.2191   1.2191   1.5011   1.5011   1.5507
     1.5507   1.7887   2.0137   2.0138   2.2578   2.5741   3.4414   3.7411
     3.7411   4.0016   4.0016   4.4584   4.5305   4.5811   4.8461   5.1413
     5.7963   5.7964   5.8977   5.9538   5.9598   6.6852   6.6853   6.9325
     7.3562   7.6026

[...]

          k =-0.0787-0.0455 0.0000 ( 22324 PWs)   bands (ev):

[...]

     the Fermi energy is     1.2368 ev

!    total energy              =   -1865.70531858 Ry
     Harris-Foulkes estimate   =   -1865.70531785 Ry
     estimated scf accuracy    <       0.00000082 Ry

     The total energy is the sum of the following terms:

     one-electron contribution =  -11680.22090668 Ry
     hartree contribution      =    5886.60443718 Ry
     xc contribution           =    -460.58206281 Ry
     ewald contribution        =    4388.58408580 Ry
     electric field correction =       0.00000001 Ry
     smearing contrib. (-TS)   =      -0.09087208 Ry

     convergence has been achieved in  17 iterations

 BEEF-vdW xc energy contributions
           1 :   -403.561031061881
           2 :    369.463118644192
           3 :   -311.548479354636
           4 :    245.857218120934
           5 :   -187.727195132374
           6 :    146.394245940437
           7 :   -122.888401183742
           8 :    111.698886780081
[...]

     PseudoPot. # 1 for Sn read from file:
     /afs/slac.stanford.edu/u/if/mamunm/psp/gbrv1.5pbe/Sn.UPF
     MD5 check sum: 469debedee59599fedebd795477fea03
     Pseudo is Ultrasoft + core correction, Zval = 14.0
     Generated by new atomic code, or converted to UPF format
     Using radial grid of  891 points,  6 beta functions with:
                l(1) =   0
                l(2) =   0
                l(3) =   1
                l(4) =   1
                l(5) =   2
                l(6) =   2
     Q(r) pseudized with  8 coefficients,  rinner =    1.350   1.350   1.350
                                                       1.350   1.350

     PseudoPot. # 2 for Mo read from file:
     /afs/slac.stanford.edu/u/if/mamunm/psp/gbrv1.5pbe/Mo.UPF
     MD5 check sum: 30c4dcd161f5d35cd49bb5239c51a633
     Pseudo is Ultrasoft + core correction, Zval = 14.0
     Generated by new atomic code, or converted to UPF format
     Using radial grid of  889 points,  6 beta functions with:
                l(1) =   0
                l(2) =   0
                l(3) =   1
                l(4) =   1
                l(5) =   2
                l(6) =   2
     Q(r) pseudized with  6 coefficients,  rinner =    1.000   1.000   1.000
                                                       1.000   1.000

     vdW kernel table read from file vdW_kernel_table
     MD5 check sum: 095c7af220d748ca6e76c0b4c6cfb241

     atomic species   valence    mass     pseudopotential
        Sn1           14.00   118.71000     Sn( 1.00)
        Mo1           14.00    95.95000     Mo( 1.00)

     No symmetry found

   Cartesian axes

     site n.     atom                  positions (alat units)
         1           Sn1 tau(   1) = (   0.0000000   0.0000000  10.0000000  )
         2           Sn1 tau(   2) = (  -1.5873950   2.7494488  10.0000000  )
         3           Sn1 tau(   3) = (   1.5873950   2.7494488  10.0000000  )
         4           Mo1 tau(   4) = (   3.1747901   0.0000000  10.0000000  )
         5           Sn1 tau(   5) = (   3.1747901   1.8329659  12.5922052  )
         6           Sn1 tau(   6) = (   1.5873950   4.5824147  12.5922052  )
         7           Sn1 tau(   7) = (  -1.5873950   4.5824147  12.5922052  )
         8           Mo1 tau(   8) = (   0.0000000   1.8329659  12.5922052  )
         9           Sn1 tau(   9) = (  -0.0000327   3.6099359  15.3676294  )
        10           Sn1 tau(  10) = (   1.5387400   0.9445818  15.3674894  )
        11           Sn1 tau(  11) = (   4.8107346   0.9446617  15.3676345  )
        12           Mo1 tau(  12) = (   3.1747855   3.6658645  14.6335634  )

     number of k points=    20  Fermi-Dirac smearing, width (Ry)=  0.0110
                       cart. coord. in units 2pi/alat
        k(    1) = (   0.0000000   0.0000000   0.0000000), wk =   0.0555556
        k(    2) = (   0.0000000   0.0303091   0.0000000), wk =   0.1111111
        k(    3) = (   0.0000000   0.0606182   0.0000000), wk =   0.1111111
        k(    4) = (   0.0000000  -0.0909273   0.0000000), wk =   0.0555556
        k(    5) = (   0.0262485   0.0151546   0.0000000), wk =   0.1111111
        k(    6) = (   0.0262485   0.0454637   0.0000000), wk =   0.1111111
        k(    7) = (   0.0262485   0.0757728   0.0000000), wk =   0.1111111
        k(    8) = (   0.0262485  -0.0757728   0.0000000), wk =   0.1111111
        k(    9) = (   0.0262485  -0.0454637   0.0000000), wk =   0.1111111
        k(   10) = (   0.0262485  -0.0151546   0.0000000), wk =   0.1111111
        k(   11) = (   0.0524969   0.0303091   0.0000000), wk =   0.1111111
        k(   12) = (   0.0524969   0.0606182   0.0000000), wk =   0.1111111
        k(   13) = (   0.0524969   0.0909273   0.0000000), wk =   0.1111111
        k(   14) = (   0.0524969  -0.0606182   0.0000000), wk =   0.1111111
        k(   15) = (   0.0524969  -0.0303091   0.0000000), wk =   0.1111111
        k(   16) = (   0.0524969  -0.0000000   0.0000000), wk =   0.1111111
        k(   17) = (  -0.0787454  -0.0454637   0.0000000), wk =   0.0555556
        k(   18) = (  -0.0787454  -0.0151546   0.0000000), wk =   0.1111111
        k(   19) = (  -0.0787454   0.0151546   0.0000000), wk =   0.1111111
        k(   20) = (  -0.0787454  -0.1363910   0.0000000), wk =   0.0555556

     Largest allocated arrays     est. size (Mb)     dimensions
     Largest temporary arrays     est. size (Mb)     dimensions

     Initial potential from superposition of free atoms
     Check: negative starting charge=   -0.003208

     starting charge  158.99640, renormalised to  168.00000

[...]

     *
     * You are using vdW-DF for exchange-correlation in this calculation.
     * Please cite the following three references that made this development
     * possible:
     *
     *   M. Dion, H. Rydberg, E. Schroder, D. C. Langreth, and
     *   B. I. Lundqvist, Phys. Rev. Lett. 92, 246401 (2004).
     *
     *   T. Thonhauser, V. R. Cooper, S. Li, A. Puzder, P. Hyldgaard, and
     *   D. C. Langreth, Phys. Rev. B 76, 125112 (2007).
     *
     *   G. Roman-Perez and J. M. Soler, Phys. Rev. Lett. 103, 096102 (2009).
     *
     *
     * If you are using vdW-DF2, please also cite:
     *
     *   K. Lee, E. D. Murray, L. Kong, B. I. Lundqvist, and
     *   D. C. Langreth, Phys. Rev. B 82, 081101(R) (2010).
     *
     *
     * If you are calculating the stress with vdW-DF, please also cite:
     *
     *   R. Sabatini, E. Kucukbenli, B. Kolb, T. Thonhauser, and
     *   S. de Gironcoli, J. Phys.: Condens. Matter 24, 424209 (2012).
     *

     Carrying out vdW-DF run using the following parameters:

     Nqs =      20    Nr_points =    1024   r_max =   100.000
     q_mesh =
               0.00001000     0.04494208     0.09755937     0.15916263
               0.23128650     0.31572767     0.41458969     0.53033537
               0.66584808     0.82450364     1.01025438     1.22772762
               1.48234092     1.78043706     2.12944203     2.53805004
               3.01644009     3.57652955     4.23227104     5.00000000

     Gradients computed in reciprocal space

[...]

     Starting wfc are  120 randomized atomic wfcs

     Self-consistent Calculation

[...]

     total energy              =   -1865.75975652 Ry
     Harris-Foulkes estimate   =   -1865.75975656 Ry
     estimated scf accuracy    <       0.00000210 Ry

     iteration # 20     ecut=    36.75 Ry     beta=0.10
     Davidson diagonalization with overlap
     ethr =  1.25E-09,  avg # of iterations =  2.0

[...]

     negative rho (up, down):  2.569E-03 0.000E+00

     Adding external electric field

     Computed dipole along edir(3) :
        Dipole                0.0441 Ry au,          0.1121 Debye
        Dipole field          0.0001 Ry au

        Potential amp.       -0.0087 Ry
        Total length         46.4018 bohr

     End of self-consistent calculation

[...]

          k = 0.0525-0.0000 0.0000 ( 22347 PWs)   bands (ev):

[...]

          k =-0.0787-0.1364 0.0000 ( 22324 PWs)   bands (ev):

   -59.9675 -59.8281 -59.8267 -34.0284 -34.0280 -33.9814 -33.9274 -33.9273
   -33.9061 -33.9052 -33.8764 -33.8025 -20.9424 -20.8826 -20.8613 -20.8521
   -20.8428 -20.8251 -20.8213 -20.8148 -20.7745 -20.7560 -20.7554 -20.7487
   -20.7345 -20.7252 -20.7149 -20.7104 -20.6741 -20.6592 -20.6516 -20.6468
   -20.6378 -20.6339 -20.6202 -20.6108 -20.6038 -20.5977 -20.5959 -20.5916
   -20.5853 -20.5737 -20.5697 -20.5625 -20.5606 -20.5568 -20.5552 -20.5490
   -20.5449 -20.5373 -20.5366 -20.5297 -20.5273 -20.5218 -20.5115 -20.4875
   -20.4601  -8.6835  -8.2342  -7.1984  -6.8568  -6.1768  -6.0957  -5.4997
    -4.8135  -3.5780  -3.2967  -2.7184  -2.0412  -1.3334  -1.2227  -0.9948
    -0.9471  -0.8622  -0.2996  -0.1800   0.0455   0.1610   0.6938   0.8673
     0.9441   1.0160   1.0790   1.1987   1.2663   1.3318   1.6899   1.8578
     1.9238   2.0283   2.1564   2.5203   2.5209   2.9204   2.9920   3.1860
     3.5231   3.6775   3.9859   4.1211   4.1944   4.8438   4.8974   5.3959
     5.6263   5.7238   5.9582   5.9743   6.2873   6.4766   6.5366   6.6600
     6.6725   6.8604

     the Fermi energy is     1.2185 ev

!    total energy              =   -1865.75975722 Ry
     Harris-Foulkes estimate   =   -1865.75975645 Ry
     estimated scf accuracy    <       0.00000042 Ry

     The total energy is the sum of the following terms:

     one-electron contribution =  -11661.45035430 Ry
     hartree contribution      =    5877.16208500 Ry
     xc contribution           =    -460.63075211 Ry
     ewald contribution        =    4379.23957496 Ry
     electric field correction =       0.00000412 Ry
     smearing contrib. (-TS)   =      -0.08031489 Ry

     convergence has been achieved in  20 iterations

 BEEF-vdW xc energy contributions
           1 :   -403.654024723755
           2 :    369.560777692475
           3 :   -311.647673523025
           4 :    245.939273634454
           5 :   -187.762114522179
           6 :    146.358313809767
           7 :   -122.781691979849
           8 :    111.549226057378
           9 :   -104.779905822341
          10 :    96.4856496469419
          11 :   -84.9258506794353
          12 :    72.2049454308034
          13 :   -61.8779877655301
          14 :    56.2592025776168
          15 :   -55.0180902121963
          16 :    55.6416365607004
          17 :   -55.1851145608514
          18 :    52.0613967444954
          19 :   -46.7830379295202
          20 :    41.3347882210188
          21 :   -37.7303956801620
          22 :    36.7321132660786
          23 :   -37.5038524942462
          24 :    38.3015326021040
          25 :   -37.6553481487003
          26 :    35.2487363639145
          27 :   -31.9773433333828
          28 :    29.2361368729625
          29 :   -27.9683006679491
          30 :    28.1028416501983
          31 :   -36.6142234850657
          32 :   -26.9213949230644

     Forces acting on atoms (Ry/au):

     negative rho (up, down):  2.569E-03 0.000E+00
     atom    1 type  1   force =     0.00000180    0.01639547   -0.01311109
     atom    2 type  1   force =     0.01419152   -0.00820446   -0.01312590
     atom    3 type  1   force =    -0.01419861   -0.00820282   -0.01312510
     atom    4 type  2   force =     0.00000039    0.00000656    0.07134495
     atom    5 type  1   force =     0.00000335   -0.02909209   -0.01608997
     atom    6 type  1   force =    -0.02518287    0.01454356   -0.01608460
     atom    7 type  1   force =     0.02517966    0.01454457   -0.01608521
     atom    8 type  2   force =     0.00000066   -0.00000396    0.01537194
     atom    9 type  1   force =     0.00000761    0.00043150    0.00067797
     atom   10 type  1   force =     0.00037814   -0.00020468    0.00067680
     atom   11 type  1   force =    -0.00038226   -0.00020840    0.00066553
     atom   12 type  2   force =     0.00000061   -0.00000525   -0.00111531

     Total force =     0.099832     Total SCF correction =     0.002328

     entering subroutine stress ...

     negative rho (up, down):  2.569E-03 0.000E+00
          total   stress  (Ry/bohr**3)                   (kbar)     P=  -12.05
  -0.00010094   0.00000000   0.00000000        -14.85      0.00      0.00
   0.00000000  -0.00010095   0.00000000          0.00    -14.85      0.00
   0.00000000   0.00000000  -0.00004386          0.00      0.00     -6.45

 !ASE

     Writing output data file calc.save

     General routines

     Parallel routines

   This run was terminated on:  15:26:41   1Jan2019

   JOB DONE.
Job  /afs/slac/g/suncat/bin/suncat-tsmpirun -x LD_LIBRARY_PATH -wdir /scratch/qe649019_wdpBi pw.x -in pw.inp

TID   HOST_NAME   COMMAND_LINE            STATUS            TERMINATION_TIME
00000 suncat0074 pw.x -in pw.inp   Done                     01/01/2019 15:26:41
00001 suncat0074 pw.x -in pw.inp   Done                     01/01/2019 15:26:41
00002 suncat0074 pw.x -in pw.inp   Done                     01/01/2019 15:26:41
00003 suncat0074 pw.x -in pw.inp   Done                     01/01/2019 15:26:41
00004 suncat0074 pw.x -in pw.inp   Done                     01/01/2019 15:26:41
00005 suncat0074 pw.x -in pw.inp   Done                     01/01/2019 15:26:41
00006 suncat0074 pw.x -in pw.inp   Done                     01/01/2019 15:26:41
00007 suncat0074 pw.x -in pw.inp   Done                     01/01/2019 15:26:41
00008 suncat0073 pw.x -in pw.inp   Done                     01/01/2019 15:26:41
00009 suncat0073 pw.x -in pw.inp   Done                     01/01/2019 15:26:41
00010 suncat0073 pw.x -in pw.inp   Done                     01/01/2019 15:26:41
00011 suncat0073 pw.x -in pw.inp   Done                     01/01/2019 15:26:41
00012 suncat0073 pw.x -in pw.inp   Done                     01/01/2019 15:26:41
00013 suncat0073 pw.x -in pw.inp   Done                     01/01/2019 15:26:41
00014 suncat0073 pw.x -in pw.inp   Done                     01/01/2019 15:26:41
00015 suncat0073 pw.x -in pw.inp   Done                     01/01/2019 15:26:41
00016 suncat0068 pw.x -in pw.inp   Done                     01/01/2019 15:26:41
00017 suncat0068 pw.x -in pw.inp   Done                     01/01/2019 15:26:41
00018 suncat0068 pw.x -in pw.inp   Done                     01/01/2019 15:26:41
00019 suncat0068 pw.x -in pw.inp   Done                     01/01/2019 15:26:41
00020 suncat0068 pw.x -in pw.inp   Done                     01/01/2019 15:26:41
00021 suncat0068 pw.x -in pw.inp   Done                     01/01/2019 15:26:41
00022 suncat0068 pw.x -in pw.inp   Done                     01/01/2019 15:26:41
00023 suncat0068 pw.x -in pw.inp   Done                     01/01/2019 15:26:41
00024 suncat0065 pw.x -in pw.inp   Done                     01/01/2019 15:26:41
00025 suncat0065 pw.x -in pw.inp   Done                     01/01/2019 15:26:41
00026 suncat0065 pw.x -in pw.inp   Done                     01/01/2019 15:26:41
00027 suncat0065 pw.x -in pw.inp   Done                     01/01/2019 15:26:41
00028 suncat0065 pw.x -in pw.inp   Done                     01/01/2019 15:26:41
00029 suncat0065 pw.x -in pw.inp   Done                     01/01/2019 15:26:41
00030 suncat0065 pw.x -in pw.inp   Done                     01/01/2019 15:26:41
00031 suncat0065 pw.x -in pw.inp   Done                     01/01/2019 15:26:41
00032 suncat0064 pw.x -in pw.inp   Done                     01/01/2019 15:26:41
00033 suncat0064 pw.x -in pw.inp   Done                     01/01/2019 15:26:41
00034 suncat0064 pw.x -in pw.inp   Done                     01/01/2019 15:26:41
00035 suncat0064 pw.x -in pw.inp   Done                     01/01/2019 15:26:41
00036 suncat0064 pw.x -in pw.inp   Done                     01/01/2019 15:26:41
00037 suncat0064 pw.x -in pw.inp   Done                     01/01/2019 15:26:41
00038 suncat0064 pw.x -in pw.inp   Done                     01/01/2019 15:26:41
00039 suncat0064 pw.x -in pw.inp   Done                     01/01/2019 15:26:41
00040 suncat0059 pw.x -in pw.inp   Done                     01/01/2019 15:26:41
00041 suncat0059 pw.x -in pw.inp   Done                     01/01/2019 15:26:41
00042 suncat0059 pw.x -in pw.inp   Done                     01/01/2019 15:26:41
00043 suncat0059 pw.x -in pw.inp   Done                     01/01/2019 15:26:41
00044 suncat0059 pw.x -in pw.inp   Done                     01/01/2019 15:26:41
00045 suncat0059 pw.x -in pw.inp   Done                     01/01/2019 15:26:41
00046 suncat0059 pw.x -in pw.inp   Done                     01/01/2019 15:26:41
00047 suncat0059 pw.x -in pw.inp   Done                     01/01/2019 15:26:41
00048 suncat0169 pw.x -in pw.inp   Done                     01/01/2019 15:26:41
00049 suncat0169 pw.x -in pw.inp   Done                     01/01/2019 15:26:41
00050 suncat0169 pw.x -in pw.inp   Done                     01/01/2019 15:26:41
00051 suncat0169 pw.x -in pw.inp   Done                     01/01/2019 15:26:41
00052 suncat0169 pw.x -in pw.inp   Done                     01/01/2019 15:26:41
00053 suncat0169 pw.x -in pw.inp   Done                     01/01/2019 15:26:41
00054 suncat0169 pw.x -in pw.inp   Done                     01/01/2019 15:26:41
00055 suncat0169 pw.x -in pw.inp   Done                     01/01/2019 15:26:41
00056 suncat0168 pw.x -in pw.inp   Done                     01/01/2019 15:26:41
00057 suncat0168 pw.x -in pw.inp   Done                     01/01/2019 15:26:41
00058 suncat0168 pw.x -in pw.inp   Done                     01/01/2019 15:26:41
00059 suncat0168 pw.x -in pw.inp   Done                     01/01/2019 15:26:41
00060 suncat0168 pw.x -in pw.inp   Done                     01/01/2019 15:26:41
00061 suncat0168 pw.x -in pw.inp   Done                     01/01/2019 15:26:41
00062 suncat0168 pw.x -in pw.inp   Done                     01/01/2019 15:26:41
00063 suncat0168 pw.x -in pw.inp   Done                     01/01/2019 15:26:41