     Program PWSCF v.5.1rc2 (svn rev. 11289) starts on 25Dec2018 at 13:42:30

     Current dimensions of program PWSCF are:
     Max number of different atomic species (ntypx) = 10
     Max number of k-points (npk) =  40000
     Max angular momentum in pseudopotentials (lmaxx) =  3
     Presently stress not available with electric field

     IMPORTANT: XC functional enforced from input :
     Exchange-correlation      = BEEF-VDW ( 1  4 27 13 2)
     Any further DFT definition will be discarded
     Please, verify this is what you really want

     Subspace diagonalization in iterative solution of the eigenvalue problem:
     a serial algorithm will be used

     bravais-lattice index     =            0
     lattice parameter (alat)  =       1.8897  a.u.
     unit-cell volume          =    4192.1701 (a.u.)^3
     number of atoms/cell      =           12
     number of atomic types    =            2
     number of electrons       =       168.00
     number of Kohn-Sham states=          114
     kinetic-energy cutoff     =      36.7493  Ry
     charge density cutoff     =     367.4932  Ry
     convergence threshold     =      1.0E-06
     mixing beta               =       0.1000
     number of iterations used =           10  plain     mixing
     Exchange-correlation      = BEEF-VDW ( 1  4 27 13 2)
     nstep                     =           50

     celldm(1)=   1.889726  celldm(2)=   0.000000  celldm(3)=   0.000000
     celldm(4)=   0.000000  celldm(5)=   0.000000  celldm(6)=   0.000000

     crystal axes: (cart. coord. in units of alat)
               a(1) = (   5.419263   0.000000   0.000000 )
               a(2) = (  -2.709632   4.693219   0.000000 )
               a(3) = (   0.000000   0.000000  24.424810 )

     reciprocal axes: (cart. coord. in units 2 pi/alat)
               b(1) = (  0.184527  0.106537  0.000000 )
               b(2) = (  0.000000  0.213073  0.000000 )
               b(3) = (  0.000000  0.000000  0.040942 )

     PseudoPot. # 1 for Cr read from file:
     /afs/slac.stanford.edu/u/if/mamunm/psp/gbrv1.5pbe/Cr.UPF
     MD5 check sum: 0d52af634a40206e4dee301ad30da4bf
     Pseudo is Ultrasoft + core correction, Zval = 14.0
     Generated by new atomic code, or converted to UPF format
     Using radial grid of  857 points,  6 beta functions with:
                l(1) =   0
                l(2) =   0
                l(3) =   1
                l(4) =   1
                l(5) =   2
                l(6) =   2
     Q(r) pseudized with  8 coefficients,  rinner =    0.950   0.950   0.950
                                                       0.950   0.950

     PseudoPot. # 2 for Sn read from file:
     /afs/slac.stanford.edu/u/if/mamunm/psp/gbrv1.5pbe/Sn.UPF
     MD5 check sum: 469debedee59599fedebd795477fea03
     Pseudo is Ultrasoft + core correction, Zval = 14.0
     Generated by new atomic code, or converted to UPF format
     Using radial grid of  891 points,  6 beta functions with:
                l(1) =   0
                l(2) =   0
                l(3) =   1
                l(4) =   1
                l(5) =   2
                l(6) =   2
     Q(r) pseudized with  8 coefficients,  rinner =    1.350   1.350   1.350
                                                       1.350   1.350

     vdW kernel table read from file vdW_kernel_table
     MD5 check sum: 095c7af220d748ca6e76c0b4c6cfb241

     atomic species   valence    mass     pseudopotential
        Cr1           14.00    51.99610     Cr( 1.00)
        Sn1           14.00   118.71000     Sn( 1.00)

     No symmetry found

   Cartesian axes

     site n.     atom                  positions (alat units)
         1           Cr1 tau(   1) = (   0.0000000   0.0000000  10.0000000  )
         2           Cr1 tau(   2) = (  -1.3548158   2.3466097  10.0000000  )
         3           Cr1 tau(   3) = (   1.3548158   2.3466097  10.0000000  )
         4           Sn1 tau(   4) = (   2.7096315   0.0000000  10.0000000  )
         5           Cr1 tau(   5) = (   2.7096315   1.5644065  12.2124049  )
         6           Cr1 tau(   6) = (   1.3548158   3.9110162  12.2124049  )
         7           Cr1 tau(   7) = (  -1.3548158   3.9110162  12.2124049  )
         8           Sn1 tau(   8) = (   0.0000000   1.5644065  12.2124049  )
         9           Cr1 tau(   9) = (  -0.0000000   3.1288130  14.4248098  )
        10           Cr1 tau(  10) = (   1.3548158   0.7822032  14.4248098  )
        11           Cr1 tau(  11) = (   4.0644473   0.7822032  14.4248098  )
        12           Sn1 tau(  12) = (   2.7096315   3.1288130  14.4248098  )

     number of k points=    20  Fermi-Dirac smearing, width (Ry)=  0.0110
                       cart. coord. in units 2pi/alat
        k(    1) = (   0.0000000   0.0000000   0.0000000), wk =   0.0555556
        k(    2) = (   0.0000000   0.0355122   0.0000000), wk =   0.1111111
        k(    3) = (   0.0000000   0.0710244   0.0000000), wk =   0.1111111
        k(    4) = (   0.0000000  -0.1065367   0.0000000), wk =   0.0555556
        k(    5) = (   0.0307545   0.0177561   0.0000000), wk =   0.1111111
        k(    6) = (   0.0307545   0.0532683   0.0000000), wk =   0.1111111
        k(    7) = (   0.0307545   0.0887806   0.0000000), wk =   0.1111111
        k(    8) = (   0.0307545  -0.0887806   0.0000000), wk =   0.1111111
        k(    9) = (   0.0307545  -0.0532683   0.0000000), wk =   0.1111111
        k(   10) = (   0.0307545  -0.0177561   0.0000000), wk =   0.1111111
        k(   11) = (   0.0615090   0.0355122   0.0000000), wk =   0.1111111
        k(   12) = (   0.0615090   0.0710244   0.0000000), wk =   0.1111111
        k(   13) = (   0.0615090   0.1065367   0.0000000), wk =   0.1111111
        k(   14) = (   0.0615090  -0.0710244   0.0000000), wk =   0.1111111
        k(   15) = (   0.0615090  -0.0355122   0.0000000), wk =   0.1111111
        k(   16) = (   0.0615090  -0.0000000   0.0000000), wk =   0.1111111
        k(   17) = (  -0.0922635  -0.0532683   0.0000000), wk =   0.0555556
        k(   18) = (  -0.0922635  -0.0177561   0.0000000), wk =   0.1111111
        k(   19) = (  -0.0922635   0.0177561   0.0000000), wk =   0.1111111
        k(   20) = (  -0.0922635  -0.1598050   0.0000000), wk =   0.0555556

     Largest allocated arrays     est. size (Mb)     dimensions
     Largest temporary arrays     est. size (Mb)     dimensions

     Check: negative/imaginary core charge=   -0.000003    0.000000

     Initial potential from superposition of free atoms
     Check: negative starting charge=   -0.012297

     starting charge  155.99973, renormalised to  168.00000

     negative rho (up, down):  1.324E-02 0.000E+00

     *
     * You are using vdW-DF for exchange-correlation in this calculation.
     * Please cite the following three references that made this development
     * possible:
     *
     *   M. Dion, H. Rydberg, E. Schroder, D. C. Langreth, and
     *   B. I. Lundqvist, Phys. Rev. Lett. 92, 246401 (2004).
     *
     *   T. Thonhauser, V. R. Cooper, S. Li, A. Puzder, P. Hyldgaard, and
     *   D. C. Langreth, Phys. Rev. B 76, 125112 (2007).
     *
     *   G. Roman-Perez and J. M. Soler, Phys. Rev. Lett. 103, 096102 (2009).
     *
     *
     * If you are using vdW-DF2, please also cite:
     *
     *   K. Lee, E. D. Murray, L. Kong, B. I. Lundqvist, and
     *   D. C. Langreth, Phys. Rev. B 82, 081101(R) (2010).
     *
     *
     * If you are calculating the stress with vdW-DF, please also cite:
     *
     *   R. Sabatini, E. Kucukbenli, B. Kolb, T. Thonhauser, and
     *   S. de Gironcoli, J. Phys.: Condens. Matter 24, 424209 (2012).
     *

     Carrying out vdW-DF run using the following parameters:

     Nqs =      20    Nr_points =    1024   r_max =   100.000
     q_mesh =
               0.00001000     0.04494208     0.09755937     0.15916263
               0.23128650     0.31572767     0.41458969     0.53033537
               0.66584808     0.82450364     1.01025438     1.22772762
               1.48234092     1.78043706     2.12944203     2.53805004
               3.01644009     3.57652955     4.23227104     5.00000000

     Gradients computed in reciprocal space

     Adding external electric field

     Computed dipole along edir(3) :
        Dipole               -0.0000 Ry au,         -0.0000 Debye
        Dipole field         -0.0000 Ry au

        Potential amp.        0.0000 Ry
        Total length         45.0023 bohr

     Starting wfc are  117 randomized atomic wfcs

     Self-consistent Calculation

     iteration #  1     ecut=    36.75 Ry     beta=0.10
     Davidson diagonalization with overlap
     ethr =  1.00E-02,  avg # of iterations =  8.4

[...]

     total energy              =   -2069.11406709 Ry
     Harris-Foulkes estimate   =   -2075.28255281 Ry
     estimated scf accuracy    <      36.71912737 Ry

[...]

     End of self-consistent calculation

          k = 0.0000 0.0000 0.0000 ( 15665 PWs)   bands (ev):

   -70.6137 -70.5682 -70.5682 -70.4451 -70.4425 -70.4019 -70.4019 -70.4013
   -70.4013 -42.0892 -42.0276 -42.0275 -41.9658 -41.9251 -41.9250 -41.8547
   -41.8522 -41.8504 -41.8339 -41.8339 -41.7936 -41.7936 -41.7780 -41.7603
   -41.7603 -41.7415 -41.7415 -41.7077 -41.7077 -41.6921 -41.6791 -41.6700
   -41.5109 -41.5109 -41.5089 -41.5089 -20.4196 -20.4196 -20.4143 -20.3895
   -20.3895 -20.0512 -20.0449 -20.0163 -20.0163 -20.0093 -20.0093 -19.9995
   -19.9995 -19.9988 -19.9988  -8.8248  -7.1789  -6.4190  -2.5168  -2.4536
    -2.1526  -1.9473  -1.9473  -1.8688  -1.8688  -1.0810  -1.0810  -1.0797
    -0.9280  -0.7988  -0.7988  -0.3838  -0.3838  -0.1247  -0.0307   0.1947
     0.3517   0.3517   0.4335   0.4335   0.4801   0.4801   0.5395   0.5395
     0.8062   0.8991   1.1711   1.5473   1.5473   1.7198   1.7198   1.7500
     1.8602   1.8602   2.0259   2.0259   2.1330   2.1330   2.1467   2.3593
     2.3593   2.4382   2.6180   2.6900   2.6900   2.8113   2.9756   3.0725
     3.0725   3.1937   3.2273   3.3506   3.3506   4.3243   4.5016   5.1731
     5.4544   5.5557

[...]

          k =-0.0923-0.0533 0.0000 ( 15792 PWs)   bands (ev):

[...]

     the Fermi energy is     1.2317 ev

!    total energy              =   -2068.13016812 Ry
     Harris-Foulkes estimate   =   -2068.13016823 Ry
     estimated scf accuracy    <       0.00000034 Ry

     The total energy is the sum of the following terms:

     one-electron contribution =  -17089.22638524 Ry
     hartree contribution      =    8554.90156517 Ry
     xc contribution           =    -343.25776302 Ry
     ewald contribution        =    6809.55468438 Ry
     electric field correction =       0.00000002 Ry
     smearing contrib. (-TS)   =      -0.10226944 Ry

     convergence has been achieved in  31 iterations

 BEEF-vdW xc energy contributions
           1 :   -299.003711158134
           2 :    271.183600079702
           3 :   -224.506717386512
           4 :    172.690831199804
           5 :   -128.301438138909
           6 :    98.1655619151988
           7 :   -82.0895491585829
           8 :    74.9303239526463
           9 :   -70.4016495338631
          10 :    64.3942005083467
          11 :   -56.2703369393155
          12 :    47.9546580924028
          13 :   -41.8513540657430
[...]
     /afs/slac.stanford.edu/u/if/mamunm/psp/gbrv1.5pbe/Cr.UPF
     MD5 check sum: 0d52af634a40206e4dee301ad30da4bf
     Pseudo is Ultrasoft + core correction, Zval = 14.0
     Generated by new atomic code, or converted to UPF format
     Using radial grid of  857 points,  6 beta functions with:
                l(1) =   0
                l(2) =   0
                l(3) =   1
                l(4) =   1
                l(5) =   2
                l(6) =   2
     Q(r) pseudized with  8 coefficients,  rinner =    0.950   0.950   0.950
                                                       0.950   0.950

     PseudoPot. # 2 for Sn read from file:
     /afs/slac.stanford.edu/u/if/mamunm/psp/gbrv1.5pbe/Sn.UPF
     MD5 check sum: 469debedee59599fedebd795477fea03
     Pseudo is Ultrasoft + core correction, Zval = 14.0
     Generated by new atomic code, or converted to UPF format
     Using radial grid of  891 points,  6 beta functions with:
                l(1) =   0
                l(2) =   0
                l(3) =   1
                l(4) =   1
                l(5) =   2
                l(6) =   2
     Q(r) pseudized with  8 coefficients,  rinner =    1.350   1.350   1.350
                                                       1.350   1.350

     vdW kernel table read from file vdW_kernel_table
     MD5 check sum: 095c7af220d748ca6e76c0b4c6cfb241

     atomic species   valence    mass     pseudopotential
        Cr1           14.00    51.99610     Cr( 1.00)
        Sn1           14.00   118.71000     Sn( 1.00)

     No symmetry found

   Cartesian axes

     site n.     atom                  positions (alat units)
         1           Cr1 tau(   1) = (   0.0000000   0.0000000  10.0000000  )
         2           Cr1 tau(   2) = (  -1.3548158   2.3466097  10.0000000  )
         3           Cr1 tau(   3) = (   1.3548158   2.3466097  10.0000000  )
         4           Sn1 tau(   4) = (   2.7096315   0.0000000  10.0000000  )
         5           Cr1 tau(   5) = (   2.7096315   1.5644065  12.2124049  )
         6           Cr1 tau(   6) = (   1.3548158   3.9110162  12.2124049  )
         7           Cr1 tau(   7) = (  -1.3548158   3.9110162  12.2124049  )
         8           Sn1 tau(   8) = (   0.0000000   1.5644065  12.2124049  )
         9           Cr1 tau(   9) = (   0.0000365   3.4002778  14.2638684  )
        10           Cr1 tau(  10) = (   1.5899280   0.6465057  14.2638810  )
        11           Cr1 tau(  11) = (   3.8292999   0.6464462  14.2638637  )
        12           Sn1 tau(  12) = (   2.7096353   3.1287775  14.7908961  )

     number of k points=    20  Fermi-Dirac smearing, width (Ry)=  0.0110
                       cart. coord. in units 2pi/alat
        k(    1) = (   0.0000000   0.0000000   0.0000000), wk =   0.0555556
        k(    2) = (   0.0000000   0.0355122   0.0000000), wk =   0.1111111
        k(    3) = (   0.0000000   0.0710244   0.0000000), wk =   0.1111111
        k(    4) = (   0.0000000  -0.1065367   0.0000000), wk =   0.0555556
        k(    5) = (   0.0307545   0.0177561   0.0000000), wk =   0.1111111
        k(    6) = (   0.0307545   0.0532683   0.0000000), wk =   0.1111111
        k(    7) = (   0.0307545   0.0887806   0.0000000), wk =   0.1111111
        k(    8) = (   0.0307545  -0.0887806   0.0000000), wk =   0.1111111
        k(    9) = (   0.0307545  -0.0532683   0.0000000), wk =   0.1111111
        k(   10) = (   0.0307545  -0.0177561   0.0000000), wk =   0.1111111
        k(   11) = (   0.0615090   0.0355122   0.0000000), wk =   0.1111111
        k(   12) = (   0.0615090   0.0710244   0.0000000), wk =   0.1111111
        k(   13) = (   0.0615090   0.1065367   0.0000000), wk =   0.1111111
        k(   14) = (   0.0615090  -0.0710244   0.0000000), wk =   0.1111111
        k(   15) = (   0.0615090  -0.0355122   0.0000000), wk =   0.1111111
        k(   16) = (   0.0615090  -0.0000000   0.0000000), wk =   0.1111111
        k(   17) = (  -0.0922635  -0.0532683   0.0000000), wk =   0.0555556
        k(   18) = (  -0.0922635  -0.0177561   0.0000000), wk =   0.1111111
        k(   19) = (  -0.0922635   0.0177561   0.0000000), wk =   0.1111111
        k(   20) = (  -0.0922635  -0.1598050   0.0000000), wk =   0.0555556

     Largest allocated arrays     est. size (Mb)     dimensions
     Largest temporary arrays     est. size (Mb)     dimensions

     Check: negative/imaginary core charge=   -0.000003    0.000000

     Initial potential from superposition of free atoms
     Check: negative starting charge=   -0.011135

     starting charge  155.99973, renormalised to  168.00000

[...]

     *
     * You are using vdW-DF for exchange-correlation in this calculation.
     * Please cite the following three references that made this development
     * possible:
     *
     *   M. Dion, H. Rydberg, E. Schroder, D. C. Langreth, and
     *   B. I. Lundqvist, Phys. Rev. Lett. 92, 246401 (2004).
     *
     *   T. Thonhauser, V. R. Cooper, S. Li, A. Puzder, P. Hyldgaard, and
     *   D. C. Langreth, Phys. Rev. B 76, 125112 (2007).
     *
     *   G. Roman-Perez and J. M. Soler, Phys. Rev. Lett. 103, 096102 (2009).
     *
     *
     * If you are using vdW-DF2, please also cite:
     *
     *   K. Lee, E. D. Murray, L. Kong, B. I. Lundqvist, and
     *   D. C. Langreth, Phys. Rev. B 82, 081101(R) (2010).
     *
     *
     * If you are calculating the stress with vdW-DF, please also cite:
     *
     *   R. Sabatini, E. Kucukbenli, B. Kolb, T. Thonhauser, and
     *   S. de Gironcoli, J. Phys.: Condens. Matter 24, 424209 (2012).
     *

     Carrying out vdW-DF run using the following parameters:

     Nqs =      20    Nr_points =    1024   r_max =   100.000
     q_mesh =
               0.00001000     0.04494208     0.09755937     0.15916263
               0.23128650     0.31572767     0.41458969     0.53033537
               0.66584808     0.82450364     1.01025438     1.22772762
               1.48234092     1.78043706     2.12944203     2.53805004
               3.01644009     3.57652955     4.23227104     5.00000000

     Gradients computed in reciprocal space

[...]

     Starting wfc are  117 randomized atomic wfcs

     Self-consistent Calculation

[...]

     total energy              =   -2068.22147483 Ry
     Harris-Foulkes estimate   =   -2068.22147511 Ry
     estimated scf accuracy    <       0.00000137 Ry

     iteration # 28     ecut=    36.75 Ry     beta=0.10
     Davidson diagonalization with overlap
     ethr =  7.98E-10,  avg # of iterations =  1.4

[...]

     negative rho (up, down):  1.012E-02 0.000E+00

     Adding external electric field

     Computed dipole along edir(3) :
        Dipole                0.0585 Ry au,          0.1488 Debye
        Dipole field          0.0002 Ry au

        Potential amp.       -0.0158 Ry
        Total length         45.0023 bohr

     End of self-consistent calculation

[...]

          k = 0.0615-0.0000 0.0000 ( 15756 PWs)   bands (ev):

[...]

          k =-0.0923-0.1598 0.0000 ( 15792 PWs)   bands (ev):

   -70.5294 -70.4988 -70.4796 -70.4512 -70.3460 -70.3320 -70.3179 -70.2920
   -70.2894 -42.2158 -42.0134 -41.9864 -41.9831 -41.9440 -41.8834 -41.8543
   -41.8374 -41.8032 -41.7837 -41.7548 -41.7540 -41.7074 -41.6854 -41.6789
   -41.6720 -41.6540 -41.6462 -41.6182 -41.5959 -41.5796 -41.5783 -41.5238
   -41.4503 -41.4281 -41.2934 -41.2694 -20.3549 -20.3465 -20.3419 -20.3233
   -20.3224 -20.0965 -20.0584 -20.0566 -20.0143 -20.0092 -19.9597 -19.9267
   -19.9262 -19.9114 -19.9036  -7.5528  -6.7837  -6.1979  -3.9773  -3.0655
    -2.9959  -2.7588  -1.9237  -1.5586  -1.5266  -1.3219  -1.2199  -1.2135
    -0.9532  -0.7530  -0.5050  -0.3478  -0.3126  -0.2120  -0.1461  -0.0961
     0.0238   0.1646   0.2248   0.3340   0.5222   0.6099   0.6600   0.7261
     0.7746   0.9450   1.0582   1.1340   1.4238   1.5615   1.5953   1.6427
     1.7195   1.8121   1.8529   1.8997   2.0571   2.1108   2.1624   2.2239
     2.2767   2.5191   2.5701   2.6598   2.8088   2.8511   3.1993   3.3338
     3.5615   3.8793   4.0114   4.3656   4.6835   4.7476   5.9190   6.2632
     6.5678   6.8353

     the Fermi energy is     1.3229 ev

!    total energy              =   -2068.22147341 Ry
     Harris-Foulkes estimate   =   -2068.22147645 Ry
     estimated scf accuracy    <       0.00000066 Ry

     The total energy is the sum of the following terms:

     one-electron contribution =  -17169.41343775 Ry
     hartree contribution      =    8595.31867384 Ry
     xc contribution           =    -343.45462339 Ry
     ewald contribution        =    6849.41427673 Ry
     electric field correction =       0.00001027 Ry
     smearing contrib. (-TS)   =      -0.08637311 Ry

     convergence has been achieved in  28 iterations

 BEEF-vdW xc energy contributions
           1 :   -299.214589674187
           2 :    271.439921001132
           3 :   -224.784074488694
           4 :    172.876869488692
           5 :   -128.250975149470
           6 :    97.7942155292252
           7 :   -81.4403384052740
           8 :    74.1675022780450
           9 :   -69.7330844925012
          10 :    63.9633781631899
          11 :   -56.0766412026533
          12 :    47.8494579105724
          13 :   -41.6206256547957
          14 :    38.5216429831330
          15 :   -37.8926302479194
          16 :    37.9565147013909
          17 :   -37.0841506403916
          18 :    34.7558320511329
          19 :   -31.6699830499816
          20 :    29.0623437742669
          21 :   -27.7896151916996
          22 :    27.7986785715474
          23 :   -28.2701368771621
          24 :    28.2444614554579
          25 :   -27.2549610017927
          26 :    25.5552093906256
          27 :   -23.8539274390457
          28 :    22.7975186979256
          29 :   -22.5664569370279
          30 :    22.8213245520580
          31 :   -28.1592367520866
          32 :   -20.4047320925210

     Forces acting on atoms (Ry/au):

     negative rho (up, down):  1.012E-02 0.000E+00
     atom    1 type  1   force =     0.00000267   -0.02957821    0.02887502
     atom    2 type  1   force =    -0.02560591    0.01478130    0.02888125
     atom    3 type  1   force =     0.02560862    0.01478019    0.02888097
     atom    4 type  2   force =     0.00001775   -0.00000365   -0.08016828
     atom    5 type  1   force =     0.00000206    0.02640721   -0.00351071
     atom    6 type  1   force =     0.02287441   -0.01321137   -0.00351223
     atom    7 type  1   force =    -0.02286865   -0.01320983   -0.00350972
     atom    8 type  2   force =    -0.00001446    0.00003481    0.00524060
     atom    9 type  1   force =    -0.00001280   -0.00101483    0.00012123
     atom   10 type  1   force =    -0.00089801    0.00049358    0.00011297
     atom   11 type  1   force =     0.00089369    0.00050372    0.00012375
     atom   12 type  2   force =     0.00000063    0.00001707   -0.00153485

     Total force =     0.117110     Total SCF correction =     0.004965

     entering subroutine stress ...

     negative rho (up, down):  1.012E-02 0.000E+00
          total   stress  (Ry/bohr**3)                   (kbar)     P=  -14.49
  -0.00014062  -0.00000001   0.00000000        -20.69     -0.00      0.00
  -0.00000001  -0.00014061   0.00000000         -0.00    -20.68      0.00
   0.00000000   0.00000000  -0.00001429          0.00      0.00     -2.10

 !ASE

     Writing output data file calc.save

     General routines

     Parallel routines

   This run was terminated on:  17:42:52  25Dec2018

   JOB DONE.
Job  /afs/slac/g/suncat/bin/suncat-tsmpirun -x LD_LIBRARY_PATH -wdir /scratch/qe109535_u5FvN pw.x -in pw.inp

TID   HOST_NAME   COMMAND_LINE            STATUS            TERMINATION_TIME
00000 suncat0068 pw.x -in pw.inp   Done                     12/25/2018 17:42:52
00001 suncat0068 pw.x -in pw.inp   Done                     12/25/2018 17:42:52
00002 suncat0068 pw.x -in pw.inp   Done                     12/25/2018 17:42:52
00003 suncat0068 pw.x -in pw.inp   Done                     12/25/2018 17:42:52
00004 suncat0068 pw.x -in pw.inp   Done                     12/25/2018 17:42:52
00005 suncat0068 pw.x -in pw.inp   Done                     12/25/2018 17:42:52
00006 suncat0068 pw.x -in pw.inp   Done                     12/25/2018 17:42:52
00007 suncat0068 pw.x -in pw.inp   Done                     12/25/2018 17:42:52
00008 suncat0066 pw.x -in pw.inp   Done                     12/25/2018 17:42:52
00009 suncat0066 pw.x -in pw.inp   Done                     12/25/2018 17:42:52
00010 suncat0066 pw.x -in pw.inp   Done                     12/25/2018 17:42:52
00011 suncat0066 pw.x -in pw.inp   Done                     12/25/2018 17:42:52
00012 suncat0066 pw.x -in pw.inp   Done                     12/25/2018 17:42:52
00013 suncat0066 pw.x -in pw.inp   Done                     12/25/2018 17:42:52
00014 suncat0066 pw.x -in pw.inp   Done                     12/25/2018 17:42:52
00015 suncat0066 pw.x -in pw.inp   Done                     12/25/2018 17:42:52
00016 suncat0061 pw.x -in pw.inp   Done                     12/25/2018 17:42:52
00017 suncat0061 pw.x -in pw.inp   Done                     12/25/2018 17:42:52
00018 suncat0061 pw.x -in pw.inp   Done                     12/25/2018 17:42:52
00019 suncat0061 pw.x -in pw.inp   Done                     12/25/2018 17:42:52
00020 suncat0061 pw.x -in pw.inp   Done                     12/25/2018 17:42:52
00021 suncat0061 pw.x -in pw.inp   Done                     12/25/2018 17:42:52
00022 suncat0061 pw.x -in pw.inp   Done                     12/25/2018 17:42:52
00023 suncat0061 pw.x -in pw.inp   Done                     12/25/2018 17:42:52
00024 suncat0053 pw.x -in pw.inp   Done                     12/25/2018 17:42:52
00025 suncat0053 pw.x -in pw.inp   Done                     12/25/2018 17:42:52
00026 suncat0053 pw.x -in pw.inp   Done                     12/25/2018 17:42:52
00027 suncat0053 pw.x -in pw.inp   Done                     12/25/2018 17:42:52
00028 suncat0053 pw.x -in pw.inp   Done                     12/25/2018 17:42:52
00029 suncat0053 pw.x -in pw.inp   Done                     12/25/2018 17:42:52
00030 suncat0053 pw.x -in pw.inp   Done                     12/25/2018 17:42:52
00031 suncat0053 pw.x -in pw.inp   Done                     12/25/2018 17:42:52
00032 suncat0052 pw.x -in pw.inp   Done                     12/25/2018 17:42:52
00033 suncat0052 pw.x -in pw.inp   Done                     12/25/2018 17:42:52
00034 suncat0052 pw.x -in pw.inp   Done                     12/25/2018 17:42:52
00035 suncat0052 pw.x -in pw.inp   Done                     12/25/2018 17:42:52
00036 suncat0052 pw.x -in pw.inp   Done                     12/25/2018 17:42:52
00037 suncat0052 pw.x -in pw.inp   Done                     12/25/2018 17:42:52
00038 suncat0052 pw.x -in pw.inp   Done                     12/25/2018 17:42:52
00039 suncat0052 pw.x -in pw.inp   Done                     12/25/2018 17:42:52
00040 suncat0046 pw.x -in pw.inp   Done                     12/25/2018 17:42:52
00041 suncat0046 pw.x -in pw.inp   Done                     12/25/2018 17:42:52
00042 suncat0046 pw.x -in pw.inp   Done                     12/25/2018 17:42:52
00043 suncat0046 pw.x -in pw.inp   Done                     12/25/2018 17:42:52
00044 suncat0046 pw.x -in pw.inp   Done                     12/25/2018 17:42:52
00045 suncat0046 pw.x -in pw.inp   Done                     12/25/2018 17:42:52
00046 suncat0046 pw.x -in pw.inp   Done                     12/25/2018 17:42:52
00047 suncat0046 pw.x -in pw.inp   Done                     12/25/2018 17:42:52
00048 suncat0141 pw.x -in pw.inp   Done                     12/25/2018 17:42:52
00049 suncat0141 pw.x -in pw.inp   Done                     12/25/2018 17:42:52
00050 suncat0141 pw.x -in pw.inp   Done                     12/25/2018 17:42:52
00051 suncat0141 pw.x -in pw.inp   Done                     12/25/2018 17:42:52
00052 suncat0141 pw.x -in pw.inp   Done                     12/25/2018 17:42:52
00053 suncat0141 pw.x -in pw.inp   Done                     12/25/2018 17:42:52
00054 suncat0141 pw.x -in pw.inp   Done                     12/25/2018 17:42:52
00055 suncat0141 pw.x -in pw.inp   Done                     12/25/2018 17:42:52
00056 suncat0140 pw.x -in pw.inp   Done                     12/25/2018 17:42:52
00057 suncat0140 pw.x -in pw.inp   Done                     12/25/2018 17:42:52
00058 suncat0140 pw.x -in pw.inp   Done                     12/25/2018 17:42:52
00059 suncat0140 pw.x -in pw.inp   Done                     12/25/2018 17:42:52
00060 suncat0140 pw.x -in pw.inp   Done                     12/25/2018 17:42:52
00061 suncat0140 pw.x -in pw.inp   Done                     12/25/2018 17:42:52
00062 suncat0140 pw.x -in pw.inp   Done                     12/25/2018 17:42:52
00063 suncat0140 pw.x -in pw.inp   Done                     12/25/2018 17:42:52