     Program PWSCF v.5.1rc2 (svn rev. 11289) starts on  1Jan2019 at 15:54:29

     Current dimensions of program PWSCF are:
     Max number of different atomic species (ntypx) = 10
     Max number of k-points (npk) =  40000
     Max angular momentum in pseudopotentials (lmaxx) =  3
     Presently stress not available with electric field

     IMPORTANT: XC functional enforced from input :
     Exchange-correlation      = BEEF-VDW ( 1  4 27 13 2)
     Any further DFT definition will be discarded
     Please, verify this is what you really want

     Subspace diagonalization in iterative solution of the eigenvalue problem:
     a serial algorithm will be used

     bravais-lattice index     =            0
     lattice parameter (alat)  =       1.8897  a.u.
     unit-cell volume          =    4873.5693 (a.u.)^3
     number of atoms/cell      =           12
     number of atomic types    =            2
     number of electrons       =       159.00
     number of Kohn-Sham states=          109
     kinetic-energy cutoff     =      36.7493  Ry
     charge density cutoff     =     367.4932  Ry
     convergence threshold     =      1.0E-06
     mixing beta               =       0.1000
     number of iterations used =           10  plain     mixing
     Exchange-correlation      = BEEF-VDW ( 1  4 27 13 2)
     nstep                     =           50

     celldm(1)=   1.889726  celldm(2)=   0.000000  celldm(3)=   0.000000
     celldm(4)=   0.000000  celldm(5)=   0.000000  celldm(6)=   0.000000

     crystal axes: (cart. coord. in units of alat)
               a(1) = (   5.805732   0.000000   0.000000 )
               a(2) = (  -2.902866   5.027911   0.000000 )
               a(3) = (   0.000000   0.000000  24.740360 )

     reciprocal axes: (cart. coord. in units 2 pi/alat)
               b(1) = (  0.172244  0.099445  0.000000 )
               b(2) = (  0.000000  0.198890  0.000000 )
               b(3) = (  0.000000  0.000000  0.040420 )

     PseudoPot. # 1 for Ta read from file:
     /afs/slac.stanford.edu/u/if/mamunm/psp/gbrv1.5pbe/Ta.UPF
     MD5 check sum: f8bbe9446314a3b8ea5d9f3e3836c939
     Pseudo is Ultrasoft + core correction, Zval = 13.0
     Generated by new atomic code, or converted to UPF format
     Using radial grid of  921 points,  7 beta functions with:
                l(1) =   0
                l(2) =   0
                l(3) =   1
                l(4) =   1
                l(5) =   2
                l(6) =   2
                l(7) =   3
     Q(r) pseudized with  6 coefficients,  rinner =    1.300   1.300   1.300
                                                       1.300   1.300   1.300
                                                       1.300

     PseudoPot. # 2 for Cr read from file:
     /afs/slac.stanford.edu/u/if/mamunm/psp/gbrv1.5pbe/Cr.UPF
     MD5 check sum: 0d52af634a40206e4dee301ad30da4bf
     Pseudo is Ultrasoft + core correction, Zval = 14.0
     Generated by new atomic code, or converted to UPF format
     Using radial grid of  857 points,  6 beta functions with:
                l(1) =   0
                l(2) =   0
                l(3) =   1
                l(4) =   1
                l(5) =   2
                l(6) =   2
     Q(r) pseudized with  8 coefficients,  rinner =    0.950   0.950   0.950
                                                       0.950   0.950

     vdW kernel table read from file vdW_kernel_table
     MD5 check sum: 095c7af220d748ca6e76c0b4c6cfb241

     atomic species   valence    mass     pseudopotential
        Ta1           13.00   180.94788     Ta( 1.00)
        Cr1           14.00    51.99610     Cr( 1.00)

     No symmetry found

   Cartesian axes

     site n.     atom                  positions (alat units)
         1           Ta1 tau(   1) = (   0.0000000   0.0000000  10.0000000  )
         2           Ta1 tau(   2) = (  -1.4514329   2.5139555  10.0000000  )
         3           Ta1 tau(   3) = (   1.4514329   2.5139555  10.0000000  )
         4           Cr1 tau(   4) = (   2.9028658   0.0000000  10.0000000  )
         5           Ta1 tau(   5) = (   2.9028658   1.6759703  12.3701800  )
         6           Ta1 tau(   6) = (   1.4514329   4.1899258  12.3701800  )
         7           Ta1 tau(   7) = (  -1.4514329   4.1899258  12.3701800  )
         8           Cr1 tau(   8) = (   0.0000000   1.6759703  12.3701800  )
         9           Ta1 tau(   9) = (  -0.0000000   3.3519407  14.7403600  )
        10           Ta1 tau(  10) = (   1.4514329   0.8379852  14.7403600  )
        11           Ta1 tau(  11) = (   4.3542987   0.8379852  14.7403600  )
        12           Cr1 tau(  12) = (   2.9028658   3.3519407  14.7403600  )

     number of k points=    20  Fermi-Dirac smearing, width (Ry)=  0.0110
                       cart. coord. in units 2pi/alat
        k(    1) = (   0.0000000   0.0000000   0.0000000), wk =   0.0555556
        k(    2) = (   0.0000000   0.0331483   0.0000000), wk =   0.1111111
        k(    3) = (   0.0000000   0.0662966   0.0000000), wk =   0.1111111
        k(    4) = (   0.0000000  -0.0994449   0.0000000), wk =   0.0555556
        k(    5) = (   0.0287073   0.0165741   0.0000000), wk =   0.1111111
        k(    6) = (   0.0287073   0.0497224   0.0000000), wk =   0.1111111
        k(    7) = (   0.0287073   0.0828707   0.0000000), wk =   0.1111111
        k(    8) = (   0.0287073  -0.0828707   0.0000000), wk =   0.1111111
        k(    9) = (   0.0287073  -0.0497224   0.0000000), wk =   0.1111111
        k(   10) = (   0.0287073  -0.0165741   0.0000000), wk =   0.1111111
        k(   11) = (   0.0574145   0.0331483   0.0000000), wk =   0.1111111
        k(   12) = (   0.0574145   0.0662966   0.0000000), wk =   0.1111111
        k(   13) = (   0.0574145   0.0994449   0.0000000), wk =   0.1111111
        k(   14) = (   0.0574145  -0.0662966   0.0000000), wk =   0.1111111
        k(   15) = (   0.0574145  -0.0331483   0.0000000), wk =   0.1111111
        k(   16) = (   0.0574145   0.0000000   0.0000000), wk =   0.1111111
        k(   17) = (  -0.0861218  -0.0497224   0.0000000), wk =   0.0555556
        k(   18) = (  -0.0861218  -0.0165741   0.0000000), wk =   0.1111111
        k(   19) = (  -0.0861218   0.0165741   0.0000000), wk =   0.1111111
        k(   20) = (  -0.0861218  -0.1491673   0.0000000), wk =   0.0555556

     Largest allocated arrays     est. size (Mb)     dimensions
     Largest temporary arrays     est. size (Mb)     dimensions

     Initial potential from superposition of free atoms
     Check: negative starting charge=   -0.842466

     starting charge  155.98995, renormalised to  159.00000

     negative rho (up, down):  8.587E-01 0.000E+00

     *
     * You are using vdW-DF for exchange-correlation in this calculation.
     * Please cite the following three references that made this development
     * possible:
     *
     *   M. Dion, H. Rydberg, E. Schroder, D. C. Langreth, and
     *   B. I. Lundqvist, Phys. Rev. Lett. 92, 246401 (2004).
     *
     *   T. Thonhauser, V. R. Cooper, S. Li, A. Puzder, P. Hyldgaard, and
     *   D. C. Langreth, Phys. Rev. B 76, 125112 (2007).
     *
     *   G. Roman-Perez and J. M. Soler, Phys. Rev. Lett. 103, 096102 (2009).
     *
     *
     * If you are using vdW-DF2, please also cite:
     *
     *   K. Lee, E. D. Murray, L. Kong, B. I. Lundqvist, and
     *   D. C. Langreth, Phys. Rev. B 82, 081101(R) (2010).
     *
     *
     * If you are calculating the stress with vdW-DF, please also cite:
     *
     *   R. Sabatini, E. Kucukbenli, B. Kolb, T. Thonhauser, and
     *   S. de Gironcoli, J. Phys.: Condens. Matter 24, 424209 (2012).
     *

     Carrying out vdW-DF run using the following parameters:

     Nqs =      20    Nr_points =    1024   r_max =   100.000
     q_mesh =
               0.00001000     0.04494208     0.09755937     0.15916263
               0.23128650     0.31572767     0.41458969     0.53033537
               0.66584808     0.82450364     1.01025438     1.22772762
               1.48234092     1.78043706     2.12944203     2.53805004
               3.01644009     3.57652955     4.23227104     5.00000000

     Gradients computed in reciprocal space

     Adding external electric field

     Computed dipole along edir(3) :
        Dipole                0.0000 Ry au,          0.0000 Debye
        Dipole field          0.0000 Ry au

        Potential amp.       -0.0000 Ry
        Total length         45.5837 bohr

     Starting wfc are  147 randomized atomic wfcs

     Self-consistent Calculation

     iteration #  1     ecut=    36.75 Ry     beta=0.10
     Davidson diagonalization with overlap
     ethr =  1.00E-02,  avg # of iterations =  2.0

[...]

     total energy              =   -1813.88108164 Ry
     Harris-Foulkes estimate   =   -1819.43812027 Ry
     estimated scf accuracy    <      30.82108689 Ry

[...]

     End of self-consistent calculation

          k = 0.0000 0.0000 0.0000 ( 18367 PWs)   bands (ev):

   -69.9626 -69.7862 -69.7861 -66.5284 -66.5212 -66.4638 -66.4638 -66.4620
   -66.4619 -66.4120 -66.3575 -66.3574 -41.2588 -41.2588 -41.2163 -41.1398
   -41.1383 -41.0536 -41.0536 -41.0532 -41.0532 -33.4050 -33.2806 -33.2217
   -33.1294 -33.1294 -33.1211 -33.0739 -33.0738 -32.9877 -32.9877 -32.9721
   -32.8643 -32.8643 -32.7608 -32.7608 -32.6417 -32.5640 -32.5507 -32.5328
   -32.5327 -32.4362 -32.4120 -32.4119 -32.4069 -32.4069 -32.3684 -32.3683
    -5.5466  -3.9298  -2.8332  -2.4615  -2.1578  -2.0415  -2.0415  -1.7741
    -1.7741  -1.4747  -1.1796  -1.1472  -1.1471  -1.0514  -1.0514  -0.2506
     0.1551   0.1551   0.9950   1.1063   1.1909   1.1909   1.4377   1.4701
     1.6706   1.7471   1.7472   1.8139   1.8139   1.9708   1.9709   2.0192
     2.0192   2.1941   2.1941   2.2560   2.5852   2.5883   2.6560   2.6560
     2.9870   2.9870   3.3995   3.3996   3.5039   3.5039   3.6242   3.8419
     4.4112   4.8420   4.8420   5.1548   5.1548   5.4478   5.4478   5.5262
     5.7442   5.7443   5.7730   5.7827   5.7827

[...]

          k =-0.0861-0.0497 0.0000 ( 18280 PWs)   bands (ev):

[...]

     the Fermi energy is     1.7273 ev

!    total energy              =   -1817.31151943 Ry
     Harris-Foulkes estimate   =   -1817.31152132 Ry
     estimated scf accuracy    <       0.00000081 Ry

     The total energy is the sum of the following terms:

     one-electron contribution =  -12791.15132127 Ry
     hartree contribution      =    6379.79504443 Ry
     xc contribution           =    -461.68229666 Ry
     ewald contribution        =    5055.85671174 Ry
     electric field correction =       0.00000009 Ry
     smearing contrib. (-TS)   =      -0.12965775 Ry

     convergence has been achieved in  20 iterations

 BEEF-vdW xc energy contributions
           1 :   -405.314118337662
           2 :    372.784491578366
           3 :   -316.435365676594
           4 :    250.019623311537
           5 :   -187.058814117875
           6 :    136.462954893766
           7 :   -100.770623629322
           8 :    77.2914199111622
           9 :   -61.0422419291681
          10 :    47.7278268004767
          11 :   -35.3770996922497
          12 :    24.2354719013132
          13 :   -15.4971516424649
[...]
     /afs/slac.stanford.edu/u/if/mamunm/psp/gbrv1.5pbe/Ta.UPF
     MD5 check sum: f8bbe9446314a3b8ea5d9f3e3836c939
     Pseudo is Ultrasoft + core correction, Zval = 13.0
     Generated by new atomic code, or converted to UPF format
     Using radial grid of  921 points,  7 beta functions with:
                l(1) =   0
                l(2) =   0
                l(3) =   1
                l(4) =   1
                l(5) =   2
                l(6) =   2
                l(7) =   3
     Q(r) pseudized with  6 coefficients,  rinner =    1.300   1.300   1.300
                                                       1.300   1.300   1.300
                                                       1.300

     PseudoPot. # 2 for Cr read from file:
     /afs/slac.stanford.edu/u/if/mamunm/psp/gbrv1.5pbe/Cr.UPF
     MD5 check sum: 0d52af634a40206e4dee301ad30da4bf
     Pseudo is Ultrasoft + core correction, Zval = 14.0
     Generated by new atomic code, or converted to UPF format
     Using radial grid of  857 points,  6 beta functions with:
                l(1) =   0
                l(2) =   0
                l(3) =   1
                l(4) =   1
                l(5) =   2
                l(6) =   2
     Q(r) pseudized with  8 coefficients,  rinner =    0.950   0.950   0.950
                                                       0.950   0.950

     vdW kernel table read from file vdW_kernel_table
     MD5 check sum: 095c7af220d748ca6e76c0b4c6cfb241

     atomic species   valence    mass     pseudopotential
        Ta1           13.00   180.94788     Ta( 1.00)
        Cr1           14.00    51.99610     Cr( 1.00)

     No symmetry found

   Cartesian axes

     site n.     atom                  positions (alat units)
         1           Ta1 tau(   1) = (   0.0000000   0.0000000  10.0000000  )
         2           Ta1 tau(   2) = (  -1.4514329   2.5139555  10.0000000  )
         3           Ta1 tau(   3) = (   1.4514329   2.5139555  10.0000000  )
         4           Cr1 tau(   4) = (   2.9028658   0.0000000  10.0000000  )
         5           Ta1 tau(   5) = (   2.9028658   1.6759703  12.3701800  )
         6           Ta1 tau(   6) = (   1.4514329   4.1899258  12.3701800  )
         7           Ta1 tau(   7) = (  -1.4514329   4.1899258  12.3701800  )
         8           Cr1 tau(   8) = (   0.0000000   1.6759703  12.3701800  )
         9           Ta1 tau(   9) = (  -0.0000201   3.3116730  14.7558444  )
        10           Ta1 tau(  10) = (   1.4164830   0.8581642  14.7558436  )
        11           Ta1 tau(  11) = (   4.3892097   0.8581632  14.7558552  )
        12           Cr1 tau(  12) = (   2.9028566   3.3519581  14.3996994  )

     number of k points=    20  Fermi-Dirac smearing, width (Ry)=  0.0110
                       cart. coord. in units 2pi/alat
        k(    1) = (   0.0000000   0.0000000   0.0000000), wk =   0.0555556
        k(    2) = (   0.0000000   0.0331483   0.0000000), wk =   0.1111111
        k(    3) = (   0.0000000   0.0662966   0.0000000), wk =   0.1111111
        k(    4) = (   0.0000000  -0.0994449   0.0000000), wk =   0.0555556
        k(    5) = (   0.0287073   0.0165741   0.0000000), wk =   0.1111111
        k(    6) = (   0.0287073   0.0497224   0.0000000), wk =   0.1111111
        k(    7) = (   0.0287073   0.0828707   0.0000000), wk =   0.1111111
        k(    8) = (   0.0287073  -0.0828707   0.0000000), wk =   0.1111111
        k(    9) = (   0.0287073  -0.0497224   0.0000000), wk =   0.1111111
        k(   10) = (   0.0287073  -0.0165741   0.0000000), wk =   0.1111111
        k(   11) = (   0.0574145   0.0331483   0.0000000), wk =   0.1111111
        k(   12) = (   0.0574145   0.0662966   0.0000000), wk =   0.1111111
        k(   13) = (   0.0574145   0.0994449   0.0000000), wk =   0.1111111
        k(   14) = (   0.0574145  -0.0662966   0.0000000), wk =   0.1111111
        k(   15) = (   0.0574145  -0.0331483   0.0000000), wk =   0.1111111
        k(   16) = (   0.0574145   0.0000000   0.0000000), wk =   0.1111111
        k(   17) = (  -0.0861218  -0.0497224   0.0000000), wk =   0.0555556
        k(   18) = (  -0.0861218  -0.0165741   0.0000000), wk =   0.1111111
        k(   19) = (  -0.0861218   0.0165741   0.0000000), wk =   0.1111111
        k(   20) = (  -0.0861218  -0.1491673   0.0000000), wk =   0.0555556

     Largest allocated arrays     est. size (Mb)     dimensions
     Largest temporary arrays     est. size (Mb)     dimensions

     Initial potential from superposition of free atoms
     Check: negative starting charge=   -0.847082

     starting charge  155.98995, renormalised to  159.00000

[...]

     *
     * You are using vdW-DF for exchange-correlation in this calculation.
     * Please cite the following three references that made this development
     * possible:
     *
     *   M. Dion, H. Rydberg, E. Schroder, D. C. Langreth, and
     *   B. I. Lundqvist, Phys. Rev. Lett. 92, 246401 (2004).
     *
     *   T. Thonhauser, V. R. Cooper, S. Li, A. Puzder, P. Hyldgaard, and
     *   D. C. Langreth, Phys. Rev. B 76, 125112 (2007).
     *
     *   G. Roman-Perez and J. M. Soler, Phys. Rev. Lett. 103, 096102 (2009).
     *
     *
     * If you are using vdW-DF2, please also cite:
     *
     *   K. Lee, E. D. Murray, L. Kong, B. I. Lundqvist, and
     *   D. C. Langreth, Phys. Rev. B 82, 081101(R) (2010).
     *
     *
     * If you are calculating the stress with vdW-DF, please also cite:
     *
     *   R. Sabatini, E. Kucukbenli, B. Kolb, T. Thonhauser, and
     *   S. de Gironcoli, J. Phys.: Condens. Matter 24, 424209 (2012).
     *

     Carrying out vdW-DF run using the following parameters:

     Nqs =      20    Nr_points =    1024   r_max =   100.000
     q_mesh =
               0.00001000     0.04494208     0.09755937     0.15916263
               0.23128650     0.31572767     0.41458969     0.53033537
               0.66584808     0.82450364     1.01025438     1.22772762
               1.48234092     1.78043706     2.12944203     2.53805004
               3.01644009     3.57652955     4.23227104     5.00000000

     Gradients computed in reciprocal space

[...]

     Starting wfc are  147 randomized atomic wfcs

     Self-consistent Calculation

[...]

     total energy              =   -1817.32688545 Ry
     Harris-Foulkes estimate   =   -1817.32688789 Ry
     estimated scf accuracy    <       0.00000210 Ry

     iteration # 23     ecut=    36.75 Ry     beta=0.10
     Davidson diagonalization with overlap
     ethr =  1.32E-09,  avg # of iterations =  2.0

[...]

     negative rho (up, down):  8.860E-01 0.000E+00

     Adding external electric field

     Computed dipole along edir(3) :
        Dipole                0.0379 Ry au,          0.0963 Debye
        Dipole field          0.0001 Ry au

        Potential amp.       -0.0089 Ry
        Total length         45.5837 bohr

     End of self-consistent calculation

[...]

          k = 0.0574 0.0000 0.0000 ( 18335 PWs)   bands (ev):

[...]

          k =-0.0861-0.1492 0.0000 ( 18280 PWs)   bands (ev):

   -69.9333 -69.7260 -69.6791 -66.5011 -66.4749 -66.4563 -66.4403 -66.4199
   -66.3992 -66.3114 -66.2932 -66.2740 -41.2260 -41.2246 -41.1940 -41.0845
   -40.9950 -40.9909 -40.9892 -40.9883 -40.9872 -33.1533 -33.1492 -33.0742
   -33.0280 -32.9845 -32.9720 -32.9172 -32.9157 -32.8675 -32.8604 -32.8570
   -32.7938 -32.7832 -32.7276 -32.7265 -32.7108 -32.7072 -32.6740 -32.5992
   -32.5719 -32.5699 -32.4855 -32.4461 -32.4398 -32.4030 -32.3732 -32.3217
    -3.8235  -3.5688  -2.4003  -2.0658  -1.5030  -1.3421  -1.3205  -1.2210
    -1.0124  -0.9208  -0.5604  -0.1877  -0.1478  -0.0818   0.0125   0.1148
     0.3467   0.3600   0.4026   0.4486   0.5183   0.7940   0.8812   0.9381
     0.9884   1.1511   1.1884   1.2339   1.2688   1.4001   1.4374   1.5168
     1.5710   1.7888   1.8588   1.9113   2.1710   2.1770   2.3972   2.4728
     2.5937   2.8047   3.0038   3.1705   3.2607   3.3160   3.3241   3.4773
     3.6568   4.0490   4.0663   4.1719   4.3310   4.3444   4.7384   4.7472
     4.9221   5.0113   5.0989   5.1533   5.5231

     the Fermi energy is     1.7796 ev

!    total energy              =   -1817.32687767 Ry
     Harris-Foulkes estimate   =   -1817.32688539 Ry
     estimated scf accuracy    <       0.00000039 Ry

     The total energy is the sum of the following terms:

     one-electron contribution =  -12928.66137856 Ry
     hartree contribution      =    6448.84552569 Ry
     xc contribution           =    -461.80775238 Ry
     ewald contribution        =    5124.42021382 Ry
     electric field correction =       0.00000370 Ry
     smearing contrib. (-TS)   =      -0.12348995 Ry

     convergence has been achieved in  23 iterations

 BEEF-vdW xc energy contributions
           1 :   -405.662957777819
           2 :    373.169554970210
           3 :   -316.855371941795
           4 :    250.428257705199
           5 :   -187.392087542742
           6 :    136.681511641887
           7 :   -100.887891589683
           8 :    77.3693736906018
           9 :   -61.1573055570938
          10 :    47.9276076874880
          11 :   -35.6536923693951
          12 :    24.5310904649847
          13 :   -15.7394571950382
          14 :    10.0564224432014
          15 :   -7.14650446296400
          16 :    5.76120211928048
          17 :   -4.51714858150433
          18 :    2.66073027190237
          19 :  -0.354489047868640
          20 :   -1.61945896012594
          21 :    2.48492197889897
          22 :   -2.01408298142860
          23 :   0.672264366224795
          24 :   0.677223085822220
          25 :   -1.28370224835140
          26 :   0.906593210320011
          27 :   0.120806345251935
          28 :   -1.15715858256169
          29 :    1.65092339909415
          30 :   -1.42485705493601
          31 :   -36.7202977895727
          32 :   -27.1121921568663

     Forces acting on atoms (Ry/au):

     negative rho (up, down):  8.860E-01 0.000E+00
     atom    1 type  1   force =     0.00000229    0.02033176    0.00017354
     atom    2 type  1   force =     0.01760916   -0.01016460    0.00017374
     atom    3 type  1   force =    -0.01760886   -0.01016661    0.00017327
     atom    4 type  2   force =     0.00000077    0.00000033    0.02352416
     atom    5 type  1   force =     0.00000104   -0.01257872   -0.00726122
     atom    6 type  1   force =    -0.01089380    0.00628783   -0.00726296
     atom    7 type  1   force =     0.01089396    0.00628592   -0.00726405
     atom    8 type  2   force =     0.00000149   -0.00000197   -0.00100941
     atom    9 type  1   force =    -0.00000121    0.00051643    0.00001936
     atom   10 type  1   force =     0.00044880   -0.00025486    0.00001384
     atom   11 type  1   force =    -0.00045273   -0.00025564    0.00001514
     atom   12 type  2   force =    -0.00000091    0.00000013   -0.00129541

     Total force =     0.049296     Total SCF correction =     0.000960

     entering subroutine stress ...

     negative rho (up, down):  8.860E-01 0.000E+00
          total   stress  (Ry/bohr**3)                   (kbar)     P=  -28.67
  -0.00026081  -0.00000000  -0.00000001        -38.37     -0.00     -0.00
  -0.00000000  -0.00026081   0.00000001         -0.00    -38.37      0.00
  -0.00000001   0.00000001  -0.00006312         -0.00      0.00     -9.29

 !ASE

     Writing output data file calc.save

     General routines

     Parallel routines

   This run was terminated on:  17:13: 8   1Jan2019

   JOB DONE.
Job  /afs/slac/g/suncat/bin/suncat-tsmpirun -x LD_LIBRARY_PATH -wdir /scratch/qe649087_Fimdb pw.x -in pw.inp

TID   HOST_NAME   COMMAND_LINE            STATUS            TERMINATION_TIME
00000 suncat0031 pw.x -in pw.inp   Done                     01/01/2019 17:13:08
00001 suncat0031 pw.x -in pw.inp   Done                     01/01/2019 17:13:08
00002 suncat0031 pw.x -in pw.inp   Done                     01/01/2019 17:13:08
00003 suncat0031 pw.x -in pw.inp   Done                     01/01/2019 17:13:08
00004 suncat0031 pw.x -in pw.inp   Done                     01/01/2019 17:13:08
00005 suncat0031 pw.x -in pw.inp   Done                     01/01/2019 17:13:08
00006 suncat0031 pw.x -in pw.inp   Done                     01/01/2019 17:13:08
00007 suncat0031 pw.x -in pw.inp   Done                     01/01/2019 17:13:08
00008 suncat0030 pw.x -in pw.inp   Done                     01/01/2019 17:13:08
00009 suncat0030 pw.x -in pw.inp   Done                     01/01/2019 17:13:08
00010 suncat0030 pw.x -in pw.inp   Done                     01/01/2019 17:13:08
00011 suncat0030 pw.x -in pw.inp   Done                     01/01/2019 17:13:08
00012 suncat0030 pw.x -in pw.inp   Done                     01/01/2019 17:13:08
00013 suncat0030 pw.x -in pw.inp   Done                     01/01/2019 17:13:08
00014 suncat0030 pw.x -in pw.inp   Done                     01/01/2019 17:13:08
00015 suncat0030 pw.x -in pw.inp   Done                     01/01/2019 17:13:08
00016 suncat0132 pw.x -in pw.inp   Done                     01/01/2019 17:13:08
00017 suncat0132 pw.x -in pw.inp   Done                     01/01/2019 17:13:08
00018 suncat0132 pw.x -in pw.inp   Done                     01/01/2019 17:13:08
00019 suncat0132 pw.x -in pw.inp   Done                     01/01/2019 17:13:08
00020 suncat0132 pw.x -in pw.inp   Done                     01/01/2019 17:13:08
00021 suncat0132 pw.x -in pw.inp   Done                     01/01/2019 17:13:08
00022 suncat0132 pw.x -in pw.inp   Done                     01/01/2019 17:13:08
00023 suncat0132 pw.x -in pw.inp   Done                     01/01/2019 17:13:08
00024 suncat0131 pw.x -in pw.inp   Done                     01/01/2019 17:13:08
00025 suncat0131 pw.x -in pw.inp   Done                     01/01/2019 17:13:08
00026 suncat0131 pw.x -in pw.inp   Done                     01/01/2019 17:13:08
00027 suncat0131 pw.x -in pw.inp   Done                     01/01/2019 17:13:08
00028 suncat0131 pw.x -in pw.inp   Done                     01/01/2019 17:13:08
00029 suncat0131 pw.x -in pw.inp   Done                     01/01/2019 17:13:08
00030 suncat0131 pw.x -in pw.inp   Done                     01/01/2019 17:13:08
00031 suncat0131 pw.x -in pw.inp   Done                     01/01/2019 17:13:08
00032 suncat0130 pw.x -in pw.inp   Done                     01/01/2019 17:13:08
00033 suncat0130 pw.x -in pw.inp   Done                     01/01/2019 17:13:08
00034 suncat0130 pw.x -in pw.inp   Done                     01/01/2019 17:13:08
00035 suncat0130 pw.x -in pw.inp   Done                     01/01/2019 17:13:08
00036 suncat0130 pw.x -in pw.inp   Done                     01/01/2019 17:13:08
00037 suncat0130 pw.x -in pw.inp   Done                     01/01/2019 17:13:08
00038 suncat0130 pw.x -in pw.inp   Done                     01/01/2019 17:13:08
00039 suncat0130 pw.x -in pw.inp   Done                     01/01/2019 17:13:08
00040 suncat0124 pw.x -in pw.inp   Done                     01/01/2019 17:13:08
00041 suncat0124 pw.x -in pw.inp   Done                     01/01/2019 17:13:08
00042 suncat0124 pw.x -in pw.inp   Done                     01/01/2019 17:13:08
00043 suncat0124 pw.x -in pw.inp   Done                     01/01/2019 17:13:08
00044 suncat0124 pw.x -in pw.inp   Done                     01/01/2019 17:13:08
00045 suncat0124 pw.x -in pw.inp   Done                     01/01/2019 17:13:08
00046 suncat0124 pw.x -in pw.inp   Done                     01/01/2019 17:13:08
00047 suncat0124 pw.x -in pw.inp   Done                     01/01/2019 17:13:08
00048 suncat0280 pw.x -in pw.inp   Done                     01/01/2019 17:13:08
00049 suncat0280 pw.x -in pw.inp   Done                     01/01/2019 17:13:08
00050 suncat0280 pw.x -in pw.inp   Done                     01/01/2019 17:13:08
00051 suncat0280 pw.x -in pw.inp   Done                     01/01/2019 17:13:08
00052 suncat0280 pw.x -in pw.inp   Done                     01/01/2019 17:13:08
00053 suncat0280 pw.x -in pw.inp   Done                     01/01/2019 17:13:08
00054 suncat0280 pw.x -in pw.inp   Done                     01/01/2019 17:13:08
00055 suncat0280 pw.x -in pw.inp   Done                     01/01/2019 17:13:08
00056 suncat0279 pw.x -in pw.inp   Done                     01/01/2019 17:13:08
00057 suncat0279 pw.x -in pw.inp   Done                     01/01/2019 17:13:08
00058 suncat0279 pw.x -in pw.inp   Done                     01/01/2019 17:13:08
00059 suncat0279 pw.x -in pw.inp   Done                     01/01/2019 17:13:08
00060 suncat0279 pw.x -in pw.inp   Done                     01/01/2019 17:13:08
00061 suncat0279 pw.x -in pw.inp   Done                     01/01/2019 17:13:08
00062 suncat0279 pw.x -in pw.inp   Done                     01/01/2019 17:13:08
00063 suncat0279 pw.x -in pw.inp   Done                     01/01/2019 17:13:08