     Program PWSCF v.5.1rc2 (svn rev. 11289) starts on 31Dec2018 at 14:23:21

     Current dimensions of program PWSCF are:
     Max number of different atomic species (ntypx) = 10
     Max number of k-points (npk) =  40000
     Max angular momentum in pseudopotentials (lmaxx) =  3
     Presently stress not available with electric field

     IMPORTANT: XC functional enforced from input :
     Exchange-correlation      = BEEF-VDW ( 1  4 27 13 2)
     Any further DFT definition will be discarded
     Please, verify this is what you really want

     Subspace diagonalization in iterative solution of the eigenvalue problem:
     a serial algorithm will be used

     bravais-lattice index     =            0
     lattice parameter (alat)  =       1.8897  a.u.
     unit-cell volume          =    4755.6987 (a.u.)^3
     number of atoms/cell      =           12
     number of atomic types    =            2
     number of electrons       =       180.00
     number of Kohn-Sham states=          120
     kinetic-energy cutoff     =      36.7493  Ry
     charge density cutoff     =     367.4932  Ry
     convergence threshold     =      1.0E-06
     mixing beta               =       0.1000
     number of iterations used =           10  plain     mixing
     Exchange-correlation      = BEEF-VDW ( 1  4 27 13 2)
     nstep                     =           50

     celldm(1)=   1.889726  celldm(2)=   0.000000  celldm(3)=   0.000000
     celldm(4)=   0.000000  celldm(5)=   0.000000  celldm(6)=   0.000000

     crystal axes: (cart. coord. in units of alat)
               a(1) = (   5.741210   0.000000   0.000000 )
               a(2) = (  -2.870605   4.972034   0.000000 )
               a(3) = (   0.000000   0.000000  24.687678 )

     reciprocal axes: (cart. coord. in units 2 pi/alat)
               b(1) = (  0.174179  0.100562  0.000000 )
               b(2) = (  0.000000  0.201125  0.000000 )
               b(3) = (  0.000000  0.000000  0.040506 )

     PseudoPot. # 1 for Pt read from file:
     /afs/slac.stanford.edu/u/if/mamunm/psp/gbrv1.5pbe/Pt.UPF
     MD5 check sum: f09d6de1a584b5a045c4fc126da2d0c4
     Pseudo is Ultrasoft + core correction, Zval = 16.0
     Generated by new atomic code, or converted to UPF format
     Using radial grid of  985 points,  6 beta functions with:
                l(1) =   0
                l(2) =   0
                l(3) =   1
                l(4) =   1
                l(5) =   2
                l(6) =   2
     Q(r) pseudized with  8 coefficients,  rinner =    1.300   1.300   1.300
                                                       1.300   1.300

     PseudoPot. # 2 for Cd read from file:
     /afs/slac.stanford.edu/u/if/mamunm/psp/gbrv1.5pbe/Cd.UPF
     MD5 check sum: 17164a7926edb8e0dc231208abae86a6
     Pseudo is Ultrasoft + core correction, Zval = 12.0
     Generated by new atomic code, or converted to UPF format
     Using radial grid of  889 points,  6 beta functions with:
                l(1) =   0
                l(2) =   0
                l(3) =   1
                l(4) =   1
                l(5) =   2
                l(6) =   2
     Q(r) pseudized with  6 coefficients,  rinner =    1.000   1.000   1.000
                                                       1.000   1.000

     vdW kernel table read from file vdW_kernel_table
     MD5 check sum: 095c7af220d748ca6e76c0b4c6cfb241

     atomic species   valence    mass     pseudopotential
        Pt1           16.00   195.08400     Pt( 1.00)
        Cd1           12.00   112.41400     Cd( 1.00)

     No symmetry found

   Cartesian axes

     site n.     atom                  positions (alat units)
         1           Pt1 tau(   1) = (   0.0000000   0.0000000  10.0000000  )
         2           Pt1 tau(   2) = (  -1.4353025   2.4860168  10.0000000  )
         3           Pt1 tau(   3) = (   1.4353025   2.4860168  10.0000000  )
         4           Cd1 tau(   4) = (   2.8706049   0.0000000  10.0000000  )
         5           Pt1 tau(   5) = (   2.8706049   1.6573445  12.3438391  )
         6           Pt1 tau(   6) = (   1.4353025   4.1433613  12.3438391  )
         7           Pt1 tau(   7) = (  -1.4353025   4.1433613  12.3438391  )
         8           Cd1 tau(   8) = (   0.0000000   1.6573445  12.3438391  )
         9           Pt1 tau(   9) = (  -0.0000000   3.3146891  14.6876782  )
        10           Pt1 tau(  10) = (   1.4353025   0.8286723  14.6876782  )
        11           Pt1 tau(  11) = (   4.3059074   0.8286723  14.6876782  )
        12           Cd1 tau(  12) = (   2.8706049   3.3146891  14.6876782  )

     number of k points=    20  Fermi-Dirac smearing, width (Ry)=  0.0110
                       cart. coord. in units 2pi/alat
        k(    1) = (   0.0000000   0.0000000   0.0000000), wk =   0.0555556
        k(    2) = (   0.0000000   0.0335208   0.0000000), wk =   0.1111111
        k(    3) = (   0.0000000   0.0670416   0.0000000), wk =   0.1111111
        k(    4) = (   0.0000000  -0.1005625   0.0000000), wk =   0.0555556
        k(    5) = (   0.0290299   0.0167604   0.0000000), wk =   0.1111111
        k(    6) = (   0.0290299   0.0502812   0.0000000), wk =   0.1111111
        k(    7) = (   0.0290299   0.0838021   0.0000000), wk =   0.1111111
        k(    8) = (   0.0290299  -0.0838021   0.0000000), wk =   0.1111111
        k(    9) = (   0.0290299  -0.0502812   0.0000000), wk =   0.1111111
        k(   10) = (   0.0290299  -0.0167604   0.0000000), wk =   0.1111111
        k(   11) = (   0.0580598   0.0335208   0.0000000), wk =   0.1111111
        k(   12) = (   0.0580598   0.0670416   0.0000000), wk =   0.1111111
        k(   13) = (   0.0580598   0.1005625   0.0000000), wk =   0.1111111
        k(   14) = (   0.0580598  -0.0670416   0.0000000), wk =   0.1111111
        k(   15) = (   0.0580598  -0.0335208   0.0000000), wk =   0.1111111
        k(   16) = (   0.0580598   0.0000000   0.0000000), wk =   0.1111111
        k(   17) = (  -0.0870897  -0.0502812   0.0000000), wk =   0.0555556
        k(   18) = (  -0.0870897  -0.0167604   0.0000000), wk =   0.1111111
        k(   19) = (  -0.0870897   0.0167604   0.0000000), wk =   0.1111111
        k(   20) = (  -0.0870897  -0.1508437   0.0000000), wk =   0.0555556

     Largest allocated arrays     est. size (Mb)     dimensions
     Largest temporary arrays     est. size (Mb)     dimensions

     Initial potential from superposition of free atoms
     Check: negative starting charge=   -1.712249

     starting charge  173.99977, renormalised to  180.00000

     negative rho (up, down):  1.771E+00 0.000E+00

     *
     * You are using vdW-DF for exchange-correlation in this calculation.
     * Please cite the following three references that made this development
     * possible:
     *
     *   M. Dion, H. Rydberg, E. Schroder, D. C. Langreth, and
     *   B. I. Lundqvist, Phys. Rev. Lett. 92, 246401 (2004).
     *
     *   T. Thonhauser, V. R. Cooper, S. Li, A. Puzder, P. Hyldgaard, and
     *   D. C. Langreth, Phys. Rev. B 76, 125112 (2007).
     *
     *   G. Roman-Perez and J. M. Soler, Phys. Rev. Lett. 103, 096102 (2009).
     *
     *
     * If you are using vdW-DF2, please also cite:
     *
     *   K. Lee, E. D. Murray, L. Kong, B. I. Lundqvist, and
     *   D. C. Langreth, Phys. Rev. B 82, 081101(R) (2010).
     *
     *
     * If you are calculating the stress with vdW-DF, please also cite:
     *
     *   R. Sabatini, E. Kucukbenli, B. Kolb, T. Thonhauser, and
     *   S. de Gironcoli, J. Phys.: Condens. Matter 24, 424209 (2012).
     *

     Carrying out vdW-DF run using the following parameters:

     Nqs =      20    Nr_points =    1024   r_max =   100.000
     q_mesh =
               0.00001000     0.04494208     0.09755937     0.15916263
               0.23128650     0.31572767     0.41458969     0.53033537
               0.66584808     0.82450364     1.01025438     1.22772762
               1.48234092     1.78043706     2.12944203     2.53805004
               3.01644009     3.57652955     4.23227104     5.00000000

     Gradients computed in reciprocal space

     Adding external electric field

     Computed dipole along edir(3) :
        Dipole                0.0000 Ry au,          0.0000 Debye
        Dipole field          0.0000 Ry au

        Potential amp.       -0.0000 Ry
        Total length         45.4866 bohr

     Starting wfc are  135 randomized atomic wfcs

     Self-consistent Calculation

     iteration #  1     ecut=    36.75 Ry     beta=0.10
     Davidson diagonalization with overlap
     ethr =  1.00E-02,  avg # of iterations =  7.0

[...]

     total energy              =   -2259.94625414 Ry
     Harris-Foulkes estimate   =   -2262.46928747 Ry
     estimated scf accuracy    <      15.48271310 Ry

[...]

     End of self-consistent calculation

          k = 0.0000 0.0000 0.0000 ( 17959 PWs)   bands (ev):

   -51.1739 -51.0717 -51.0677 -51.0677 -51.0433 -51.0433 -50.9411 -50.9382
   -50.9382 -50.9198 -50.9111 -50.8338 -50.8338 -50.8221 -50.8221 -50.7250
   -50.7218 -50.7038 -50.7038 -50.7021 -50.7021 -50.6128 -50.5997 -50.5875
   -50.5875 -50.5805 -50.5804  -7.3283  -7.3283  -7.3194  -7.2883  -7.2883
    -7.2033  -7.1823  -7.1823  -7.1578  -7.1479  -7.1479  -6.9610  -6.9610
    -6.8933  -6.8933  -6.8416  -5.0248  -4.4215  -4.0173  -3.6413  -3.4321
    -2.9827  -2.9826  -2.8469  -2.6802  -2.6802  -2.3673  -2.3673  -2.3014
    -2.3013  -2.2464  -1.6612  -1.6611  -1.4411  -1.4411  -1.2848  -1.2178
    -1.0184  -0.7898  -0.7898  -0.5886  -0.4222  -0.4222  -0.0339  -0.0339
     0.0768   0.2260   0.2260   0.2973   0.2973   0.4590   0.4590   0.5341
     0.6076   0.6076   0.8003   0.8003   1.1645   1.2801   1.2801   1.5693
     1.7512   1.7978   1.8539   2.0000   2.0000   2.3934   3.3129   3.3787
     3.4959   3.4959   3.6362   3.6362   5.6363   5.8923   5.9735   6.0737
     6.0737   6.1994   6.2637   6.4960   6.4960   7.2417   7.3434   7.3434
     7.4125   7.8764   9.5192   9.7261   9.9497  10.1279  10.1279  10.6643

[...]

          k =-0.0871-0.0503 0.0000 ( 17864 PWs)   bands (ev):

[...]

     the Fermi energy is     1.2991 ev

!    total energy              =   -2259.48102223 Ry
     Harris-Foulkes estimate   =   -2259.48205980 Ry
     estimated scf accuracy    <       0.00000081 Ry

     The total energy is the sum of the following terms:

     one-electron contribution =  -16668.51085370 Ry
     hartree contribution      =    8386.63581419 Ry
     xc contribution           =    -650.22121244 Ry
     ewald contribution        =    6672.67998657 Ry
     electric field correction =       0.00000000 Ry
     smearing contrib. (-TS)   =      -0.06475685 Ry

     convergence has been achieved in  15 iterations

 BEEF-vdW xc energy contributions
           1 :   -576.876352148373
           2 :    535.147203690593
           3 :   -461.264924175607
           4 :    370.746879258502
           5 :   -279.855651958976
           6 :    200.988453332688
           7 :   -140.203217334889
           8 :    97.3308307598653
           9 :   -68.1286119444841
          10 :    47.2175039484108
          11 :   -30.4919852259887
          12 :    16.1725751206194
          13 :   -4.46710652722709
[...]
     /afs/slac.stanford.edu/u/if/mamunm/psp/gbrv1.5pbe/Pt.UPF
     MD5 check sum: f09d6de1a584b5a045c4fc126da2d0c4
     Pseudo is Ultrasoft + core correction, Zval = 16.0
     Generated by new atomic code, or converted to UPF format
     Using radial grid of  985 points,  6 beta functions with:
                l(1) =   0
                l(2) =   0
                l(3) =   1
                l(4) =   1
                l(5) =   2
                l(6) =   2
     Q(r) pseudized with  8 coefficients,  rinner =    1.300   1.300   1.300
                                                       1.300   1.300

     PseudoPot. # 2 for Cd read from file:
     /afs/slac.stanford.edu/u/if/mamunm/psp/gbrv1.5pbe/Cd.UPF
     MD5 check sum: 17164a7926edb8e0dc231208abae86a6
     Pseudo is Ultrasoft + core correction, Zval = 12.0
     Generated by new atomic code, or converted to UPF format
     Using radial grid of  889 points,  6 beta functions with:
                l(1) =   0
                l(2) =   0
                l(3) =   1
                l(4) =   1
                l(5) =   2
                l(6) =   2
     Q(r) pseudized with  6 coefficients,  rinner =    1.000   1.000   1.000
                                                       1.000   1.000

     vdW kernel table read from file vdW_kernel_table
     MD5 check sum: 095c7af220d748ca6e76c0b4c6cfb241

     atomic species   valence    mass     pseudopotential
        Pt1           16.00   195.08400     Pt( 1.00)
        Cd1           12.00   112.41400     Cd( 1.00)

     No symmetry found

   Cartesian axes

     site n.     atom                  positions (alat units)
         1           Pt1 tau(   1) = (   0.0000000   0.0000000  10.0000000  )
         2           Pt1 tau(   2) = (  -1.4353025   2.4860168  10.0000000  )
         3           Pt1 tau(   3) = (   1.4353025   2.4860168  10.0000000  )
         4           Cd1 tau(   4) = (   2.8706049   0.0000000  10.0000000  )
         5           Pt1 tau(   5) = (   2.8706049   1.6573445  12.3438391  )
         6           Pt1 tau(   6) = (   1.4353025   4.1433613  12.3438391  )
         7           Pt1 tau(   7) = (  -1.4353025   4.1433613  12.3438391  )
         8           Cd1 tau(   8) = (   0.0000000   1.6573445  12.3438391  )
         9           Pt1 tau(   9) = (  -0.0000106   3.3172468  14.6233448  )
        10           Pt1 tau(  10) = (   1.4375149   0.8273928  14.6233459  )
        11           Pt1 tau(  11) = (   4.3036802   0.8273985  14.6233452  )
        12           Cd1 tau(  12) = (   2.8705987   3.3147038  14.9876794  )

     number of k points=    20  Fermi-Dirac smearing, width (Ry)=  0.0110
                       cart. coord. in units 2pi/alat
        k(    1) = (   0.0000000   0.0000000   0.0000000), wk =   0.0555556
        k(    2) = (   0.0000000   0.0335208   0.0000000), wk =   0.1111111
        k(    3) = (   0.0000000   0.0670416   0.0000000), wk =   0.1111111
        k(    4) = (   0.0000000  -0.1005625   0.0000000), wk =   0.0555556
        k(    5) = (   0.0290299   0.0167604   0.0000000), wk =   0.1111111
        k(    6) = (   0.0290299   0.0502812   0.0000000), wk =   0.1111111
        k(    7) = (   0.0290299   0.0838021   0.0000000), wk =   0.1111111
        k(    8) = (   0.0290299  -0.0838021   0.0000000), wk =   0.1111111
        k(    9) = (   0.0290299  -0.0502812   0.0000000), wk =   0.1111111
        k(   10) = (   0.0290299  -0.0167604   0.0000000), wk =   0.1111111
        k(   11) = (   0.0580598   0.0335208   0.0000000), wk =   0.1111111
        k(   12) = (   0.0580598   0.0670416   0.0000000), wk =   0.1111111
        k(   13) = (   0.0580598   0.1005625   0.0000000), wk =   0.1111111
        k(   14) = (   0.0580598  -0.0670416   0.0000000), wk =   0.1111111
        k(   15) = (   0.0580598  -0.0335208   0.0000000), wk =   0.1111111
        k(   16) = (   0.0580598   0.0000000   0.0000000), wk =   0.1111111
        k(   17) = (  -0.0870897  -0.0502812   0.0000000), wk =   0.0555556
        k(   18) = (  -0.0870897  -0.0167604   0.0000000), wk =   0.1111111
        k(   19) = (  -0.0870897   0.0167604   0.0000000), wk =   0.1111111
        k(   20) = (  -0.0870897  -0.1508437   0.0000000), wk =   0.0555556

     Largest allocated arrays     est. size (Mb)     dimensions
     Largest temporary arrays     est. size (Mb)     dimensions

     Initial potential from superposition of free atoms
     Check: negative starting charge=   -1.712710

     starting charge  173.99977, renormalised to  180.00000

[...]

     *
     * You are using vdW-DF for exchange-correlation in this calculation.
     * Please cite the following three references that made this development
     * possible:
     *
     *   M. Dion, H. Rydberg, E. Schroder, D. C. Langreth, and
     *   B. I. Lundqvist, Phys. Rev. Lett. 92, 246401 (2004).
     *
     *   T. Thonhauser, V. R. Cooper, S. Li, A. Puzder, P. Hyldgaard, and
     *   D. C. Langreth, Phys. Rev. B 76, 125112 (2007).
     *
     *   G. Roman-Perez and J. M. Soler, Phys. Rev. Lett. 103, 096102 (2009).
     *
     *
     * If you are using vdW-DF2, please also cite:
     *
     *   K. Lee, E. D. Murray, L. Kong, B. I. Lundqvist, and
     *   D. C. Langreth, Phys. Rev. B 82, 081101(R) (2010).
     *
     *
     * If you are calculating the stress with vdW-DF, please also cite:
     *
     *   R. Sabatini, E. Kucukbenli, B. Kolb, T. Thonhauser, and
     *   S. de Gironcoli, J. Phys.: Condens. Matter 24, 424209 (2012).
     *

     Carrying out vdW-DF run using the following parameters:

     Nqs =      20    Nr_points =    1024   r_max =   100.000
     q_mesh =
               0.00001000     0.04494208     0.09755937     0.15916263
               0.23128650     0.31572767     0.41458969     0.53033537
               0.66584808     0.82450364     1.01025438     1.22772762
               1.48234092     1.78043706     2.12944203     2.53805004
               3.01644009     3.57652955     4.23227104     5.00000000

     Gradients computed in reciprocal space

[...]

     Starting wfc are  135 randomized atomic wfcs

     Self-consistent Calculation

[...]

     total energy              =   -2259.50529000 Ry
     Harris-Foulkes estimate   =   -2259.50528444 Ry
     estimated scf accuracy    <       0.00000254 Ry

     iteration # 16     ecut=    36.75 Ry     beta=0.10
     Davidson diagonalization with overlap
     ethr =  1.41E-09,  avg # of iterations =  2.9

[...]

     negative rho (up, down):  1.650E+00 0.000E+00

     Adding external electric field

     Computed dipole along edir(3) :
        Dipole                0.0484 Ry au,          0.1231 Debye
        Dipole field          0.0001 Ry au

        Potential amp.       -0.0116 Ry
        Total length         45.4866 bohr

     End of self-consistent calculation

[...]

          k = 0.0581 0.0000 0.0000 ( 17903 PWs)   bands (ev):

[...]

          k =-0.0871-0.1508 0.0000 ( 17864 PWs)   bands (ev):

   -51.0654 -51.0229 -50.9993 -50.9840 -50.9460 -50.9392 -50.9364 -50.9293
   -50.8660 -50.8427 -50.7985 -50.7719 -50.7565 -50.7468 -50.7439 -50.7248
   -50.7155 -50.7049 -50.7014 -50.6855 -50.6391 -50.6003 -50.5939 -50.5847
   -50.5316 -50.5240 -50.5164  -7.1754  -7.0879  -7.0678  -7.0474  -7.0189
    -6.9949  -6.9659  -6.9547  -6.9459  -6.9013  -6.8686  -6.8512  -6.8487
    -6.8358  -6.7659  -5.0535  -4.9418  -3.7789  -3.4594  -3.3877  -3.2620
    -2.9832  -2.9590  -2.5693  -2.5245  -2.4129  -2.1870  -2.1761  -2.0943
    -2.0749  -2.0486  -1.9090  -1.6223  -1.5988  -1.3890  -1.3363  -1.2530
    -1.1692  -1.1572  -1.0994  -1.0644  -0.9752  -0.9427  -0.8482  -0.7123
    -0.6591  -0.6168  -0.4764  -0.2815  -0.1315  -0.1061  -0.0521  -0.0293
    -0.0244   0.1322   0.1776   0.2334   0.2737   0.4496   0.6480   0.7085
     0.9661   1.2915   1.6431   1.6642   2.2410   2.4810   3.0616   3.2503
     3.8179   4.7436   5.1828   5.3037   5.4634   6.8318   6.9767   7.5380
     7.5904   7.6117   7.6679   7.8613   7.9684   8.1271   8.2340   8.4259
     8.4867   8.7769   8.8161   9.1179   9.1935   9.6264   9.6970   9.8923

     the Fermi energy is     1.3769 ev

!    total energy              =   -2259.50530603 Ry
     Harris-Foulkes estimate   =   -2259.50529056 Ry
     estimated scf accuracy    <       0.00000049 Ry

     The total energy is the sum of the following terms:

     one-electron contribution =  -16641.13737784 Ry
     hartree contribution      =    8373.30922603 Ry
     xc contribution           =    -650.19845443 Ry
     ewald contribution        =    6658.58570676 Ry
     electric field correction =       0.00000619 Ry
     smearing contrib. (-TS)   =      -0.06441274 Ry

     convergence has been achieved in  16 iterations

 BEEF-vdW xc energy contributions
           1 :   -577.277386593390
           2 :    535.534850089093
           3 :   -461.635858481711
           4 :    371.110768938883
           5 :   -280.226180098842
           6 :    201.369477828531
           7 :   -140.585188890715
           8 :    97.7019852959774
           9 :   -68.4910515478585
          10 :    47.5919561857665
          11 :   -30.9053680665654
          12 :    16.6367781591905
          13 :   -4.96582047580102
          14 :   -3.09349362513296
          15 :    6.86542481150298
          16 :   -6.66352579006684
          17 :    3.75440374555478
          18 :   0.160042340665541
          19 :   -3.58029432467083
          20 :    5.64272663515453
          21 :   -6.21306854661771
          22 :    5.68798545356162
          23 :   -4.67340730362480
          24 :    3.70393731043396
          25 :   -3.09619231128488
          26 :    2.93222728255034
          27 :   -3.12277157582423
          28 :    3.49231526212532
          29 :   -3.85678862504096
          30 :    4.08271614439718
          31 :   -48.1044898510004
          32 :   -35.4470648993317

     Forces acting on atoms (Ry/au):

     negative rho (up, down):  1.650E+00 0.000E+00
     atom    1 type  1   force =    -0.00000008   -0.00167133    0.01041179
     atom    2 type  1   force =    -0.00144828    0.00083580    0.01041055
     atom    3 type  1   force =     0.00144852    0.00083640    0.01041079
     atom    4 type  2   force =     0.00000147    0.00000049   -0.03068335
     atom    5 type  1   force =    -0.00000028    0.01242169    0.00346288
     atom    6 type  1   force =     0.01075722   -0.00621090    0.00346406
     atom    7 type  1   force =    -0.01075817   -0.00621053    0.00346228
     atom    8 type  2   force =     0.00000037    0.00000089   -0.01319838
     atom    9 type  1   force =     0.00000160    0.00051188    0.00064360
     atom   10 type  1   force =     0.00044436   -0.00025554    0.00064286
     atom   11 type  1   force =    -0.00044395   -0.00025689    0.00064347
     atom   12 type  2   force =    -0.00000278   -0.00000197    0.00032946

     Total force =     0.044162     Total SCF correction =     0.001594

     entering subroutine stress ...

     negative rho (up, down):  1.650E+00 0.000E+00
          total   stress  (Ry/bohr**3)                   (kbar)     P=  -15.35
  -0.00014880  -0.00000000   0.00000000        -21.89     -0.00      0.00
  -0.00000000  -0.00014880   0.00000000         -0.00    -21.89      0.00
   0.00000000   0.00000000  -0.00001545          0.00      0.00     -2.27

 !ASE

     Writing output data file calc.save

     General routines

     Parallel routines

   This run was terminated on:  16:34:27  31Dec2018

   JOB DONE.
Job  /afs/slac/g/suncat/bin/suncat-tsmpirun -x LD_LIBRARY_PATH -wdir /scratch/qe648790_3QEhb pw.x -in pw.inp

TID   HOST_NAME   COMMAND_LINE            STATUS            TERMINATION_TIME
00000 suncat0251 pw.x -in pw.inp   Done                     12/31/2018 16:34:27
00001 suncat0251 pw.x -in pw.inp   Done                     12/31/2018 16:34:27
00002 suncat0251 pw.x -in pw.inp   Done                     12/31/2018 16:34:27
00003 suncat0251 pw.x -in pw.inp   Done                     12/31/2018 16:34:27
00004 suncat0251 pw.x -in pw.inp   Done                     12/31/2018 16:34:27
00005 suncat0251 pw.x -in pw.inp   Done                     12/31/2018 16:34:27
00006 suncat0251 pw.x -in pw.inp   Done                     12/31/2018 16:34:27
00007 suncat0251 pw.x -in pw.inp   Done                     12/31/2018 16:34:27
00008 suncat0244 pw.x -in pw.inp   Done                     12/31/2018 16:34:27
00009 suncat0244 pw.x -in pw.inp   Done                     12/31/2018 16:34:27
00010 suncat0244 pw.x -in pw.inp   Done                     12/31/2018 16:34:27
00011 suncat0244 pw.x -in pw.inp   Done                     12/31/2018 16:34:27
00012 suncat0244 pw.x -in pw.inp   Done                     12/31/2018 16:34:27
00013 suncat0244 pw.x -in pw.inp   Done                     12/31/2018 16:34:27
00014 suncat0244 pw.x -in pw.inp   Done                     12/31/2018 16:34:27
00015 suncat0244 pw.x -in pw.inp   Done                     12/31/2018 16:34:27
00016 suncat0243 pw.x -in pw.inp   Done                     12/31/2018 16:34:27
00017 suncat0243 pw.x -in pw.inp   Done                     12/31/2018 16:34:27
00018 suncat0243 pw.x -in pw.inp   Done                     12/31/2018 16:34:27
00019 suncat0243 pw.x -in pw.inp   Done                     12/31/2018 16:34:27
00020 suncat0243 pw.x -in pw.inp   Done                     12/31/2018 16:34:27
00021 suncat0243 pw.x -in pw.inp   Done                     12/31/2018 16:34:27
00022 suncat0243 pw.x -in pw.inp   Done                     12/31/2018 16:34:27
00023 suncat0243 pw.x -in pw.inp   Done                     12/31/2018 16:34:27
00024 suncat0242 pw.x -in pw.inp   Done                     12/31/2018 16:34:27
00025 suncat0242 pw.x -in pw.inp   Done                     12/31/2018 16:34:27
00026 suncat0242 pw.x -in pw.inp   Done                     12/31/2018 16:34:27
00027 suncat0242 pw.x -in pw.inp   Done                     12/31/2018 16:34:27
00028 suncat0242 pw.x -in pw.inp   Done                     12/31/2018 16:34:27
00029 suncat0242 pw.x -in pw.inp   Done                     12/31/2018 16:34:27
00030 suncat0242 pw.x -in pw.inp   Done                     12/31/2018 16:34:27
00031 suncat0242 pw.x -in pw.inp   Done                     12/31/2018 16:34:27
00032 suncat0209 pw.x -in pw.inp   Done                     12/31/2018 16:34:27
00033 suncat0209 pw.x -in pw.inp   Done                     12/31/2018 16:34:27
00034 suncat0209 pw.x -in pw.inp   Done                     12/31/2018 16:34:27
00035 suncat0209 pw.x -in pw.inp   Done                     12/31/2018 16:34:27
00036 suncat0209 pw.x -in pw.inp   Done                     12/31/2018 16:34:27
00037 suncat0209 pw.x -in pw.inp   Done                     12/31/2018 16:34:27
00038 suncat0209 pw.x -in pw.inp   Done                     12/31/2018 16:34:27
00039 suncat0209 pw.x -in pw.inp   Done                     12/31/2018 16:34:27
00040 suncat0205 pw.x -in pw.inp   Done                     12/31/2018 16:34:27
00041 suncat0205 pw.x -in pw.inp   Done                     12/31/2018 16:34:27
00042 suncat0205 pw.x -in pw.inp   Done                     12/31/2018 16:34:27
00043 suncat0205 pw.x -in pw.inp   Done                     12/31/2018 16:34:27
00044 suncat0205 pw.x -in pw.inp   Done                     12/31/2018 16:34:27
00045 suncat0205 pw.x -in pw.inp   Done                     12/31/2018 16:34:27
00046 suncat0205 pw.x -in pw.inp   Done                     12/31/2018 16:34:27
00047 suncat0205 pw.x -in pw.inp   Done                     12/31/2018 16:34:27
00048 suncat0204 pw.x -in pw.inp   Done                     12/31/2018 16:34:27
00049 suncat0204 pw.x -in pw.inp   Done                     12/31/2018 16:34:27
00050 suncat0204 pw.x -in pw.inp   Done                     12/31/2018 16:34:27
00051 suncat0204 pw.x -in pw.inp   Done                     12/31/2018 16:34:27
00052 suncat0204 pw.x -in pw.inp   Done                     12/31/2018 16:34:27
00053 suncat0204 pw.x -in pw.inp   Done                     12/31/2018 16:34:27
00054 suncat0204 pw.x -in pw.inp   Done                     12/31/2018 16:34:27
00055 suncat0204 pw.x -in pw.inp   Done                     12/31/2018 16:34:27
00056 suncat0203 pw.x -in pw.inp   Done                     12/31/2018 16:34:27
00057 suncat0203 pw.x -in pw.inp   Done                     12/31/2018 16:34:27
00058 suncat0203 pw.x -in pw.inp   Done                     12/31/2018 16:34:27
00059 suncat0203 pw.x -in pw.inp   Done                     12/31/2018 16:34:27
00060 suncat0203 pw.x -in pw.inp   Done                     12/31/2018 16:34:27
00061 suncat0203 pw.x -in pw.inp   Done                     12/31/2018 16:34:27
00062 suncat0203 pw.x -in pw.inp   Done                     12/31/2018 16:34:27
00063 suncat0203 pw.x -in pw.inp   Done                     12/31/2018 16:34:27