     Program PWSCF v.5.1rc2 (svn rev. 11289) starts on 25Dec2018 at  3:29:56

     Current dimensions of program PWSCF are:
     Max number of different atomic species (ntypx) = 10
     Max number of k-points (npk) =  40000
     Max angular momentum in pseudopotentials (lmaxx) =  3
     Presently stress not available with electric field

     IMPORTANT: XC functional enforced from input :
     Exchange-correlation      = BEEF-VDW ( 1  4 27 13 2)
     Any further DFT definition will be discarded
     Please, verify this is what you really want

     Subspace diagonalization in iterative solution of the eigenvalue problem:
     a serial algorithm will be used

     Found symmetry operation: I + ( -0.5000  0.5000  0.0000)
     This is a supercell, fractional translations are disabled

     bravais-lattice index     =            0
     lattice parameter (alat)  =       1.8897  a.u.
     unit-cell volume          =    4533.1756 (a.u.)^3
     number of atoms/cell      =           12
     number of atomic types    =            2
     number of electrons       =       174.00
     number of Kohn-Sham states=          117
     kinetic-energy cutoff     =      36.7493  Ry
     charge density cutoff     =     367.4932  Ry
     convergence threshold     =      1.0E-06
     mixing beta               =       0.1000
     number of iterations used =           10  plain     mixing
     Exchange-correlation      = BEEF-VDW ( 1  4 27 13 2)
     nstep                     =           50

     celldm(1)=   1.889726  celldm(2)=   0.000000  celldm(3)=   0.000000
     celldm(4)=   0.000000  celldm(5)=   0.000000  celldm(6)=   0.000000

     crystal axes: (cart. coord. in units of alat)
               a(1) = (   5.598665   0.000000   0.000000 )
               a(2) = (   2.743781   4.880237   0.000000 )
               a(3) = (   0.000000   0.000000  24.585582 )

     reciprocal axes: (cart. coord. in units 2 pi/alat)
               b(1) = (  0.178614 -0.100421  0.000000 )
               b(2) = (  0.000000  0.204908  0.000000 )
               b(3) = (  0.000000  0.000000  0.040674 )

     PseudoPot. # 1 for W  read from file:
     /afs/slac.stanford.edu/u/if/mamunm/psp/gbrv1.5pbe/W.UPF
     MD5 check sum: 9c083fa34c2a2ea0f02f1f893e16e1c8
     Pseudo is Ultrasoft + core correction, Zval = 14.0
     Generated by new atomic code, or converted to UPF format
     Using radial grid of  923 points,  8 beta functions with:
                l(1) =   0
                l(2) =   0
                l(3) =   0
                l(4) =   1
                l(5) =   1
                l(6) =   2
                l(7) =   2
                l(8) =   3
     Q(r) pseudized with  6 coefficients,  rinner =    1.350   1.350   1.350
                                                       1.350   1.350   1.350
                                                       1.350

     PseudoPot. # 2 for Re read from file:
     /afs/slac.stanford.edu/u/if/mamunm/psp/gbrv1.5pbe/Re.UPF
     MD5 check sum: 85f993410f3e006da9d71c142b4ad953
     Pseudo is Ultrasoft + core correction, Zval = 15.0
     Generated by new atomic code, or converted to UPF format
     Using radial grid of  981 points,  8 beta functions with:
                l(1) =   0
                l(2) =   0
                l(3) =   1
                l(4) =   1
                l(5) =   2
                l(6) =   2
                l(7) =   3
                l(8) =   3
     Q(r) pseudized with  8 coefficients,  rinner =    1.150   1.150   1.150
                                                       1.150   1.150   1.150
                                                       1.150

     vdW kernel table read from file vdW_kernel_table
     MD5 check sum: 095c7af220d748ca6e76c0b4c6cfb241

     atomic species   valence    mass     pseudopotential
        W1            14.00   183.84000     W ( 1.00)
        Re1           15.00   186.20700     Re( 1.00)

     No symmetry found

   Cartesian axes

     site n.     atom                  positions (alat units)
         1           W1  tau(   1) = (   0.0000000   0.0000000  10.0000000  )
         2           W1  tau(   2) = (   4.1712234   2.4401186  10.0000000  )
         3           Re1 tau(   3) = (   2.7993326   0.0000000  10.0000000  )
         4           Re1 tau(   4) = (   1.3718907   2.4401186  10.0000000  )
         5           W1  tau(   5) = (   5.5986653   3.2751561  12.2927912  )
         6           W1  tau(   6) = (   1.4274419   0.8350374  12.2927912  )
         7           Re1 tau(   7) = (   2.7993326   3.2751561  12.2927912  )
         8           Re1 tau(   8) = (   4.2267745   0.8350374  12.2927912  )
         9           W1  tau(   9) = (   2.8548838   1.6700748  14.5855824  )
        10           W1  tau(  10) = (   7.0261072   4.1101935  14.5855824  )
        11           Re1 tau(  11) = (   5.6542164   1.6700748  14.5855824  )
        12           Re1 tau(  12) = (   4.2267745   4.1101935  14.5855824  )

     number of k points=    20  Fermi-Dirac smearing, width (Ry)=  0.0110
                       cart. coord. in units 2pi/alat
        k(    1) = (   0.0000000   0.0000000   0.0000000), wk =   0.0555556
        k(    2) = (   0.0000000   0.0341513   0.0000000), wk =   0.1111111
        k(    3) = (   0.0000000   0.0683027   0.0000000), wk =   0.1111111
        k(    4) = (   0.0000000  -0.1024540   0.0000000), wk =   0.0555556
        k(    5) = (   0.0297690  -0.0167368   0.0000000), wk =   0.1111111
        k(    6) = (   0.0297690   0.0174145   0.0000000), wk =   0.1111111
        k(    7) = (   0.0297690   0.0515659   0.0000000), wk =   0.1111111
        k(    8) = (   0.0297690  -0.1191908   0.0000000), wk =   0.1111111
        k(    9) = (   0.0297690  -0.0850395   0.0000000), wk =   0.1111111
        k(   10) = (   0.0297690  -0.0508882   0.0000000), wk =   0.1111111
        k(   11) = (   0.0595380  -0.0334736   0.0000000), wk =   0.1111111
        k(   12) = (   0.0595380   0.0006777   0.0000000), wk =   0.1111111
        k(   13) = (   0.0595380   0.0348291   0.0000000), wk =   0.1111111
        k(   14) = (   0.0595380  -0.1359277   0.0000000), wk =   0.1111111
        k(   15) = (   0.0595380  -0.1017763   0.0000000), wk =   0.1111111
        k(   16) = (   0.0595380  -0.0676250   0.0000000), wk =   0.1111111
        k(   17) = (  -0.0893070   0.0502104   0.0000000), wk =   0.0555556
        k(   18) = (  -0.0893070   0.0843618   0.0000000), wk =   0.1111111
        k(   19) = (  -0.0893070   0.1185131   0.0000000), wk =   0.1111111
        k(   20) = (  -0.0893070  -0.0522436   0.0000000), wk =   0.0555556

     Largest allocated arrays     est. size (Mb)     dimensions
     Largest temporary arrays     est. size (Mb)     dimensions

     Initial potential from superposition of free atoms
     Check: negative starting charge=   -1.150978

     starting charge  170.39769, renormalised to  174.00000

     negative rho (up, down):  1.175E+00 0.000E+00

     *
     * You are using vdW-DF for exchange-correlation in this calculation.
     * Please cite the following three references that made this development
     * possible:
     *
     *   M. Dion, H. Rydberg, E. Schroder, D. C. Langreth, and
     *   B. I. Lundqvist, Phys. Rev. Lett. 92, 246401 (2004).
     *
     *   T. Thonhauser, V. R. Cooper, S. Li, A. Puzder, P. Hyldgaard, and
     *   D. C. Langreth, Phys. Rev. B 76, 125112 (2007).
     *
     *   G. Roman-Perez and J. M. Soler, Phys. Rev. Lett. 103, 096102 (2009).
     *
     *
     * If you are using vdW-DF2, please also cite:
     *
     *   K. Lee, E. D. Murray, L. Kong, B. I. Lundqvist, and
     *   D. C. Langreth, Phys. Rev. B 82, 081101(R) (2010).
     *
     *
     * If you are calculating the stress with vdW-DF, please also cite:
     *
     *   R. Sabatini, E. Kucukbenli, B. Kolb, T. Thonhauser, and
     *   S. de Gironcoli, J. Phys.: Condens. Matter 24, 424209 (2012).
     *

     Carrying out vdW-DF run using the following parameters:

     Nqs =      20    Nr_points =    1024   r_max =   100.000
     q_mesh =
               0.00001000     0.04494208     0.09755937     0.15916263
               0.23128650     0.31572767     0.41458969     0.53033537
               0.66584808     0.82450364     1.01025438     1.22772762
               1.48234092     1.78043706     2.12944203     2.53805004
               3.01644009     3.57652955     4.23227104     5.00000000

     Gradients computed in reciprocal space

     Adding external electric field

     Computed dipole along edir(3) :
        Dipole                0.0000 Ry au,          0.0000 Debye
        Dipole field          0.0000 Ry au

        Potential amp.       -0.0000 Ry
        Total length         45.2985 bohr

     Starting wfc are  156 randomized atomic wfcs

     Self-consistent Calculation

     iteration #  1     ecut=    36.75 Ry     beta=0.10
     Davidson diagonalization with overlap
     ethr =  1.00E-02,  avg # of iterations =  2.0

[...]

     total energy              =   -2115.39325833 Ry
     Harris-Foulkes estimate   =   -2115.81458115 Ry
     estimated scf accuracy    <       2.64502003 Ry

[...]

     End of self-consistent calculation

          k = 0.0000 0.0000 0.0000 ( 17019 PWs)   bands (ev):

   -77.7488 -77.7223 -77.6464 -77.6456 -77.6205 -77.6197 -71.6859 -71.6826
   -71.6484 -71.6451 -71.6307 -71.5924 -39.7099 -39.6546 -39.5871 -39.5284
   -39.5238 -39.4896 -39.4354 -39.4226 -39.3873 -39.3783 -39.3180 -39.3078
   -39.2466 -39.2429 -39.2083 -39.1805 -39.0406 -39.0397 -36.0335 -35.9817
   -35.9538 -35.9370 -35.9325 -35.8848 -35.8196 -35.7218 -35.7058 -35.6783
   -35.6725 -35.6642 -35.6285 -35.5203 -35.4721 -35.4286 -35.3503 -35.3454
    -5.9850  -4.1375  -3.4218  -2.9445  -2.9279  -2.9162  -2.6840  -2.6585
    -2.6526  -1.9696  -1.9099  -1.9098  -1.8631  -1.8376  -1.8344  -0.4134
    -0.3868  -0.2882   0.6530   0.6700   0.7187   0.8167   1.0528   1.2858
     1.4978   1.6835   1.6923   1.7544   1.7814   1.8820   1.8888   1.9561
     1.9932   1.9969   2.2479   2.2921   3.0627   3.0926   3.1983   3.2120
     3.5259   3.6297   4.0805   4.0861   4.3839   4.4263   4.4547   4.5603
     4.7809   4.9679   5.0424   5.1295   5.3247   5.7529   6.1448   6.2373
     6.3484   6.3698   6.5891   6.6925   6.9000   6.9346   6.9774   7.0216
     7.0631   7.1113   7.1755   7.3643   7.4282

[...]

          k =-0.0893 0.0502 0.0000 ( 17086 PWs)   bands (ev):

[...]

     the Fermi energy is     2.5626 ev

!    total energy              =   -2115.28477044 Ry
     Harris-Foulkes estimate   =   -2115.28477069 Ry
     estimated scf accuracy    <       0.00000071 Ry

     The total energy is the sum of the following terms:

     one-electron contribution =  -16297.37230534 Ry
     hartree contribution      =    8132.31384857 Ry
     xc contribution           =    -579.62471495 Ry
     ewald contribution        =    6629.47473939 Ry
     electric field correction =       0.00000000 Ry
     smearing contrib. (-TS)   =      -0.07633812 Ry

     convergence has been achieved in  15 iterations

 BEEF-vdW xc energy contributions
           1 :   -513.111246379122
           2 :    476.093640867988
           3 :   -410.144276229511
[...]
     Using radial grid of  923 points,  8 beta functions with:
                l(1) =   0
                l(2) =   0
                l(3) =   0
                l(4) =   1
                l(5) =   1
                l(6) =   2
                l(7) =   2
                l(8) =   3
     Q(r) pseudized with  6 coefficients,  rinner =    1.350   1.350   1.350
                                                       1.350   1.350   1.350
                                                       1.350

     PseudoPot. # 2 for Re read from file:
     /afs/slac.stanford.edu/u/if/mamunm/psp/gbrv1.5pbe/Re.UPF
     MD5 check sum: 85f993410f3e006da9d71c142b4ad953
     Pseudo is Ultrasoft + core correction, Zval = 15.0
     Generated by new atomic code, or converted to UPF format
     Using radial grid of  981 points,  8 beta functions with:
                l(1) =   0
                l(2) =   0
                l(3) =   1
                l(4) =   1
                l(5) =   2
                l(6) =   2
                l(7) =   3
                l(8) =   3
     Q(r) pseudized with  8 coefficients,  rinner =    1.150   1.150   1.150
                                                       1.150   1.150   1.150
                                                       1.150

     vdW kernel table read from file vdW_kernel_table
     MD5 check sum: 095c7af220d748ca6e76c0b4c6cfb241

     atomic species   valence    mass     pseudopotential
        W1            14.00   183.84000     W ( 1.00)
        Re1           15.00   186.20700     Re( 1.00)

     No symmetry found

   Cartesian axes

     site n.     atom                  positions (alat units)
         1           W1  tau(   1) = (   0.0000000   0.0000000  10.0000000  )
         2           W1  tau(   2) = (   4.1712234   2.4401186  10.0000000  )
         3           Re1 tau(   3) = (   2.7993326   0.0000000  10.0000000  )
         4           Re1 tau(   4) = (   1.3718907   2.4401186  10.0000000  )
         5           W1  tau(   5) = (   5.5986653   3.2751561  12.2927912  )
         6           W1  tau(   6) = (   1.4274419   0.8350374  12.2927912  )
         7           Re1 tau(   7) = (   2.7993326   3.2751561  12.2927912  )
         8           Re1 tau(   8) = (   4.2267745   0.8350374  12.2927912  )
         9           W1  tau(   9) = (   2.8634858   1.6751083  14.5185559  )
        10           W1  tau(  10) = (   7.0347032   4.1152238  14.5185548  )
        11           Re1 tau(  11) = (   5.6491309   1.6670944  14.5165612  )
        12           Re1 tau(  12) = (   4.2216843   4.1072120  14.5165597  )

     number of k points=    20  Fermi-Dirac smearing, width (Ry)=  0.0110
                       cart. coord. in units 2pi/alat
        k(    1) = (   0.0000000   0.0000000   0.0000000), wk =   0.0555556
        k(    2) = (   0.0000000   0.0341513   0.0000000), wk =   0.1111111
        k(    3) = (   0.0000000   0.0683027   0.0000000), wk =   0.1111111
        k(    4) = (   0.0000000  -0.1024540   0.0000000), wk =   0.0555556
        k(    5) = (   0.0297690  -0.0167368   0.0000000), wk =   0.1111111
        k(    6) = (   0.0297690   0.0174145   0.0000000), wk =   0.1111111
        k(    7) = (   0.0297690   0.0515659   0.0000000), wk =   0.1111111
        k(    8) = (   0.0297690  -0.1191908   0.0000000), wk =   0.1111111
        k(    9) = (   0.0297690  -0.0850395   0.0000000), wk =   0.1111111
        k(   10) = (   0.0297690  -0.0508882   0.0000000), wk =   0.1111111
        k(   11) = (   0.0595380  -0.0334736   0.0000000), wk =   0.1111111
        k(   12) = (   0.0595380   0.0006777   0.0000000), wk =   0.1111111
        k(   13) = (   0.0595380   0.0348291   0.0000000), wk =   0.1111111
        k(   14) = (   0.0595380  -0.1359277   0.0000000), wk =   0.1111111
        k(   15) = (   0.0595380  -0.1017763   0.0000000), wk =   0.1111111
        k(   16) = (   0.0595380  -0.0676250   0.0000000), wk =   0.1111111
        k(   17) = (  -0.0893070   0.0502104   0.0000000), wk =   0.0555556
        k(   18) = (  -0.0893070   0.0843618   0.0000000), wk =   0.1111111
        k(   19) = (  -0.0893070   0.1185131   0.0000000), wk =   0.1111111
        k(   20) = (  -0.0893070  -0.0522436   0.0000000), wk =   0.0555556

     Largest allocated arrays     est. size (Mb)     dimensions
     Largest temporary arrays     est. size (Mb)     dimensions

     Initial potential from superposition of free atoms
     Check: negative starting charge=   -1.150660

     starting charge  170.39769, renormalised to  174.00000

[...]

     *
     * You are using vdW-DF for exchange-correlation in this calculation.
     * Please cite the following three references that made this development
     * possible:
     *
     *   M. Dion, H. Rydberg, E. Schroder, D. C. Langreth, and
     *   B. I. Lundqvist, Phys. Rev. Lett. 92, 246401 (2004).
     *
     *   T. Thonhauser, V. R. Cooper, S. Li, A. Puzder, P. Hyldgaard, and
     *   D. C. Langreth, Phys. Rev. B 76, 125112 (2007).
     *
     *   G. Roman-Perez and J. M. Soler, Phys. Rev. Lett. 103, 096102 (2009).
     *
     *
     * If you are using vdW-DF2, please also cite:
     *
     *   K. Lee, E. D. Murray, L. Kong, B. I. Lundqvist, and
     *   D. C. Langreth, Phys. Rev. B 82, 081101(R) (2010).
     *
     *
     * If you are calculating the stress with vdW-DF, please also cite:
     *
     *   R. Sabatini, E. Kucukbenli, B. Kolb, T. Thonhauser, and
     *   S. de Gironcoli, J. Phys.: Condens. Matter 24, 424209 (2012).
     *

     Carrying out vdW-DF run using the following parameters:

     Nqs =      20    Nr_points =    1024   r_max =   100.000
     q_mesh =
               0.00001000     0.04494208     0.09755937     0.15916263
               0.23128650     0.31572767     0.41458969     0.53033537
               0.66584808     0.82450364     1.01025438     1.22772762
               1.48234092     1.78043706     2.12944203     2.53805004
               3.01644009     3.57652955     4.23227104     5.00000000

     Gradients computed in reciprocal space

[...]

     Starting wfc are  156 randomized atomic wfcs

     Self-consistent Calculation

[...]

     total energy              =   -2115.29055433 Ry
     Harris-Foulkes estimate   =   -2115.29055482 Ry
     estimated scf accuracy    <       0.00000139 Ry

     iteration # 16     ecut=    36.75 Ry     beta=0.10
     Davidson diagonalization with overlap
     ethr =  7.96E-10,  avg # of iterations =  2.4

[...]

     negative rho (up, down):  1.201E+00 0.000E+00

     Adding external electric field

     Computed dipole along edir(3) :
        Dipole                0.0197 Ry au,          0.0500 Debye
        Dipole field          0.0001 Ry au

        Potential amp.       -0.0049 Ry
        Total length         45.2985 bohr

     End of self-consistent calculation

[...]

          k = 0.0595-0.0676 0.0000 ( 17048 PWs)   bands (ev):

[...]

          k =-0.0893-0.0522 0.0000 ( 17088 PWs)   bands (ev):

   -77.6846 -77.6582 -77.6392 -77.6134 -77.5416 -77.5156 -71.6741 -71.6364
   -71.5657 -71.5370 -71.5276 -71.4984 -39.6468 -39.5907 -39.5348 -39.5035
   -39.4270 -39.4183 -39.4160 -39.3624 -39.3524 -39.2888 -39.2421 -39.2414
   -39.1906 -39.1565 -39.1441 -39.0969 -39.0311 -38.9507 -36.0085 -35.9874
   -35.9569 -35.9125 -35.8723 -35.7986 -35.7464 -35.7358 -35.6708 -35.6616
   -35.6407 -35.6125 -35.5791 -35.4260 -35.3703 -35.3702 -35.3365 -35.2500
    -4.0389  -3.9559  -2.4524  -2.4104  -1.9232  -1.8385  -1.7940  -1.7685
    -1.6367  -1.6343  -0.9957  -0.8041  -0.7912  -0.5027  -0.4982  -0.3985
    -0.2809  -0.1258   0.0275   0.0997   0.2328   0.5531   0.7577   1.0132
     1.0320   1.0477   1.0959   1.1640   1.1876   1.2919   1.4447   1.5303
     1.5785   1.6847   1.8207   1.8535   1.9759   2.0109   2.0854   2.2832
     2.7427   2.7938   3.2872   3.3502   3.3550   3.3913   3.6465   3.6726
     4.0685   4.0695   4.2204   4.2257   4.2397   4.3373   4.6419   4.9216
     5.0464   5.4402   5.5217   5.6305   6.3098   6.3521   6.5410   6.6016
     6.7422   7.3052   7.8955   7.9146   8.0497

     the Fermi energy is     2.5810 ev

!    total energy              =   -2115.29055404 Ry
     Harris-Foulkes estimate   =   -2115.29055437 Ry
     estimated scf accuracy    <       0.00000031 Ry

     The total energy is the sum of the following terms:

     one-electron contribution =  -16457.95581724 Ry
     hartree contribution      =    8212.96735916 Ry
     xc contribution           =    -579.82620366 Ry
     ewald contribution        =    6709.59870575 Ry
     electric field correction =       0.00000107 Ry
     smearing contrib. (-TS)   =      -0.07459912 Ry

     convergence has been achieved in  16 iterations

 BEEF-vdW xc energy contributions
           1 :   -513.312838751755
           2 :    476.352519772779
           3 :   -410.479061292374
           4 :    328.985738390372
           5 :   -246.233070736649
           6 :    173.721206992118
           7 :   -117.671446422849
           8 :    78.6938953177870
           9 :   -53.2964220892603
          10 :    36.3366310921612
          11 :   -23.3271981376898
          12 :    11.7799174169432
          13 :   -1.33383061844791
          14 :   -7.04896724775870
          15 :    12.2345359644945
          16 :   -13.8374737862516
          17 :    12.5595011490976
          18 :   -9.91288245804662
          19 :    7.55795995691813
          20 :   -6.61843529951364
          21 :    7.30103671391839
          22 :   -8.96767301807483
          23 :    10.5745255258239
          24 :   -11.2305264118106
          25 :    10.6014693801791
          26 :   -8.99258985548374
          27 :    7.11336528172399
          28 :   -5.68028266667329
          29 :    5.07216165043792
          30 :   -5.20102138213088
          31 :   -44.2411121063826
          32 :   -32.9779597779844

     Forces acting on atoms (Ry/au):

     negative rho (up, down):  1.201E+00 0.000E+00
     atom    1 type  1   force =    -0.00500381   -0.00292866    0.02077740
     atom    2 type  1   force =    -0.00500534   -0.00292623    0.02077761
     atom    3 type  2   force =     0.00500295    0.00292417    0.01972164
     atom    4 type  2   force =     0.00500224    0.00292803    0.01972042
     atom    5 type  1   force =    -0.00039806   -0.00023202   -0.01944082
     atom    6 type  1   force =    -0.00039780   -0.00023396   -0.01944122
     atom    7 type  2   force =    -0.00001854   -0.00000993   -0.01974974
     atom    8 type  2   force =    -0.00002018   -0.00001189   -0.01974696
     atom    9 type  1   force =     0.00125857    0.00073494   -0.00065454
     atom   10 type  1   force =     0.00125716    0.00073685   -0.00065521
     atom   11 type  2   force =    -0.00083889   -0.00049068   -0.00065406
     atom   12 type  2   force =    -0.00083829   -0.00049061   -0.00065452

     Total force =     0.057618     Total SCF correction =     0.002712

     entering subroutine stress ...

     negative rho (up, down):  1.201E+00 0.000E+00
          total   stress  (Ry/bohr**3)                   (kbar)     P=  -39.71
  -0.00033895  -0.00000448   0.00000080        -49.86     -0.66      0.12
  -0.00000448  -0.00033391   0.00000047         -0.66    -49.12      0.07
   0.00000080   0.00000047  -0.00013702          0.12      0.07    -20.16

 !ASE

     Writing output data file calc.save

     General routines

     Parallel routines

   This run was terminated on:   4:39:59  25Dec2018

   JOB DONE.
Job  /afs/slac/g/suncat/bin/suncat-tsmpirun -x LD_LIBRARY_PATH -wdir /scratch/qe109170_T5NPB pw.x -in pw.inp

TID   HOST_NAME   COMMAND_LINE            STATUS            TERMINATION_TIME
00000 suncat0060 pw.x -in pw.inp   Done                     12/25/2018 04:39:59
00001 suncat0060 pw.x -in pw.inp   Done                     12/25/2018 04:39:59
00002 suncat0060 pw.x -in pw.inp   Done                     12/25/2018 04:39:59
00003 suncat0060 pw.x -in pw.inp   Done                     12/25/2018 04:39:59
00004 suncat0060 pw.x -in pw.inp   Done                     12/25/2018 04:39:59
00005 suncat0060 pw.x -in pw.inp   Done                     12/25/2018 04:39:59
00006 suncat0060 pw.x -in pw.inp   Done                     12/25/2018 04:39:59
00007 suncat0060 pw.x -in pw.inp   Done                     12/25/2018 04:39:59
00008 suncat0059 pw.x -in pw.inp   Done                     12/25/2018 04:39:59
00009 suncat0059 pw.x -in pw.inp   Done                     12/25/2018 04:39:59
00010 suncat0059 pw.x -in pw.inp   Done                     12/25/2018 04:39:59
00011 suncat0059 pw.x -in pw.inp   Done                     12/25/2018 04:39:59
00012 suncat0059 pw.x -in pw.inp   Done                     12/25/2018 04:39:59
00013 suncat0059 pw.x -in pw.inp   Done                     12/25/2018 04:39:59
00014 suncat0059 pw.x -in pw.inp   Done                     12/25/2018 04:39:59
00015 suncat0059 pw.x -in pw.inp   Done                     12/25/2018 04:39:59
00016 suncat0058 pw.x -in pw.inp   Done                     12/25/2018 04:39:59
00017 suncat0058 pw.x -in pw.inp   Done                     12/25/2018 04:39:59
00018 suncat0058 pw.x -in pw.inp   Done                     12/25/2018 04:39:59
00019 suncat0058 pw.x -in pw.inp   Done                     12/25/2018 04:39:59
00020 suncat0058 pw.x -in pw.inp   Done                     12/25/2018 04:39:59
00021 suncat0058 pw.x -in pw.inp   Done                     12/25/2018 04:39:59
00022 suncat0058 pw.x -in pw.inp   Done                     12/25/2018 04:39:59
00023 suncat0058 pw.x -in pw.inp   Done                     12/25/2018 04:39:59
00024 suncat0195 pw.x -in pw.inp   Done                     12/25/2018 04:39:59
00025 suncat0195 pw.x -in pw.inp   Done                     12/25/2018 04:39:59
00026 suncat0195 pw.x -in pw.inp   Done                     12/25/2018 04:39:59
00027 suncat0195 pw.x -in pw.inp   Done                     12/25/2018 04:39:59
00028 suncat0195 pw.x -in pw.inp   Done                     12/25/2018 04:39:59
00029 suncat0195 pw.x -in pw.inp   Done                     12/25/2018 04:39:59
00030 suncat0195 pw.x -in pw.inp   Done                     12/25/2018 04:39:59
00031 suncat0195 pw.x -in pw.inp   Done                     12/25/2018 04:39:59
00032 suncat0003 pw.x -in pw.inp   Done                     12/25/2018 04:39:59
00033 suncat0003 pw.x -in pw.inp   Done                     12/25/2018 04:39:59
00034 suncat0003 pw.x -in pw.inp   Done                     12/25/2018 04:39:59
00035 suncat0003 pw.x -in pw.inp   Done                     12/25/2018 04:39:59
00036 suncat0003 pw.x -in pw.inp   Done                     12/25/2018 04:39:59
00037 suncat0003 pw.x -in pw.inp   Done                     12/25/2018 04:39:59
00038 suncat0003 pw.x -in pw.inp   Done                     12/25/2018 04:39:59
00039 suncat0003 pw.x -in pw.inp   Done                     12/25/2018 04:39:59
00040 suncat0002 pw.x -in pw.inp   Done                     12/25/2018 04:39:59
00041 suncat0002 pw.x -in pw.inp   Done                     12/25/2018 04:39:59
00042 suncat0002 pw.x -in pw.inp   Done                     12/25/2018 04:39:59
00043 suncat0002 pw.x -in pw.inp   Done                     12/25/2018 04:39:59
00044 suncat0002 pw.x -in pw.inp   Done                     12/25/2018 04:39:59
00045 suncat0002 pw.x -in pw.inp   Done                     12/25/2018 04:39:59
00046 suncat0002 pw.x -in pw.inp   Done                     12/25/2018 04:39:59
00047 suncat0002 pw.x -in pw.inp   Done                     12/25/2018 04:39:59
00048 suncat0283 pw.x -in pw.inp   Done                     12/25/2018 04:39:59
00049 suncat0283 pw.x -in pw.inp   Done                     12/25/2018 04:39:59
00050 suncat0283 pw.x -in pw.inp   Done                     12/25/2018 04:39:59
00051 suncat0283 pw.x -in pw.inp   Done                     12/25/2018 04:39:59
00052 suncat0283 pw.x -in pw.inp   Done                     12/25/2018 04:39:59
00053 suncat0283 pw.x -in pw.inp   Done                     12/25/2018 04:39:59
00054 suncat0283 pw.x -in pw.inp   Done                     12/25/2018 04:39:59
00055 suncat0283 pw.x -in pw.inp   Done                     12/25/2018 04:39:59
00056 suncat0282 pw.x -in pw.inp   Done                     12/25/2018 04:39:59
00057 suncat0282 pw.x -in pw.inp   Done                     12/25/2018 04:39:59
00058 suncat0282 pw.x -in pw.inp   Done                     12/25/2018 04:39:59
00059 suncat0282 pw.x -in pw.inp   Done                     12/25/2018 04:39:59
00060 suncat0282 pw.x -in pw.inp   Done                     12/25/2018 04:39:59
00061 suncat0282 pw.x -in pw.inp   Done                     12/25/2018 04:39:59
00062 suncat0282 pw.x -in pw.inp   Done                     12/25/2018 04:39:59
00063 suncat0282 pw.x -in pw.inp   Done                     12/25/2018 04:39:59