     Program PWSCF v.5.1rc2 (svn rev. 11289) starts on  1Jan2019 at  2:55:45

     Current dimensions of program PWSCF are:
     Max number of different atomic species (ntypx) = 10
     Max number of k-points (npk) =  40000
     Max angular momentum in pseudopotentials (lmaxx) =  3
     Presently stress not available with electric field

     IMPORTANT: XC functional enforced from input :
     Exchange-correlation      = BEEF-VDW ( 1  4 27 13 2)
     Any further DFT definition will be discarded
     Please, verify this is what you really want

     Subspace diagonalization in iterative solution of the eigenvalue problem:
     a serial algorithm will be used

     bravais-lattice index     =            0
     lattice parameter (alat)  =       1.8897  a.u.
     unit-cell volume          =    4264.5427 (a.u.)^3
     number of atoms/cell      =           12
     number of atomic types    =            2
     number of electrons       =       186.00
     number of Kohn-Sham states=          123
     kinetic-energy cutoff     =      36.7493  Ry
     charge density cutoff     =     367.4932  Ry
     convergence threshold     =      1.0E-06
     mixing beta               =       0.1000
     number of iterations used =           10  plain     mixing
     Exchange-correlation      = BEEF-VDW ( 1  4 27 13 2)
     nstep                     =           50

     celldm(1)=   1.889726  celldm(2)=   0.000000  celldm(3)=   0.000000
     celldm(4)=   0.000000  celldm(5)=   0.000000  celldm(6)=   0.000000

     crystal axes: (cart. coord. in units of alat)
               a(1) = (   5.461946   0.000000   0.000000 )
               a(2) = (  -2.730973   4.730184   0.000000 )
               a(3) = (   0.000000   0.000000  24.459660 )

     reciprocal axes: (cart. coord. in units 2 pi/alat)
               b(1) = (  0.183085  0.105704  0.000000 )
               b(2) = (  0.000000  0.211408  0.000000 )
               b(3) = (  0.000000  0.000000  0.040884 )

     PseudoPot. # 1 for Ru read from file:
     /afs/slac.stanford.edu/u/if/mamunm/psp/gbrv1.5pbe/Ru.UPF
     MD5 check sum: 7158a806dd851261a58e6920c40ebe78
     Pseudo is Ultrasoft + core correction, Zval = 16.0
     Generated by new atomic code, or converted to UPF format
     Using radial grid of  967 points,  6 beta functions with:
                l(1) =   0
                l(2) =   0
                l(3) =   1
                l(4) =   1
                l(5) =   2
                l(6) =   2
     Q(r) pseudized with  8 coefficients,  rinner =    1.300   1.300   1.300
                                                       1.300   1.300

     PseudoPot. # 2 for Mo read from file:
     /afs/slac.stanford.edu/u/if/mamunm/psp/gbrv1.5pbe/Mo.UPF
     MD5 check sum: 30c4dcd161f5d35cd49bb5239c51a633
     Pseudo is Ultrasoft + core correction, Zval = 14.0
     Generated by new atomic code, or converted to UPF format
     Using radial grid of  889 points,  6 beta functions with:
                l(1) =   0
                l(2) =   0
                l(3) =   1
                l(4) =   1
                l(5) =   2
                l(6) =   2
     Q(r) pseudized with  6 coefficients,  rinner =    1.000   1.000   1.000
                                                       1.000   1.000

     vdW kernel table read from file vdW_kernel_table
     MD5 check sum: 095c7af220d748ca6e76c0b4c6cfb241

     atomic species   valence    mass     pseudopotential
        Ru1           16.00   101.07000     Ru( 1.00)
        Mo1           14.00    95.95000     Mo( 1.00)

     No symmetry found

   Cartesian axes

     site n.     atom                  positions (alat units)
         1           Ru1 tau(   1) = (   0.0000000   0.0000000  10.0000000  )
         2           Ru1 tau(   2) = (  -1.3654865   2.3650920  10.0000000  )
         3           Ru1 tau(   3) = (   1.3654865   2.3650920  10.0000000  )
         4           Mo1 tau(   4) = (   2.7309730   0.0000000  10.0000000  )
         5           Ru1 tau(   5) = (   2.7309730   1.5767280  12.2298301  )
         6           Ru1 tau(   6) = (   1.3654865   3.9418200  12.2298301  )
         7           Ru1 tau(   7) = (  -1.3654865   3.9418200  12.2298301  )
         8           Mo1 tau(   8) = (   0.0000000   1.5767280  12.2298301  )
         9           Ru1 tau(   9) = (  -0.0000000   3.1534560  14.4596603  )
        10           Ru1 tau(  10) = (   1.3654865   0.7883640  14.4596603  )
        11           Ru1 tau(  11) = (   4.0964596   0.7883640  14.4596603  )
        12           Mo1 tau(  12) = (   2.7309730   3.1534560  14.4596603  )

     number of k points=    20  Fermi-Dirac smearing, width (Ry)=  0.0110
                       cart. coord. in units 2pi/alat
        k(    1) = (   0.0000000   0.0000000   0.0000000), wk =   0.0555556
        k(    2) = (   0.0000000   0.0352347   0.0000000), wk =   0.1111111
        k(    3) = (   0.0000000   0.0704694   0.0000000), wk =   0.1111111
        k(    4) = (   0.0000000  -0.1057041   0.0000000), wk =   0.0555556
        k(    5) = (   0.0305142   0.0176174   0.0000000), wk =   0.1111111
        k(    6) = (   0.0305142   0.0528521   0.0000000), wk =   0.1111111
        k(    7) = (   0.0305142   0.0880868   0.0000000), wk =   0.1111111
        k(    8) = (   0.0305142  -0.0880868   0.0000000), wk =   0.1111111
        k(    9) = (   0.0305142  -0.0528521   0.0000000), wk =   0.1111111
        k(   10) = (   0.0305142  -0.0176174   0.0000000), wk =   0.1111111
        k(   11) = (   0.0610283   0.0352347   0.0000000), wk =   0.1111111
        k(   12) = (   0.0610283   0.0704694   0.0000000), wk =   0.1111111
        k(   13) = (   0.0610283   0.1057041   0.0000000), wk =   0.1111111
        k(   14) = (   0.0610283  -0.0704694   0.0000000), wk =   0.1111111
        k(   15) = (   0.0610283  -0.0352347   0.0000000), wk =   0.1111111
        k(   16) = (   0.0610283   0.0000000   0.0000000), wk =   0.1111111
        k(   17) = (  -0.0915425  -0.0528521   0.0000000), wk =   0.0555556
        k(   18) = (  -0.0915425  -0.0176174   0.0000000), wk =   0.1111111
        k(   19) = (  -0.0915425   0.0176174   0.0000000), wk =   0.1111111
        k(   20) = (  -0.0915425  -0.1585562   0.0000000), wk =   0.0555556

     Largest allocated arrays     est. size (Mb)     dimensions
     Largest temporary arrays     est. size (Mb)     dimensions

     Initial potential from superposition of free atoms
     Check: negative starting charge=   -0.657061

     starting charge  176.99667, renormalised to  186.00000

     negative rho (up, down):  6.905E-01 0.000E+00

     *
     * You are using vdW-DF for exchange-correlation in this calculation.
     * Please cite the following three references that made this development
     * possible:
     *
     *   M. Dion, H. Rydberg, E. Schroder, D. C. Langreth, and
     *   B. I. Lundqvist, Phys. Rev. Lett. 92, 246401 (2004).
     *
     *   T. Thonhauser, V. R. Cooper, S. Li, A. Puzder, P. Hyldgaard, and
     *   D. C. Langreth, Phys. Rev. B 76, 125112 (2007).
     *
     *   G. Roman-Perez and J. M. Soler, Phys. Rev. Lett. 103, 096102 (2009).
     *
     *
     * If you are using vdW-DF2, please also cite:
     *
     *   K. Lee, E. D. Murray, L. Kong, B. I. Lundqvist, and
     *   D. C. Langreth, Phys. Rev. B 82, 081101(R) (2010).
     *
     *
     * If you are calculating the stress with vdW-DF, please also cite:
     *
     *   R. Sabatini, E. Kucukbenli, B. Kolb, T. Thonhauser, and
     *   S. de Gironcoli, J. Phys.: Condens. Matter 24, 424209 (2012).
     *

     Carrying out vdW-DF run using the following parameters:

     Nqs =      20    Nr_points =    1024   r_max =   100.000
     q_mesh =
               0.00001000     0.04494208     0.09755937     0.15916263
               0.23128650     0.31572767     0.41458969     0.53033537
               0.66584808     0.82450364     1.01025438     1.22772762
               1.48234092     1.78043706     2.12944203     2.53805004
               3.01644009     3.57652955     4.23227104     5.00000000

     Gradients computed in reciprocal space

     Adding external electric field

     Computed dipole along edir(3) :
        Dipole               -0.0000 Ry au,         -0.0000 Debye
        Dipole field         -0.0000 Ry au

        Potential amp.        0.0000 Ry
        Total length         45.0665 bohr

     Starting wfc are  156 randomized atomic wfcs

     Self-consistent Calculation

     iteration #  1     ecut=    36.75 Ry     beta=0.10
     Davidson diagonalization with overlap
     ethr =  1.00E-02,  avg # of iterations =  7.5

[...]

     total energy              =   -2177.18376978 Ry
     Harris-Foulkes estimate   =   -2178.61999886 Ry
     estimated scf accuracy    <       9.36756905 Ry

[...]

     End of self-consistent calculation

          k = 0.0000 0.0000 0.0000 ( 15989 PWs)   bands (ev):

   -70.7366 -70.6655 -70.6655 -70.2788 -70.2764 -70.2096 -70.2096 -70.2090
   -70.2090 -59.1972 -59.0199 -59.0193 -40.9930 -40.8280 -40.8280 -40.8104
   -40.7113 -40.7113 -40.5466 -40.5236 -40.4989 -40.3925 -40.3925 -40.3581
   -40.3581 -40.2925 -40.2924 -40.2281 -40.1605 -40.1604 -40.1475 -40.1123
   -40.1123 -40.0466 -40.0354 -39.9506 -39.9506 -39.9493 -39.9493 -33.2094
   -33.2094 -33.1423 -33.1099 -33.0887 -32.9705 -32.9705 -32.9652 -32.9652
    -4.2223  -2.9966  -2.9966  -2.9205  -2.8557  -2.7681  -2.5755  -2.5755
    -2.5520  -2.3531  -2.3531  -2.2549  -1.9744  -1.9744  -1.9362  -0.8224
    -0.8143  -0.8143  -0.2148  -0.2148  -0.1212   0.1061   0.3157   0.3157
     0.3170   0.4808   0.6535   0.6535   0.8971   0.8972   0.9478   0.9479
     1.2486   1.2486   1.7681   2.0772   2.0958   2.3409   2.3409   2.3762
     2.3763   2.4896   2.4896   2.8419   3.3980   3.4269   3.4269   3.4315
     3.4666   3.4667   3.9582   4.2199   4.2199   4.2474   4.3779   4.4040
     4.4040   4.4292   4.8111   4.8305   4.8305   4.8744   4.8744   5.2407
     5.2407   5.3705   5.3705   6.6446   6.8485   6.9767   6.9767   7.0848
     7.1580   7.1580   7.2983

[...]

          k =-0.0915-0.0529 0.0000 ( 16072 PWs)   bands (ev):

[...]

     the Fermi energy is     2.3695 ev

!    total energy              =   -2175.82516602 Ry
     Harris-Foulkes estimate   =   -2175.82516725 Ry
     estimated scf accuracy    <       0.00000078 Ry

     The total energy is the sum of the following terms:

     one-electron contribution =  -20084.74750364 Ry
     hartree contribution      =   10040.52871515 Ry
     xc contribution           =    -301.36450184 Ry
     ewald contribution        =    8169.85527145 Ry
     electric field correction =       0.00000000 Ry
     smearing contrib. (-TS)   =      -0.09714715 Ry

     convergence has been achieved in  17 iterations

 BEEF-vdW xc energy contributions
           1 :   -260.933389757359
           2 :    239.404930670870
           3 :   -202.158648775784
           4 :    158.504272465070
           5 :   -117.937871681706
           6 :    87.1909364812093
           7 :   -68.6741500773209
           8 :    60.6423310998056
           9 :   -58.7545895955700
          10 :    58.2180079861949
          11 :   -55.6280224831975
          12 :    49.8702139959917
[...]
     Using radial grid of  967 points,  6 beta functions with:
                l(1) =   0
                l(2) =   0
                l(3) =   1
                l(4) =   1
                l(5) =   2
                l(6) =   2
     Q(r) pseudized with  8 coefficients,  rinner =    1.300   1.300   1.300
                                                       1.300   1.300

     PseudoPot. # 2 for Mo read from file:
     /afs/slac.stanford.edu/u/if/mamunm/psp/gbrv1.5pbe/Mo.UPF
     MD5 check sum: 30c4dcd161f5d35cd49bb5239c51a633
     Pseudo is Ultrasoft + core correction, Zval = 14.0
     Generated by new atomic code, or converted to UPF format
     Using radial grid of  889 points,  6 beta functions with:
                l(1) =   0
                l(2) =   0
                l(3) =   1
                l(4) =   1
                l(5) =   2
                l(6) =   2
     Q(r) pseudized with  6 coefficients,  rinner =    1.000   1.000   1.000
                                                       1.000   1.000

     vdW kernel table read from file vdW_kernel_table
     MD5 check sum: 095c7af220d748ca6e76c0b4c6cfb241

     atomic species   valence    mass     pseudopotential
        Ru1           16.00   101.07000     Ru( 1.00)
        Mo1           14.00    95.95000     Mo( 1.00)

     No symmetry found

   Cartesian axes

     site n.     atom                  positions (alat units)
         1           Ru1 tau(   1) = (   0.0000000   0.0000000  10.0000000  )
         2           Ru1 tau(   2) = (  -1.3654865   2.3650920  10.0000000  )
         3           Ru1 tau(   3) = (   1.3654865   2.3650920  10.0000000  )
         4           Mo1 tau(   4) = (   2.7309730   0.0000000  10.0000000  )
         5           Ru1 tau(   5) = (   2.7309730   1.5767280  12.2298301  )
         6           Ru1 tau(   6) = (   1.3654865   3.9418200  12.2298301  )
         7           Ru1 tau(   7) = (  -1.3654865   3.9418200  12.2298301  )
         8           Mo1 tau(   8) = (   0.0000000   1.5767280  12.2298301  )
         9           Ru1 tau(   9) = (   0.0000026   3.1486977  14.3679558  )
        10           Ru1 tau(  10) = (   1.3613647   0.7907388  14.3679576  )
        11           Ru1 tau(  11) = (   4.1005813   0.7907375  14.3679569  )
        12           Mo1 tau(  12) = (   2.7309773   3.1534533  14.3126966  )

     number of k points=    20  Fermi-Dirac smearing, width (Ry)=  0.0110
                       cart. coord. in units 2pi/alat
        k(    1) = (   0.0000000   0.0000000   0.0000000), wk =   0.0555556
        k(    2) = (   0.0000000   0.0352347   0.0000000), wk =   0.1111111
        k(    3) = (   0.0000000   0.0704694   0.0000000), wk =   0.1111111
        k(    4) = (   0.0000000  -0.1057041   0.0000000), wk =   0.0555556
        k(    5) = (   0.0305142   0.0176174   0.0000000), wk =   0.1111111
        k(    6) = (   0.0305142   0.0528521   0.0000000), wk =   0.1111111
        k(    7) = (   0.0305142   0.0880868   0.0000000), wk =   0.1111111
        k(    8) = (   0.0305142  -0.0880868   0.0000000), wk =   0.1111111
        k(    9) = (   0.0305142  -0.0528521   0.0000000), wk =   0.1111111
        k(   10) = (   0.0305142  -0.0176174   0.0000000), wk =   0.1111111
        k(   11) = (   0.0610283   0.0352347   0.0000000), wk =   0.1111111
        k(   12) = (   0.0610283   0.0704694   0.0000000), wk =   0.1111111
        k(   13) = (   0.0610283   0.1057041   0.0000000), wk =   0.1111111
        k(   14) = (   0.0610283  -0.0704694   0.0000000), wk =   0.1111111
        k(   15) = (   0.0610283  -0.0352347   0.0000000), wk =   0.1111111
        k(   16) = (   0.0610283   0.0000000   0.0000000), wk =   0.1111111
        k(   17) = (  -0.0915425  -0.0528521   0.0000000), wk =   0.0555556
        k(   18) = (  -0.0915425  -0.0176174   0.0000000), wk =   0.1111111
        k(   19) = (  -0.0915425   0.0176174   0.0000000), wk =   0.1111111
        k(   20) = (  -0.0915425  -0.1585562   0.0000000), wk =   0.0555556

     Largest allocated arrays     est. size (Mb)     dimensions
     Largest temporary arrays     est. size (Mb)     dimensions

     Initial potential from superposition of free atoms
     Check: negative starting charge=   -0.657498

     starting charge  176.99667, renormalised to  186.00000

[...]

     *
     * You are using vdW-DF for exchange-correlation in this calculation.
     * Please cite the following three references that made this development
     * possible:
     *
     *   M. Dion, H. Rydberg, E. Schroder, D. C. Langreth, and
     *   B. I. Lundqvist, Phys. Rev. Lett. 92, 246401 (2004).
     *
     *   T. Thonhauser, V. R. Cooper, S. Li, A. Puzder, P. Hyldgaard, and
     *   D. C. Langreth, Phys. Rev. B 76, 125112 (2007).
     *
     *   G. Roman-Perez and J. M. Soler, Phys. Rev. Lett. 103, 096102 (2009).
     *
     *
     * If you are using vdW-DF2, please also cite:
     *
     *   K. Lee, E. D. Murray, L. Kong, B. I. Lundqvist, and
     *   D. C. Langreth, Phys. Rev. B 82, 081101(R) (2010).
     *
     *
     * If you are calculating the stress with vdW-DF, please also cite:
     *
     *   R. Sabatini, E. Kucukbenli, B. Kolb, T. Thonhauser, and
     *   S. de Gironcoli, J. Phys.: Condens. Matter 24, 424209 (2012).
     *

     Carrying out vdW-DF run using the following parameters:

     Nqs =      20    Nr_points =    1024   r_max =   100.000
     q_mesh =
               0.00001000     0.04494208     0.09755937     0.15916263
               0.23128650     0.31572767     0.41458969     0.53033537
               0.66584808     0.82450364     1.01025438     1.22772762
               1.48234092     1.78043706     2.12944203     2.53805004
               3.01644009     3.57652955     4.23227104     5.00000000

     Gradients computed in reciprocal space

[...]

     Starting wfc are  156 randomized atomic wfcs

     Self-consistent Calculation

[...]

     iteration # 10     ecut=    36.75 Ry     beta=0.10
     Davidson diagonalization with overlap
     c_bands:  1 eigenvalues not converged
     ethr =  2.87E-06,  avg # of iterations =  6.8

[...]

     total energy              =   -2175.83835347 Ry
     Harris-Foulkes estimate   =   -2175.83835311 Ry
     estimated scf accuracy    <       0.00000133 Ry

     iteration # 18     ecut=    36.75 Ry     beta=0.10
     Davidson diagonalization with overlap
     ethr =  7.13E-10,  avg # of iterations =  2.0

[...]

     negative rho (up, down):  6.854E-01 0.000E+00

     Adding external electric field

     Computed dipole along edir(3) :
        Dipole                0.0334 Ry au,          0.0850 Debye
        Dipole field          0.0001 Ry au

        Potential amp.       -0.0089 Ry
        Total length         45.0665 bohr

     End of self-consistent calculation

[...]

          k = 0.0610 0.0000 0.0000 ( 16034 PWs)   bands (ev):

[...]

          k =-0.0915-0.1586 0.0000 ( 16072 PWs)   bands (ev):

   -70.7502 -70.7264 -70.7021 -70.2653 -70.2425 -70.2199 -70.2194 -70.1966
   -70.1738 -59.1844 -59.0226 -58.9678 -40.9300 -40.8325 -40.8135 -40.7649
   -40.7302 -40.7175 -40.6927 -40.6768 -40.4541 -40.4271 -40.3765 -40.2334
   -40.2124 -40.2065 -40.1960 -40.1931 -40.1811 -40.1705 -40.1576 -40.1550
   -40.1448 -40.1268 -40.1150 -40.0904 -40.0902 -39.9855 -39.9357 -33.2395
   -33.2178 -33.1307 -33.1082 -33.0555 -32.9988 -32.9786 -32.9659 -32.9445
    -2.7812  -2.7164  -2.1974  -2.1133  -2.1104  -2.0906  -1.8555  -1.7659
    -1.6939  -1.5652  -1.5530  -1.4624  -1.2116  -1.1443  -1.0593  -1.0442
    -0.7272  -0.6723  -0.6183  -0.3787  -0.3166  -0.2042   0.1566   0.2394
     0.4056   0.4474   0.5473   0.5669   0.6387   0.7354   0.7782   0.7794
     0.8175   0.8291   0.9484   0.9752   1.0292   1.0824   1.1997   1.4663
     1.4820   1.6704   1.6976   2.0462   2.2098   2.2553   2.2902   2.3052
     2.6836   2.7535   2.7912   2.8295   3.0982   3.1244   3.2402   3.3021
     3.5181   3.7287   3.8359   4.0085   4.1244   4.5486   4.5796   5.1626
     5.4821   5.6934   6.5449   7.2278   7.4222   7.4826   7.6254   7.7340
     8.3303   8.3597   8.9460

     the Fermi energy is     2.3830 ev

!    total energy              =   -2175.83835328 Ry
     Harris-Foulkes estimate   =   -2175.83835356 Ry
     estimated scf accuracy    <       0.00000051 Ry

     The total energy is the sum of the following terms:

     one-electron contribution =  -20383.46775849 Ry
     hartree contribution      =   10189.84328177 Ry
     xc contribution           =    -301.60909145 Ry
     ewald contribution        =    8319.48941404 Ry
     electric field correction =       0.00000329 Ry
     smearing contrib. (-TS)   =      -0.09420244 Ry

     convergence has been achieved in  18 iterations

 BEEF-vdW xc energy contributions
           1 :   -261.184383584016
           2 :    239.750710343944
           3 :   -202.633000495519
           4 :    159.051718838490
           5 :   -118.434002590786
           6 :    87.5026919764430
           7 :   -68.7296617123762
           8 :    60.4736635905056
           9 :   -58.4896120785018
          10 :    58.0231667256848
          11 :   -55.6296115026066
          12 :    50.0933289278958
          13 :   -42.2920999426238
          14 :    34.2704089116820
          15 :   -28.0452783657782
          16 :    24.6645489143450
          17 :   -23.8602151005734
          18 :    24.3433023093736
          19 :   -24.5220836082122
          20 :    23.2648160519339
          21 :   -20.3580050757377
          22 :    16.4830032362879
          23 :   -12.7790999328393
          24 :    10.2415254672672
          25 :   -9.25629844677206
          26 :    9.47367267014346
          27 :   -10.0456758122093
          28 :    10.0771613458264
          29 :   -9.05658151093337
          30 :    7.06102454697367
          31 :   -27.5856522247270
          32 :   -21.0082228218017

     Forces acting on atoms (Ry/au):

     negative rho (up, down):  6.854E-01 0.000E+00
     atom    1 type  1   force =    -0.00000008    0.00268683    0.01581832
     atom    2 type  1   force =     0.00232770   -0.00134268    0.01581960
     atom    3 type  1   force =    -0.00232779   -0.00134234    0.01581944
     atom    4 type  2   force =     0.00000029   -0.00000088    0.02693830
     atom    5 type  1   force =    -0.00000085    0.00169641   -0.01990487
     atom    6 type  1   force =     0.00147486   -0.00084763   -0.01991271
     atom    7 type  1   force =    -0.00147429   -0.00084635   -0.01991105
     atom    8 type  2   force =    -0.00000021    0.00000041   -0.01382809
     atom    9 type  1   force =     0.00000022    0.00018884   -0.00011641
     atom   10 type  1   force =     0.00016368   -0.00009561   -0.00011675
     atom   11 type  1   force =    -0.00016330   -0.00009571   -0.00011695
     atom   12 type  2   force =    -0.00000024   -0.00000128   -0.00048883

     Total force =     0.053735     Total SCF correction =     0.001305

     entering subroutine stress ...

     negative rho (up, down):  6.854E-01 0.000E+00
          total   stress  (Ry/bohr**3)                   (kbar)     P=  -17.98
  -0.00014527   0.00000000  -0.00000000        -21.37      0.00     -0.00
   0.00000000  -0.00014528   0.00000000          0.00    -21.37      0.00
  -0.00000000   0.00000000  -0.00007603         -0.00      0.00    -11.18

 !ASE

     Writing output data file calc.save

     General routines

     Parallel routines

   This run was terminated on:   3:41:23   1Jan2019

   JOB DONE.
Job  /afs/slac/g/suncat/bin/suncat-tsmpirun -x LD_LIBRARY_PATH -wdir /scratch/qe648933_NdHVF pw.x -in pw.inp

TID   HOST_NAME   COMMAND_LINE            STATUS            TERMINATION_TIME
00000 suncat0068 pw.x -in pw.inp   Done                     01/01/2019 03:41:23
00001 suncat0068 pw.x -in pw.inp   Done                     01/01/2019 03:41:23
00002 suncat0068 pw.x -in pw.inp   Done                     01/01/2019 03:41:23
00003 suncat0068 pw.x -in pw.inp   Done                     01/01/2019 03:41:23
00004 suncat0068 pw.x -in pw.inp   Done                     01/01/2019 03:41:23
00005 suncat0068 pw.x -in pw.inp   Done                     01/01/2019 03:41:23
00006 suncat0068 pw.x -in pw.inp   Done                     01/01/2019 03:41:23
00007 suncat0068 pw.x -in pw.inp   Done                     01/01/2019 03:41:23
00008 suncat0059 pw.x -in pw.inp   Done                     01/01/2019 03:41:23
00009 suncat0059 pw.x -in pw.inp   Done                     01/01/2019 03:41:23
00010 suncat0059 pw.x -in pw.inp   Done                     01/01/2019 03:41:23
00011 suncat0059 pw.x -in pw.inp   Done                     01/01/2019 03:41:23
00012 suncat0059 pw.x -in pw.inp   Done                     01/01/2019 03:41:23
00013 suncat0059 pw.x -in pw.inp   Done                     01/01/2019 03:41:23
00014 suncat0059 pw.x -in pw.inp   Done                     01/01/2019 03:41:23
00015 suncat0059 pw.x -in pw.inp   Done                     01/01/2019 03:41:23
00016 suncat0031 pw.x -in pw.inp   Done                     01/01/2019 03:41:23
00017 suncat0031 pw.x -in pw.inp   Done                     01/01/2019 03:41:23
00018 suncat0031 pw.x -in pw.inp   Done                     01/01/2019 03:41:23
00019 suncat0031 pw.x -in pw.inp   Done                     01/01/2019 03:41:23
00020 suncat0031 pw.x -in pw.inp   Done                     01/01/2019 03:41:23
00021 suncat0031 pw.x -in pw.inp   Done                     01/01/2019 03:41:23
00022 suncat0031 pw.x -in pw.inp   Done                     01/01/2019 03:41:23
00023 suncat0031 pw.x -in pw.inp   Done                     01/01/2019 03:41:23
00024 suncat0030 pw.x -in pw.inp   Done                     01/01/2019 03:41:23
00025 suncat0030 pw.x -in pw.inp   Done                     01/01/2019 03:41:23
00026 suncat0030 pw.x -in pw.inp   Done                     01/01/2019 03:41:23
00027 suncat0030 pw.x -in pw.inp   Done                     01/01/2019 03:41:23
00028 suncat0030 pw.x -in pw.inp   Done                     01/01/2019 03:41:23
00029 suncat0030 pw.x -in pw.inp   Done                     01/01/2019 03:41:23
00030 suncat0030 pw.x -in pw.inp   Done                     01/01/2019 03:41:23
00031 suncat0030 pw.x -in pw.inp   Done                     01/01/2019 03:41:23
00032 suncat0280 pw.x -in pw.inp   Done                     01/01/2019 03:41:23
00033 suncat0280 pw.x -in pw.inp   Done                     01/01/2019 03:41:23
00034 suncat0280 pw.x -in pw.inp   Done                     01/01/2019 03:41:23
00035 suncat0280 pw.x -in pw.inp   Done                     01/01/2019 03:41:23
00036 suncat0280 pw.x -in pw.inp   Done                     01/01/2019 03:41:23
00037 suncat0280 pw.x -in pw.inp   Done                     01/01/2019 03:41:23
00038 suncat0280 pw.x -in pw.inp   Done                     01/01/2019 03:41:23
00039 suncat0280 pw.x -in pw.inp   Done                     01/01/2019 03:41:23
00040 suncat0279 pw.x -in pw.inp   Done                     01/01/2019 03:41:23
00041 suncat0279 pw.x -in pw.inp   Done                     01/01/2019 03:41:23
00042 suncat0279 pw.x -in pw.inp   Done                     01/01/2019 03:41:23
00043 suncat0279 pw.x -in pw.inp   Done                     01/01/2019 03:41:23
00044 suncat0279 pw.x -in pw.inp   Done                     01/01/2019 03:41:23
00045 suncat0279 pw.x -in pw.inp   Done                     01/01/2019 03:41:23
00046 suncat0279 pw.x -in pw.inp   Done                     01/01/2019 03:41:23
00047 suncat0279 pw.x -in pw.inp   Done                     01/01/2019 03:41:23
00048 suncat0278 pw.x -in pw.inp   Done                     01/01/2019 03:41:23
00049 suncat0278 pw.x -in pw.inp   Done                     01/01/2019 03:41:23
00050 suncat0278 pw.x -in pw.inp   Done                     01/01/2019 03:41:23
00051 suncat0278 pw.x -in pw.inp   Done                     01/01/2019 03:41:23
00052 suncat0278 pw.x -in pw.inp   Done                     01/01/2019 03:41:23
00053 suncat0278 pw.x -in pw.inp   Done                     01/01/2019 03:41:23
00054 suncat0278 pw.x -in pw.inp   Done                     01/01/2019 03:41:23
00055 suncat0278 pw.x -in pw.inp   Done                     01/01/2019 03:41:23
00056 suncat0099 pw.x -in pw.inp   Done                     01/01/2019 03:41:23
00057 suncat0099 pw.x -in pw.inp   Done                     01/01/2019 03:41:23
00058 suncat0099 pw.x -in pw.inp   Done                     01/01/2019 03:41:23
00059 suncat0099 pw.x -in pw.inp   Done                     01/01/2019 03:41:23
00060 suncat0099 pw.x -in pw.inp   Done                     01/01/2019 03:41:23
00061 suncat0099 pw.x -in pw.inp   Done                     01/01/2019 03:41:23
00062 suncat0099 pw.x -in pw.inp   Done                     01/01/2019 03:41:23
00063 suncat0099 pw.x -in pw.inp   Done                     01/01/2019 03:41:23