     Program PWSCF v.5.1rc2 (svn rev. 11289) starts on 26Dec2018 at  5:47:43

     Current dimensions of program PWSCF are:
     Max number of different atomic species (ntypx) = 10
     Max number of k-points (npk) =  40000
     Max angular momentum in pseudopotentials (lmaxx) =  3
     Presently stress not available with electric field

     IMPORTANT: XC functional enforced from input :
     Exchange-correlation      = BEEF-VDW ( 1  4 27 13 2)
     Any further DFT definition will be discarded
     Please, verify this is what you really want

     Subspace diagonalization in iterative solution of the eigenvalue problem:
     a serial algorithm will be used

     bravais-lattice index     =            0
     lattice parameter (alat)  =       1.8897  a.u.
     unit-cell volume          =    5782.2794 (a.u.)^3
     number of atoms/cell      =           12
     number of atomic types    =            2
     number of electrons       =       147.00
     number of Kohn-Sham states=          103
     kinetic-energy cutoff     =      36.7493  Ry
     charge density cutoff     =     367.4932  Ry
     convergence threshold     =      1.0E-06
     mixing beta               =       0.1000
     number of iterations used =           10  plain     mixing
     Exchange-correlation      = BEEF-VDW ( 1  4 27 13 2)
     nstep                     =           50

     celldm(1)=   1.889726  celldm(2)=   0.000000  celldm(3)=   0.000000
     celldm(4)=   0.000000  celldm(5)=   0.000000  celldm(6)=   0.000000

     crystal axes: (cart. coord. in units of alat)
               a(1) = (   6.275419   0.000000   0.000000 )
               a(2) = (  -3.137710   5.434673   0.000000 )
               a(3) = (   0.000000   0.000000  25.123858 )

     reciprocal axes: (cart. coord. in units 2 pi/alat)
               b(1) = (  0.159352  0.092002  0.000000 )
               b(2) = (  0.000000  0.184004  0.000000 )
               b(3) = (  0.000000  0.000000  0.039803 )

     PseudoPot. # 1 for Hf read from file:
     /afs/slac.stanford.edu/u/if/mamunm/psp/gbrv1.5pbe/Hf.UPF
     MD5 check sum: 8ee9378dfe14276e333edf04c5e4aa26
     Pseudo is Ultrasoft + core correction, Zval = 12.0
     Generated by new atomic code, or converted to UPF format
     Using radial grid of  921 points,  8 beta functions with:
                l(1) =   0
                l(2) =   0
                l(3) =   0
                l(4) =   1
                l(5) =   1
                l(6) =   2
                l(7) =   2
                l(8) =   3
     Q(r) pseudized with  6 coefficients,  rinner =    1.200   1.200   1.200
                                                       1.200   1.200   1.200
                                                       1.200

     PseudoPot. # 2 for In read from file:
     /afs/slac.stanford.edu/u/if/mamunm/psp/gbrv1.5pbe/In.UPF
     MD5 check sum: 90777abd96fbb83f2e67db2a40c566b9
     Pseudo is Ultrasoft + core correction, Zval = 13.0
     Generated by new atomic code, or converted to UPF format
     Using radial grid of  889 points,  6 beta functions with:
                l(1) =   0
                l(2) =   0
                l(3) =   1
                l(4) =   1
                l(5) =   2
                l(6) =   2
     Q(r) pseudized with  6 coefficients,  rinner =    1.400   1.400   1.400
                                                       1.400   1.400

     vdW kernel table read from file vdW_kernel_table
     MD5 check sum: 095c7af220d748ca6e76c0b4c6cfb241

     atomic species   valence    mass     pseudopotential
        Hf1           12.00   178.49000     Hf( 1.00)
        In1           13.00   114.81800     In( 1.00)

     No symmetry found

   Cartesian axes

     site n.     atom                  positions (alat units)
         1           Hf1 tau(   1) = (   0.0000000   0.0000000  10.0000000  )
         2           Hf1 tau(   2) = (  -1.5688548   2.7173363  10.0000000  )
         3           Hf1 tau(   3) = (   1.5688548   2.7173363  10.0000000  )
         4           In1 tau(   4) = (   3.1377097   0.0000000  10.0000000  )
         5           Hf1 tau(   5) = (   3.1377097   1.8115575  12.5619292  )
         6           Hf1 tau(   6) = (   1.5688548   4.5288938  12.5619292  )
         7           Hf1 tau(   7) = (  -1.5688548   4.5288938  12.5619292  )
         8           In1 tau(   8) = (   0.0000000   1.8115575  12.5619292  )
         9           Hf1 tau(   9) = (  -0.0000000   3.6231151  15.1238584  )
        10           Hf1 tau(  10) = (   1.5688548   0.9057788  15.1238584  )
        11           Hf1 tau(  11) = (   4.7065645   0.9057788  15.1238584  )
        12           In1 tau(  12) = (   3.1377097   3.6231151  15.1238584  )

     number of k points=    20  Fermi-Dirac smearing, width (Ry)=  0.0110
                       cart. coord. in units 2pi/alat
        k(    1) = (   0.0000000   0.0000000   0.0000000), wk =   0.0555556
        k(    2) = (   0.0000000   0.0306673   0.0000000), wk =   0.1111111
        k(    3) = (   0.0000000   0.0613346   0.0000000), wk =   0.1111111
        k(    4) = (   0.0000000  -0.0920019   0.0000000), wk =   0.0555556
        k(    5) = (   0.0265587   0.0153336   0.0000000), wk =   0.1111111
        k(    6) = (   0.0265587   0.0460009   0.0000000), wk =   0.1111111
        k(    7) = (   0.0265587   0.0766682   0.0000000), wk =   0.1111111
        k(    8) = (   0.0265587  -0.0766682   0.0000000), wk =   0.1111111
        k(    9) = (   0.0265587  -0.0460009   0.0000000), wk =   0.1111111
        k(   10) = (   0.0265587  -0.0153336   0.0000000), wk =   0.1111111
        k(   11) = (   0.0531173   0.0306673   0.0000000), wk =   0.1111111
        k(   12) = (   0.0531173   0.0613346   0.0000000), wk =   0.1111111
        k(   13) = (   0.0531173   0.0920019   0.0000000), wk =   0.1111111
        k(   14) = (   0.0531173  -0.0613346   0.0000000), wk =   0.1111111
        k(   15) = (   0.0531173  -0.0306673   0.0000000), wk =   0.1111111
        k(   16) = (   0.0531173   0.0000000   0.0000000), wk =   0.1111111
        k(   17) = (  -0.0796760  -0.0460009   0.0000000), wk =   0.0555556
        k(   18) = (  -0.0796760  -0.0153336   0.0000000), wk =   0.1111111
        k(   19) = (  -0.0796760   0.0153336   0.0000000), wk =   0.1111111
        k(   20) = (  -0.0796760  -0.1380028   0.0000000), wk =   0.0555556

     Largest allocated arrays     est. size (Mb)     dimensions
     Largest temporary arrays     est. size (Mb)     dimensions

     Check: negative/imaginary core charge=   -0.000003    0.000000

     Initial potential from superposition of free atoms
     Check: negative starting charge=   -0.969406

     starting charge  124.49998, renormalised to  147.00000

     negative rho (up, down):  1.145E+00 0.000E+00

     *
     * You are using vdW-DF for exchange-correlation in this calculation.
     * Please cite the following three references that made this development
     * possible:
     *
     *   M. Dion, H. Rydberg, E. Schroder, D. C. Langreth, and
     *   B. I. Lundqvist, Phys. Rev. Lett. 92, 246401 (2004).
     *
     *   T. Thonhauser, V. R. Cooper, S. Li, A. Puzder, P. Hyldgaard, and
     *   D. C. Langreth, Phys. Rev. B 76, 125112 (2007).
     *
     *   G. Roman-Perez and J. M. Soler, Phys. Rev. Lett. 103, 096102 (2009).
     *
     *
     * If you are using vdW-DF2, please also cite:
     *
     *   K. Lee, E. D. Murray, L. Kong, B. I. Lundqvist, and
     *   D. C. Langreth, Phys. Rev. B 82, 081101(R) (2010).
     *
     *
     * If you are calculating the stress with vdW-DF, please also cite:
     *
     *   R. Sabatini, E. Kucukbenli, B. Kolb, T. Thonhauser, and
     *   S. de Gironcoli, J. Phys.: Condens. Matter 24, 424209 (2012).
     *

     Carrying out vdW-DF run using the following parameters:

     Nqs =      20    Nr_points =    1024   r_max =   100.000
     q_mesh =
               0.00001000     0.04494208     0.09755937     0.15916263
               0.23128650     0.31572767     0.41458969     0.53033537
               0.66584808     0.82450364     1.01025438     1.22772762
               1.48234092     1.78043706     2.12944203     2.53805004
               3.01644009     3.57652955     4.23227104     5.00000000

     Gradients computed in reciprocal space

     Adding external electric field

     Computed dipole along edir(3) :
        Dipole               -0.0000 Ry au,         -0.0000 Debye
        Dipole field         -0.0000 Ry au

        Potential amp.        0.0000 Ry
        Total length         46.2903 bohr

     Starting wfc are  144 randomized atomic wfcs

     Self-consistent Calculation

     iteration #  1     ecut=    36.75 Ry     beta=0.10
     Davidson diagonalization with overlap
     ethr =  1.00E-02,  avg # of iterations =  8.2

[...]

     total energy              =   -1816.05478642 Ry
     Harris-Foulkes estimate   =   -1871.58437761 Ry
     estimated scf accuracy    <     311.16095349 Ry

[...]

     End of self-consistent calculation

          k = 0.0000 0.0000 0.0000 ( 21859 PWs)   bands (ev):

   -61.2370 -61.2366 -61.2044 -61.2044 -61.2043 -61.2042 -60.7113 -60.6788
   -60.6780 -29.9675 -29.9673 -29.9223 -29.8852 -29.8852 -29.8638 -29.8638
   -29.8486 -29.8447 -29.8447 -29.7974 -29.7974 -29.6036 -29.5948 -29.5817
   -29.4323 -29.4322 -29.3929 -29.3929 -29.3540 -29.3539 -29.1875 -29.1871
   -29.1626 -29.1251 -28.9361 -28.9356 -12.8106 -12.8106 -12.8057 -12.7844
   -12.7844 -12.7683 -12.7597 -12.7550 -12.7550 -12.7523 -12.7523 -12.7231
   -12.7231 -12.7225 -12.7225  -6.3929  -5.0429  -4.3447  -1.9977  -1.9738
    -1.9551  -0.9734  -0.9733  -0.5787  -0.5787  -0.3738  -0.3738  -0.1131
     0.0480   0.4586   0.4586   0.6381   0.6381   1.0565   1.1491   1.3057
     1.5645   1.5645   1.6031   1.6031   1.9857   1.9857   2.0349   2.3095
     2.3095   2.4533   2.6296   3.0224   3.2254   4.2032   4.2032   4.3924
     4.3933   4.3933   4.4866   4.4866   4.4927   4.6184   4.6184   4.7715
     4.8997   4.8998   4.9898   5.0762   5.0762   5.1287   5.2565

[...]

          k =-0.0797-0.0460 0.0000 ( 21740 PWs)   bands (ev):

[...]

     the Fermi energy is     1.4780 ev

!    total energy              =   -1849.32972956 Ry
     Harris-Foulkes estimate   =   -1849.32972625 Ry
     estimated scf accuracy    <       0.00000048 Ry

     The total energy is the sum of the following terms:

     one-electron contribution =   -9038.45930281 Ry
     hartree contribution      =    4528.53997837 Ry
     xc contribution           =    -813.58967851 Ry
     ewald contribution        =    3474.26812589 Ry
     electric field correction =       0.00000000 Ry
     smearing contrib. (-TS)   =      -0.08885250 Ry

     convergence has been achieved in  20 iterations

 BEEF-vdW xc energy contributions
           1 :   -732.316781021123
           2 :    679.519725770326
           3 :   -586.441820472090
           4 :    473.126568245584
           5 :   -360.049228317999
           6 :    262.083396798909
           7 :   -185.945835123765
           8 :    131.303166016434
           9 :   -94.0220893266032
          10 :    69.3611212826394
          11 :   -53.6629920791664
          12 :    44.3358294547089
[...]
     MD5 check sum: 8ee9378dfe14276e333edf04c5e4aa26
     Pseudo is Ultrasoft + core correction, Zval = 12.0
     Generated by new atomic code, or converted to UPF format
     Using radial grid of  921 points,  8 beta functions with:
                l(1) =   0
                l(2) =   0
                l(3) =   0
                l(4) =   1
                l(5) =   1
                l(6) =   2
                l(7) =   2
                l(8) =   3
     Q(r) pseudized with  6 coefficients,  rinner =    1.200   1.200   1.200
                                                       1.200   1.200   1.200
                                                       1.200

     PseudoPot. # 2 for In read from file:
     /afs/slac.stanford.edu/u/if/mamunm/psp/gbrv1.5pbe/In.UPF
     MD5 check sum: 90777abd96fbb83f2e67db2a40c566b9
     Pseudo is Ultrasoft + core correction, Zval = 13.0
     Generated by new atomic code, or converted to UPF format
     Using radial grid of  889 points,  6 beta functions with:
                l(1) =   0
                l(2) =   0
                l(3) =   1
                l(4) =   1
                l(5) =   2
                l(6) =   2
     Q(r) pseudized with  6 coefficients,  rinner =    1.400   1.400   1.400
                                                       1.400   1.400

     vdW kernel table read from file vdW_kernel_table
     MD5 check sum: 095c7af220d748ca6e76c0b4c6cfb241

     atomic species   valence    mass     pseudopotential
        Hf1           12.00   178.49000     Hf( 1.00)
        In1           13.00   114.81800     In( 1.00)

     No symmetry found

   Cartesian axes

     site n.     atom                  positions (alat units)
         1           Hf1 tau(   1) = (   0.0000000   0.0000000  10.0000000  )
         2           Hf1 tau(   2) = (  -1.5688548   2.7173363  10.0000000  )
         3           Hf1 tau(   3) = (   1.5688548   2.7173363  10.0000000  )
         4           In1 tau(   4) = (   3.1377097   0.0000000  10.0000000  )
         5           Hf1 tau(   5) = (   3.1377097   1.8115575  12.5619292  )
         6           Hf1 tau(   6) = (   1.5688548   4.5288938  12.5619292  )
         7           Hf1 tau(   7) = (  -1.5688548   4.5288938  12.5619292  )
         8           In1 tau(   8) = (   0.0000000   1.8115575  12.5619292  )
         9           Hf1 tau(   9) = (   0.0000013   3.6251778  15.0470931  )
        10           Hf1 tau(  10) = (   1.5710838   0.9041808  15.0473724  )
        11           Hf1 tau(  11) = (   4.7043346   0.9041773  15.0473718  )
        12           In1 tau(  12) = (   3.1377132   3.6230372  15.2770900  )

     number of k points=    20  Fermi-Dirac smearing, width (Ry)=  0.0110
                       cart. coord. in units 2pi/alat
        k(    1) = (   0.0000000   0.0000000   0.0000000), wk =   0.0555556
        k(    2) = (   0.0000000   0.0306673   0.0000000), wk =   0.1111111
        k(    3) = (   0.0000000   0.0613346   0.0000000), wk =   0.1111111
        k(    4) = (   0.0000000  -0.0920019   0.0000000), wk =   0.0555556
        k(    5) = (   0.0265587   0.0153336   0.0000000), wk =   0.1111111
        k(    6) = (   0.0265587   0.0460009   0.0000000), wk =   0.1111111
        k(    7) = (   0.0265587   0.0766682   0.0000000), wk =   0.1111111
        k(    8) = (   0.0265587  -0.0766682   0.0000000), wk =   0.1111111
        k(    9) = (   0.0265587  -0.0460009   0.0000000), wk =   0.1111111
        k(   10) = (   0.0265587  -0.0153336   0.0000000), wk =   0.1111111
        k(   11) = (   0.0531173   0.0306673   0.0000000), wk =   0.1111111
        k(   12) = (   0.0531173   0.0613346   0.0000000), wk =   0.1111111
        k(   13) = (   0.0531173   0.0920019   0.0000000), wk =   0.1111111
        k(   14) = (   0.0531173  -0.0613346   0.0000000), wk =   0.1111111
        k(   15) = (   0.0531173  -0.0306673   0.0000000), wk =   0.1111111
        k(   16) = (   0.0531173   0.0000000   0.0000000), wk =   0.1111111
        k(   17) = (  -0.0796760  -0.0460009   0.0000000), wk =   0.0555556
        k(   18) = (  -0.0796760  -0.0153336   0.0000000), wk =   0.1111111
        k(   19) = (  -0.0796760   0.0153336   0.0000000), wk =   0.1111111
        k(   20) = (  -0.0796760  -0.1380028   0.0000000), wk =   0.0555556

     Largest allocated arrays     est. size (Mb)     dimensions
     Largest temporary arrays     est. size (Mb)     dimensions

     Check: negative/imaginary core charge=   -0.000003    0.000000

     Initial potential from superposition of free atoms
     Check: negative starting charge=   -0.969872

     starting charge  124.49998, renormalised to  147.00000

[...]

     *
     * You are using vdW-DF for exchange-correlation in this calculation.
     * Please cite the following three references that made this development
     * possible:
     *
     *   M. Dion, H. Rydberg, E. Schroder, D. C. Langreth, and
     *   B. I. Lundqvist, Phys. Rev. Lett. 92, 246401 (2004).
     *
     *   T. Thonhauser, V. R. Cooper, S. Li, A. Puzder, P. Hyldgaard, and
     *   D. C. Langreth, Phys. Rev. B 76, 125112 (2007).
     *
     *   G. Roman-Perez and J. M. Soler, Phys. Rev. Lett. 103, 096102 (2009).
     *
     *
     * If you are using vdW-DF2, please also cite:
     *
     *   K. Lee, E. D. Murray, L. Kong, B. I. Lundqvist, and
     *   D. C. Langreth, Phys. Rev. B 82, 081101(R) (2010).
     *
     *
     * If you are calculating the stress with vdW-DF, please also cite:
     *
     *   R. Sabatini, E. Kucukbenli, B. Kolb, T. Thonhauser, and
     *   S. de Gironcoli, J. Phys.: Condens. Matter 24, 424209 (2012).
     *

     Carrying out vdW-DF run using the following parameters:

     Nqs =      20    Nr_points =    1024   r_max =   100.000
     q_mesh =
               0.00001000     0.04494208     0.09755937     0.15916263
               0.23128650     0.31572767     0.41458969     0.53033537
               0.66584808     0.82450364     1.01025438     1.22772762
               1.48234092     1.78043706     2.12944203     2.53805004
               3.01644009     3.57652955     4.23227104     5.00000000

     Gradients computed in reciprocal space

[...]

     Starting wfc are  144 randomized atomic wfcs

     Self-consistent Calculation

[...]

     total energy              =   -1849.34624942 Ry
     Harris-Foulkes estimate   =   -1849.34624877 Ry
     estimated scf accuracy    <       0.00000246 Ry

     iteration # 20     ecut=    36.75 Ry     beta=0.10
     Davidson diagonalization with overlap
     ethr =  1.68E-09,  avg # of iterations =  1.0

[...]

     negative rho (up, down):  1.025E+00 0.000E+00

     Adding external electric field

     Computed dipole along edir(3) :
        Dipole               -0.0280 Ry au,         -0.0712 Debye
        Dipole field         -0.0001 Ry au

        Potential amp.        0.0056 Ry
        Total length         46.2903 bohr

     End of self-consistent calculation

[...]

          k = 0.0531 0.0000 0.0000 ( 21781 PWs)   bands (ev):

[...]

          k =-0.0797-0.1380 0.0000 ( 21740 PWs)   bands (ev):

   -61.2678 -61.2570 -61.2461 -61.1623 -61.1515 -61.1404 -60.6895 -60.6785
   -60.6676 -29.9450 -29.9117 -29.9008 -29.8634 -29.8527 -29.8163 -29.7993
   -29.7943 -29.7758 -29.7602 -29.7384 -29.6942 -29.6783 -29.6606 -29.6474
   -29.5844 -29.4621 -29.4566 -29.3820 -29.2946 -29.2755 -29.2489 -29.2376
   -29.1526 -29.1021 -29.0668 -28.9465 -12.8351 -12.8218 -12.8199 -12.8011
   -12.7995 -12.7984 -12.7805 -12.7759 -12.7650 -12.7590 -12.7212 -12.7040
   -12.6969 -12.6863 -12.6853  -5.1464  -4.7638  -4.0354  -3.1279  -2.3013
    -2.0386  -1.8856  -0.8209  -0.6549  -0.6381  -0.3336  -0.0141   0.0539
     0.0836   0.5963   0.6664   0.7245   0.7578   0.9210   1.2057   1.2607
     1.2762   1.3740   1.4110   1.5982   1.6631   1.7962   2.1813   2.3068
     2.3692   2.5062   2.6625   2.7944   3.0702   3.6278   3.7390   3.9107
     3.9981   4.0628   4.0707   4.2066   4.2982   4.3798   4.4249   4.4778
     4.4789   4.7899   4.8821   5.0064   5.1566   5.4222   5.5480

     the Fermi energy is     1.4406 ev

!    total energy              =   -1849.34625265 Ry
     Harris-Foulkes estimate   =   -1849.34624992 Ry
     estimated scf accuracy    <       0.00000048 Ry

     The total energy is the sum of the following terms:

     one-electron contribution =   -9057.04972691 Ry
     hartree contribution      =    4537.84103670 Ry
     xc contribution           =    -813.65381563 Ry
     ewald contribution        =    3483.60584692 Ry
     electric field correction =       0.00000171 Ry
     smearing contrib. (-TS)   =      -0.08959543 Ry

     convergence has been achieved in  20 iterations

 BEEF-vdW xc energy contributions
           1 :   -732.690050395814
           2 :    679.904189673787
           3 :   -586.834443429356
           4 :    473.508893783900
           5 :   -360.399000233489
           6 :    262.393082438566
           7 :   -186.230688453948
           8 :    131.591311274846
           9 :   -94.3345771810727
          10 :    69.6992528657264
          11 :   -54.0108149177007
          12 :    44.6742382784777
          13 :   -39.3208846610764
          14 :    35.2028616007410
          15 :   -29.4802330164749
          16 :    20.2135824391371
          17 :   -7.33952430293812
          18 :   -7.13225266546897
          19 :    19.9408239817401
          20 :   -28.0306832050230
          21 :    29.8666870615134
          22 :   -25.9674724338734
          23 :    18.4882601665611
          24 :   -10.2147388153242
          25 :    3.54290388079698
          26 :   0.107867098208658
          27 :  -0.360702299956301
          28 :   -2.37566797294801
          29 :    7.20224456953656
          30 :   -12.9192345515361
          31 :   -54.4808326412788
          32 :   -39.3355287863885

     Forces acting on atoms (Ry/au):

     negative rho (up, down):  1.025E+00 0.000E+00
     atom    1 type  1   force =    -0.00000071   -0.00309364    0.01147069
     atom    2 type  1   force =    -0.00268376    0.00154288    0.01142219
     atom    3 type  1   force =     0.00268498    0.00154477    0.01142257
     atom    4 type  2   force =     0.00000015    0.00000403   -0.02120529
     atom    5 type  1   force =     0.00000025    0.00604976   -0.00207302
     atom    6 type  1   force =     0.00523990   -0.00302766   -0.00211734
     atom    7 type  1   force =    -0.00523941   -0.00302753   -0.00211705
     atom    8 type  2   force =     0.00000014   -0.00002635   -0.01005378
     atom    9 type  1   force =     0.00000021    0.00047629    0.00065091
     atom   10 type  1   force =     0.00036034   -0.00020189    0.00067071
     atom   11 type  1   force =    -0.00036039   -0.00020273    0.00067027
     atom   12 type  2   force =    -0.00000169   -0.00003794    0.00125915

     Total force =     0.033145     Total SCF correction =     0.002362

     entering subroutine stress ...

     negative rho (up, down):  1.025E+00 0.000E+00
          total   stress  (Ry/bohr**3)                   (kbar)     P=  -11.04
  -0.00009663  -0.00000000  -0.00000000        -14.22     -0.00     -0.00
  -0.00000000  -0.00009659   0.00000002         -0.00    -14.21      0.00
  -0.00000000   0.00000002  -0.00003199         -0.00      0.00     -4.71

 !ASE

     Writing output data file calc.save

     General routines

     Parallel routines

   This run was terminated on:   7:34: 0  26Dec2018

   JOB DONE.
Job  /afs/slac/g/suncat/bin/suncat-tsmpirun -x LD_LIBRARY_PATH -wdir /scratch/qe109740_ej9oG pw.x -in pw.inp

TID   HOST_NAME   COMMAND_LINE            STATUS            TERMINATION_TIME
00000 suncat0180 pw.x -in pw.inp   Done                     12/26/2018 07:34:00
00001 suncat0180 pw.x -in pw.inp   Done                     12/26/2018 07:34:00
00002 suncat0180 pw.x -in pw.inp   Done                     12/26/2018 07:34:00
00003 suncat0180 pw.x -in pw.inp   Done                     12/26/2018 07:34:00
00004 suncat0180 pw.x -in pw.inp   Done                     12/26/2018 07:34:00
00005 suncat0180 pw.x -in pw.inp   Done                     12/26/2018 07:34:00
00006 suncat0180 pw.x -in pw.inp   Done                     12/26/2018 07:34:00
00007 suncat0180 pw.x -in pw.inp   Done                     12/26/2018 07:34:00
00008 suncat0167 pw.x -in pw.inp   Done                     12/26/2018 07:34:00
00009 suncat0167 pw.x -in pw.inp   Done                     12/26/2018 07:34:00
00010 suncat0167 pw.x -in pw.inp   Done                     12/26/2018 07:34:00
00011 suncat0167 pw.x -in pw.inp   Done                     12/26/2018 07:34:00
00012 suncat0167 pw.x -in pw.inp   Done                     12/26/2018 07:34:00
00013 suncat0167 pw.x -in pw.inp   Done                     12/26/2018 07:34:00
00014 suncat0167 pw.x -in pw.inp   Done                     12/26/2018 07:34:00
00015 suncat0167 pw.x -in pw.inp   Done                     12/26/2018 07:34:00
00016 suncat0166 pw.x -in pw.inp   Done                     12/26/2018 07:34:00
00017 suncat0166 pw.x -in pw.inp   Done                     12/26/2018 07:34:00
00018 suncat0166 pw.x -in pw.inp   Done                     12/26/2018 07:34:00
00019 suncat0166 pw.x -in pw.inp   Done                     12/26/2018 07:34:00
00020 suncat0166 pw.x -in pw.inp   Done                     12/26/2018 07:34:00
00021 suncat0166 pw.x -in pw.inp   Done                     12/26/2018 07:34:00
00022 suncat0166 pw.x -in pw.inp   Done                     12/26/2018 07:34:00
00023 suncat0166 pw.x -in pw.inp   Done                     12/26/2018 07:34:00
00024 suncat0165 pw.x -in pw.inp   Done                     12/26/2018 07:34:00
00025 suncat0165 pw.x -in pw.inp   Done                     12/26/2018 07:34:00
00026 suncat0165 pw.x -in pw.inp   Done                     12/26/2018 07:34:00
00027 suncat0165 pw.x -in pw.inp   Done                     12/26/2018 07:34:00
00028 suncat0165 pw.x -in pw.inp   Done                     12/26/2018 07:34:00
00029 suncat0165 pw.x -in pw.inp   Done                     12/26/2018 07:34:00
00030 suncat0165 pw.x -in pw.inp   Done                     12/26/2018 07:34:00
00031 suncat0165 pw.x -in pw.inp   Done                     12/26/2018 07:34:00
00032 suncat0164 pw.x -in pw.inp   Done                     12/26/2018 07:34:00
00033 suncat0164 pw.x -in pw.inp   Done                     12/26/2018 07:34:00
00034 suncat0164 pw.x -in pw.inp   Done                     12/26/2018 07:34:00
00035 suncat0164 pw.x -in pw.inp   Done                     12/26/2018 07:34:00
00036 suncat0164 pw.x -in pw.inp   Done                     12/26/2018 07:34:00
00037 suncat0164 pw.x -in pw.inp   Done                     12/26/2018 07:34:00
00038 suncat0164 pw.x -in pw.inp   Done                     12/26/2018 07:34:00
00039 suncat0164 pw.x -in pw.inp   Done                     12/26/2018 07:34:00
00040 suncat0149 pw.x -in pw.inp   Done                     12/26/2018 07:34:00
00041 suncat0149 pw.x -in pw.inp   Done                     12/26/2018 07:34:00
00042 suncat0149 pw.x -in pw.inp   Done                     12/26/2018 07:34:00
00043 suncat0149 pw.x -in pw.inp   Done                     12/26/2018 07:34:00
00044 suncat0149 pw.x -in pw.inp   Done                     12/26/2018 07:34:00
00045 suncat0149 pw.x -in pw.inp   Done                     12/26/2018 07:34:00
00046 suncat0149 pw.x -in pw.inp   Done                     12/26/2018 07:34:00
00047 suncat0149 pw.x -in pw.inp   Done                     12/26/2018 07:34:00
00048 suncat0148 pw.x -in pw.inp   Done                     12/26/2018 07:34:00
00049 suncat0148 pw.x -in pw.inp   Done                     12/26/2018 07:34:00
00050 suncat0148 pw.x -in pw.inp   Done                     12/26/2018 07:34:00
00051 suncat0148 pw.x -in pw.inp   Done                     12/26/2018 07:34:00
00052 suncat0148 pw.x -in pw.inp   Done                     12/26/2018 07:34:00
00053 suncat0148 pw.x -in pw.inp   Done                     12/26/2018 07:34:00
00054 suncat0148 pw.x -in pw.inp   Done                     12/26/2018 07:34:00
00055 suncat0148 pw.x -in pw.inp   Done                     12/26/2018 07:34:00
00056 suncat0137 pw.x -in pw.inp   Done                     12/26/2018 07:34:00
00057 suncat0137 pw.x -in pw.inp   Done                     12/26/2018 07:34:00
00058 suncat0137 pw.x -in pw.inp   Done                     12/26/2018 07:34:00
00059 suncat0137 pw.x -in pw.inp   Done                     12/26/2018 07:34:00
00060 suncat0137 pw.x -in pw.inp   Done                     12/26/2018 07:34:00
00061 suncat0137 pw.x -in pw.inp   Done                     12/26/2018 07:34:00
00062 suncat0137 pw.x -in pw.inp   Done                     12/26/2018 07:34:00
00063 suncat0137 pw.x -in pw.inp   Done                     12/26/2018 07:34:00