     Program PWSCF v.5.1rc2 (svn rev. 11289) starts on  2Jan2019 at 14:54:12

     Current dimensions of program PWSCF are:
     Max number of different atomic species (ntypx) = 10
     Max number of k-points (npk) =  40000
     Max angular momentum in pseudopotentials (lmaxx) =  3
     Presently stress not available with electric field

     IMPORTANT: XC functional enforced from input :
     Exchange-correlation      = BEEF-VDW ( 1  4 27 13 2)
     Any further DFT definition will be discarded
     Please, verify this is what you really want

     Subspace diagonalization in iterative solution of the eigenvalue problem:
     a serial algorithm will be used

     bravais-lattice index     =            0
     lattice parameter (alat)  =       1.8897  a.u.
     unit-cell volume          =    4606.6878 (a.u.)^3
     number of atoms/cell      =           12
     number of atomic types    =            2
     number of electrons       =       237.00
     number of Kohn-Sham states=          148
     kinetic-energy cutoff     =      36.7493  Ry
     charge density cutoff     =     367.4932  Ry
     convergence threshold     =      1.0E-06
     mixing beta               =       0.1000
     number of iterations used =           10  plain     mixing
     Exchange-correlation      = BEEF-VDW ( 1  4 27 13 2)
     nstep                     =           50

     celldm(1)=   1.889726  celldm(2)=   0.000000  celldm(3)=   0.000000
     celldm(4)=   0.000000  celldm(5)=   0.000000  celldm(6)=   0.000000

     crystal axes: (cart. coord. in units of alat)
               a(1) = (   5.658311   0.000000   0.000000 )
               a(2) = (  -2.829156   4.900241   0.000000 )
               a(3) = (   0.000000   0.000000  24.619992 )

     reciprocal axes: (cart. coord. in units 2 pi/alat)
               b(1) = (  0.176731  0.102036  0.000000 )
               b(2) = (  0.000000  0.204072  0.000000 )
               b(3) = (  0.000000  0.000000  0.040617 )

     PseudoPot. # 1 for Zn read from file:
     /afs/slac.stanford.edu/u/if/mamunm/psp/gbrv1.5pbe/Zn.UPF
     MD5 check sum: df62231357ef9e81f77b2b3087fa5675
     Pseudo is Ultrasoft, Zval = 20.0
     Generated by new atomic code, or converted to UPF format
     Using radial grid of  943 points,  6 beta functions with:
                l(1) =   0
                l(2) =   0
                l(3) =   1
                l(4) =   1
                l(5) =   2
                l(6) =   2
     Q(r) pseudized with  8 coefficients,  rinner =    1.100   1.100   1.100
                                                       1.100   1.100

     PseudoPot. # 2 for Ag read from file:
     /afs/slac.stanford.edu/u/if/mamunm/psp/gbrv1.5pbe/Ag.UPF
     MD5 check sum: d66d668201baa78d5eb5b04ef7011058
     Pseudo is Ultrasoft + core correction, Zval = 19.0
     Generated by new atomic code, or converted to UPF format
     Using radial grid of  887 points,  6 beta functions with:
                l(1) =   0
                l(2) =   0
                l(3) =   1
                l(4) =   1
                l(5) =   2
                l(6) =   2
     Q(r) pseudized with  6 coefficients,  rinner =    1.300   1.300   1.300
                                                       1.300   1.300

     vdW kernel table read from file vdW_kernel_table
     MD5 check sum: 095c7af220d748ca6e76c0b4c6cfb241

     atomic species   valence    mass     pseudopotential
        Zn1           20.00    65.38000     Zn( 1.00)
        Ag1           19.00   107.86820     Ag( 1.00)

     No symmetry found

   Cartesian axes

     site n.     atom                  positions (alat units)
         1           Zn1 tau(   1) = (   0.0000000   0.0000000  10.0000000  )
         2           Zn1 tau(   2) = (  -1.4145778   2.4501206  10.0000000  )
         3           Zn1 tau(   3) = (   1.4145778   2.4501206  10.0000000  )
         4           Ag1 tau(   4) = (   2.8291556   0.0000000  10.0000000  )
         5           Zn1 tau(   5) = (   2.8291556   1.6334137  12.3099958  )
         6           Zn1 tau(   6) = (   1.4145778   4.0835343  12.3099958  )
         7           Zn1 tau(   7) = (  -1.4145778   4.0835343  12.3099958  )
         8           Ag1 tau(   8) = (   0.0000000   1.6334137  12.3099958  )
         9           Zn1 tau(   9) = (  -0.0000000   3.2668274  14.6199917  )
        10           Zn1 tau(  10) = (   1.4145778   0.8167069  14.6199917  )
        11           Zn1 tau(  11) = (   4.2437333   0.8167069  14.6199917  )
        12           Ag1 tau(  12) = (   2.8291556   3.2668274  14.6199917  )

     number of k points=    20  Fermi-Dirac smearing, width (Ry)=  0.0110
                       cart. coord. in units 2pi/alat
        k(    1) = (   0.0000000   0.0000000   0.0000000), wk =   0.0555556
        k(    2) = (   0.0000000   0.0340119   0.0000000), wk =   0.1111111
        k(    3) = (   0.0000000   0.0680239   0.0000000), wk =   0.1111111
        k(    4) = (   0.0000000  -0.1020358   0.0000000), wk =   0.0555556
        k(    5) = (   0.0294552   0.0170060   0.0000000), wk =   0.1111111
        k(    6) = (   0.0294552   0.0510179   0.0000000), wk =   0.1111111
        k(    7) = (   0.0294552   0.0850298   0.0000000), wk =   0.1111111
        k(    8) = (   0.0294552  -0.0850298   0.0000000), wk =   0.1111111
        k(    9) = (   0.0294552  -0.0510179   0.0000000), wk =   0.1111111
        k(   10) = (   0.0294552  -0.0170060   0.0000000), wk =   0.1111111
        k(   11) = (   0.0589104   0.0340119   0.0000000), wk =   0.1111111
        k(   12) = (   0.0589104   0.0680239   0.0000000), wk =   0.1111111
        k(   13) = (   0.0589104   0.1020358   0.0000000), wk =   0.1111111
        k(   14) = (   0.0589104  -0.0680239   0.0000000), wk =   0.1111111
        k(   15) = (   0.0589104  -0.0340119   0.0000000), wk =   0.1111111
        k(   16) = (   0.0589104   0.0000000   0.0000000), wk =   0.1111111
        k(   17) = (  -0.0883656  -0.0510179   0.0000000), wk =   0.0555556
        k(   18) = (  -0.0883656  -0.0170060   0.0000000), wk =   0.1111111
        k(   19) = (  -0.0883656   0.0170060   0.0000000), wk =   0.1111111
        k(   20) = (  -0.0883656  -0.1530537   0.0000000), wk =   0.0555556

     Largest allocated arrays     est. size (Mb)     dimensions
     Largest temporary arrays     est. size (Mb)     dimensions

     Initial potential from superposition of free atoms
     Check: negative starting charge=   -0.001235

     starting charge  235.49859, renormalised to  237.00000

     negative rho (up, down):  1.243E-03 0.000E+00

     *
     * You are using vdW-DF for exchange-correlation in this calculation.
     * Please cite the following three references that made this development
     * possible:
     *
     *   M. Dion, H. Rydberg, E. Schroder, D. C. Langreth, and
     *   B. I. Lundqvist, Phys. Rev. Lett. 92, 246401 (2004).
     *
     *   T. Thonhauser, V. R. Cooper, S. Li, A. Puzder, P. Hyldgaard, and
     *   D. C. Langreth, Phys. Rev. B 76, 125112 (2007).
     *
     *   G. Roman-Perez and J. M. Soler, Phys. Rev. Lett. 103, 096102 (2009).
     *
     *
     * If you are using vdW-DF2, please also cite:
     *
     *   K. Lee, E. D. Murray, L. Kong, B. I. Lundqvist, and
     *   D. C. Langreth, Phys. Rev. B 82, 081101(R) (2010).
     *
     *
     * If you are calculating the stress with vdW-DF, please also cite:
     *
     *   R. Sabatini, E. Kucukbenli, B. Kolb, T. Thonhauser, and
     *   S. de Gironcoli, J. Phys.: Condens. Matter 24, 424209 (2012).
     *

     Carrying out vdW-DF run using the following parameters:

     Nqs =      20    Nr_points =    1024   r_max =   100.000
     q_mesh =
               0.00001000     0.04494208     0.09755937     0.15916263
               0.23128650     0.31572767     0.41458969     0.53033537
               0.66584808     0.82450364     1.01025438     1.22772762
               1.48234092     1.78043706     2.12944203     2.53805004
               3.01644009     3.57652955     4.23227104     5.00000000

     Gradients computed in reciprocal space

     Adding external electric field

     Computed dipole along edir(3) :
        Dipole               -0.0000 Ry au,         -0.0000 Debye
        Dipole field         -0.0000 Ry au

        Potential amp.        0.0000 Ry
        Total length         45.3619 bohr

     Starting wfc are  156 randomized atomic wfcs

     Self-consistent Calculation

     iteration #  1     ecut=    36.75 Ry     beta=0.10
     Davidson diagonalization with overlap
     ethr =  1.00E-02,  avg # of iterations =  7.4

     Threshold (ethr) on eigenvalues was too large:
     Diagonalizing with lowered threshold

     Davidson diagonalization with overlap
     ethr =  9.31E-04,  avg # of iterations =  1.2

[...]

     total energy              =   -5055.08207161 Ry
     Harris-Foulkes estimate   =   -5055.43270419 Ry
     estimated scf accuracy    <       2.15913129 Ry

[...]

     End of self-consistent calculation

          k = 0.0000 0.0000 0.0000 ( 17387 PWs)   bands (ev):

  -125.9981-125.9973-125.9973-125.8057-125.8057-125.8049-125.8049-125.8049
  -125.8049 -92.1502 -91.8021 -91.8021 -80.1840 -80.1826 -80.1825 -80.1783
   -80.1764 -80.1763 -80.1713 -80.1678 -80.1678 -79.9977 -79.9976 -79.9967
   -79.9967 -79.9966 -79.9966 -79.9875 -79.9874 -79.9802 -79.9802 -79.9801
   -79.9801 -79.9744 -79.9744 -79.9741 -79.9741 -79.9728 -79.9727 -55.6393
   -55.6391 -55.6391 -55.3100 -55.3100 -55.3100 -55.3100 -55.2452 -55.2450
    -8.3013  -7.4615  -7.4156  -7.4106  -7.4105  -7.3709  -7.3127  -7.3057
    -7.3057  -7.2502  -7.2501  -7.2471  -7.1037  -7.1027  -7.1027  -6.9615
    -6.9566  -6.9566  -6.9059  -6.8496  -6.8496  -6.8450  -6.8450  -6.8396
    -6.8319  -6.7846  -6.7846  -6.6447  -6.6447  -6.6412  -6.6412  -6.5637
    -6.5505  -6.5505  -6.5372  -6.5372  -6.5135  -6.5135  -6.4687  -6.4687
    -6.4570  -6.4101  -6.3629  -6.3629  -6.2485  -6.2450  -6.1627  -4.8966
    -4.6063  -4.6063  -4.4333  -4.4333  -4.1801  -4.1801  -4.0232  -4.0197
    -4.0197  -3.9704  -3.9458  -3.9458  -3.8350  -3.8350  -2.4957  -1.2562
    -1.0839  -1.0839  -0.6110  -0.6110  -0.4184  -0.2604   0.1949   0.2029
     0.2029   1.4076   1.4076   2.1434   2.8872   2.8872   3.4610   3.4610
     3.5269   3.8328   4.4690   4.4701   4.9010   5.8052   5.8486   6.6640
     6.6640   6.7834   6.7834   7.1411   7.1708   7.6419   7.9523   9.1477
     9.1477   9.4452   9.6185   9.6188

[...]

          k =-0.0884-0.0510 0.0000 ( 17336 PWs)   bands (ev):

[...]

     the Fermi energy is     0.6560 ev

!    total energy              =   -5054.89898066 Ry
     Harris-Foulkes estimate   =   -5054.89897681 Ry
     estimated scf accuracy    <       0.00000015 Ry

     The total energy is the sum of the following terms:

     one-electron contribution =  -33221.41114815 Ry
     hartree contribution      =   16591.80002761 Ry
     xc contribution           =    -480.85829072 Ry
     ewald contribution        =   12055.59268248 Ry
     electric field correction =       0.00000000 Ry
     smearing contrib. (-TS)   =      -0.02225188 Ry

     convergence has been achieved in  14 iterations

 BEEF-vdW xc energy contributions
           1 :   -424.946080370751
[...]
     Q(r) pseudized with  8 coefficients,  rinner =    1.100   1.100   1.100
                                                       1.100   1.100

     PseudoPot. # 2 for Ag read from file:
     /afs/slac.stanford.edu/u/if/mamunm/psp/gbrv1.5pbe/Ag.UPF
     MD5 check sum: d66d668201baa78d5eb5b04ef7011058
     Pseudo is Ultrasoft + core correction, Zval = 19.0
     Generated by new atomic code, or converted to UPF format
     Using radial grid of  887 points,  6 beta functions with:
                l(1) =   0
                l(2) =   0
                l(3) =   1
                l(4) =   1
                l(5) =   2
                l(6) =   2
     Q(r) pseudized with  6 coefficients,  rinner =    1.300   1.300   1.300
                                                       1.300   1.300

     vdW kernel table read from file vdW_kernel_table
     MD5 check sum: 095c7af220d748ca6e76c0b4c6cfb241

     atomic species   valence    mass     pseudopotential
        Zn1           20.00    65.38000     Zn( 1.00)
        Ag1           19.00   107.86820     Ag( 1.00)

     No symmetry found

   Cartesian axes

     site n.     atom                  positions (alat units)
         1           Zn1 tau(   1) = (   0.0000000   0.0000000  10.0000000  )
         2           Zn1 tau(   2) = (  -1.4145778   2.4501206  10.0000000  )
         3           Zn1 tau(   3) = (   1.4145778   2.4501206  10.0000000  )
         4           Ag1 tau(   4) = (   2.8291556   0.0000000  10.0000000  )
         5           Zn1 tau(   5) = (   2.8291556   1.6334137  12.3099958  )
         6           Zn1 tau(   6) = (   1.4145778   4.0835343  12.3099958  )
         7           Zn1 tau(   7) = (  -1.4145778   4.0835343  12.3099958  )
         8           Ag1 tau(   8) = (   0.0000000   1.6334137  12.3099958  )
         9           Zn1 tau(   9) = (   0.0000100   3.2832516  14.8147197  )
        10           Zn1 tau(  10) = (   1.4288055   0.8085028  14.8147217  )
        11           Zn1 tau(  11) = (   4.2295037   0.8084925  14.8147387  )
        12           Ag1 tau(  12) = (   2.8291153   3.2668010  14.8125317  )

     number of k points=    20  Fermi-Dirac smearing, width (Ry)=  0.0110
                       cart. coord. in units 2pi/alat
        k(    1) = (   0.0000000   0.0000000   0.0000000), wk =   0.0555556
        k(    2) = (   0.0000000   0.0340119   0.0000000), wk =   0.1111111
        k(    3) = (   0.0000000   0.0680239   0.0000000), wk =   0.1111111
        k(    4) = (   0.0000000  -0.1020358   0.0000000), wk =   0.0555556
        k(    5) = (   0.0294552   0.0170060   0.0000000), wk =   0.1111111
        k(    6) = (   0.0294552   0.0510179   0.0000000), wk =   0.1111111
        k(    7) = (   0.0294552   0.0850298   0.0000000), wk =   0.1111111
        k(    8) = (   0.0294552  -0.0850298   0.0000000), wk =   0.1111111
        k(    9) = (   0.0294552  -0.0510179   0.0000000), wk =   0.1111111
        k(   10) = (   0.0294552  -0.0170060   0.0000000), wk =   0.1111111
        k(   11) = (   0.0589104   0.0340119   0.0000000), wk =   0.1111111
        k(   12) = (   0.0589104   0.0680239   0.0000000), wk =   0.1111111
        k(   13) = (   0.0589104   0.1020358   0.0000000), wk =   0.1111111
        k(   14) = (   0.0589104  -0.0680239   0.0000000), wk =   0.1111111
        k(   15) = (   0.0589104  -0.0340119   0.0000000), wk =   0.1111111
        k(   16) = (   0.0589104   0.0000000   0.0000000), wk =   0.1111111
        k(   17) = (  -0.0883656  -0.0510179   0.0000000), wk =   0.0555556
        k(   18) = (  -0.0883656  -0.0170060   0.0000000), wk =   0.1111111
        k(   19) = (  -0.0883656   0.0170060   0.0000000), wk =   0.1111111
        k(   20) = (  -0.0883656  -0.1530537   0.0000000), wk =   0.0555556

     Largest allocated arrays     est. size (Mb)     dimensions
     Largest temporary arrays     est. size (Mb)     dimensions

     Initial potential from superposition of free atoms
     Check: negative starting charge=   -0.001214

     starting charge  235.49859, renormalised to  237.00000

[...]

     *
     * You are using vdW-DF for exchange-correlation in this calculation.
     * Please cite the following three references that made this development
     * possible:
     *
     *   M. Dion, H. Rydberg, E. Schroder, D. C. Langreth, and
     *   B. I. Lundqvist, Phys. Rev. Lett. 92, 246401 (2004).
     *
     *   T. Thonhauser, V. R. Cooper, S. Li, A. Puzder, P. Hyldgaard, and
     *   D. C. Langreth, Phys. Rev. B 76, 125112 (2007).
     *
     *   G. Roman-Perez and J. M. Soler, Phys. Rev. Lett. 103, 096102 (2009).
     *
     *
     * If you are using vdW-DF2, please also cite:
     *
     *   K. Lee, E. D. Murray, L. Kong, B. I. Lundqvist, and
     *   D. C. Langreth, Phys. Rev. B 82, 081101(R) (2010).
     *
     *
     * If you are calculating the stress with vdW-DF, please also cite:
     *
     *   R. Sabatini, E. Kucukbenli, B. Kolb, T. Thonhauser, and
     *   S. de Gironcoli, J. Phys.: Condens. Matter 24, 424209 (2012).
     *

     Carrying out vdW-DF run using the following parameters:

     Nqs =      20    Nr_points =    1024   r_max =   100.000
     q_mesh =
               0.00001000     0.04494208     0.09755937     0.15916263
               0.23128650     0.31572767     0.41458969     0.53033537
               0.66584808     0.82450364     1.01025438     1.22772762
               1.48234092     1.78043706     2.12944203     2.53805004
               3.01644009     3.57652955     4.23227104     5.00000000

     Gradients computed in reciprocal space

[...]

     Starting wfc are  156 randomized atomic wfcs

     Self-consistent Calculation

[...]

     Threshold (ethr) on eigenvalues was too large:
     Diagonalizing with lowered threshold

     Davidson diagonalization with overlap
     ethr =  9.11E-04,  avg # of iterations =  1.6

[...]

     total energy              =   -5054.92107728 Ry
     Harris-Foulkes estimate   =   -5054.92107860 Ry
     estimated scf accuracy    <       0.00000534 Ry

     iteration # 14     ecut=    36.75 Ry     beta=0.10
     Davidson diagonalization with overlap
     ethr =  2.25E-09,  avg # of iterations =  2.0

[...]

     negative rho (up, down):  1.279E-03 0.000E+00

     Adding external electric field

     Computed dipole along edir(3) :
        Dipole                0.0163 Ry au,          0.0415 Debye
        Dipole field          0.0000 Ry au

        Potential amp.       -0.0040 Ry
        Total length         45.3619 bohr

     End of self-consistent calculation

[...]

          k = 0.0589 0.0000 0.0000 ( 17340 PWs)   bands (ev):

[...]

          k =-0.0884-0.1531 0.0000 ( 17336 PWs)   bands (ev):

  -125.9006-125.9004-125.9001-125.7624-125.7621-125.7619-125.7205-125.7203
  -125.7200 -91.9949 -91.7571 -91.6560 -80.0870 -80.0866 -80.0862 -80.0798
   -80.0758 -80.0751 -80.0746 -80.0745 -80.0711 -79.9553 -79.9549 -79.9545
   -79.9409 -79.9372 -79.9347 -79.9334 -79.9325 -79.9303 -79.9130 -79.9126
   -79.9122 -79.9011 -79.8974 -79.8946 -79.8907 -79.8896 -79.8878 -55.4876
   -55.4875 -55.4704 -55.2644 -55.2643 -55.2018 -55.1704 -55.1703 -55.0837
    -7.2624  -7.1391  -7.1279  -7.0770  -7.0691  -7.0518  -7.0274  -7.0078
    -6.9977  -6.9924  -6.9734  -6.9536  -6.9512  -6.8824  -6.8391  -6.8140
    -6.8067  -6.7838  -6.7753  -6.7346  -6.7219  -6.7069  -6.6982  -6.6881
    -6.6733  -6.6696  -6.6549  -6.6497  -6.6337  -6.6289  -6.6223  -6.5961
    -6.5954  -6.5843  -6.5779  -6.5580  -6.5552  -6.5140  -6.4830  -6.4648
    -6.4387  -6.4322  -6.4131  -6.3259  -6.2916  -6.1719  -6.0925  -5.3213
    -4.7010  -4.6096  -4.4471  -4.3799  -4.3311  -4.1519  -4.1296  -4.0849
    -4.0322  -4.0192  -3.9765  -3.9759  -3.9250  -3.8210  -3.8109  -3.2786
    -2.4974  -1.6137  -1.5173  -1.2111  -0.8812  -0.2960   1.3509   1.5453
     1.7310   2.0118   3.9157   4.2560   4.3452   4.4131   4.7097   4.8065
     4.8173   5.1870   5.7393   5.7962   5.8163   6.0727   6.1232   6.3876
     6.3883   6.3944   7.1567   7.1822   7.2534   7.2840   7.3544   7.4099
     7.6126   7.8997   8.1428   8.2079

     the Fermi energy is     0.6653 ev

!    total energy              =   -5054.92108108 Ry
     Harris-Foulkes estimate   =   -5054.92107821 Ry
     estimated scf accuracy    <       0.00000012 Ry

     The total energy is the sum of the following terms:

     one-electron contribution =  -32400.60610035 Ry
     hartree contribution      =   16182.10118705 Ry
     xc contribution           =    -480.77429094 Ry
     ewald contribution        =   11644.37878944 Ry
     electric field correction =       0.00000073 Ry
     smearing contrib. (-TS)   =      -0.02066700 Ry

     convergence has been achieved in  14 iterations

 BEEF-vdW xc energy contributions
           1 :   -425.278079879627
           2 :    385.402215716982
           3 :   -318.577803914431
           4 :    244.351768841058
           5 :   -180.111724977387
           6 :    134.571129340108
           7 :   -106.509495410886
           8 :    88.5471238172095
           9 :   -73.0242082954638
          10 :    56.3287788951147
          11 :   -39.5677909798349
          12 :    26.0550049890186
          13 :   -17.9765640419168
          14 :    14.6473268179860
          15 :   -13.2417725781936
          16 :    11.0091719723827
          17 :   -7.11175123805936
          18 :    2.79269006572008
          19 :   5.696448166759183E-003
          20 :  -0.337985099039088
          21 :   -1.03975820780499
          22 :    2.36039576701830
          23 :   -2.24768292921425
          24 :   0.686310702579874
          25 :    1.13148038298493
          26 :   -1.85410926391904
          27 :    1.02879278383421
          28 :   0.631432810054662
          29 :   -1.89581873887016
          30 :    1.99494454613989
          31 :   -34.5673646501413
          32 :   -23.9217280971375

     Forces acting on atoms (Ry/au):

     negative rho (up, down):  1.279E-03 0.000E+00
     atom    1 type  1   force =     0.00000016   -0.00393603   -0.01030736
     atom    2 type  1   force =    -0.00340866    0.00196812   -0.01030714
     atom    3 type  1   force =     0.00340862    0.00196778   -0.01030704
     atom    4 type  2   force =    -0.00000002   -0.00000001   -0.01253232
     atom    5 type  1   force =     0.00000008    0.00139818    0.00973943
     atom    6 type  1   force =     0.00121104   -0.00069890    0.00973929
     atom    7 type  1   force =    -0.00121140   -0.00069920    0.00974092
     atom    8 type  2   force =    -0.00000029   -0.00000026    0.01426662
     atom    9 type  1   force =    -0.00000459   -0.00027210    0.00036988
     atom   10 type  1   force =    -0.00023806    0.00013197    0.00036957
     atom   11 type  1   force =     0.00023714    0.00013650    0.00036907
     atom   12 type  2   force =     0.00000598    0.00000395   -0.00114093

     Total force =     0.031909     Total SCF correction =     0.002798

     entering subroutine stress ...

     negative rho (up, down):  1.279E-03 0.000E+00
          total   stress  (Ry/bohr**3)                   (kbar)     P=  -15.22
  -0.00015326  -0.00000000   0.00000000        -22.55     -0.00      0.00
  -0.00000000  -0.00015326   0.00000000         -0.00    -22.55      0.00
   0.00000000   0.00000000  -0.00000395          0.00      0.00     -0.58

 !ASE

     Writing output data file calc.save

     General routines

     Parallel routines

   This run was terminated on:  16:37:45   2Jan2019

   JOB DONE.
Job  /afs/slac/g/suncat/bin/suncat-tsmpirun -x LD_LIBRARY_PATH -wdir /scratch/qe649461_4nyas pw.x -in pw.inp

TID   HOST_NAME   COMMAND_LINE            STATUS            TERMINATION_TIME
00000 suncat0163 pw.x -in pw.inp   Done                     01/02/2019 16:37:45
00001 suncat0163 pw.x -in pw.inp   Done                     01/02/2019 16:37:45
00002 suncat0163 pw.x -in pw.inp   Done                     01/02/2019 16:37:45
00003 suncat0163 pw.x -in pw.inp   Done                     01/02/2019 16:37:45
00004 suncat0163 pw.x -in pw.inp   Done                     01/02/2019 16:37:45
00005 suncat0163 pw.x -in pw.inp   Done                     01/02/2019 16:37:45
00006 suncat0163 pw.x -in pw.inp   Done                     01/02/2019 16:37:45
00007 suncat0163 pw.x -in pw.inp   Done                     01/02/2019 16:37:45
00008 suncat0162 pw.x -in pw.inp   Done                     01/02/2019 16:37:45
00009 suncat0162 pw.x -in pw.inp   Done                     01/02/2019 16:37:45
00010 suncat0162 pw.x -in pw.inp   Done                     01/02/2019 16:37:45
00011 suncat0162 pw.x -in pw.inp   Done                     01/02/2019 16:37:45
00012 suncat0162 pw.x -in pw.inp   Done                     01/02/2019 16:37:45
00013 suncat0162 pw.x -in pw.inp   Done                     01/02/2019 16:37:45
00014 suncat0162 pw.x -in pw.inp   Done                     01/02/2019 16:37:45
00015 suncat0162 pw.x -in pw.inp   Done                     01/02/2019 16:37:45
00016 suncat0139 pw.x -in pw.inp   Done                     01/02/2019 16:37:45
00017 suncat0139 pw.x -in pw.inp   Done                     01/02/2019 16:37:45
00018 suncat0139 pw.x -in pw.inp   Done                     01/02/2019 16:37:45
00019 suncat0139 pw.x -in pw.inp   Done                     01/02/2019 16:37:45
00020 suncat0139 pw.x -in pw.inp   Done                     01/02/2019 16:37:45
00021 suncat0139 pw.x -in pw.inp   Done                     01/02/2019 16:37:45
00022 suncat0139 pw.x -in pw.inp   Done                     01/02/2019 16:37:45
00023 suncat0139 pw.x -in pw.inp   Done                     01/02/2019 16:37:45
00024 suncat0133 pw.x -in pw.inp   Done                     01/02/2019 16:37:45
00025 suncat0133 pw.x -in pw.inp   Done                     01/02/2019 16:37:45
00026 suncat0133 pw.x -in pw.inp   Done                     01/02/2019 16:37:45
00027 suncat0133 pw.x -in pw.inp   Done                     01/02/2019 16:37:45
00028 suncat0133 pw.x -in pw.inp   Done                     01/02/2019 16:37:45
00029 suncat0133 pw.x -in pw.inp   Done                     01/02/2019 16:37:45
00030 suncat0133 pw.x -in pw.inp   Done                     01/02/2019 16:37:45
00031 suncat0133 pw.x -in pw.inp   Done                     01/02/2019 16:37:45
00032 suncat0123 pw.x -in pw.inp   Done                     01/02/2019 16:37:45
00033 suncat0123 pw.x -in pw.inp   Done                     01/02/2019 16:37:45
00034 suncat0123 pw.x -in pw.inp   Done                     01/02/2019 16:37:45
00035 suncat0123 pw.x -in pw.inp   Done                     01/02/2019 16:37:45
00036 suncat0123 pw.x -in pw.inp   Done                     01/02/2019 16:37:45
00037 suncat0123 pw.x -in pw.inp   Done                     01/02/2019 16:37:45
00038 suncat0123 pw.x -in pw.inp   Done                     01/02/2019 16:37:45
00039 suncat0123 pw.x -in pw.inp   Done                     01/02/2019 16:37:45
00040 suncat0122 pw.x -in pw.inp   Done                     01/02/2019 16:37:45
00041 suncat0122 pw.x -in pw.inp   Done                     01/02/2019 16:37:45
00042 suncat0122 pw.x -in pw.inp   Done                     01/02/2019 16:37:45
00043 suncat0122 pw.x -in pw.inp   Done                     01/02/2019 16:37:45
00044 suncat0122 pw.x -in pw.inp   Done                     01/02/2019 16:37:45
00045 suncat0122 pw.x -in pw.inp   Done                     01/02/2019 16:37:45
00046 suncat0122 pw.x -in pw.inp   Done                     01/02/2019 16:37:45
00047 suncat0122 pw.x -in pw.inp   Done                     01/02/2019 16:37:45
00048 suncat0207 pw.x -in pw.inp   Done                     01/02/2019 16:37:45
00049 suncat0207 pw.x -in pw.inp   Done                     01/02/2019 16:37:45
00050 suncat0207 pw.x -in pw.inp   Done                     01/02/2019 16:37:45
00051 suncat0207 pw.x -in pw.inp   Done                     01/02/2019 16:37:45
00052 suncat0207 pw.x -in pw.inp   Done                     01/02/2019 16:37:45
00053 suncat0207 pw.x -in pw.inp   Done                     01/02/2019 16:37:45
00054 suncat0207 pw.x -in pw.inp   Done                     01/02/2019 16:37:45
00055 suncat0207 pw.x -in pw.inp   Done                     01/02/2019 16:37:45
00056 suncat0206 pw.x -in pw.inp   Done                     01/02/2019 16:37:45
00057 suncat0206 pw.x -in pw.inp   Done                     01/02/2019 16:37:45
00058 suncat0206 pw.x -in pw.inp   Done                     01/02/2019 16:37:45
00059 suncat0206 pw.x -in pw.inp   Done                     01/02/2019 16:37:45
00060 suncat0206 pw.x -in pw.inp   Done                     01/02/2019 16:37:45
00061 suncat0206 pw.x -in pw.inp   Done                     01/02/2019 16:37:45
00062 suncat0206 pw.x -in pw.inp   Done                     01/02/2019 16:37:45
00063 suncat0206 pw.x -in pw.inp   Done                     01/02/2019 16:37:45