     Program PWSCF v.5.1rc2 (svn rev. 11289) starts on 31Dec2018 at  1:17:10

     Current dimensions of program PWSCF are:
     Max number of different atomic species (ntypx) = 10
     Max number of k-points (npk) =  40000
     Max angular momentum in pseudopotentials (lmaxx) =  3
     Presently stress not available with electric field

     IMPORTANT: XC functional enforced from input :
     Exchange-correlation      = BEEF-VDW ( 1  4 27 13 2)
     Any further DFT definition will be discarded
     Please, verify this is what you really want

     Subspace diagonalization in iterative solution of the eigenvalue problem:
     a serial algorithm will be used

     Generating pointlists ...
     new r_m :   0.4125 (alat units)  0.7795 (a.u.) for type    1
     new r_m :   0.4125 (alat units)  0.7795 (a.u.) for type    2

     bravais-lattice index     =            0
     lattice parameter (alat)  =       1.8897  a.u.
     unit-cell volume          =    3742.5852 (a.u.)^3
     number of atoms/cell      =           12
     number of atomic types    =            2
     number of electrons       =       207.00
     number of Kohn-Sham states=          133
     kinetic-energy cutoff     =      36.7493  Ry
     charge density cutoff     =     367.4932  Ry
     convergence threshold     =      1.0E-06
     mixing beta               =       0.1000
     number of iterations used =           10  plain     mixing
     Exchange-correlation      = BEEF-VDW ( 1  4 27 13 2)
     nstep                     =           50

     celldm(1)=   1.889726  celldm(2)=   0.000000  celldm(3)=   0.000000
     celldm(4)=   0.000000  celldm(5)=   0.000000  celldm(6)=   0.000000

     crystal axes: (cart. coord. in units of alat)
               a(1) = (   5.144142   0.000000   0.000000 )
               a(2) = (  -2.572071   4.454958   0.000000 )
               a(3) = (   0.000000   0.000000  24.200175 )

     reciprocal axes: (cart. coord. in units 2 pi/alat)
               b(1) = (  0.194396  0.112235  0.000000 )
               b(2) = (  0.000000  0.224469  0.000000 )
               b(3) = (  0.000000  0.000000  0.041322 )

     PseudoPot. # 1 for Ni read from file:
     /afs/slac.stanford.edu/u/if/mamunm/psp/gbrv1.5pbe/Ni.UPF
     MD5 check sum: 1ee80287db30b12d2bc1f57a5b5d6409
     Pseudo is Ultrasoft + core correction, Zval = 18.0
     Generated by new atomic code, or converted to UPF format
     Using radial grid of  865 points,  6 beta functions with:
                l(1) =   0
                l(2) =   0
                l(3) =   1
                l(4) =   1
                l(5) =   2
                l(6) =   2
     Q(r) pseudized with 10 coefficients,  rinner =    0.980   0.980   0.980
                                                       0.980   0.980

     PseudoPot. # 2 for Ir read from file:
     /afs/slac.stanford.edu/u/if/mamunm/psp/gbrv1.5pbe/Ir.UPF
     MD5 check sum: 8836f839c3459d2b385c504ce6d91f2c
     Pseudo is Ultrasoft + core correction, Zval = 15.0
     Generated by new atomic code, or converted to UPF format
     Using radial grid of  983 points,  7 beta functions with:
                l(1) =   0
                l(2) =   0
                l(3) =   1
                l(4) =   1
                l(5) =   1
                l(6) =   2
                l(7) =   2
     Q(r) pseudized with  8 coefficients,  rinner =    1.400   1.400   1.400
                                                       1.400   1.400

     vdW kernel table read from file vdW_kernel_table
     MD5 check sum: 095c7af220d748ca6e76c0b4c6cfb241

     atomic species   valence    mass     pseudopotential
        Ni1           18.00    58.69340     Ni( 1.00)
        Ir1           15.00   192.21700     Ir( 1.00)

     Starting magnetic structure
     atomic species   magnetization
        Ni1          0.111
        Ir1          0.133

     No symmetry found

   Cartesian axes

     site n.     atom                  positions (alat units)
         1           Ni1 tau(   1) = (   0.0000000   0.0000000  10.0000000  )
         2           Ni1 tau(   2) = (  -1.2860356   2.2274790  10.0000000  )
         3           Ni1 tau(   3) = (   1.2860356   2.2274790  10.0000000  )
         4           Ir1 tau(   4) = (   2.5720712   0.0000000  10.0000000  )
         5           Ni1 tau(   5) = (   2.5720712   1.4849860  12.1000873  )
         6           Ni1 tau(   6) = (   1.2860356   3.7124650  12.1000873  )
         7           Ni1 tau(   7) = (  -1.2860356   3.7124650  12.1000873  )
         8           Ir1 tau(   8) = (   0.0000000   1.4849860  12.1000873  )
         9           Ni1 tau(   9) = (  -0.0000000   2.9699720  14.2001747  )
        10           Ni1 tau(  10) = (   1.2860356   0.7424930  14.2001747  )
        11           Ni1 tau(  11) = (   3.8581068   0.7424930  14.2001747  )
        12           Ir1 tau(  12) = (   2.5720712   2.9699720  14.2001747  )

     number of k points=    40  Fermi-Dirac smearing, width (Ry)=  0.0110
                       cart. coord. in units 2pi/alat
        k(    1) = (   0.0000000   0.0000000   0.0000000), wk =   0.0277778
        k(    2) = (   0.0000000   0.0374115   0.0000000), wk =   0.0555556
        k(    3) = (   0.0000000   0.0748230   0.0000000), wk =   0.0555556
        k(    4) = (   0.0000000  -0.1122345   0.0000000), wk =   0.0277778
        k(    5) = (   0.0323993   0.0187058   0.0000000), wk =   0.0555556
        k(    6) = (   0.0323993   0.0561173   0.0000000), wk =   0.0555556
        k(    7) = (   0.0323993   0.0935288   0.0000000), wk =   0.0555556
        k(    8) = (   0.0323993  -0.0935288   0.0000000), wk =   0.0555556
        k(    9) = (   0.0323993  -0.0561173   0.0000000), wk =   0.0555556
        k(   10) = (   0.0323993  -0.0187058   0.0000000), wk =   0.0555556
        k(   11) = (   0.0647986   0.0374115   0.0000000), wk =   0.0555556
        k(   12) = (   0.0647986   0.0748230   0.0000000), wk =   0.0555556
        k(   13) = (   0.0647986   0.1122345   0.0000000), wk =   0.0555556
        k(   14) = (   0.0647986  -0.0748230   0.0000000), wk =   0.0555556
        k(   15) = (   0.0647986  -0.0374115   0.0000000), wk =   0.0555556
        k(   16) = (   0.0647986   0.0000000   0.0000000), wk =   0.0555556
        k(   17) = (  -0.0971979  -0.0561173   0.0000000), wk =   0.0277778
        k(   18) = (  -0.0971979  -0.0187058   0.0000000), wk =   0.0555556
        k(   19) = (  -0.0971979   0.0187058   0.0000000), wk =   0.0555556
        k(   20) = (  -0.0971979  -0.1683518   0.0000000), wk =   0.0277778
        k(   21) = (   0.0000000   0.0000000   0.0000000), wk =   0.0277778
        k(   22) = (   0.0000000   0.0374115   0.0000000), wk =   0.0555556
        k(   23) = (   0.0000000   0.0748230   0.0000000), wk =   0.0555556
        k(   24) = (   0.0000000  -0.1122345   0.0000000), wk =   0.0277778
        k(   25) = (   0.0323993   0.0187058   0.0000000), wk =   0.0555556
        k(   26) = (   0.0323993   0.0561173   0.0000000), wk =   0.0555556
        k(   27) = (   0.0323993   0.0935288   0.0000000), wk =   0.0555556
        k(   28) = (   0.0323993  -0.0935288   0.0000000), wk =   0.0555556
        k(   29) = (   0.0323993  -0.0561173   0.0000000), wk =   0.0555556
        k(   30) = (   0.0323993  -0.0187058   0.0000000), wk =   0.0555556
        k(   31) = (   0.0647986   0.0374115   0.0000000), wk =   0.0555556
        k(   32) = (   0.0647986   0.0748230   0.0000000), wk =   0.0555556
        k(   33) = (   0.0647986   0.1122345   0.0000000), wk =   0.0555556
        k(   34) = (   0.0647986  -0.0748230   0.0000000), wk =   0.0555556
        k(   35) = (   0.0647986  -0.0374115   0.0000000), wk =   0.0555556
        k(   36) = (   0.0647986   0.0000000   0.0000000), wk =   0.0555556
        k(   37) = (  -0.0971979  -0.0561173   0.0000000), wk =   0.0277778
        k(   38) = (  -0.0971979  -0.0187058   0.0000000), wk =   0.0555556
        k(   39) = (  -0.0971979   0.0187058   0.0000000), wk =   0.0555556
        k(   40) = (  -0.0971979  -0.1683518   0.0000000), wk =   0.0277778

     Largest allocated arrays     est. size (Mb)     dimensions
     Largest temporary arrays     est. size (Mb)     dimensions

     Check: negative/imaginary core charge=   -0.000002    0.000000

     Initial potential from superposition of free atoms
     Check: negative starting charge=(component1):   -0.620927
     Check: negative starting charge=(component2):   -0.474831

     starting charge  187.49991, renormalised to  207.00000

     negative rho (up, down):  6.855E-01 5.242E-01

     *
     * You are using vdW-DF for exchange-correlation in this calculation.
     * Please cite the following three references that made this development
     * possible:
     *
     *   M. Dion, H. Rydberg, E. Schroder, D. C. Langreth, and
     *   B. I. Lundqvist, Phys. Rev. Lett. 92, 246401 (2004).
     *
     *   T. Thonhauser, V. R. Cooper, S. Li, A. Puzder, P. Hyldgaard, and
     *   D. C. Langreth, Phys. Rev. B 76, 125112 (2007).
     *
     *   G. Roman-Perez and J. M. Soler, Phys. Rev. Lett. 103, 096102 (2009).
     *
     *
     * If you are using vdW-DF2, please also cite:
     *
     *   K. Lee, E. D. Murray, L. Kong, B. I. Lundqvist, and
     *   D. C. Langreth, Phys. Rev. B 82, 081101(R) (2010).
     *
     *
     * If you are calculating the stress with vdW-DF, please also cite:
     *
     *   R. Sabatini, E. Kucukbenli, B. Kolb, T. Thonhauser, and
     *   S. de Gironcoli, J. Phys.: Condens. Matter 24, 424209 (2012).
     *

     Carrying out vdW-DF run using the following parameters:

     Nqs =      20    Nr_points =    1024   r_max =   100.000
     q_mesh =
               0.00001000     0.04494208     0.09755937     0.15916263
               0.23128650     0.31572767     0.41458969     0.53033537
               0.66584808     0.82450364     1.01025438     1.22772762
               1.48234092     1.78043706     2.12944203     2.53805004
               3.01644009     3.57652955     4.23227104     5.00000000

     Gradients computed in reciprocal space

     Adding external electric field

     Computed dipole along edir(3) :
        Dipole                0.0000 Ry au,          0.0000 Debye
        Dipole field          0.0000 Ry au

        Potential amp.       -0.0000 Ry
        Total length         44.5884 bohr

[...]

     Starting wfc are  153 randomized atomic wfcs

     Self-consistent Calculation

     iteration #  1     ecut=    36.75 Ry     beta=0.10
     Davidson diagonalization with overlap
     ethr =  1.00E-02,  avg # of iterations =  7.8

[...]

     Magnetic moment per site:
     atom:    1    charge:    9.8063    magn:    1.0384    constr:    0.0000
     atom:    2    charge:    9.8063    magn:    1.0384    constr:    0.0000
     atom:    3    charge:    9.8063    magn:    1.0384    constr:    0.0000
     atom:    4    charge:    1.6915    magn:    0.2071    constr:    0.0000
     atom:    5    charge:    9.8067    magn:    1.0382    constr:    0.0000
     atom:    6    charge:    9.8067    magn:    1.0382    constr:    0.0000
     atom:    7    charge:    9.8067    magn:    1.0382    constr:    0.0000
[...]
        k(    6) = (   0.0323993   0.0561173   0.0000000), wk =   0.0555556
        k(    7) = (   0.0323993   0.0935288   0.0000000), wk =   0.0555556
        k(    8) = (   0.0323993  -0.0935288   0.0000000), wk =   0.0555556
        k(    9) = (   0.0323993  -0.0561173   0.0000000), wk =   0.0555556
        k(   10) = (   0.0323993  -0.0187058   0.0000000), wk =   0.0555556
        k(   11) = (   0.0647986   0.0374115   0.0000000), wk =   0.0555556
        k(   12) = (   0.0647986   0.0748230   0.0000000), wk =   0.0555556
        k(   13) = (   0.0647986   0.1122345   0.0000000), wk =   0.0555556
        k(   14) = (   0.0647986  -0.0748230   0.0000000), wk =   0.0555556
        k(   15) = (   0.0647986  -0.0374115   0.0000000), wk =   0.0555556
        k(   16) = (   0.0647986   0.0000000   0.0000000), wk =   0.0555556
        k(   17) = (  -0.0971979  -0.0561173   0.0000000), wk =   0.0277778
        k(   18) = (  -0.0971979  -0.0187058   0.0000000), wk =   0.0555556
        k(   19) = (  -0.0971979   0.0187058   0.0000000), wk =   0.0555556
        k(   20) = (  -0.0971979  -0.1683518   0.0000000), wk =   0.0277778
        k(   21) = (   0.0000000   0.0000000   0.0000000), wk =   0.0277778
        k(   22) = (   0.0000000   0.0374115   0.0000000), wk =   0.0555556
        k(   23) = (   0.0000000   0.0748230   0.0000000), wk =   0.0555556
        k(   24) = (   0.0000000  -0.1122345   0.0000000), wk =   0.0277778
        k(   25) = (   0.0323993   0.0187058   0.0000000), wk =   0.0555556
        k(   26) = (   0.0323993   0.0561173   0.0000000), wk =   0.0555556
        k(   27) = (   0.0323993   0.0935288   0.0000000), wk =   0.0555556
        k(   28) = (   0.0323993  -0.0935288   0.0000000), wk =   0.0555556
        k(   29) = (   0.0323993  -0.0561173   0.0000000), wk =   0.0555556
        k(   30) = (   0.0323993  -0.0187058   0.0000000), wk =   0.0555556
        k(   31) = (   0.0647986   0.0374115   0.0000000), wk =   0.0555556
        k(   32) = (   0.0647986   0.0748230   0.0000000), wk =   0.0555556
        k(   33) = (   0.0647986   0.1122345   0.0000000), wk =   0.0555556
        k(   34) = (   0.0647986  -0.0748230   0.0000000), wk =   0.0555556
        k(   35) = (   0.0647986  -0.0374115   0.0000000), wk =   0.0555556
        k(   36) = (   0.0647986   0.0000000   0.0000000), wk =   0.0555556
        k(   37) = (  -0.0971979  -0.0561173   0.0000000), wk =   0.0277778
        k(   38) = (  -0.0971979  -0.0187058   0.0000000), wk =   0.0555556
        k(   39) = (  -0.0971979   0.0187058   0.0000000), wk =   0.0555556
        k(   40) = (  -0.0971979  -0.1683518   0.0000000), wk =   0.0277778

     Largest allocated arrays     est. size (Mb)     dimensions
     Largest temporary arrays     est. size (Mb)     dimensions

     Check: negative/imaginary core charge=   -0.000002    0.000000

     Initial potential from superposition of free atoms
     Check: negative starting charge=(component1):   -0.619859
     Check: negative starting charge=(component2):   -0.474014

     starting charge  187.49991, renormalised to  207.00000

[...]

     *
     * You are using vdW-DF for exchange-correlation in this calculation.
     * Please cite the following three references that made this development
     * possible:
     *
     *   M. Dion, H. Rydberg, E. Schroder, D. C. Langreth, and
     *   B. I. Lundqvist, Phys. Rev. Lett. 92, 246401 (2004).
     *
     *   T. Thonhauser, V. R. Cooper, S. Li, A. Puzder, P. Hyldgaard, and
     *   D. C. Langreth, Phys. Rev. B 76, 125112 (2007).
     *
     *   G. Roman-Perez and J. M. Soler, Phys. Rev. Lett. 103, 096102 (2009).
     *
     *
     * If you are using vdW-DF2, please also cite:
     *
     *   K. Lee, E. D. Murray, L. Kong, B. I. Lundqvist, and
     *   D. C. Langreth, Phys. Rev. B 82, 081101(R) (2010).
     *
     *
     * If you are calculating the stress with vdW-DF, please also cite:
     *
     *   R. Sabatini, E. Kucukbenli, B. Kolb, T. Thonhauser, and
     *   S. de Gironcoli, J. Phys.: Condens. Matter 24, 424209 (2012).
     *

     Carrying out vdW-DF run using the following parameters:

     Nqs =      20    Nr_points =    1024   r_max =   100.000
     q_mesh =
               0.00001000     0.04494208     0.09755937     0.15916263
               0.23128650     0.31572767     0.41458969     0.53033537
               0.66584808     0.82450364     1.01025438     1.22772762
               1.48234092     1.78043706     2.12944203     2.53805004
               3.01644009     3.57652955     4.23227104     5.00000000

     Gradients computed in reciprocal space

[...]

     Starting wfc are  153 randomized atomic wfcs

     Self-consistent Calculation

[...]

     total energy              =   -3649.68493090 Ry
     Harris-Foulkes estimate   =   -3649.68493055 Ry
     estimated scf accuracy    <       0.00000111 Ry

[...]

     iteration # 48     ecut=    36.75 Ry     beta=0.10
     Davidson diagonalization with overlap
     ethr =  5.37E-10,  avg # of iterations =  1.0

[...]

     negative rho (up, down):  5.299E-01 4.409E-01

[...]

     Adding external electric field

     Computed dipole along edir(3) :
        Dipole               -0.0026 Ry au,         -0.0067 Debye
        Dipole field         -0.0000 Ry au

        Potential amp.        0.0008 Ry
        Total length         44.5884 bohr

     Magnetic moment per site:
     atom:    1    charge:    9.3568    magn:    0.4119    constr:    0.0000
     atom:    2    charge:    9.3568    magn:    0.4119    constr:    0.0000
     atom:    3    charge:    9.3568    magn:    0.4119    constr:    0.0000
     atom:    4    charge:    1.6155    magn:    0.0318    constr:    0.0000
     atom:    5    charge:    9.3552    magn:    0.4542    constr:    0.0000
     atom:    6    charge:    9.3551    magn:    0.4542    constr:    0.0000
     atom:    7    charge:    9.3550    magn:    0.4543    constr:    0.0000
     atom:    8    charge:    1.6219    magn:    0.0363    constr:    0.0000
     atom:    9    charge:    9.3481    magn:    0.4112    constr:    0.0000
     atom:   10    charge:    9.3481    magn:    0.4112    constr:    0.0000
     atom:   11    charge:    9.3482    magn:    0.4111    constr:    0.0000
     atom:   12    charge:    1.6086    magn:    0.0315    constr:    0.0000

     End of self-consistent calculation

 ------ SPIN UP ------------

[...]

 ------ SPIN DOWN ----------

[...]

          k = 0.0648 0.0000 0.0000 ( 14083 PWs)   bands (ev):

[...]

          k =-0.0972-0.1684 0.0000 ( 14090 PWs)   bands (ev):

  -101.9786-101.9748-101.9713-101.7669-101.7631-101.7597-101.7538-101.7502
  -101.7467 -62.4339 -62.4120 -62.4115 -62.4058 -62.4050 -62.3894 -62.3245
   -62.3081 -62.2843 -62.2735 -62.2636 -62.2595 -62.2513 -62.2472 -62.2391
   -62.2050 -62.1911 -62.1786 -62.1652 -62.1488 -62.1349 -62.0376 -62.0328
   -62.0264 -62.0227 -62.0174 -62.0118 -47.8933 -47.8484 -47.8464 -47.5233
   -47.5213 -47.5066 -47.5046 -47.3768 -47.3540  -5.6563  -5.3122  -4.1211
    -3.5902  -3.5650  -3.3339  -3.0555  -2.7820  -2.7470  -2.7299  -2.3370
    -2.3078  -2.2473  -2.2034  -1.9159  -1.8806  -1.7645  -1.6368  -1.6191
    -1.4825  -1.3484  -1.2455  -1.1463  -1.0201  -0.9826  -0.9148  -0.9055
    -0.7494  -0.6847  -0.6594  -0.6473  -0.6219  -0.5402  -0.4991  -0.4671
    -0.4358  -0.4012  -0.3729  -0.3071  -0.2972  -0.0164   0.0545   0.0917
     0.1990   0.2170   0.2442   0.2734   0.3021   0.4246   0.5533   0.5583
     0.5813   0.6640   0.7289   0.7837   0.8503   0.8872   1.0521   1.0757
     1.1549   1.3320   1.4262   1.4434   1.8887   2.5570   2.6867   2.9666
     3.8178   3.9175   4.4639   5.2162   5.3509   6.2649   6.3101   7.1939
     7.2114   7.7295   7.7578   7.9528   7.9584   8.7139   8.9685   9.0049
     9.3376   9.4967   9.5572   9.8397   9.8531

     the Fermi energy is     0.9894 ev

!    total energy              =   -3649.68493188 Ry
     Harris-Foulkes estimate   =   -3649.68493097 Ry
     estimated scf accuracy    <       0.00000074 Ry

     The total energy is the sum of the following terms:

     one-electron contribution =  -30190.15332735 Ry
     hartree contribution      =   15110.72106661 Ry
     xc contribution           =    -486.84711571 Ry
     ewald contribution        =   11916.70467633 Ry
     electric field correction =       0.00000002 Ry
     smearing contrib. (-TS)   =      -0.11023179 Ry

     total magnetization       =     8.34 Bohr mag/cell
     absolute magnetization    =     9.43 Bohr mag/cell

     convergence has been achieved in  48 iterations

 BEEF-vdW xc energy contributions
           1 :   -429.705151718243
           2 :    392.766180802473
           3 :   -329.648527943677
           4 :    257.090989898958
           5 :   -191.019344881949
           6 :    141.072697708186
           7 :   -108.743127468761
           8 :    89.3326837135855
           9 :   -76.0656514332093
          10 :    63.8890503821929
          11 :   -51.1710620167095
          12 :    39.0008558394896
          13 :   -29.1995400420629
          14 :    22.5902082879314
          15 :   -18.5294028408667
          16 :    15.6334392349099
          17 :   -12.8826333410762
          18 :    10.2102702935966
          19 :   -8.24164489428352
          20 :    7.51001768504989
          21 :   -7.83118606643325
          22 :    8.31315705116708
          23 :   -7.96892701245076
          24 :    6.43580282739345
          25 :   -4.25670674949242
          26 :    2.51017523121413
          27 :   -2.06570569153212
          28 :    2.98897226162205
          29 :   -4.50685589600602
          30 :    5.53118777440272
          31 :   -35.9596053900592
          32 :   -25.7189183202320

     Forces acting on atoms (Ry/au):

     negative rho (up, down):  5.299E-01 4.409E-01
     atom    1 type  1   force =     0.00002095   -0.00252720    0.00398170
     atom    2 type  1   force =    -0.00214082    0.00129971    0.00394798
     atom    3 type  1   force =     0.00214460    0.00127712    0.00392983
     atom    4 type  2   force =    -0.00000193   -0.00000351    0.00564072
     atom    5 type  1   force =    -0.00000394   -0.00085170   -0.00442678
     atom    6 type  1   force =    -0.00074997    0.00041301   -0.00437748
     atom    7 type  1   force =     0.00074765    0.00041587   -0.00440608
     atom    8 type  2   force =     0.00000377    0.00000041   -0.00387213
     atom    9 type  1   force =     0.00009072   -0.00037167   -0.00051992
     atom   10 type  1   force =    -0.00040118    0.00017611   -0.00048172
     atom   11 type  1   force =     0.00040621    0.00007550   -0.00047133
     atom   12 type  2   force =    -0.00011606    0.00009634    0.00105523

     Total force =     0.013241     Total SCF correction =     0.004671
     SCF correction compared to forces is large: reduce conv_thr to get better values

     entering subroutine stress ...

     negative rho (up, down):  5.299E-01 4.409E-01
          total   stress  (Ry/bohr**3)                   (kbar)     P=  -61.23
  -0.00045043  -0.00000000   0.00000000        -66.26     -0.00      0.00
  -0.00000000  -0.00045038  -0.00000002         -0.00    -66.25     -0.00
   0.00000000  -0.00000002  -0.00034799          0.00     -0.00    -51.19

 !ASE

     Writing output data file calc.save

     General routines

     Parallel routines

   This run was terminated on:   6:31:46  31Dec2018

   JOB DONE.
Job  /afs/slac/g/suncat/bin/suncat-tsmpirun -x LD_LIBRARY_PATH -wdir /scratch/qe648667_9BrDf pw.x -in pw.inp

TID   HOST_NAME   COMMAND_LINE            STATUS            TERMINATION_TIME
00000 suncat0251 pw.x -in pw.inp   Done                     12/31/2018 06:31:46
00001 suncat0251 pw.x -in pw.inp   Done                     12/31/2018 06:31:46
00002 suncat0251 pw.x -in pw.inp   Done                     12/31/2018 06:31:46
00003 suncat0251 pw.x -in pw.inp   Done                     12/31/2018 06:31:46
00004 suncat0251 pw.x -in pw.inp   Done                     12/31/2018 06:31:46
00005 suncat0251 pw.x -in pw.inp   Done                     12/31/2018 06:31:46
00006 suncat0251 pw.x -in pw.inp   Done                     12/31/2018 06:31:46
00007 suncat0251 pw.x -in pw.inp   Done                     12/31/2018 06:31:46
00008 suncat0244 pw.x -in pw.inp   Done                     12/31/2018 06:31:46
00009 suncat0244 pw.x -in pw.inp   Done                     12/31/2018 06:31:46
00010 suncat0244 pw.x -in pw.inp   Done                     12/31/2018 06:31:46
00011 suncat0244 pw.x -in pw.inp   Done                     12/31/2018 06:31:46
00012 suncat0244 pw.x -in pw.inp   Done                     12/31/2018 06:31:46
00013 suncat0244 pw.x -in pw.inp   Done                     12/31/2018 06:31:46
00014 suncat0244 pw.x -in pw.inp   Done                     12/31/2018 06:31:46
00015 suncat0244 pw.x -in pw.inp   Done                     12/31/2018 06:31:46
00016 suncat0243 pw.x -in pw.inp   Done                     12/31/2018 06:31:46
00017 suncat0243 pw.x -in pw.inp   Done                     12/31/2018 06:31:46
00018 suncat0243 pw.x -in pw.inp   Done                     12/31/2018 06:31:46
00019 suncat0243 pw.x -in pw.inp   Done                     12/31/2018 06:31:46
00020 suncat0243 pw.x -in pw.inp   Done                     12/31/2018 06:31:46
00021 suncat0243 pw.x -in pw.inp   Done                     12/31/2018 06:31:46
00022 suncat0243 pw.x -in pw.inp   Done                     12/31/2018 06:31:46
00023 suncat0243 pw.x -in pw.inp   Done                     12/31/2018 06:31:46
00024 suncat0242 pw.x -in pw.inp   Done                     12/31/2018 06:31:46
00025 suncat0242 pw.x -in pw.inp   Done                     12/31/2018 06:31:46
00026 suncat0242 pw.x -in pw.inp   Done                     12/31/2018 06:31:46
00027 suncat0242 pw.x -in pw.inp   Done                     12/31/2018 06:31:46
00028 suncat0242 pw.x -in pw.inp   Done                     12/31/2018 06:31:46
00029 suncat0242 pw.x -in pw.inp   Done                     12/31/2018 06:31:46
00030 suncat0242 pw.x -in pw.inp   Done                     12/31/2018 06:31:46
00031 suncat0242 pw.x -in pw.inp   Done                     12/31/2018 06:31:46
00032 suncat0209 pw.x -in pw.inp   Done                     12/31/2018 06:31:46
00033 suncat0209 pw.x -in pw.inp   Done                     12/31/2018 06:31:46
00034 suncat0209 pw.x -in pw.inp   Done                     12/31/2018 06:31:46
00035 suncat0209 pw.x -in pw.inp   Done                     12/31/2018 06:31:46
00036 suncat0209 pw.x -in pw.inp   Done                     12/31/2018 06:31:46
00037 suncat0209 pw.x -in pw.inp   Done                     12/31/2018 06:31:46
00038 suncat0209 pw.x -in pw.inp   Done                     12/31/2018 06:31:46
00039 suncat0209 pw.x -in pw.inp   Done                     12/31/2018 06:31:46
00040 suncat0205 pw.x -in pw.inp   Done                     12/31/2018 06:31:46
00041 suncat0205 pw.x -in pw.inp   Done                     12/31/2018 06:31:46
00042 suncat0205 pw.x -in pw.inp   Done                     12/31/2018 06:31:46
00043 suncat0205 pw.x -in pw.inp   Done                     12/31/2018 06:31:46
00044 suncat0205 pw.x -in pw.inp   Done                     12/31/2018 06:31:46
00045 suncat0205 pw.x -in pw.inp   Done                     12/31/2018 06:31:46
00046 suncat0205 pw.x -in pw.inp   Done                     12/31/2018 06:31:46
00047 suncat0205 pw.x -in pw.inp   Done                     12/31/2018 06:31:46
00048 suncat0204 pw.x -in pw.inp   Done                     12/31/2018 06:31:46
00049 suncat0204 pw.x -in pw.inp   Done                     12/31/2018 06:31:46
00050 suncat0204 pw.x -in pw.inp   Done                     12/31/2018 06:31:46
00051 suncat0204 pw.x -in pw.inp   Done                     12/31/2018 06:31:46
00052 suncat0204 pw.x -in pw.inp   Done                     12/31/2018 06:31:46
00053 suncat0204 pw.x -in pw.inp   Done                     12/31/2018 06:31:46
00054 suncat0204 pw.x -in pw.inp   Done                     12/31/2018 06:31:46
00055 suncat0204 pw.x -in pw.inp   Done                     12/31/2018 06:31:46
00056 suncat0203 pw.x -in pw.inp   Done                     12/31/2018 06:31:46
00057 suncat0203 pw.x -in pw.inp   Done                     12/31/2018 06:31:46
00058 suncat0203 pw.x -in pw.inp   Done                     12/31/2018 06:31:46
00059 suncat0203 pw.x -in pw.inp   Done                     12/31/2018 06:31:46
00060 suncat0203 pw.x -in pw.inp   Done                     12/31/2018 06:31:46
00061 suncat0203 pw.x -in pw.inp   Done                     12/31/2018 06:31:46
00062 suncat0203 pw.x -in pw.inp   Done                     12/31/2018 06:31:46
00063 suncat0203 pw.x -in pw.inp   Done                     12/31/2018 06:31:46