     Program PWSCF v.5.1rc2 (svn rev. 11289) starts on 25Dec2018 at 18:49:45

     Current dimensions of program PWSCF are:
     Max number of different atomic species (ntypx) = 10
     Max number of k-points (npk) =  40000
     Max angular momentum in pseudopotentials (lmaxx) =  3
     Presently stress not available with electric field

     IMPORTANT: XC functional enforced from input :
     Exchange-correlation      = BEEF-VDW ( 1  4 27 13 2)
     Any further DFT definition will be discarded
     Please, verify this is what you really want

     Subspace diagonalization in iterative solution of the eigenvalue problem:
     a serial algorithm will be used

     bravais-lattice index     =            0
     lattice parameter (alat)  =       1.8897  a.u.
     unit-cell volume          =    4499.0958 (a.u.)^3
     number of atoms/cell      =           12
     number of atomic types    =            2
     number of electrons       =       210.00
     number of Kohn-Sham states=          135
     kinetic-energy cutoff     =      36.7493  Ry
     charge density cutoff     =     367.4932  Ry
     convergence threshold     =      1.0E-06
     mixing beta               =       0.1000
     number of iterations used =           10  plain     mixing
     Exchange-correlation      = BEEF-VDW ( 1  4 27 13 2)
     nstep                     =           50

     celldm(1)=   1.889726  celldm(2)=   0.000000  celldm(3)=   0.000000
     celldm(4)=   0.000000  celldm(5)=   0.000000  celldm(6)=   0.000000

     crystal axes: (cart. coord. in units of alat)
               a(1) = (   5.597492   0.000000   0.000000 )
               a(2) = (  -2.798746   4.847570   0.000000 )
               a(3) = (   0.000000   0.000000  24.570333 )

     reciprocal axes: (cart. coord. in units 2 pi/alat)
               b(1) = (  0.178651  0.103144  0.000000 )
               b(2) = (  0.000000  0.206289  0.000000 )
               b(3) = (  0.000000  0.000000  0.040699 )

     PseudoPot. # 1 for Cu read from file:
     /afs/slac.stanford.edu/u/if/mamunm/psp/gbrv1.5pbe/Cu.UPF
     MD5 check sum: 6e991ff952a84172a2a52a1c1e996048
     Pseudo is Ultrasoft + core correction, Zval = 19.0
     Generated by new atomic code, or converted to UPF format
     Using radial grid of  867 points,  6 beta functions with:
                l(1) =   0
                l(2) =   0
                l(3) =   1
                l(4) =   1
                l(5) =   2
                l(6) =   2
     Q(r) pseudized with  8 coefficients,  rinner =    1.150   1.150   1.150
                                                       1.150   1.150

     PseudoPot. # 2 for Tl read from file:
     /afs/slac.stanford.edu/u/if/mamunm/psp/gbrv1.5pbe/Tl.UPF
     MD5 check sum: b76cf1f7e72655a2b2c53cf6385d7059
     Pseudo is Ultrasoft + core correction, Zval = 13.0
     Generated by new atomic code, or converted to UPF format
     Using radial grid of  899 points,  6 beta functions with:
                l(1) =   0
                l(2) =   0
                l(3) =   1
                l(4) =   1
                l(5) =   2
                l(6) =   2
     Q(r) pseudized with  6 coefficients,  rinner =    1.100   1.100   1.100
                                                       1.100   1.100

     vdW kernel table read from file vdW_kernel_table
     MD5 check sum: 095c7af220d748ca6e76c0b4c6cfb241

     atomic species   valence    mass     pseudopotential
        Cu1           19.00    63.54600     Cu( 1.00)
        Tl1           13.00   204.38000     Tl( 1.00)

     No symmetry found

   Cartesian axes

     site n.     atom                  positions (alat units)
         1           Cu1 tau(   1) = (   0.0000000   0.0000000  10.0000000  )
         2           Cu1 tau(   2) = (  -1.3993730   2.4237851  10.0000000  )
         3           Cu1 tau(   3) = (   1.3993730   2.4237851  10.0000000  )
         4           Tl1 tau(   4) = (   2.7987460   0.0000000  10.0000000  )
         5           Cu1 tau(   5) = (   2.7987460   1.6158568  12.2851665  )
         6           Cu1 tau(   6) = (   1.3993730   4.0396419  12.2851665  )
         7           Cu1 tau(   7) = (  -1.3993730   4.0396419  12.2851665  )
         8           Tl1 tau(   8) = (   0.0000000   1.6158568  12.2851665  )
         9           Cu1 tau(   9) = (  -0.0000000   3.2317135  14.5703331  )
        10           Cu1 tau(  10) = (   1.3993730   0.8079284  14.5703331  )
        11           Cu1 tau(  11) = (   4.1981190   0.8079284  14.5703331  )
        12           Tl1 tau(  12) = (   2.7987460   3.2317135  14.5703331  )

     number of k points=    20  Fermi-Dirac smearing, width (Ry)=  0.0110
                       cart. coord. in units 2pi/alat
        k(    1) = (   0.0000000   0.0000000   0.0000000), wk =   0.0555556
        k(    2) = (   0.0000000   0.0343815   0.0000000), wk =   0.1111111
        k(    3) = (   0.0000000   0.0687630   0.0000000), wk =   0.1111111
        k(    4) = (   0.0000000  -0.1031445   0.0000000), wk =   0.0555556
        k(    5) = (   0.0297752   0.0171907   0.0000000), wk =   0.1111111
        k(    6) = (   0.0297752   0.0515722   0.0000000), wk =   0.1111111
        k(    7) = (   0.0297752   0.0859537   0.0000000), wk =   0.1111111
        k(    8) = (   0.0297752  -0.0859537   0.0000000), wk =   0.1111111
        k(    9) = (   0.0297752  -0.0515722   0.0000000), wk =   0.1111111
        k(   10) = (   0.0297752  -0.0171907   0.0000000), wk =   0.1111111
        k(   11) = (   0.0595505   0.0343815   0.0000000), wk =   0.1111111
        k(   12) = (   0.0595505   0.0687630   0.0000000), wk =   0.1111111
        k(   13) = (   0.0595505   0.1031445   0.0000000), wk =   0.1111111
        k(   14) = (   0.0595505  -0.0687630   0.0000000), wk =   0.1111111
        k(   15) = (   0.0595505  -0.0343815   0.0000000), wk =   0.1111111
        k(   16) = (   0.0595505   0.0000000   0.0000000), wk =   0.1111111
        k(   17) = (  -0.0893257  -0.0515722   0.0000000), wk =   0.0555556
        k(   18) = (  -0.0893257  -0.0171907   0.0000000), wk =   0.1111111
        k(   19) = (  -0.0893257   0.0171907   0.0000000), wk =   0.1111111
        k(   20) = (  -0.0893257  -0.1547167   0.0000000), wk =   0.0555556

     Largest allocated arrays     est. size (Mb)     dimensions
     Largest temporary arrays     est. size (Mb)     dimensions

     Check: negative/imaginary core charge=   -0.000001    0.000000

     Initial potential from superposition of free atoms
     Check: negative starting charge=   -0.155419

     starting charge  200.98538, renormalised to  210.00000

     negative rho (up, down):  1.624E-01 0.000E+00

     *
     * You are using vdW-DF for exchange-correlation in this calculation.
     * Please cite the following three references that made this development
     * possible:
     *
     *   M. Dion, H. Rydberg, E. Schroder, D. C. Langreth, and
     *   B. I. Lundqvist, Phys. Rev. Lett. 92, 246401 (2004).
     *
     *   T. Thonhauser, V. R. Cooper, S. Li, A. Puzder, P. Hyldgaard, and
     *   D. C. Langreth, Phys. Rev. B 76, 125112 (2007).
     *
     *   G. Roman-Perez and J. M. Soler, Phys. Rev. Lett. 103, 096102 (2009).
     *
     *
     * If you are using vdW-DF2, please also cite:
     *
     *   K. Lee, E. D. Murray, L. Kong, B. I. Lundqvist, and
     *   D. C. Langreth, Phys. Rev. B 82, 081101(R) (2010).
     *
     *
     * If you are calculating the stress with vdW-DF, please also cite:
     *
     *   R. Sabatini, E. Kucukbenli, B. Kolb, T. Thonhauser, and
     *   S. de Gironcoli, J. Phys.: Condens. Matter 24, 424209 (2012).
     *

     Carrying out vdW-DF run using the following parameters:

     Nqs =      20    Nr_points =    1024   r_max =   100.000
     q_mesh =
               0.00001000     0.04494208     0.09755937     0.15916263
               0.23128650     0.31572767     0.41458969     0.53033537
               0.66584808     0.82450364     1.01025438     1.22772762
               1.48234092     1.78043706     2.12944203     2.53805004
               3.01644009     3.57652955     4.23227104     5.00000000

     Gradients computed in reciprocal space

     Adding external electric field

     Computed dipole along edir(3) :
        Dipole                0.0000 Ry au,          0.0000 Debye
        Dipole field          0.0000 Ry au

        Potential amp.       -0.0000 Ry
        Total length         45.2704 bohr

     Starting wfc are  144 randomized atomic wfcs

     Self-consistent Calculation

     iteration #  1     ecut=    36.75 Ry     beta=0.10
     Davidson diagonalization with overlap
     ethr =  1.00E-02,  avg # of iterations =  7.5

[...]

     total energy              =   -4083.92822684 Ry
     Harris-Foulkes estimate   =   -4088.53665372 Ry
     estimated scf accuracy    <      26.41708432 Ry

[...]

     End of self-consistent calculation

          k = 0.0000 0.0000 0.0000 ( 16847 PWs)   bands (ev):

  -112.1115-112.1099-112.1094-111.7370-111.7370-111.7353-111.7353-111.7352
  -111.7352 -69.5565 -69.5472 -69.5471 -69.5379 -69.5378 -69.5324 -69.4677
   -69.4569 -69.4564 -69.1869 -69.1869 -69.1868 -69.1868 -69.1775 -69.1774
   -69.1565 -69.1565 -69.1377 -69.1377 -69.1376 -69.1376 -69.1071 -69.1068
   -69.1018 -69.1018 -69.1017 -69.1017 -11.5191 -11.5191 -11.4990 -11.4701
   -11.4701 -11.1763 -11.1763 -11.1757 -11.1740 -11.1683 -11.1683 -11.0961
   -11.0961 -11.0689 -11.0689  -9.0063  -7.2750  -6.0575  -3.6177  -3.4280
    -3.3730  -3.0412  -3.0410  -2.7883  -2.7881  -2.7496  -2.7258  -2.7257
    -2.6430  -2.6430  -2.5214  -2.3131  -2.3131  -2.2933  -2.2933  -2.2612
    -2.2379  -2.1750  -2.0655  -2.0652  -1.9751  -1.9751  -1.9534  -1.8869
    -1.8866  -1.6529  -1.6529  -1.6509  -1.5773  -1.5772  -1.5749  -1.5749
    -1.5245  -1.5028  -1.5028  -1.4461  -1.4460  -1.4154  -1.3970  -1.3016
    -1.3015  -1.1439  -1.1368  -0.6147  -0.6147  -0.4182  -0.2116  -0.0905
     0.2363   0.2363   0.6581   0.6581   0.8030   1.5292   2.9700   3.0272
     3.0272   3.4472   3.9229   4.3198   4.3198   4.4411   4.7686   4.9623
     4.9623   5.7419   5.9281   7.1573   7.2369   7.5985   7.5985   7.6200
     7.8997   7.8998   7.9428   9.6609   9.6610   9.6851   9.8925

[...]

          k =-0.0893-0.0516 0.0000 ( 16928 PWs)   bands (ev):

[...]

     the Fermi energy is     0.5600 ev

!    total energy              =   -4084.60115346 Ry
     Harris-Foulkes estimate   =   -4084.60116610 Ry
     estimated scf accuracy    <       0.00000020 Ry

     The total energy is the sum of the following terms:

     one-electron contribution =  -26578.52064371 Ry
     hartree contribution      =   13320.94560528 Ry
     xc contribution           =    -552.25548440 Ry
     ewald contribution        =    9725.25942696 Ry
     electric field correction =       0.00000000 Ry
     smearing contrib. (-TS)   =      -0.03005760 Ry

     convergence has been achieved in  19 iterations

 BEEF-vdW xc energy contributions
           1 :   -489.977717845823
           2 :    448.006048203278
           3 :   -376.128305110395
           4 :    292.949868362123
           5 :   -215.862263719817
           6 :    155.030649423545
           7 :   -111.741136089083
[...]
     Using radial grid of  867 points,  6 beta functions with:
                l(1) =   0
                l(2) =   0
                l(3) =   1
                l(4) =   1
                l(5) =   2
                l(6) =   2
     Q(r) pseudized with  8 coefficients,  rinner =    1.150   1.150   1.150
                                                       1.150   1.150

     PseudoPot. # 2 for Tl read from file:
     /afs/slac.stanford.edu/u/if/mamunm/psp/gbrv1.5pbe/Tl.UPF
     MD5 check sum: b76cf1f7e72655a2b2c53cf6385d7059
     Pseudo is Ultrasoft + core correction, Zval = 13.0
     Generated by new atomic code, or converted to UPF format
     Using radial grid of  899 points,  6 beta functions with:
                l(1) =   0
                l(2) =   0
                l(3) =   1
                l(4) =   1
                l(5) =   2
                l(6) =   2
     Q(r) pseudized with  6 coefficients,  rinner =    1.100   1.100   1.100
                                                       1.100   1.100

     vdW kernel table read from file vdW_kernel_table
     MD5 check sum: 095c7af220d748ca6e76c0b4c6cfb241

     atomic species   valence    mass     pseudopotential
        Cu1           19.00    63.54600     Cu( 1.00)
        Tl1           13.00   204.38000     Tl( 1.00)

     No symmetry found

   Cartesian axes

     site n.     atom                  positions (alat units)
         1           Cu1 tau(   1) = (   0.0000000   0.0000000  10.0000000  )
         2           Cu1 tau(   2) = (  -1.3993730   2.4237851  10.0000000  )
         3           Cu1 tau(   3) = (   1.3993730   2.4237851  10.0000000  )
         4           Tl1 tau(   4) = (   2.7987460   0.0000000  10.0000000  )
         5           Cu1 tau(   5) = (   2.7987460   1.6158568  12.2851665  )
         6           Cu1 tau(   6) = (   1.3993730   4.0396419  12.2851665  )
         7           Cu1 tau(   7) = (  -1.3993730   4.0396419  12.2851665  )
         8           Tl1 tau(   8) = (   0.0000000   1.6158568  12.2851665  )
         9           Cu1 tau(   9) = (  -0.0000122   3.3639679  14.4287916  )
        10           Cu1 tau(  10) = (   1.5138949   0.7418008  14.4287882  )
        11           Cu1 tau(  11) = (   4.0836328   0.7418378  14.4289066  )
        12           Tl1 tau(  12) = (   2.7986471   3.2316629  15.1514286  )

     number of k points=    20  Fermi-Dirac smearing, width (Ry)=  0.0110
                       cart. coord. in units 2pi/alat
        k(    1) = (   0.0000000   0.0000000   0.0000000), wk =   0.0555556
        k(    2) = (   0.0000000   0.0343815   0.0000000), wk =   0.1111111
        k(    3) = (   0.0000000   0.0687630   0.0000000), wk =   0.1111111
        k(    4) = (   0.0000000  -0.1031445   0.0000000), wk =   0.0555556
        k(    5) = (   0.0297752   0.0171907   0.0000000), wk =   0.1111111
        k(    6) = (   0.0297752   0.0515722   0.0000000), wk =   0.1111111
        k(    7) = (   0.0297752   0.0859537   0.0000000), wk =   0.1111111
        k(    8) = (   0.0297752  -0.0859537   0.0000000), wk =   0.1111111
        k(    9) = (   0.0297752  -0.0515722   0.0000000), wk =   0.1111111
        k(   10) = (   0.0297752  -0.0171907   0.0000000), wk =   0.1111111
        k(   11) = (   0.0595505   0.0343815   0.0000000), wk =   0.1111111
        k(   12) = (   0.0595505   0.0687630   0.0000000), wk =   0.1111111
        k(   13) = (   0.0595505   0.1031445   0.0000000), wk =   0.1111111
        k(   14) = (   0.0595505  -0.0687630   0.0000000), wk =   0.1111111
        k(   15) = (   0.0595505  -0.0343815   0.0000000), wk =   0.1111111
        k(   16) = (   0.0595505   0.0000000   0.0000000), wk =   0.1111111
        k(   17) = (  -0.0893257  -0.0515722   0.0000000), wk =   0.0555556
        k(   18) = (  -0.0893257  -0.0171907   0.0000000), wk =   0.1111111
        k(   19) = (  -0.0893257   0.0171907   0.0000000), wk =   0.1111111
        k(   20) = (  -0.0893257  -0.1547167   0.0000000), wk =   0.0555556

     Largest allocated arrays     est. size (Mb)     dimensions
     Largest temporary arrays     est. size (Mb)     dimensions

     Check: negative/imaginary core charge=   -0.000001    0.000000

     Initial potential from superposition of free atoms
     Check: negative starting charge=   -0.155096

     starting charge  200.98538, renormalised to  210.00000

[...]

     *
     * You are using vdW-DF for exchange-correlation in this calculation.
     * Please cite the following three references that made this development
     * possible:
     *
     *   M. Dion, H. Rydberg, E. Schroder, D. C. Langreth, and
     *   B. I. Lundqvist, Phys. Rev. Lett. 92, 246401 (2004).
     *
     *   T. Thonhauser, V. R. Cooper, S. Li, A. Puzder, P. Hyldgaard, and
     *   D. C. Langreth, Phys. Rev. B 76, 125112 (2007).
     *
     *   G. Roman-Perez and J. M. Soler, Phys. Rev. Lett. 103, 096102 (2009).
     *
     *
     * If you are using vdW-DF2, please also cite:
     *
     *   K. Lee, E. D. Murray, L. Kong, B. I. Lundqvist, and
     *   D. C. Langreth, Phys. Rev. B 82, 081101(R) (2010).
     *
     *
     * If you are calculating the stress with vdW-DF, please also cite:
     *
     *   R. Sabatini, E. Kucukbenli, B. Kolb, T. Thonhauser, and
     *   S. de Gironcoli, J. Phys.: Condens. Matter 24, 424209 (2012).
     *

     Carrying out vdW-DF run using the following parameters:

     Nqs =      20    Nr_points =    1024   r_max =   100.000
     q_mesh =
               0.00001000     0.04494208     0.09755937     0.15916263
               0.23128650     0.31572767     0.41458969     0.53033537
               0.66584808     0.82450364     1.01025438     1.22772762
               1.48234092     1.78043706     2.12944203     2.53805004
               3.01644009     3.57652955     4.23227104     5.00000000

     Gradients computed in reciprocal space

[...]

     Starting wfc are  144 randomized atomic wfcs

     Self-consistent Calculation

[...]

     total energy              =   -4084.64650882 Ry
     Harris-Foulkes estimate   =   -4084.64650656 Ry
     estimated scf accuracy    <       0.00000156 Ry

     iteration # 18     ecut=    36.75 Ry     beta=0.10
     Davidson diagonalization with overlap
     ethr =  7.43E-10,  avg # of iterations =  2.0

[...]

     negative rho (up, down):  1.663E-01 0.000E+00

     Adding external electric field

     Computed dipole along edir(3) :
        Dipole                0.0806 Ry au,          0.2049 Debye
        Dipole field          0.0002 Ry au

        Potential amp.       -0.0204 Ry
        Total length         45.2704 bohr

     End of self-consistent calculation

[...]

          k = 0.0596 0.0000 0.0000 ( 16918 PWs)   bands (ev):

[...]

          k =-0.0893-0.1547 0.0000 ( 16928 PWs)   bands (ev):

  -111.9389-111.9383-111.9377-111.7025-111.6995-111.6993-111.6567-111.6561
  -111.6555 -69.3745 -69.3709 -69.3685 -69.3576 -69.3536 -69.3490 -69.3083
   -69.3050 -69.3011 -69.1346 -69.1320 -69.1318 -69.1184 -69.1077 -69.1073
   -69.1052 -69.1040 -69.1015 -69.0806 -69.0734 -69.0721 -69.0699 -69.0640
   -69.0577 -69.0234 -69.0219 -69.0200 -11.4085 -11.3727 -11.3496 -11.3309
   -11.3227 -11.0926 -11.0632 -11.0547 -11.0304 -11.0011 -10.8580 -10.8441
   -10.8333 -10.8315 -10.8168  -7.5792  -6.8449  -5.9338  -4.7013  -3.7708
    -3.6483  -3.5935  -3.0026  -2.7349  -2.6552  -2.6535  -2.6394  -2.5965
    -2.5429  -2.5141  -2.4598  -2.4005  -2.3401  -2.3228  -2.2626  -2.2223
    -2.1721  -2.1357  -2.0990  -2.0541  -2.0011  -1.9303  -1.8951  -1.8798
    -1.8639  -1.8425  -1.8047  -1.7963  -1.7572  -1.7112  -1.6993  -1.6936
    -1.6491  -1.6292  -1.6057  -1.5812  -1.5314  -1.4965  -1.4450  -1.4433
    -1.3946  -1.3461  -1.2242  -1.1723  -1.0675  -0.6616  -0.3170  -0.2004
     0.4864   0.5101   1.4671   2.2596   2.2977   2.7259   4.2639   4.8329
     4.9696   5.1923   5.2543   5.3585   5.4185   5.8906   5.9793   6.0830
     6.2187   6.2790   6.6299   6.9900   7.1186   7.2495   7.3116   7.3287
     7.4040   7.4873   7.8649   8.1677   8.3034   8.5124   8.9207

     the Fermi energy is     0.6809 ev

!    total energy              =   -4084.64651187 Ry
     Harris-Foulkes estimate   =   -4084.64650847 Ry
     estimated scf accuracy    <       0.00000072 Ry

     The total energy is the sum of the following terms:

     one-electron contribution =  -26581.15896385 Ry
     hartree contribution      =   13323.02106066 Ry
     xc contribution           =    -552.19817313 Ry
     ewald contribution        =    9725.72075914 Ry
     electric field correction =       0.00001815 Ry
     smearing contrib. (-TS)   =      -0.03121284 Ry

     convergence has been achieved in  18 iterations

 BEEF-vdW xc energy contributions
           1 :   -490.422537238656
           2 :    448.395745082798
           3 :   -376.445977181976
           4 :    293.226365021375
           5 :   -216.158777584462
           6 :    155.406062235095
           7 :   -112.217622270327
           8 :    81.6359821323124
           9 :   -57.3242025350332
          10 :    35.5177375529340
          11 :   -16.1774814858925
          12 :    1.40660416994467
          13 :    7.16954288984857
          14 :   -10.0898181171336
          15 :    9.84564410859991
          16 :   -9.27589042110890
          17 :    9.92387199115535
          18 :   -11.5085544443400
          19 :    12.6937214828788
          20 :   -12.4162779054158
          21 :    10.7527426711243
          22 :   -8.78175790363218
          23 :    7.68374550663907
          24 :   -7.84305007670537
          25 :    8.62517393472888
          26 :   -8.93957155972441
          27 :    8.10359352583021
          28 :   -6.34408576963790
          29 :    4.58649982501754
          30 :   -3.73265145757284
          31 :   -39.0707404501740
          32 :   -27.3480325316631

     Forces acting on atoms (Ry/au):

     negative rho (up, down):  1.663E-01 0.000E+00
     atom    1 type  1   force =     0.00000022   -0.01085078    0.00683903
     atom    2 type  1   force =    -0.00939984    0.00542881    0.00684219
     atom    3 type  1   force =     0.00939944    0.00542347    0.00683804
     atom    4 type  2   force =    -0.00000330   -0.00000219   -0.04212348
     atom    5 type  1   force =     0.00000061    0.01268451    0.00566301
     atom    6 type  1   force =     0.01098525   -0.00634054    0.00565663
     atom    7 type  1   force =    -0.01098170   -0.00634405    0.00565334
     atom    8 type  2   force =    -0.00000515   -0.00000296    0.00575534
     atom    9 type  1   force =    -0.00000565   -0.00080586   -0.00033053
     atom   10 type  1   force =    -0.00070206    0.00039941   -0.00033062
     atom   11 type  1   force =     0.00069897    0.00040200   -0.00034172
     atom   12 type  2   force =     0.00001320    0.00000816   -0.00012124

     Total force =     0.053686     Total SCF correction =     0.004061

     entering subroutine stress ...

     negative rho (up, down):  1.663E-01 0.000E+00
          total   stress  (Ry/bohr**3)                   (kbar)     P=  -16.14
  -0.00014435  -0.00000000   0.00000000        -21.23     -0.00      0.00
  -0.00000000  -0.00014435   0.00000000         -0.00    -21.23      0.00
   0.00000000   0.00000000  -0.00004047          0.00      0.00     -5.95

 !ASE

     Writing output data file calc.save

     General routines

     Parallel routines

   This run was terminated on:  21:40: 1  25Dec2018

   JOB DONE.
Job  /afs/slac/g/suncat/bin/suncat-tsmpirun -x LD_LIBRARY_PATH -wdir /scratch/qe109600_Bjtcs pw.x -in pw.inp

TID   HOST_NAME   COMMAND_LINE            STATUS            TERMINATION_TIME
00000 suncat0029 pw.x -in pw.inp   Done                     12/25/2018 21:40:01
00001 suncat0029 pw.x -in pw.inp   Done                     12/25/2018 21:40:01
00002 suncat0029 pw.x -in pw.inp   Done                     12/25/2018 21:40:01
00003 suncat0029 pw.x -in pw.inp   Done                     12/25/2018 21:40:01
00004 suncat0029 pw.x -in pw.inp   Done                     12/25/2018 21:40:01
00005 suncat0029 pw.x -in pw.inp   Done                     12/25/2018 21:40:01
00006 suncat0029 pw.x -in pw.inp   Done                     12/25/2018 21:40:01
00007 suncat0029 pw.x -in pw.inp   Done                     12/25/2018 21:40:01
00008 suncat0028 pw.x -in pw.inp   Done                     12/25/2018 21:40:01
00009 suncat0028 pw.x -in pw.inp   Done                     12/25/2018 21:40:01
00010 suncat0028 pw.x -in pw.inp   Done                     12/25/2018 21:40:01
00011 suncat0028 pw.x -in pw.inp   Done                     12/25/2018 21:40:01
00012 suncat0028 pw.x -in pw.inp   Done                     12/25/2018 21:40:01
00013 suncat0028 pw.x -in pw.inp   Done                     12/25/2018 21:40:01
00014 suncat0028 pw.x -in pw.inp   Done                     12/25/2018 21:40:01
00015 suncat0028 pw.x -in pw.inp   Done                     12/25/2018 21:40:01
00016 suncat0027 pw.x -in pw.inp   Done                     12/25/2018 21:40:01
00017 suncat0027 pw.x -in pw.inp   Done                     12/25/2018 21:40:01
00018 suncat0027 pw.x -in pw.inp   Done                     12/25/2018 21:40:01
00019 suncat0027 pw.x -in pw.inp   Done                     12/25/2018 21:40:01
00020 suncat0027 pw.x -in pw.inp   Done                     12/25/2018 21:40:01
00021 suncat0027 pw.x -in pw.inp   Done                     12/25/2018 21:40:01
00022 suncat0027 pw.x -in pw.inp   Done                     12/25/2018 21:40:01
00023 suncat0027 pw.x -in pw.inp   Done                     12/25/2018 21:40:01
00024 suncat0021 pw.x -in pw.inp   Done                     12/25/2018 21:40:01
00025 suncat0021 pw.x -in pw.inp   Done                     12/25/2018 21:40:01
00026 suncat0021 pw.x -in pw.inp   Done                     12/25/2018 21:40:01
00027 suncat0021 pw.x -in pw.inp   Done                     12/25/2018 21:40:01
00028 suncat0021 pw.x -in pw.inp   Done                     12/25/2018 21:40:01
00029 suncat0021 pw.x -in pw.inp   Done                     12/25/2018 21:40:01
00030 suncat0021 pw.x -in pw.inp   Done                     12/25/2018 21:40:01
00031 suncat0021 pw.x -in pw.inp   Done                     12/25/2018 21:40:01
00032 suncat0191 pw.x -in pw.inp   Done                     12/25/2018 21:40:01
00033 suncat0191 pw.x -in pw.inp   Done                     12/25/2018 21:40:01
00034 suncat0191 pw.x -in pw.inp   Done                     12/25/2018 21:40:01
00035 suncat0191 pw.x -in pw.inp   Done                     12/25/2018 21:40:01
00036 suncat0191 pw.x -in pw.inp   Done                     12/25/2018 21:40:01
00037 suncat0191 pw.x -in pw.inp   Done                     12/25/2018 21:40:01
00038 suncat0191 pw.x -in pw.inp   Done                     12/25/2018 21:40:01
00039 suncat0191 pw.x -in pw.inp   Done                     12/25/2018 21:40:01
00040 suncat0113 pw.x -in pw.inp   Done                     12/25/2018 21:40:01
00041 suncat0113 pw.x -in pw.inp   Done                     12/25/2018 21:40:01
00042 suncat0113 pw.x -in pw.inp   Done                     12/25/2018 21:40:01
00043 suncat0113 pw.x -in pw.inp   Done                     12/25/2018 21:40:01
00044 suncat0113 pw.x -in pw.inp   Done                     12/25/2018 21:40:01
00045 suncat0113 pw.x -in pw.inp   Done                     12/25/2018 21:40:01
00046 suncat0113 pw.x -in pw.inp   Done                     12/25/2018 21:40:01
00047 suncat0113 pw.x -in pw.inp   Done                     12/25/2018 21:40:01
00048 suncat0110 pw.x -in pw.inp   Done                     12/25/2018 21:40:01
00049 suncat0110 pw.x -in pw.inp   Done                     12/25/2018 21:40:01
00050 suncat0110 pw.x -in pw.inp   Done                     12/25/2018 21:40:01
00051 suncat0110 pw.x -in pw.inp   Done                     12/25/2018 21:40:01
00052 suncat0110 pw.x -in pw.inp   Done                     12/25/2018 21:40:01
00053 suncat0110 pw.x -in pw.inp   Done                     12/25/2018 21:40:01
00054 suncat0110 pw.x -in pw.inp   Done                     12/25/2018 21:40:01
00055 suncat0110 pw.x -in pw.inp   Done                     12/25/2018 21:40:01
00056 suncat0109 pw.x -in pw.inp   Done                     12/25/2018 21:40:01
00057 suncat0109 pw.x -in pw.inp   Done                     12/25/2018 21:40:01
00058 suncat0109 pw.x -in pw.inp   Done                     12/25/2018 21:40:01
00059 suncat0109 pw.x -in pw.inp   Done                     12/25/2018 21:40:01
00060 suncat0109 pw.x -in pw.inp   Done                     12/25/2018 21:40:01
00061 suncat0109 pw.x -in pw.inp   Done                     12/25/2018 21:40:01
00062 suncat0109 pw.x -in pw.inp   Done                     12/25/2018 21:40:01
00063 suncat0109 pw.x -in pw.inp   Done                     12/25/2018 21:40:01