     Program PWSCF v.5.1rc2 (svn rev. 11289) starts on 30Dec2018 at  6:26: 5

     Current dimensions of program PWSCF are:
     Max number of different atomic species (ntypx) = 10
     Max number of k-points (npk) =  40000
     Max angular momentum in pseudopotentials (lmaxx) =  3
     Presently stress not available with electric field

     IMPORTANT: XC functional enforced from input :
     Exchange-correlation      = BEEF-VDW ( 1  4 27 13 2)
     Any further DFT definition will be discarded
     Please, verify this is what you really want

     Subspace diagonalization in iterative solution of the eigenvalue problem:
     a serial algorithm will be used

     bravais-lattice index     =            0
     lattice parameter (alat)  =       1.8897  a.u.
     unit-cell volume          =    5550.8730 (a.u.)^3
     number of atoms/cell      =           12
     number of atomic types    =            2
     number of electrons       =       141.00
     number of Kohn-Sham states=          100
     kinetic-energy cutoff     =      36.7493  Ry
     charge density cutoff     =     367.4932  Ry
     convergence threshold     =      1.0E-06
     mixing beta               =       0.1000
     number of iterations used =           10  plain     mixing
     Exchange-correlation      = BEEF-VDW ( 1  4 27 13 2)
     nstep                     =           50

     celldm(1)=   1.889726  celldm(2)=   0.000000  celldm(3)=   0.000000
     celldm(4)=   0.000000  celldm(5)=   0.000000  celldm(6)=   0.000000

     crystal axes: (cart. coord. in units of alat)
               a(1) = (   6.160119   0.000000   0.000000 )
               a(2) = (  -3.080059   5.334819   0.000000 )
               a(3) = (   0.000000   0.000000  25.029716 )

     reciprocal axes: (cart. coord. in units 2 pi/alat)
               b(1) = (  0.162335  0.093724  0.000000 )
               b(2) = (  0.000000  0.187448  0.000000 )
               b(3) = (  0.000000  0.000000  0.039953 )

     PseudoPot. # 1 for Hf read from file:
     /afs/slac.stanford.edu/u/if/mamunm/psp/gbrv1.5pbe/Hf.UPF
     MD5 check sum: 8ee9378dfe14276e333edf04c5e4aa26
     Pseudo is Ultrasoft + core correction, Zval = 12.0
     Generated by new atomic code, or converted to UPF format
     Using radial grid of  921 points,  8 beta functions with:
                l(1) =   0
                l(2) =   0
                l(3) =   0
                l(4) =   1
                l(5) =   1
                l(6) =   2
                l(7) =   2
                l(8) =   3
     Q(r) pseudized with  6 coefficients,  rinner =    1.200   1.200   1.200
                                                       1.200   1.200   1.200
                                                       1.200

     PseudoPot. # 2 for Au read from file:
     /afs/slac.stanford.edu/u/if/mamunm/psp/gbrv1.5pbe/Au.UPF
     MD5 check sum: 9d7f43293ad2c663164586bc4b293ffc
     Pseudo is Ultrasoft + core correction, Zval = 11.0
     Generated by new atomic code, or converted to UPF format
     Using radial grid of  985 points,  7 beta functions with:
                l(1) =   0
                l(2) =   0
                l(3) =   1
                l(4) =   1
                l(5) =   2
                l(6) =   2
                l(7) =   3
     Q(r) pseudized with  6 coefficients,  rinner =    1.900   1.900   1.900
                                                       1.900   1.900   1.900
                                                       1.900

     vdW kernel table read from file vdW_kernel_table
     MD5 check sum: 095c7af220d748ca6e76c0b4c6cfb241

     atomic species   valence    mass     pseudopotential
        Hf1           12.00   178.49000     Hf( 1.00)
        Au1           11.00   196.96657     Au( 1.00)

     No symmetry found

   Cartesian axes

     site n.     atom                  positions (alat units)
         1           Hf1 tau(   1) = (   0.0000000   0.0000000  10.0000000  )
         2           Hf1 tau(   2) = (  -1.5400296   2.6674096  10.0000000  )
         3           Hf1 tau(   3) = (   1.5400296   2.6674096  10.0000000  )
         4           Au1 tau(   4) = (   3.0800593   0.0000000  10.0000000  )
         5           Hf1 tau(   5) = (   3.0800593   1.7782731  12.5148579  )
         6           Hf1 tau(   6) = (   1.5400296   4.4456826  12.5148579  )
         7           Hf1 tau(   7) = (  -1.5400296   4.4456826  12.5148579  )
         8           Au1 tau(   8) = (   0.0000000   1.7782731  12.5148579  )
         9           Hf1 tau(   9) = (  -0.0000000   3.5565461  15.0297158  )
        10           Hf1 tau(  10) = (   1.5400296   0.8891365  15.0297158  )
        11           Hf1 tau(  11) = (   4.6200889   0.8891365  15.0297158  )
        12           Au1 tau(  12) = (   3.0800593   3.5565461  15.0297158  )

     number of k points=    20  Fermi-Dirac smearing, width (Ry)=  0.0110
                       cart. coord. in units 2pi/alat
        k(    1) = (   0.0000000   0.0000000   0.0000000), wk =   0.0555556
        k(    2) = (   0.0000000   0.0312413   0.0000000), wk =   0.1111111
        k(    3) = (   0.0000000   0.0624826   0.0000000), wk =   0.1111111
        k(    4) = (   0.0000000  -0.0937239   0.0000000), wk =   0.0555556
        k(    5) = (   0.0270558   0.0156206   0.0000000), wk =   0.1111111
        k(    6) = (   0.0270558   0.0468619   0.0000000), wk =   0.1111111
        k(    7) = (   0.0270558   0.0781032   0.0000000), wk =   0.1111111
        k(    8) = (   0.0270558  -0.0781032   0.0000000), wk =   0.1111111
        k(    9) = (   0.0270558  -0.0468619   0.0000000), wk =   0.1111111
        k(   10) = (   0.0270558  -0.0156206   0.0000000), wk =   0.1111111
        k(   11) = (   0.0541115   0.0312413   0.0000000), wk =   0.1111111
        k(   12) = (   0.0541115   0.0624826   0.0000000), wk =   0.1111111
        k(   13) = (   0.0541115   0.0937239   0.0000000), wk =   0.1111111
        k(   14) = (   0.0541115  -0.0624826   0.0000000), wk =   0.1111111
        k(   15) = (   0.0541115  -0.0312413   0.0000000), wk =   0.1111111
        k(   16) = (   0.0541115   0.0000000   0.0000000), wk =   0.1111111
        k(   17) = (  -0.0811673  -0.0468619   0.0000000), wk =   0.0555556
        k(   18) = (  -0.0811673  -0.0156206   0.0000000), wk =   0.1111111
        k(   19) = (  -0.0811673   0.0156206   0.0000000), wk =   0.1111111
        k(   20) = (  -0.0811673  -0.1405858   0.0000000), wk =   0.0555556

     Largest allocated arrays     est. size (Mb)     dimensions
     Largest temporary arrays     est. size (Mb)     dimensions

     Check: negative/imaginary core charge=   -0.000003    0.000000

     Initial potential from superposition of free atoms
     Check: negative starting charge=   -0.959166

     starting charge  122.99961, renormalised to  141.00000

     negative rho (up, down):  1.100E+00 0.000E+00

     *
     * You are using vdW-DF for exchange-correlation in this calculation.
     * Please cite the following three references that made this development
     * possible:
     *
     *   M. Dion, H. Rydberg, E. Schroder, D. C. Langreth, and
     *   B. I. Lundqvist, Phys. Rev. Lett. 92, 246401 (2004).
     *
     *   T. Thonhauser, V. R. Cooper, S. Li, A. Puzder, P. Hyldgaard, and
     *   D. C. Langreth, Phys. Rev. B 76, 125112 (2007).
     *
     *   G. Roman-Perez and J. M. Soler, Phys. Rev. Lett. 103, 096102 (2009).
     *
     *
     * If you are using vdW-DF2, please also cite:
     *
     *   K. Lee, E. D. Murray, L. Kong, B. I. Lundqvist, and
     *   D. C. Langreth, Phys. Rev. B 82, 081101(R) (2010).
     *
     *
     * If you are calculating the stress with vdW-DF, please also cite:
     *
     *   R. Sabatini, E. Kucukbenli, B. Kolb, T. Thonhauser, and
     *   S. de Gironcoli, J. Phys.: Condens. Matter 24, 424209 (2012).
     *

     Carrying out vdW-DF run using the following parameters:

     Nqs =      20    Nr_points =    1024   r_max =   100.000
     q_mesh =
               0.00001000     0.04494208     0.09755937     0.15916263
               0.23128650     0.31572767     0.41458969     0.53033537
               0.66584808     0.82450364     1.01025438     1.22772762
               1.48234092     1.78043706     2.12944203     2.53805004
               3.01644009     3.57652955     4.23227104     5.00000000

     Gradients computed in reciprocal space

     Adding external electric field

     Computed dipole along edir(3) :
        Dipole                0.0000 Ry au,          0.0000 Debye
        Dipole field          0.0000 Ry au

        Potential amp.       -0.0000 Ry
        Total length         46.1168 bohr

     Starting wfc are  144 randomized atomic wfcs

     Self-consistent Calculation

     iteration #  1     ecut=    36.75 Ry     beta=0.10
     Davidson diagonalization with overlap
     ethr =  1.00E-02,  avg # of iterations =  8.0

[...]

     total energy              =   -1766.81413504 Ry
     Harris-Foulkes estimate   =   -1810.49213390 Ry
     estimated scf accuracy    <     246.38246541 Ry

[...]

     End of self-consistent calculation

          k = 0.0000 0.0000 0.0000 ( 20863 PWs)   bands (ev):

   -61.0989 -61.0981 -61.0570 -61.0570 -61.0568 -61.0568 -60.6313 -60.5895
   -60.5895 -29.8914 -29.8778 -29.8447 -29.7761 -29.7761 -29.7469 -29.7404
   -29.7404 -29.7396 -29.7395 -29.6704 -29.6704 -29.5552 -29.4344 -29.4207
   -29.3189 -29.3189 -29.2061 -29.2061 -29.1912 -29.1912 -29.0904 -29.0898
   -29.0898 -28.9899 -28.8240 -28.8240  -5.7703  -4.4604  -3.8882  -3.7423
    -3.7423  -3.6854  -3.6854  -3.3973  -3.3973  -3.3121  -3.3121  -3.3014
    -3.0469  -2.8494  -2.8494  -2.7689  -2.7689  -2.6076  -1.8771  -1.5365
    -0.9142   0.2212   0.2212   0.2869   0.5931   0.6161   0.6161   1.1321
     1.1321   1.2110   1.2110   1.5030   1.5314   1.5573   1.5573   1.8197
     2.2757   2.2865   2.2865   2.4615   2.4615   2.7836   2.7836   2.8427
     2.8427   3.0343   3.1674   3.1812   4.5763   4.6754   4.7434   4.7434
     4.9566   5.2077   5.3030   5.3031   5.3162   5.3162   5.4245   5.4245
     5.5910   5.5912   5.6503   5.6885

[...]

          k =-0.0812-0.0469 0.0000 ( 20816 PWs)   bands (ev):

[...]

     the Fermi energy is     1.5901 ev

!    total energy              =   -1795.16410511 Ry
     Harris-Foulkes estimate   =   -1795.16410435 Ry
     estimated scf accuracy    <       0.00000017 Ry

     The total energy is the sum of the following terms:

     one-electron contribution =   -8577.81968328 Ry
     hartree contribution      =    4301.32892939 Ry
     xc contribution           =    -887.90259140 Ry
     ewald contribution        =    3369.31754027 Ry
     electric field correction =       0.00000000 Ry
     smearing contrib. (-TS)   =      -0.08830009 Ry

     convergence has been achieved in  21 iterations

 BEEF-vdW xc energy contributions
           1 :   -800.019106953649
           2 :    743.926898040377
           3 :   -644.029595218530
           4 :    520.332906172719
           5 :   -393.999987370187
           6 :    281.574678028050
           7 :   -192.136291127426
           8 :    127.626726314701
           9 :   -85.2080649588711
          10 :    59.9371695051395
[...]
     Using radial grid of  921 points,  8 beta functions with:
                l(1) =   0
                l(2) =   0
                l(3) =   0
                l(4) =   1
                l(5) =   1
                l(6) =   2
                l(7) =   2
                l(8) =   3
     Q(r) pseudized with  6 coefficients,  rinner =    1.200   1.200   1.200
                                                       1.200   1.200   1.200
                                                       1.200

     PseudoPot. # 2 for Au read from file:
     /afs/slac.stanford.edu/u/if/mamunm/psp/gbrv1.5pbe/Au.UPF
     MD5 check sum: 9d7f43293ad2c663164586bc4b293ffc
     Pseudo is Ultrasoft + core correction, Zval = 11.0
     Generated by new atomic code, or converted to UPF format
     Using radial grid of  985 points,  7 beta functions with:
                l(1) =   0
                l(2) =   0
                l(3) =   1
                l(4) =   1
                l(5) =   2
                l(6) =   2
                l(7) =   3
     Q(r) pseudized with  6 coefficients,  rinner =    1.900   1.900   1.900
                                                       1.900   1.900   1.900
                                                       1.900

     vdW kernel table read from file vdW_kernel_table
     MD5 check sum: 095c7af220d748ca6e76c0b4c6cfb241

     atomic species   valence    mass     pseudopotential
        Hf1           12.00   178.49000     Hf( 1.00)
        Au1           11.00   196.96657     Au( 1.00)

     No symmetry found

   Cartesian axes

     site n.     atom                  positions (alat units)
         1           Hf1 tau(   1) = (   0.0000000   0.0000000  10.0000000  )
         2           Hf1 tau(   2) = (  -1.5400296   2.6674096  10.0000000  )
         3           Hf1 tau(   3) = (   1.5400296   2.6674096  10.0000000  )
         4           Au1 tau(   4) = (   3.0800593   0.0000000  10.0000000  )
         5           Hf1 tau(   5) = (   3.0800593   1.7782731  12.5148579  )
         6           Hf1 tau(   6) = (   1.5400296   4.4456826  12.5148579  )
         7           Hf1 tau(   7) = (  -1.5400296   4.4456826  12.5148579  )
         8           Au1 tau(   8) = (   0.0000000   1.7782731  12.5148579  )
         9           Hf1 tau(   9) = (   0.0000018   3.5397146  15.0314891  )
        10           Hf1 tau(  10) = (   1.5254556   0.8975494  15.0314869  )
        11           Hf1 tau(  11) = (   4.6346657   0.8975504  15.0314886  )
        12           Au1 tau(  12) = (   3.0800615   3.5565460  14.9221612  )

     number of k points=    20  Fermi-Dirac smearing, width (Ry)=  0.0110
                       cart. coord. in units 2pi/alat
        k(    1) = (   0.0000000   0.0000000   0.0000000), wk =   0.0555556
        k(    2) = (   0.0000000   0.0312413   0.0000000), wk =   0.1111111
        k(    3) = (   0.0000000   0.0624826   0.0000000), wk =   0.1111111
        k(    4) = (   0.0000000  -0.0937239   0.0000000), wk =   0.0555556
        k(    5) = (   0.0270558   0.0156206   0.0000000), wk =   0.1111111
        k(    6) = (   0.0270558   0.0468619   0.0000000), wk =   0.1111111
        k(    7) = (   0.0270558   0.0781032   0.0000000), wk =   0.1111111
        k(    8) = (   0.0270558  -0.0781032   0.0000000), wk =   0.1111111
        k(    9) = (   0.0270558  -0.0468619   0.0000000), wk =   0.1111111
        k(   10) = (   0.0270558  -0.0156206   0.0000000), wk =   0.1111111
        k(   11) = (   0.0541115   0.0312413   0.0000000), wk =   0.1111111
        k(   12) = (   0.0541115   0.0624826   0.0000000), wk =   0.1111111
        k(   13) = (   0.0541115   0.0937239   0.0000000), wk =   0.1111111
        k(   14) = (   0.0541115  -0.0624826   0.0000000), wk =   0.1111111
        k(   15) = (   0.0541115  -0.0312413   0.0000000), wk =   0.1111111
        k(   16) = (   0.0541115   0.0000000   0.0000000), wk =   0.1111111
        k(   17) = (  -0.0811673  -0.0468619   0.0000000), wk =   0.0555556
        k(   18) = (  -0.0811673  -0.0156206   0.0000000), wk =   0.1111111
        k(   19) = (  -0.0811673   0.0156206   0.0000000), wk =   0.1111111
        k(   20) = (  -0.0811673  -0.1405858   0.0000000), wk =   0.0555556

     Largest allocated arrays     est. size (Mb)     dimensions
     Largest temporary arrays     est. size (Mb)     dimensions

     Check: negative/imaginary core charge=   -0.000003    0.000000

     Initial potential from superposition of free atoms
     Check: negative starting charge=   -0.961982

     starting charge  122.99961, renormalised to  141.00000

[...]

     *
     * You are using vdW-DF for exchange-correlation in this calculation.
     * Please cite the following three references that made this development
     * possible:
     *
     *   M. Dion, H. Rydberg, E. Schroder, D. C. Langreth, and
     *   B. I. Lundqvist, Phys. Rev. Lett. 92, 246401 (2004).
     *
     *   T. Thonhauser, V. R. Cooper, S. Li, A. Puzder, P. Hyldgaard, and
     *   D. C. Langreth, Phys. Rev. B 76, 125112 (2007).
     *
     *   G. Roman-Perez and J. M. Soler, Phys. Rev. Lett. 103, 096102 (2009).
     *
     *
     * If you are using vdW-DF2, please also cite:
     *
     *   K. Lee, E. D. Murray, L. Kong, B. I. Lundqvist, and
     *   D. C. Langreth, Phys. Rev. B 82, 081101(R) (2010).
     *
     *
     * If you are calculating the stress with vdW-DF, please also cite:
     *
     *   R. Sabatini, E. Kucukbenli, B. Kolb, T. Thonhauser, and
     *   S. de Gironcoli, J. Phys.: Condens. Matter 24, 424209 (2012).
     *

     Carrying out vdW-DF run using the following parameters:

     Nqs =      20    Nr_points =    1024   r_max =   100.000
     q_mesh =
               0.00001000     0.04494208     0.09755937     0.15916263
               0.23128650     0.31572767     0.41458969     0.53033537
               0.66584808     0.82450364     1.01025438     1.22772762
               1.48234092     1.78043706     2.12944203     2.53805004
               3.01644009     3.57652955     4.23227104     5.00000000

     Gradients computed in reciprocal space

[...]

     Starting wfc are  144 randomized atomic wfcs

     Self-consistent Calculation

[...]

     total energy              =   -1795.20624145 Ry
     Harris-Foulkes estimate   =   -1795.20624153 Ry
     estimated scf accuracy    <       0.00000219 Ry

     iteration # 21     ecut=    36.75 Ry     beta=0.10
     Davidson diagonalization with overlap
     ethr =  1.55E-09,  avg # of iterations =  2.3

[...]

     negative rho (up, down):  1.017E+00 0.000E+00

     Adding external electric field

     Computed dipole along edir(3) :
        Dipole                0.0224 Ry au,          0.0569 Debye
        Dipole field          0.0001 Ry au

        Potential amp.       -0.0047 Ry
        Total length         46.1168 bohr

     End of self-consistent calculation

[...]

          k = 0.0541 0.0000 0.0000 ( 20881 PWs)   bands (ev):

[...]

          k =-0.0812-0.1406 0.0000 ( 20816 PWs)   bands (ev):

   -61.0688 -61.0633 -61.0542 -61.0495 -61.0405 -61.0356 -60.6020 -60.5881
   -60.5741 -29.7882 -29.7834 -29.7626 -29.7493 -29.7209 -29.6918 -29.6833
   -29.6800 -29.6072 -29.5868 -29.5787 -29.5643 -29.5451 -29.5282 -29.4777
   -29.4511 -29.3960 -29.2315 -29.2166 -29.2075 -29.1715 -29.1463 -29.1161
   -29.0450 -29.0285 -28.9969 -28.8323  -4.3699  -4.1520  -3.5827  -3.4777
    -3.4392  -3.3424  -3.2224  -3.1993  -3.1933  -3.1079  -3.0023  -2.9626
    -2.9289  -2.8559  -2.8127  -2.7180  -2.6851  -2.4597  -2.3664  -1.5907
    -1.2519  -0.8959  -0.2248   0.1449   0.3096   0.4718   0.6749   0.7877
     0.9310   0.9465   1.0210   1.1146   1.3252   1.3615   1.4308   1.7169
     1.7417   1.9126   1.9771   2.1077   2.2541   2.6240   2.6592   2.8169
     2.9420   3.0693   3.0983   3.1892   3.3694   4.2048   4.3036   4.4179
     4.4922   4.5155   4.5663   4.8309   4.8907   4.9046   5.0811   5.1476
     5.2319   5.4946   5.5433   5.7209

     the Fermi energy is     1.6100 ev

!    total energy              =   -1795.20624209 Ry
     Harris-Foulkes estimate   =   -1795.20624137 Ry
     estimated scf accuracy    <       0.00000064 Ry

     The total energy is the sum of the following terms:

     one-electron contribution =   -8607.23681670 Ry
     hartree contribution      =    4316.09099355 Ry
     xc contribution           =    -887.96505245 Ry
     ewald contribution        =    3383.99236673 Ry
     electric field correction =       0.00000113 Ry
     smearing contrib. (-TS)   =      -0.08773435 Ry

     convergence has been achieved in  21 iterations

 BEEF-vdW xc energy contributions
           1 :   -801.233603048918
           2 :    745.158412381454
           3 :   -645.281679294872
           4 :    521.591322325871
           5 :   -395.240747708799
           6 :    282.777540659861
           7 :   -193.296243886165
           8 :    128.757185415747
           9 :   -86.3349466320108
          10 :    61.0870613244260
          11 :   -47.8036505799867
          12 :    41.7567815611255
          13 :   -38.8124010895174
          14 :    35.4904295957265
          15 :   -29.3078937821579
          16 :    19.2712154550607
          17 :   -6.14964743022097
          18 :   -7.81453888367923
          19 :    19.7636583777598
          20 :   -27.3192841552509
          21 :    29.4104597070275
          22 :   -26.5018543349177
          23 :    20.2146525256613
          24 :   -12.6450093938911
          25 :    5.74131856129668
          26 :  -0.954294120421309
          27 :  -0.867491401231973
          28 :  -0.516367891933669
          29 :    4.71121521577470
          30 :   -10.6650069255807
          31 :   -58.6876010110752
          32 :   -42.3890426229809

     Forces acting on atoms (Ry/au):

     negative rho (up, down):  1.017E+00 0.000E+00
     atom    1 type  1   force =     0.00000029    0.00850665   -0.00199001
     atom    2 type  1   force =     0.00736711   -0.00425292   -0.00198900
     atom    3 type  1   force =    -0.00736666   -0.00425313   -0.00198986
     atom    4 type  2   force =    -0.00000024    0.00000060    0.01901327
     atom    5 type  1   force =     0.00000144   -0.00316255   -0.00297393
     atom    6 type  1   force =    -0.00274110    0.00158136   -0.00297133
     atom    7 type  1   force =     0.00274086    0.00157965   -0.00297388
     atom    8 type  2   force =     0.00000014   -0.00000112   -0.00154699
     atom    9 type  1   force =     0.00000018    0.00012056   -0.00084400
     atom   10 type  1   force =     0.00010390   -0.00005988   -0.00084302
     atom   11 type  1   force =    -0.00010388   -0.00006010   -0.00084410
     atom   12 type  2   force =    -0.00000204    0.00000087   -0.00004717

     Total force =     0.025526     Total SCF correction =     0.003555
     SCF correction compared to forces is large: reduce conv_thr to get better values

     entering subroutine stress ...

     negative rho (up, down):  1.017E+00 0.000E+00
          total   stress  (Ry/bohr**3)                   (kbar)     P=  -14.17
  -0.00012801  -0.00000000  -0.00000000        -18.83     -0.00     -0.00
  -0.00000000  -0.00012801  -0.00000000         -0.00    -18.83     -0.00
  -0.00000000  -0.00000000  -0.00003303         -0.00     -0.00     -4.86

 !ASE

     Writing output data file calc.save

     General routines

     Parallel routines

   This run was terminated on:   8:18:16  30Dec2018

   JOB DONE.
Job  /afs/slac/g/suncat/bin/suncat-tsmpirun -x LD_LIBRARY_PATH -wdir /scratch/qe648457_YJVIf pw.x -in pw.inp

TID   HOST_NAME   COMMAND_LINE            STATUS            TERMINATION_TIME
00000 suncat0164 pw.x -in pw.inp   Done                     12/30/2018 08:18:16
00001 suncat0164 pw.x -in pw.inp   Done                     12/30/2018 08:18:16
00002 suncat0164 pw.x -in pw.inp   Done                     12/30/2018 08:18:16
00003 suncat0164 pw.x -in pw.inp   Done                     12/30/2018 08:18:16
00004 suncat0164 pw.x -in pw.inp   Done                     12/30/2018 08:18:16
00005 suncat0164 pw.x -in pw.inp   Done                     12/30/2018 08:18:16
00006 suncat0164 pw.x -in pw.inp   Done                     12/30/2018 08:18:16
00007 suncat0164 pw.x -in pw.inp   Done                     12/30/2018 08:18:16
00008 suncat0154 pw.x -in pw.inp   Done                     12/30/2018 08:18:16
00009 suncat0154 pw.x -in pw.inp   Done                     12/30/2018 08:18:16
00010 suncat0154 pw.x -in pw.inp   Done                     12/30/2018 08:18:16
00011 suncat0154 pw.x -in pw.inp   Done                     12/30/2018 08:18:16
00012 suncat0154 pw.x -in pw.inp   Done                     12/30/2018 08:18:16
00013 suncat0154 pw.x -in pw.inp   Done                     12/30/2018 08:18:16
00014 suncat0154 pw.x -in pw.inp   Done                     12/30/2018 08:18:16
00015 suncat0154 pw.x -in pw.inp   Done                     12/30/2018 08:18:16
00016 suncat0108 pw.x -in pw.inp   Done                     12/30/2018 08:18:16
00017 suncat0108 pw.x -in pw.inp   Done                     12/30/2018 08:18:16
00018 suncat0108 pw.x -in pw.inp   Done                     12/30/2018 08:18:16
00019 suncat0108 pw.x -in pw.inp   Done                     12/30/2018 08:18:16
00020 suncat0108 pw.x -in pw.inp   Done                     12/30/2018 08:18:16
00021 suncat0108 pw.x -in pw.inp   Done                     12/30/2018 08:18:16
00022 suncat0108 pw.x -in pw.inp   Done                     12/30/2018 08:18:16
00023 suncat0108 pw.x -in pw.inp   Done                     12/30/2018 08:18:16
00024 suncat0252 pw.x -in pw.inp   Done                     12/30/2018 08:18:16
00025 suncat0252 pw.x -in pw.inp   Done                     12/30/2018 08:18:16
00026 suncat0252 pw.x -in pw.inp   Done                     12/30/2018 08:18:16
00027 suncat0252 pw.x -in pw.inp   Done                     12/30/2018 08:18:16
00028 suncat0252 pw.x -in pw.inp   Done                     12/30/2018 08:18:16
00029 suncat0252 pw.x -in pw.inp   Done                     12/30/2018 08:18:16
00030 suncat0252 pw.x -in pw.inp   Done                     12/30/2018 08:18:16
00031 suncat0252 pw.x -in pw.inp   Done                     12/30/2018 08:18:16
00032 suncat0226 pw.x -in pw.inp   Done                     12/30/2018 08:18:16
00033 suncat0226 pw.x -in pw.inp   Done                     12/30/2018 08:18:16
00034 suncat0226 pw.x -in pw.inp   Done                     12/30/2018 08:18:16
00035 suncat0226 pw.x -in pw.inp   Done                     12/30/2018 08:18:16
00036 suncat0226 pw.x -in pw.inp   Done                     12/30/2018 08:18:16
00037 suncat0226 pw.x -in pw.inp   Done                     12/30/2018 08:18:16
00038 suncat0226 pw.x -in pw.inp   Done                     12/30/2018 08:18:16
00039 suncat0226 pw.x -in pw.inp   Done                     12/30/2018 08:18:16
00040 suncat0225 pw.x -in pw.inp   Done                     12/30/2018 08:18:16
00041 suncat0225 pw.x -in pw.inp   Done                     12/30/2018 08:18:16
00042 suncat0225 pw.x -in pw.inp   Done                     12/30/2018 08:18:16
00043 suncat0225 pw.x -in pw.inp   Done                     12/30/2018 08:18:16
00044 suncat0225 pw.x -in pw.inp   Done                     12/30/2018 08:18:16
00045 suncat0225 pw.x -in pw.inp   Done                     12/30/2018 08:18:16
00046 suncat0225 pw.x -in pw.inp   Done                     12/30/2018 08:18:16
00047 suncat0225 pw.x -in pw.inp   Done                     12/30/2018 08:18:16
00048 suncat0224 pw.x -in pw.inp   Done                     12/30/2018 08:18:16
00049 suncat0224 pw.x -in pw.inp   Done                     12/30/2018 08:18:16
00050 suncat0224 pw.x -in pw.inp   Done                     12/30/2018 08:18:16
00051 suncat0224 pw.x -in pw.inp   Done                     12/30/2018 08:18:16
00052 suncat0224 pw.x -in pw.inp   Done                     12/30/2018 08:18:16
00053 suncat0224 pw.x -in pw.inp   Done                     12/30/2018 08:18:16
00054 suncat0224 pw.x -in pw.inp   Done                     12/30/2018 08:18:16
00055 suncat0224 pw.x -in pw.inp   Done                     12/30/2018 08:18:16
00056 suncat0223 pw.x -in pw.inp   Done                     12/30/2018 08:18:16
00057 suncat0223 pw.x -in pw.inp   Done                     12/30/2018 08:18:16
00058 suncat0223 pw.x -in pw.inp   Done                     12/30/2018 08:18:16
00059 suncat0223 pw.x -in pw.inp   Done                     12/30/2018 08:18:16
00060 suncat0223 pw.x -in pw.inp   Done                     12/30/2018 08:18:16
00061 suncat0223 pw.x -in pw.inp   Done                     12/30/2018 08:18:16
00062 suncat0223 pw.x -in pw.inp   Done                     12/30/2018 08:18:16
00063 suncat0223 pw.x -in pw.inp   Done                     12/30/2018 08:18:16