     Program PWSCF v.5.1rc2 (svn rev. 11289) starts on 30Dec2018 at 11:40:18

     Current dimensions of program PWSCF are:
     Max number of different atomic species (ntypx) = 10
     Max number of k-points (npk) =  40000
     Max angular momentum in pseudopotentials (lmaxx) =  3
     Presently stress not available with electric field

     IMPORTANT: XC functional enforced from input :
     Exchange-correlation      = BEEF-VDW ( 1  4 27 13 2)
     Any further DFT definition will be discarded
     Please, verify this is what you really want

     Subspace diagonalization in iterative solution of the eigenvalue problem:
     a serial algorithm will be used

     bravais-lattice index     =            0
     lattice parameter (alat)  =       1.8897  a.u.
     unit-cell volume          =    7571.7308 (a.u.)^3
     number of atoms/cell      =           12
     number of atomic types    =            2
     number of electrons       =       108.00
     number of Kohn-Sham states=           84
     kinetic-energy cutoff     =      36.7493  Ry
     charge density cutoff     =     367.4932  Ry
     convergence threshold     =      1.0E-06
     mixing beta               =       0.1000
     number of iterations used =           10  plain     mixing
     Exchange-correlation      = BEEF-VDW ( 1  4 27 13 2)
     nstep                     =           50

     celldm(1)=   1.889726  celldm(2)=   0.000000  celldm(3)=   0.000000
     celldm(4)=   0.000000  celldm(5)=   0.000000  celldm(6)=   0.000000

     crystal axes: (cart. coord. in units of alat)
               a(1) = (   7.088104   0.000000   0.000000 )
               a(2) = (  -3.544052   6.138478   0.000000 )
               a(3) = (   0.000000   0.000000  25.787413 )

     reciprocal axes: (cart. coord. in units 2 pi/alat)
               b(1) = (  0.141081  0.081453  0.000000 )
               b(2) = (  0.000000  0.162907  0.000000 )
               b(3) = (  0.000000  0.000000  0.038779 )

     PseudoPot. # 1 for La read from file:
     /afs/slac.stanford.edu/u/if/mamunm/psp/gbrv1.5pbe/La.UPF
     MD5 check sum: 5937b0c7494ba0601a847275249473aa
     Pseudo is Ultrasoft + core correction, Zval = 11.0
     Generated by new atomic code, or converted to UPF format
     Using radial grid of  995 points,  8 beta functions with:
                l(1) =   0
                l(2) =   0
                l(3) =   1
                l(4) =   1
                l(5) =   2
                l(6) =   2
                l(7) =   3
                l(8) =   3
     Q(r) pseudized with  8 coefficients,  rinner =    1.700   1.700   1.700
                                                       1.700   1.700   1.700
                                                       1.700

     PseudoPot. # 2 for Al read from file:
     /afs/slac.stanford.edu/u/if/mamunm/psp/gbrv1.5pbe/Al.UPF
     MD5 check sum: 0a6289f5291fc8f409219462bc851e1f
     Pseudo is Ultrasoft + core correction, Zval =  3.0
     Generated by new atomic code, or converted to UPF format
     Using radial grid of  893 points,  3 beta functions with:
                l(1) =   0
                l(2) =   1
                l(3) =   2
     Q(r) pseudized with  8 coefficients,  rinner =    0.900   0.900   0.900
                                                       0.900   0.900

     vdW kernel table read from file vdW_kernel_table
     MD5 check sum: 095c7af220d748ca6e76c0b4c6cfb241

     atomic species   valence    mass     pseudopotential
        La1           11.00   138.90547     La( 1.00)
        Al1            3.00    26.98154     Al( 1.00)

     No symmetry found

   Cartesian axes

     site n.     atom                  positions (alat units)
         1           La1 tau(   1) = (   0.0000000   0.0000000  10.0000000  )
         2           La1 tau(   2) = (  -1.7720260   3.0692391  10.0000000  )
         3           La1 tau(   3) = (   1.7720260   3.0692391  10.0000000  )
         4           Al1 tau(   4) = (   3.5440520   0.0000000  10.0000000  )
         5           La1 tau(   5) = (   3.5440520   2.0461594  12.8937063  )
         6           La1 tau(   6) = (   1.7720260   5.1153984  12.8937063  )
         7           La1 tau(   7) = (  -1.7720260   5.1153984  12.8937063  )
         8           Al1 tau(   8) = (   0.0000000   2.0461594  12.8937063  )
         9           La1 tau(   9) = (  -0.0000000   4.0923188  15.7874127  )
        10           La1 tau(  10) = (   1.7720260   1.0230797  15.7874127  )
        11           La1 tau(  11) = (   5.3160780   1.0230797  15.7874127  )
        12           Al1 tau(  12) = (   3.5440520   4.0923188  15.7874127  )

     number of k points=    20  Fermi-Dirac smearing, width (Ry)=  0.0110
                       cart. coord. in units 2pi/alat
        k(    1) = (   0.0000000   0.0000000   0.0000000), wk =   0.0555556
        k(    2) = (   0.0000000   0.0271511   0.0000000), wk =   0.1111111
        k(    3) = (   0.0000000   0.0543023   0.0000000), wk =   0.1111111
        k(    4) = (   0.0000000  -0.0814534   0.0000000), wk =   0.0555556
        k(    5) = (   0.0235136   0.0135756   0.0000000), wk =   0.1111111
        k(    6) = (   0.0235136   0.0407267   0.0000000), wk =   0.1111111
        k(    7) = (   0.0235136   0.0678778   0.0000000), wk =   0.1111111
        k(    8) = (   0.0235136  -0.0678778   0.0000000), wk =   0.1111111
        k(    9) = (   0.0235136  -0.0407267   0.0000000), wk =   0.1111111
        k(   10) = (   0.0235136  -0.0135756   0.0000000), wk =   0.1111111
        k(   11) = (   0.0470272   0.0271511   0.0000000), wk =   0.1111111
        k(   12) = (   0.0470272   0.0543023   0.0000000), wk =   0.1111111
        k(   13) = (   0.0470272   0.0814534   0.0000000), wk =   0.1111111
        k(   14) = (   0.0470272  -0.0543023   0.0000000), wk =   0.1111111
        k(   15) = (   0.0470272  -0.0271511   0.0000000), wk =   0.1111111
        k(   16) = (   0.0470272   0.0000000   0.0000000), wk =   0.1111111
        k(   17) = (  -0.0705407  -0.0407267   0.0000000), wk =   0.0555556
        k(   18) = (  -0.0705407  -0.0135756   0.0000000), wk =   0.1111111
        k(   19) = (  -0.0705407   0.0135756   0.0000000), wk =   0.1111111
        k(   20) = (  -0.0705407  -0.1221801   0.0000000), wk =   0.0555556

     Largest allocated arrays     est. size (Mb)     dimensions
     Largest temporary arrays     est. size (Mb)     dimensions

     Initial potential from superposition of free atoms
     Check: negative starting charge=   -0.624827

     starting charge  107.70399, renormalised to  108.00000

     negative rho (up, down):  6.265E-01 0.000E+00

     *
     * You are using vdW-DF for exchange-correlation in this calculation.
     * Please cite the following three references that made this development
     * possible:
     *
     *   M. Dion, H. Rydberg, E. Schroder, D. C. Langreth, and
     *   B. I. Lundqvist, Phys. Rev. Lett. 92, 246401 (2004).
     *
     *   T. Thonhauser, V. R. Cooper, S. Li, A. Puzder, P. Hyldgaard, and
     *   D. C. Langreth, Phys. Rev. B 76, 125112 (2007).
     *
     *   G. Roman-Perez and J. M. Soler, Phys. Rev. Lett. 103, 096102 (2009).
     *
     *
     * If you are using vdW-DF2, please also cite:
     *
     *   K. Lee, E. D. Murray, L. Kong, B. I. Lundqvist, and
     *   D. C. Langreth, Phys. Rev. B 82, 081101(R) (2010).
     *
     *
     * If you are calculating the stress with vdW-DF, please also cite:
     *
     *   R. Sabatini, E. Kucukbenli, B. Kolb, T. Thonhauser, and
     *   S. de Gironcoli, J. Phys.: Condens. Matter 24, 424209 (2012).
     *

     Carrying out vdW-DF run using the following parameters:

     Nqs =      20    Nr_points =    1024   r_max =   100.000
     q_mesh =
               0.00001000     0.04494208     0.09755937     0.15916263
               0.23128650     0.31572767     0.41458969     0.53033537
               0.66584808     0.82450364     1.01025438     1.22772762
               1.48234092     1.78043706     2.12944203     2.53805004
               3.01644009     3.57652955     4.23227104     5.00000000

     Gradients computed in reciprocal space

     Adding external electric field

     Computed dipole along edir(3) :
        Dipole                0.0000 Ry au,          0.0000 Debye
        Dipole field          0.0000 Ry au

        Potential amp.       -0.0000 Ry
        Total length         47.5129 bohr

     Starting wfc are  192 randomized atomic wfcs

     Self-consistent Calculation

     iteration #  1     ecut=    36.75 Ry     beta=0.10
     Davidson diagonalization with overlap
     ethr =  1.00E-02,  avg # of iterations =  2.0

[...]

     total energy              =    -956.28662051 Ry
     Harris-Foulkes estimate   =    -957.57113548 Ry
     estimated scf accuracy    <       7.16401674 Ry

[...]

     iteration # 10     ecut=    36.75 Ry     beta=0.10
     Davidson diagonalization with overlap
     c_bands:  1 eigenvalues not converged
     c_bands:  1 eigenvalues not converged
     c_bands:  1 eigenvalues not converged
     c_bands:  1 eigenvalues not converged
     c_bands:  1 eigenvalues not converged
     c_bands:  1 eigenvalues not converged
     c_bands:  1 eigenvalues not converged
     ethr =  3.25E-06,  avg # of iterations = 14.8

[...]

     End of self-consistent calculation

          k = 0.0000 0.0000 0.0000 ( 28385 PWs)   bands (ev):

   -31.8733 -31.8594 -31.6907 -31.6906 -31.6875 -31.6874 -31.4131 -31.2491
   -31.2483 -16.3047 -16.1995 -15.9425 -15.8108 -15.8108 -15.6826 -15.6812
   -15.6812 -15.6687 -15.6687 -15.5595 -15.3500 -15.3500 -15.0636 -15.0636
   -14.9909 -14.9353 -14.7692 -14.7519 -14.7519 -14.7493 -14.7493 -14.6857
   -14.6857 -14.4825 -14.3643 -14.3642  -3.5951  -3.1500  -3.0598  -0.8131
    -0.4305  -0.0394   0.3584   0.3608   0.5752   0.5753   0.6904   0.6904
     0.9163   0.9164   0.9319   0.9319   1.3807   1.4497   1.4619   1.4619
     1.8929   1.8929   1.9601   1.9601   2.0754   2.1286   2.4060   2.4061
     2.4487   2.5110   2.5110   2.5698   2.6973   2.7497   2.8090   2.8246
     2.8587   2.8588   2.8976   2.9659   2.9661   3.0005   3.0008   3.0254
     3.0574   3.0577   3.1192   3.1197

[...]

          k =-0.0705-0.0407 0.0000 ( 28486 PWs)   bands (ev):

[...]

     the Fermi energy is     1.4687 ev

!    total energy              =    -956.82215407 Ry
     Harris-Foulkes estimate   =    -956.82216868 Ry
     estimated scf accuracy    <       0.00000031 Ry

     The total energy is the sum of the following terms:

     one-electron contribution =   -3549.96753495 Ry
     hartree contribution      =    1784.77661523 Ry
     xc contribution           =    -469.71458523 Ry
     ewald contribution        =    1278.18278494 Ry
     electric field correction =       0.00000002 Ry
     smearing contrib. (-TS)   =      -0.09943407 Ry

     convergence has been achieved in  20 iterations

 BEEF-vdW xc energy contributions
           1 :   -415.314540665384
           2 :    381.532343380034
           3 :   -322.041850603441
           4 :    249.836616076544
           5 :   -178.392136158782
           6 :    118.009040725508
           7 :   -74.0809127987318
           8 :    47.2145744870512
[...]

     reciprocal axes: (cart. coord. in units 2 pi/alat)
               b(1) = (  0.141081  0.081453  0.000000 )
               b(2) = (  0.000000  0.162907  0.000000 )
               b(3) = (  0.000000  0.000000  0.038779 )

     PseudoPot. # 1 for La read from file:
     /afs/slac.stanford.edu/u/if/mamunm/psp/gbrv1.5pbe/La.UPF
     MD5 check sum: 5937b0c7494ba0601a847275249473aa
     Pseudo is Ultrasoft + core correction, Zval = 11.0
     Generated by new atomic code, or converted to UPF format
     Using radial grid of  995 points,  8 beta functions with:
                l(1) =   0
                l(2) =   0
                l(3) =   1
                l(4) =   1
                l(5) =   2
                l(6) =   2
                l(7) =   3
                l(8) =   3
     Q(r) pseudized with  8 coefficients,  rinner =    1.700   1.700   1.700
                                                       1.700   1.700   1.700
                                                       1.700

     PseudoPot. # 2 for Al read from file:
     /afs/slac.stanford.edu/u/if/mamunm/psp/gbrv1.5pbe/Al.UPF
     MD5 check sum: 0a6289f5291fc8f409219462bc851e1f
     Pseudo is Ultrasoft + core correction, Zval =  3.0
     Generated by new atomic code, or converted to UPF format
     Using radial grid of  893 points,  3 beta functions with:
                l(1) =   0
                l(2) =   1
                l(3) =   2
     Q(r) pseudized with  8 coefficients,  rinner =    0.900   0.900   0.900
                                                       0.900   0.900

     vdW kernel table read from file vdW_kernel_table
     MD5 check sum: 095c7af220d748ca6e76c0b4c6cfb241

     atomic species   valence    mass     pseudopotential
        La1           11.00   138.90547     La( 1.00)
        Al1            3.00    26.98154     Al( 1.00)

     No symmetry found

   Cartesian axes

     site n.     atom                  positions (alat units)
         1           La1 tau(   1) = (   0.0000000   0.0000000  10.0000000  )
         2           La1 tau(   2) = (  -1.7720260   3.0692391  10.0000000  )
         3           La1 tau(   3) = (   1.7720260   3.0692391  10.0000000  )
         4           Al1 tau(   4) = (   3.5440520   0.0000000  10.0000000  )
         5           La1 tau(   5) = (   3.5440520   2.0461594  12.8937063  )
         6           La1 tau(   6) = (   1.7720260   5.1153984  12.8937063  )
         7           La1 tau(   7) = (  -1.7720260   5.1153984  12.8937063  )
         8           Al1 tau(   8) = (   0.0000000   2.0461594  12.8937063  )
         9           La1 tau(   9) = (   0.0000215   3.9936775  15.7899823  )
        10           La1 tau(  10) = (   1.6865068   1.0723911  15.7902538  )
        11           La1 tau(  11) = (   5.4016202   1.0723512  15.7902068  )
        12           Al1 tau(  12) = (   3.5440442   4.0922654  15.5237694  )

     number of k points=    20  Fermi-Dirac smearing, width (Ry)=  0.0110
                       cart. coord. in units 2pi/alat
        k(    1) = (   0.0000000   0.0000000   0.0000000), wk =   0.0555556
        k(    2) = (   0.0000000   0.0271511   0.0000000), wk =   0.1111111
        k(    3) = (   0.0000000   0.0543023   0.0000000), wk =   0.1111111
        k(    4) = (   0.0000000  -0.0814534   0.0000000), wk =   0.0555556
        k(    5) = (   0.0235136   0.0135756   0.0000000), wk =   0.1111111
        k(    6) = (   0.0235136   0.0407267   0.0000000), wk =   0.1111111
        k(    7) = (   0.0235136   0.0678778   0.0000000), wk =   0.1111111
        k(    8) = (   0.0235136  -0.0678778   0.0000000), wk =   0.1111111
        k(    9) = (   0.0235136  -0.0407267   0.0000000), wk =   0.1111111
        k(   10) = (   0.0235136  -0.0135756   0.0000000), wk =   0.1111111
        k(   11) = (   0.0470272   0.0271511   0.0000000), wk =   0.1111111
        k(   12) = (   0.0470272   0.0543023   0.0000000), wk =   0.1111111
        k(   13) = (   0.0470272   0.0814534   0.0000000), wk =   0.1111111
        k(   14) = (   0.0470272  -0.0543023   0.0000000), wk =   0.1111111
        k(   15) = (   0.0470272  -0.0271511   0.0000000), wk =   0.1111111
        k(   16) = (   0.0470272   0.0000000   0.0000000), wk =   0.1111111
        k(   17) = (  -0.0705407  -0.0407267   0.0000000), wk =   0.0555556
        k(   18) = (  -0.0705407  -0.0135756   0.0000000), wk =   0.1111111
        k(   19) = (  -0.0705407   0.0135756   0.0000000), wk =   0.1111111
        k(   20) = (  -0.0705407  -0.1221801   0.0000000), wk =   0.0555556

     Largest allocated arrays     est. size (Mb)     dimensions
     Largest temporary arrays     est. size (Mb)     dimensions

     Initial potential from superposition of free atoms
     Check: negative starting charge=   -0.625257

     starting charge  107.70399, renormalised to  108.00000

[...]

     *
     * You are using vdW-DF for exchange-correlation in this calculation.
     * Please cite the following three references that made this development
     * possible:
     *
     *   M. Dion, H. Rydberg, E. Schroder, D. C. Langreth, and
     *   B. I. Lundqvist, Phys. Rev. Lett. 92, 246401 (2004).
     *
     *   T. Thonhauser, V. R. Cooper, S. Li, A. Puzder, P. Hyldgaard, and
     *   D. C. Langreth, Phys. Rev. B 76, 125112 (2007).
     *
     *   G. Roman-Perez and J. M. Soler, Phys. Rev. Lett. 103, 096102 (2009).
     *
     *
     * If you are using vdW-DF2, please also cite:
     *
     *   K. Lee, E. D. Murray, L. Kong, B. I. Lundqvist, and
     *   D. C. Langreth, Phys. Rev. B 82, 081101(R) (2010).
     *
     *
     * If you are calculating the stress with vdW-DF, please also cite:
     *
     *   R. Sabatini, E. Kucukbenli, B. Kolb, T. Thonhauser, and
     *   S. de Gironcoli, J. Phys.: Condens. Matter 24, 424209 (2012).
     *

     Carrying out vdW-DF run using the following parameters:

     Nqs =      20    Nr_points =    1024   r_max =   100.000
     q_mesh =
               0.00001000     0.04494208     0.09755937     0.15916263
               0.23128650     0.31572767     0.41458969     0.53033537
               0.66584808     0.82450364     1.01025438     1.22772762
               1.48234092     1.78043706     2.12944203     2.53805004
               3.01644009     3.57652955     4.23227104     5.00000000

     Gradients computed in reciprocal space

[...]

     Starting wfc are  192 randomized atomic wfcs

     Self-consistent Calculation

[...]

     total energy              =    -956.83790114 Ry
     Harris-Foulkes estimate   =    -956.83791124 Ry
     estimated scf accuracy    <       0.00002813 Ry

     iteration # 19     ecut=    36.75 Ry     beta=0.10
     Davidson diagonalization with overlap
     ethr =  2.09E-08,  avg # of iterations =  3.0

[...]

     negative rho (up, down):  4.208E-01 0.000E+00

     Adding external electric field

     Computed dipole along edir(3) :
        Dipole                0.0431 Ry au,          0.1096 Debye
        Dipole field          0.0001 Ry au

        Potential amp.       -0.0068 Ry
        Total length         47.5129 bohr

     End of self-consistent calculation

[...]

          k = 0.0470 0.0000 0.0000 ( 28465 PWs)   bands (ev):

[...]

          k =-0.0705-0.1222 0.0000 ( 28486 PWs)   bands (ev):

   -31.8005 -31.7838 -31.7262 -31.6942 -31.6655 -31.6463 -31.3074 -31.2542
   -31.1969 -16.0015 -15.9197 -15.8003 -15.6625 -15.6173 -15.5406 -15.5307
   -15.4601 -15.4266 -15.4246 -15.3843 -15.3660 -15.3452 -15.3239 -15.2594
   -15.1864 -15.1718 -14.9603 -14.8441 -14.8352 -14.7715 -14.7531 -14.7011
   -14.6691 -14.6507 -14.6036 -14.3527  -2.8514  -2.7898  -2.5943  -0.5462
    -0.2841  -0.0782   0.3083   0.3786   0.5002   0.5537   0.7131   0.8526
     0.9314   0.9784   1.0387   1.1581   1.2664   1.6706   1.7959   1.8026
     1.8083   1.9863   1.9977   2.0288   2.1664   2.1817   2.3449   2.4640
     2.5291   2.5538   2.5775   2.6543   2.7608   2.7798   2.8145   2.8432
     2.8495   2.8997   2.9127   2.9166   2.9368   2.9569   2.9765   2.9958
     3.0357   3.0785   3.1171   3.1272

     the Fermi energy is     1.4980 ev

!    total energy              =    -956.83788462 Ry
     Harris-Foulkes estimate   =    -956.83790387 Ry
     estimated scf accuracy    <       0.00000073 Ry

     The total energy is the sum of the following terms:

     one-electron contribution =   -3560.00521812 Ry
     hartree contribution      =    1789.93473152 Ry
     xc contribution           =    -469.77296592 Ry
     ewald contribution        =    1283.10327197 Ry
     electric field correction =       0.00000309 Ry
     smearing contrib. (-TS)   =      -0.09770716 Ry

     convergence has been achieved in  19 iterations

 BEEF-vdW xc energy contributions
           1 :   -415.513714780749
           2 :    381.747793379232
           3 :   -322.277509484097
           4 :    250.081615997568
           5 :   -178.628694183698
           6 :    118.223953956745
           7 :   -74.2730153868079
           8 :    47.3933090765727
           9 :   -34.6625638105685
          10 :    31.2567476318809
          11 :   -31.9917533773761
          12 :    32.5102258561210
          13 :   -30.0171820558771
          14 :    23.5519430824370
          15 :   -13.8321048699038
          16 :    2.73537432985700
          17 :    7.43504279199919
          18 :   -14.6865467486930
          19 :    17.8708567374287
          20 :   -16.9260495118530
          21 :    12.8348762612221
          22 :   -7.33146407287813
          23 :    2.38480162163160
          24 :   0.437235218397575
          25 :  -0.502588634125175
          26 :   -1.70680270291359
          27 :    4.88539342016782
          28 :   -7.53395959512534
          29 :    8.61527484480882
          30 :   -7.92407204519895
          31 :   -35.9257651988687
          32 :   -25.8211210731452

     Forces acting on atoms (Ry/au):

     negative rho (up, down):  4.208E-01 0.000E+00
     atom    1 type  1   force =     0.00000079    0.01879377   -0.00391476
     atom    2 type  1   force =     0.01625929   -0.00939875   -0.00390751
     atom    3 type  1   force =    -0.01626288   -0.00939980   -0.00391338
     atom    4 type  2   force =    -0.00000069    0.00000501    0.01773483
     atom    5 type  1   force =     0.00000122   -0.00185674   -0.00042522
     atom    6 type  1   force =    -0.00160104    0.00092783   -0.00043703
     atom    7 type  1   force =     0.00160113    0.00092626   -0.00043770
     atom    8 type  2   force =    -0.00000039   -0.00000232    0.00013264
     atom    9 type  1   force =    -0.00000229   -0.00049636   -0.00154967
     atom   10 type  1   force =    -0.00041989    0.00024778   -0.00159806
     atom   11 type  1   force =     0.00042429    0.00025275   -0.00159567
     atom   12 type  2   force =     0.00000046    0.00000058   -0.00008847

     Total force =     0.037925     Total SCF correction =     0.002021

     entering subroutine stress ...

     negative rho (up, down):  4.208E-01 0.000E+00
          total   stress  (Ry/bohr**3)                   (kbar)     P=   -3.52
  -0.00003171   0.00000000  -0.00000000         -4.66      0.00     -0.00
   0.00000000  -0.00003168   0.00000000          0.00     -4.66      0.00
  -0.00000000   0.00000000  -0.00000831         -0.00      0.00     -1.22

 !ASE

     Writing output data file calc.save

     General routines

     Parallel routines

   This run was terminated on:  14:20:57  30Dec2018

   JOB DONE.
Job  /afs/slac/g/suncat/bin/suncat-tsmpirun -x LD_LIBRARY_PATH -wdir /scratch/qe648541_5Qcdt pw.x -in pw.inp

TID   HOST_NAME   COMMAND_LINE            STATUS            TERMINATION_TIME
00000 suncat0156 pw.x -in pw.inp   Done                     12/30/2018 14:20:57
00001 suncat0156 pw.x -in pw.inp   Done                     12/30/2018 14:20:57
00002 suncat0156 pw.x -in pw.inp   Done                     12/30/2018 14:20:57
00003 suncat0156 pw.x -in pw.inp   Done                     12/30/2018 14:20:57
00004 suncat0156 pw.x -in pw.inp   Done                     12/30/2018 14:20:57
00005 suncat0156 pw.x -in pw.inp   Done                     12/30/2018 14:20:57
00006 suncat0156 pw.x -in pw.inp   Done                     12/30/2018 14:20:57
00007 suncat0156 pw.x -in pw.inp   Done                     12/30/2018 14:20:57
00008 suncat0153 pw.x -in pw.inp   Done                     12/30/2018 14:20:57
00009 suncat0153 pw.x -in pw.inp   Done                     12/30/2018 14:20:57
00010 suncat0153 pw.x -in pw.inp   Done                     12/30/2018 14:20:57
00011 suncat0153 pw.x -in pw.inp   Done                     12/30/2018 14:20:57
00012 suncat0153 pw.x -in pw.inp   Done                     12/30/2018 14:20:57
00013 suncat0153 pw.x -in pw.inp   Done                     12/30/2018 14:20:57
00014 suncat0153 pw.x -in pw.inp   Done                     12/30/2018 14:20:57
00015 suncat0153 pw.x -in pw.inp   Done                     12/30/2018 14:20:57
00016 suncat0145 pw.x -in pw.inp   Done                     12/30/2018 14:20:57
00017 suncat0145 pw.x -in pw.inp   Done                     12/30/2018 14:20:57
00018 suncat0145 pw.x -in pw.inp   Done                     12/30/2018 14:20:57
00019 suncat0145 pw.x -in pw.inp   Done                     12/30/2018 14:20:57
00020 suncat0145 pw.x -in pw.inp   Done                     12/30/2018 14:20:57
00021 suncat0145 pw.x -in pw.inp   Done                     12/30/2018 14:20:57
00022 suncat0145 pw.x -in pw.inp   Done                     12/30/2018 14:20:57
00023 suncat0145 pw.x -in pw.inp   Done                     12/30/2018 14:20:57
00024 suncat0144 pw.x -in pw.inp   Done                     12/30/2018 14:20:57
00025 suncat0144 pw.x -in pw.inp   Done                     12/30/2018 14:20:57
00026 suncat0144 pw.x -in pw.inp   Done                     12/30/2018 14:20:57
00027 suncat0144 pw.x -in pw.inp   Done                     12/30/2018 14:20:57
00028 suncat0144 pw.x -in pw.inp   Done                     12/30/2018 14:20:57
00029 suncat0144 pw.x -in pw.inp   Done                     12/30/2018 14:20:57
00030 suncat0144 pw.x -in pw.inp   Done                     12/30/2018 14:20:57
00031 suncat0144 pw.x -in pw.inp   Done                     12/30/2018 14:20:57
00032 suncat0133 pw.x -in pw.inp   Done                     12/30/2018 14:20:57
00033 suncat0133 pw.x -in pw.inp   Done                     12/30/2018 14:20:57
00034 suncat0133 pw.x -in pw.inp   Done                     12/30/2018 14:20:57
00035 suncat0133 pw.x -in pw.inp   Done                     12/30/2018 14:20:57
00036 suncat0133 pw.x -in pw.inp   Done                     12/30/2018 14:20:57
00037 suncat0133 pw.x -in pw.inp   Done                     12/30/2018 14:20:57
00038 suncat0133 pw.x -in pw.inp   Done                     12/30/2018 14:20:57
00039 suncat0133 pw.x -in pw.inp   Done                     12/30/2018 14:20:57
00040 suncat0132 pw.x -in pw.inp   Done                     12/30/2018 14:20:57
00041 suncat0132 pw.x -in pw.inp   Done                     12/30/2018 14:20:57
00042 suncat0132 pw.x -in pw.inp   Done                     12/30/2018 14:20:57
00043 suncat0132 pw.x -in pw.inp   Done                     12/30/2018 14:20:57
00044 suncat0132 pw.x -in pw.inp   Done                     12/30/2018 14:20:57
00045 suncat0132 pw.x -in pw.inp   Done                     12/30/2018 14:20:57
00046 suncat0132 pw.x -in pw.inp   Done                     12/30/2018 14:20:57
00047 suncat0132 pw.x -in pw.inp   Done                     12/30/2018 14:20:57
00048 suncat0131 pw.x -in pw.inp   Done                     12/30/2018 14:20:57
00049 suncat0131 pw.x -in pw.inp   Done                     12/30/2018 14:20:57
00050 suncat0131 pw.x -in pw.inp   Done                     12/30/2018 14:20:57
00051 suncat0131 pw.x -in pw.inp   Done                     12/30/2018 14:20:57
00052 suncat0131 pw.x -in pw.inp   Done                     12/30/2018 14:20:57
00053 suncat0131 pw.x -in pw.inp   Done                     12/30/2018 14:20:57
00054 suncat0131 pw.x -in pw.inp   Done                     12/30/2018 14:20:57
00055 suncat0131 pw.x -in pw.inp   Done                     12/30/2018 14:20:57
00056 suncat0130 pw.x -in pw.inp   Done                     12/30/2018 14:20:57
00057 suncat0130 pw.x -in pw.inp   Done                     12/30/2018 14:20:57
00058 suncat0130 pw.x -in pw.inp   Done                     12/30/2018 14:20:57
00059 suncat0130 pw.x -in pw.inp   Done                     12/30/2018 14:20:57
00060 suncat0130 pw.x -in pw.inp   Done                     12/30/2018 14:20:57
00061 suncat0130 pw.x -in pw.inp   Done                     12/30/2018 14:20:57
00062 suncat0130 pw.x -in pw.inp   Done                     12/30/2018 14:20:57
00063 suncat0130 pw.x -in pw.inp   Done                     12/30/2018 14:20:57