     Program PWSCF v.5.1rc2 (svn rev. 11289) starts on 26Dec2018 at 12: 1:53

     Current dimensions of program PWSCF are:
     Max number of different atomic species (ntypx) = 10
     Max number of k-points (npk) =  40000
     Max angular momentum in pseudopotentials (lmaxx) =  3
     Presently stress not available with electric field

     IMPORTANT: XC functional enforced from input :
     Exchange-correlation      = BEEF-VDW ( 1  4 27 13 2)
     Any further DFT definition will be discarded
     Please, verify this is what you really want

     Subspace diagonalization in iterative solution of the eigenvalue problem:
     a serial algorithm will be used

     Generating pointlists ...
     new r_m :   0.4125 (alat units)  0.7795 (a.u.) for type    1
     new r_m :   0.4125 (alat units)  0.7795 (a.u.) for type    2

     bravais-lattice index     =            0
     lattice parameter (alat)  =       1.8897  a.u.
     unit-cell volume          =    5545.5982 (a.u.)^3
     number of atoms/cell      =           12
     number of atomic types    =            2
     number of electrons       =       162.00
     number of Kohn-Sham states=          111
     kinetic-energy cutoff     =      36.7493  Ry
     charge density cutoff     =     367.4932  Ry
     convergence threshold     =      1.0E-06
     mixing beta               =       0.1000
     number of iterations used =           10  plain     mixing
     Exchange-correlation      = BEEF-VDW ( 1  4 27 13 2)
     nstep                     =           50

     celldm(1)=   1.889726  celldm(2)=   0.000000  celldm(3)=   0.000000
     celldm(4)=   0.000000  celldm(5)=   0.000000  celldm(6)=   0.000000

     crystal axes: (cart. coord. in units of alat)
               a(1) = (   6.157458   0.000000   0.000000 )
               a(2) = (  -3.078729   5.332515   0.000000 )
               a(3) = (   0.000000   0.000000  25.027544 )

     reciprocal axes: (cart. coord. in units 2 pi/alat)
               b(1) = (  0.162405  0.093764  0.000000 )
               b(2) = (  0.000000  0.187529  0.000000 )
               b(3) = (  0.000000  0.000000  0.039956 )

     PseudoPot. # 1 for In read from file:
     /afs/slac.stanford.edu/u/if/mamunm/psp/gbrv1.5pbe/In.UPF
     MD5 check sum: 90777abd96fbb83f2e67db2a40c566b9
     Pseudo is Ultrasoft + core correction, Zval = 13.0
     Generated by new atomic code, or converted to UPF format
     Using radial grid of  889 points,  6 beta functions with:
                l(1) =   0
                l(2) =   0
                l(3) =   1
                l(4) =   1
                l(5) =   2
                l(6) =   2
     Q(r) pseudized with  6 coefficients,  rinner =    1.400   1.400   1.400
                                                       1.400   1.400

     PseudoPot. # 2 for Mn read from file:
     /afs/slac.stanford.edu/u/if/mamunm/psp/gbrv1.5pbe/Mn.UPF
     MD5 check sum: 82ef2b46521d7a7d9e736dc3972e4928
     Pseudo is Ultrasoft + core correction, Zval = 15.0
     Generated by new atomic code, or converted to UPF format
     Using radial grid of  859 points,  6 beta functions with:
                l(1) =   0
                l(2) =   0
                l(3) =   1
                l(4) =   1
                l(5) =   2
                l(6) =   2
     Q(r) pseudized with  8 coefficients,  rinner =    0.950   0.950   0.950
                                                       0.950   0.950

     vdW kernel table read from file vdW_kernel_table
     MD5 check sum: 095c7af220d748ca6e76c0b4c6cfb241

     atomic species   valence    mass     pseudopotential
        In1           13.00   114.81800     In( 1.00)
        Mn1           15.00    54.93804     Mn( 1.00)

     Starting magnetic structure
     atomic species   magnetization
        In1          0.154
        Mn1          0.133

     No symmetry found

   Cartesian axes

     site n.     atom                  positions (alat units)
         1           In1 tau(   1) = (   0.0000000   0.0000000  10.0000000  )
         2           In1 tau(   2) = (   4.6180936   2.6662576  10.0000000  )
         3           In1 tau(   3) = (   1.5393645   2.6662576  10.0000000  )
         4           Mn1 tau(   4) = (   3.0787291   0.0000000  10.0000000  )
         5           In1 tau(   5) = (   3.0787291   1.7775051  12.5137718  )
         6           In1 tau(   6) = (   1.5393645   4.4437627  12.5137718  )
         7           In1 tau(   7) = (  -1.5393645   4.4437627  12.5137718  )
         8           Mn1 tau(   8) = (   0.0000000   1.7775051  12.5137718  )
         9           In1 tau(   9) = (  -0.0000000   3.5550101  15.0275436  )
        10           In1 tau(  10) = (   1.5393645   0.8887525  15.0275436  )
        11           In1 tau(  11) = (   4.6180936   0.8887525  15.0275436  )
        12           Mn1 tau(  12) = (   3.0787291   3.5550101  15.0275436  )

     number of k points=    40  Fermi-Dirac smearing, width (Ry)=  0.0110
                       cart. coord. in units 2pi/alat
        k(    1) = (   0.0000000   0.0000000   0.0000000), wk =   0.0277778
        k(    2) = (   0.0000000   0.0312548   0.0000000), wk =   0.0555556
        k(    3) = (   0.0000000   0.0625096   0.0000000), wk =   0.0555556
        k(    4) = (   0.0000000  -0.0937644   0.0000000), wk =   0.0277778
        k(    5) = (   0.0270674   0.0156274   0.0000000), wk =   0.0555556
        k(    6) = (   0.0270674   0.0468822   0.0000000), wk =   0.0555556
        k(    7) = (   0.0270674   0.0781370   0.0000000), wk =   0.0555556
        k(    8) = (   0.0270674  -0.0781370   0.0000000), wk =   0.0555556
        k(    9) = (   0.0270674  -0.0468822   0.0000000), wk =   0.0555556
        k(   10) = (   0.0270674  -0.0156274   0.0000000), wk =   0.0555556
        k(   11) = (   0.0541349   0.0312548   0.0000000), wk =   0.0555556
        k(   12) = (   0.0541349   0.0625096   0.0000000), wk =   0.0555556
        k(   13) = (   0.0541349   0.0937644   0.0000000), wk =   0.0555556
        k(   14) = (   0.0541349  -0.0625096   0.0000000), wk =   0.0555556
        k(   15) = (   0.0541349  -0.0312548   0.0000000), wk =   0.0555556
        k(   16) = (   0.0541349   0.0000000   0.0000000), wk =   0.0555556
        k(   17) = (  -0.0812023  -0.0468822   0.0000000), wk =   0.0277778
        k(   18) = (  -0.0812023  -0.0156274   0.0000000), wk =   0.0555556
        k(   19) = (  -0.0812023   0.0156274   0.0000000), wk =   0.0555556
        k(   20) = (  -0.0812023  -0.1406466   0.0000000), wk =   0.0277778
        k(   21) = (   0.0000000   0.0000000   0.0000000), wk =   0.0277778
        k(   22) = (   0.0000000   0.0312548   0.0000000), wk =   0.0555556
        k(   23) = (   0.0000000   0.0625096   0.0000000), wk =   0.0555556
        k(   24) = (   0.0000000  -0.0937644   0.0000000), wk =   0.0277778
        k(   25) = (   0.0270674   0.0156274   0.0000000), wk =   0.0555556
        k(   26) = (   0.0270674   0.0468822   0.0000000), wk =   0.0555556
        k(   27) = (   0.0270674   0.0781370   0.0000000), wk =   0.0555556
        k(   28) = (   0.0270674  -0.0781370   0.0000000), wk =   0.0555556
        k(   29) = (   0.0270674  -0.0468822   0.0000000), wk =   0.0555556
        k(   30) = (   0.0270674  -0.0156274   0.0000000), wk =   0.0555556
        k(   31) = (   0.0541349   0.0312548   0.0000000), wk =   0.0555556
        k(   32) = (   0.0541349   0.0625096   0.0000000), wk =   0.0555556
        k(   33) = (   0.0541349   0.0937644   0.0000000), wk =   0.0555556
        k(   34) = (   0.0541349  -0.0625096   0.0000000), wk =   0.0555556
        k(   35) = (   0.0541349  -0.0312548   0.0000000), wk =   0.0555556
        k(   36) = (   0.0541349   0.0000000   0.0000000), wk =   0.0555556
        k(   37) = (  -0.0812023  -0.0468822   0.0000000), wk =   0.0277778
        k(   38) = (  -0.0812023  -0.0156274   0.0000000), wk =   0.0555556
        k(   39) = (  -0.0812023   0.0156274   0.0000000), wk =   0.0555556
        k(   40) = (  -0.0812023  -0.1406466   0.0000000), wk =   0.0277778

     Largest allocated arrays     est. size (Mb)     dimensions
     Largest temporary arrays     est. size (Mb)     dimensions

     Check: negative/imaginary core charge=   -0.000002    0.000000

     Initial potential from superposition of free atoms
     Check: negative starting charge=(component1):   -0.001108
     Check: negative starting charge=(component2):   -0.000847

     starting charge  146.99974, renormalised to  162.00000

     negative rho (up, down):  1.221E-03 9.335E-04

     *
     * You are using vdW-DF for exchange-correlation in this calculation.
     * Please cite the following three references that made this development
     * possible:
     *
     *   M. Dion, H. Rydberg, E. Schroder, D. C. Langreth, and
     *   B. I. Lundqvist, Phys. Rev. Lett. 92, 246401 (2004).
     *
     *   T. Thonhauser, V. R. Cooper, S. Li, A. Puzder, P. Hyldgaard, and
     *   D. C. Langreth, Phys. Rev. B 76, 125112 (2007).
     *
     *   G. Roman-Perez and J. M. Soler, Phys. Rev. Lett. 103, 096102 (2009).
     *
     *
     * If you are using vdW-DF2, please also cite:
     *
     *   K. Lee, E. D. Murray, L. Kong, B. I. Lundqvist, and
     *   D. C. Langreth, Phys. Rev. B 82, 081101(R) (2010).
     *
     *
     * If you are calculating the stress with vdW-DF, please also cite:
     *
     *   R. Sabatini, E. Kucukbenli, B. Kolb, T. Thonhauser, and
     *   S. de Gironcoli, J. Phys.: Condens. Matter 24, 424209 (2012).
     *

     Carrying out vdW-DF run using the following parameters:

     Nqs =      20    Nr_points =    1024   r_max =   100.000
     q_mesh =
               0.00001000     0.04494208     0.09755937     0.15916263
               0.23128650     0.31572767     0.41458969     0.53033537
               0.66584808     0.82450364     1.01025438     1.22772762
               1.48234092     1.78043706     2.12944203     2.53805004
               3.01644009     3.57652955     4.23227104     5.00000000

     Gradients computed in reciprocal space

     Adding external electric field

     Computed dipole along edir(3) :
        Dipole                0.0000 Ry au,          0.0000 Debye
        Dipole field          0.0000 Ry au

        Potential amp.       -0.0000 Ry
        Total length         46.1128 bohr

[...]

     Starting wfc are  120 randomized atomic wfcs

     Self-consistent Calculation

     iteration #  1     ecut=    36.75 Ry     beta=0.10
     Davidson diagonalization with overlap
     ethr =  1.00E-02,  avg # of iterations =  8.8

[...]

     Magnetic moment per site:
     atom:    1    charge:    3.2785    magn:    0.4687    constr:    0.0000
     atom:    2    charge:    3.2785    magn:    0.4687    constr:    0.0000
     atom:    3    charge:    3.2785    magn:    0.4687    constr:    0.0000
     atom:    4    charge:    6.3023    magn:    0.7927    constr:    0.0000
     atom:    5    charge:    3.2764    magn:    0.4685    constr:    0.0000
     atom:    6    charge:    3.2764    magn:    0.4685    constr:    0.0000
     atom:    7    charge:    3.2764    magn:    0.4685    constr:    0.0000
     atom:    8    charge:    6.2993    magn:    0.7924    constr:    0.0000
[...]
        k(    2) = (   0.0000000   0.0312548   0.0000000), wk =   0.0555556
        k(    3) = (   0.0000000   0.0625096   0.0000000), wk =   0.0555556
        k(    4) = (   0.0000000  -0.0937644   0.0000000), wk =   0.0277778
        k(    5) = (   0.0270674   0.0156274   0.0000000), wk =   0.0555556
        k(    6) = (   0.0270674   0.0468822   0.0000000), wk =   0.0555556
        k(    7) = (   0.0270674   0.0781370   0.0000000), wk =   0.0555556
        k(    8) = (   0.0270674  -0.0781370   0.0000000), wk =   0.0555556
        k(    9) = (   0.0270674  -0.0468822   0.0000000), wk =   0.0555556
        k(   10) = (   0.0270674  -0.0156274   0.0000000), wk =   0.0555556
        k(   11) = (   0.0541349   0.0312548   0.0000000), wk =   0.0555556
        k(   12) = (   0.0541349   0.0625096   0.0000000), wk =   0.0555556
        k(   13) = (   0.0541349   0.0937644   0.0000000), wk =   0.0555556
        k(   14) = (   0.0541349  -0.0625096   0.0000000), wk =   0.0555556
        k(   15) = (   0.0541349  -0.0312548   0.0000000), wk =   0.0555556
        k(   16) = (   0.0541349   0.0000000   0.0000000), wk =   0.0555556
        k(   17) = (  -0.0812023  -0.0468822   0.0000000), wk =   0.0277778
        k(   18) = (  -0.0812023  -0.0156274   0.0000000), wk =   0.0555556
        k(   19) = (  -0.0812023   0.0156274   0.0000000), wk =   0.0555556
        k(   20) = (  -0.0812023  -0.1406466   0.0000000), wk =   0.0277778
        k(   21) = (   0.0000000   0.0000000   0.0000000), wk =   0.0277778
        k(   22) = (   0.0000000   0.0312548   0.0000000), wk =   0.0555556
        k(   23) = (   0.0000000   0.0625096   0.0000000), wk =   0.0555556
        k(   24) = (   0.0000000  -0.0937644   0.0000000), wk =   0.0277778
        k(   25) = (   0.0270674   0.0156274   0.0000000), wk =   0.0555556
        k(   26) = (   0.0270674   0.0468822   0.0000000), wk =   0.0555556
        k(   27) = (   0.0270674   0.0781370   0.0000000), wk =   0.0555556
        k(   28) = (   0.0270674  -0.0781370   0.0000000), wk =   0.0555556
        k(   29) = (   0.0270674  -0.0468822   0.0000000), wk =   0.0555556
        k(   30) = (   0.0270674  -0.0156274   0.0000000), wk =   0.0555556
        k(   31) = (   0.0541349   0.0312548   0.0000000), wk =   0.0555556
        k(   32) = (   0.0541349   0.0625096   0.0000000), wk =   0.0555556
        k(   33) = (   0.0541349   0.0937644   0.0000000), wk =   0.0555556
        k(   34) = (   0.0541349  -0.0625096   0.0000000), wk =   0.0555556
        k(   35) = (   0.0541349  -0.0312548   0.0000000), wk =   0.0555556
        k(   36) = (   0.0541349   0.0000000   0.0000000), wk =   0.0555556
        k(   37) = (  -0.0812023  -0.0468822   0.0000000), wk =   0.0277778
        k(   38) = (  -0.0812023  -0.0156274   0.0000000), wk =   0.0555556
        k(   39) = (  -0.0812023   0.0156274   0.0000000), wk =   0.0555556
        k(   40) = (  -0.0812023  -0.1406466   0.0000000), wk =   0.0277778

     Largest allocated arrays     est. size (Mb)     dimensions
     Largest temporary arrays     est. size (Mb)     dimensions

     Check: negative/imaginary core charge=   -0.000002    0.000000

     Initial potential from superposition of free atoms
     Check: negative starting charge=(component1):   -0.001075
     Check: negative starting charge=(component2):   -0.000823

     starting charge  146.99974, renormalised to  162.00000

[...]

     *
     * You are using vdW-DF for exchange-correlation in this calculation.
     * Please cite the following three references that made this development
     * possible:
     *
     *   M. Dion, H. Rydberg, E. Schroder, D. C. Langreth, and
     *   B. I. Lundqvist, Phys. Rev. Lett. 92, 246401 (2004).
     *
     *   T. Thonhauser, V. R. Cooper, S. Li, A. Puzder, P. Hyldgaard, and
     *   D. C. Langreth, Phys. Rev. B 76, 125112 (2007).
     *
     *   G. Roman-Perez and J. M. Soler, Phys. Rev. Lett. 103, 096102 (2009).
     *
     *
     * If you are using vdW-DF2, please also cite:
     *
     *   K. Lee, E. D. Murray, L. Kong, B. I. Lundqvist, and
     *   D. C. Langreth, Phys. Rev. B 82, 081101(R) (2010).
     *
     *
     * If you are calculating the stress with vdW-DF, please also cite:
     *
     *   R. Sabatini, E. Kucukbenli, B. Kolb, T. Thonhauser, and
     *   S. de Gironcoli, J. Phys.: Condens. Matter 24, 424209 (2012).
     *

     Carrying out vdW-DF run using the following parameters:

     Nqs =      20    Nr_points =    1024   r_max =   100.000
     q_mesh =
               0.00001000     0.04494208     0.09755937     0.15916263
               0.23128650     0.31572767     0.41458969     0.53033537
               0.66584808     0.82450364     1.01025438     1.22772762
               1.48234092     1.78043706     2.12944203     2.53805004
               3.01644009     3.57652955     4.23227104     5.00000000

     Gradients computed in reciprocal space

[...]

     Starting wfc are  120 randomized atomic wfcs

     Self-consistent Calculation

[...]

     total energy              =   -1849.20816066 Ry
     Harris-Foulkes estimate   =   -1849.20815840 Ry
     estimated scf accuracy    <       0.00000180 Ry

[...]

     iteration # 26     ecut=    36.75 Ry     beta=0.10
     Davidson diagonalization with overlap
     ethr =  1.11E-09,  avg # of iterations =  2.0

[...]

     negative rho (up, down):  1.223E-03 1.304E-03

[...]

     Adding external electric field

     Computed dipole along edir(3) :
        Dipole                0.0406 Ry au,          0.1033 Debye
        Dipole field          0.0001 Ry au

        Potential amp.       -0.0085 Ry
        Total length         46.1128 bohr

     Magnetic moment per site:
     atom:    1    charge:    3.0748    magn:   -0.0016    constr:    0.0000
     atom:    2    charge:    3.0748    magn:   -0.0016    constr:    0.0000
     atom:    3    charge:    3.0748    magn:   -0.0016    constr:    0.0000
     atom:    4    charge:    6.0299    magn:    1.5453    constr:    0.0000
     atom:    5    charge:    3.0746    magn:   -0.0015    constr:    0.0000
     atom:    6    charge:    3.0746    magn:   -0.0015    constr:    0.0000
     atom:    7    charge:    3.0746    magn:   -0.0015    constr:    0.0000
     atom:    8    charge:    6.0234    magn:    1.5001    constr:    0.0000
     atom:    9    charge:    3.0715    magn:   -0.0018    constr:    0.0000
     atom:   10    charge:    3.0715    magn:   -0.0018    constr:    0.0000
     atom:   11    charge:    3.0715    magn:   -0.0018    constr:    0.0000
     atom:   12    charge:    6.0214    magn:    1.5246    constr:    0.0000

     End of self-consistent calculation

 ------ SPIN UP ------------

[...]

 ------ SPIN DOWN ----------

[...]

          k = 0.0541 0.0000 0.0000 ( 20865 PWs)   bands (ev):

[...]

          k =-0.0812-0.1406 0.0000 ( 20816 PWs)   bands (ev):

   -76.4042 -76.3658 -76.3340 -45.2071 -45.2003 -45.2002 -45.1944 -45.1605
   -45.1561 -45.1560 -45.1236 -45.1235 -14.3416 -14.2366 -14.2302 -14.2044
   -14.1948 -14.1663 -14.1397 -14.1072 -14.0979 -14.0970 -14.0753 -14.0665
   -14.0259 -14.0205 -14.0110 -14.0107 -13.9947 -13.9477 -13.9472 -13.9302
   -13.9230 -13.9224 -13.9125 -13.9120 -13.9031 -13.9002 -13.8830 -13.8758
   -13.8745 -13.8696 -13.8647 -13.8603 -13.8543 -13.8527 -13.8382 -13.8312
   -13.8111 -13.7967 -13.7843 -13.7672 -13.7653 -13.7312 -13.7009 -13.6322
   -13.6082  -7.4158  -6.9721  -5.7868  -5.5168  -4.4850  -4.3613  -3.8484
    -2.9487  -2.4604  -1.7815  -1.0977  -0.7510  -0.1100  -0.0563   0.3353
     0.6005   0.8116   1.0391   1.1355   1.3967   1.6319   1.8036   1.9824
     2.0075   2.0644   2.1399   2.1932   2.2070   2.4002   2.4231   2.9896
     3.0787   3.1396   3.3463   3.5104   3.6218   3.8904   3.9536   4.1712
     4.2732   4.9055   4.9614   5.1585   5.2407   5.2683   5.3337   5.7819
     5.8602   5.9688   6.1725   6.2505   6.3396   6.4776   6.6817

     the Fermi energy is     0.9741 ev

!    total energy              =   -1849.20816355 Ry
     Harris-Foulkes estimate   =   -1849.20816027 Ry
     estimated scf accuracy    <       0.00000096 Ry

     The total energy is the sum of the following terms:

     one-electron contribution =  -11509.86920210 Ry
     hartree contribution      =    5814.21921464 Ry
     xc contribution           =    -435.53700048 Ry
     ewald contribution        =    4282.01905481 Ry
     electric field correction =       0.00000374 Ry
     smearing contrib. (-TS)   =      -0.04023417 Ry

     total magnetization       =    11.33 Bohr mag/cell
     absolute magnetization    =    13.24 Bohr mag/cell

     convergence has been achieved in  26 iterations

 BEEF-vdW xc energy contributions
           1 :   -381.437388483688
           2 :    348.039552235885
           3 :   -291.917190703235
           4 :    229.083305308960
           5 :   -173.753242281094
           6 :    133.311657176123
           7 :   -107.385919495920
           8 :    90.4932314454413
           9 :   -76.1834579955514
          10 :    60.4302307722113
          11 :   -42.9226996923153
          12 :    26.1432631047791
          13 :   -13.1659486451093
          14 :    5.55160602341942
          15 :   -2.48039563917689
          16 :    1.44813552233177
          17 :   8.110749161039621E-002
          18 :   -3.21840224516859
          19 :    7.29469903052279
          20 :   -10.6904641683658
          21 :    12.1227952513569
          22 :   -11.4746552517643
          23 :    9.71005740940660
          24 :   -8.11749315301779
          25 :    7.50239142054318
          26 :   -7.84459001736559
          27 :    8.51854258926835
          28 :   -8.81335678658905
          29 :    8.37182052141225
          30 :   -7.31566343291104
          31 :   -34.4577906174108
          32 :   -24.9519169176910

     Forces acting on atoms (Ry/au):

     negative rho (up, down):  1.223E-03 1.304E-03
     atom    1 type  1   force =     0.00000010    0.01091882   -0.02960903
     atom    2 type  1   force =     0.00945576   -0.00545955   -0.02960896
     atom    3 type  1   force =    -0.00945590   -0.00545954   -0.02960897
     atom    4 type  2   force =     0.00000005    0.00000009    0.01179286
     atom    5 type  1   force =    -0.00000001   -0.01032158    0.02018201
     atom    6 type  1   force =    -0.00893919    0.00516061    0.02018189
     atom    7 type  1   force =     0.00893915    0.00516056    0.02018201
     atom    8 type  2   force =     0.00000002    0.00000033    0.01195967
     atom    9 type  1   force =    -0.00000020    0.00040164    0.00132978
     atom   10 type  1   force =     0.00034899   -0.00020063    0.00132988
     atom   11 type  1   force =    -0.00034891   -0.00020025    0.00132962
     atom   12 type  2   force =     0.00000014   -0.00000049    0.00053923

     Total force =     0.069408     Total SCF correction =     0.004253

     entering subroutine stress ...

     negative rho (up, down):  1.223E-03 1.304E-03
          total   stress  (Ry/bohr**3)                   (kbar)     P=    5.90
   0.00002750   0.00000000   0.00000000          4.05      0.00      0.00
   0.00000000   0.00002750   0.00000000          0.00      4.05      0.00
   0.00000000   0.00000000   0.00006539          0.00      0.00      9.62

 !ASE

     Writing output data file calc.save

     General routines

     Parallel routines

   This run was terminated on:  16:36:15  26Dec2018

   JOB DONE.
Job  /afs/slac/g/suncat/bin/suncat-tsmpirun -x LD_LIBRARY_PATH -wdir /scratch/qe109877_exeNw pw.x -in pw.inp

TID   HOST_NAME   COMMAND_LINE            STATUS            TERMINATION_TIME
00000 suncat0163 pw.x -in pw.inp   Done                     12/26/2018 16:36:15
00001 suncat0163 pw.x -in pw.inp   Done                     12/26/2018 16:36:15
00002 suncat0163 pw.x -in pw.inp   Done                     12/26/2018 16:36:15
00003 suncat0163 pw.x -in pw.inp   Done                     12/26/2018 16:36:15
00004 suncat0163 pw.x -in pw.inp   Done                     12/26/2018 16:36:15
00005 suncat0163 pw.x -in pw.inp   Done                     12/26/2018 16:36:15
00006 suncat0163 pw.x -in pw.inp   Done                     12/26/2018 16:36:15
00007 suncat0163 pw.x -in pw.inp   Done                     12/26/2018 16:36:15
00008 suncat0162 pw.x -in pw.inp   Done                     12/26/2018 16:36:15
00009 suncat0162 pw.x -in pw.inp   Done                     12/26/2018 16:36:15
00010 suncat0162 pw.x -in pw.inp   Done                     12/26/2018 16:36:15
00011 suncat0162 pw.x -in pw.inp   Done                     12/26/2018 16:36:15
00012 suncat0162 pw.x -in pw.inp   Done                     12/26/2018 16:36:15
00013 suncat0162 pw.x -in pw.inp   Done                     12/26/2018 16:36:15
00014 suncat0162 pw.x -in pw.inp   Done                     12/26/2018 16:36:15
00015 suncat0162 pw.x -in pw.inp   Done                     12/26/2018 16:36:15
00016 suncat0145 pw.x -in pw.inp   Done                     12/26/2018 16:36:15
00017 suncat0145 pw.x -in pw.inp   Done                     12/26/2018 16:36:15
00018 suncat0145 pw.x -in pw.inp   Done                     12/26/2018 16:36:15
00019 suncat0145 pw.x -in pw.inp   Done                     12/26/2018 16:36:15
00020 suncat0145 pw.x -in pw.inp   Done                     12/26/2018 16:36:15
00021 suncat0145 pw.x -in pw.inp   Done                     12/26/2018 16:36:15
00022 suncat0145 pw.x -in pw.inp   Done                     12/26/2018 16:36:15
00023 suncat0145 pw.x -in pw.inp   Done                     12/26/2018 16:36:15
00024 suncat0144 pw.x -in pw.inp   Done                     12/26/2018 16:36:15
00025 suncat0144 pw.x -in pw.inp   Done                     12/26/2018 16:36:15
00026 suncat0144 pw.x -in pw.inp   Done                     12/26/2018 16:36:15
00027 suncat0144 pw.x -in pw.inp   Done                     12/26/2018 16:36:15
00028 suncat0144 pw.x -in pw.inp   Done                     12/26/2018 16:36:15
00029 suncat0144 pw.x -in pw.inp   Done                     12/26/2018 16:36:15
00030 suncat0144 pw.x -in pw.inp   Done                     12/26/2018 16:36:15
00031 suncat0144 pw.x -in pw.inp   Done                     12/26/2018 16:36:15
00032 suncat0133 pw.x -in pw.inp   Done                     12/26/2018 16:36:15
00033 suncat0133 pw.x -in pw.inp   Done                     12/26/2018 16:36:15
00034 suncat0133 pw.x -in pw.inp   Done                     12/26/2018 16:36:15
00035 suncat0133 pw.x -in pw.inp   Done                     12/26/2018 16:36:15
00036 suncat0133 pw.x -in pw.inp   Done                     12/26/2018 16:36:15
00037 suncat0133 pw.x -in pw.inp   Done                     12/26/2018 16:36:15
00038 suncat0133 pw.x -in pw.inp   Done                     12/26/2018 16:36:15
00039 suncat0133 pw.x -in pw.inp   Done                     12/26/2018 16:36:15
00040 suncat0132 pw.x -in pw.inp   Done                     12/26/2018 16:36:15
00041 suncat0132 pw.x -in pw.inp   Done                     12/26/2018 16:36:15
00042 suncat0132 pw.x -in pw.inp   Done                     12/26/2018 16:36:15
00043 suncat0132 pw.x -in pw.inp   Done                     12/26/2018 16:36:15
00044 suncat0132 pw.x -in pw.inp   Done                     12/26/2018 16:36:15
00045 suncat0132 pw.x -in pw.inp   Done                     12/26/2018 16:36:15
00046 suncat0132 pw.x -in pw.inp   Done                     12/26/2018 16:36:15
00047 suncat0132 pw.x -in pw.inp   Done                     12/26/2018 16:36:15
00048 suncat0131 pw.x -in pw.inp   Done                     12/26/2018 16:36:15
00049 suncat0131 pw.x -in pw.inp   Done                     12/26/2018 16:36:15
00050 suncat0131 pw.x -in pw.inp   Done                     12/26/2018 16:36:15
00051 suncat0131 pw.x -in pw.inp   Done                     12/26/2018 16:36:15
00052 suncat0131 pw.x -in pw.inp   Done                     12/26/2018 16:36:15
00053 suncat0131 pw.x -in pw.inp   Done                     12/26/2018 16:36:15
00054 suncat0131 pw.x -in pw.inp   Done                     12/26/2018 16:36:15
00055 suncat0131 pw.x -in pw.inp   Done                     12/26/2018 16:36:15
00056 suncat0130 pw.x -in pw.inp   Done                     12/26/2018 16:36:15
00057 suncat0130 pw.x -in pw.inp   Done                     12/26/2018 16:36:15
00058 suncat0130 pw.x -in pw.inp   Done                     12/26/2018 16:36:15
00059 suncat0130 pw.x -in pw.inp   Done                     12/26/2018 16:36:15
00060 suncat0130 pw.x -in pw.inp   Done                     12/26/2018 16:36:15
00061 suncat0130 pw.x -in pw.inp   Done                     12/26/2018 16:36:15
00062 suncat0130 pw.x -in pw.inp   Done                     12/26/2018 16:36:15
00063 suncat0130 pw.x -in pw.inp   Done                     12/26/2018 16:36:15