     Program PWSCF v.5.1rc2 (svn rev. 11289) starts on 30Dec2018 at 15:21:44

     Current dimensions of program PWSCF are:
     Max number of different atomic species (ntypx) = 10
     Max number of k-points (npk) =  40000
     Max angular momentum in pseudopotentials (lmaxx) =  3
     Presently stress not available with electric field

     IMPORTANT: XC functional enforced from input :
     Exchange-correlation      = BEEF-VDW ( 1  4 27 13 2)
     Any further DFT definition will be discarded
     Please, verify this is what you really want

     Subspace diagonalization in iterative solution of the eigenvalue problem:
     a serial algorithm will be used

     Generating pointlists ...
     new r_m :   0.4125 (alat units)  0.7795 (a.u.) for type    1
     new r_m :   0.4125 (alat units)  0.7795 (a.u.) for type    2

     bravais-lattice index     =            0
     lattice parameter (alat)  =       1.8897  a.u.
     unit-cell volume          =    5264.6845 (a.u.)^3
     number of atoms/cell      =           12
     number of atomic types    =            2
     number of electrons       =       168.00
     number of Kohn-Sham states=          114
     kinetic-energy cutoff     =      36.7493  Ry
     charge density cutoff     =     367.4932  Ry
     convergence threshold     =      1.0E-06
     mixing beta               =       0.1000
     number of iterations used =           10  plain     mixing
     Exchange-correlation      = BEEF-VDW ( 1  4 27 13 2)
     nstep                     =           50

     celldm(1)=   1.889726  celldm(2)=   0.000000  celldm(3)=   0.000000
     celldm(4)=   0.000000  celldm(5)=   0.000000  celldm(6)=   0.000000

     crystal axes: (cart. coord. in units of alat)
               a(1) = (   6.013605   0.000000   0.000000 )
               a(2) = (  -3.006803   5.207935   0.000000 )
               a(3) = (   0.000000   0.000000  24.910088 )

     reciprocal axes: (cart. coord. in units 2 pi/alat)
               b(1) = (  0.166290  0.096007  0.000000 )
               b(2) = (  0.000000  0.192015  0.000000 )
               b(3) = (  0.000000  0.000000  0.040144 )

     PseudoPot. # 1 for Mn read from file:
     /afs/slac.stanford.edu/u/if/mamunm/psp/gbrv1.5pbe/Mn.UPF
     MD5 check sum: 82ef2b46521d7a7d9e736dc3972e4928
     Pseudo is Ultrasoft + core correction, Zval = 15.0
     Generated by new atomic code, or converted to UPF format
     Using radial grid of  859 points,  6 beta functions with:
                l(1) =   0
                l(2) =   0
                l(3) =   1
                l(4) =   1
                l(5) =   2
                l(6) =   2
     Q(r) pseudized with  8 coefficients,  rinner =    0.950   0.950   0.950
                                                       0.950   0.950

     PseudoPot. # 2 for La read from file:
     /afs/slac.stanford.edu/u/if/mamunm/psp/gbrv1.5pbe/La.UPF
     MD5 check sum: 5937b0c7494ba0601a847275249473aa
     Pseudo is Ultrasoft + core correction, Zval = 11.0
     Generated by new atomic code, or converted to UPF format
     Using radial grid of  995 points,  8 beta functions with:
                l(1) =   0
                l(2) =   0
                l(3) =   1
                l(4) =   1
                l(5) =   2
                l(6) =   2
                l(7) =   3
                l(8) =   3
     Q(r) pseudized with  8 coefficients,  rinner =    1.700   1.700   1.700
                                                       1.700   1.700   1.700
                                                       1.700

     vdW kernel table read from file vdW_kernel_table
     MD5 check sum: 095c7af220d748ca6e76c0b4c6cfb241

     atomic species   valence    mass     pseudopotential
        Mn1           15.00    54.93804     Mn( 1.00)
        La1           11.00   138.90547     La( 1.00)

     Starting magnetic structure
     atomic species   magnetization
        Mn1          0.133
        La1          0.182

     No symmetry found

   Cartesian axes

     site n.     atom                  positions (alat units)
         1           Mn1 tau(   1) = (   0.0000000   0.0000000  10.0000000  )
         2           Mn1 tau(   2) = (  -1.5034013   2.6039675  10.0000000  )
         3           Mn1 tau(   3) = (   1.5034013   2.6039675  10.0000000  )
         4           La1 tau(   4) = (   3.0068027   0.0000000  10.0000000  )
         5           Mn1 tau(   5) = (   3.0068027   1.7359783  12.4550441  )
         6           Mn1 tau(   6) = (   1.5034013   4.3399459  12.4550441  )
         7           Mn1 tau(   7) = (  -1.5034013   4.3399459  12.4550441  )
         8           La1 tau(   8) = (   0.0000000   1.7359783  12.4550441  )
         9           Mn1 tau(   9) = (  -0.0000000   3.4719567  14.9100882  )
        10           Mn1 tau(  10) = (   1.5034013   0.8679892  14.9100882  )
        11           Mn1 tau(  11) = (   4.5102040   0.8679892  14.9100882  )
        12           La1 tau(  12) = (   3.0068027   3.4719567  14.9100882  )

     number of k points=    40  Fermi-Dirac smearing, width (Ry)=  0.0110
                       cart. coord. in units 2pi/alat
        k(    1) = (   0.0000000   0.0000000   0.0000000), wk =   0.0277778
        k(    2) = (   0.0000000   0.0320024   0.0000000), wk =   0.0555556
        k(    3) = (   0.0000000   0.0640049   0.0000000), wk =   0.0555556
        k(    4) = (   0.0000000  -0.0960073   0.0000000), wk =   0.0277778
        k(    5) = (   0.0277149   0.0160012   0.0000000), wk =   0.0555556
        k(    6) = (   0.0277149   0.0480037   0.0000000), wk =   0.0555556
        k(    7) = (   0.0277149   0.0800061   0.0000000), wk =   0.0555556
        k(    8) = (   0.0277149  -0.0800061   0.0000000), wk =   0.0555556
        k(    9) = (   0.0277149  -0.0480037   0.0000000), wk =   0.0555556
        k(   10) = (   0.0277149  -0.0160012   0.0000000), wk =   0.0555556
        k(   11) = (   0.0554299   0.0320024   0.0000000), wk =   0.0555556
        k(   12) = (   0.0554299   0.0640049   0.0000000), wk =   0.0555556
        k(   13) = (   0.0554299   0.0960073   0.0000000), wk =   0.0555556
        k(   14) = (   0.0554299  -0.0640049   0.0000000), wk =   0.0555556
        k(   15) = (   0.0554299  -0.0320024   0.0000000), wk =   0.0555556
        k(   16) = (   0.0554299   0.0000000   0.0000000), wk =   0.0555556
        k(   17) = (  -0.0831448  -0.0480037   0.0000000), wk =   0.0277778
        k(   18) = (  -0.0831448  -0.0160012   0.0000000), wk =   0.0555556
        k(   19) = (  -0.0831448   0.0160012   0.0000000), wk =   0.0555556
        k(   20) = (  -0.0831448  -0.1440110   0.0000000), wk =   0.0277778
        k(   21) = (   0.0000000   0.0000000   0.0000000), wk =   0.0277778
        k(   22) = (   0.0000000   0.0320024   0.0000000), wk =   0.0555556
        k(   23) = (   0.0000000   0.0640049   0.0000000), wk =   0.0555556
        k(   24) = (   0.0000000  -0.0960073   0.0000000), wk =   0.0277778
        k(   25) = (   0.0277149   0.0160012   0.0000000), wk =   0.0555556
        k(   26) = (   0.0277149   0.0480037   0.0000000), wk =   0.0555556
        k(   27) = (   0.0277149   0.0800061   0.0000000), wk =   0.0555556
        k(   28) = (   0.0277149  -0.0800061   0.0000000), wk =   0.0555556
        k(   29) = (   0.0277149  -0.0480037   0.0000000), wk =   0.0555556
        k(   30) = (   0.0277149  -0.0160012   0.0000000), wk =   0.0555556
        k(   31) = (   0.0554299   0.0320024   0.0000000), wk =   0.0555556
        k(   32) = (   0.0554299   0.0640049   0.0000000), wk =   0.0555556
        k(   33) = (   0.0554299   0.0960073   0.0000000), wk =   0.0555556
        k(   34) = (   0.0554299  -0.0640049   0.0000000), wk =   0.0555556
        k(   35) = (   0.0554299  -0.0320024   0.0000000), wk =   0.0555556
        k(   36) = (   0.0554299   0.0000000   0.0000000), wk =   0.0555556
        k(   37) = (  -0.0831448  -0.0480037   0.0000000), wk =   0.0277778
        k(   38) = (  -0.0831448  -0.0160012   0.0000000), wk =   0.0555556
        k(   39) = (  -0.0831448   0.0160012   0.0000000), wk =   0.0555556
        k(   40) = (  -0.0831448  -0.1440110   0.0000000), wk =   0.0277778

     Largest allocated arrays     est. size (Mb)     dimensions
     Largest temporary arrays     est. size (Mb)     dimensions

     Check: negative/imaginary core charge=   -0.000006    0.000000

     Initial potential from superposition of free atoms
     Check: negative starting charge=(component1):   -0.125534
     Check: negative starting charge=(component2):   -0.086887

     starting charge  163.40303, renormalised to  168.00000

     negative rho (up, down):  1.291E-01 8.933E-02

     *
     * You are using vdW-DF for exchange-correlation in this calculation.
     * Please cite the following three references that made this development
     * possible:
     *
     *   M. Dion, H. Rydberg, E. Schroder, D. C. Langreth, and
     *   B. I. Lundqvist, Phys. Rev. Lett. 92, 246401 (2004).
     *
     *   T. Thonhauser, V. R. Cooper, S. Li, A. Puzder, P. Hyldgaard, and
     *   D. C. Langreth, Phys. Rev. B 76, 125112 (2007).
     *
     *   G. Roman-Perez and J. M. Soler, Phys. Rev. Lett. 103, 096102 (2009).
     *
     *
     * If you are using vdW-DF2, please also cite:
     *
     *   K. Lee, E. D. Murray, L. Kong, B. I. Lundqvist, and
     *   D. C. Langreth, Phys. Rev. B 82, 081101(R) (2010).
     *
     *
     * If you are calculating the stress with vdW-DF, please also cite:
     *
     *   R. Sabatini, E. Kucukbenli, B. Kolb, T. Thonhauser, and
     *   S. de Gironcoli, J. Phys.: Condens. Matter 24, 424209 (2012).
     *

     Carrying out vdW-DF run using the following parameters:

     Nqs =      20    Nr_points =    1024   r_max =   100.000
     q_mesh =
               0.00001000     0.04494208     0.09755937     0.15916263
               0.23128650     0.31572767     0.41458969     0.53033537
               0.66584808     0.82450364     1.01025438     1.22772762
               1.48234092     1.78043706     2.12944203     2.53805004
               3.01644009     3.57652955     4.23227104     5.00000000

     Gradients computed in reciprocal space

     Adding external electric field

     Computed dipole along edir(3) :
        Dipole                0.0000 Ry au,          0.0000 Debye
        Dipole field          0.0000 Ry au

        Potential amp.       -0.0000 Ry
        Total length         45.8964 bohr

[...]

     Starting wfc are  177 randomized atomic wfcs

     Self-consistent Calculation

     iteration #  1     ecut=    36.75 Ry     beta=0.10
     Davidson diagonalization with overlap
     ethr =  1.00E-02,  avg # of iterations =  2.0

[...]

     Magnetic moment per site:
     atom:    1    charge:    6.0238    magn:    0.7961    constr:    0.0000
     atom:    2    charge:    6.0238    magn:    0.7961    constr:    0.0000
     atom:    3    charge:    6.0238    magn:    0.7961    constr:    0.0000
     atom:    4    charge:    0.1735    magn:    0.0413    constr:    0.0000
     atom:    5    charge:    6.0630    magn:    0.7932    constr:    0.0000
     atom:    6    charge:    6.0630    magn:    0.7932    constr:    0.0000
[...]
        k(    5) = (   0.0277149   0.0160012   0.0000000), wk =   0.0555556
        k(    6) = (   0.0277149   0.0480037   0.0000000), wk =   0.0555556
        k(    7) = (   0.0277149   0.0800061   0.0000000), wk =   0.0555556
        k(    8) = (   0.0277149  -0.0800061   0.0000000), wk =   0.0555556
        k(    9) = (   0.0277149  -0.0480037   0.0000000), wk =   0.0555556
        k(   10) = (   0.0277149  -0.0160012   0.0000000), wk =   0.0555556
        k(   11) = (   0.0554299   0.0320024   0.0000000), wk =   0.0555556
        k(   12) = (   0.0554299   0.0640049   0.0000000), wk =   0.0555556
        k(   13) = (   0.0554299   0.0960073   0.0000000), wk =   0.0555556
        k(   14) = (   0.0554299  -0.0640049   0.0000000), wk =   0.0555556
        k(   15) = (   0.0554299  -0.0320024   0.0000000), wk =   0.0555556
        k(   16) = (   0.0554299   0.0000000   0.0000000), wk =   0.0555556
        k(   17) = (  -0.0831448  -0.0480037   0.0000000), wk =   0.0277778
        k(   18) = (  -0.0831448  -0.0160012   0.0000000), wk =   0.0555556
        k(   19) = (  -0.0831448   0.0160012   0.0000000), wk =   0.0555556
        k(   20) = (  -0.0831448  -0.1440110   0.0000000), wk =   0.0277778
        k(   21) = (   0.0000000   0.0000000   0.0000000), wk =   0.0277778
        k(   22) = (   0.0000000   0.0320024   0.0000000), wk =   0.0555556
        k(   23) = (   0.0000000   0.0640049   0.0000000), wk =   0.0555556
        k(   24) = (   0.0000000  -0.0960073   0.0000000), wk =   0.0277778
        k(   25) = (   0.0277149   0.0160012   0.0000000), wk =   0.0555556
        k(   26) = (   0.0277149   0.0480037   0.0000000), wk =   0.0555556
        k(   27) = (   0.0277149   0.0800061   0.0000000), wk =   0.0555556
        k(   28) = (   0.0277149  -0.0800061   0.0000000), wk =   0.0555556
        k(   29) = (   0.0277149  -0.0480037   0.0000000), wk =   0.0555556
        k(   30) = (   0.0277149  -0.0160012   0.0000000), wk =   0.0555556
        k(   31) = (   0.0554299   0.0320024   0.0000000), wk =   0.0555556
        k(   32) = (   0.0554299   0.0640049   0.0000000), wk =   0.0555556
        k(   33) = (   0.0554299   0.0960073   0.0000000), wk =   0.0555556
        k(   34) = (   0.0554299  -0.0640049   0.0000000), wk =   0.0555556
        k(   35) = (   0.0554299  -0.0320024   0.0000000), wk =   0.0555556
        k(   36) = (   0.0554299   0.0000000   0.0000000), wk =   0.0555556
        k(   37) = (  -0.0831448  -0.0480037   0.0000000), wk =   0.0277778
        k(   38) = (  -0.0831448  -0.0160012   0.0000000), wk =   0.0555556
        k(   39) = (  -0.0831448   0.0160012   0.0000000), wk =   0.0555556
        k(   40) = (  -0.0831448  -0.1440110   0.0000000), wk =   0.0277778

     Largest allocated arrays     est. size (Mb)     dimensions
     Largest temporary arrays     est. size (Mb)     dimensions

     Check: negative/imaginary core charge=   -0.000006    0.000000

     Initial potential from superposition of free atoms
     Check: negative starting charge=(component1):   -0.125820
     Check: negative starting charge=(component2):   -0.087092

     starting charge  163.40303, renormalised to  168.00000

[...]

     *
     * You are using vdW-DF for exchange-correlation in this calculation.
     * Please cite the following three references that made this development
     * possible:
     *
     *   M. Dion, H. Rydberg, E. Schroder, D. C. Langreth, and
     *   B. I. Lundqvist, Phys. Rev. Lett. 92, 246401 (2004).
     *
     *   T. Thonhauser, V. R. Cooper, S. Li, A. Puzder, P. Hyldgaard, and
     *   D. C. Langreth, Phys. Rev. B 76, 125112 (2007).
     *
     *   G. Roman-Perez and J. M. Soler, Phys. Rev. Lett. 103, 096102 (2009).
     *
     *
     * If you are using vdW-DF2, please also cite:
     *
     *   K. Lee, E. D. Murray, L. Kong, B. I. Lundqvist, and
     *   D. C. Langreth, Phys. Rev. B 82, 081101(R) (2010).
     *
     *
     * If you are calculating the stress with vdW-DF, please also cite:
     *
     *   R. Sabatini, E. Kucukbenli, B. Kolb, T. Thonhauser, and
     *   S. de Gironcoli, J. Phys.: Condens. Matter 24, 424209 (2012).
     *

     Carrying out vdW-DF run using the following parameters:

     Nqs =      20    Nr_points =    1024   r_max =   100.000
     q_mesh =
               0.00001000     0.04494208     0.09755937     0.15916263
               0.23128650     0.31572767     0.41458969     0.53033537
               0.66584808     0.82450364     1.01025438     1.22772762
               1.48234092     1.78043706     2.12944203     2.53805004
               3.01644009     3.57652955     4.23227104     5.00000000

     Gradients computed in reciprocal space

[...]

     Starting wfc are  177 randomized atomic wfcs

     Self-consistent Calculation

[...]

     iteration # 13     ecut=    36.75 Ry     beta=0.10
     Davidson diagonalization with overlap
     c_bands:  2 eigenvalues not converged
     ethr =  7.33E-05,  avg # of iterations =  5.8

[...]

     total energy              =   -2220.84500385 Ry
     Harris-Foulkes estimate   =   -2220.84500253 Ry
     estimated scf accuracy    <       0.00000123 Ry

[...]

     iteration # 30     ecut=    36.75 Ry     beta=0.10
     Davidson diagonalization with overlap
     ethr =  7.30E-10,  avg # of iterations =  3.0

[...]

     negative rho (up, down):  8.107E-02 5.292E-02

[...]

     Adding external electric field

     Computed dipole along edir(3) :
        Dipole                0.1418 Ry au,          0.3604 Debye
        Dipole field          0.0003 Ry au

        Potential amp.       -0.0311 Ry
        Total length         45.8964 bohr

     Magnetic moment per site:
     atom:    1    charge:    6.0077    magn:    1.4467    constr:    0.0000
     atom:    2    charge:    6.0076    magn:    1.4467    constr:    0.0000
     atom:    3    charge:    6.0077    magn:    1.4467    constr:    0.0000
     atom:    4    charge:    0.1645    magn:   -0.0176    constr:    0.0000
     atom:    5    charge:    6.0073    magn:    1.3656    constr:    0.0000
     atom:    6    charge:    6.0072    magn:    1.3656    constr:    0.0000
     atom:    7    charge:    6.0073    magn:    1.3656    constr:    0.0000
     atom:    8    charge:    0.1720    magn:   -0.0209    constr:    0.0000
     atom:    9    charge:    6.0101    magn:    1.3987    constr:    0.0000
     atom:   10    charge:    6.0101    magn:    1.3987    constr:    0.0000
     atom:   11    charge:    6.0101    magn:    1.3987    constr:    0.0000
     atom:   12    charge:    0.1623    magn:   -0.0162    constr:    0.0000

     End of self-consistent calculation

 ------ SPIN UP ------------

[...]

 ------ SPIN DOWN ----------

[...]

          k = 0.0554 0.0000 0.0000 ( 19799 PWs)   bands (ev):

[...]

          k =-0.0831-0.1440 0.0000 ( 19832 PWs)   bands (ev):

   -75.6141 -75.6118 -75.6096 -75.5140 -75.5032 -75.5016 -75.4984 -75.4967
   -75.4951 -44.5135 -44.5020 -44.4929 -44.4176 -44.4090 -44.4020 -44.3957
   -44.3892 -44.3693 -44.3613 -44.3546 -44.3415 -44.3409 -44.3305 -44.3304
   -44.3187 -44.3137 -44.3080 -44.2986 -44.2888 -44.2867 -44.2804 -44.2253
   -44.2134 -44.1980 -44.1892 -44.1816 -31.4384 -31.0730 -30.4845 -15.1830
   -15.1621 -15.1560 -14.9463 -14.9073 -14.8839 -14.4272 -14.3970 -14.3869
    -2.2336  -2.0516  -1.3453  -0.6285  -0.3884  -0.2707  -0.1067  -0.0384
     0.3740   0.4701   0.6383   0.8329   0.9300   1.0286   1.0441   1.1037
     1.1622   1.2405   1.3487   1.4531   1.4692   1.5109   1.5473   1.7560
     1.7630   1.8859   1.9129   1.9443   1.9992   2.1035   2.1121   2.2768
     2.2824   2.4316   2.4628   2.6029   2.6444   2.6695   2.6864   2.7766
     2.7957   2.8626   2.9241   2.9619   2.9716   3.1104   3.1393   3.2000
     3.3353   3.3425   3.3895   3.4241   3.4951   3.5206   3.5872   3.6898
     3.7407   3.7796   3.8175   3.8196   3.9750   3.9812   4.0442   4.0902
     4.1731   4.2345

     the Fermi energy is     1.5254 ev

!    total energy              =   -2220.84500483 Ry
     Harris-Foulkes estimate   =   -2220.84500163 Ry
     estimated scf accuracy    <       0.00000089 Ry

     The total energy is the sum of the following terms:

     one-electron contribution =  -14030.91649967 Ry
     hartree contribution      =    7017.84137713 Ry
     xc contribution           =    -401.25848232 Ry
     ewald contribution        =    5193.56460727 Ry
     electric field correction =       0.00004800 Ry
     smearing contrib. (-TS)   =      -0.07605523 Ry

     total magnetization       =    31.34 Bohr mag/cell
     absolute magnetization    =    34.56 Bohr mag/cell

     convergence has been achieved in  30 iterations

 BEEF-vdW xc energy contributions
           1 :   -352.327786592604
           2 :    320.106323378650
           3 :   -265.730663933050
           4 :    204.157062622926
           5 :   -148.575270362660
           6 :    106.190671516460
           7 :   -77.8986043722198
           8 :    60.6106993065192
           9 :   -50.0780960762729
          10 :    42.7571692419345
          11 :   -36.4422417864067
          12 :    30.1086353086051
          13 :   -23.5292666847715
          14 :    16.9467467266888
          15 :   -10.8024057635602
          16 :    5.46909082322219
          17 :   -1.08505447204345
          18 :   -2.37770358068593
          19 :    4.87225576945218
          20 :   -6.15132021847319
          21 :    5.96523680183486
          22 :   -4.45347941080479
          23 :    2.34840802722505
          24 :  -0.732938703286777
          25 :   0.460653243391789
          26 :   -1.64344861874196
          27 :    3.58342491819280
          28 :   -5.21501240713201
          29 :    5.75394156069780
          30 :   -5.11680736028484
          31 :   -30.9577499680812
          32 :   -21.9330772124897

     Forces acting on atoms (Ry/au):

     negative rho (up, down):  8.107E-02 5.292E-02
     atom    1 type  1   force =    -0.00000311   -0.01257891    0.00851844
     atom    2 type  1   force =    -0.01088764    0.00628867    0.00851565
     atom    3 type  1   force =     0.01089035    0.00629566    0.00852085
     atom    4 type  2   force =    -0.00000448    0.00000639   -0.03095868
     atom    5 type  1   force =    -0.00000062    0.00360131    0.00440598
     atom    6 type  1   force =     0.00311722   -0.00180504    0.00440239
     atom    7 type  1   force =    -0.00311134   -0.00180065    0.00440796
     atom    8 type  2   force =    -0.00000064   -0.00000972   -0.00661100
     atom    9 type  1   force =    -0.00000038    0.00115829   -0.00003940
     atom   10 type  1   force =     0.00099515   -0.00057754   -0.00004116
     atom   11 type  1   force =    -0.00099581   -0.00057695   -0.00003721
     atom   12 type  2   force =     0.00000130   -0.00000151   -0.00108381

     Total force =     0.042387     Total SCF correction =     0.003657

     entering subroutine stress ...

     negative rho (up, down):  8.107E-02 5.292E-02
          total   stress  (Ry/bohr**3)                   (kbar)     P=   -5.44
  -0.00005340   0.00000002  -0.00000000         -7.86      0.00     -0.00
   0.00000002  -0.00005338   0.00000000          0.00     -7.85      0.00
  -0.00000000   0.00000000  -0.00000416         -0.00      0.00     -0.61

 !ASE

     Writing output data file calc.save

     General routines

     Parallel routines

   This run was terminated on:   1:30: 8  31Dec2018

   JOB DONE.
Job  /afs/slac/g/suncat/bin/suncat-tsmpirun -x LD_LIBRARY_PATH -wdir /scratch/qe648581_SMBeR pw.x -in pw.inp

TID   HOST_NAME   COMMAND_LINE            STATUS            TERMINATION_TIME
00000 suncat0121 pw.x -in pw.inp   Done                     12/31/2018 01:30:08
00001 suncat0121 pw.x -in pw.inp   Done                     12/31/2018 01:30:08
00002 suncat0121 pw.x -in pw.inp   Done                     12/31/2018 01:30:08
00003 suncat0121 pw.x -in pw.inp   Done                     12/31/2018 01:30:08
00004 suncat0121 pw.x -in pw.inp   Done                     12/31/2018 01:30:08
00005 suncat0121 pw.x -in pw.inp   Done                     12/31/2018 01:30:08
00006 suncat0121 pw.x -in pw.inp   Done                     12/31/2018 01:30:08
00007 suncat0121 pw.x -in pw.inp   Done                     12/31/2018 01:30:08
00008 suncat0115 pw.x -in pw.inp   Done                     12/31/2018 01:30:08
00009 suncat0115 pw.x -in pw.inp   Done                     12/31/2018 01:30:08
00010 suncat0115 pw.x -in pw.inp   Done                     12/31/2018 01:30:08
00011 suncat0115 pw.x -in pw.inp   Done                     12/31/2018 01:30:08
00012 suncat0115 pw.x -in pw.inp   Done                     12/31/2018 01:30:08
00013 suncat0115 pw.x -in pw.inp   Done                     12/31/2018 01:30:08
00014 suncat0115 pw.x -in pw.inp   Done                     12/31/2018 01:30:08
00015 suncat0115 pw.x -in pw.inp   Done                     12/31/2018 01:30:08
00016 suncat0228 pw.x -in pw.inp   Done                     12/31/2018 01:30:08
00017 suncat0228 pw.x -in pw.inp   Done                     12/31/2018 01:30:08
00018 suncat0228 pw.x -in pw.inp   Done                     12/31/2018 01:30:08
00019 suncat0228 pw.x -in pw.inp   Done                     12/31/2018 01:30:08
00020 suncat0228 pw.x -in pw.inp   Done                     12/31/2018 01:30:08
00021 suncat0228 pw.x -in pw.inp   Done                     12/31/2018 01:30:08
00022 suncat0228 pw.x -in pw.inp   Done                     12/31/2018 01:30:08
00023 suncat0228 pw.x -in pw.inp   Done                     12/31/2018 01:30:08
00024 suncat0227 pw.x -in pw.inp   Done                     12/31/2018 01:30:08
00025 suncat0227 pw.x -in pw.inp   Done                     12/31/2018 01:30:08
00026 suncat0227 pw.x -in pw.inp   Done                     12/31/2018 01:30:08
00027 suncat0227 pw.x -in pw.inp   Done                     12/31/2018 01:30:08
00028 suncat0227 pw.x -in pw.inp   Done                     12/31/2018 01:30:08
00029 suncat0227 pw.x -in pw.inp   Done                     12/31/2018 01:30:08
00030 suncat0227 pw.x -in pw.inp   Done                     12/31/2018 01:30:08
00031 suncat0227 pw.x -in pw.inp   Done                     12/31/2018 01:30:08
00032 suncat0217 pw.x -in pw.inp   Done                     12/31/2018 01:30:08
00033 suncat0217 pw.x -in pw.inp   Done                     12/31/2018 01:30:08
00034 suncat0217 pw.x -in pw.inp   Done                     12/31/2018 01:30:08
00035 suncat0217 pw.x -in pw.inp   Done                     12/31/2018 01:30:08
00036 suncat0217 pw.x -in pw.inp   Done                     12/31/2018 01:30:08
00037 suncat0217 pw.x -in pw.inp   Done                     12/31/2018 01:30:08
00038 suncat0217 pw.x -in pw.inp   Done                     12/31/2018 01:30:08
00039 suncat0217 pw.x -in pw.inp   Done                     12/31/2018 01:30:08
00040 suncat0216 pw.x -in pw.inp   Done                     12/31/2018 01:30:08
00041 suncat0216 pw.x -in pw.inp   Done                     12/31/2018 01:30:08
00042 suncat0216 pw.x -in pw.inp   Done                     12/31/2018 01:30:08
00043 suncat0216 pw.x -in pw.inp   Done                     12/31/2018 01:30:08
00044 suncat0216 pw.x -in pw.inp   Done                     12/31/2018 01:30:08
00045 suncat0216 pw.x -in pw.inp   Done                     12/31/2018 01:30:08
00046 suncat0216 pw.x -in pw.inp   Done                     12/31/2018 01:30:08
00047 suncat0216 pw.x -in pw.inp   Done                     12/31/2018 01:30:08
00048 suncat0215 pw.x -in pw.inp   Done                     12/31/2018 01:30:08
00049 suncat0215 pw.x -in pw.inp   Done                     12/31/2018 01:30:08
00050 suncat0215 pw.x -in pw.inp   Done                     12/31/2018 01:30:08
00051 suncat0215 pw.x -in pw.inp   Done                     12/31/2018 01:30:08
00052 suncat0215 pw.x -in pw.inp   Done                     12/31/2018 01:30:08
00053 suncat0215 pw.x -in pw.inp   Done                     12/31/2018 01:30:08
00054 suncat0215 pw.x -in pw.inp   Done                     12/31/2018 01:30:08
00055 suncat0215 pw.x -in pw.inp   Done                     12/31/2018 01:30:08
00056 suncat0210 pw.x -in pw.inp   Done                     12/31/2018 01:30:08
00057 suncat0210 pw.x -in pw.inp   Done                     12/31/2018 01:30:08
00058 suncat0210 pw.x -in pw.inp   Done                     12/31/2018 01:30:08
00059 suncat0210 pw.x -in pw.inp   Done                     12/31/2018 01:30:08
00060 suncat0210 pw.x -in pw.inp   Done                     12/31/2018 01:30:08
00061 suncat0210 pw.x -in pw.inp   Done                     12/31/2018 01:30:08
00062 suncat0210 pw.x -in pw.inp   Done                     12/31/2018 01:30:08
00063 suncat0210 pw.x -in pw.inp   Done                     12/31/2018 01:30:08