     Program PWSCF v.5.1rc2 (svn rev. 11289) starts on 27Dec2018 at  8:48: 8

     Current dimensions of program PWSCF are:
     Max number of different atomic species (ntypx) = 10
     Max number of k-points (npk) =  40000
     Max angular momentum in pseudopotentials (lmaxx) =  3
     Presently stress not available with electric field

     IMPORTANT: XC functional enforced from input :
     Exchange-correlation      = BEEF-VDW ( 1  4 27 13 2)
     Any further DFT definition will be discarded
     Please, verify this is what you really want

     Subspace diagonalization in iterative solution of the eigenvalue problem:
     a serial algorithm will be used

     Generating pointlists ...
     new r_m :   0.4125 (alat units)  0.7795 (a.u.) for type    1
     new r_m :   0.4125 (alat units)  0.7795 (a.u.) for type    2

     bravais-lattice index     =            0
     lattice parameter (alat)  =       1.8897  a.u.
     unit-cell volume          =    3743.8624 (a.u.)^3
     number of atoms/cell      =           12
     number of atomic types    =            2
     number of electrons       =       207.00
     number of Kohn-Sham states=          133
     kinetic-energy cutoff     =      36.7493  Ry
     charge density cutoff     =     367.4932  Ry
     convergence threshold     =      1.0E-06
     mixing beta               =       0.1000
     number of iterations used =           10  plain     mixing
     Exchange-correlation      = BEEF-VDW ( 1  4 27 13 2)
     nstep                     =           50

     celldm(1)=   1.889726  celldm(2)=   0.000000  celldm(3)=   0.000000
     celldm(4)=   0.000000  celldm(5)=   0.000000  celldm(6)=   0.000000

     crystal axes: (cart. coord. in units of alat)
               a(1) = (   5.144950   0.000000   0.000000 )
               a(2) = (  -2.572475   4.455657   0.000000 )
               a(3) = (   0.000000   0.000000  24.200834 )

     reciprocal axes: (cart. coord. in units 2 pi/alat)
               b(1) = (  0.194365  0.112217  0.000000 )
               b(2) = (  0.000000  0.224434  0.000000 )
               b(3) = (  0.000000  0.000000  0.041321 )

     PseudoPot. # 1 for Ni read from file:
     /afs/slac.stanford.edu/u/if/mamunm/psp/gbrv1.5pbe/Ni.UPF
     MD5 check sum: 1ee80287db30b12d2bc1f57a5b5d6409
     Pseudo is Ultrasoft + core correction, Zval = 18.0
     Generated by new atomic code, or converted to UPF format
     Using radial grid of  865 points,  6 beta functions with:
                l(1) =   0
                l(2) =   0
                l(3) =   1
                l(4) =   1
                l(5) =   2
                l(6) =   2
     Q(r) pseudized with 10 coefficients,  rinner =    0.980   0.980   0.980
                                                       0.980   0.980

     PseudoPot. # 2 for Re read from file:
     /afs/slac.stanford.edu/u/if/mamunm/psp/gbrv1.5pbe/Re.UPF
     MD5 check sum: 85f993410f3e006da9d71c142b4ad953
     Pseudo is Ultrasoft + core correction, Zval = 15.0
     Generated by new atomic code, or converted to UPF format
     Using radial grid of  981 points,  8 beta functions with:
                l(1) =   0
                l(2) =   0
                l(3) =   1
                l(4) =   1
                l(5) =   2
                l(6) =   2
                l(7) =   3
                l(8) =   3
     Q(r) pseudized with  8 coefficients,  rinner =    1.150   1.150   1.150
                                                       1.150   1.150   1.150
                                                       1.150

     vdW kernel table read from file vdW_kernel_table
     MD5 check sum: 095c7af220d748ca6e76c0b4c6cfb241

     atomic species   valence    mass     pseudopotential
        Ni1           18.00    58.69340     Ni( 1.00)
        Re1           15.00   186.20700     Re( 1.00)

     Starting magnetic structure
     atomic species   magnetization
        Ni1          0.111
        Re1          0.133

     No symmetry found

   Cartesian axes

     site n.     atom                  positions (alat units)
         1           Ni1 tau(   1) = (   0.0000000   0.0000000  10.0000000  )
         2           Ni1 tau(   2) = (  -1.2862375   2.2278287  10.0000000  )
         3           Ni1 tau(   3) = (   1.2862375   2.2278287  10.0000000  )
         4           Re1 tau(   4) = (   2.5724750   0.0000000  10.0000000  )
         5           Ni1 tau(   5) = (   2.5724750   1.4852191  12.1004170  )
         6           Ni1 tau(   6) = (   1.2862375   3.7130478  12.1004170  )
         7           Ni1 tau(   7) = (  -1.2862375   3.7130478  12.1004170  )
         8           Re1 tau(   8) = (   0.0000000   1.4852191  12.1004170  )
         9           Ni1 tau(   9) = (  -0.0000000   2.9704383  14.2008341  )
        10           Ni1 tau(  10) = (   1.2862375   0.7426096  14.2008341  )
        11           Ni1 tau(  11) = (   3.8587125   0.7426096  14.2008341  )
        12           Re1 tau(  12) = (   2.5724750   2.9704383  14.2008341  )

     number of k points=    40  Fermi-Dirac smearing, width (Ry)=  0.0110
                       cart. coord. in units 2pi/alat
        k(    1) = (   0.0000000   0.0000000   0.0000000), wk =   0.0277778
        k(    2) = (   0.0000000   0.0374056   0.0000000), wk =   0.0555556
        k(    3) = (   0.0000000   0.0748113   0.0000000), wk =   0.0555556
        k(    4) = (   0.0000000  -0.1122169   0.0000000), wk =   0.0277778
        k(    5) = (   0.0323942   0.0187028   0.0000000), wk =   0.0555556
        k(    6) = (   0.0323942   0.0561084   0.0000000), wk =   0.0555556
        k(    7) = (   0.0323942   0.0935141   0.0000000), wk =   0.0555556
        k(    8) = (   0.0323942  -0.0935141   0.0000000), wk =   0.0555556
        k(    9) = (   0.0323942  -0.0561084   0.0000000), wk =   0.0555556
        k(   10) = (   0.0323942  -0.0187028   0.0000000), wk =   0.0555556
        k(   11) = (   0.0647884   0.0374056   0.0000000), wk =   0.0555556
        k(   12) = (   0.0647884   0.0748113   0.0000000), wk =   0.0555556
        k(   13) = (   0.0647884   0.1122169   0.0000000), wk =   0.0555556
        k(   14) = (   0.0647884  -0.0748113   0.0000000), wk =   0.0555556
        k(   15) = (   0.0647884  -0.0374056   0.0000000), wk =   0.0555556
        k(   16) = (   0.0647884   0.0000000   0.0000000), wk =   0.0555556
        k(   17) = (  -0.0971827  -0.0561084   0.0000000), wk =   0.0277778
        k(   18) = (  -0.0971827  -0.0187028   0.0000000), wk =   0.0555556
        k(   19) = (  -0.0971827   0.0187028   0.0000000), wk =   0.0555556
        k(   20) = (  -0.0971827  -0.1683253   0.0000000), wk =   0.0277778
        k(   21) = (   0.0000000   0.0000000   0.0000000), wk =   0.0277778
        k(   22) = (   0.0000000   0.0374056   0.0000000), wk =   0.0555556
        k(   23) = (   0.0000000   0.0748113   0.0000000), wk =   0.0555556
        k(   24) = (   0.0000000  -0.1122169   0.0000000), wk =   0.0277778
        k(   25) = (   0.0323942   0.0187028   0.0000000), wk =   0.0555556
        k(   26) = (   0.0323942   0.0561084   0.0000000), wk =   0.0555556
        k(   27) = (   0.0323942   0.0935141   0.0000000), wk =   0.0555556
        k(   28) = (   0.0323942  -0.0935141   0.0000000), wk =   0.0555556
        k(   29) = (   0.0323942  -0.0561084   0.0000000), wk =   0.0555556
        k(   30) = (   0.0323942  -0.0187028   0.0000000), wk =   0.0555556
        k(   31) = (   0.0647884   0.0374056   0.0000000), wk =   0.0555556
        k(   32) = (   0.0647884   0.0748113   0.0000000), wk =   0.0555556
        k(   33) = (   0.0647884   0.1122169   0.0000000), wk =   0.0555556
        k(   34) = (   0.0647884  -0.0748113   0.0000000), wk =   0.0555556
        k(   35) = (   0.0647884  -0.0374056   0.0000000), wk =   0.0555556
        k(   36) = (   0.0647884   0.0000000   0.0000000), wk =   0.0555556
        k(   37) = (  -0.0971827  -0.0561084   0.0000000), wk =   0.0277778
        k(   38) = (  -0.0971827  -0.0187028   0.0000000), wk =   0.0555556
        k(   39) = (  -0.0971827   0.0187028   0.0000000), wk =   0.0555556
        k(   40) = (  -0.0971827  -0.1683253   0.0000000), wk =   0.0277778

     Largest allocated arrays     est. size (Mb)     dimensions
     Largest temporary arrays     est. size (Mb)     dimensions

     Check: negative/imaginary core charge=   -0.000002    0.000000

     Initial potential from superposition of free atoms
     Check: negative starting charge=(component1):   -0.224214
     Check: negative starting charge=(component2):   -0.171470

     starting charge  187.49987, renormalised to  207.00000

     negative rho (up, down):  2.475E-01 1.893E-01

     *
     * You are using vdW-DF for exchange-correlation in this calculation.
     * Please cite the following three references that made this development
     * possible:
     *
     *   M. Dion, H. Rydberg, E. Schroder, D. C. Langreth, and
     *   B. I. Lundqvist, Phys. Rev. Lett. 92, 246401 (2004).
     *
     *   T. Thonhauser, V. R. Cooper, S. Li, A. Puzder, P. Hyldgaard, and
     *   D. C. Langreth, Phys. Rev. B 76, 125112 (2007).
     *
     *   G. Roman-Perez and J. M. Soler, Phys. Rev. Lett. 103, 096102 (2009).
     *
     *
     * If you are using vdW-DF2, please also cite:
     *
     *   K. Lee, E. D. Murray, L. Kong, B. I. Lundqvist, and
     *   D. C. Langreth, Phys. Rev. B 82, 081101(R) (2010).
     *
     *
     * If you are calculating the stress with vdW-DF, please also cite:
     *
     *   R. Sabatini, E. Kucukbenli, B. Kolb, T. Thonhauser, and
     *   S. de Gironcoli, J. Phys.: Condens. Matter 24, 424209 (2012).
     *

     Carrying out vdW-DF run using the following parameters:

     Nqs =      20    Nr_points =    1024   r_max =   100.000
     q_mesh =
               0.00001000     0.04494208     0.09755937     0.15916263
               0.23128650     0.31572767     0.41458969     0.53033537
               0.66584808     0.82450364     1.01025438     1.22772762
               1.48234092     1.78043706     2.12944203     2.53805004
               3.01644009     3.57652955     4.23227104     5.00000000

     Gradients computed in reciprocal space

     Adding external electric field

     Computed dipole along edir(3) :
        Dipole                0.0000 Ry au,          0.0000 Debye
        Dipole field          0.0000 Ry au

        Potential amp.       -0.0000 Ry
        Total length         44.5896 bohr

[...]

     Starting wfc are  156 randomized atomic wfcs

     Self-consistent Calculation

     iteration #  1     ecut=    36.75 Ry     beta=0.10
     Davidson diagonalization with overlap
     ethr =  1.00E-02,  avg # of iterations =  8.3

[...]

     Magnetic moment per site:
     atom:    1    charge:    9.8065    magn:    1.0386    constr:    0.0000
     atom:    2    charge:    9.8065    magn:    1.0386    constr:    0.0000
     atom:    3    charge:    9.8065    magn:    1.0386    constr:    0.0000
     atom:    4    charge:    2.0435    magn:    0.2486    constr:    0.0000
     atom:    5    charge:    9.8085    magn:    1.0389    constr:    0.0000
     atom:    6    charge:    9.8085    magn:    1.0389    constr:    0.0000
[...]
        k(    4) = (   0.0000000  -0.1122169   0.0000000), wk =   0.0277778
        k(    5) = (   0.0323942   0.0187028   0.0000000), wk =   0.0555556
        k(    6) = (   0.0323942   0.0561084   0.0000000), wk =   0.0555556
        k(    7) = (   0.0323942   0.0935141   0.0000000), wk =   0.0555556
        k(    8) = (   0.0323942  -0.0935141   0.0000000), wk =   0.0555556
        k(    9) = (   0.0323942  -0.0561084   0.0000000), wk =   0.0555556
        k(   10) = (   0.0323942  -0.0187028   0.0000000), wk =   0.0555556
        k(   11) = (   0.0647884   0.0374056   0.0000000), wk =   0.0555556
        k(   12) = (   0.0647884   0.0748113   0.0000000), wk =   0.0555556
        k(   13) = (   0.0647884   0.1122169   0.0000000), wk =   0.0555556
        k(   14) = (   0.0647884  -0.0748113   0.0000000), wk =   0.0555556
        k(   15) = (   0.0647884  -0.0374056   0.0000000), wk =   0.0555556
        k(   16) = (   0.0647884   0.0000000   0.0000000), wk =   0.0555556
        k(   17) = (  -0.0971827  -0.0561084   0.0000000), wk =   0.0277778
        k(   18) = (  -0.0971827  -0.0187028   0.0000000), wk =   0.0555556
        k(   19) = (  -0.0971827   0.0187028   0.0000000), wk =   0.0555556
        k(   20) = (  -0.0971827  -0.1683253   0.0000000), wk =   0.0277778
        k(   21) = (   0.0000000   0.0000000   0.0000000), wk =   0.0277778
        k(   22) = (   0.0000000   0.0374056   0.0000000), wk =   0.0555556
        k(   23) = (   0.0000000   0.0748113   0.0000000), wk =   0.0555556
        k(   24) = (   0.0000000  -0.1122169   0.0000000), wk =   0.0277778
        k(   25) = (   0.0323942   0.0187028   0.0000000), wk =   0.0555556
        k(   26) = (   0.0323942   0.0561084   0.0000000), wk =   0.0555556
        k(   27) = (   0.0323942   0.0935141   0.0000000), wk =   0.0555556
        k(   28) = (   0.0323942  -0.0935141   0.0000000), wk =   0.0555556
        k(   29) = (   0.0323942  -0.0561084   0.0000000), wk =   0.0555556
        k(   30) = (   0.0323942  -0.0187028   0.0000000), wk =   0.0555556
        k(   31) = (   0.0647884   0.0374056   0.0000000), wk =   0.0555556
        k(   32) = (   0.0647884   0.0748113   0.0000000), wk =   0.0555556
        k(   33) = (   0.0647884   0.1122169   0.0000000), wk =   0.0555556
        k(   34) = (   0.0647884  -0.0748113   0.0000000), wk =   0.0555556
        k(   35) = (   0.0647884  -0.0374056   0.0000000), wk =   0.0555556
        k(   36) = (   0.0647884   0.0000000   0.0000000), wk =   0.0555556
        k(   37) = (  -0.0971827  -0.0561084   0.0000000), wk =   0.0277778
        k(   38) = (  -0.0971827  -0.0187028   0.0000000), wk =   0.0555556
        k(   39) = (  -0.0971827   0.0187028   0.0000000), wk =   0.0555556
        k(   40) = (  -0.0971827  -0.1683253   0.0000000), wk =   0.0277778

     Largest allocated arrays     est. size (Mb)     dimensions
     Largest temporary arrays     est. size (Mb)     dimensions

     Check: negative/imaginary core charge=   -0.000002    0.000000

     Initial potential from superposition of free atoms
     Check: negative starting charge=(component1):   -0.223366
     Check: negative starting charge=(component2):   -0.170821

     starting charge  187.49987, renormalised to  207.00000

[...]

     *
     * You are using vdW-DF for exchange-correlation in this calculation.
     * Please cite the following three references that made this development
     * possible:
     *
     *   M. Dion, H. Rydberg, E. Schroder, D. C. Langreth, and
     *   B. I. Lundqvist, Phys. Rev. Lett. 92, 246401 (2004).
     *
     *   T. Thonhauser, V. R. Cooper, S. Li, A. Puzder, P. Hyldgaard, and
     *   D. C. Langreth, Phys. Rev. B 76, 125112 (2007).
     *
     *   G. Roman-Perez and J. M. Soler, Phys. Rev. Lett. 103, 096102 (2009).
     *
     *
     * If you are using vdW-DF2, please also cite:
     *
     *   K. Lee, E. D. Murray, L. Kong, B. I. Lundqvist, and
     *   D. C. Langreth, Phys. Rev. B 82, 081101(R) (2010).
     *
     *
     * If you are calculating the stress with vdW-DF, please also cite:
     *
     *   R. Sabatini, E. Kucukbenli, B. Kolb, T. Thonhauser, and
     *   S. de Gironcoli, J. Phys.: Condens. Matter 24, 424209 (2012).
     *

     Carrying out vdW-DF run using the following parameters:

     Nqs =      20    Nr_points =    1024   r_max =   100.000
     q_mesh =
               0.00001000     0.04494208     0.09755937     0.15916263
               0.23128650     0.31572767     0.41458969     0.53033537
               0.66584808     0.82450364     1.01025438     1.22772762
               1.48234092     1.78043706     2.12944203     2.53805004
               3.01644009     3.57652955     4.23227104     5.00000000

     Gradients computed in reciprocal space

[...]

     Starting wfc are  156 randomized atomic wfcs

     Self-consistent Calculation

[...]

     total energy              =   -3676.08116231 Ry
     Harris-Foulkes estimate   =   -3676.08116230 Ry
     estimated scf accuracy    <       0.00000104 Ry

[...]

     iteration # 58     ecut=    36.75 Ry     beta=0.10
     Davidson diagonalization with overlap
     ethr =  5.04E-10,  avg # of iterations =  2.0

[...]

     negative rho (up, down):  2.009E-01 2.017E-01

[...]

     Adding external electric field

     Computed dipole along edir(3) :
        Dipole                0.0073 Ry au,          0.0187 Debye
        Dipole field          0.0000 Ry au

        Potential amp.       -0.0022 Ry
        Total length         44.5896 bohr

     Magnetic moment per site:
     atom:    1    charge:    9.3514    magn:    0.0051    constr:    0.0000
     atom:    2    charge:    9.3514    magn:    0.0051    constr:    0.0000
     atom:    3    charge:    9.3515    magn:    0.0051    constr:    0.0000
     atom:    4    charge:    1.8711    magn:    0.0022    constr:    0.0000
     atom:    5    charge:    9.3499    magn:    0.0031    constr:    0.0000
     atom:    6    charge:    9.3499    magn:    0.0031    constr:    0.0000
     atom:    7    charge:    9.3499    magn:    0.0031    constr:    0.0000
     atom:    8    charge:    1.8754    magn:   -0.0001    constr:    0.0000
     atom:    9    charge:    9.3419    magn:    0.0028    constr:    0.0000
     atom:   10    charge:    9.3420    magn:    0.0029    constr:    0.0000
     atom:   11    charge:    9.3419    magn:    0.0029    constr:    0.0000
     atom:   12    charge:    1.8629    magn:    0.0007    constr:    0.0000

     End of self-consistent calculation

 ------ SPIN UP ------------

[...]

 ------ SPIN DOWN ----------

[...]

          k = 0.0648 0.0000 0.0000 ( 14083 PWs)   bands (ev):

[...]

          k =-0.0972-0.1683 0.0000 ( 14098 PWs)   bands (ev):

  -102.5166-102.5130-102.5094-102.2502-102.2465-102.2429-102.1956-102.1921
  -102.1886 -79.8305 -79.4169 -79.3850 -63.0215 -63.0035 -62.9898 -62.9457
   -62.9346 -62.9207 -62.8181 -62.8039 -62.7906 -62.7825 -62.7676 -62.7546
   -62.7473 -62.7287 -62.7067 -62.6426 -62.6193 -62.5982 -62.5744 -62.5514
   -62.5284 -62.4525 -62.4412 -62.4289 -62.3913 -62.3820 -62.3709 -41.5661
   -41.4824 -41.4789 -41.1110 -41.1018 -41.0983 -41.0678 -41.0644 -41.0576
    -5.6612  -5.2851  -4.0549  -3.5734  -3.4980  -3.3795  -3.0926  -2.8042
    -2.7471  -2.6491  -2.4893  -2.2561  -2.2387  -2.2107  -2.1674  -1.8620
    -1.7886  -1.7153  -1.6515  -1.6307  -1.6162  -1.4391  -1.1951  -1.1697
    -1.0385  -1.0176  -0.9871  -0.9699  -0.9205  -0.8854  -0.8293  -0.8078
    -0.7855  -0.7786  -0.7131  -0.6964  -0.6556  -0.5876  -0.5639  -0.5520
    -0.3917  -0.3242  -0.2461  -0.2169  -0.0830  -0.0402   0.1865   0.2139
     0.2336   0.2450   0.4849   0.6286   0.6710   0.7816   0.8657   1.0344
     1.0531   1.0818   1.3686   1.4491   1.5797   1.6118   1.6853   2.4256
     2.4655   2.7577   3.3413   4.0604   4.6411   5.1276   5.5312   5.7354
     6.5917   6.6536   7.3417   7.3874   7.8646   7.9030   8.1104   8.1227
     8.7321   9.1059   9.1511   9.6596   9.7463

     the Fermi energy is     1.1908 ev

!    total energy              =   -3676.08116937 Ry
     Harris-Foulkes estimate   =   -3676.08116410 Ry
     estimated scf accuracy    <       0.00000090 Ry

     The total energy is the sum of the following terms:

     one-electron contribution =  -30318.62101495 Ry
     hartree contribution      =   15162.02058334 Ry
     xc contribution           =    -492.90120283 Ry
     ewald contribution        =   11973.52113493 Ry
     electric field correction =       0.00000018 Ry
     smearing contrib. (-TS)   =      -0.10067004 Ry

     total magnetization       =     0.10 Bohr mag/cell
     absolute magnetization    =     0.12 Bohr mag/cell

     convergence has been achieved in  58 iterations

 BEEF-vdW xc energy contributions
           1 :   -435.619445403118
           2 :    398.258946910653
           3 :   -334.194529401470
           4 :    260.102178954372
           5 :   -192.025042663146
           6 :    139.903650436271
           7 :   -105.577585668837
           8 :    84.5727179942612
           9 :   -70.1436395939642
          10 :    57.1571674991616
          11 :   -43.9555689772076
          12 :    31.7634171206819
          13 :   -22.6459801498932
          14 :    17.5836631677839
          15 :   -15.7955362813528
          16 :    15.4067770072527
          17 :   -14.7114269695427
          18 :    13.0664820834913
          19 :   -10.9177661419760
          20 :    9.11791780402410
          21 :   -8.14513427436384
          22 :    7.77561007240689
          23 :   -7.36510513597858
          24 :    6.42930769379893
          25 :   -5.04840834185347
          26 :    3.79598728348026
          27 :   -3.28325104769021
          28 :    3.67761508643474
          29 :   -4.55883799227541
          30 :    5.20244757376219
          31 :   -36.1375962176240
          32 :   -25.7708355653045

     Forces acting on atoms (Ry/au):

     negative rho (up, down):  2.009E-01 2.017E-01
     atom    1 type  1   force =    -0.00001103    0.00546166    0.01000145
     atom    2 type  1   force =     0.00471520   -0.00274244    0.01000758
     atom    3 type  1   force =    -0.00472518   -0.00273545    0.01000782
     atom    4 type  2   force =    -0.00000762   -0.00000776    0.00955389
     atom    5 type  1   force =     0.00003641   -0.00217795   -0.00824746
     atom    6 type  1   force =    -0.00188514    0.00111220   -0.00821566
     atom    7 type  1   force =     0.00187912    0.00106656   -0.00826676
     atom    8 type  2   force =     0.00001387    0.00000493   -0.01451497
     atom    9 type  1   force =    -0.00000561    0.00044721   -0.00067795
     atom   10 type  1   force =     0.00037650   -0.00021923   -0.00068699
     atom   11 type  1   force =    -0.00039018   -0.00022098   -0.00067838
     atom   12 type  2   force =     0.00000367    0.00001125    0.00171742

     Total force =     0.030244     Total SCF correction =     0.002235

     entering subroutine stress ...

     negative rho (up, down):  2.009E-01 2.017E-01
          total   stress  (Ry/bohr**3)                   (kbar)     P=  -71.27
  -0.00054159  -0.00000000  -0.00000000        -79.67     -0.00     -0.00
  -0.00000000  -0.00054164   0.00000002         -0.00    -79.68      0.00
  -0.00000000   0.00000002  -0.00037014         -0.00      0.00    -54.45

 !ASE

     Writing output data file calc.save

     General routines

     Parallel routines

   This run was terminated on:  13:48: 1  27Dec2018

   JOB DONE.
Job  /afs/slac/g/suncat/bin/suncat-tsmpirun -x LD_LIBRARY_PATH -wdir /scratch/qe110275_nT9uq pw.x -in pw.inp

TID   HOST_NAME   COMMAND_LINE            STATUS            TERMINATION_TIME
00000 suncat0006 pw.x -in pw.inp   Done                     12/27/2018 13:48:01
00001 suncat0006 pw.x -in pw.inp   Done                     12/27/2018 13:48:01
00002 suncat0006 pw.x -in pw.inp   Done                     12/27/2018 13:48:01
00003 suncat0006 pw.x -in pw.inp   Done                     12/27/2018 13:48:01
00004 suncat0006 pw.x -in pw.inp   Done                     12/27/2018 13:48:01
00005 suncat0006 pw.x -in pw.inp   Done                     12/27/2018 13:48:01
00006 suncat0006 pw.x -in pw.inp   Done                     12/27/2018 13:48:01
00007 suncat0006 pw.x -in pw.inp   Done                     12/27/2018 13:48:01
00008 suncat0005 pw.x -in pw.inp   Done                     12/27/2018 13:48:01
00009 suncat0005 pw.x -in pw.inp   Done                     12/27/2018 13:48:01
00010 suncat0005 pw.x -in pw.inp   Done                     12/27/2018 13:48:01
00011 suncat0005 pw.x -in pw.inp   Done                     12/27/2018 13:48:01
00012 suncat0005 pw.x -in pw.inp   Done                     12/27/2018 13:48:01
00013 suncat0005 pw.x -in pw.inp   Done                     12/27/2018 13:48:01
00014 suncat0005 pw.x -in pw.inp   Done                     12/27/2018 13:48:01
00015 suncat0005 pw.x -in pw.inp   Done                     12/27/2018 13:48:01
00016 suncat0180 pw.x -in pw.inp   Done                     12/27/2018 13:48:01
00017 suncat0180 pw.x -in pw.inp   Done                     12/27/2018 13:48:01
00018 suncat0180 pw.x -in pw.inp   Done                     12/27/2018 13:48:01
00019 suncat0180 pw.x -in pw.inp   Done                     12/27/2018 13:48:01
00020 suncat0180 pw.x -in pw.inp   Done                     12/27/2018 13:48:01
00021 suncat0180 pw.x -in pw.inp   Done                     12/27/2018 13:48:01
00022 suncat0180 pw.x -in pw.inp   Done                     12/27/2018 13:48:01
00023 suncat0180 pw.x -in pw.inp   Done                     12/27/2018 13:48:01
00024 suncat0167 pw.x -in pw.inp   Done                     12/27/2018 13:48:01
00025 suncat0167 pw.x -in pw.inp   Done                     12/27/2018 13:48:01
00026 suncat0167 pw.x -in pw.inp   Done                     12/27/2018 13:48:01
00027 suncat0167 pw.x -in pw.inp   Done                     12/27/2018 13:48:01
00028 suncat0167 pw.x -in pw.inp   Done                     12/27/2018 13:48:01
00029 suncat0167 pw.x -in pw.inp   Done                     12/27/2018 13:48:01
00030 suncat0167 pw.x -in pw.inp   Done                     12/27/2018 13:48:01
00031 suncat0167 pw.x -in pw.inp   Done                     12/27/2018 13:48:01
00032 suncat0166 pw.x -in pw.inp   Done                     12/27/2018 13:48:01
00033 suncat0166 pw.x -in pw.inp   Done                     12/27/2018 13:48:01
00034 suncat0166 pw.x -in pw.inp   Done                     12/27/2018 13:48:01
00035 suncat0166 pw.x -in pw.inp   Done                     12/27/2018 13:48:01
00036 suncat0166 pw.x -in pw.inp   Done                     12/27/2018 13:48:01
00037 suncat0166 pw.x -in pw.inp   Done                     12/27/2018 13:48:01
00038 suncat0166 pw.x -in pw.inp   Done                     12/27/2018 13:48:01
00039 suncat0166 pw.x -in pw.inp   Done                     12/27/2018 13:48:01
00040 suncat0165 pw.x -in pw.inp   Done                     12/27/2018 13:48:01
00041 suncat0165 pw.x -in pw.inp   Done                     12/27/2018 13:48:01
00042 suncat0165 pw.x -in pw.inp   Done                     12/27/2018 13:48:01
00043 suncat0165 pw.x -in pw.inp   Done                     12/27/2018 13:48:01
00044 suncat0165 pw.x -in pw.inp   Done                     12/27/2018 13:48:01
00045 suncat0165 pw.x -in pw.inp   Done                     12/27/2018 13:48:01
00046 suncat0165 pw.x -in pw.inp   Done                     12/27/2018 13:48:01
00047 suncat0165 pw.x -in pw.inp   Done                     12/27/2018 13:48:01
00048 suncat0164 pw.x -in pw.inp   Done                     12/27/2018 13:48:01
00049 suncat0164 pw.x -in pw.inp   Done                     12/27/2018 13:48:01
00050 suncat0164 pw.x -in pw.inp   Done                     12/27/2018 13:48:01
00051 suncat0164 pw.x -in pw.inp   Done                     12/27/2018 13:48:01
00052 suncat0164 pw.x -in pw.inp   Done                     12/27/2018 13:48:01
00053 suncat0164 pw.x -in pw.inp   Done                     12/27/2018 13:48:01
00054 suncat0164 pw.x -in pw.inp   Done                     12/27/2018 13:48:01
00055 suncat0164 pw.x -in pw.inp   Done                     12/27/2018 13:48:01
00056 suncat0143 pw.x -in pw.inp   Done                     12/27/2018 13:48:01
00057 suncat0143 pw.x -in pw.inp   Done                     12/27/2018 13:48:01
00058 suncat0143 pw.x -in pw.inp   Done                     12/27/2018 13:48:01
00059 suncat0143 pw.x -in pw.inp   Done                     12/27/2018 13:48:01
00060 suncat0143 pw.x -in pw.inp   Done                     12/27/2018 13:48:01
00061 suncat0143 pw.x -in pw.inp   Done                     12/27/2018 13:48:01
00062 suncat0143 pw.x -in pw.inp   Done                     12/27/2018 13:48:01
00063 suncat0143 pw.x -in pw.inp   Done                     12/27/2018 13:48:01