     Program PWSCF v.5.1rc2 (svn rev. 11289) starts on 30Dec2018 at 21:27:27

     Current dimensions of program PWSCF are:
     Max number of different atomic species (ntypx) = 10
     Max number of k-points (npk) =  40000
     Max angular momentum in pseudopotentials (lmaxx) =  3
     Presently stress not available with electric field

     IMPORTANT: XC functional enforced from input :
     Exchange-correlation      = BEEF-VDW ( 1  4 27 13 2)
     Any further DFT definition will be discarded
     Please, verify this is what you really want

     Subspace diagonalization in iterative solution of the eigenvalue problem:
     a serial algorithm will be used

     bravais-lattice index     =            0
     lattice parameter (alat)  =       1.8897  a.u.
     unit-cell volume          =    4891.9596 (a.u.)^3
     number of atoms/cell      =           12
     number of atomic types    =            2
     number of electrons       =       162.00
     number of Kohn-Sham states=          111
     kinetic-energy cutoff     =      36.7493  Ry
     charge density cutoff     =     367.4932  Ry
     convergence threshold     =      1.0E-06
     mixing beta               =       0.1000
     number of iterations used =           10  plain     mixing
     Exchange-correlation      = BEEF-VDW ( 1  4 27 13 2)
     nstep                     =           50

     celldm(1)=   1.889726  celldm(2)=   0.000000  celldm(3)=   0.000000
     celldm(4)=   0.000000  celldm(5)=   0.000000  celldm(6)=   0.000000

     crystal axes: (cart. coord. in units of alat)
               a(1) = (   5.815717   0.000000   0.000000 )
               a(2) = (  -2.907858   5.036559   0.000000 )
               a(3) = (   0.000000   0.000000  24.748513 )

     reciprocal axes: (cart. coord. in units 2 pi/alat)
               b(1) = (  0.171948  0.099274  0.000000 )
               b(2) = (  0.000000  0.198548  0.000000 )
               b(3) = (  0.000000  0.000000  0.040406 )

     PseudoPot. # 1 for Nb read from file:
     /afs/slac.stanford.edu/u/if/mamunm/psp/gbrv1.5pbe/Nb.UPF
     MD5 check sum: 573aab8a2fa660278ed4a62cd769473f
     Pseudo is Ultrasoft + core correction, Zval = 13.0
     Generated by new atomic code, or converted to UPF format
     Using radial grid of  887 points,  6 beta functions with:
                l(1) =   0
                l(2) =   0
                l(3) =   1
                l(4) =   1
                l(5) =   2
                l(6) =   2
     Q(r) pseudized with  6 coefficients,  rinner =    1.000   1.000   1.000
                                                       1.000   1.000

     PseudoPot. # 2 for Ir read from file:
     /afs/slac.stanford.edu/u/if/mamunm/psp/gbrv1.5pbe/Ir.UPF
     MD5 check sum: 8836f839c3459d2b385c504ce6d91f2c
     Pseudo is Ultrasoft + core correction, Zval = 15.0
     Generated by new atomic code, or converted to UPF format
     Using radial grid of  983 points,  7 beta functions with:
                l(1) =   0
                l(2) =   0
                l(3) =   1
                l(4) =   1
                l(5) =   1
                l(6) =   2
                l(7) =   2
     Q(r) pseudized with  8 coefficients,  rinner =    1.400   1.400   1.400
                                                       1.400   1.400

     vdW kernel table read from file vdW_kernel_table
     MD5 check sum: 095c7af220d748ca6e76c0b4c6cfb241

     atomic species   valence    mass     pseudopotential
        Nb1           13.00    92.90637     Nb( 1.00)
        Ir1           15.00   192.21700     Ir( 1.00)

     No symmetry found

   Cartesian axes

     site n.     atom                  positions (alat units)
         1           Nb1 tau(   1) = (   0.0000000   0.0000000  10.0000000  )
         2           Nb1 tau(   2) = (  -1.4539292   2.5182793  10.0000000  )
         3           Nb1 tau(   3) = (   1.4539292   2.5182793  10.0000000  )
         4           Ir1 tau(   4) = (   2.9078585   0.0000000  10.0000000  )
         5           Nb1 tau(   5) = (   2.9078585   1.6788529  12.3742565  )
         6           Nb1 tau(   6) = (   1.4539292   4.1971322  12.3742565  )
         7           Nb1 tau(   7) = (  -1.4539292   4.1971322  12.3742565  )
         8           Ir1 tau(   8) = (   0.0000000   1.6788529  12.3742565  )
         9           Nb1 tau(   9) = (  -0.0000000   3.3577057  14.7485130  )
        10           Nb1 tau(  10) = (   1.4539292   0.8394264  14.7485130  )
        11           Nb1 tau(  11) = (   4.3617877   0.8394264  14.7485130  )
        12           Ir1 tau(  12) = (   2.9078585   3.3577057  14.7485130  )

     number of k points=    20  Fermi-Dirac smearing, width (Ry)=  0.0110
                       cart. coord. in units 2pi/alat
        k(    1) = (   0.0000000   0.0000000   0.0000000), wk =   0.0555556
        k(    2) = (   0.0000000   0.0330914   0.0000000), wk =   0.1111111
        k(    3) = (   0.0000000   0.0661828   0.0000000), wk =   0.1111111
        k(    4) = (   0.0000000  -0.0992741   0.0000000), wk =   0.0555556
        k(    5) = (   0.0286580   0.0165457   0.0000000), wk =   0.1111111
        k(    6) = (   0.0286580   0.0496371   0.0000000), wk =   0.1111111
        k(    7) = (   0.0286580   0.0827284   0.0000000), wk =   0.1111111
        k(    8) = (   0.0286580  -0.0827284   0.0000000), wk =   0.1111111
        k(    9) = (   0.0286580  -0.0496371   0.0000000), wk =   0.1111111
        k(   10) = (   0.0286580  -0.0165457   0.0000000), wk =   0.1111111
        k(   11) = (   0.0573159   0.0330914   0.0000000), wk =   0.1111111
        k(   12) = (   0.0573159   0.0661828   0.0000000), wk =   0.1111111
        k(   13) = (   0.0573159   0.0992741   0.0000000), wk =   0.1111111
        k(   14) = (   0.0573159  -0.0661828   0.0000000), wk =   0.1111111
        k(   15) = (   0.0573159  -0.0330914   0.0000000), wk =   0.1111111
        k(   16) = (   0.0573159   0.0000000   0.0000000), wk =   0.1111111
        k(   17) = (  -0.0859739  -0.0496371   0.0000000), wk =   0.0555556
        k(   18) = (  -0.0859739  -0.0165457   0.0000000), wk =   0.1111111
        k(   19) = (  -0.0859739   0.0165457   0.0000000), wk =   0.1111111
        k(   20) = (  -0.0859739  -0.1489112   0.0000000), wk =   0.0555556

     Largest allocated arrays     est. size (Mb)     dimensions
     Largest temporary arrays     est. size (Mb)     dimensions

     Initial potential from superposition of free atoms
     Check: negative starting charge=   -1.092848

     starting charge  160.47531, renormalised to  162.00000

     negative rho (up, down):  1.103E+00 0.000E+00

     *
     * You are using vdW-DF for exchange-correlation in this calculation.
     * Please cite the following three references that made this development
     * possible:
     *
     *   M. Dion, H. Rydberg, E. Schroder, D. C. Langreth, and
     *   B. I. Lundqvist, Phys. Rev. Lett. 92, 246401 (2004).
     *
     *   T. Thonhauser, V. R. Cooper, S. Li, A. Puzder, P. Hyldgaard, and
     *   D. C. Langreth, Phys. Rev. B 76, 125112 (2007).
     *
     *   G. Roman-Perez and J. M. Soler, Phys. Rev. Lett. 103, 096102 (2009).
     *
     *
     * If you are using vdW-DF2, please also cite:
     *
     *   K. Lee, E. D. Murray, L. Kong, B. I. Lundqvist, and
     *   D. C. Langreth, Phys. Rev. B 82, 081101(R) (2010).
     *
     *
     * If you are calculating the stress with vdW-DF, please also cite:
     *
     *   R. Sabatini, E. Kucukbenli, B. Kolb, T. Thonhauser, and
     *   S. de Gironcoli, J. Phys.: Condens. Matter 24, 424209 (2012).
     *

     Carrying out vdW-DF run using the following parameters:

     Nqs =      20    Nr_points =    1024   r_max =   100.000
     q_mesh =
               0.00001000     0.04494208     0.09755937     0.15916263
               0.23128650     0.31572767     0.41458969     0.53033537
               0.66584808     0.82450364     1.01025438     1.22772762
               1.48234092     1.78043706     2.12944203     2.53805004
               3.01644009     3.57652955     4.23227104     5.00000000

     Gradients computed in reciprocal space

     Adding external electric field

     Computed dipole along edir(3) :
        Dipole                0.0000 Ry au,          0.0000 Debye
        Dipole field          0.0000 Ry au

        Potential amp.       -0.0000 Ry
        Total length         45.5987 bohr

     Starting wfc are  153 randomized atomic wfcs

     Self-consistent Calculation

     iteration #  1     ecut=    36.75 Ry     beta=0.10
     Davidson diagonalization with overlap
     ethr =  1.00E-02,  avg # of iterations =  2.0

[...]

     total energy              =   -1616.90843731 Ry
     Harris-Foulkes estimate   =   -1617.51896334 Ry
     estimated scf accuracy    <       4.01642936 Ry

[...]

     End of self-consistent calculation

          k = 0.0000 0.0000 0.0000 ( 18451 PWs)   bands (ev):

   -53.0180 -52.9939 -52.8757 -52.8757 -52.8694 -52.8694 -52.8506 -52.7421
   -52.7421 -46.8958 -46.8349 -46.8349 -46.4861 -46.4845 -46.4782 -46.4782
   -46.4778 -46.4778 -29.5684 -29.4351 -29.3803 -29.3013 -29.2806 -29.2806
   -29.2408 -29.2408 -29.1389 -29.1389 -29.1222 -28.9943 -28.9943 -28.8768
   -28.8768 -28.7399 -28.6595 -28.6149 -28.6035 -28.6035 -28.5016 -28.4526
   -28.4526 -28.4465 -28.4465 -28.3964 -28.3964  -4.2767  -2.9345  -2.7259
    -2.2887  -2.2887  -1.9994  -1.9261  -1.8949  -1.8949  -1.6295  -1.6295
    -1.5629  -1.4682  -1.4682  -1.1431  -0.5107  -0.5107   0.0185   0.0185
     0.0556   0.3371   0.6276   1.0215   1.4764   1.4764   1.6578   1.6578
     1.6947   1.8727   1.8727   1.8968   1.8968   1.9271   2.2633   2.2633
     2.5965   2.9104   2.9104   2.9540   3.0309   3.0518   3.0518   3.4734
     3.4734   3.9359   4.1702   4.3575   4.3575   4.6321   4.8220   4.8220
     4.9551   4.9551   5.5383   5.5383   5.5985   5.5985   5.9249   5.9587
     5.9587   5.9739   5.9739   6.1214   6.1697   6.2421   6.2421

[...]

          k =-0.0860-0.0496 0.0000 ( 18364 PWs)   bands (ev):

[...]

     the Fermi energy is     2.1689 ev

!    total energy              =   -1616.80430900 Ry
     Harris-Foulkes estimate   =   -1616.80428194 Ry
     estimated scf accuracy    <       0.00000037 Ry

     The total energy is the sum of the following terms:

     one-electron contribution =  -13028.12121463 Ry
     hartree contribution      =    6516.83733216 Ry
     xc contribution           =    -327.17596826 Ry
     ewald contribution        =    5221.75560317 Ry
     electric field correction =       0.00000001 Ry
     smearing contrib. (-TS)   =      -0.10006145 Ry

     convergence has been achieved in  16 iterations

 BEEF-vdW xc energy contributions
           1 :   -284.901558620524
           2 :    262.026191790137
           3 :   -222.147224017417
           4 :    174.642507775083
           5 :   -129.063437424740
           6 :    92.2033806388762
           7 :   -66.6585818851904
           8 :    51.1056213679953
           9 :   -41.8595705664407
          10 :    34.8464359817710
          11 :   -27.1956573702242
          12 :    17.9509773847395
          13 :   -7.85530717887281
          14 :   -1.49918323956831
          15 :    8.66149425062366
[...]

     PseudoPot. # 1 for Nb read from file:
     /afs/slac.stanford.edu/u/if/mamunm/psp/gbrv1.5pbe/Nb.UPF
     MD5 check sum: 573aab8a2fa660278ed4a62cd769473f
     Pseudo is Ultrasoft + core correction, Zval = 13.0
     Generated by new atomic code, or converted to UPF format
     Using radial grid of  887 points,  6 beta functions with:
                l(1) =   0
                l(2) =   0
                l(3) =   1
                l(4) =   1
                l(5) =   2
                l(6) =   2
     Q(r) pseudized with  6 coefficients,  rinner =    1.000   1.000   1.000
                                                       1.000   1.000

     PseudoPot. # 2 for Ir read from file:
     /afs/slac.stanford.edu/u/if/mamunm/psp/gbrv1.5pbe/Ir.UPF
     MD5 check sum: 8836f839c3459d2b385c504ce6d91f2c
     Pseudo is Ultrasoft + core correction, Zval = 15.0
     Generated by new atomic code, or converted to UPF format
     Using radial grid of  983 points,  7 beta functions with:
                l(1) =   0
                l(2) =   0
                l(3) =   1
                l(4) =   1
                l(5) =   1
                l(6) =   2
                l(7) =   2
     Q(r) pseudized with  8 coefficients,  rinner =    1.400   1.400   1.400
                                                       1.400   1.400

     vdW kernel table read from file vdW_kernel_table
     MD5 check sum: 095c7af220d748ca6e76c0b4c6cfb241

     atomic species   valence    mass     pseudopotential
        Nb1           13.00    92.90637     Nb( 1.00)
        Ir1           15.00   192.21700     Ir( 1.00)

     No symmetry found

   Cartesian axes

     site n.     atom                  positions (alat units)
         1           Nb1 tau(   1) = (   0.0000000   0.0000000  10.0000000  )
         2           Nb1 tau(   2) = (  -1.4539292   2.5182793  10.0000000  )
         3           Nb1 tau(   3) = (   1.4539292   2.5182793  10.0000000  )
         4           Ir1 tau(   4) = (   2.9078585   0.0000000  10.0000000  )
         5           Nb1 tau(   5) = (   2.9078585   1.6788529  12.3742565  )
         6           Nb1 tau(   6) = (   1.4539292   4.1971322  12.3742565  )
         7           Nb1 tau(   7) = (  -1.4539292   4.1971322  12.3742565  )
         8           Ir1 tau(   8) = (   0.0000000   1.6788529  12.3742565  )
         9           Nb1 tau(   9) = (   0.0000004   3.3058283  14.7395005  )
        10           Nb1 tau(  10) = (   1.4090027   0.8653652  14.7395007  )
        11           Nb1 tau(  11) = (   4.4067135   0.8653646  14.7395020  )
        12           Ir1 tau(  12) = (   2.9078606   3.3577055  14.6555614  )

     number of k points=    20  Fermi-Dirac smearing, width (Ry)=  0.0110
                       cart. coord. in units 2pi/alat
        k(    1) = (   0.0000000   0.0000000   0.0000000), wk =   0.0555556
        k(    2) = (   0.0000000   0.0330914   0.0000000), wk =   0.1111111
        k(    3) = (   0.0000000   0.0661828   0.0000000), wk =   0.1111111
        k(    4) = (   0.0000000  -0.0992741   0.0000000), wk =   0.0555556
        k(    5) = (   0.0286580   0.0165457   0.0000000), wk =   0.1111111
        k(    6) = (   0.0286580   0.0496371   0.0000000), wk =   0.1111111
        k(    7) = (   0.0286580   0.0827284   0.0000000), wk =   0.1111111
        k(    8) = (   0.0286580  -0.0827284   0.0000000), wk =   0.1111111
        k(    9) = (   0.0286580  -0.0496371   0.0000000), wk =   0.1111111
        k(   10) = (   0.0286580  -0.0165457   0.0000000), wk =   0.1111111
        k(   11) = (   0.0573159   0.0330914   0.0000000), wk =   0.1111111
        k(   12) = (   0.0573159   0.0661828   0.0000000), wk =   0.1111111
        k(   13) = (   0.0573159   0.0992741   0.0000000), wk =   0.1111111
        k(   14) = (   0.0573159  -0.0661828   0.0000000), wk =   0.1111111
        k(   15) = (   0.0573159  -0.0330914   0.0000000), wk =   0.1111111
        k(   16) = (   0.0573159   0.0000000   0.0000000), wk =   0.1111111
        k(   17) = (  -0.0859739  -0.0496371   0.0000000), wk =   0.0555556
        k(   18) = (  -0.0859739  -0.0165457   0.0000000), wk =   0.1111111
        k(   19) = (  -0.0859739   0.0165457   0.0000000), wk =   0.1111111
        k(   20) = (  -0.0859739  -0.1489112   0.0000000), wk =   0.0555556

     Largest allocated arrays     est. size (Mb)     dimensions
     Largest temporary arrays     est. size (Mb)     dimensions

     Initial potential from superposition of free atoms
     Check: negative starting charge=   -1.091398

     starting charge  160.47531, renormalised to  162.00000

[...]

     *
     * You are using vdW-DF for exchange-correlation in this calculation.
     * Please cite the following three references that made this development
     * possible:
     *
     *   M. Dion, H. Rydberg, E. Schroder, D. C. Langreth, and
     *   B. I. Lundqvist, Phys. Rev. Lett. 92, 246401 (2004).
     *
     *   T. Thonhauser, V. R. Cooper, S. Li, A. Puzder, P. Hyldgaard, and
     *   D. C. Langreth, Phys. Rev. B 76, 125112 (2007).
     *
     *   G. Roman-Perez and J. M. Soler, Phys. Rev. Lett. 103, 096102 (2009).
     *
     *
     * If you are using vdW-DF2, please also cite:
     *
     *   K. Lee, E. D. Murray, L. Kong, B. I. Lundqvist, and
     *   D. C. Langreth, Phys. Rev. B 82, 081101(R) (2010).
     *
     *
     * If you are calculating the stress with vdW-DF, please also cite:
     *
     *   R. Sabatini, E. Kucukbenli, B. Kolb, T. Thonhauser, and
     *   S. de Gironcoli, J. Phys.: Condens. Matter 24, 424209 (2012).
     *

     Carrying out vdW-DF run using the following parameters:

     Nqs =      20    Nr_points =    1024   r_max =   100.000
     q_mesh =
               0.00001000     0.04494208     0.09755937     0.15916263
               0.23128650     0.31572767     0.41458969     0.53033537
               0.66584808     0.82450364     1.01025438     1.22772762
               1.48234092     1.78043706     2.12944203     2.53805004
               3.01644009     3.57652955     4.23227104     5.00000000

     Gradients computed in reciprocal space

[...]

     Starting wfc are  153 randomized atomic wfcs

     Self-consistent Calculation

[...]

     total energy              =   -1616.81400709 Ry
     Harris-Foulkes estimate   =   -1616.81400079 Ry
     estimated scf accuracy    <       0.00000101 Ry

     iteration # 17     ecut=    36.75 Ry     beta=0.10
     Davidson diagonalization with overlap
     ethr =  6.24E-10,  avg # of iterations =  2.0

[...]

     negative rho (up, down):  9.649E-01 0.000E+00

     Adding external electric field

     Computed dipole along edir(3) :
        Dipole                0.0209 Ry au,          0.0531 Debye
        Dipole field          0.0001 Ry au

        Potential amp.       -0.0049 Ry
        Total length         45.5987 bohr

     End of self-consistent calculation

[...]

          k = 0.0573 0.0000 0.0000 ( 18413 PWs)   bands (ev):

[...]

          k =-0.0860-0.1489 0.0000 ( 18364 PWs)   bands (ev):

   -52.9361 -52.9299 -52.8962 -52.8722 -52.8463 -52.8306 -52.7773 -52.7497
   -52.7104 -46.8847 -46.8208 -46.8193 -46.5072 -46.4882 -46.4867 -46.4586
   -46.4501 -46.4486 -29.3321 -29.3223 -29.2508 -29.1996 -29.1407 -29.1188
   -29.0874 -29.0742 -29.0040 -28.9985 -28.9896 -28.9472 -28.9201 -28.8615
   -28.8538 -28.8372 -28.8233 -28.7779 -28.7251 -28.7049 -28.6860 -28.5555
   -28.5305 -28.5080 -28.4686 -28.4358 -28.3772  -2.9015  -2.5602  -1.8471
    -1.5712  -1.5078  -1.4054  -1.1606  -1.0717  -0.9633  -0.9619  -0.9403
    -0.7639  -0.6729  -0.5513  -0.4204  -0.3270  -0.2133  -0.0850  -0.0236
     0.0852   0.2554   0.3354   0.5605   0.6178   0.6808   0.8302   1.2039
     1.3203   1.3899   1.4425   1.5850   1.6906   1.7272   1.8073   1.8213
     1.8248   1.9052   2.0788   2.2596   2.4442   2.5752   2.8564   2.9304
     3.0395   3.2524   3.3496   3.3926   3.5301   3.6151   3.9449   3.9894
     4.0699   4.2804   4.3790   4.5080   4.6924   4.7926   4.8118   4.9938
     5.2420   5.3786   5.6723   5.9685   6.0139   6.0343   6.8336

     the Fermi energy is     2.1956 ev

!    total energy              =   -1616.81403167 Ry
     Harris-Foulkes estimate   =   -1616.81400732 Ry
     estimated scf accuracy    <       0.00000047 Ry

     The total energy is the sum of the following terms:

     one-electron contribution =  -13089.51670276 Ry
     hartree contribution      =    6547.69150180 Ry
     xc contribution           =    -327.24615217 Ry
     ewald contribution        =    5252.35666235 Ry
     electric field correction =       0.00000112 Ry
     smearing contrib. (-TS)   =      -0.09934201 Ry

     convergence has been achieved in  17 iterations

 BEEF-vdW xc energy contributions
           1 :   -285.113083140796
           2 :    262.262782803315
           3 :   -222.416556731975
           4 :    174.927630970524
           5 :   -129.329116505429
           6 :    92.4131701723666
           7 :   -66.7943022502899
           8 :    51.1788187261741
           9 :   -41.9077102061152
          10 :    34.9150006978746
          11 :   -27.3155580580460
          12 :    18.1236356678062
          13 :   -8.05408560321780
          14 :   -1.31286893649701
          15 :    8.51807596237944
          16 :   -12.9217609851258
          17 :    14.8625859662489
          18 :   -15.3261736255130
          19 :    15.3774712862661
          20 :   -15.6832392128431
          21 :    16.3294187068768
          22 :   -16.9561963002878
          23 :    17.0668347082959
          24 :   -16.3271487231808
          25 :    14.7170707272636
          26 :   -12.5044725395962
          27 :    10.0947866702958
          28 :   -7.85739208849787
          29 :    6.01112750887540
          30 :   -4.60688110479344
          31 :   -28.7258592660024
          32 :   -21.6357875056506

     Forces acting on atoms (Ry/au):

     negative rho (up, down):  9.649E-01 0.000E+00
     atom    1 type  1   force =    -0.00000018    0.01997941    0.00064569
     atom    2 type  1   force =     0.01730253   -0.00998991    0.00064566
     atom    3 type  1   force =    -0.01730262   -0.00998976    0.00064570
     atom    4 type  2   force =    -0.00000010   -0.00000031    0.02011745
     atom    5 type  1   force =    -0.00000006   -0.00583861   -0.00431321
     atom    6 type  1   force =    -0.00505626    0.00291934   -0.00431308
     atom    7 type  1   force =     0.00505622    0.00291948   -0.00431339
     atom    8 type  2   force =    -0.00000007    0.00000020   -0.00826591
     atom    9 type  1   force =     0.00000031    0.00005305   -0.00036425
     atom   10 type  1   force =     0.00004596   -0.00002642   -0.00036432
     atom   11 type  1   force =    -0.00004572   -0.00002657   -0.00036436
     atom   12 type  2   force =    -0.00000001    0.00000010    0.00024401

     Total force =     0.042783     Total SCF correction =     0.003065

     entering subroutine stress ...

     negative rho (up, down):  9.649E-01 0.000E+00
          total   stress  (Ry/bohr**3)                   (kbar)     P=  -25.18
  -0.00024101  -0.00000000   0.00000000        -35.45     -0.00      0.00
  -0.00000000  -0.00024101  -0.00000000         -0.00    -35.45     -0.00
   0.00000000  -0.00000000  -0.00003157          0.00     -0.00     -4.64

 !ASE

     Writing output data file calc.save

     General routines

     Parallel routines

   This run was terminated on:  22:29:13  30Dec2018

   JOB DONE.
Job  /afs/slac/g/suncat/bin/suncat-tsmpirun -x LD_LIBRARY_PATH -wdir /scratch/qe648637_Bz9eV pw.x -in pw.inp

TID   HOST_NAME   COMMAND_LINE            STATUS            TERMINATION_TIME
00000 suncat0040 pw.x -in pw.inp   Done                     12/30/2018 22:29:13
00001 suncat0040 pw.x -in pw.inp   Done                     12/30/2018 22:29:13
00002 suncat0040 pw.x -in pw.inp   Done                     12/30/2018 22:29:13
00003 suncat0040 pw.x -in pw.inp   Done                     12/30/2018 22:29:13
00004 suncat0040 pw.x -in pw.inp   Done                     12/30/2018 22:29:13
00005 suncat0040 pw.x -in pw.inp   Done                     12/30/2018 22:29:13
00006 suncat0040 pw.x -in pw.inp   Done                     12/30/2018 22:29:13
00007 suncat0040 pw.x -in pw.inp   Done                     12/30/2018 22:29:13
00008 suncat0017 pw.x -in pw.inp   Done                     12/30/2018 22:29:13
00009 suncat0017 pw.x -in pw.inp   Done                     12/30/2018 22:29:13
00010 suncat0017 pw.x -in pw.inp   Done                     12/30/2018 22:29:13
00011 suncat0017 pw.x -in pw.inp   Done                     12/30/2018 22:29:13
00012 suncat0017 pw.x -in pw.inp   Done                     12/30/2018 22:29:13
00013 suncat0017 pw.x -in pw.inp   Done                     12/30/2018 22:29:13
00014 suncat0017 pw.x -in pw.inp   Done                     12/30/2018 22:29:13
00015 suncat0017 pw.x -in pw.inp   Done                     12/30/2018 22:29:13
00016 suncat0195 pw.x -in pw.inp   Done                     12/30/2018 22:29:13
00017 suncat0195 pw.x -in pw.inp   Done                     12/30/2018 22:29:13
00018 suncat0195 pw.x -in pw.inp   Done                     12/30/2018 22:29:13
00019 suncat0195 pw.x -in pw.inp   Done                     12/30/2018 22:29:13
00020 suncat0195 pw.x -in pw.inp   Done                     12/30/2018 22:29:13
00021 suncat0195 pw.x -in pw.inp   Done                     12/30/2018 22:29:13
00022 suncat0195 pw.x -in pw.inp   Done                     12/30/2018 22:29:13
00023 suncat0195 pw.x -in pw.inp   Done                     12/30/2018 22:29:13
00024 suncat0003 pw.x -in pw.inp   Done                     12/30/2018 22:29:13
00025 suncat0003 pw.x -in pw.inp   Done                     12/30/2018 22:29:13
00026 suncat0003 pw.x -in pw.inp   Done                     12/30/2018 22:29:13
00027 suncat0003 pw.x -in pw.inp   Done                     12/30/2018 22:29:13
00028 suncat0003 pw.x -in pw.inp   Done                     12/30/2018 22:29:13
00029 suncat0003 pw.x -in pw.inp   Done                     12/30/2018 22:29:13
00030 suncat0003 pw.x -in pw.inp   Done                     12/30/2018 22:29:13
00031 suncat0003 pw.x -in pw.inp   Done                     12/30/2018 22:29:13
00032 suncat0002 pw.x -in pw.inp   Done                     12/30/2018 22:29:13
00033 suncat0002 pw.x -in pw.inp   Done                     12/30/2018 22:29:13
00034 suncat0002 pw.x -in pw.inp   Done                     12/30/2018 22:29:13
00035 suncat0002 pw.x -in pw.inp   Done                     12/30/2018 22:29:13
00036 suncat0002 pw.x -in pw.inp   Done                     12/30/2018 22:29:13
00037 suncat0002 pw.x -in pw.inp   Done                     12/30/2018 22:29:13
00038 suncat0002 pw.x -in pw.inp   Done                     12/30/2018 22:29:13
00039 suncat0002 pw.x -in pw.inp   Done                     12/30/2018 22:29:13
00040 suncat0179 pw.x -in pw.inp   Done                     12/30/2018 22:29:13
00041 suncat0179 pw.x -in pw.inp   Done                     12/30/2018 22:29:13
00042 suncat0179 pw.x -in pw.inp   Done                     12/30/2018 22:29:13
00043 suncat0179 pw.x -in pw.inp   Done                     12/30/2018 22:29:13
00044 suncat0179 pw.x -in pw.inp   Done                     12/30/2018 22:29:13
00045 suncat0179 pw.x -in pw.inp   Done                     12/30/2018 22:29:13
00046 suncat0179 pw.x -in pw.inp   Done                     12/30/2018 22:29:13
00047 suncat0179 pw.x -in pw.inp   Done                     12/30/2018 22:29:13
00048 suncat0283 pw.x -in pw.inp   Done                     12/30/2018 22:29:13
00049 suncat0283 pw.x -in pw.inp   Done                     12/30/2018 22:29:13
00050 suncat0283 pw.x -in pw.inp   Done                     12/30/2018 22:29:13
00051 suncat0283 pw.x -in pw.inp   Done                     12/30/2018 22:29:13
00052 suncat0283 pw.x -in pw.inp   Done                     12/30/2018 22:29:13
00053 suncat0283 pw.x -in pw.inp   Done                     12/30/2018 22:29:13
00054 suncat0283 pw.x -in pw.inp   Done                     12/30/2018 22:29:13
00055 suncat0283 pw.x -in pw.inp   Done                     12/30/2018 22:29:13
00056 suncat0282 pw.x -in pw.inp   Done                     12/30/2018 22:29:13
00057 suncat0282 pw.x -in pw.inp   Done                     12/30/2018 22:29:13
00058 suncat0282 pw.x -in pw.inp   Done                     12/30/2018 22:29:13
00059 suncat0282 pw.x -in pw.inp   Done                     12/30/2018 22:29:13
00060 suncat0282 pw.x -in pw.inp   Done                     12/30/2018 22:29:13
00061 suncat0282 pw.x -in pw.inp   Done                     12/30/2018 22:29:13
00062 suncat0282 pw.x -in pw.inp   Done                     12/30/2018 22:29:13
00063 suncat0282 pw.x -in pw.inp   Done                     12/30/2018 22:29:13