     Program PWSCF v.5.1rc2 (svn rev. 11289) starts on  2Jan2019 at 15:49:25

     Current dimensions of program PWSCF are:
     Max number of different atomic species (ntypx) = 10
     Max number of k-points (npk) =  40000
     Max angular momentum in pseudopotentials (lmaxx) =  3
     Presently stress not available with electric field

     IMPORTANT: XC functional enforced from input :
     Exchange-correlation      = BEEF-VDW ( 1  4 27 13 2)
     Any further DFT definition will be discarded
     Please, verify this is what you really want

     Subspace diagonalization in iterative solution of the eigenvalue problem:
     a serial algorithm will be used

     bravais-lattice index     =            0
     lattice parameter (alat)  =       1.8897  a.u.
     unit-cell volume          =    5189.6091 (a.u.)^3
     number of atoms/cell      =           12
     number of atomic types    =            2
     number of electrons       =       219.00
     number of Kohn-Sham states=          139
     kinetic-energy cutoff     =      36.7493  Ry
     charge density cutoff     =     367.4932  Ry
     convergence threshold     =      1.0E-06
     mixing beta               =       0.1000
     number of iterations used =           10  plain     mixing
     Exchange-correlation      = BEEF-VDW ( 1  4 27 13 2)
     nstep                     =           50

     celldm(1)=   1.889726  celldm(2)=   0.000000  celldm(3)=   0.000000
     celldm(4)=   0.000000  celldm(5)=   0.000000  celldm(6)=   0.000000

     crystal axes: (cart. coord. in units of alat)
               a(1) = (   5.974413   0.000000   0.000000 )
               a(2) = (  -2.987206   5.173993   0.000000 )
               a(3) = (   0.000000   0.000000  24.878087 )

     reciprocal axes: (cart. coord. in units 2 pi/alat)
               b(1) = (  0.167380  0.096637  0.000000 )
               b(2) = (  0.000000  0.193274  0.000000 )
               b(3) = (  0.000000  0.000000  0.040196 )

     PseudoPot. # 1 for Zn read from file:
     /afs/slac.stanford.edu/u/if/mamunm/psp/gbrv1.5pbe/Zn.UPF
     MD5 check sum: df62231357ef9e81f77b2b3087fa5675
     Pseudo is Ultrasoft, Zval = 20.0
     Generated by new atomic code, or converted to UPF format
     Using radial grid of  943 points,  6 beta functions with:
                l(1) =   0
                l(2) =   0
                l(3) =   1
                l(4) =   1
                l(5) =   2
                l(6) =   2
     Q(r) pseudized with  8 coefficients,  rinner =    1.100   1.100   1.100
                                                       1.100   1.100

     PseudoPot. # 2 for In read from file:
     /afs/slac.stanford.edu/u/if/mamunm/psp/gbrv1.5pbe/In.UPF
     MD5 check sum: 90777abd96fbb83f2e67db2a40c566b9
     Pseudo is Ultrasoft + core correction, Zval = 13.0
     Generated by new atomic code, or converted to UPF format
     Using radial grid of  889 points,  6 beta functions with:
                l(1) =   0
                l(2) =   0
                l(3) =   1
                l(4) =   1
                l(5) =   2
                l(6) =   2
     Q(r) pseudized with  6 coefficients,  rinner =    1.400   1.400   1.400
                                                       1.400   1.400

     vdW kernel table read from file vdW_kernel_table
     MD5 check sum: 095c7af220d748ca6e76c0b4c6cfb241

     atomic species   valence    mass     pseudopotential
        Zn1           20.00    65.38000     Zn( 1.00)
        In1           13.00   114.81800     In( 1.00)

     No symmetry found

   Cartesian axes

     site n.     atom                  positions (alat units)
         1           Zn1 tau(   1) = (   0.0000000   0.0000000  10.0000000  )
         2           Zn1 tau(   2) = (  -1.4936031   2.5869965  10.0000000  )
         3           Zn1 tau(   3) = (   1.4936031   2.5869965  10.0000000  )
         4           In1 tau(   4) = (   2.9872063   0.0000000  10.0000000  )
         5           Zn1 tau(   5) = (   2.9872063   1.7246644  12.4390437  )
         6           Zn1 tau(   6) = (   1.4936031   4.3116609  12.4390437  )
         7           Zn1 tau(   7) = (  -1.4936031   4.3116609  12.4390437  )
         8           In1 tau(   8) = (   0.0000000   1.7246644  12.4390437  )
         9           Zn1 tau(   9) = (  -0.0000000   3.4493287  14.8780874  )
        10           Zn1 tau(  10) = (   1.4936031   0.8623322  14.8780874  )
        11           Zn1 tau(  11) = (   4.4808094   0.8623322  14.8780874  )
        12           In1 tau(  12) = (   2.9872063   3.4493287  14.8780874  )

     number of k points=    20  Fermi-Dirac smearing, width (Ry)=  0.0110
                       cart. coord. in units 2pi/alat
        k(    1) = (   0.0000000   0.0000000   0.0000000), wk =   0.0555556
        k(    2) = (   0.0000000   0.0322124   0.0000000), wk =   0.1111111
        k(    3) = (   0.0000000   0.0644248   0.0000000), wk =   0.1111111
        k(    4) = (   0.0000000  -0.0966372   0.0000000), wk =   0.0555556
        k(    5) = (   0.0278967   0.0161062   0.0000000), wk =   0.1111111
        k(    6) = (   0.0278967   0.0483186   0.0000000), wk =   0.1111111
        k(    7) = (   0.0278967   0.0805310   0.0000000), wk =   0.1111111
        k(    8) = (   0.0278967  -0.0805310   0.0000000), wk =   0.1111111
        k(    9) = (   0.0278967  -0.0483186   0.0000000), wk =   0.1111111
        k(   10) = (   0.0278967  -0.0161062   0.0000000), wk =   0.1111111
        k(   11) = (   0.0557935   0.0322124   0.0000000), wk =   0.1111111
        k(   12) = (   0.0557935   0.0644248   0.0000000), wk =   0.1111111
        k(   13) = (   0.0557935   0.0966372   0.0000000), wk =   0.1111111
        k(   14) = (   0.0557935  -0.0644248   0.0000000), wk =   0.1111111
        k(   15) = (   0.0557935  -0.0322124   0.0000000), wk =   0.1111111
        k(   16) = (   0.0557935   0.0000000   0.0000000), wk =   0.1111111
        k(   17) = (  -0.0836902  -0.0483186   0.0000000), wk =   0.0555556
        k(   18) = (  -0.0836902  -0.0161062   0.0000000), wk =   0.1111111
        k(   19) = (  -0.0836902   0.0161062   0.0000000), wk =   0.1111111
        k(   20) = (  -0.0836902  -0.1449557   0.0000000), wk =   0.0555556

     Largest allocated arrays     est. size (Mb)     dimensions
     Largest temporary arrays     est. size (Mb)     dimensions

     Initial potential from superposition of free atoms
     Check: negative starting charge=   -0.000810

     starting charge  214.49873, renormalised to  219.00000

     negative rho (up, down):  8.273E-04 0.000E+00

     *
     * You are using vdW-DF for exchange-correlation in this calculation.
     * Please cite the following three references that made this development
     * possible:
     *
     *   M. Dion, H. Rydberg, E. Schroder, D. C. Langreth, and
     *   B. I. Lundqvist, Phys. Rev. Lett. 92, 246401 (2004).
     *
     *   T. Thonhauser, V. R. Cooper, S. Li, A. Puzder, P. Hyldgaard, and
     *   D. C. Langreth, Phys. Rev. B 76, 125112 (2007).
     *
     *   G. Roman-Perez and J. M. Soler, Phys. Rev. Lett. 103, 096102 (2009).
     *
     *
     * If you are using vdW-DF2, please also cite:
     *
     *   K. Lee, E. D. Murray, L. Kong, B. I. Lundqvist, and
     *   D. C. Langreth, Phys. Rev. B 82, 081101(R) (2010).
     *
     *
     * If you are calculating the stress with vdW-DF, please also cite:
     *
     *   R. Sabatini, E. Kucukbenli, B. Kolb, T. Thonhauser, and
     *   S. de Gironcoli, J. Phys.: Condens. Matter 24, 424209 (2012).
     *

     Carrying out vdW-DF run using the following parameters:

     Nqs =      20    Nr_points =    1024   r_max =   100.000
     q_mesh =
               0.00001000     0.04494208     0.09755937     0.15916263
               0.23128650     0.31572767     0.41458969     0.53033537
               0.66584808     0.82450364     1.01025438     1.22772762
               1.48234092     1.78043706     2.12944203     2.53805004
               3.01644009     3.57652955     4.23227104     5.00000000

     Gradients computed in reciprocal space

     Adding external electric field

     Computed dipole along edir(3) :
        Dipole               -0.0000 Ry au,         -0.0000 Debye
        Dipole field         -0.0000 Ry au

        Potential amp.        0.0000 Ry
        Total length         45.8375 bohr

     Starting wfc are  144 randomized atomic wfcs

     Self-consistent Calculation

     iteration #  1     ecut=    36.75 Ry     beta=0.10
     Davidson diagonalization with overlap
     ethr =  1.00E-02,  avg # of iterations =  7.1

[...]

     total energy              =   -4568.28327713 Ry
     Harris-Foulkes estimate   =   -4574.13505163 Ry
     estimated scf accuracy    <      33.05659628 Ry

[...]

     End of self-consistent calculation

          k = 0.0000 0.0000 0.0000 ( 19471 PWs)   bands (ev):

  -126.2462-126.2460-126.2432-126.1249-126.1249-126.1247-126.1246-126.1246
  -126.1246 -80.4327 -80.4319 -80.4299 -80.4291 -80.4287 -80.4259 -80.4180
   -80.4142 -80.4121 -80.3160 -80.3159 -80.3152 -80.3152 -80.3152 -80.3152
   -80.3064 -80.3064 -80.3064 -80.3064 -80.3044 -80.3042 -80.2979 -80.2978
   -80.2932 -80.2932 -80.2931 -80.2931 -14.6481 -14.6379 -14.6379 -14.6246
   -14.6246 -14.5490 -14.5477 -14.5291 -14.5291 -14.5274 -14.5274 -14.5190
   -14.5190 -14.5118 -14.5118  -8.8227  -7.7287  -7.6203  -7.5269  -7.4520
    -7.4056  -7.4047  -7.3845  -7.3479  -7.3185  -7.3181  -7.3138  -7.3135
    -7.2364  -7.2364  -7.1995  -7.1820  -7.1818  -7.1585  -7.0947  -7.0947
    -7.0611  -7.0571  -7.0558  -7.0343  -6.9954  -6.9941  -6.9596  -6.9596
    -6.9249  -6.9242  -6.9241  -6.8748  -6.8748  -6.8646  -6.8644  -6.8517
    -6.8517  -6.8326  -6.8323  -6.8297  -6.7915  -6.7519  -6.7519  -6.6855
    -6.6818  -6.6807  -4.3244  -2.6651  -2.5708  -2.5708  -2.5467  -2.3207
    -2.3206  -1.3596  -1.2499  -1.2499  -0.9089  -0.7767  -0.5505  -0.5505
     1.1050   1.2241   1.2241   1.4874   1.5784   1.5785   2.1691   3.5435
     4.1570   4.6982   4.7843   4.9278   4.9524   4.9525   5.0572   5.0572
     5.1601   6.6748   7.0248   7.5493   7.5494   7.5508   7.6223   7.7523
     7.7524   8.0887   8.0887

[...]

          k =-0.0837-0.0483 0.0000 ( 19548 PWs)   bands (ev):

[...]

     the Fermi energy is     0.2602 ev

!    total energy              =   -4569.18325593 Ry
     Harris-Foulkes estimate   =   -4569.18325337 Ry
     estimated scf accuracy    <       0.00000063 Ry

     The total energy is the sum of the following terms:

     one-electron contribution =  -25789.48194362 Ry
     hartree contribution      =   12898.22753464 Ry
     xc contribution           =    -507.87667833 Ry
     ewald contribution        =    8829.97435836 Ry
     electric field correction =       0.00000000 Ry
     smearing contrib. (-TS)   =      -0.02652698 Ry

     convergence has been achieved in  17 iterations

 BEEF-vdW xc energy contributions
           1 :   -449.307672400723
           2 :    407.840616024180
           3 :   -338.253793165465
           4 :    260.712337508186
           5 :   -193.113443983747
           6 :    144.357257667998
           7 :   -113.083618821592
           8 :    91.6563350365563
[...]
     Generated by new atomic code, or converted to UPF format
     Using radial grid of  943 points,  6 beta functions with:
                l(1) =   0
                l(2) =   0
                l(3) =   1
                l(4) =   1
                l(5) =   2
                l(6) =   2
     Q(r) pseudized with  8 coefficients,  rinner =    1.100   1.100   1.100
                                                       1.100   1.100

     PseudoPot. # 2 for In read from file:
     /afs/slac.stanford.edu/u/if/mamunm/psp/gbrv1.5pbe/In.UPF
     MD5 check sum: 90777abd96fbb83f2e67db2a40c566b9
     Pseudo is Ultrasoft + core correction, Zval = 13.0
     Generated by new atomic code, or converted to UPF format
     Using radial grid of  889 points,  6 beta functions with:
                l(1) =   0
                l(2) =   0
                l(3) =   1
                l(4) =   1
                l(5) =   2
                l(6) =   2
     Q(r) pseudized with  6 coefficients,  rinner =    1.400   1.400   1.400
                                                       1.400   1.400

     vdW kernel table read from file vdW_kernel_table
     MD5 check sum: 095c7af220d748ca6e76c0b4c6cfb241

     atomic species   valence    mass     pseudopotential
        Zn1           20.00    65.38000     Zn( 1.00)
        In1           13.00   114.81800     In( 1.00)

     No symmetry found

   Cartesian axes

     site n.     atom                  positions (alat units)
         1           Zn1 tau(   1) = (   0.0000000   0.0000000  10.0000000  )
         2           Zn1 tau(   2) = (  -1.4936031   2.5869965  10.0000000  )
         3           Zn1 tau(   3) = (   1.4936031   2.5869965  10.0000000  )
         4           In1 tau(   4) = (   2.9872063   0.0000000  10.0000000  )
         5           Zn1 tau(   5) = (   2.9872063   1.7246644  12.4390437  )
         6           Zn1 tau(   6) = (   1.4936031   4.3116609  12.4390437  )
         7           Zn1 tau(   7) = (  -1.4936031   4.3116609  12.4390437  )
         8           In1 tau(   8) = (   0.0000000   1.7246644  12.4390437  )
         9           Zn1 tau(   9) = (  -0.0000999   3.5366744  14.9102465  )
        10           Zn1 tau(  10) = (   1.5694158   0.8186441  14.9098129  )
        11           Zn1 tau(  11) = (   4.4050230   0.8187735  14.9098757  )
        12           In1 tau(  12) = (   2.9871987   3.4493887  15.1335710  )

     number of k points=    20  Fermi-Dirac smearing, width (Ry)=  0.0110
                       cart. coord. in units 2pi/alat
        k(    1) = (   0.0000000   0.0000000   0.0000000), wk =   0.0555556
        k(    2) = (   0.0000000   0.0322124   0.0000000), wk =   0.1111111
        k(    3) = (   0.0000000   0.0644248   0.0000000), wk =   0.1111111
        k(    4) = (   0.0000000  -0.0966372   0.0000000), wk =   0.0555556
        k(    5) = (   0.0278967   0.0161062   0.0000000), wk =   0.1111111
        k(    6) = (   0.0278967   0.0483186   0.0000000), wk =   0.1111111
        k(    7) = (   0.0278967   0.0805310   0.0000000), wk =   0.1111111
        k(    8) = (   0.0278967  -0.0805310   0.0000000), wk =   0.1111111
        k(    9) = (   0.0278967  -0.0483186   0.0000000), wk =   0.1111111
        k(   10) = (   0.0278967  -0.0161062   0.0000000), wk =   0.1111111
        k(   11) = (   0.0557935   0.0322124   0.0000000), wk =   0.1111111
        k(   12) = (   0.0557935   0.0644248   0.0000000), wk =   0.1111111
        k(   13) = (   0.0557935   0.0966372   0.0000000), wk =   0.1111111
        k(   14) = (   0.0557935  -0.0644248   0.0000000), wk =   0.1111111
        k(   15) = (   0.0557935  -0.0322124   0.0000000), wk =   0.1111111
        k(   16) = (   0.0557935   0.0000000   0.0000000), wk =   0.1111111
        k(   17) = (  -0.0836902  -0.0483186   0.0000000), wk =   0.0555556
        k(   18) = (  -0.0836902  -0.0161062   0.0000000), wk =   0.1111111
        k(   19) = (  -0.0836902   0.0161062   0.0000000), wk =   0.1111111
        k(   20) = (  -0.0836902  -0.1449557   0.0000000), wk =   0.0555556

     Largest allocated arrays     est. size (Mb)     dimensions
     Largest temporary arrays     est. size (Mb)     dimensions

     Initial potential from superposition of free atoms
     Check: negative starting charge=   -0.000829

     starting charge  214.49873, renormalised to  219.00000

[...]

     *
     * You are using vdW-DF for exchange-correlation in this calculation.
     * Please cite the following three references that made this development
     * possible:
     *
     *   M. Dion, H. Rydberg, E. Schroder, D. C. Langreth, and
     *   B. I. Lundqvist, Phys. Rev. Lett. 92, 246401 (2004).
     *
     *   T. Thonhauser, V. R. Cooper, S. Li, A. Puzder, P. Hyldgaard, and
     *   D. C. Langreth, Phys. Rev. B 76, 125112 (2007).
     *
     *   G. Roman-Perez and J. M. Soler, Phys. Rev. Lett. 103, 096102 (2009).
     *
     *
     * If you are using vdW-DF2, please also cite:
     *
     *   K. Lee, E. D. Murray, L. Kong, B. I. Lundqvist, and
     *   D. C. Langreth, Phys. Rev. B 82, 081101(R) (2010).
     *
     *
     * If you are calculating the stress with vdW-DF, please also cite:
     *
     *   R. Sabatini, E. Kucukbenli, B. Kolb, T. Thonhauser, and
     *   S. de Gironcoli, J. Phys.: Condens. Matter 24, 424209 (2012).
     *

     Carrying out vdW-DF run using the following parameters:

     Nqs =      20    Nr_points =    1024   r_max =   100.000
     q_mesh =
               0.00001000     0.04494208     0.09755937     0.15916263
               0.23128650     0.31572767     0.41458969     0.53033537
               0.66584808     0.82450364     1.01025438     1.22772762
               1.48234092     1.78043706     2.12944203     2.53805004
               3.01644009     3.57652955     4.23227104     5.00000000

     Gradients computed in reciprocal space

[...]

     Starting wfc are  144 randomized atomic wfcs

     Self-consistent Calculation

[...]

     total energy              =   -4569.20700706 Ry
     Harris-Foulkes estimate   =   -4569.20700653 Ry
     estimated scf accuracy    <       0.00000214 Ry

     iteration # 16     ecut=    36.75 Ry     beta=0.10
     Davidson diagonalization with overlap
     ethr =  9.77E-10,  avg # of iterations =  2.0

[...]

     negative rho (up, down):  1.062E-03 0.000E+00

     Adding external electric field

     Computed dipole along edir(3) :
        Dipole                0.0162 Ry au,          0.0413 Debye
        Dipole field          0.0000 Ry au

        Potential amp.       -0.0036 Ry
        Total length         45.8375 bohr

     End of self-consistent calculation

[...]

          k = 0.0558 0.0000 0.0000 ( 19501 PWs)   bands (ev):

[...]

          k =-0.0837-0.1450 0.0000 ( 19548 PWs)   bands (ev):

  -126.1834-126.1832-126.1832-126.0946-126.0945-126.0944-126.0850-126.0847
  -126.0846 -80.3680 -80.3673 -80.3669 -80.3668 -80.3667 -80.3664 -80.3550
   -80.3535 -80.3520 -80.2859 -80.2857 -80.2856 -80.2760 -80.2754 -80.2748
   -80.2728 -80.2724 -80.2723 -80.2672 -80.2670 -80.2656 -80.2652 -80.2641
   -80.2625 -80.2595 -80.2553 -80.2544 -14.5975 -14.5891 -14.5881 -14.5735
   -14.5725 -14.5219 -14.5035 -14.5019 -14.5001 -14.4943 -14.4872 -14.4741
   -14.4723 -14.4660 -14.4603  -7.6220  -7.4910  -7.3925  -7.3444  -7.3177
    -7.2874  -7.2649  -7.2407  -7.2336  -7.2328  -7.2053  -7.2040  -7.1818
    -7.1741  -7.1454  -7.1272  -7.1232  -7.1139  -7.0720  -7.0369  -7.0254
    -7.0222  -7.0002  -6.9994  -6.9883  -6.9824  -6.9791  -6.9692  -6.9592
    -6.9491  -6.9486  -6.9396  -6.9274  -6.9175  -6.9111  -6.9021  -6.8829
    -6.8794  -6.8590  -6.8383  -6.8202  -6.8166  -6.7901  -6.7297  -6.7175
    -6.6986  -6.6485  -5.5645  -5.2266  -3.9922  -3.7624  -3.1691  -2.8399
    -2.2951  -2.2609  -0.2853  -0.1314   0.4229   0.5293   1.7946   1.9737
     2.1852   2.2040   2.7244   3.3032   3.3637   3.4882   3.5577   3.6266
     4.1316   4.1643   4.8541   4.8722   4.9956   5.1549   5.5016   5.5441
     5.6251   5.7779   5.8515   5.9168   6.1059   6.1767   6.1906   6.2828
     6.4081   6.5125   6.5564

     the Fermi energy is     0.2822 ev

!    total energy              =   -4569.20701236 Ry
     Harris-Foulkes estimate   =   -4569.20700751 Ry
     estimated scf accuracy    <       0.00000009 Ry

     The total energy is the sum of the following terms:

     one-electron contribution =  -25563.13431689 Ry
     hartree contribution      =   12785.35833050 Ry
     xc contribution           =    -507.84186117 Ry
     ewald contribution        =    8716.43712831 Ry
     electric field correction =       0.00000064 Ry
     smearing contrib. (-TS)   =      -0.02629375 Ry

     convergence has been achieved in  16 iterations

 BEEF-vdW xc energy contributions
           1 :   -449.798643125802
           2 :    408.289685504125
           3 :   -338.651618745784
           4 :    261.089717441383
           5 :   -193.519509755931
           6 :    144.825275033388
           7 :   -113.609726164809
           8 :    92.2055705134292
           9 :   -72.8615242359552
          10 :    52.2380126968961
          11 :   -31.9887662536607
          12 :    15.9607029357576
          13 :   -6.56316730210688
          14 :    2.91128669109798
          15 :   -1.69081333877631
          16 :  -0.344987721926429
          17 :    4.29309011039084
          18 :   -8.86582372062969
          19 :    11.8913540549584
          20 :   -12.2053881028713
          21 :    10.4927456240880
          22 :   -8.60383362921800
          23 :    8.05862183714885
          24 :   -8.97380806371376
          25 :    10.1846094818185
          26 :   -10.3386492355369
          27 :    9.01343852491385
          28 :   -6.98648638372288
          29 :    5.52552536325572
          30 :   -5.34428214722612
          31 :   -36.0847989714107
          32 :   -24.9617344411354

     Forces acting on atoms (Ry/au):

     negative rho (up, down):  1.062E-03 0.000E+00
     atom    1 type  1   force =     0.00000062   -0.00563564   -0.00220703
     atom    2 type  1   force =    -0.00488139    0.00281757   -0.00220619
     atom    3 type  1   force =     0.00488108    0.00281767   -0.00220626
     atom    4 type  2   force =    -0.00000048    0.00000114   -0.01634841
     atom    5 type  1   force =     0.00000037    0.00533388    0.00538655
     atom    6 type  1   force =     0.00461523   -0.00266878    0.00539091
     atom    7 type  1   force =    -0.00461627   -0.00266785    0.00538756
     atom    8 type  2   force =     0.00000032    0.00000619    0.01092755
     atom    9 type  1   force =     0.00000998   -0.00033877   -0.00186201
     atom   10 type  1   force =    -0.00029566    0.00016704   -0.00184063
     atom   11 type  1   force =     0.00029787    0.00015729   -0.00184245
     atom   12 type  2   force =    -0.00001167    0.00001026    0.00142042

     Total force =     0.026107     Total SCF correction =     0.002425

     entering subroutine stress ...

     negative rho (up, down):  1.062E-03 0.000E+00
          total   stress  (Ry/bohr**3)                   (kbar)     P=  -10.96
  -0.00010139  -0.00000000  -0.00000000        -14.91     -0.00     -0.00
  -0.00000000  -0.00010140  -0.00000000         -0.00    -14.92     -0.00
  -0.00000000  -0.00000000  -0.00002077         -0.00     -0.00     -3.06

 !ASE

     Writing output data file calc.save

     General routines

     Parallel routines

   This run was terminated on:  16:47:51   2Jan2019

   JOB DONE.
Job  /afs/slac/g/suncat/bin/suncat-tsmpirun -x LD_LIBRARY_PATH -wdir /scratch/qe649480_OTJXm pw.x -in pw.inp

TID   HOST_NAME   COMMAND_LINE            STATUS            TERMINATION_TIME
00000 suncat0068 pw.x -in pw.inp   Done                     01/02/2019 16:47:51
00001 suncat0068 pw.x -in pw.inp   Done                     01/02/2019 16:47:51
00002 suncat0068 pw.x -in pw.inp   Done                     01/02/2019 16:47:51
00003 suncat0068 pw.x -in pw.inp   Done                     01/02/2019 16:47:51
00004 suncat0068 pw.x -in pw.inp   Done                     01/02/2019 16:47:51
00005 suncat0068 pw.x -in pw.inp   Done                     01/02/2019 16:47:51
00006 suncat0068 pw.x -in pw.inp   Done                     01/02/2019 16:47:51
00007 suncat0068 pw.x -in pw.inp   Done                     01/02/2019 16:47:51
00008 suncat0065 pw.x -in pw.inp   Done                     01/02/2019 16:47:51
00009 suncat0065 pw.x -in pw.inp   Done                     01/02/2019 16:47:51
00010 suncat0065 pw.x -in pw.inp   Done                     01/02/2019 16:47:51
00011 suncat0065 pw.x -in pw.inp   Done                     01/02/2019 16:47:51
00012 suncat0065 pw.x -in pw.inp   Done                     01/02/2019 16:47:51
00013 suncat0065 pw.x -in pw.inp   Done                     01/02/2019 16:47:51
00014 suncat0065 pw.x -in pw.inp   Done                     01/02/2019 16:47:51
00015 suncat0065 pw.x -in pw.inp   Done                     01/02/2019 16:47:51
00016 suncat0064 pw.x -in pw.inp   Done                     01/02/2019 16:47:51
00017 suncat0064 pw.x -in pw.inp   Done                     01/02/2019 16:47:51
00018 suncat0064 pw.x -in pw.inp   Done                     01/02/2019 16:47:51
00019 suncat0064 pw.x -in pw.inp   Done                     01/02/2019 16:47:51
00020 suncat0064 pw.x -in pw.inp   Done                     01/02/2019 16:47:51
00021 suncat0064 pw.x -in pw.inp   Done                     01/02/2019 16:47:51
00022 suncat0064 pw.x -in pw.inp   Done                     01/02/2019 16:47:51
00023 suncat0064 pw.x -in pw.inp   Done                     01/02/2019 16:47:51
00024 suncat0059 pw.x -in pw.inp   Done                     01/02/2019 16:47:51
00025 suncat0059 pw.x -in pw.inp   Done                     01/02/2019 16:47:51
00026 suncat0059 pw.x -in pw.inp   Done                     01/02/2019 16:47:51
00027 suncat0059 pw.x -in pw.inp   Done                     01/02/2019 16:47:51
00028 suncat0059 pw.x -in pw.inp   Done                     01/02/2019 16:47:51
00029 suncat0059 pw.x -in pw.inp   Done                     01/02/2019 16:47:51
00030 suncat0059 pw.x -in pw.inp   Done                     01/02/2019 16:47:51
00031 suncat0059 pw.x -in pw.inp   Done                     01/02/2019 16:47:51
00032 suncat0169 pw.x -in pw.inp   Done                     01/02/2019 16:47:51
00033 suncat0169 pw.x -in pw.inp   Done                     01/02/2019 16:47:51
00034 suncat0169 pw.x -in pw.inp   Done                     01/02/2019 16:47:51
00035 suncat0169 pw.x -in pw.inp   Done                     01/02/2019 16:47:51
00036 suncat0169 pw.x -in pw.inp   Done                     01/02/2019 16:47:51
00037 suncat0169 pw.x -in pw.inp   Done                     01/02/2019 16:47:51
00038 suncat0169 pw.x -in pw.inp   Done                     01/02/2019 16:47:51
00039 suncat0169 pw.x -in pw.inp   Done                     01/02/2019 16:47:51
00040 suncat0168 pw.x -in pw.inp   Done                     01/02/2019 16:47:51
00041 suncat0168 pw.x -in pw.inp   Done                     01/02/2019 16:47:51
00042 suncat0168 pw.x -in pw.inp   Done                     01/02/2019 16:47:51
00043 suncat0168 pw.x -in pw.inp   Done                     01/02/2019 16:47:51
00044 suncat0168 pw.x -in pw.inp   Done                     01/02/2019 16:47:51
00045 suncat0168 pw.x -in pw.inp   Done                     01/02/2019 16:47:51
00046 suncat0168 pw.x -in pw.inp   Done                     01/02/2019 16:47:51
00047 suncat0168 pw.x -in pw.inp   Done                     01/02/2019 16:47:51
00048 suncat0156 pw.x -in pw.inp   Done                     01/02/2019 16:47:51
00049 suncat0156 pw.x -in pw.inp   Done                     01/02/2019 16:47:51
00050 suncat0156 pw.x -in pw.inp   Done                     01/02/2019 16:47:51
00051 suncat0156 pw.x -in pw.inp   Done                     01/02/2019 16:47:51
00052 suncat0156 pw.x -in pw.inp   Done                     01/02/2019 16:47:51
00053 suncat0156 pw.x -in pw.inp   Done                     01/02/2019 16:47:51
00054 suncat0156 pw.x -in pw.inp   Done                     01/02/2019 16:47:51
00055 suncat0156 pw.x -in pw.inp   Done                     01/02/2019 16:47:51
00056 suncat0153 pw.x -in pw.inp   Done                     01/02/2019 16:47:51
00057 suncat0153 pw.x -in pw.inp   Done                     01/02/2019 16:47:51
00058 suncat0153 pw.x -in pw.inp   Done                     01/02/2019 16:47:51
00059 suncat0153 pw.x -in pw.inp   Done                     01/02/2019 16:47:51
00060 suncat0153 pw.x -in pw.inp   Done                     01/02/2019 16:47:51
00061 suncat0153 pw.x -in pw.inp   Done                     01/02/2019 16:47:51
00062 suncat0153 pw.x -in pw.inp   Done                     01/02/2019 16:47:51
00063 suncat0153 pw.x -in pw.inp   Done                     01/02/2019 16:47:51