     Program PWSCF v.5.1rc2 (svn rev. 11289) starts on 19Dec2018 at 16:11: 6

     Current dimensions of program PWSCF are:
     Max number of different atomic species (ntypx) = 10
     Max number of k-points (npk) =  40000
     Max angular momentum in pseudopotentials (lmaxx) =  3
     Presently stress not available with electric field

     IMPORTANT: XC functional enforced from input :
     Exchange-correlation      = BEEF-VDW ( 1  4 27 13 2)
     Any further DFT definition will be discarded
     Please, verify this is what you really want

     Subspace diagonalization in iterative solution of the eigenvalue problem:
     a serial algorithm will be used

     bravais-lattice index     =            0
     lattice parameter (alat)  =       1.8897  a.u.
     unit-cell volume          =    5124.2448 (a.u.)^3
     number of atoms/cell      =           12
     number of atomic types    =            2
     number of electrons       =       210.00
     number of Kohn-Sham states=          135
     kinetic-energy cutoff     =      36.7493  Ry
     charge density cutoff     =     367.4932  Ry
     convergence threshold     =      1.0E-06
     mixing beta               =       0.1000
     number of iterations used =           10  plain     mixing
     Exchange-correlation      = BEEF-VDW ( 1  4 27 13 2)
     nstep                     =           50

     celldm(1)=   1.889726  celldm(2)=   0.000000  celldm(3)=   0.000000
     celldm(4)=   0.000000  celldm(5)=   0.000000  celldm(6)=   0.000000

     crystal axes: (cart. coord. in units of alat)
               a(1) = (   5.940022   0.000000   0.000000 )
               a(2) = (  -2.970011   5.144210   0.000000 )
               a(3) = (   0.000000   0.000000  24.850008 )

     reciprocal axes: (cart. coord. in units 2 pi/alat)
               b(1) = (  0.168350  0.097197  0.000000 )
               b(2) = (  0.000000  0.194393  0.000000 )
               b(3) = (  0.000000  0.000000  0.040241 )

     PseudoPot. # 1 for Ag read from file:
     /afs/slac.stanford.edu/u/if/mamunm/psp/gbrv1.5pbe/Ag.UPF
     MD5 check sum: d66d668201baa78d5eb5b04ef7011058
     Pseudo is Ultrasoft + core correction, Zval = 19.0
     Generated by new atomic code, or converted to UPF format
     Using radial grid of  887 points,  6 beta functions with:
                l(1) =   0
                l(2) =   0
                l(3) =   1
                l(4) =   1
                l(5) =   2
                l(6) =   2
     Q(r) pseudized with  6 coefficients,  rinner =    1.300   1.300   1.300
                                                       1.300   1.300

     PseudoPot. # 2 for Ta read from file:
     /afs/slac.stanford.edu/u/if/mamunm/psp/gbrv1.5pbe/Ta.UPF
     MD5 check sum: f8bbe9446314a3b8ea5d9f3e3836c939
     Pseudo is Ultrasoft + core correction, Zval = 13.0
     Generated by new atomic code, or converted to UPF format
     Using radial grid of  921 points,  7 beta functions with:
                l(1) =   0
                l(2) =   0
                l(3) =   1
                l(4) =   1
                l(5) =   2
                l(6) =   2
                l(7) =   3
     Q(r) pseudized with  6 coefficients,  rinner =    1.300   1.300   1.300
                                                       1.300   1.300   1.300
                                                       1.300

     vdW kernel table read from file vdW_kernel_table
     MD5 check sum: 095c7af220d748ca6e76c0b4c6cfb241

     atomic species   valence    mass     pseudopotential
        Ag1           19.00   107.86820     Ag( 1.00)
        Ta1           13.00   180.94788     Ta( 1.00)

     No symmetry found

   Cartesian axes

     site n.     atom                  positions (alat units)
         1           Ag1 tau(   1) = (   0.0000000   0.0000000  10.0000000  )
         2           Ag1 tau(   2) = (  -1.4850055   2.5721050  10.0000000  )
         3           Ag1 tau(   3) = (   1.4850055   2.5721050  10.0000000  )
         4           Ta1 tau(   4) = (   2.9700110   0.0000000  10.0000000  )
         5           Ag1 tau(   5) = (   2.9700110   1.7147367  12.4250038  )
         6           Ag1 tau(   6) = (   1.4850055   4.2868416  12.4250038  )
         7           Ag1 tau(   7) = (  -1.4850055   4.2868416  12.4250038  )
         8           Ta1 tau(   8) = (   0.0000000   1.7147367  12.4250038  )
         9           Ag1 tau(   9) = (  -0.0000000   3.4294733  14.8500077  )
        10           Ag1 tau(  10) = (   1.4850055   0.8573683  14.8500077  )
        11           Ag1 tau(  11) = (   4.4550165   0.8573683  14.8500077  )
        12           Ta1 tau(  12) = (   2.9700110   3.4294733  14.8500077  )

     number of k points=    20  Fermi-Dirac smearing, width (Ry)=  0.0110
                       cart. coord. in units 2pi/alat
        k(    1) = (   0.0000000   0.0000000   0.0000000), wk =   0.0555556
        k(    2) = (   0.0000000   0.0323989   0.0000000), wk =   0.1111111
        k(    3) = (   0.0000000   0.0647978   0.0000000), wk =   0.1111111
        k(    4) = (   0.0000000  -0.0971967   0.0000000), wk =   0.0555556
        k(    5) = (   0.0280583   0.0161994   0.0000000), wk =   0.1111111
        k(    6) = (   0.0280583   0.0485983   0.0000000), wk =   0.1111111
        k(    7) = (   0.0280583   0.0809972   0.0000000), wk =   0.1111111
        k(    8) = (   0.0280583  -0.0809972   0.0000000), wk =   0.1111111
        k(    9) = (   0.0280583  -0.0485983   0.0000000), wk =   0.1111111
        k(   10) = (   0.0280583  -0.0161994   0.0000000), wk =   0.1111111
        k(   11) = (   0.0561165   0.0323989   0.0000000), wk =   0.1111111
        k(   12) = (   0.0561165   0.0647978   0.0000000), wk =   0.1111111
        k(   13) = (   0.0561165   0.0971967   0.0000000), wk =   0.1111111
        k(   14) = (   0.0561165  -0.0647978   0.0000000), wk =   0.1111111
        k(   15) = (   0.0561165  -0.0323989   0.0000000), wk =   0.1111111
        k(   16) = (   0.0561165   0.0000000   0.0000000), wk =   0.1111111
        k(   17) = (  -0.0841748  -0.0485983   0.0000000), wk =   0.0555556
        k(   18) = (  -0.0841748  -0.0161994   0.0000000), wk =   0.1111111
        k(   19) = (  -0.0841748   0.0161994   0.0000000), wk =   0.1111111
        k(   20) = (  -0.0841748  -0.1457950   0.0000000), wk =   0.0555556

     Largest allocated arrays     est. size (Mb)     dimensions
     Largest temporary arrays     est. size (Mb)     dimensions

     Initial potential from superposition of free atoms
     Check: negative starting charge=   -0.285482

     starting charge  205.49624, renormalised to  210.00000

     negative rho (up, down):  2.917E-01 0.000E+00

     *
     * You are using vdW-DF for exchange-correlation in this calculation.
     * Please cite the following three references that made this development
     * possible:
     *
     *   M. Dion, H. Rydberg, E. Schroder, D. C. Langreth, and
     *   B. I. Lundqvist, Phys. Rev. Lett. 92, 246401 (2004).
     *
     *   T. Thonhauser, V. R. Cooper, S. Li, A. Puzder, P. Hyldgaard, and
     *   D. C. Langreth, Phys. Rev. B 76, 125112 (2007).
     *
     *   G. Roman-Perez and J. M. Soler, Phys. Rev. Lett. 103, 096102 (2009).
     *
     *
     * If you are using vdW-DF2, please also cite:
     *
     *   K. Lee, E. D. Murray, L. Kong, B. I. Lundqvist, and
     *   D. C. Langreth, Phys. Rev. B 82, 081101(R) (2010).
     *
     *
     * If you are calculating the stress with vdW-DF, please also cite:
     *
     *   R. Sabatini, E. Kucukbenli, B. Kolb, T. Thonhauser, and
     *   S. de Gironcoli, J. Phys.: Condens. Matter 24, 424209 (2012).
     *

     Carrying out vdW-DF run using the following parameters:

     Nqs =      20    Nr_points =    1024   r_max =   100.000
     q_mesh =
               0.00001000     0.04494208     0.09755937     0.15916263
               0.23128650     0.31572767     0.41458969     0.53033537
               0.66584808     0.82450364     1.01025438     1.22772762
               1.48234092     1.78043706     2.12944203     2.53805004
               3.01644009     3.57652955     4.23227104     5.00000000

     Gradients computed in reciprocal space

     Adding external electric field

     Computed dipole along edir(3) :
        Dipole                0.0000 Ry au,          0.0000 Debye
        Dipole field          0.0000 Ry au

        Potential amp.       -0.0000 Ry
        Total length         45.7857 bohr

     Starting wfc are  156 randomized atomic wfcs

     Self-consistent Calculation

     iteration #  1     ecut=    36.75 Ry     beta=0.10
     Davidson diagonalization with overlap
     ethr =  1.00E-02,  avg # of iterations =  6.8

[...]

     total energy              =   -3099.01044281 Ry
     Harris-Foulkes estimate   =   -3101.36112771 Ry
     estimated scf accuracy    <      13.92882552 Ry

[...]

     End of self-consistent calculation

          k = 0.0000 0.0000 0.0000 ( 19267 PWs)   bands (ev):

   -90.5894 -90.5837 -90.5837 -90.5269 -90.5267 -90.5213 -90.5213 -90.5213
   -90.5213 -67.7358 -67.7160 -67.7160 -54.1216 -54.1206 -54.1206 -54.1027
   -54.1027 -54.0901 -54.0901 -54.0862 -54.0798 -54.0798 -54.0590 -54.0559
   -54.0377 -54.0288 -54.0268 -53.9895 -53.9895 -53.9895 -53.9895 -53.9722
   -53.9722 -53.9490 -53.9395 -53.9106 -53.9106 -53.9087 -53.9087 -34.0740
   -34.0727 -34.0569 -33.9589 -33.9589 -33.9447 -33.9447 -33.9435 -33.9435
    -5.4041  -4.4960  -4.3809  -4.2404  -4.1610  -4.1610  -4.1122  -3.9929
    -3.9840  -3.9840  -3.9639  -3.9639  -3.9607  -3.8088  -3.8088  -3.3419
    -3.2137  -3.2137  -3.2135  -3.2135  -2.9860  -2.9751  -2.9030  -2.7950
    -2.7950  -2.7261  -2.7261  -2.6907  -2.6907  -2.5464  -2.5464  -2.4807
    -2.3927  -2.3597  -2.3597  -2.1698  -2.1698  -2.0909  -2.0909  -1.9334
    -1.9334  -1.8583  -1.6606  -1.6606  -1.5923  -1.5367  -1.4828  -0.3000
     0.6081   1.1080   1.2921   1.2921   1.3078   1.3078   1.6617   1.6617
     1.8905   1.9211   1.9211   2.3690   2.4694   2.4694   2.6294   2.6346
     2.6346   2.9283   2.9283   4.0859   4.0859   4.2407   4.2489   4.2489
     4.3670   5.2505   5.5392   5.8682   6.2665   6.4315   6.9343   6.9855
     6.9855   7.0084   7.0084   7.2228   7.7730   8.1063   8.1063

[...]

          k =-0.0842-0.0486 0.0000 ( 19348 PWs)   bands (ev):

[...]

     the Fermi energy is     1.6670 ev

!    total energy              =   -3098.90636997 Ry
     Harris-Foulkes estimate   =   -3098.90637171 Ry
     estimated scf accuracy    <       0.00000031 Ry

     The total energy is the sum of the following terms:

     one-electron contribution =  -21885.19739654 Ry
     hartree contribution      =   10930.40023078 Ry
     xc contribution           =    -400.73129591 Ry
     ewald contribution        =    8256.71705725 Ry
     electric field correction =       0.00000000 Ry
     smearing contrib. (-TS)   =      -0.09496555 Ry

     convergence has been achieved in  17 iterations

 BEEF-vdW xc energy contributions
           1 :   -349.094347219785
           2 :    318.341014476559
           3 :   -266.130865997999
           4 :    206.915032192970
           5 :   -154.420727469008
           6 :    116.871454604886
[...]
                l(2) =   0
                l(3) =   1
                l(4) =   1
                l(5) =   2
                l(6) =   2
     Q(r) pseudized with  6 coefficients,  rinner =    1.300   1.300   1.300
                                                       1.300   1.300

     PseudoPot. # 2 for Ta read from file:
     /afs/slac.stanford.edu/u/if/mamunm/psp/gbrv1.5pbe/Ta.UPF
     MD5 check sum: f8bbe9446314a3b8ea5d9f3e3836c939
     Pseudo is Ultrasoft + core correction, Zval = 13.0
     Generated by new atomic code, or converted to UPF format
     Using radial grid of  921 points,  7 beta functions with:
                l(1) =   0
                l(2) =   0
                l(3) =   1
                l(4) =   1
                l(5) =   2
                l(6) =   2
                l(7) =   3
     Q(r) pseudized with  6 coefficients,  rinner =    1.300   1.300   1.300
                                                       1.300   1.300   1.300
                                                       1.300

     vdW kernel table read from file vdW_kernel_table
     MD5 check sum: 095c7af220d748ca6e76c0b4c6cfb241

     atomic species   valence    mass     pseudopotential
        Ag1           19.00   107.86820     Ag( 1.00)
        Ta1           13.00   180.94788     Ta( 1.00)

     No symmetry found

   Cartesian axes

     site n.     atom                  positions (alat units)
         1           Ag1 tau(   1) = (   0.0000000   0.0000000  10.0000000  )
         2           Ag1 tau(   2) = (  -1.4850055   2.5721050  10.0000000  )
         3           Ag1 tau(   3) = (   1.4850055   2.5721050  10.0000000  )
         4           Ta1 tau(   4) = (   2.9700110   0.0000000  10.0000000  )
         5           Ag1 tau(   5) = (   2.9700110   1.7147367  12.4250038  )
         6           Ag1 tau(   6) = (   1.4850055   4.2868416  12.4250038  )
         7           Ag1 tau(   7) = (  -1.4850055   4.2868416  12.4250038  )
         8           Ta1 tau(   8) = (   0.0000000   1.7147367  12.4250038  )
         9           Ag1 tau(   9) = (   0.0000002   3.4180487  14.8527040  )
        10           Ag1 tau(  10) = (   1.4751099   0.8630803  14.8527040  )
        11           Ag1 tau(  11) = (   4.4649110   0.8630792  14.8527056  )
        12           Ta1 tau(  12) = (   2.9700115   3.4294722  14.6530080  )

     number of k points=    20  Fermi-Dirac smearing, width (Ry)=  0.0110
                       cart. coord. in units 2pi/alat
        k(    1) = (   0.0000000   0.0000000   0.0000000), wk =   0.0555556
        k(    2) = (   0.0000000   0.0323989   0.0000000), wk =   0.1111111
        k(    3) = (   0.0000000   0.0647978   0.0000000), wk =   0.1111111
        k(    4) = (   0.0000000  -0.0971967   0.0000000), wk =   0.0555556
        k(    5) = (   0.0280583   0.0161994   0.0000000), wk =   0.1111111
        k(    6) = (   0.0280583   0.0485983   0.0000000), wk =   0.1111111
        k(    7) = (   0.0280583   0.0809972   0.0000000), wk =   0.1111111
        k(    8) = (   0.0280583  -0.0809972   0.0000000), wk =   0.1111111
        k(    9) = (   0.0280583  -0.0485983   0.0000000), wk =   0.1111111
        k(   10) = (   0.0280583  -0.0161994   0.0000000), wk =   0.1111111
        k(   11) = (   0.0561165   0.0323989   0.0000000), wk =   0.1111111
        k(   12) = (   0.0561165   0.0647978   0.0000000), wk =   0.1111111
        k(   13) = (   0.0561165   0.0971967   0.0000000), wk =   0.1111111
        k(   14) = (   0.0561165  -0.0647978   0.0000000), wk =   0.1111111
        k(   15) = (   0.0561165  -0.0323989   0.0000000), wk =   0.1111111
        k(   16) = (   0.0561165   0.0000000   0.0000000), wk =   0.1111111
        k(   17) = (  -0.0841748  -0.0485983   0.0000000), wk =   0.0555556
        k(   18) = (  -0.0841748  -0.0161994   0.0000000), wk =   0.1111111
        k(   19) = (  -0.0841748   0.0161994   0.0000000), wk =   0.1111111
        k(   20) = (  -0.0841748  -0.1457950   0.0000000), wk =   0.0555556

     Largest allocated arrays     est. size (Mb)     dimensions
     Largest temporary arrays     est. size (Mb)     dimensions

     Initial potential from superposition of free atoms
     Check: negative starting charge=   -0.285433

     starting charge  205.49624, renormalised to  210.00000

[...]

     *
     * You are using vdW-DF for exchange-correlation in this calculation.
     * Please cite the following three references that made this development
     * possible:
     *
     *   M. Dion, H. Rydberg, E. Schroder, D. C. Langreth, and
     *   B. I. Lundqvist, Phys. Rev. Lett. 92, 246401 (2004).
     *
     *   T. Thonhauser, V. R. Cooper, S. Li, A. Puzder, P. Hyldgaard, and
     *   D. C. Langreth, Phys. Rev. B 76, 125112 (2007).
     *
     *   G. Roman-Perez and J. M. Soler, Phys. Rev. Lett. 103, 096102 (2009).
     *
     *
     * If you are using vdW-DF2, please also cite:
     *
     *   K. Lee, E. D. Murray, L. Kong, B. I. Lundqvist, and
     *   D. C. Langreth, Phys. Rev. B 82, 081101(R) (2010).
     *
     *
     * If you are calculating the stress with vdW-DF, please also cite:
     *
     *   R. Sabatini, E. Kucukbenli, B. Kolb, T. Thonhauser, and
     *   S. de Gironcoli, J. Phys.: Condens. Matter 24, 424209 (2012).
     *

     Carrying out vdW-DF run using the following parameters:

     Nqs =      20    Nr_points =    1024   r_max =   100.000
     q_mesh =
               0.00001000     0.04494208     0.09755937     0.15916263
               0.23128650     0.31572767     0.41458969     0.53033537
               0.66584808     0.82450364     1.01025438     1.22772762
               1.48234092     1.78043706     2.12944203     2.53805004
               3.01644009     3.57652955     4.23227104     5.00000000

     Gradients computed in reciprocal space

[...]

     Starting wfc are  156 randomized atomic wfcs

     Self-consistent Calculation

[...]

     total energy              =   -3098.91545814 Ry
     Harris-Foulkes estimate   =   -3098.91545800 Ry
     estimated scf accuracy    <       0.00000348 Ry

     iteration # 17     ecut=    36.75 Ry     beta=0.10
     Davidson diagonalization with overlap
     ethr =  1.66E-09,  avg # of iterations =  2.0

[...]

     negative rho (up, down):  2.957E-01 0.000E+00

     Adding external electric field

     Computed dipole along edir(3) :
        Dipole               -0.0135 Ry au,         -0.0342 Debye
        Dipole field         -0.0000 Ry au

        Potential amp.        0.0030 Ry
        Total length         45.7857 bohr

     End of self-consistent calculation

[...]

          k = 0.0561 0.0000 0.0000 ( 19267 PWs)   bands (ev):

[...]

          k =-0.0842-0.1458 0.0000 ( 19348 PWs)   bands (ev):

   -90.7133 -90.7115 -90.7096 -90.5492 -90.5473 -90.5455 -90.5388 -90.5369
   -90.5351 -67.7489 -67.7341 -67.7010 -54.2690 -54.2593 -54.2522 -54.2192
   -54.2098 -54.2008 -54.1294 -54.1196 -54.1075 -54.1064 -54.0996 -54.0982
   -54.0947 -54.0885 -54.0812 -54.0352 -54.0299 -54.0233 -54.0168 -54.0123
   -54.0054 -53.9618 -53.9513 -53.9506 -53.9395 -53.9360 -53.9256 -34.0840
   -34.0797 -34.0772 -33.9719 -33.9718 -33.9699 -33.9668 -33.9418 -33.9398
    -4.3323  -4.2960  -4.0140  -3.9473  -3.9043  -3.7873  -3.7730  -3.7324
    -3.7276  -3.6582  -3.6288  -3.6156  -3.4773  -3.4343  -3.4236  -3.3633
    -3.3423  -3.2919  -3.2443  -3.0809  -3.0253  -2.9662  -2.9016  -2.8976
    -2.8794  -2.8513  -2.8233  -2.7730  -2.7563  -2.7241  -2.7013  -2.6861
    -2.6154  -2.6083  -2.5514  -2.5322  -2.4508  -2.4358  -2.4128  -2.3990
    -2.3981  -2.3371  -2.2878  -2.1041  -1.9958  -1.8407  -1.7984  -1.6395
    -0.9926  -0.8324   0.2244   0.4000   0.9137   0.9438   1.2828   1.3617
     1.5417   1.6732   1.7513   1.7801   1.7922   2.1481   2.2346   2.2442
     2.5998   2.8600   3.3191   3.8015   4.4257   4.7365   5.0596   5.3548
     5.7586   5.7807   6.5401   6.6077   7.0922   7.1107   7.3241   7.3473
     7.5045   7.8359   8.0859   8.2830   8.3321   8.3921   8.4904

     the Fermi energy is     1.6402 ev

!    total energy              =   -3098.91545679 Ry
     Harris-Foulkes estimate   =   -3098.91545852 Ry
     estimated scf accuracy    <       0.00000066 Ry

     The total energy is the sum of the following terms:

     one-electron contribution =  -21986.02881530 Ry
     hartree contribution      =   10980.45812925 Ry
     xc contribution           =    -400.80307675 Ry
     ewald contribution        =    8307.55273398 Ry
     electric field correction =       0.00000044 Ry
     smearing contrib. (-TS)   =      -0.09442843 Ry

     convergence has been achieved in  17 iterations

 BEEF-vdW xc energy contributions
           1 :   -349.263137206188
           2 :    318.545881269911
           3 :   -266.382128513608
           4 :    207.184092543473
           5 :   -154.652492655360
           6 :    117.019313858170
           7 :   -95.3261878159722
           8 :    84.9820672898235
           9 :   -79.3152164960291
          10 :    73.0956534885380
          11 :   -64.3984923975592
          12 :    54.3097153352986
          13 :   -45.1858857424003
          14 :    38.7615025099915
          15 :   -35.1796620196226
          16 :    33.2460018910565
          17 :   -31.4454049369303
          18 :    28.9198221711342
          19 :   -25.8160715821676
          20 :    22.9177751293165
          21 :   -20.9414043329735
          22 :    20.0130667784414
          23 :   -19.6379464358617
          24 :    19.0996176659303
          25 :   -17.9621310334015
          26 :    16.3285049994720
          27 :   -14.7177295731384
          28 :    13.6817034992585
          29 :   -13.4382715490035
          30 :    13.7536108436562
          31 :   -33.5900066684090
          32 :   -24.6254237279970

     Forces acting on atoms (Ry/au):

     negative rho (up, down):  2.957E-01 0.000E+00
     atom    1 type  1   force =     0.00000020    0.00194131   -0.00056365
     atom    2 type  1   force =     0.00168140   -0.00097062   -0.00056334
     atom    3 type  1   force =    -0.00168128   -0.00097084   -0.00056334
     atom    4 type  2   force =     0.00000014    0.00000002    0.02116876
     atom    5 type  1   force =    -0.00000021   -0.00923939   -0.00785626
     atom    6 type  1   force =    -0.00800160    0.00461984   -0.00785586
     atom    7 type  1   force =     0.00800142    0.00461983   -0.00785641
     atom    8 type  2   force =    -0.00000014    0.00000008    0.00352945
     atom    9 type  1   force =     0.00000009    0.00040776    0.00063276
     atom   10 type  1   force =     0.00035307   -0.00020387    0.00063251
     atom   11 type  1   force =    -0.00035316   -0.00020386    0.00063247
     atom   12 type  2   force =     0.00000008   -0.00000024   -0.00133709

     Total force =     0.030292     Total SCF correction =     0.004205
     SCF correction compared to forces is large: reduce conv_thr to get better values

     entering subroutine stress ...

     negative rho (up, down):  2.957E-01 0.000E+00
          total   stress  (Ry/bohr**3)                   (kbar)     P=  -10.39
  -0.00008361   0.00000000   0.00000000        -12.30      0.00      0.00
   0.00000000  -0.00008361   0.00000000          0.00    -12.30      0.00
   0.00000000   0.00000000  -0.00004457          0.00      0.00     -6.56

 !ASE

     Writing output data file calc.save

     General routines

     Parallel routines

   This run was terminated on:  17:43:11  19Dec2018

   JOB DONE.
Job  /afs/slac/g/suncat/bin/suncat-tsmpirun -x LD_LIBRARY_PATH -wdir /scratch/qe773201_YL3Xn pw.x -in pw.inp

TID   HOST_NAME   COMMAND_LINE            STATUS            TERMINATION_TIME
00000 suncat0218 pw.x -in pw.inp   Done                     12/19/2018 17:43:11
00001 suncat0218 pw.x -in pw.inp   Done                     12/19/2018 17:43:11
00002 suncat0218 pw.x -in pw.inp   Done                     12/19/2018 17:43:11
00003 suncat0218 pw.x -in pw.inp   Done                     12/19/2018 17:43:11
00004 suncat0218 pw.x -in pw.inp   Done                     12/19/2018 17:43:11
00005 suncat0218 pw.x -in pw.inp   Done                     12/19/2018 17:43:11
00006 suncat0218 pw.x -in pw.inp   Done                     12/19/2018 17:43:11
00007 suncat0218 pw.x -in pw.inp   Done                     12/19/2018 17:43:11
00008 suncat0212 pw.x -in pw.inp   Done                     12/19/2018 17:43:11
00009 suncat0212 pw.x -in pw.inp   Done                     12/19/2018 17:43:11
00010 suncat0212 pw.x -in pw.inp   Done                     12/19/2018 17:43:11
00011 suncat0212 pw.x -in pw.inp   Done                     12/19/2018 17:43:11
00012 suncat0212 pw.x -in pw.inp   Done                     12/19/2018 17:43:11
00013 suncat0212 pw.x -in pw.inp   Done                     12/19/2018 17:43:11
00014 suncat0212 pw.x -in pw.inp   Done                     12/19/2018 17:43:11
00015 suncat0212 pw.x -in pw.inp   Done                     12/19/2018 17:43:11
00016 suncat0211 pw.x -in pw.inp   Done                     12/19/2018 17:43:11
00017 suncat0211 pw.x -in pw.inp   Done                     12/19/2018 17:43:11
00018 suncat0211 pw.x -in pw.inp   Done                     12/19/2018 17:43:11
00019 suncat0211 pw.x -in pw.inp   Done                     12/19/2018 17:43:11
00020 suncat0211 pw.x -in pw.inp   Done                     12/19/2018 17:43:11
00021 suncat0211 pw.x -in pw.inp   Done                     12/19/2018 17:43:11
00022 suncat0211 pw.x -in pw.inp   Done                     12/19/2018 17:43:11
00023 suncat0211 pw.x -in pw.inp   Done                     12/19/2018 17:43:11
00024 suncat0208 pw.x -in pw.inp   Done                     12/19/2018 17:43:11
00025 suncat0208 pw.x -in pw.inp   Done                     12/19/2018 17:43:11
00026 suncat0208 pw.x -in pw.inp   Done                     12/19/2018 17:43:11
00027 suncat0208 pw.x -in pw.inp   Done                     12/19/2018 17:43:11
00028 suncat0208 pw.x -in pw.inp   Done                     12/19/2018 17:43:11
00029 suncat0208 pw.x -in pw.inp   Done                     12/19/2018 17:43:11
00030 suncat0208 pw.x -in pw.inp   Done                     12/19/2018 17:43:11
00031 suncat0208 pw.x -in pw.inp   Done                     12/19/2018 17:43:11
00032 suncat0207 pw.x -in pw.inp   Done                     12/19/2018 17:43:11
00033 suncat0207 pw.x -in pw.inp   Done                     12/19/2018 17:43:11
00034 suncat0207 pw.x -in pw.inp   Done                     12/19/2018 17:43:11
00035 suncat0207 pw.x -in pw.inp   Done                     12/19/2018 17:43:11
00036 suncat0207 pw.x -in pw.inp   Done                     12/19/2018 17:43:11
00037 suncat0207 pw.x -in pw.inp   Done                     12/19/2018 17:43:11
00038 suncat0207 pw.x -in pw.inp   Done                     12/19/2018 17:43:11
00039 suncat0207 pw.x -in pw.inp   Done                     12/19/2018 17:43:11
00040 suncat0206 pw.x -in pw.inp   Done                     12/19/2018 17:43:11
00041 suncat0206 pw.x -in pw.inp   Done                     12/19/2018 17:43:11
00042 suncat0206 pw.x -in pw.inp   Done                     12/19/2018 17:43:11
00043 suncat0206 pw.x -in pw.inp   Done                     12/19/2018 17:43:11
00044 suncat0206 pw.x -in pw.inp   Done                     12/19/2018 17:43:11
00045 suncat0206 pw.x -in pw.inp   Done                     12/19/2018 17:43:11
00046 suncat0206 pw.x -in pw.inp   Done                     12/19/2018 17:43:11
00047 suncat0206 pw.x -in pw.inp   Done                     12/19/2018 17:43:11
00048 suncat0205 pw.x -in pw.inp   Done                     12/19/2018 17:43:11
00049 suncat0205 pw.x -in pw.inp   Done                     12/19/2018 17:43:11
00050 suncat0205 pw.x -in pw.inp   Done                     12/19/2018 17:43:11
00051 suncat0205 pw.x -in pw.inp   Done                     12/19/2018 17:43:11
00052 suncat0205 pw.x -in pw.inp   Done                     12/19/2018 17:43:11
00053 suncat0205 pw.x -in pw.inp   Done                     12/19/2018 17:43:11
00054 suncat0205 pw.x -in pw.inp   Done                     12/19/2018 17:43:11
00055 suncat0205 pw.x -in pw.inp   Done                     12/19/2018 17:43:11
00056 suncat0204 pw.x -in pw.inp   Done                     12/19/2018 17:43:11
00057 suncat0204 pw.x -in pw.inp   Done                     12/19/2018 17:43:11
00058 suncat0204 pw.x -in pw.inp   Done                     12/19/2018 17:43:11
00059 suncat0204 pw.x -in pw.inp   Done                     12/19/2018 17:43:11
00060 suncat0204 pw.x -in pw.inp   Done                     12/19/2018 17:43:11
00061 suncat0204 pw.x -in pw.inp   Done                     12/19/2018 17:43:11
00062 suncat0204 pw.x -in pw.inp   Done                     12/19/2018 17:43:11
00063 suncat0204 pw.x -in pw.inp   Done                     12/19/2018 17:43:11