     Program PWSCF v.5.1rc2 (svn rev. 11289) starts on 26Dec2018 at 13: 8:45

     Current dimensions of program PWSCF are:
     Max number of different atomic species (ntypx) = 10
     Max number of k-points (npk) =  40000
     Max angular momentum in pseudopotentials (lmaxx) =  3
     Presently stress not available with electric field

     IMPORTANT: XC functional enforced from input :
     Exchange-correlation      = BEEF-VDW ( 1  4 27 13 2)
     Any further DFT definition will be discarded
     Please, verify this is what you really want

     Subspace diagonalization in iterative solution of the eigenvalue problem:
     a serial algorithm will be used

     bravais-lattice index     =            0
     lattice parameter (alat)  =       1.8897  a.u.
     unit-cell volume          =    6158.6606 (a.u.)^3
     number of atoms/cell      =           12
     number of atomic types    =            2
     number of electrons       =       150.00
     number of Kohn-Sham states=          105
     kinetic-energy cutoff     =      36.7493  Ry
     charge density cutoff     =     367.4932  Ry
     convergence threshold     =      1.0E-06
     mixing beta               =       0.1000
     number of iterations used =           10  plain     mixing
     Exchange-correlation      = BEEF-VDW ( 1  4 27 13 2)
     nstep                     =           50

     celldm(1)=   1.889726  celldm(2)=   0.000000  celldm(3)=   0.000000
     celldm(4)=   0.000000  celldm(5)=   0.000000  celldm(6)=   0.000000

     crystal axes: (cart. coord. in units of alat)
               a(1) = (   6.457376   0.000000   0.000000 )
               a(2) = (  -3.228688   5.592251   0.000000 )
               a(3) = (   0.000000   0.000000  25.272425 )

     reciprocal axes: (cart. coord. in units 2 pi/alat)
               b(1) = (  0.154862  0.089409  0.000000 )
               b(2) = (  0.000000  0.178819  0.000000 )
               b(3) = (  0.000000  0.000000  0.039569 )

     PseudoPot. # 1 for In read from file:
     /afs/slac.stanford.edu/u/if/mamunm/psp/gbrv1.5pbe/In.UPF
     MD5 check sum: 90777abd96fbb83f2e67db2a40c566b9
     Pseudo is Ultrasoft + core correction, Zval = 13.0
     Generated by new atomic code, or converted to UPF format
     Using radial grid of  889 points,  6 beta functions with:
                l(1) =   0
                l(2) =   0
                l(3) =   1
                l(4) =   1
                l(5) =   2
                l(6) =   2
     Q(r) pseudized with  6 coefficients,  rinner =    1.400   1.400   1.400
                                                       1.400   1.400

     PseudoPot. # 2 for Sc read from file:
     /afs/slac.stanford.edu/u/if/mamunm/psp/gbrv1.5pbe/Sc.UPF
     MD5 check sum: db30a2753ba66ef00f23801d899b7e7f
     Pseudo is Ultrasoft + core correction, Zval = 11.0
     Generated by new atomic code, or converted to UPF format
     Using radial grid of  849 points,  6 beta functions with:
                l(1) =   0
                l(2) =   0
                l(3) =   1
                l(4) =   1
                l(5) =   2
                l(6) =   2
     Q(r) pseudized with  6 coefficients,  rinner =    1.200   1.200   1.200
                                                       1.200   1.200

     vdW kernel table read from file vdW_kernel_table
     MD5 check sum: 095c7af220d748ca6e76c0b4c6cfb241

     atomic species   valence    mass     pseudopotential
        In1           13.00   114.81800     In( 1.00)
        Sc1           11.00    44.95591     Sc( 1.00)

     No symmetry found

   Cartesian axes

     site n.     atom                  positions (alat units)
         1           In1 tau(   1) = (   0.0000000   0.0000000  10.0000000  )
         2           In1 tau(   2) = (  -1.6143439   2.7961257  10.0000000  )
         3           In1 tau(   3) = (   1.6143439   2.7961257  10.0000000  )
         4           Sc1 tau(   4) = (   3.2286879   0.0000000  10.0000000  )
         5           In1 tau(   5) = (   3.2286879   1.8640838  12.6362126  )
         6           In1 tau(   6) = (   1.6143439   4.6602095  12.6362126  )
         7           In1 tau(   7) = (  -1.6143439   4.6602095  12.6362126  )
         8           Sc1 tau(   8) = (   0.0000000   1.8640838  12.6362126  )
         9           In1 tau(   9) = (  -0.0000000   3.7281676  15.2724252  )
        10           In1 tau(  10) = (   1.6143439   0.9320419  15.2724252  )
        11           In1 tau(  11) = (   4.8430318   0.9320419  15.2724252  )
        12           Sc1 tau(  12) = (   3.2286879   3.7281676  15.2724252  )

     number of k points=    20  Fermi-Dirac smearing, width (Ry)=  0.0110
                       cart. coord. in units 2pi/alat
        k(    1) = (   0.0000000   0.0000000   0.0000000), wk =   0.0555556
        k(    2) = (   0.0000000   0.0298031   0.0000000), wk =   0.1111111
        k(    3) = (   0.0000000   0.0596063   0.0000000), wk =   0.1111111
        k(    4) = (   0.0000000  -0.0894094   0.0000000), wk =   0.0555556
        k(    5) = (   0.0258103   0.0149016   0.0000000), wk =   0.1111111
        k(    6) = (   0.0258103   0.0447047   0.0000000), wk =   0.1111111
        k(    7) = (   0.0258103   0.0745079   0.0000000), wk =   0.1111111
        k(    8) = (   0.0258103  -0.0745079   0.0000000), wk =   0.1111111
        k(    9) = (   0.0258103  -0.0447047   0.0000000), wk =   0.1111111
        k(   10) = (   0.0258103  -0.0149016   0.0000000), wk =   0.1111111
        k(   11) = (   0.0516206   0.0298031   0.0000000), wk =   0.1111111
        k(   12) = (   0.0516206   0.0596063   0.0000000), wk =   0.1111111
        k(   13) = (   0.0516206   0.0894094   0.0000000), wk =   0.1111111
        k(   14) = (   0.0516206  -0.0596063   0.0000000), wk =   0.1111111
        k(   15) = (   0.0516206  -0.0298031   0.0000000), wk =   0.1111111
        k(   16) = (   0.0516206  -0.0000000   0.0000000), wk =   0.1111111
        k(   17) = (  -0.0774308  -0.0447047   0.0000000), wk =   0.0555556
        k(   18) = (  -0.0774308  -0.0149016   0.0000000), wk =   0.1111111
        k(   19) = (  -0.0774308   0.0149016   0.0000000), wk =   0.1111111
        k(   20) = (  -0.0774308  -0.1341141   0.0000000), wk =   0.0555556

     Largest allocated arrays     est. size (Mb)     dimensions
     Largest temporary arrays     est. size (Mb)     dimensions

     Initial potential from superposition of free atoms
     Check: negative starting charge=   -0.000243

     starting charge  136.49279, renormalised to  150.00000

     negative rho (up, down):  2.667E-04 0.000E+00

     *
     * You are using vdW-DF for exchange-correlation in this calculation.
     * Please cite the following three references that made this development
     * possible:
     *
     *   M. Dion, H. Rydberg, E. Schroder, D. C. Langreth, and
     *   B. I. Lundqvist, Phys. Rev. Lett. 92, 246401 (2004).
     *
     *   T. Thonhauser, V. R. Cooper, S. Li, A. Puzder, P. Hyldgaard, and
     *   D. C. Langreth, Phys. Rev. B 76, 125112 (2007).
     *
     *   G. Roman-Perez and J. M. Soler, Phys. Rev. Lett. 103, 096102 (2009).
     *
     *
     * If you are using vdW-DF2, please also cite:
     *
     *   K. Lee, E. D. Murray, L. Kong, B. I. Lundqvist, and
     *   D. C. Langreth, Phys. Rev. B 82, 081101(R) (2010).
     *
     *
     * If you are calculating the stress with vdW-DF, please also cite:
     *
     *   R. Sabatini, E. Kucukbenli, B. Kolb, T. Thonhauser, and
     *   S. de Gironcoli, J. Phys.: Condens. Matter 24, 424209 (2012).
     *

     Carrying out vdW-DF run using the following parameters:

     Nqs =      20    Nr_points =    1024   r_max =   100.000
     q_mesh =
               0.00001000     0.04494208     0.09755937     0.15916263
               0.23128650     0.31572767     0.41458969     0.53033537
               0.66584808     0.82450364     1.01025438     1.22772762
               1.48234092     1.78043706     2.12944203     2.53805004
               3.01644009     3.57652955     4.23227104     5.00000000

     Gradients computed in reciprocal space

     Adding external electric field

     Computed dipole along edir(3) :
        Dipole               -0.0000 Ry au,         -0.0000 Debye
        Dipole field         -0.0000 Ry au

        Potential amp.        0.0000 Ry
        Total length         46.5640 bohr

     Starting wfc are  120 randomized atomic wfcs

     Self-consistent Calculation

     iteration #  1     ecut=    36.75 Ry     beta=0.10
     Davidson diagonalization with overlap
     ethr =  1.00E-02,  avg # of iterations =  7.8

[...]

     total energy              =   -1501.51709725 Ry
     Harris-Foulkes estimate   =   -1506.08926005 Ry
     estimated scf accuracy    <      26.82183431 Ry

[...]

     End of self-consistent calculation

          k = 0.0000 0.0000 0.0000 ( 23187 PWs)   bands (ev):

   -49.8141 -49.8141 -49.6046 -28.5183 -28.5178 -28.3297 -28.3297 -28.3295
   -28.3295 -28.2381 -28.1782 -28.1782 -14.3804 -14.3387 -14.3384 -14.3322
   -14.2700 -14.2559 -14.2103 -14.2005 -14.2004 -14.1876 -14.1873 -14.1822
   -14.1822 -14.1416 -14.1206 -14.1206 -14.1197 -14.0559 -14.0441 -14.0373
   -14.0373 -14.0287 -14.0282 -14.0128 -14.0124 -14.0123 -13.9391 -13.9391
   -13.9362 -13.9362 -13.9243 -13.9243 -13.9216 -13.9166 -13.9166 -13.8647
   -13.8647 -13.8413 -13.8413 -13.8252 -13.8143 -13.7982 -13.7982 -13.7173
   -13.7157  -8.1530  -6.7678  -4.9040  -3.7848  -3.7848  -3.2145  -3.2145
    -2.4315  -2.1893  -2.1893  -1.7310  -1.3794  -1.2674  -1.2674  -0.9523
     0.2836   0.2837   0.3532   0.3532   0.4514   1.4208   1.4208   1.4381
     1.4381   1.8580   1.9353   2.2530   2.2530   2.5646   2.6490   2.6491
     2.6711   2.6711   2.8775   3.0571   3.0572   3.2723   3.4352   3.9633
     4.3991   4.5675   4.5675   4.8197   4.8197   4.9297   5.0999   5.4157
     5.5549

[...]

          k =-0.0774-0.0447 0.0000 ( 23208 PWs)   bands (ev):

[...]

     the Fermi energy is     0.6794 ev

!    total energy              =   -1497.57194660 Ry
     Harris-Foulkes estimate   =   -1497.57194224 Ry
     estimated scf accuracy    <       0.00000006 Ry

     The total energy is the sum of the following terms:

     one-electron contribution =   -8979.87155908 Ry
     hartree contribution      =    4545.55825742 Ry
     xc contribution           =    -393.93965843 Ry
     ewald contribution        =    3330.73038525 Ry
     electric field correction =       0.00000000 Ry
     smearing contrib. (-TS)   =      -0.04937176 Ry

     convergence has been achieved in  20 iterations

 BEEF-vdW xc energy contributions
           1 :   -343.988223224836
           2 :    313.515139947025
           3 :   -262.526509797135
           4 :    205.927307287280
           5 :   -156.817989110990
           6 :    121.710381085026
           7 :   -99.7227673015062
           8 :    85.3167219976863
           9 :   -72.4673683109436
          10 :    57.8750411815299
          11 :   -41.8357301613995
          12 :    26.9121974996559
          13 :   -15.7037398685794
          14 :    9.17767548609629
          15 :   -6.34075734110382
          16 :    5.09009709495825
          17 :   -3.50229831905875
[...]
               b(3) = (  0.000000  0.000000  0.039569 )

     PseudoPot. # 1 for In read from file:
     /afs/slac.stanford.edu/u/if/mamunm/psp/gbrv1.5pbe/In.UPF
     MD5 check sum: 90777abd96fbb83f2e67db2a40c566b9
     Pseudo is Ultrasoft + core correction, Zval = 13.0
     Generated by new atomic code, or converted to UPF format
     Using radial grid of  889 points,  6 beta functions with:
                l(1) =   0
                l(2) =   0
                l(3) =   1
                l(4) =   1
                l(5) =   2
                l(6) =   2
     Q(r) pseudized with  6 coefficients,  rinner =    1.400   1.400   1.400
                                                       1.400   1.400

     PseudoPot. # 2 for Sc read from file:
     /afs/slac.stanford.edu/u/if/mamunm/psp/gbrv1.5pbe/Sc.UPF
     MD5 check sum: db30a2753ba66ef00f23801d899b7e7f
     Pseudo is Ultrasoft + core correction, Zval = 11.0
     Generated by new atomic code, or converted to UPF format
     Using radial grid of  849 points,  6 beta functions with:
                l(1) =   0
                l(2) =   0
                l(3) =   1
                l(4) =   1
                l(5) =   2
                l(6) =   2
     Q(r) pseudized with  6 coefficients,  rinner =    1.200   1.200   1.200
                                                       1.200   1.200

     vdW kernel table read from file vdW_kernel_table
     MD5 check sum: 095c7af220d748ca6e76c0b4c6cfb241

     atomic species   valence    mass     pseudopotential
        In1           13.00   114.81800     In( 1.00)
        Sc1           11.00    44.95591     Sc( 1.00)

     No symmetry found

   Cartesian axes

     site n.     atom                  positions (alat units)
         1           In1 tau(   1) = (   0.0000000   0.0000000  10.0000000  )
         2           In1 tau(   2) = (  -1.6143439   2.7961257  10.0000000  )
         3           In1 tau(   3) = (   1.6143439   2.7961257  10.0000000  )
         4           Sc1 tau(   4) = (   3.2286879   0.0000000  10.0000000  )
         5           In1 tau(   5) = (   3.2286879   1.8640838  12.6362126  )
         6           In1 tau(   6) = (   1.6143439   4.6602095  12.6362126  )
         7           In1 tau(   7) = (  -1.6143439   4.6602095  12.6362126  )
         8           Sc1 tau(   8) = (   0.0000000   1.8640838  12.6362126  )
         9           In1 tau(   9) = (   0.0000006   3.7334336  15.4709337  )
        10           In1 tau(  10) = (   1.6185183   0.9298082  15.4709134  )
        11           In1 tau(  11) = (   4.8388637   0.9298131  15.4709266  )
        12           Sc1 tau(  12) = (   3.2286871   3.7280079  15.0952704  )

     number of k points=    20  Fermi-Dirac smearing, width (Ry)=  0.0110
                       cart. coord. in units 2pi/alat
        k(    1) = (   0.0000000   0.0000000   0.0000000), wk =   0.0555556
        k(    2) = (   0.0000000   0.0298031   0.0000000), wk =   0.1111111
        k(    3) = (   0.0000000   0.0596063   0.0000000), wk =   0.1111111
        k(    4) = (   0.0000000  -0.0894094   0.0000000), wk =   0.0555556
        k(    5) = (   0.0258103   0.0149016   0.0000000), wk =   0.1111111
        k(    6) = (   0.0258103   0.0447047   0.0000000), wk =   0.1111111
        k(    7) = (   0.0258103   0.0745079   0.0000000), wk =   0.1111111
        k(    8) = (   0.0258103  -0.0745079   0.0000000), wk =   0.1111111
        k(    9) = (   0.0258103  -0.0447047   0.0000000), wk =   0.1111111
        k(   10) = (   0.0258103  -0.0149016   0.0000000), wk =   0.1111111
        k(   11) = (   0.0516206   0.0298031   0.0000000), wk =   0.1111111
        k(   12) = (   0.0516206   0.0596063   0.0000000), wk =   0.1111111
        k(   13) = (   0.0516206   0.0894094   0.0000000), wk =   0.1111111
        k(   14) = (   0.0516206  -0.0596063   0.0000000), wk =   0.1111111
        k(   15) = (   0.0516206  -0.0298031   0.0000000), wk =   0.1111111
        k(   16) = (   0.0516206  -0.0000000   0.0000000), wk =   0.1111111
        k(   17) = (  -0.0774308  -0.0447047   0.0000000), wk =   0.0555556
        k(   18) = (  -0.0774308  -0.0149016   0.0000000), wk =   0.1111111
        k(   19) = (  -0.0774308   0.0149016   0.0000000), wk =   0.1111111
        k(   20) = (  -0.0774308  -0.1341141   0.0000000), wk =   0.0555556

     Largest allocated arrays     est. size (Mb)     dimensions
     Largest temporary arrays     est. size (Mb)     dimensions

     Initial potential from superposition of free atoms
     Check: negative starting charge=   -0.000246

     starting charge  136.49279, renormalised to  150.00000

[...]

     *
     * You are using vdW-DF for exchange-correlation in this calculation.
     * Please cite the following three references that made this development
     * possible:
     *
     *   M. Dion, H. Rydberg, E. Schroder, D. C. Langreth, and
     *   B. I. Lundqvist, Phys. Rev. Lett. 92, 246401 (2004).
     *
     *   T. Thonhauser, V. R. Cooper, S. Li, A. Puzder, P. Hyldgaard, and
     *   D. C. Langreth, Phys. Rev. B 76, 125112 (2007).
     *
     *   G. Roman-Perez and J. M. Soler, Phys. Rev. Lett. 103, 096102 (2009).
     *
     *
     * If you are using vdW-DF2, please also cite:
     *
     *   K. Lee, E. D. Murray, L. Kong, B. I. Lundqvist, and
     *   D. C. Langreth, Phys. Rev. B 82, 081101(R) (2010).
     *
     *
     * If you are calculating the stress with vdW-DF, please also cite:
     *
     *   R. Sabatini, E. Kucukbenli, B. Kolb, T. Thonhauser, and
     *   S. de Gironcoli, J. Phys.: Condens. Matter 24, 424209 (2012).
     *

     Carrying out vdW-DF run using the following parameters:

     Nqs =      20    Nr_points =    1024   r_max =   100.000
     q_mesh =
               0.00001000     0.04494208     0.09755937     0.15916263
               0.23128650     0.31572767     0.41458969     0.53033537
               0.66584808     0.82450364     1.01025438     1.22772762
               1.48234092     1.78043706     2.12944203     2.53805004
               3.01644009     3.57652955     4.23227104     5.00000000

     Gradients computed in reciprocal space

[...]

     Starting wfc are  120 randomized atomic wfcs

     Self-consistent Calculation

[...]

     total energy              =   -1497.58791620 Ry
     Harris-Foulkes estimate   =   -1497.58791390 Ry
     estimated scf accuracy    <       0.00000251 Ry

     iteration # 18     ecut=    36.75 Ry     beta=0.10
     Davidson diagonalization with overlap
     ethr =  1.67E-09,  avg # of iterations =  2.0

[...]

     negative rho (up, down):  8.928E-04 0.000E+00

     Adding external electric field

     Computed dipole along edir(3) :
        Dipole               -0.0241 Ry au,         -0.0612 Debye
        Dipole field         -0.0000 Ry au

        Potential amp.        0.0046 Ry
        Total length         46.5640 bohr

     End of self-consistent calculation

[...]

          k = 0.0516-0.0000 0.0000 ( 23176 PWs)   bands (ev):

[...]

          k =-0.0774-0.1341 0.0000 ( 23208 PWs)   bands (ev):

   -49.8183 -49.7250 -49.6777 -28.5170 -28.3615 -28.3549 -28.3384 -28.3380
   -28.2889 -28.2884 -28.2128 -28.2123 -14.3219 -14.2545 -14.2471 -14.2297
   -14.2231 -14.2086 -14.1869 -14.1696 -14.1578 -14.1553 -14.1386 -14.1291
   -14.1086 -14.1035 -14.0923 -14.0885 -14.0821 -14.0679 -14.0587 -14.0551
   -14.0459 -14.0386 -14.0377 -14.0271 -14.0245 -14.0135 -14.0133 -14.0058
   -14.0046 -14.0031 -13.9948 -13.9931 -13.9905 -13.9807 -13.9748 -13.9741
   -13.9571 -13.9474 -13.9459 -13.9309 -13.9186 -13.8982 -13.8657 -13.8280
   -13.8100  -6.9774  -6.6422  -5.5398  -5.3407  -4.4198  -4.3590  -3.8502
    -3.1610  -2.2605  -1.6842  -1.5765  -0.8417  -0.2275  -0.1617  -0.0387
     0.3035   0.4655   0.7367   0.9387   1.1628   1.4510   1.7423   1.9667
     2.0014   2.0424   2.1385   2.2531   2.2835   2.3251   2.5149   2.7469
     2.9196   3.1243   3.1927   3.2973   3.4441   3.6256   3.7851   3.8038
     3.9650   4.3414   4.7660   4.7944   4.8473   4.9199   5.2243   5.3117
     5.4673

     the Fermi energy is     0.6391 ev

!    total energy              =   -1497.58792345 Ry
     Harris-Foulkes estimate   =   -1497.58791633 Ry
     estimated scf accuracy    <       0.00000089 Ry

     The total energy is the sum of the following terms:

     one-electron contribution =   -8831.83199575 Ry
     hartree contribution      =    4471.44992309 Ry
     xc contribution           =    -393.87045779 Ry
     ewald contribution        =    3256.71431067 Ry
     electric field correction =       0.00000118 Ry
     smearing contrib. (-TS)   =      -0.04970486 Ry

     convergence has been achieved in  18 iterations

 BEEF-vdW xc energy contributions
           1 :   -343.969643038264
           2 :    313.447240967775
           3 :   -262.401663852267
           4 :    205.790879294650
           5 :   -156.738437719823
           6 :    121.727200846398
           7 :   -99.8141803504933
           8 :    85.4178537513818
           9 :   -72.5234849740110
          10 :    57.8814418498949
          11 :   -41.8322379537483
          12 :    26.9438978558640
          13 :   -15.7843799443177
          14 :    9.28270916635893
          15 :   -6.43049154796438
          16 :    5.14175438627410
          17 :   -3.52602937696304
          18 :   0.797746993403052
          19 :    2.58526944601851
          20 :   -5.48634789931884
          21 :    6.93177672897855
          22 :   -6.72030047185342
          23 :    5.47932183068701
          24 :   -4.20498465840012
          25 :    3.62987194254947
          26 :   -3.84091213426672
          27 :    4.36275067716002
          28 :   -4.58698350515283
          29 :    4.20340711636061
          30 :   -3.34105271679948
          31 :   -32.1212017269347
          32 :   -23.3427568428481

     Forces acting on atoms (Ry/au):

     negative rho (up, down):  8.928E-04 0.000E+00
     atom    1 type  1   force =    -0.00000022   -0.00024003   -0.01647383
     atom    2 type  1   force =    -0.00020638    0.00011791   -0.01646902
     atom    3 type  1   force =     0.00020551    0.00011797   -0.01646965
     atom    4 type  2   force =     0.00000031    0.00000013    0.02810631
     atom    5 type  1   force =     0.00000067   -0.00807027    0.00347001
     atom    6 type  1   force =    -0.00697901    0.00402780    0.00347872
     atom    7 type  1   force =     0.00697917    0.00402702    0.00347707
     atom    8 type  2   force =    -0.00000014    0.00000230    0.01053836
     atom    9 type  1   force =     0.00000181    0.00036420    0.00033713
     atom   10 type  1   force =     0.00030352   -0.00018490    0.00033481
     atom   11 type  1   force =    -0.00030496   -0.00018611    0.00033510
     atom   12 type  2   force =    -0.00000028    0.00002397   -0.00066501

     Total force =     0.044130     Total SCF correction =     0.002864

     entering subroutine stress ...

     negative rho (up, down):  8.928E-04 0.000E+00
          total   stress  (Ry/bohr**3)                   (kbar)     P=   -6.42
  -0.00007274  -0.00000000  -0.00000000        -10.70     -0.00     -0.00
  -0.00000000  -0.00007268  -0.00000001         -0.00    -10.69     -0.00
  -0.00000000  -0.00000001   0.00001453         -0.00     -0.00      2.14

 !ASE

     Writing output data file calc.save

     General routines

     Parallel routines

   This run was terminated on:  15:44:28  26Dec2018

   JOB DONE.
Job  /afs/slac/g/suncat/bin/suncat-tsmpirun -x LD_LIBRARY_PATH -wdir /scratch/qe109897_N46sf pw.x -in pw.inp

TID   HOST_NAME   COMMAND_LINE            STATUS            TERMINATION_TIME
00000 suncat0044 pw.x -in pw.inp   Done                     12/26/2018 15:44:28
00001 suncat0044 pw.x -in pw.inp   Done                     12/26/2018 15:44:28
00002 suncat0044 pw.x -in pw.inp   Done                     12/26/2018 15:44:28
00003 suncat0044 pw.x -in pw.inp   Done                     12/26/2018 15:44:28
00004 suncat0044 pw.x -in pw.inp   Done                     12/26/2018 15:44:28
00005 suncat0044 pw.x -in pw.inp   Done                     12/26/2018 15:44:28
00006 suncat0044 pw.x -in pw.inp   Done                     12/26/2018 15:44:28
00007 suncat0044 pw.x -in pw.inp   Done                     12/26/2018 15:44:28
00008 suncat0038 pw.x -in pw.inp   Done                     12/26/2018 15:44:28
00009 suncat0038 pw.x -in pw.inp   Done                     12/26/2018 15:44:28
00010 suncat0038 pw.x -in pw.inp   Done                     12/26/2018 15:44:28
00011 suncat0038 pw.x -in pw.inp   Done                     12/26/2018 15:44:28
00012 suncat0038 pw.x -in pw.inp   Done                     12/26/2018 15:44:28
00013 suncat0038 pw.x -in pw.inp   Done                     12/26/2018 15:44:28
00014 suncat0038 pw.x -in pw.inp   Done                     12/26/2018 15:44:28
00015 suncat0038 pw.x -in pw.inp   Done                     12/26/2018 15:44:28
00016 suncat0037 pw.x -in pw.inp   Done                     12/26/2018 15:44:28
00017 suncat0037 pw.x -in pw.inp   Done                     12/26/2018 15:44:28
00018 suncat0037 pw.x -in pw.inp   Done                     12/26/2018 15:44:28
00019 suncat0037 pw.x -in pw.inp   Done                     12/26/2018 15:44:28
00020 suncat0037 pw.x -in pw.inp   Done                     12/26/2018 15:44:28
00021 suncat0037 pw.x -in pw.inp   Done                     12/26/2018 15:44:28
00022 suncat0037 pw.x -in pw.inp   Done                     12/26/2018 15:44:28
00023 suncat0037 pw.x -in pw.inp   Done                     12/26/2018 15:44:28
00024 suncat0036 pw.x -in pw.inp   Done                     12/26/2018 15:44:28
00025 suncat0036 pw.x -in pw.inp   Done                     12/26/2018 15:44:28
00026 suncat0036 pw.x -in pw.inp   Done                     12/26/2018 15:44:28
00027 suncat0036 pw.x -in pw.inp   Done                     12/26/2018 15:44:28
00028 suncat0036 pw.x -in pw.inp   Done                     12/26/2018 15:44:28
00029 suncat0036 pw.x -in pw.inp   Done                     12/26/2018 15:44:28
00030 suncat0036 pw.x -in pw.inp   Done                     12/26/2018 15:44:28
00031 suncat0036 pw.x -in pw.inp   Done                     12/26/2018 15:44:28
00032 suncat0035 pw.x -in pw.inp   Done                     12/26/2018 15:44:28
00033 suncat0035 pw.x -in pw.inp   Done                     12/26/2018 15:44:28
00034 suncat0035 pw.x -in pw.inp   Done                     12/26/2018 15:44:28
00035 suncat0035 pw.x -in pw.inp   Done                     12/26/2018 15:44:28
00036 suncat0035 pw.x -in pw.inp   Done                     12/26/2018 15:44:28
00037 suncat0035 pw.x -in pw.inp   Done                     12/26/2018 15:44:28
00038 suncat0035 pw.x -in pw.inp   Done                     12/26/2018 15:44:28
00039 suncat0035 pw.x -in pw.inp   Done                     12/26/2018 15:44:28
00040 suncat0033 pw.x -in pw.inp   Done                     12/26/2018 15:44:28
00041 suncat0033 pw.x -in pw.inp   Done                     12/26/2018 15:44:28
00042 suncat0033 pw.x -in pw.inp   Done                     12/26/2018 15:44:28
00043 suncat0033 pw.x -in pw.inp   Done                     12/26/2018 15:44:28
00044 suncat0033 pw.x -in pw.inp   Done                     12/26/2018 15:44:28
00045 suncat0033 pw.x -in pw.inp   Done                     12/26/2018 15:44:28
00046 suncat0033 pw.x -in pw.inp   Done                     12/26/2018 15:44:28
00047 suncat0033 pw.x -in pw.inp   Done                     12/26/2018 15:44:28
00048 suncat0032 pw.x -in pw.inp   Done                     12/26/2018 15:44:28
00049 suncat0032 pw.x -in pw.inp   Done                     12/26/2018 15:44:28
00050 suncat0032 pw.x -in pw.inp   Done                     12/26/2018 15:44:28
00051 suncat0032 pw.x -in pw.inp   Done                     12/26/2018 15:44:28
00052 suncat0032 pw.x -in pw.inp   Done                     12/26/2018 15:44:28
00053 suncat0032 pw.x -in pw.inp   Done                     12/26/2018 15:44:28
00054 suncat0032 pw.x -in pw.inp   Done                     12/26/2018 15:44:28
00055 suncat0032 pw.x -in pw.inp   Done                     12/26/2018 15:44:28
00056 suncat0019 pw.x -in pw.inp   Done                     12/26/2018 15:44:28
00057 suncat0019 pw.x -in pw.inp   Done                     12/26/2018 15:44:28
00058 suncat0019 pw.x -in pw.inp   Done                     12/26/2018 15:44:28
00059 suncat0019 pw.x -in pw.inp   Done                     12/26/2018 15:44:28
00060 suncat0019 pw.x -in pw.inp   Done                     12/26/2018 15:44:28
00061 suncat0019 pw.x -in pw.inp   Done                     12/26/2018 15:44:28
00062 suncat0019 pw.x -in pw.inp   Done                     12/26/2018 15:44:28
00063 suncat0019 pw.x -in pw.inp   Done                     12/26/2018 15:44:28