     Program PWSCF v.5.1rc2 (svn rev. 11289) starts on 27Dec2018 at  5:19:20

     Current dimensions of program PWSCF are:
     Max number of different atomic species (ntypx) = 10
     Max number of k-points (npk) =  40000
     Max angular momentum in pseudopotentials (lmaxx) =  3
     Presently stress not available with electric field

     IMPORTANT: XC functional enforced from input :
     Exchange-correlation      = BEEF-VDW ( 1  4 27 13 2)
     Any further DFT definition will be discarded
     Please, verify this is what you really want

     Subspace diagonalization in iterative solution of the eigenvalue problem:
     a serial algorithm will be used

     bravais-lattice index     =            0
     lattice parameter (alat)  =       1.8897  a.u.
     unit-cell volume          =    4959.2122 (a.u.)^3
     number of atoms/cell      =           12
     number of atomic types    =            2
     number of electrons       =       162.00
     number of Kohn-Sham states=          111
     kinetic-energy cutoff     =      36.7493  Ry
     charge density cutoff     =     367.4932  Ry
     convergence threshold     =      1.0E-06
     mixing beta               =       0.1000
     number of iterations used =           10  plain     mixing
     Exchange-correlation      = BEEF-VDW ( 1  4 27 13 2)
     nstep                     =           50

     celldm(1)=   1.889726  celldm(2)=   0.000000  celldm(3)=   0.000000
     celldm(4)=   0.000000  celldm(5)=   0.000000  celldm(6)=   0.000000

     crystal axes: (cart. coord. in units of alat)
               a(1) = (   5.852050   0.000000   0.000000 )
               a(2) = (  -2.926025   5.068024   0.000000 )
               a(3) = (   0.000000   0.000000  24.778179 )

     reciprocal axes: (cart. coord. in units 2 pi/alat)
               b(1) = (  0.170880  0.098658  0.000000 )
               b(2) = (  0.000000  0.197316  0.000000 )
               b(3) = (  0.000000  0.000000  0.040358 )

     PseudoPot. # 1 for Mo read from file:
     /afs/slac.stanford.edu/u/if/mamunm/psp/gbrv1.5pbe/Mo.UPF
     MD5 check sum: 30c4dcd161f5d35cd49bb5239c51a633
     Pseudo is Ultrasoft + core correction, Zval = 14.0
     Generated by new atomic code, or converted to UPF format
     Using radial grid of  889 points,  6 beta functions with:
                l(1) =   0
                l(2) =   0
                l(3) =   1
                l(4) =   1
                l(5) =   2
                l(6) =   2
     Q(r) pseudized with  6 coefficients,  rinner =    1.000   1.000   1.000
                                                       1.000   1.000

     PseudoPot. # 2 for Zr read from file:
     /afs/slac.stanford.edu/u/if/mamunm/psp/gbrv1.5pbe/Zr.UPF
     MD5 check sum: 5db81b1e868ab7776c4564c113de050b
     Pseudo is Ultrasoft + core correction, Zval = 12.0
     Generated by new atomic code, or converted to UPF format
     Using radial grid of  887 points,  6 beta functions with:
                l(1) =   0
                l(2) =   0
                l(3) =   1
                l(4) =   1
                l(5) =   2
                l(6) =   2
     Q(r) pseudized with  6 coefficients,  rinner =    1.200   1.200   1.200
                                                       1.200   1.200

     vdW kernel table read from file vdW_kernel_table
     MD5 check sum: 095c7af220d748ca6e76c0b4c6cfb241

     atomic species   valence    mass     pseudopotential
        Mo1           14.00    95.95000     Mo( 1.00)
        Zr1           12.00    91.22400     Zr( 1.00)

     No symmetry found

   Cartesian axes

     site n.     atom                  positions (alat units)
         1           Mo1 tau(   1) = (   0.0000000   0.0000000  10.0000000  )
         2           Mo1 tau(   2) = (  -1.4630125   2.5340120  10.0000000  )
         3           Mo1 tau(   3) = (   1.4630125   2.5340120  10.0000000  )
         4           Zr1 tau(   4) = (   2.9260251   0.0000000  10.0000000  )
         5           Mo1 tau(   5) = (   2.9260251   1.6893414  12.3890895  )
         6           Mo1 tau(   6) = (   1.4630125   4.2233534  12.3890895  )
         7           Mo1 tau(   7) = (  -1.4630125   4.2233534  12.3890895  )
         8           Zr1 tau(   8) = (   0.0000000   1.6893414  12.3890895  )
         9           Mo1 tau(   9) = (  -0.0000000   3.3786827  14.7781789  )
        10           Mo1 tau(  10) = (   1.4630125   0.8446707  14.7781789  )
        11           Mo1 tau(  11) = (   4.3890376   0.8446707  14.7781789  )
        12           Zr1 tau(  12) = (   2.9260251   3.3786827  14.7781789  )

     number of k points=    20  Fermi-Dirac smearing, width (Ry)=  0.0110
                       cart. coord. in units 2pi/alat
        k(    1) = (   0.0000000   0.0000000   0.0000000), wk =   0.0555556
        k(    2) = (   0.0000000   0.0328859   0.0000000), wk =   0.1111111
        k(    3) = (   0.0000000   0.0657719   0.0000000), wk =   0.1111111
        k(    4) = (   0.0000000  -0.0986578   0.0000000), wk =   0.0555556
        k(    5) = (   0.0284800   0.0164430   0.0000000), wk =   0.1111111
        k(    6) = (   0.0284800   0.0493289   0.0000000), wk =   0.1111111
        k(    7) = (   0.0284800   0.0822148   0.0000000), wk =   0.1111111
        k(    8) = (   0.0284800  -0.0822148   0.0000000), wk =   0.1111111
        k(    9) = (   0.0284800  -0.0493289   0.0000000), wk =   0.1111111
        k(   10) = (   0.0284800  -0.0164430   0.0000000), wk =   0.1111111
        k(   11) = (   0.0569601   0.0328859   0.0000000), wk =   0.1111111
        k(   12) = (   0.0569601   0.0657719   0.0000000), wk =   0.1111111
        k(   13) = (   0.0569601   0.0986578   0.0000000), wk =   0.1111111
        k(   14) = (   0.0569601  -0.0657719   0.0000000), wk =   0.1111111
        k(   15) = (   0.0569601  -0.0328859   0.0000000), wk =   0.1111111
        k(   16) = (   0.0569601  -0.0000000   0.0000000), wk =   0.1111111
        k(   17) = (  -0.0854401  -0.0493289   0.0000000), wk =   0.0555556
        k(   18) = (  -0.0854401  -0.0164430   0.0000000), wk =   0.1111111
        k(   19) = (  -0.0854401   0.0164430   0.0000000), wk =   0.1111111
        k(   20) = (  -0.0854401  -0.1479867   0.0000000), wk =   0.0555556

     Largest allocated arrays     est. size (Mb)     dimensions
     Largest temporary arrays     est. size (Mb)     dimensions

     Initial potential from superposition of free atoms
     Check: negative starting charge=   -0.184247

     starting charge  161.98398, renormalised to  162.00000

     negative rho (up, down):  1.843E-01 0.000E+00

     *
     * You are using vdW-DF for exchange-correlation in this calculation.
     * Please cite the following three references that made this development
     * possible:
     *
     *   M. Dion, H. Rydberg, E. Schroder, D. C. Langreth, and
     *   B. I. Lundqvist, Phys. Rev. Lett. 92, 246401 (2004).
     *
     *   T. Thonhauser, V. R. Cooper, S. Li, A. Puzder, P. Hyldgaard, and
     *   D. C. Langreth, Phys. Rev. B 76, 125112 (2007).
     *
     *   G. Roman-Perez and J. M. Soler, Phys. Rev. Lett. 103, 096102 (2009).
     *
     *
     * If you are using vdW-DF2, please also cite:
     *
     *   K. Lee, E. D. Murray, L. Kong, B. I. Lundqvist, and
     *   D. C. Langreth, Phys. Rev. B 82, 081101(R) (2010).
     *
     *
     * If you are calculating the stress with vdW-DF, please also cite:
     *
     *   R. Sabatini, E. Kucukbenli, B. Kolb, T. Thonhauser, and
     *   S. de Gironcoli, J. Phys.: Condens. Matter 24, 424209 (2012).
     *

     Carrying out vdW-DF run using the following parameters:

     Nqs =      20    Nr_points =    1024   r_max =   100.000
     q_mesh =
               0.00001000     0.04494208     0.09755937     0.15916263
               0.23128650     0.31572767     0.41458969     0.53033537
               0.66584808     0.82450364     1.01025438     1.22772762
               1.48234092     1.78043706     2.12944203     2.53805004
               3.01644009     3.57652955     4.23227104     5.00000000

     Gradients computed in reciprocal space

     Adding external electric field

     Computed dipole along edir(3) :
        Dipole                0.0000 Ry au,          0.0000 Debye
        Dipole field          0.0000 Ry au

        Potential amp.       -0.0000 Ry
        Total length         45.6534 bohr

     Starting wfc are  156 randomized atomic wfcs

     Self-consistent Calculation

     iteration #  1     ecut=    36.75 Ry     beta=0.10
     Davidson diagonalization with overlap
     ethr =  1.00E-02,  avg # of iterations =  2.0

[...]

     total energy              =   -1557.78766071 Ry
     Harris-Foulkes estimate   =   -1559.15697222 Ry
     estimated scf accuracy    <       7.60967686 Ry

[...]

     End of self-consistent calculation

          k = 0.0000 0.0000 0.0000 ( 18763 PWs)   bands (ev):

   -58.9768 -58.8970 -58.8970 -58.8496 -58.8401 -58.7772 -58.7772 -58.7749
   -58.7749 -46.8742 -46.8733 -46.4508 -33.3778 -33.2194 -33.1935 -33.1900
   -33.1900 -33.1391 -33.1077 -33.1076 -32.9779 -32.9779 -32.9292 -32.8618
   -32.8618 -32.8537 -32.8537 -32.8139 -32.7225 -32.7126 -32.7126 -32.6842
   -32.6842 -32.6399 -32.6081 -32.5566 -32.5566 -32.5525 -32.5525 -24.9617
   -24.9326 -24.8191 -24.8191 -24.8118 -24.8118 -24.5058 -24.4579 -24.4579
    -3.5707  -2.2811  -1.9356  -1.8193  -1.8193  -1.7715  -1.4988  -1.4988
    -1.3764  -1.1724  -1.1513  -1.1513  -1.0003  -1.0003  -0.9755   0.0387
     0.1332   0.1332   0.9395   0.9395   1.0281   1.0706   1.3511   1.7040
     1.7791   1.7791   1.9493   1.9493   1.9608   2.0090   2.0090   2.1467
     2.1467   2.2692   2.2692   2.6388   3.0714   3.0971   3.0971   3.1110
     3.4530   3.4886   3.4886   3.8460   3.8460   4.3522   4.3522   4.4239
     4.5169   4.5169   4.7031   5.0104   5.0104   5.3915   5.4326   5.6189
     5.7186   5.7552   5.7552   5.8498   6.0190   6.1617   6.1617

[...]

          k =-0.0854-0.0493 0.0000 ( 18624 PWs)   bands (ev):

[...]

     the Fermi energy is     2.0107 ev

!    total energy              =   -1558.51165892 Ry
     Harris-Foulkes estimate   =   -1558.51165882 Ry
     estimated scf accuracy    <       0.00000020 Ry

     The total energy is the sum of the following terms:

     one-electron contribution =  -12898.32001310 Ry
     hartree contribution      =    6442.32010817 Ry
     xc contribution           =    -234.99398194 Ry
     ewald contribution        =    5132.60017719 Ry
     electric field correction =       0.00000000 Ry
     smearing contrib. (-TS)   =      -0.11794924 Ry

     convergence has been achieved in  19 iterations

 BEEF-vdW xc energy contributions
           1 :   -201.661154222587
           2 :    183.715521611380
           3 :   -153.093452738463
           4 :    118.061524687302
           5 :   -86.7217144771094
           6 :    64.3179226205400
           7 :   -52.0670805145414
           8 :    47.6883373699729
           9 :   -47.1252828516913
          10 :    46.5339310960617
          11 :   -43.7141465996220
          12 :    38.5193145712290
          13 :   -32.3063121378908
          14 :    26.8576216001288
          15 :   -23.3654708880318
[...]
               b(3) = (  0.000000  0.000000  0.040358 )

     PseudoPot. # 1 for Mo read from file:
     /afs/slac.stanford.edu/u/if/mamunm/psp/gbrv1.5pbe/Mo.UPF
     MD5 check sum: 30c4dcd161f5d35cd49bb5239c51a633
     Pseudo is Ultrasoft + core correction, Zval = 14.0
     Generated by new atomic code, or converted to UPF format
     Using radial grid of  889 points,  6 beta functions with:
                l(1) =   0
                l(2) =   0
                l(3) =   1
                l(4) =   1
                l(5) =   2
                l(6) =   2
     Q(r) pseudized with  6 coefficients,  rinner =    1.000   1.000   1.000
                                                       1.000   1.000

     PseudoPot. # 2 for Zr read from file:
     /afs/slac.stanford.edu/u/if/mamunm/psp/gbrv1.5pbe/Zr.UPF
     MD5 check sum: 5db81b1e868ab7776c4564c113de050b
     Pseudo is Ultrasoft + core correction, Zval = 12.0
     Generated by new atomic code, or converted to UPF format
     Using radial grid of  887 points,  6 beta functions with:
                l(1) =   0
                l(2) =   0
                l(3) =   1
                l(4) =   1
                l(5) =   2
                l(6) =   2
     Q(r) pseudized with  6 coefficients,  rinner =    1.200   1.200   1.200
                                                       1.200   1.200

     vdW kernel table read from file vdW_kernel_table
     MD5 check sum: 095c7af220d748ca6e76c0b4c6cfb241

     atomic species   valence    mass     pseudopotential
        Mo1           14.00    95.95000     Mo( 1.00)
        Zr1           12.00    91.22400     Zr( 1.00)

     No symmetry found

   Cartesian axes

     site n.     atom                  positions (alat units)
         1           Mo1 tau(   1) = (   0.0000000   0.0000000  10.0000000  )
         2           Mo1 tau(   2) = (  -1.4630125   2.5340120  10.0000000  )
         3           Mo1 tau(   3) = (   1.4630125   2.5340120  10.0000000  )
         4           Zr1 tau(   4) = (   2.9260251   0.0000000  10.0000000  )
         5           Mo1 tau(   5) = (   2.9260251   1.6893414  12.3890895  )
         6           Mo1 tau(   6) = (   1.4630125   4.2233534  12.3890895  )
         7           Mo1 tau(   7) = (  -1.4630125   4.2233534  12.3890895  )
         8           Zr1 tau(   8) = (   0.0000000   1.6893414  12.3890895  )
         9           Mo1 tau(   9) = (  -0.0000064   3.5042453  14.5868980  )
        10           Mo1 tau(  10) = (   1.5718663   0.7818322  14.5868812  )
        11           Mo1 tau(  11) = (   4.2802389   0.7818685  14.5868934  )
        12           Zr1 tau(  12) = (   2.9260228   3.3786894  15.0870231  )

     number of k points=    20  Fermi-Dirac smearing, width (Ry)=  0.0110
                       cart. coord. in units 2pi/alat
        k(    1) = (   0.0000000   0.0000000   0.0000000), wk =   0.0555556
        k(    2) = (   0.0000000   0.0328859   0.0000000), wk =   0.1111111
        k(    3) = (   0.0000000   0.0657719   0.0000000), wk =   0.1111111
        k(    4) = (   0.0000000  -0.0986578   0.0000000), wk =   0.0555556
        k(    5) = (   0.0284800   0.0164430   0.0000000), wk =   0.1111111
        k(    6) = (   0.0284800   0.0493289   0.0000000), wk =   0.1111111
        k(    7) = (   0.0284800   0.0822148   0.0000000), wk =   0.1111111
        k(    8) = (   0.0284800  -0.0822148   0.0000000), wk =   0.1111111
        k(    9) = (   0.0284800  -0.0493289   0.0000000), wk =   0.1111111
        k(   10) = (   0.0284800  -0.0164430   0.0000000), wk =   0.1111111
        k(   11) = (   0.0569601   0.0328859   0.0000000), wk =   0.1111111
        k(   12) = (   0.0569601   0.0657719   0.0000000), wk =   0.1111111
        k(   13) = (   0.0569601   0.0986578   0.0000000), wk =   0.1111111
        k(   14) = (   0.0569601  -0.0657719   0.0000000), wk =   0.1111111
        k(   15) = (   0.0569601  -0.0328859   0.0000000), wk =   0.1111111
        k(   16) = (   0.0569601  -0.0000000   0.0000000), wk =   0.1111111
        k(   17) = (  -0.0854401  -0.0493289   0.0000000), wk =   0.0555556
        k(   18) = (  -0.0854401  -0.0164430   0.0000000), wk =   0.1111111
        k(   19) = (  -0.0854401   0.0164430   0.0000000), wk =   0.1111111
        k(   20) = (  -0.0854401  -0.1479867   0.0000000), wk =   0.0555556

     Largest allocated arrays     est. size (Mb)     dimensions
     Largest temporary arrays     est. size (Mb)     dimensions

     Initial potential from superposition of free atoms
     Check: negative starting charge=   -0.184099

     starting charge  161.98398, renormalised to  162.00000

[...]

     *
     * You are using vdW-DF for exchange-correlation in this calculation.
     * Please cite the following three references that made this development
     * possible:
     *
     *   M. Dion, H. Rydberg, E. Schroder, D. C. Langreth, and
     *   B. I. Lundqvist, Phys. Rev. Lett. 92, 246401 (2004).
     *
     *   T. Thonhauser, V. R. Cooper, S. Li, A. Puzder, P. Hyldgaard, and
     *   D. C. Langreth, Phys. Rev. B 76, 125112 (2007).
     *
     *   G. Roman-Perez and J. M. Soler, Phys. Rev. Lett. 103, 096102 (2009).
     *
     *
     * If you are using vdW-DF2, please also cite:
     *
     *   K. Lee, E. D. Murray, L. Kong, B. I. Lundqvist, and
     *   D. C. Langreth, Phys. Rev. B 82, 081101(R) (2010).
     *
     *
     * If you are calculating the stress with vdW-DF, please also cite:
     *
     *   R. Sabatini, E. Kucukbenli, B. Kolb, T. Thonhauser, and
     *   S. de Gironcoli, J. Phys.: Condens. Matter 24, 424209 (2012).
     *

     Carrying out vdW-DF run using the following parameters:

     Nqs =      20    Nr_points =    1024   r_max =   100.000
     q_mesh =
               0.00001000     0.04494208     0.09755937     0.15916263
               0.23128650     0.31572767     0.41458969     0.53033537
               0.66584808     0.82450364     1.01025438     1.22772762
               1.48234092     1.78043706     2.12944203     2.53805004
               3.01644009     3.57652955     4.23227104     5.00000000

     Gradients computed in reciprocal space

[...]

     Starting wfc are  156 randomized atomic wfcs

     Self-consistent Calculation

[...]

     total energy              =   -1558.54144311 Ry
     Harris-Foulkes estimate   =   -1558.54144299 Ry
     estimated scf accuracy    <       0.00000171 Ry

     iteration # 18     ecut=    36.75 Ry     beta=0.10
     Davidson diagonalization with overlap
     ethr =  1.06E-09,  avg # of iterations =  2.0

[...]

     negative rho (up, down):  1.901E-01 0.000E+00

     Adding external electric field

     Computed dipole along edir(3) :
        Dipole                0.1621 Ry au,          0.4120 Debye
        Dipole field          0.0004 Ry au

        Potential amp.       -0.0375 Ry
        Total length         45.6534 bohr

     End of self-consistent calculation

[...]

          k = 0.0570-0.0000 0.0000 ( 18661 PWs)   bands (ev):

[...]

          k =-0.0854-0.1480 0.0000 ( 18624 PWs)   bands (ev):

   -58.7628 -58.7316 -58.6998 -58.6428 -58.6228 -58.6057 -58.5978 -58.5469
   -58.5335 -47.1399 -46.6523 -46.2352 -33.1735 -33.0843 -32.9950 -32.9910
   -32.9434 -32.8977 -32.8730 -32.8544 -32.8153 -32.7660 -32.7350 -32.6935
   -32.6707 -32.6542 -32.6484 -32.6180 -32.6102 -32.5630 -32.5511 -32.5021
   -32.4476 -32.4150 -32.4132 -32.3998 -32.3991 -32.3890 -32.3074 -25.2454
   -25.0432 -25.0232 -24.7218 -24.6400 -24.6108 -24.3162 -24.2946 -24.2651
    -1.9277  -1.8043  -1.0912  -1.0533  -0.8714  -0.6427  -0.6055  -0.5924
    -0.5420  -0.4471  -0.2538  -0.0980  -0.0709   0.0430   0.2700   0.2752
     0.4818   0.5298   0.6008   0.7021   0.8516   0.9118   1.1322   1.2825
     1.3505   1.3744   1.4878   1.6074   1.6276   1.6355   1.6718   1.8533
     1.9284   1.9591   2.1498   2.3186   2.4588   2.4645   2.5709   2.6472
     2.9828   3.1629   3.2432   3.4410   3.4665   3.4978   3.5165   3.5693
     3.7323   3.9012   4.1569   4.2167   4.3663   4.6373   4.7021   4.9450
     5.1409   5.2533   5.3315   5.5547   5.6212   5.8353   6.0355

     the Fermi energy is     2.1976 ev

!    total energy              =   -1558.54144332 Ry
     Harris-Foulkes estimate   =   -1558.54144113 Ry
     estimated scf accuracy    <       0.00000042 Ry

     The total energy is the sum of the following terms:

     one-electron contribution =  -13043.01474519 Ry
     hartree contribution      =    6515.59434523 Ry
     xc contribution           =    -235.16361597 Ry
     ewald contribution        =    5204.15671403 Ry
     electric field correction =       0.00006657 Ry
     smearing contrib. (-TS)   =      -0.11420800 Ry

     convergence has been achieved in  18 iterations

 BEEF-vdW xc energy contributions
           1 :   -201.877254550418
           2 :    183.994322048686
           3 :   -153.463584601886
           4 :    118.488093272544
           5 :   -87.1023214374727
           6 :    64.5258114577997
           7 :   -52.0265310699338
           8 :    47.4269975365236
           9 :   -46.7620324453845
          10 :    46.2152766902416
          11 :   -43.5451651775693
          12 :    38.5230691793827
          13 :   -32.4199650977412
          14 :    26.9609216740103
          15 :   -23.3349989741818
          16 :    21.6868445106225
          17 :   -21.2244845016143
          18 :    20.7625725151910
          19 :   -19.3716574589114
          20 :    16.8005538105840
          21 :   -13.5037600836413
          22 :    10.3099636244847
          23 :   -7.94809255332908
          24 :    6.68333145200194
          25 :   -6.23486754918076
          26 :    5.97715063433967
          27 :   -5.29012847817160
          28 :    3.86103692059808
          29 :   -1.79518319005871
          30 :  -0.494729740562661
          31 :   -23.0755635453113
          32 :   -17.5597324377443

     Forces acting on atoms (Ry/au):

     negative rho (up, down):  1.901E-01 0.000E+00
     atom    1 type  1   force =    -0.00000059   -0.02328122    0.01354120
     atom    2 type  1   force =    -0.02016249    0.01164088    0.01354031
     atom    3 type  1   force =     0.02016217    0.01164143    0.01354105
     atom    4 type  2   force =    -0.00000017   -0.00000220   -0.03577889
     atom    5 type  1   force =    -0.00000035    0.02565321    0.00583810
     atom    6 type  1   force =     0.02221694   -0.01282653    0.00584298
     atom    7 type  1   force =    -0.02221713   -0.01282626    0.00584064
     atom    8 type  2   force =     0.00000046    0.00000362   -0.02480961
     atom    9 type  1   force =    -0.00000039   -0.00002646    0.00050737
     atom   10 type  1   force =    -0.00001423    0.00000938    0.00050803
     atom   11 type  1   force =     0.00001760    0.00001165    0.00050820
     atom   12 type  2   force =    -0.00000181    0.00000249    0.00092063

     Total force =     0.078422     Total SCF correction =     0.003125

     entering subroutine stress ...

     negative rho (up, down):  1.901E-01 0.000E+00
          total   stress  (Ry/bohr**3)                   (kbar)     P=  -19.19
  -0.00019387   0.00000000   0.00000000        -28.52      0.00      0.00
   0.00000000  -0.00019386  -0.00000000          0.00    -28.52     -0.00
   0.00000000  -0.00000000  -0.00000356          0.00     -0.00     -0.52

 !ASE

     Writing output data file calc.save

     General routines

     Parallel routines

   This run was terminated on:   6:40:18  27Dec2018

   JOB DONE.
Job  /afs/slac/g/suncat/bin/suncat-tsmpirun -x LD_LIBRARY_PATH -wdir /scratch/qe110167_obC6T pw.x -in pw.inp

TID   HOST_NAME   COMMAND_LINE            STATUS            TERMINATION_TIME
00000 suncat0083 pw.x -in pw.inp   Done                     12/27/2018 06:40:18
00001 suncat0083 pw.x -in pw.inp   Done                     12/27/2018 06:40:18
00002 suncat0083 pw.x -in pw.inp   Done                     12/27/2018 06:40:18
00003 suncat0083 pw.x -in pw.inp   Done                     12/27/2018 06:40:18
00004 suncat0083 pw.x -in pw.inp   Done                     12/27/2018 06:40:18
00005 suncat0083 pw.x -in pw.inp   Done                     12/27/2018 06:40:18
00006 suncat0083 pw.x -in pw.inp   Done                     12/27/2018 06:40:18
00007 suncat0083 pw.x -in pw.inp   Done                     12/27/2018 06:40:18
00008 suncat0081 pw.x -in pw.inp   Done                     12/27/2018 06:40:18
00009 suncat0081 pw.x -in pw.inp   Done                     12/27/2018 06:40:18
00010 suncat0081 pw.x -in pw.inp   Done                     12/27/2018 06:40:18
00011 suncat0081 pw.x -in pw.inp   Done                     12/27/2018 06:40:18
00012 suncat0081 pw.x -in pw.inp   Done                     12/27/2018 06:40:18
00013 suncat0081 pw.x -in pw.inp   Done                     12/27/2018 06:40:18
00014 suncat0081 pw.x -in pw.inp   Done                     12/27/2018 06:40:18
00015 suncat0081 pw.x -in pw.inp   Done                     12/27/2018 06:40:18
00016 suncat0076 pw.x -in pw.inp   Done                     12/27/2018 06:40:18
00017 suncat0076 pw.x -in pw.inp   Done                     12/27/2018 06:40:18
00018 suncat0076 pw.x -in pw.inp   Done                     12/27/2018 06:40:18
00019 suncat0076 pw.x -in pw.inp   Done                     12/27/2018 06:40:18
00020 suncat0076 pw.x -in pw.inp   Done                     12/27/2018 06:40:18
00021 suncat0076 pw.x -in pw.inp   Done                     12/27/2018 06:40:18
00022 suncat0076 pw.x -in pw.inp   Done                     12/27/2018 06:40:18
00023 suncat0076 pw.x -in pw.inp   Done                     12/27/2018 06:40:18
00024 suncat0041 pw.x -in pw.inp   Done                     12/27/2018 06:40:18
00025 suncat0041 pw.x -in pw.inp   Done                     12/27/2018 06:40:18
00026 suncat0041 pw.x -in pw.inp   Done                     12/27/2018 06:40:18
00027 suncat0041 pw.x -in pw.inp   Done                     12/27/2018 06:40:18
00028 suncat0041 pw.x -in pw.inp   Done                     12/27/2018 06:40:18
00029 suncat0041 pw.x -in pw.inp   Done                     12/27/2018 06:40:18
00030 suncat0041 pw.x -in pw.inp   Done                     12/27/2018 06:40:18
00031 suncat0041 pw.x -in pw.inp   Done                     12/27/2018 06:40:18
00032 suncat0039 pw.x -in pw.inp   Done                     12/27/2018 06:40:18
00033 suncat0039 pw.x -in pw.inp   Done                     12/27/2018 06:40:18
00034 suncat0039 pw.x -in pw.inp   Done                     12/27/2018 06:40:18
00035 suncat0039 pw.x -in pw.inp   Done                     12/27/2018 06:40:18
00036 suncat0039 pw.x -in pw.inp   Done                     12/27/2018 06:40:18
00037 suncat0039 pw.x -in pw.inp   Done                     12/27/2018 06:40:18
00038 suncat0039 pw.x -in pw.inp   Done                     12/27/2018 06:40:18
00039 suncat0039 pw.x -in pw.inp   Done                     12/27/2018 06:40:18
00040 suncat0034 pw.x -in pw.inp   Done                     12/27/2018 06:40:18
00041 suncat0034 pw.x -in pw.inp   Done                     12/27/2018 06:40:18
00042 suncat0034 pw.x -in pw.inp   Done                     12/27/2018 06:40:18
00043 suncat0034 pw.x -in pw.inp   Done                     12/27/2018 06:40:18
00044 suncat0034 pw.x -in pw.inp   Done                     12/27/2018 06:40:18
00045 suncat0034 pw.x -in pw.inp   Done                     12/27/2018 06:40:18
00046 suncat0034 pw.x -in pw.inp   Done                     12/27/2018 06:40:18
00047 suncat0034 pw.x -in pw.inp   Done                     12/27/2018 06:40:18
00048 suncat0029 pw.x -in pw.inp   Done                     12/27/2018 06:40:18
00049 suncat0029 pw.x -in pw.inp   Done                     12/27/2018 06:40:18
00050 suncat0029 pw.x -in pw.inp   Done                     12/27/2018 06:40:18
00051 suncat0029 pw.x -in pw.inp   Done                     12/27/2018 06:40:18
00052 suncat0029 pw.x -in pw.inp   Done                     12/27/2018 06:40:18
00053 suncat0029 pw.x -in pw.inp   Done                     12/27/2018 06:40:18
00054 suncat0029 pw.x -in pw.inp   Done                     12/27/2018 06:40:18
00055 suncat0029 pw.x -in pw.inp   Done                     12/27/2018 06:40:18
00056 suncat0199 pw.x -in pw.inp   Done                     12/27/2018 06:40:18
00057 suncat0199 pw.x -in pw.inp   Done                     12/27/2018 06:40:18
00058 suncat0199 pw.x -in pw.inp   Done                     12/27/2018 06:40:18
00059 suncat0199 pw.x -in pw.inp   Done                     12/27/2018 06:40:18
00060 suncat0199 pw.x -in pw.inp   Done                     12/27/2018 06:40:18
00061 suncat0199 pw.x -in pw.inp   Done                     12/27/2018 06:40:18
00062 suncat0199 pw.x -in pw.inp   Done                     12/27/2018 06:40:18
00063 suncat0199 pw.x -in pw.inp   Done                     12/27/2018 06:40:18