     Program PWSCF v.5.1rc2 (svn rev. 11289) starts on 19Dec2018 at 17:37:31

     Current dimensions of program PWSCF are:
     Max number of different atomic species (ntypx) = 10
     Max number of k-points (npk) =  40000
     Max angular momentum in pseudopotentials (lmaxx) =  3
     Presently stress not available with electric field

     IMPORTANT: XC functional enforced from input :
     Exchange-correlation      = BEEF-VDW ( 1  4 27 13 2)
     Any further DFT definition will be discarded
     Please, verify this is what you really want

     Subspace diagonalization in iterative solution of the eigenvalue problem:
     a serial algorithm will be used

     bravais-lattice index     =            0
     lattice parameter (alat)  =       1.8897  a.u.
     unit-cell volume          =    5874.7893 (a.u.)^3
     number of atoms/cell      =           12
     number of atomic types    =            2
     number of electrons       =        60.00
     number of Kohn-Sham states=           60
     kinetic-energy cutoff     =      36.7493  Ry
     charge density cutoff     =     367.4932  Ry
     convergence threshold     =      1.0E-06
     mixing beta               =       0.1000
     number of iterations used =           10  plain     mixing
     Exchange-correlation      = BEEF-VDW ( 1  4 27 13 2)
     nstep                     =           50

     celldm(1)=   1.889726  celldm(2)=   0.000000  celldm(3)=   0.000000
     celldm(4)=   0.000000  celldm(5)=   0.000000  celldm(6)=   0.000000

     crystal axes: (cart. coord. in units of alat)
               a(1) = (   6.320764   0.000000   0.000000 )
               a(2) = (  -3.160382   5.473942   0.000000 )
               a(3) = (   0.000000   0.000000  25.160882 )

     reciprocal axes: (cart. coord. in units 2 pi/alat)
               b(1) = (  0.158209  0.091342  0.000000 )
               b(2) = (  0.000000  0.182684  0.000000 )
               b(3) = (  0.000000  0.000000  0.039744 )

     PseudoPot. # 1 for Al read from file:
     /afs/slac.stanford.edu/u/if/mamunm/psp/gbrv1.5pbe/Al.UPF
     MD5 check sum: 0a6289f5291fc8f409219462bc851e1f
     Pseudo is Ultrasoft + core correction, Zval =  3.0
     Generated by new atomic code, or converted to UPF format
     Using radial grid of  893 points,  3 beta functions with:
                l(1) =   0
                l(2) =   1
                l(3) =   2
     Q(r) pseudized with  8 coefficients,  rinner =    0.900   0.900   0.900
                                                       0.900   0.900

     PseudoPot. # 2 for La read from file:
     /afs/slac.stanford.edu/u/if/mamunm/psp/gbrv1.5pbe/La.UPF
     MD5 check sum: 5937b0c7494ba0601a847275249473aa
     Pseudo is Ultrasoft + core correction, Zval = 11.0
     Generated by new atomic code, or converted to UPF format
     Using radial grid of  995 points,  8 beta functions with:
                l(1) =   0
                l(2) =   0
                l(3) =   1
                l(4) =   1
                l(5) =   2
                l(6) =   2
                l(7) =   3
                l(8) =   3
     Q(r) pseudized with  8 coefficients,  rinner =    1.700   1.700   1.700
                                                       1.700   1.700   1.700
                                                       1.700

     vdW kernel table read from file vdW_kernel_table
     MD5 check sum: 095c7af220d748ca6e76c0b4c6cfb241

     atomic species   valence    mass     pseudopotential
        Al1            3.00    26.98154     Al( 1.00)
        La1           11.00   138.90547     La( 1.00)

     No symmetry found

   Cartesian axes

     site n.     atom                  positions (alat units)
         1           Al1 tau(   1) = (   0.0000000   0.0000000  10.0000000  )
         2           Al1 tau(   2) = (  -1.5801911   2.7369712  10.0000000  )
         3           Al1 tau(   3) = (   1.5801911   2.7369712  10.0000000  )
         4           La1 tau(   4) = (   3.1603822   0.0000000  10.0000000  )
         5           Al1 tau(   5) = (   3.1603822   1.8246475  12.5804412  )
         6           Al1 tau(   6) = (   1.5801911   4.5616187  12.5804412  )
         7           Al1 tau(   7) = (  -1.5801911   4.5616187  12.5804412  )
         8           La1 tau(   8) = (  -0.0000000   1.8246475  12.5804412  )
         9           Al1 tau(   9) = (  -0.0000000   3.6492950  15.1608825  )
        10           Al1 tau(  10) = (   1.5801911   0.9123237  15.1608825  )
        11           Al1 tau(  11) = (   4.7405732   0.9123237  15.1608825  )
        12           La1 tau(  12) = (   3.1603822   3.6492950  15.1608825  )

     number of k points=    20  Fermi-Dirac smearing, width (Ry)=  0.0110
                       cart. coord. in units 2pi/alat
        k(    1) = (   0.0000000   0.0000000   0.0000000), wk =   0.0555556
        k(    2) = (   0.0000000   0.0304473   0.0000000), wk =   0.1111111
        k(    3) = (   0.0000000   0.0608946   0.0000000), wk =   0.1111111
        k(    4) = (   0.0000000  -0.0913418   0.0000000), wk =   0.0555556
        k(    5) = (   0.0263681   0.0152236   0.0000000), wk =   0.1111111
        k(    6) = (   0.0263681   0.0456709   0.0000000), wk =   0.1111111
        k(    7) = (   0.0263681   0.0761182   0.0000000), wk =   0.1111111
        k(    8) = (   0.0263681  -0.0761182   0.0000000), wk =   0.1111111
        k(    9) = (   0.0263681  -0.0456709   0.0000000), wk =   0.1111111
        k(   10) = (   0.0263681  -0.0152236   0.0000000), wk =   0.1111111
        k(   11) = (   0.0527362   0.0304473   0.0000000), wk =   0.1111111
        k(   12) = (   0.0527362   0.0608946   0.0000000), wk =   0.1111111
        k(   13) = (   0.0527362   0.0913418   0.0000000), wk =   0.1111111
        k(   14) = (   0.0527362  -0.0608946   0.0000000), wk =   0.1111111
        k(   15) = (   0.0527362  -0.0304473   0.0000000), wk =   0.1111111
        k(   16) = (   0.0527362   0.0000000   0.0000000), wk =   0.1111111
        k(   17) = (  -0.0791044  -0.0456709   0.0000000), wk =   0.0555556
        k(   18) = (  -0.0791044  -0.0152236   0.0000000), wk =   0.1111111
        k(   19) = (  -0.0791044   0.0152236   0.0000000), wk =   0.1111111
        k(   20) = (  -0.0791044  -0.1370128   0.0000000), wk =   0.0555556

     Largest allocated arrays     est. size (Mb)     dimensions
     Largest temporary arrays     est. size (Mb)     dimensions

     Initial potential from superposition of free atoms
     Check: negative starting charge=   -0.210829

     starting charge   59.88161, renormalised to   60.00000

     negative rho (up, down):  2.112E-01 0.000E+00

     *
     * You are using vdW-DF for exchange-correlation in this calculation.
     * Please cite the following three references that made this development
     * possible:
     *
     *   M. Dion, H. Rydberg, E. Schroder, D. C. Langreth, and
     *   B. I. Lundqvist, Phys. Rev. Lett. 92, 246401 (2004).
     *
     *   T. Thonhauser, V. R. Cooper, S. Li, A. Puzder, P. Hyldgaard, and
     *   D. C. Langreth, Phys. Rev. B 76, 125112 (2007).
     *
     *   G. Roman-Perez and J. M. Soler, Phys. Rev. Lett. 103, 096102 (2009).
     *
     *
     * If you are using vdW-DF2, please also cite:
     *
     *   K. Lee, E. D. Murray, L. Kong, B. I. Lundqvist, and
     *   D. C. Langreth, Phys. Rev. B 82, 081101(R) (2010).
     *
     *
     * If you are calculating the stress with vdW-DF, please also cite:
     *
     *   R. Sabatini, E. Kucukbenli, B. Kolb, T. Thonhauser, and
     *   S. de Gironcoli, J. Phys.: Condens. Matter 24, 424209 (2012).
     *

     Carrying out vdW-DF run using the following parameters:

     Nqs =      20    Nr_points =    1024   r_max =   100.000
     q_mesh =
               0.00001000     0.04494208     0.09755937     0.15916263
               0.23128650     0.31572767     0.41458969     0.53033537
               0.66584808     0.82450364     1.01025438     1.22772762
               1.48234092     1.78043706     2.12944203     2.53805004
               3.01644009     3.57652955     4.23227104     5.00000000

     Gradients computed in reciprocal space

     Adding external electric field

     Computed dipole along edir(3) :
        Dipole               -0.0000 Ry au,         -0.0000 Debye
        Dipole field         -0.0000 Ry au

        Potential amp.        0.0000 Ry
        Total length         46.3585 bohr

     Starting wfc are   96 randomized atomic wfcs

     Self-consistent Calculation

     iteration #  1     ecut=    36.75 Ry     beta=0.10
     Davidson diagonalization with overlap
     ethr =  1.00E-02,  avg # of iterations =  2.0

[...]

     total energy              =    -373.86458141 Ry
     Harris-Foulkes estimate   =    -374.35304751 Ry
     estimated scf accuracy    <       2.81665682 Ry

[...]

     End of self-consistent calculation

          k = 0.0000 0.0000 0.0000 ( 22135 PWs)   bands (ev):

   -32.6837 -32.6832 -32.3965 -16.4350 -16.4304 -16.3861 -16.3861 -16.3737
   -16.3737 -16.2246 -16.1551 -16.1551  -7.7228  -6.5482  -5.2624  -4.3450
    -4.3449  -3.4781  -3.4780  -2.9309  -2.9309  -2.9043  -2.3174  -1.6481
    -1.1146  -0.9748  -0.9747  -0.3823  -0.0599  -0.0599  -0.0519  -0.0518
     0.7893   0.7893   0.8182   0.8182   1.3702   1.7377   1.8794   1.9272
     2.0478   2.0478   2.0911   2.0911   2.1218   2.1707   2.1707   2.2202
     2.2347   2.2347   2.2544   2.3249   2.3584   2.3584   2.3754   2.5442
     2.7056   2.7651   2.7651   2.9409

[...]

          k =-0.0791-0.0457 0.0000 ( 22024 PWs)   bands (ev):

[...]

     the Fermi energy is    -0.1268 ev

!    total energy              =    -373.97402820 Ry
     Harris-Foulkes estimate   =    -373.97403542 Ry
     estimated scf accuracy    <       0.00000025 Ry

     The total energy is the sum of the following terms:

     one-electron contribution =   -1439.48398297 Ry
     hartree contribution      =     726.90335640 Ry
     xc contribution           =    -191.60620417 Ry
     ewald contribution        =     530.26270090 Ry
     electric field correction =       0.00000000 Ry
     smearing contrib. (-TS)   =      -0.04989837 Ry

     convergence has been achieved in  16 iterations

 BEEF-vdW xc energy contributions
           1 :   -167.207973430872
           2 :    151.776934586117
           3 :   -125.549640633165
           4 :    95.3608606920246
           5 :   -67.2559974956112
           6 :    44.7150176640409
           7 :   -28.6168985696375
           8 :    18.2819884598091
           9 :   -12.5421130434532
          10 :    10.1836425049922
          11 :   -9.86389968026970
          12 :    10.0489373667706
          13 :   -9.34433288315179
          14 :    7.04266809329349
          15 :   -3.40146644698612
          16 :  -0.629048791389806
          17 :    4.02533582617949
          18 :   -6.18995882003728
          19 :    7.03337491604051
          20 :   -6.74362429838922
          21 :    5.57150869334129
          22 :   -3.82549710621501
          23 :    1.96865512404997
          24 :  -0.582513582093895
          25 :   0.118843827591490
          26 :  -0.618792245474623
          27 :    1.65577794772000
          28 :   -2.58332705350611
[...]

     crystal axes: (cart. coord. in units of alat)
               a(1) = (   6.320764   0.000000   0.000000 )
               a(2) = (  -3.160382   5.473942   0.000000 )
               a(3) = (   0.000000   0.000000  25.160882 )

     reciprocal axes: (cart. coord. in units 2 pi/alat)
               b(1) = (  0.158209  0.091342  0.000000 )
               b(2) = (  0.000000  0.182684  0.000000 )
               b(3) = (  0.000000  0.000000  0.039744 )

     PseudoPot. # 1 for Al read from file:
     /afs/slac.stanford.edu/u/if/mamunm/psp/gbrv1.5pbe/Al.UPF
     MD5 check sum: 0a6289f5291fc8f409219462bc851e1f
     Pseudo is Ultrasoft + core correction, Zval =  3.0
     Generated by new atomic code, or converted to UPF format
     Using radial grid of  893 points,  3 beta functions with:
                l(1) =   0
                l(2) =   1
                l(3) =   2
     Q(r) pseudized with  8 coefficients,  rinner =    0.900   0.900   0.900
                                                       0.900   0.900

     PseudoPot. # 2 for La read from file:
     /afs/slac.stanford.edu/u/if/mamunm/psp/gbrv1.5pbe/La.UPF
     MD5 check sum: 5937b0c7494ba0601a847275249473aa
     Pseudo is Ultrasoft + core correction, Zval = 11.0
     Generated by new atomic code, or converted to UPF format
     Using radial grid of  995 points,  8 beta functions with:
                l(1) =   0
                l(2) =   0
                l(3) =   1
                l(4) =   1
                l(5) =   2
                l(6) =   2
                l(7) =   3
                l(8) =   3
     Q(r) pseudized with  8 coefficients,  rinner =    1.700   1.700   1.700
                                                       1.700   1.700   1.700
                                                       1.700

     vdW kernel table read from file vdW_kernel_table
     MD5 check sum: 095c7af220d748ca6e76c0b4c6cfb241

     atomic species   valence    mass     pseudopotential
        Al1            3.00    26.98154     Al( 1.00)
        La1           11.00   138.90547     La( 1.00)

     No symmetry found

   Cartesian axes

     site n.     atom                  positions (alat units)
         1           Al1 tau(   1) = (   0.0000000   0.0000000  10.0000000  )
         2           Al1 tau(   2) = (  -1.5801911   2.7369712  10.0000000  )
         3           Al1 tau(   3) = (   1.5801911   2.7369712  10.0000000  )
         4           La1 tau(   4) = (   3.1603822   0.0000000  10.0000000  )
         5           Al1 tau(   5) = (   3.1603822   1.8246475  12.5804412  )
         6           Al1 tau(   6) = (   1.5801911   4.5616187  12.5804412  )
         7           Al1 tau(   7) = (  -1.5801911   4.5616187  12.5804412  )
         8           La1 tau(   8) = (  -0.0000000   1.8246475  12.5804412  )
         9           Al1 tau(   9) = (   0.0000031   3.8848434  14.9153644  )
        10           Al1 tau(  10) = (   1.7840018   0.7947965  14.9155240  )
        11           Al1 tau(  11) = (   4.5367611   0.7947918  14.9155219  )
        12           La1 tau(  12) = (   3.1603683   3.6493436  15.2830619  )

     number of k points=    20  Fermi-Dirac smearing, width (Ry)=  0.0110
                       cart. coord. in units 2pi/alat
        k(    1) = (   0.0000000   0.0000000   0.0000000), wk =   0.0555556
        k(    2) = (   0.0000000   0.0304473   0.0000000), wk =   0.1111111
        k(    3) = (   0.0000000   0.0608946   0.0000000), wk =   0.1111111
        k(    4) = (   0.0000000  -0.0913418   0.0000000), wk =   0.0555556
        k(    5) = (   0.0263681   0.0152236   0.0000000), wk =   0.1111111
        k(    6) = (   0.0263681   0.0456709   0.0000000), wk =   0.1111111
        k(    7) = (   0.0263681   0.0761182   0.0000000), wk =   0.1111111
        k(    8) = (   0.0263681  -0.0761182   0.0000000), wk =   0.1111111
        k(    9) = (   0.0263681  -0.0456709   0.0000000), wk =   0.1111111
        k(   10) = (   0.0263681  -0.0152236   0.0000000), wk =   0.1111111
        k(   11) = (   0.0527362   0.0304473   0.0000000), wk =   0.1111111
        k(   12) = (   0.0527362   0.0608946   0.0000000), wk =   0.1111111
        k(   13) = (   0.0527362   0.0913418   0.0000000), wk =   0.1111111
        k(   14) = (   0.0527362  -0.0608946   0.0000000), wk =   0.1111111
        k(   15) = (   0.0527362  -0.0304473   0.0000000), wk =   0.1111111
        k(   16) = (   0.0527362   0.0000000   0.0000000), wk =   0.1111111
        k(   17) = (  -0.0791044  -0.0456709   0.0000000), wk =   0.0555556
        k(   18) = (  -0.0791044  -0.0152236   0.0000000), wk =   0.1111111
        k(   19) = (  -0.0791044   0.0152236   0.0000000), wk =   0.1111111
        k(   20) = (  -0.0791044  -0.1370128   0.0000000), wk =   0.0555556

     Largest allocated arrays     est. size (Mb)     dimensions
     Largest temporary arrays     est. size (Mb)     dimensions

     Initial potential from superposition of free atoms
     Check: negative starting charge=   -0.210997

     starting charge   59.88161, renormalised to   60.00000

[...]

     *
     * You are using vdW-DF for exchange-correlation in this calculation.
     * Please cite the following three references that made this development
     * possible:
     *
     *   M. Dion, H. Rydberg, E. Schroder, D. C. Langreth, and
     *   B. I. Lundqvist, Phys. Rev. Lett. 92, 246401 (2004).
     *
     *   T. Thonhauser, V. R. Cooper, S. Li, A. Puzder, P. Hyldgaard, and
     *   D. C. Langreth, Phys. Rev. B 76, 125112 (2007).
     *
     *   G. Roman-Perez and J. M. Soler, Phys. Rev. Lett. 103, 096102 (2009).
     *
     *
     * If you are using vdW-DF2, please also cite:
     *
     *   K. Lee, E. D. Murray, L. Kong, B. I. Lundqvist, and
     *   D. C. Langreth, Phys. Rev. B 82, 081101(R) (2010).
     *
     *
     * If you are calculating the stress with vdW-DF, please also cite:
     *
     *   R. Sabatini, E. Kucukbenli, B. Kolb, T. Thonhauser, and
     *   S. de Gironcoli, J. Phys.: Condens. Matter 24, 424209 (2012).
     *

     Carrying out vdW-DF run using the following parameters:

     Nqs =      20    Nr_points =    1024   r_max =   100.000
     q_mesh =
               0.00001000     0.04494208     0.09755937     0.15916263
               0.23128650     0.31572767     0.41458969     0.53033537
               0.66584808     0.82450364     1.01025438     1.22772762
               1.48234092     1.78043706     2.12944203     2.53805004
               3.01644009     3.57652955     4.23227104     5.00000000

     Gradients computed in reciprocal space

[...]

     Starting wfc are   96 randomized atomic wfcs

     Self-consistent Calculation

[...]

     total energy              =    -374.00533835 Ry
     Harris-Foulkes estimate   =    -374.00534105 Ry
     estimated scf accuracy    <       0.00000114 Ry

     iteration # 16     ecut=    36.75 Ry     beta=0.10
     Davidson diagonalization with overlap
     ethr =  1.90E-09,  avg # of iterations =  3.0

[...]

     negative rho (up, down):  1.457E-01 0.000E+00

     Adding external electric field

     Computed dipole along edir(3) :
        Dipole                0.1754 Ry au,          0.4459 Debye
        Dipole field          0.0004 Ry au

        Potential amp.       -0.0348 Ry
        Total length         46.3585 bohr

     End of self-consistent calculation

[...]

          k = 0.0527 0.0000 0.0000 ( 22113 PWs)   bands (ev):

[...]

          k =-0.0791-0.1370 0.0000 ( 22024 PWs)   bands (ev):

   -32.8906 -32.5307 -32.1702 -16.6152 -16.5458 -16.5317 -16.2891 -16.2540
   -16.2337 -15.9947 -15.9581 -15.9496  -7.1528  -6.3215  -5.4829  -4.8507
    -4.2019  -4.1590  -3.7806  -3.3275  -2.4662  -2.0328  -1.6799  -1.5131
    -1.1570  -0.7940  -0.6980  -0.6691  -0.4692   0.1245   0.3877   0.4645
     0.6604   1.2920   1.3889   1.4573   1.6045   1.7384   1.8157   1.8551
     1.8613   1.9345   1.9462   1.9582   2.0302   2.0515   2.1735   2.2045
     2.2583   2.2888   2.3232   2.4370   2.5321   2.5571   2.6087   2.6649
     2.8267   3.0397   3.1468   3.2133

     the Fermi energy is     0.0469 ev

!    total energy              =    -374.00532856 Ry
     Harris-Foulkes estimate   =    -374.00533942 Ry
     estimated scf accuracy    <       0.00000028 Ry

     The total energy is the sum of the following terms:

     one-electron contribution =   -1447.99789935 Ry
     hartree contribution      =     731.41522251 Ry
     xc contribution           =    -191.77153346 Ry
     ewald contribution        =     534.39790371 Ry
     electric field correction =       0.00006582 Ry
     smearing contrib. (-TS)   =      -0.04908777 Ry

     convergence has been achieved in  16 iterations

 BEEF-vdW xc energy contributions
           1 :   -167.364448532715
           2 :    151.949760870998
           3 :   -125.748543404281
           4 :    95.5888926948795
           5 :   -67.5151046674243
           6 :    45.0129963370803
           7 :   -28.9645227009165
           8 :    18.6753286121429
           9 :   -12.9507969356436
          10 :    10.5674729143225
          11 :   -10.2057424947238
          12 :    10.3670920282596
          13 :   -9.66770133182743
          14 :    7.37260773452002
          15 :   -3.70047792051557
          16 :  -0.407389128774696
          17 :    3.89273790812851
          18 :   -6.10911102264208
          19 :    6.94844860351819
          20 :   -6.62792096448763
          21 :    5.44826172314345
          22 :   -3.74441305197794
          23 :    1.96286591685598
          24 :  -0.645855535303127
          25 :   0.219502434418217
          26 :  -0.729735546890055
          27 :    1.77111212227862
          28 :   -2.71025788277908
          29 :    3.05516015986899
          30 :   -2.70632215917627
          31 :   -16.3074945977752
          32 :   -11.7514164373148

     Forces acting on atoms (Ry/au):

     negative rho (up, down):  1.457E-01 0.000E+00
     atom    1 type  1   force =    -0.00000000   -0.02191186    0.00924212
     atom    2 type  1   force =    -0.01899587    0.01094863    0.00925876
     atom    3 type  1   force =     0.01899587    0.01094868    0.00925867
     atom    4 type  2   force =     0.00000029   -0.00000140   -0.02582784
     atom    5 type  1   force =    -0.00000007    0.00603904   -0.00175871
     atom    6 type  1   force =     0.00523759   -0.00303187   -0.00174973
     atom    7 type  1   force =    -0.00523786   -0.00303188   -0.00174892
     atom    8 type  2   force =    -0.00000059    0.00000391    0.00628624
     atom    9 type  1   force =    -0.00000224    0.00039843   -0.00090863
     atom   10 type  1   force =     0.00030988   -0.00018906   -0.00089752
     atom   11 type  1   force =    -0.00031089   -0.00018693   -0.00089728
     atom   12 type  2   force =     0.00000390    0.00001430   -0.00025716

     Total force =     0.050268     Total SCF correction =     0.000765

     entering subroutine stress ...

     negative rho (up, down):  1.457E-01 0.000E+00
          total   stress  (Ry/bohr**3)                   (kbar)     P=   -2.47
  -0.00002323   0.00000000   0.00000000         -3.42      0.00      0.00
   0.00000000  -0.00002321  -0.00000000          0.00     -3.42     -0.00
   0.00000000  -0.00000000  -0.00000391          0.00     -0.00     -0.58

 !ASE

     Writing output data file calc.save

     General routines

     Parallel routines

   This run was terminated on:  18:28:55  19Dec2018

   JOB DONE.
Job  /afs/slac/g/suncat/bin/suncat-tsmpirun -x LD_LIBRARY_PATH -wdir /scratch/qe773271_Ezi4K pw.x -in pw.inp

TID   HOST_NAME   COMMAND_LINE            STATUS            TERMINATION_TIME
00000 suncat0282 pw.x -in pw.inp   Done                     12/19/2018 18:28:55
00001 suncat0282 pw.x -in pw.inp   Done                     12/19/2018 18:28:55
00002 suncat0282 pw.x -in pw.inp   Done                     12/19/2018 18:28:55
00003 suncat0282 pw.x -in pw.inp   Done                     12/19/2018 18:28:55
00004 suncat0282 pw.x -in pw.inp   Done                     12/19/2018 18:28:55
00005 suncat0282 pw.x -in pw.inp   Done                     12/19/2018 18:28:55
00006 suncat0282 pw.x -in pw.inp   Done                     12/19/2018 18:28:55
00007 suncat0282 pw.x -in pw.inp   Done                     12/19/2018 18:28:55
00008 suncat0280 pw.x -in pw.inp   Done                     12/19/2018 18:28:55
00009 suncat0280 pw.x -in pw.inp   Done                     12/19/2018 18:28:55
00010 suncat0280 pw.x -in pw.inp   Done                     12/19/2018 18:28:55
00011 suncat0280 pw.x -in pw.inp   Done                     12/19/2018 18:28:55
00012 suncat0280 pw.x -in pw.inp   Done                     12/19/2018 18:28:55
00013 suncat0280 pw.x -in pw.inp   Done                     12/19/2018 18:28:55
00014 suncat0280 pw.x -in pw.inp   Done                     12/19/2018 18:28:55
00015 suncat0280 pw.x -in pw.inp   Done                     12/19/2018 18:28:55
00016 suncat0279 pw.x -in pw.inp   Done                     12/19/2018 18:28:55
00017 suncat0279 pw.x -in pw.inp   Done                     12/19/2018 18:28:55
00018 suncat0279 pw.x -in pw.inp   Done                     12/19/2018 18:28:55
00019 suncat0279 pw.x -in pw.inp   Done                     12/19/2018 18:28:55
00020 suncat0279 pw.x -in pw.inp   Done                     12/19/2018 18:28:55
00021 suncat0279 pw.x -in pw.inp   Done                     12/19/2018 18:28:55
00022 suncat0279 pw.x -in pw.inp   Done                     12/19/2018 18:28:55
00023 suncat0279 pw.x -in pw.inp   Done                     12/19/2018 18:28:55
00024 suncat0278 pw.x -in pw.inp   Done                     12/19/2018 18:28:55
00025 suncat0278 pw.x -in pw.inp   Done                     12/19/2018 18:28:55
00026 suncat0278 pw.x -in pw.inp   Done                     12/19/2018 18:28:55
00027 suncat0278 pw.x -in pw.inp   Done                     12/19/2018 18:28:55
00028 suncat0278 pw.x -in pw.inp   Done                     12/19/2018 18:28:55
00029 suncat0278 pw.x -in pw.inp   Done                     12/19/2018 18:28:55
00030 suncat0278 pw.x -in pw.inp   Done                     12/19/2018 18:28:55
00031 suncat0278 pw.x -in pw.inp   Done                     12/19/2018 18:28:55
00032 suncat0267 pw.x -in pw.inp   Done                     12/19/2018 18:28:55
00033 suncat0267 pw.x -in pw.inp   Done                     12/19/2018 18:28:55
00034 suncat0267 pw.x -in pw.inp   Done                     12/19/2018 18:28:55
00035 suncat0267 pw.x -in pw.inp   Done                     12/19/2018 18:28:55
00036 suncat0267 pw.x -in pw.inp   Done                     12/19/2018 18:28:55
00037 suncat0267 pw.x -in pw.inp   Done                     12/19/2018 18:28:55
00038 suncat0267 pw.x -in pw.inp   Done                     12/19/2018 18:28:55
00039 suncat0267 pw.x -in pw.inp   Done                     12/19/2018 18:28:55
00040 suncat0266 pw.x -in pw.inp   Done                     12/19/2018 18:28:55
00041 suncat0266 pw.x -in pw.inp   Done                     12/19/2018 18:28:55
00042 suncat0266 pw.x -in pw.inp   Done                     12/19/2018 18:28:55
00043 suncat0266 pw.x -in pw.inp   Done                     12/19/2018 18:28:55
00044 suncat0266 pw.x -in pw.inp   Done                     12/19/2018 18:28:55
00045 suncat0266 pw.x -in pw.inp   Done                     12/19/2018 18:28:55
00046 suncat0266 pw.x -in pw.inp   Done                     12/19/2018 18:28:55
00047 suncat0266 pw.x -in pw.inp   Done                     12/19/2018 18:28:55
00048 suncat0264 pw.x -in pw.inp   Done                     12/19/2018 18:28:55
00049 suncat0264 pw.x -in pw.inp   Done                     12/19/2018 18:28:55
00050 suncat0264 pw.x -in pw.inp   Done                     12/19/2018 18:28:55
00051 suncat0264 pw.x -in pw.inp   Done                     12/19/2018 18:28:55
00052 suncat0264 pw.x -in pw.inp   Done                     12/19/2018 18:28:55
00053 suncat0264 pw.x -in pw.inp   Done                     12/19/2018 18:28:55
00054 suncat0264 pw.x -in pw.inp   Done                     12/19/2018 18:28:55
00055 suncat0264 pw.x -in pw.inp   Done                     12/19/2018 18:28:55
00056 suncat0262 pw.x -in pw.inp   Done                     12/19/2018 18:28:55
00057 suncat0262 pw.x -in pw.inp   Done                     12/19/2018 18:28:55
00058 suncat0262 pw.x -in pw.inp   Done                     12/19/2018 18:28:55
00059 suncat0262 pw.x -in pw.inp   Done                     12/19/2018 18:28:55
00060 suncat0262 pw.x -in pw.inp   Done                     12/19/2018 18:28:55
00061 suncat0262 pw.x -in pw.inp   Done                     12/19/2018 18:28:55
00062 suncat0262 pw.x -in pw.inp   Done                     12/19/2018 18:28:55
00063 suncat0262 pw.x -in pw.inp   Done                     12/19/2018 18:28:55