     Program PWSCF v.5.1rc2 (svn rev. 11289) starts on 28Dec2018 at  1:10: 6

     Current dimensions of program PWSCF are:
     Max number of different atomic species (ntypx) = 10
     Max number of k-points (npk) =  40000
     Max angular momentum in pseudopotentials (lmaxx) =  3
     Presently stress not available with electric field

     IMPORTANT: XC functional enforced from input :
     Exchange-correlation      = BEEF-VDW ( 1  4 27 13 2)
     Any further DFT definition will be discarded
     Please, verify this is what you really want

     Subspace diagonalization in iterative solution of the eigenvalue problem:
     a serial algorithm will be used

     bravais-lattice index     =            0
     lattice parameter (alat)  =       1.8897  a.u.
     unit-cell volume          =    5384.8969 (a.u.)^3
     number of atoms/cell      =           12
     number of atomic types    =            2
     number of electrons       =       153.00
     number of Kohn-Sham states=          106
     kinetic-energy cutoff     =      36.7493  Ry
     charge density cutoff     =     367.4932  Ry
     convergence threshold     =      1.0E-06
     mixing beta               =       0.1000
     number of iterations used =           10  plain     mixing
     Exchange-correlation      = BEEF-VDW ( 1  4 27 13 2)
     nstep                     =           50

     celldm(1)=   1.889726  celldm(2)=   0.000000  celldm(3)=   0.000000
     celldm(4)=   0.000000  celldm(5)=   0.000000  celldm(6)=   0.000000

     crystal axes: (cart. coord. in units of alat)
               a(1) = (   6.075695   0.000000   0.000000 )
               a(2) = (  -3.037848   5.261706   0.000000 )
               a(3) = (   0.000000   0.000000  24.960784 )

     reciprocal axes: (cart. coord. in units 2 pi/alat)
               b(1) = (  0.164590  0.095026  0.000000 )
               b(2) = (  0.000000  0.190052  0.000000 )
               b(3) = (  0.000000  0.000000  0.040063 )

     PseudoPot. # 1 for Ta read from file:
     /afs/slac.stanford.edu/u/if/mamunm/psp/gbrv1.5pbe/Ta.UPF
     MD5 check sum: f8bbe9446314a3b8ea5d9f3e3836c939
     Pseudo is Ultrasoft + core correction, Zval = 13.0
     Generated by new atomic code, or converted to UPF format
     Using radial grid of  921 points,  7 beta functions with:
                l(1) =   0
                l(2) =   0
                l(3) =   1
                l(4) =   1
                l(5) =   2
                l(6) =   2
                l(7) =   3
     Q(r) pseudized with  6 coefficients,  rinner =    1.300   1.300   1.300
                                                       1.300   1.300   1.300
                                                       1.300

     PseudoPot. # 2 for Zr read from file:
     /afs/slac.stanford.edu/u/if/mamunm/psp/gbrv1.5pbe/Zr.UPF
     MD5 check sum: 5db81b1e868ab7776c4564c113de050b
     Pseudo is Ultrasoft + core correction, Zval = 12.0
     Generated by new atomic code, or converted to UPF format
     Using radial grid of  887 points,  6 beta functions with:
                l(1) =   0
                l(2) =   0
                l(3) =   1
                l(4) =   1
                l(5) =   2
                l(6) =   2
     Q(r) pseudized with  6 coefficients,  rinner =    1.200   1.200   1.200
                                                       1.200   1.200

     vdW kernel table read from file vdW_kernel_table
     MD5 check sum: 095c7af220d748ca6e76c0b4c6cfb241

     atomic species   valence    mass     pseudopotential
        Ta1           13.00   180.94788     Ta( 1.00)
        Zr1           12.00    91.22400     Zr( 1.00)

     No symmetry found

   Cartesian axes

     site n.     atom                  positions (alat units)
         1           Ta1 tau(   1) = (   0.0000000   0.0000000  10.0000000  )
         2           Ta1 tau(   2) = (   4.5567713   2.6308531  10.0000000  )
         3           Ta1 tau(   3) = (   1.5189238   2.6308531  10.0000000  )
         4           Zr1 tau(   4) = (   3.0378475   0.0000000  10.0000000  )
         5           Ta1 tau(   5) = (   3.0378475   1.7539021  12.4803921  )
         6           Ta1 tau(   6) = (   1.5189238   4.3847552  12.4803921  )
         7           Ta1 tau(   7) = (  -1.5189238   4.3847552  12.4803921  )
         8           Zr1 tau(   8) = (   0.0000000   1.7539021  12.4803921  )
         9           Ta1 tau(   9) = (  -0.0000000   3.5078042  14.9607842  )
        10           Ta1 tau(  10) = (   1.5189238   0.8769510  14.9607842  )
        11           Ta1 tau(  11) = (   4.5567713   0.8769510  14.9607842  )
        12           Zr1 tau(  12) = (   3.0378475   3.5078042  14.9607842  )

     number of k points=    20  Fermi-Dirac smearing, width (Ry)=  0.0110
                       cart. coord. in units 2pi/alat
        k(    1) = (   0.0000000   0.0000000   0.0000000), wk =   0.0555556
        k(    2) = (   0.0000000   0.0316754   0.0000000), wk =   0.1111111
        k(    3) = (   0.0000000   0.0633508   0.0000000), wk =   0.1111111
        k(    4) = (   0.0000000  -0.0950262   0.0000000), wk =   0.0555556
        k(    5) = (   0.0274317   0.0158377   0.0000000), wk =   0.1111111
        k(    6) = (   0.0274317   0.0475131   0.0000000), wk =   0.1111111
        k(    7) = (   0.0274317   0.0791885   0.0000000), wk =   0.1111111
        k(    8) = (   0.0274317  -0.0791885   0.0000000), wk =   0.1111111
        k(    9) = (   0.0274317  -0.0475131   0.0000000), wk =   0.1111111
        k(   10) = (   0.0274317  -0.0158377   0.0000000), wk =   0.1111111
        k(   11) = (   0.0548634   0.0316754   0.0000000), wk =   0.1111111
        k(   12) = (   0.0548634   0.0633508   0.0000000), wk =   0.1111111
        k(   13) = (   0.0548634   0.0950262   0.0000000), wk =   0.1111111
        k(   14) = (   0.0548634  -0.0633508   0.0000000), wk =   0.1111111
        k(   15) = (   0.0548634  -0.0316754   0.0000000), wk =   0.1111111
        k(   16) = (   0.0548634   0.0000000   0.0000000), wk =   0.1111111
        k(   17) = (  -0.0822951  -0.0475131   0.0000000), wk =   0.0555556
        k(   18) = (  -0.0822951  -0.0158377   0.0000000), wk =   0.1111111
        k(   19) = (  -0.0822951   0.0158377   0.0000000), wk =   0.1111111
        k(   20) = (  -0.0822951  -0.1425393   0.0000000), wk =   0.0555556

     Largest allocated arrays     est. size (Mb)     dimensions
     Largest temporary arrays     est. size (Mb)     dimensions

     Initial potential from superposition of free atoms
     Check: negative starting charge=   -1.023380

     starting charge  152.98354, renormalised to  153.00000

     negative rho (up, down):  1.023E+00 0.000E+00

     *
     * You are using vdW-DF for exchange-correlation in this calculation.
     * Please cite the following three references that made this development
     * possible:
     *
     *   M. Dion, H. Rydberg, E. Schroder, D. C. Langreth, and
     *   B. I. Lundqvist, Phys. Rev. Lett. 92, 246401 (2004).
     *
     *   T. Thonhauser, V. R. Cooper, S. Li, A. Puzder, P. Hyldgaard, and
     *   D. C. Langreth, Phys. Rev. B 76, 125112 (2007).
     *
     *   G. Roman-Perez and J. M. Soler, Phys. Rev. Lett. 103, 096102 (2009).
     *
     *
     * If you are using vdW-DF2, please also cite:
     *
     *   K. Lee, E. D. Murray, L. Kong, B. I. Lundqvist, and
     *   D. C. Langreth, Phys. Rev. B 82, 081101(R) (2010).
     *
     *
     * If you are calculating the stress with vdW-DF, please also cite:
     *
     *   R. Sabatini, E. Kucukbenli, B. Kolb, T. Thonhauser, and
     *   S. de Gironcoli, J. Phys.: Condens. Matter 24, 424209 (2012).
     *

     Carrying out vdW-DF run using the following parameters:

     Nqs =      20    Nr_points =    1024   r_max =   100.000
     q_mesh =
               0.00001000     0.04494208     0.09755937     0.15916263
               0.23128650     0.31572767     0.41458969     0.53033537
               0.66584808     0.82450364     1.01025438     1.22772762
               1.48234092     1.78043706     2.12944203     2.53805004
               3.01644009     3.57652955     4.23227104     5.00000000

     Gradients computed in reciprocal space

     Adding external electric field

     Computed dipole along edir(3) :
        Dipole                0.0000 Ry au,          0.0000 Debye
        Dipole field          0.0000 Ry au

        Potential amp.       -0.0000 Ry
        Total length         45.9898 bohr

     Starting wfc are  156 randomized atomic wfcs

     Self-consistent Calculation

     iteration #  1     ecut=    36.75 Ry     beta=0.10
     Davidson diagonalization with overlap
     ethr =  1.00E-02,  avg # of iterations =  2.0

[...]

     total energy              =   -1587.21169693 Ry
     Harris-Foulkes estimate   =   -1588.32023301 Ry
     estimated scf accuracy    <       6.31627442 Ry

[...]

     End of self-consistent calculation

          k = 0.0000 0.0000 0.0000 ( 20215 PWs)   bands (ev):

   -66.5698 -66.5663 -66.5345 -66.5345 -66.5336 -66.5336 -66.4984 -66.4681
   -66.4680 -47.0942 -47.0938 -46.8195 -33.2162 -33.1298 -33.1047 -33.0766
   -33.0766 -33.0591 -33.0433 -33.0433 -32.9805 -32.9805 -32.9709 -32.9059
   -32.9059 -32.8284 -32.8284 -32.7523 -32.6980 -32.6847 -32.6716 -32.6715
   -32.6207 -32.5777 -32.5777 -32.5742 -32.5742 -32.5567 -32.5567 -25.1437
   -25.1228 -25.0548 -25.0548 -25.0495 -25.0495 -24.8408 -24.8227 -24.8227
    -5.0199  -3.5690  -2.6434  -2.0177  -2.0177  -1.8028  -1.8028  -1.6194
    -1.2748  -1.1774  -1.1774  -0.8403  -0.8377  -0.8377  -0.8252   0.2435
     0.2917   0.2917   1.2663   1.4823   1.4823   1.5210   1.6480   1.8918
     1.9634   1.9634   2.1855   2.3407   2.3407   2.3730   2.4798   2.5967
     2.5967   2.7423   2.7423   2.7890   2.7890   2.8730   2.9168   2.9168
     3.5002   3.6462   3.6462   4.0138   4.2912   4.2912   4.7577   4.7577
     4.9213   4.9213   5.3083   5.3083   5.3153   5.7768   5.8092   5.8685
     5.8685   6.0358

[...]

          k =-0.0823-0.0475 0.0000 ( 20292 PWs)   bands (ev):

[...]

     the Fermi energy is     1.8113 ev

!    total energy              =   -1587.82546625 Ry
     Harris-Foulkes estimate   =   -1587.82546350 Ry
     estimated scf accuracy    <       0.00000041 Ry

     The total energy is the sum of the following terms:

     one-electron contribution =  -10498.80971236 Ry
     hartree contribution      =    5233.34073992 Ry
     xc contribution           =    -447.03656808 Ry
     ewald contribution        =    4124.79373331 Ry
     electric field correction =       0.00000003 Ry
     smearing contrib. (-TS)   =      -0.11365907 Ry

     convergence has been achieved in  16 iterations

 BEEF-vdW xc energy contributions
           1 :   -392.119581562441
           2 :    361.183475277693
           3 :   -307.364455131129
           4 :    243.434348754320
           5 :   -182.083617969137
           6 :    131.893898952937
           7 :   -95.6200972546310
           8 :    71.0917384999105
           9 :   -53.8069906864413
          10 :    39.6961871140927
          11 :   -26.7667456218851
          12 :    15.1599091918171
          13 :   -6.04074625584025
          14 :   0.237741625184640
[...]
     Generated by new atomic code, or converted to UPF format
     Using radial grid of  921 points,  7 beta functions with:
                l(1) =   0
                l(2) =   0
                l(3) =   1
                l(4) =   1
                l(5) =   2
                l(6) =   2
                l(7) =   3
     Q(r) pseudized with  6 coefficients,  rinner =    1.300   1.300   1.300
                                                       1.300   1.300   1.300
                                                       1.300

     PseudoPot. # 2 for Zr read from file:
     /afs/slac.stanford.edu/u/if/mamunm/psp/gbrv1.5pbe/Zr.UPF
     MD5 check sum: 5db81b1e868ab7776c4564c113de050b
     Pseudo is Ultrasoft + core correction, Zval = 12.0
     Generated by new atomic code, or converted to UPF format
     Using radial grid of  887 points,  6 beta functions with:
                l(1) =   0
                l(2) =   0
                l(3) =   1
                l(4) =   1
                l(5) =   2
                l(6) =   2
     Q(r) pseudized with  6 coefficients,  rinner =    1.200   1.200   1.200
                                                       1.200   1.200

     vdW kernel table read from file vdW_kernel_table
     MD5 check sum: 095c7af220d748ca6e76c0b4c6cfb241

     atomic species   valence    mass     pseudopotential
        Ta1           13.00   180.94788     Ta( 1.00)
        Zr1           12.00    91.22400     Zr( 1.00)

     No symmetry found

   Cartesian axes

     site n.     atom                  positions (alat units)
         1           Ta1 tau(   1) = (   0.0000000   0.0000000  10.0000000  )
         2           Ta1 tau(   2) = (   4.5567713   2.6308531  10.0000000  )
         3           Ta1 tau(   3) = (   1.5189238   2.6308531  10.0000000  )
         4           Zr1 tau(   4) = (   3.0378475   0.0000000  10.0000000  )
         5           Ta1 tau(   5) = (   3.0378475   1.7539021  12.4803921  )
         6           Ta1 tau(   6) = (   1.5189238   4.3847552  12.4803921  )
         7           Ta1 tau(   7) = (  -1.5189238   4.3847552  12.4803921  )
         8           Zr1 tau(   8) = (   0.0000000   1.7539021  12.4803921  )
         9           Ta1 tau(   9) = (  -0.0000025   3.6185716  14.8218132  )
        10           Ta1 tau(  10) = (   1.6148511   0.8215662  14.8218144  )
        11           Ta1 tau(  11) = (   4.4608426   0.8215676  14.8218136  )
        12           Zr1 tau(  12) = (   3.0378475   3.5078045  15.1364653  )

     number of k points=    20  Fermi-Dirac smearing, width (Ry)=  0.0110
                       cart. coord. in units 2pi/alat
        k(    1) = (   0.0000000   0.0000000   0.0000000), wk =   0.0555556
        k(    2) = (   0.0000000   0.0316754   0.0000000), wk =   0.1111111
        k(    3) = (   0.0000000   0.0633508   0.0000000), wk =   0.1111111
        k(    4) = (   0.0000000  -0.0950262   0.0000000), wk =   0.0555556
        k(    5) = (   0.0274317   0.0158377   0.0000000), wk =   0.1111111
        k(    6) = (   0.0274317   0.0475131   0.0000000), wk =   0.1111111
        k(    7) = (   0.0274317   0.0791885   0.0000000), wk =   0.1111111
        k(    8) = (   0.0274317  -0.0791885   0.0000000), wk =   0.1111111
        k(    9) = (   0.0274317  -0.0475131   0.0000000), wk =   0.1111111
        k(   10) = (   0.0274317  -0.0158377   0.0000000), wk =   0.1111111
        k(   11) = (   0.0548634   0.0316754   0.0000000), wk =   0.1111111
        k(   12) = (   0.0548634   0.0633508   0.0000000), wk =   0.1111111
        k(   13) = (   0.0548634   0.0950262   0.0000000), wk =   0.1111111
        k(   14) = (   0.0548634  -0.0633508   0.0000000), wk =   0.1111111
        k(   15) = (   0.0548634  -0.0316754   0.0000000), wk =   0.1111111
        k(   16) = (   0.0548634   0.0000000   0.0000000), wk =   0.1111111
        k(   17) = (  -0.0822951  -0.0475131   0.0000000), wk =   0.0555556
        k(   18) = (  -0.0822951  -0.0158377   0.0000000), wk =   0.1111111
        k(   19) = (  -0.0822951   0.0158377   0.0000000), wk =   0.1111111
        k(   20) = (  -0.0822951  -0.1425393   0.0000000), wk =   0.0555556

     Largest allocated arrays     est. size (Mb)     dimensions
     Largest temporary arrays     est. size (Mb)     dimensions

     Initial potential from superposition of free atoms
     Check: negative starting charge=   -1.027020

     starting charge  152.98354, renormalised to  153.00000

[...]

     *
     * You are using vdW-DF for exchange-correlation in this calculation.
     * Please cite the following three references that made this development
     * possible:
     *
     *   M. Dion, H. Rydberg, E. Schroder, D. C. Langreth, and
     *   B. I. Lundqvist, Phys. Rev. Lett. 92, 246401 (2004).
     *
     *   T. Thonhauser, V. R. Cooper, S. Li, A. Puzder, P. Hyldgaard, and
     *   D. C. Langreth, Phys. Rev. B 76, 125112 (2007).
     *
     *   G. Roman-Perez and J. M. Soler, Phys. Rev. Lett. 103, 096102 (2009).
     *
     *
     * If you are using vdW-DF2, please also cite:
     *
     *   K. Lee, E. D. Murray, L. Kong, B. I. Lundqvist, and
     *   D. C. Langreth, Phys. Rev. B 82, 081101(R) (2010).
     *
     *
     * If you are calculating the stress with vdW-DF, please also cite:
     *
     *   R. Sabatini, E. Kucukbenli, B. Kolb, T. Thonhauser, and
     *   S. de Gironcoli, J. Phys.: Condens. Matter 24, 424209 (2012).
     *

     Carrying out vdW-DF run using the following parameters:

     Nqs =      20    Nr_points =    1024   r_max =   100.000
     q_mesh =
               0.00001000     0.04494208     0.09755937     0.15916263
               0.23128650     0.31572767     0.41458969     0.53033537
               0.66584808     0.82450364     1.01025438     1.22772762
               1.48234092     1.78043706     2.12944203     2.53805004
               3.01644009     3.57652955     4.23227104     5.00000000

     Gradients computed in reciprocal space

[...]

     Starting wfc are  156 randomized atomic wfcs

     Self-consistent Calculation

[...]

     iteration #  9     ecut=    36.75 Ry     beta=0.10
     Davidson diagonalization with overlap
     c_bands:  1 eigenvalues not converged
     ethr =  2.85E-05,  avg # of iterations =  5.0

[...]

     total energy              =   -1587.85423621 Ry
     Harris-Foulkes estimate   =   -1587.85423566 Ry
     estimated scf accuracy    <       0.00000484 Ry

     iteration # 16     ecut=    36.75 Ry     beta=0.10
     Davidson diagonalization with overlap
     ethr =  3.17E-09,  avg # of iterations =  2.0

[...]

     negative rho (up, down):  1.071E+00 0.000E+00

     Adding external electric field

     Computed dipole along edir(3) :
        Dipole                0.0931 Ry au,          0.2366 Debye
        Dipole field          0.0002 Ry au

        Potential amp.       -0.0200 Ry
        Total length         45.9898 bohr

     End of self-consistent calculation

[...]

          k = 0.0549 0.0000 0.0000 ( 20289 PWs)   bands (ev):

[...]

          k =-0.0823-0.1425 0.0000 ( 20292 PWs)   bands (ev):

   -66.4639 -66.4528 -66.4416 -66.3755 -66.3547 -66.3413 -66.3330 -66.3169
   -66.3099 -47.2749 -46.9936 -46.7637 -33.0703 -33.0187 -32.9436 -32.9370
   -32.9231 -32.8825 -32.8703 -32.8240 -32.8162 -32.8136 -32.7666 -32.7605
   -32.7520 -32.7187 -32.7183 -32.6744 -32.6605 -32.6011 -32.5738 -32.5250
   -32.5212 -32.5005 -32.4752 -32.4725 -32.4589 -32.4297 -32.3883 -25.3358
   -25.2149 -25.1967 -25.0343 -24.9834 -24.9625 -24.8040 -24.7995 -24.7782
    -3.4165  -3.1808  -1.9695  -1.8489  -1.2667  -1.1629  -0.9559  -0.8335
    -0.8102  -0.5726  -0.0396  -0.0356   0.1098   0.2521   0.3253   0.3858
     0.5546   0.6179   0.7356   0.8261   0.8954   0.9082   1.1396   1.2427
     1.3484   1.3810   1.4135   1.5795   1.5819   1.6455   1.8223   1.8528
     1.9876   2.2122   2.3435   2.4361   2.5707   2.6761   3.0254   3.1655
     3.4236   3.5834   3.7682   3.8738   3.9069   3.9908   4.0577   4.1415
     4.2298   4.3011   4.5426   4.6166   4.6949   4.8925   5.0247   5.0257
     5.5050   5.5556

     the Fermi energy is     1.8990 ev

!    total energy              =   -1587.85423921 Ry
     Harris-Foulkes estimate   =   -1587.85423747 Ry
     estimated scf accuracy    <       0.00000042 Ry

     The total energy is the sum of the following terms:

     one-electron contribution =  -10597.42044070 Ry
     hartree contribution      =    5283.17969180 Ry
     xc contribution           =    -447.22809923 Ry
     ewald contribution        =    4173.72270355 Ry
     electric field correction =       0.00002022 Ry
     smearing contrib. (-TS)   =      -0.10811485 Ry

     convergence has been achieved in  16 iterations

 BEEF-vdW xc energy contributions
           1 :   -392.549977280872
           2 :    361.659987132957
           3 :   -307.898601571106
           4 :    243.983491708545
           5 :   -182.562601551886
           6 :    132.222848810164
           7 :   -95.7813468987295
           8 :    71.1494781588003
           9 :   -53.8691817951102
          10 :    39.8469985914669
          11 :   -27.0192054781115
          12 :    15.4562378847218
          13 :   -6.29144452797766
          14 :   0.372386508918112
          15 :    2.53130615352256
          16 :   -3.63333326272050
          17 :    4.39751683559433
          18 :   -5.73101876034690
          19 :    7.60530025377534
          20 :   -9.27439893131793
          21 :    9.88974930787577
          22 :   -9.10574595005562
          23 :    7.31901317078973
          24 :   -5.43286080934229
          25 :    4.32736933674380
          26 :   -4.37317632487282
          27 :    5.27210862114919
          28 :   -6.29220923691832
          29 :    6.72761869244630
          30 :   -6.29516100743359
          31 :   -36.2313285135886
          32 :   -26.9190918201200

     Forces acting on atoms (Ry/au):

     negative rho (up, down):  1.071E+00 0.000E+00
     atom    1 type  1   force =    -0.00000047   -0.01623982    0.02116993
     atom    2 type  1   force =    -0.01406554    0.00811821    0.02116857
     atom    3 type  1   force =     0.01406533    0.00811903    0.02116923
     atom    4 type  2   force =     0.00000068    0.00000238   -0.02097923
     atom    5 type  1   force =     0.00000053    0.02495578   -0.01180050
     atom    6 type  1   force =     0.02161123   -0.01247828   -0.01179946
     atom    7 type  1   force =    -0.02161199   -0.01247801   -0.01179901
     atom    8 type  2   force =    -0.00000016    0.00000091   -0.01103474
     atom    9 type  1   force =     0.00000024   -0.00084770    0.00065314
     atom   10 type  1   force =    -0.00073340    0.00042386    0.00065426
     atom   11 type  1   force =     0.00073319    0.00042375    0.00065416
     atom   12 type  2   force =     0.00000036   -0.00000013    0.00194364

     Total force =     0.070645     Total SCF correction =     0.002215

     entering subroutine stress ...

     negative rho (up, down):  1.071E+00 0.000E+00
          total   stress  (Ry/bohr**3)                   (kbar)     P=  -21.92
  -0.00018901  -0.00000000   0.00000000        -27.80     -0.00      0.00
  -0.00000000  -0.00018901   0.00000000         -0.00    -27.80      0.00
   0.00000000   0.00000000  -0.00006904          0.00      0.00    -10.16

 !ASE

     Writing output data file calc.save

     General routines

     Parallel routines

   This run was terminated on:   3:22:14  28Dec2018

   JOB DONE.
Job  /afs/slac/g/suncat/bin/suncat-tsmpirun -x LD_LIBRARY_PATH -wdir /scratch/qe111036_bmkxf pw.x -in pw.inp

TID   HOST_NAME   COMMAND_LINE            STATUS            TERMINATION_TIME
00000 suncat0109 pw.x -in pw.inp   Done                     12/28/2018 03:22:14
00001 suncat0109 pw.x -in pw.inp   Done                     12/28/2018 03:22:14
00002 suncat0109 pw.x -in pw.inp   Done                     12/28/2018 03:22:14
00003 suncat0109 pw.x -in pw.inp   Done                     12/28/2018 03:22:14
00004 suncat0109 pw.x -in pw.inp   Done                     12/28/2018 03:22:14
00005 suncat0109 pw.x -in pw.inp   Done                     12/28/2018 03:22:14
00006 suncat0109 pw.x -in pw.inp   Done                     12/28/2018 03:22:14
00007 suncat0109 pw.x -in pw.inp   Done                     12/28/2018 03:22:14
00008 suncat0262 pw.x -in pw.inp   Done                     12/28/2018 03:22:14
00009 suncat0262 pw.x -in pw.inp   Done                     12/28/2018 03:22:14
00010 suncat0262 pw.x -in pw.inp   Done                     12/28/2018 03:22:14
00011 suncat0262 pw.x -in pw.inp   Done                     12/28/2018 03:22:14
00012 suncat0262 pw.x -in pw.inp   Done                     12/28/2018 03:22:14
00013 suncat0262 pw.x -in pw.inp   Done                     12/28/2018 03:22:14
00014 suncat0262 pw.x -in pw.inp   Done                     12/28/2018 03:22:14
00015 suncat0262 pw.x -in pw.inp   Done                     12/28/2018 03:22:14
00016 suncat0258 pw.x -in pw.inp   Done                     12/28/2018 03:22:14
00017 suncat0258 pw.x -in pw.inp   Done                     12/28/2018 03:22:14
00018 suncat0258 pw.x -in pw.inp   Done                     12/28/2018 03:22:14
00019 suncat0258 pw.x -in pw.inp   Done                     12/28/2018 03:22:14
00020 suncat0258 pw.x -in pw.inp   Done                     12/28/2018 03:22:14
00021 suncat0258 pw.x -in pw.inp   Done                     12/28/2018 03:22:14
00022 suncat0258 pw.x -in pw.inp   Done                     12/28/2018 03:22:14
00023 suncat0258 pw.x -in pw.inp   Done                     12/28/2018 03:22:14
00024 suncat0257 pw.x -in pw.inp   Done                     12/28/2018 03:22:14
00025 suncat0257 pw.x -in pw.inp   Done                     12/28/2018 03:22:14
00026 suncat0257 pw.x -in pw.inp   Done                     12/28/2018 03:22:14
00027 suncat0257 pw.x -in pw.inp   Done                     12/28/2018 03:22:14
00028 suncat0257 pw.x -in pw.inp   Done                     12/28/2018 03:22:14
00029 suncat0257 pw.x -in pw.inp   Done                     12/28/2018 03:22:14
00030 suncat0257 pw.x -in pw.inp   Done                     12/28/2018 03:22:14
00031 suncat0257 pw.x -in pw.inp   Done                     12/28/2018 03:22:14
00032 suncat0251 pw.x -in pw.inp   Done                     12/28/2018 03:22:14
00033 suncat0251 pw.x -in pw.inp   Done                     12/28/2018 03:22:14
00034 suncat0251 pw.x -in pw.inp   Done                     12/28/2018 03:22:14
00035 suncat0251 pw.x -in pw.inp   Done                     12/28/2018 03:22:14
00036 suncat0251 pw.x -in pw.inp   Done                     12/28/2018 03:22:14
00037 suncat0251 pw.x -in pw.inp   Done                     12/28/2018 03:22:14
00038 suncat0251 pw.x -in pw.inp   Done                     12/28/2018 03:22:14
00039 suncat0251 pw.x -in pw.inp   Done                     12/28/2018 03:22:14
00040 suncat0244 pw.x -in pw.inp   Done                     12/28/2018 03:22:14
00041 suncat0244 pw.x -in pw.inp   Done                     12/28/2018 03:22:14
00042 suncat0244 pw.x -in pw.inp   Done                     12/28/2018 03:22:14
00043 suncat0244 pw.x -in pw.inp   Done                     12/28/2018 03:22:14
00044 suncat0244 pw.x -in pw.inp   Done                     12/28/2018 03:22:14
00045 suncat0244 pw.x -in pw.inp   Done                     12/28/2018 03:22:14
00046 suncat0244 pw.x -in pw.inp   Done                     12/28/2018 03:22:14
00047 suncat0244 pw.x -in pw.inp   Done                     12/28/2018 03:22:14
00048 suncat0243 pw.x -in pw.inp   Done                     12/28/2018 03:22:14
00049 suncat0243 pw.x -in pw.inp   Done                     12/28/2018 03:22:14
00050 suncat0243 pw.x -in pw.inp   Done                     12/28/2018 03:22:14
00051 suncat0243 pw.x -in pw.inp   Done                     12/28/2018 03:22:14
00052 suncat0243 pw.x -in pw.inp   Done                     12/28/2018 03:22:14
00053 suncat0243 pw.x -in pw.inp   Done                     12/28/2018 03:22:14
00054 suncat0243 pw.x -in pw.inp   Done                     12/28/2018 03:22:14
00055 suncat0243 pw.x -in pw.inp   Done                     12/28/2018 03:22:14
00056 suncat0242 pw.x -in pw.inp   Done                     12/28/2018 03:22:14
00057 suncat0242 pw.x -in pw.inp   Done                     12/28/2018 03:22:14
00058 suncat0242 pw.x -in pw.inp   Done                     12/28/2018 03:22:14
00059 suncat0242 pw.x -in pw.inp   Done                     12/28/2018 03:22:14
00060 suncat0242 pw.x -in pw.inp   Done                     12/28/2018 03:22:14
00061 suncat0242 pw.x -in pw.inp   Done                     12/28/2018 03:22:14
00062 suncat0242 pw.x -in pw.inp   Done                     12/28/2018 03:22:14
00063 suncat0242 pw.x -in pw.inp   Done                     12/28/2018 03:22:14