     Program PWSCF v.5.1rc2 (svn rev. 11289) starts on 30Dec2018 at 18:57: 5

     Current dimensions of program PWSCF are:
     Max number of different atomic species (ntypx) = 10
     Max number of k-points (npk) =  40000
     Max angular momentum in pseudopotentials (lmaxx) =  3
     Presently stress not available with electric field

     IMPORTANT: XC functional enforced from input :
     Exchange-correlation      = BEEF-VDW ( 1  4 27 13 2)
     Any further DFT definition will be discarded
     Please, verify this is what you really want

     Subspace diagonalization in iterative solution of the eigenvalue problem:
     a serial algorithm will be used

     bravais-lattice index     =            0
     lattice parameter (alat)  =       1.8897  a.u.
     unit-cell volume          =    4754.0532 (a.u.)^3
     number of atoms/cell      =           12
     number of atomic types    =            2
     number of electrons       =       162.00
     number of Kohn-Sham states=          111
     kinetic-energy cutoff     =      36.7493  Ry
     charge density cutoff     =     367.4932  Ry
     convergence threshold     =      1.0E-06
     mixing beta               =       0.1000
     number of iterations used =           10  plain     mixing
     Exchange-correlation      = BEEF-VDW ( 1  4 27 13 2)
     nstep                     =           50

     celldm(1)=   1.889726  celldm(2)=   0.000000  celldm(3)=   0.000000
     celldm(4)=   0.000000  celldm(5)=   0.000000  celldm(6)=   0.000000

     crystal axes: (cart. coord. in units of alat)
               a(1) = (   5.740303   0.000000   0.000000 )
               a(2) = (  -2.870151   4.971248   0.000000 )
               a(3) = (   0.000000   0.000000  24.686938 )

     reciprocal axes: (cart. coord. in units 2 pi/alat)
               b(1) = (  0.174207  0.100578  0.000000 )
               b(2) = (  0.000000  0.201157  0.000000 )
               b(3) = (  0.000000  0.000000  0.040507 )

     PseudoPot. # 1 for Mo read from file:
     /afs/slac.stanford.edu/u/if/mamunm/psp/gbrv1.5pbe/Mo.UPF
     MD5 check sum: 30c4dcd161f5d35cd49bb5239c51a633
     Pseudo is Ultrasoft + core correction, Zval = 14.0
     Generated by new atomic code, or converted to UPF format
     Using radial grid of  889 points,  6 beta functions with:
                l(1) =   0
                l(2) =   0
                l(3) =   1
                l(4) =   1
                l(5) =   2
                l(6) =   2
     Q(r) pseudized with  6 coefficients,  rinner =    1.000   1.000   1.000
                                                       1.000   1.000

     PseudoPot. # 2 for Hg read from file:
     /afs/slac.stanford.edu/u/if/mamunm/psp/gbrv1.5pbe/Hg.UPF
     MD5 check sum: 8f42caffe07f7fd9c0a564347f8c5498
     Pseudo is Ultrasoft + core correction, Zval = 12.0
     Generated by new atomic code, or converted to UPF format
     Using radial grid of  985 points,  6 beta functions with:
                l(1) =   0
                l(2) =   0
                l(3) =   1
                l(4) =   1
                l(5) =   2
                l(6) =   2
     Q(r) pseudized with  8 coefficients,  rinner =    2.000   2.000   2.000
                                                       2.000   2.000

     vdW kernel table read from file vdW_kernel_table
     MD5 check sum: 095c7af220d748ca6e76c0b4c6cfb241

     atomic species   valence    mass     pseudopotential
        Mo1           14.00    95.95000     Mo( 1.00)
        Hg1           12.00   200.59200     Hg( 1.00)

     No symmetry found

   Cartesian axes

     site n.     atom                  positions (alat units)
         1           Mo1 tau(   1) = (   0.0000000   0.0000000  10.0000000  )
         2           Mo1 tau(   2) = (  -1.4350757   2.4856240  10.0000000  )
         3           Mo1 tau(   3) = (   1.4350757   2.4856240  10.0000000  )
         4           Hg1 tau(   4) = (   2.8701513   0.0000000  10.0000000  )
         5           Mo1 tau(   5) = (   2.8701513   1.6570826  12.3434688  )
         6           Mo1 tau(   6) = (   1.4350757   4.1427066  12.3434688  )
         7           Mo1 tau(   7) = (  -1.4350757   4.1427066  12.3434688  )
         8           Hg1 tau(   8) = (   0.0000000   1.6570826  12.3434688  )
         9           Mo1 tau(   9) = (  -0.0000000   3.3141653  14.6869375  )
        10           Mo1 tau(  10) = (   1.4350757   0.8285413  14.6869375  )
        11           Mo1 tau(  11) = (   4.3052270   0.8285413  14.6869375  )
        12           Hg1 tau(  12) = (   2.8701513   3.3141653  14.6869375  )

     number of k points=    20  Fermi-Dirac smearing, width (Ry)=  0.0110
                       cart. coord. in units 2pi/alat
        k(    1) = (   0.0000000   0.0000000   0.0000000), wk =   0.0555556
        k(    2) = (   0.0000000   0.0335261   0.0000000), wk =   0.1111111
        k(    3) = (   0.0000000   0.0670522   0.0000000), wk =   0.1111111
        k(    4) = (   0.0000000  -0.1005784   0.0000000), wk =   0.0555556
        k(    5) = (   0.0290345   0.0167631   0.0000000), wk =   0.1111111
        k(    6) = (   0.0290345   0.0502892   0.0000000), wk =   0.1111111
        k(    7) = (   0.0290345   0.0838153   0.0000000), wk =   0.1111111
        k(    8) = (   0.0290345  -0.0838153   0.0000000), wk =   0.1111111
        k(    9) = (   0.0290345  -0.0502892   0.0000000), wk =   0.1111111
        k(   10) = (   0.0290345  -0.0167631   0.0000000), wk =   0.1111111
        k(   11) = (   0.0580689   0.0335261   0.0000000), wk =   0.1111111
        k(   12) = (   0.0580689   0.0670522   0.0000000), wk =   0.1111111
        k(   13) = (   0.0580689   0.1005784   0.0000000), wk =   0.1111111
        k(   14) = (   0.0580689  -0.0670522   0.0000000), wk =   0.1111111
        k(   15) = (   0.0580689  -0.0335261   0.0000000), wk =   0.1111111
        k(   16) = (   0.0580689   0.0000000   0.0000000), wk =   0.1111111
        k(   17) = (  -0.0871034  -0.0502892   0.0000000), wk =   0.0555556
        k(   18) = (  -0.0871034  -0.0167631   0.0000000), wk =   0.1111111
        k(   19) = (  -0.0871034   0.0167631   0.0000000), wk =   0.1111111
        k(   20) = (  -0.0871034  -0.1508676   0.0000000), wk =   0.0555556

     Largest allocated arrays     est. size (Mb)     dimensions
     Largest temporary arrays     est. size (Mb)     dimensions

     Initial potential from superposition of free atoms
     Check: negative starting charge=   -0.004339

     starting charge  161.99025, renormalised to  162.00000

     negative rho (up, down):  4.339E-03 0.000E+00

     *
     * You are using vdW-DF for exchange-correlation in this calculation.
     * Please cite the following three references that made this development
     * possible:
     *
     *   M. Dion, H. Rydberg, E. Schroder, D. C. Langreth, and
     *   B. I. Lundqvist, Phys. Rev. Lett. 92, 246401 (2004).
     *
     *   T. Thonhauser, V. R. Cooper, S. Li, A. Puzder, P. Hyldgaard, and
     *   D. C. Langreth, Phys. Rev. B 76, 125112 (2007).
     *
     *   G. Roman-Perez and J. M. Soler, Phys. Rev. Lett. 103, 096102 (2009).
     *
     *
     * If you are using vdW-DF2, please also cite:
     *
     *   K. Lee, E. D. Murray, L. Kong, B. I. Lundqvist, and
     *   D. C. Langreth, Phys. Rev. B 82, 081101(R) (2010).
     *
     *
     * If you are calculating the stress with vdW-DF, please also cite:
     *
     *   R. Sabatini, E. Kucukbenli, B. Kolb, T. Thonhauser, and
     *   S. de Gironcoli, J. Phys.: Condens. Matter 24, 424209 (2012).
     *

     Carrying out vdW-DF run using the following parameters:

     Nqs =      20    Nr_points =    1024   r_max =   100.000
     q_mesh =
               0.00001000     0.04494208     0.09755937     0.15916263
               0.23128650     0.31572767     0.41458969     0.53033537
               0.66584808     0.82450364     1.01025438     1.22772762
               1.48234092     1.78043706     2.12944203     2.53805004
               3.01644009     3.57652955     4.23227104     5.00000000

     Gradients computed in reciprocal space

     Adding external electric field

     Computed dipole along edir(3) :
        Dipole               -0.0000 Ry au,         -0.0000 Debye
        Dipole field         -0.0000 Ry au

        Potential amp.        0.0000 Ry
        Total length         45.4853 bohr

     Starting wfc are  144 randomized atomic wfcs

     Self-consistent Calculation

     iteration #  1     ecut=    36.75 Ry     beta=0.10
     Davidson diagonalization with overlap
     ethr =  1.00E-02,  avg # of iterations =  3.4

[...]

     total energy              =   -1586.38471641 Ry
     Harris-Foulkes estimate   =   -1586.96789568 Ry
     estimated scf accuracy    <       3.36420028 Ry

[...]

     End of self-consistent calculation

          k = 0.0000 0.0000 0.0000 ( 17959 PWs)   bands (ev):

   -59.4004 -59.3008 -59.3008 -59.2331 -59.2218 -59.1430 -59.1430 -59.1402
   -59.1401 -33.8236 -33.6467 -33.6467 -33.6467 -33.5687 -33.5426 -33.5422
   -33.5422 -33.3960 -33.3960 -33.3117 -33.2684 -33.2684 -33.2400 -33.2249
   -33.2249 -33.0740 -33.0740 -33.0588 -33.0338 -33.0114 -33.0113 -32.9959
   -32.8195 -32.8195 -32.8143 -32.8143  -6.4007  -6.4007  -6.3888  -6.2626
    -6.2626  -6.0912  -5.9247  -5.9247  -5.9025  -5.9025  -5.8285  -5.8109
    -5.5135  -5.5135  -5.4936  -5.4936  -4.5449  -4.2489  -2.6115  -1.9467
    -1.4325  -0.8221  -0.6515  -0.6279  -0.6279  -0.4349  -0.4349  -0.0905
    -0.0905  -0.0265  -0.0265   0.4775   0.4775   0.6607   0.7018   0.7018
     0.9496   1.3125   1.4113   1.4113   1.8164   1.9584   1.9584   2.1609
     2.2099   2.8660   3.0269   3.0269   3.1151   3.1151   3.3513   3.3513
     3.4479   3.4479   3.6546   3.6546   3.7921   3.7921   3.9199   4.0207
     4.0207   4.4842   4.4842   4.5290   4.8795   5.2384   5.2999   5.4367
     5.4367   5.5608   5.6598   5.8723   6.0791   6.1451   6.1451

[...]

          k =-0.0871-0.0503 0.0000 ( 17848 PWs)   bands (ev):

[...]

     the Fermi energy is     1.8447 ev

!    total energy              =   -1586.43436160 Ry
     Harris-Foulkes estimate   =   -1586.43584933 Ry
     estimated scf accuracy    <       0.00000087 Ry

     The total energy is the sum of the following terms:

     one-electron contribution =  -13429.68225706 Ry
     hartree contribution      =    6731.61793806 Ry
     xc contribution           =    -301.18421845 Ry
     ewald contribution        =    5412.90001527 Ry
     electric field correction =       0.00000000 Ry
     smearing contrib. (-TS)   =      -0.08583942 Ry

     convergence has been achieved in  16 iterations

 BEEF-vdW xc energy contributions
           1 :   -260.862322326258
           2 :    239.285260650641
           3 :   -201.951173897955
           4 :    158.153083484881
           5 :   -117.345151087837
           6 :    86.1990396173471
           7 :   -67.1012127666332
           8 :    58.3740364391869
           9 :   -55.8536473944799
          10 :    54.9744134405751
          11 :   -52.5014777745350
          12 :    47.3252683572314
          13 :   -40.2356631239359
          14 :    32.9890358586847
          15 :   -27.2150555720629
[...]
               b(3) = (  0.000000  0.000000  0.040507 )

     PseudoPot. # 1 for Mo read from file:
     /afs/slac.stanford.edu/u/if/mamunm/psp/gbrv1.5pbe/Mo.UPF
     MD5 check sum: 30c4dcd161f5d35cd49bb5239c51a633
     Pseudo is Ultrasoft + core correction, Zval = 14.0
     Generated by new atomic code, or converted to UPF format
     Using radial grid of  889 points,  6 beta functions with:
                l(1) =   0
                l(2) =   0
                l(3) =   1
                l(4) =   1
                l(5) =   2
                l(6) =   2
     Q(r) pseudized with  6 coefficients,  rinner =    1.000   1.000   1.000
                                                       1.000   1.000

     PseudoPot. # 2 for Hg read from file:
     /afs/slac.stanford.edu/u/if/mamunm/psp/gbrv1.5pbe/Hg.UPF
     MD5 check sum: 8f42caffe07f7fd9c0a564347f8c5498
     Pseudo is Ultrasoft + core correction, Zval = 12.0
     Generated by new atomic code, or converted to UPF format
     Using radial grid of  985 points,  6 beta functions with:
                l(1) =   0
                l(2) =   0
                l(3) =   1
                l(4) =   1
                l(5) =   2
                l(6) =   2
     Q(r) pseudized with  8 coefficients,  rinner =    2.000   2.000   2.000
                                                       2.000   2.000

     vdW kernel table read from file vdW_kernel_table
     MD5 check sum: 095c7af220d748ca6e76c0b4c6cfb241

     atomic species   valence    mass     pseudopotential
        Mo1           14.00    95.95000     Mo( 1.00)
        Hg1           12.00   200.59200     Hg( 1.00)

     No symmetry found

   Cartesian axes

     site n.     atom                  positions (alat units)
         1           Mo1 tau(   1) = (   0.0000000   0.0000000  10.0000000  )
         2           Mo1 tau(   2) = (  -1.4350757   2.4856240  10.0000000  )
         3           Mo1 tau(   3) = (   1.4350757   2.4856240  10.0000000  )
         4           Hg1 tau(   4) = (   2.8701513   0.0000000  10.0000000  )
         5           Mo1 tau(   5) = (   2.8701513   1.6570826  12.3434688  )
         6           Mo1 tau(   6) = (   1.4350757   4.1427066  12.3434688  )
         7           Mo1 tau(   7) = (  -1.4350757   4.1427066  12.3434688  )
         8           Hg1 tau(   8) = (   0.0000000   1.6570826  12.3434688  )
         9           Mo1 tau(   9) = (   0.0000005   3.5170858  14.5681732  )
        10           Mo1 tau(  10) = (   1.6108103   0.7270825  14.5681740  )
        11           Mo1 tau(  11) = (   4.1294915   0.7270816  14.5681736  )
        12           Hg1 tau(  12) = (   2.8701524   3.3141688  15.2112466  )

     number of k points=    20  Fermi-Dirac smearing, width (Ry)=  0.0110
                       cart. coord. in units 2pi/alat
        k(    1) = (   0.0000000   0.0000000   0.0000000), wk =   0.0555556
        k(    2) = (   0.0000000   0.0335261   0.0000000), wk =   0.1111111
        k(    3) = (   0.0000000   0.0670522   0.0000000), wk =   0.1111111
        k(    4) = (   0.0000000  -0.1005784   0.0000000), wk =   0.0555556
        k(    5) = (   0.0290345   0.0167631   0.0000000), wk =   0.1111111
        k(    6) = (   0.0290345   0.0502892   0.0000000), wk =   0.1111111
        k(    7) = (   0.0290345   0.0838153   0.0000000), wk =   0.1111111
        k(    8) = (   0.0290345  -0.0838153   0.0000000), wk =   0.1111111
        k(    9) = (   0.0290345  -0.0502892   0.0000000), wk =   0.1111111
        k(   10) = (   0.0290345  -0.0167631   0.0000000), wk =   0.1111111
        k(   11) = (   0.0580689   0.0335261   0.0000000), wk =   0.1111111
        k(   12) = (   0.0580689   0.0670522   0.0000000), wk =   0.1111111
        k(   13) = (   0.0580689   0.1005784   0.0000000), wk =   0.1111111
        k(   14) = (   0.0580689  -0.0670522   0.0000000), wk =   0.1111111
        k(   15) = (   0.0580689  -0.0335261   0.0000000), wk =   0.1111111
        k(   16) = (   0.0580689   0.0000000   0.0000000), wk =   0.1111111
        k(   17) = (  -0.0871034  -0.0502892   0.0000000), wk =   0.0555556
        k(   18) = (  -0.0871034  -0.0167631   0.0000000), wk =   0.1111111
        k(   19) = (  -0.0871034   0.0167631   0.0000000), wk =   0.1111111
        k(   20) = (  -0.0871034  -0.1508676   0.0000000), wk =   0.0555556

     Largest allocated arrays     est. size (Mb)     dimensions
     Largest temporary arrays     est. size (Mb)     dimensions

     Initial potential from superposition of free atoms
     Check: negative starting charge=   -0.004397

     starting charge  161.99025, renormalised to  162.00000

[...]

     *
     * You are using vdW-DF for exchange-correlation in this calculation.
     * Please cite the following three references that made this development
     * possible:
     *
     *   M. Dion, H. Rydberg, E. Schroder, D. C. Langreth, and
     *   B. I. Lundqvist, Phys. Rev. Lett. 92, 246401 (2004).
     *
     *   T. Thonhauser, V. R. Cooper, S. Li, A. Puzder, P. Hyldgaard, and
     *   D. C. Langreth, Phys. Rev. B 76, 125112 (2007).
     *
     *   G. Roman-Perez and J. M. Soler, Phys. Rev. Lett. 103, 096102 (2009).
     *
     *
     * If you are using vdW-DF2, please also cite:
     *
     *   K. Lee, E. D. Murray, L. Kong, B. I. Lundqvist, and
     *   D. C. Langreth, Phys. Rev. B 82, 081101(R) (2010).
     *
     *
     * If you are calculating the stress with vdW-DF, please also cite:
     *
     *   R. Sabatini, E. Kucukbenli, B. Kolb, T. Thonhauser, and
     *   S. de Gironcoli, J. Phys.: Condens. Matter 24, 424209 (2012).
     *

     Carrying out vdW-DF run using the following parameters:

     Nqs =      20    Nr_points =    1024   r_max =   100.000
     q_mesh =
               0.00001000     0.04494208     0.09755937     0.15916263
               0.23128650     0.31572767     0.41458969     0.53033537
               0.66584808     0.82450364     1.01025438     1.22772762
               1.48234092     1.78043706     2.12944203     2.53805004
               3.01644009     3.57652955     4.23227104     5.00000000

     Gradients computed in reciprocal space

[...]

     Starting wfc are  144 randomized atomic wfcs

     Self-consistent Calculation

[...]

     total energy              =   -1586.50297925 Ry
     Harris-Foulkes estimate   =   -1586.50297909 Ry
     estimated scf accuracy    <       0.00000237 Ry

     iteration # 17     ecut=    36.75 Ry     beta=0.10
     Davidson diagonalization with overlap
     ethr =  1.46E-09,  avg # of iterations =  2.0

[...]

     negative rho (up, down):  4.275E-03 0.000E+00

     Adding external electric field

     Computed dipole along edir(3) :
        Dipole               -0.0404 Ry au,         -0.1027 Debye
        Dipole field         -0.0001 Ry au

        Potential amp.        0.0097 Ry
        Total length         45.4853 bohr

     End of self-consistent calculation

[...]

          k = 0.0581 0.0000 0.0000 ( 17903 PWs)   bands (ev):

[...]

          k =-0.0871-0.1509 0.0000 ( 17848 PWs)   bands (ev):

   -59.3753 -59.3359 -59.2941 -59.2438 -59.2283 -59.2132 -59.1884 -59.0601
   -59.0503 -33.9273 -33.7474 -33.6736 -33.6385 -33.6384 -33.5071 -33.4946
   -33.4758 -33.4411 -33.4076 -33.3663 -33.3276 -33.2919 -33.2709 -33.2286
   -33.2220 -33.1740 -33.1370 -33.1277 -33.0644 -32.9792 -32.9592 -32.9520
   -32.8912 -32.8695 -32.7462 -32.6515  -6.2890  -6.1453  -6.0819  -6.0645
    -6.0285  -5.8808  -5.6705  -5.5994  -5.5714  -5.5287  -5.2879  -5.1522
    -5.0918  -5.0015  -4.9680  -4.6082  -4.0634  -3.2250  -2.3843  -1.9671
    -1.6763  -1.6204  -1.0466  -0.8655  -0.7870  -0.6222  -0.5107  -0.4081
    -0.2829  -0.0938   0.0385   0.1595   0.1634   0.2241   0.4250   0.6022
     0.6793   0.8707   0.9341   1.0238   1.0923   1.1425   1.3235   1.4970
     1.6140   1.7288   1.7713   1.7784   2.3147   2.4475   2.6263   2.7640
     2.9397   2.9634   3.0363   3.0603   3.2490   3.3416   3.3959   3.6386
     3.9275   4.2655   4.2923   4.3599   4.5555   4.6072   5.2872   5.4783
     5.8483   6.5610   6.6576   6.8086   6.8141   7.3673   7.3930

     the Fermi energy is     1.7983 ev

!    total energy              =   -1586.50298008 Ry
     Harris-Foulkes estimate   =   -1586.50297900 Ry
     estimated scf accuracy    <       0.00000056 Ry

     The total energy is the sum of the following terms:

     one-electron contribution =  -13378.55188180 Ry
     hartree contribution      =    6706.13676417 Ry
     xc contribution           =    -301.39139311 Ry
     ewald contribution        =    5387.37937807 Ry
     electric field correction =       0.00000432 Ry
     smearing contrib. (-TS)   =      -0.07585172 Ry

     convergence has been achieved in  17 iterations

 BEEF-vdW xc energy contributions
           1 :   -261.126084972673
           2 :    239.521399916703
           3 :   -202.157421036321
           4 :    158.344598238258
           5 :   -117.522391497041
           6 :    86.3227793272046
           7 :   -67.0953931905669
           8 :    58.1594838390830
           9 :   -55.4002628467434
          10 :    54.3436991752217
          11 :   -51.8455115065565
          12 :    46.8289641673678
          13 :   -40.0257383482876
          14 :    33.0622011397080
          15 :   -27.4324849135396
          16 :    23.8041464270471
          17 :   -21.8771788807998
          18 :    20.7252363671606
          19 :   -19.3638325553816
          20 :    17.2272538998599
          21 :   -14.3475104957894
          22 :    11.2037422375312
          23 :   -8.38579943102945
          24 :    6.27264595797322
          25 :   -4.88368676801963
          26 :    3.93619663965427
          27 :   -3.03807164011641
          28 :    1.89076202592076
          29 :  -0.406152824962362
          30 :   -1.29933088604781
          31 :   -27.5130820035613
          32 :   -20.8494847469312

     Forces acting on atoms (Ry/au):

     negative rho (up, down):  4.275E-03 0.000E+00
     atom    1 type  1   force =     0.00000022   -0.02588339    0.03088331
     atom    2 type  1   force =    -0.02241452    0.01294120    0.03088303
     atom    3 type  1   force =     0.02241522    0.01294130    0.03088290
     atom    4 type  2   force =     0.00000091    0.00000030   -0.05692161
     atom    5 type  1   force =     0.00000033    0.02006236   -0.01184340
     atom    6 type  1   force =     0.01737424   -0.01003087   -0.01184338
     atom    7 type  1   force =    -0.01737378   -0.01003137   -0.01184330
     atom    8 type  2   force =    -0.00000487   -0.00000096    0.00063192
     atom    9 type  1   force =     0.00000032   -0.00039361   -0.00033743
     atom   10 type  1   force =    -0.00034031    0.00019718   -0.00033727
     atom   11 type  1   force =     0.00034179    0.00019760   -0.00033691
     atom   12 type  2   force =     0.00000044    0.00000025    0.00018215

     Total force =     0.098695     Total SCF correction =     0.003709

     entering subroutine stress ...

     negative rho (up, down):  4.275E-03 0.000E+00
          total   stress  (Ry/bohr**3)                   (kbar)     P=  -13.88
  -0.00012408   0.00000000  -0.00000000        -18.25      0.00     -0.00
   0.00000000  -0.00012408   0.00000000          0.00    -18.25      0.00
  -0.00000000   0.00000000  -0.00003482         -0.00      0.00     -5.12

 !ASE

     Writing output data file calc.save

     General routines

     Parallel routines

   This run was terminated on:  20:56:30  30Dec2018

   JOB DONE.
Job  /afs/slac/g/suncat/bin/suncat-tsmpirun -x LD_LIBRARY_PATH -wdir /scratch/qe648605_qVydh pw.x -in pw.inp

TID   HOST_NAME   COMMAND_LINE            STATUS            TERMINATION_TIME
00000 suncat0091 pw.x -in pw.inp   Done                     12/30/2018 20:56:30
00001 suncat0091 pw.x -in pw.inp   Done                     12/30/2018 20:56:30
00002 suncat0091 pw.x -in pw.inp   Done                     12/30/2018 20:56:30
00003 suncat0091 pw.x -in pw.inp   Done                     12/30/2018 20:56:30
00004 suncat0091 pw.x -in pw.inp   Done                     12/30/2018 20:56:30
00005 suncat0091 pw.x -in pw.inp   Done                     12/30/2018 20:56:30
00006 suncat0091 pw.x -in pw.inp   Done                     12/30/2018 20:56:30
00007 suncat0091 pw.x -in pw.inp   Done                     12/30/2018 20:56:30
00008 suncat0090 pw.x -in pw.inp   Done                     12/30/2018 20:56:30
00009 suncat0090 pw.x -in pw.inp   Done                     12/30/2018 20:56:30
00010 suncat0090 pw.x -in pw.inp   Done                     12/30/2018 20:56:30
00011 suncat0090 pw.x -in pw.inp   Done                     12/30/2018 20:56:30
00012 suncat0090 pw.x -in pw.inp   Done                     12/30/2018 20:56:30
00013 suncat0090 pw.x -in pw.inp   Done                     12/30/2018 20:56:30
00014 suncat0090 pw.x -in pw.inp   Done                     12/30/2018 20:56:30
00015 suncat0090 pw.x -in pw.inp   Done                     12/30/2018 20:56:30
00016 suncat0089 pw.x -in pw.inp   Done                     12/30/2018 20:56:30
00017 suncat0089 pw.x -in pw.inp   Done                     12/30/2018 20:56:30
00018 suncat0089 pw.x -in pw.inp   Done                     12/30/2018 20:56:30
00019 suncat0089 pw.x -in pw.inp   Done                     12/30/2018 20:56:30
00020 suncat0089 pw.x -in pw.inp   Done                     12/30/2018 20:56:30
00021 suncat0089 pw.x -in pw.inp   Done                     12/30/2018 20:56:30
00022 suncat0089 pw.x -in pw.inp   Done                     12/30/2018 20:56:30
00023 suncat0089 pw.x -in pw.inp   Done                     12/30/2018 20:56:30
00024 suncat0085 pw.x -in pw.inp   Done                     12/30/2018 20:56:30
00025 suncat0085 pw.x -in pw.inp   Done                     12/30/2018 20:56:30
00026 suncat0085 pw.x -in pw.inp   Done                     12/30/2018 20:56:30
00027 suncat0085 pw.x -in pw.inp   Done                     12/30/2018 20:56:30
00028 suncat0085 pw.x -in pw.inp   Done                     12/30/2018 20:56:30
00029 suncat0085 pw.x -in pw.inp   Done                     12/30/2018 20:56:30
00030 suncat0085 pw.x -in pw.inp   Done                     12/30/2018 20:56:30
00031 suncat0085 pw.x -in pw.inp   Done                     12/30/2018 20:56:30
00032 suncat0139 pw.x -in pw.inp   Done                     12/30/2018 20:56:30
00033 suncat0139 pw.x -in pw.inp   Done                     12/30/2018 20:56:30
00034 suncat0139 pw.x -in pw.inp   Done                     12/30/2018 20:56:30
00035 suncat0139 pw.x -in pw.inp   Done                     12/30/2018 20:56:30
00036 suncat0139 pw.x -in pw.inp   Done                     12/30/2018 20:56:30
00037 suncat0139 pw.x -in pw.inp   Done                     12/30/2018 20:56:30
00038 suncat0139 pw.x -in pw.inp   Done                     12/30/2018 20:56:30
00039 suncat0139 pw.x -in pw.inp   Done                     12/30/2018 20:56:30
00040 suncat0124 pw.x -in pw.inp   Done                     12/30/2018 20:56:30
00041 suncat0124 pw.x -in pw.inp   Done                     12/30/2018 20:56:30
00042 suncat0124 pw.x -in pw.inp   Done                     12/30/2018 20:56:30
00043 suncat0124 pw.x -in pw.inp   Done                     12/30/2018 20:56:30
00044 suncat0124 pw.x -in pw.inp   Done                     12/30/2018 20:56:30
00045 suncat0124 pw.x -in pw.inp   Done                     12/30/2018 20:56:30
00046 suncat0124 pw.x -in pw.inp   Done                     12/30/2018 20:56:30
00047 suncat0124 pw.x -in pw.inp   Done                     12/30/2018 20:56:30
00048 suncat0123 pw.x -in pw.inp   Done                     12/30/2018 20:56:30
00049 suncat0123 pw.x -in pw.inp   Done                     12/30/2018 20:56:30
00050 suncat0123 pw.x -in pw.inp   Done                     12/30/2018 20:56:30
00051 suncat0123 pw.x -in pw.inp   Done                     12/30/2018 20:56:30
00052 suncat0123 pw.x -in pw.inp   Done                     12/30/2018 20:56:30
00053 suncat0123 pw.x -in pw.inp   Done                     12/30/2018 20:56:30
00054 suncat0123 pw.x -in pw.inp   Done                     12/30/2018 20:56:30
00055 suncat0123 pw.x -in pw.inp   Done                     12/30/2018 20:56:30
00056 suncat0122 pw.x -in pw.inp   Done                     12/30/2018 20:56:30
00057 suncat0122 pw.x -in pw.inp   Done                     12/30/2018 20:56:30
00058 suncat0122 pw.x -in pw.inp   Done                     12/30/2018 20:56:30
00059 suncat0122 pw.x -in pw.inp   Done                     12/30/2018 20:56:30
00060 suncat0122 pw.x -in pw.inp   Done                     12/30/2018 20:56:30
00061 suncat0122 pw.x -in pw.inp   Done                     12/30/2018 20:56:30
00062 suncat0122 pw.x -in pw.inp   Done                     12/30/2018 20:56:30
00063 suncat0122 pw.x -in pw.inp   Done                     12/30/2018 20:56:30