     Program PWSCF v.5.1rc2 (svn rev. 11289) starts on 26Dec2018 at  7:46:14

     Current dimensions of program PWSCF are:
     Max number of different atomic species (ntypx) = 10
     Max number of k-points (npk) =  40000
     Max angular momentum in pseudopotentials (lmaxx) =  3
     Presently stress not available with electric field

     IMPORTANT: XC functional enforced from input :
     Exchange-correlation      = BEEF-VDW ( 1  4 27 13 2)
     Any further DFT definition will be discarded
     Please, verify this is what you really want

     Subspace diagonalization in iterative solution of the eigenvalue problem:
     a serial algorithm will be used

     bravais-lattice index     =            0
     lattice parameter (alat)  =       1.8897  a.u.
     unit-cell volume          =    5695.7297 (a.u.)^3
     number of atoms/cell      =           12
     number of atomic types    =            2
     number of electrons       =       147.00
     number of Kohn-Sham states=          103
     kinetic-energy cutoff     =      36.7493  Ry
     charge density cutoff     =     367.4932  Ry
     convergence threshold     =      1.0E-06
     mixing beta               =       0.1000
     number of iterations used =           10  plain     mixing
     Exchange-correlation      = BEEF-VDW ( 1  4 27 13 2)
     nstep                     =           50

     celldm(1)=   1.889726  celldm(2)=   0.000000  celldm(3)=   0.000000
     celldm(4)=   0.000000  celldm(5)=   0.000000  celldm(6)=   0.000000

     crystal axes: (cart. coord. in units of alat)
               a(1) = (   6.232613   0.000000   0.000000 )
               a(2) = (  -3.116307   5.397602   0.000000 )
               a(3) = (   0.000000   0.000000  25.088908 )

     reciprocal axes: (cart. coord. in units 2 pi/alat)
               b(1) = (  0.160446  0.092634  0.000000 )
               b(2) = (  0.000000  0.185267  0.000000 )
               b(3) = (  0.000000  0.000000  0.039858 )

     PseudoPot. # 1 for Hf read from file:
     /afs/slac.stanford.edu/u/if/mamunm/psp/gbrv1.5pbe/Hf.UPF
     MD5 check sum: 8ee9378dfe14276e333edf04c5e4aa26
     Pseudo is Ultrasoft + core correction, Zval = 12.0
     Generated by new atomic code, or converted to UPF format
     Using radial grid of  921 points,  8 beta functions with:
                l(1) =   0
                l(2) =   0
                l(3) =   0
                l(4) =   1
                l(5) =   1
                l(6) =   2
                l(7) =   2
                l(8) =   3
     Q(r) pseudized with  6 coefficients,  rinner =    1.200   1.200   1.200
                                                       1.200   1.200   1.200
                                                       1.200

     PseudoPot. # 2 for Ta read from file:
     /afs/slac.stanford.edu/u/if/mamunm/psp/gbrv1.5pbe/Ta.UPF
     MD5 check sum: f8bbe9446314a3b8ea5d9f3e3836c939
     Pseudo is Ultrasoft + core correction, Zval = 13.0
     Generated by new atomic code, or converted to UPF format
     Using radial grid of  921 points,  7 beta functions with:
                l(1) =   0
                l(2) =   0
                l(3) =   1
                l(4) =   1
                l(5) =   2
                l(6) =   2
                l(7) =   3
     Q(r) pseudized with  6 coefficients,  rinner =    1.300   1.300   1.300
                                                       1.300   1.300   1.300
                                                       1.300

     vdW kernel table read from file vdW_kernel_table
     MD5 check sum: 095c7af220d748ca6e76c0b4c6cfb241

     atomic species   valence    mass     pseudopotential
        Hf1           12.00   178.49000     Hf( 1.00)
        Ta1           13.00   180.94788     Ta( 1.00)

     No symmetry found

   Cartesian axes

     site n.     atom                  positions (alat units)
         1           Hf1 tau(   1) = (   0.0000000   0.0000000  10.0000000  )
         2           Hf1 tau(   2) = (  -1.5581534   2.6988008  10.0000000  )
         3           Hf1 tau(   3) = (   1.5581534   2.6988008  10.0000000  )
         4           Ta1 tau(   4) = (   3.1163067   0.0000000  10.0000000  )
         5           Hf1 tau(   5) = (   3.1163067   1.7992005  12.5444538  )
         6           Hf1 tau(   6) = (   1.5581534   4.4980013  12.5444538  )
         7           Hf1 tau(   7) = (  -1.5581534   4.4980013  12.5444538  )
         8           Ta1 tau(   8) = (   0.0000000   1.7992005  12.5444538  )
         9           Hf1 tau(   9) = (  -0.0000000   3.5984010  15.0889076  )
        10           Hf1 tau(  10) = (   1.5581534   0.8996003  15.0889076  )
        11           Hf1 tau(  11) = (   4.6744601   0.8996003  15.0889076  )
        12           Ta1 tau(  12) = (   3.1163067   3.5984010  15.0889076  )

     number of k points=    20  Fermi-Dirac smearing, width (Ry)=  0.0110
                       cart. coord. in units 2pi/alat
        k(    1) = (   0.0000000   0.0000000   0.0000000), wk =   0.0555556
        k(    2) = (   0.0000000   0.0308779   0.0000000), wk =   0.1111111
        k(    3) = (   0.0000000   0.0617558   0.0000000), wk =   0.1111111
        k(    4) = (   0.0000000  -0.0926337   0.0000000), wk =   0.0555556
        k(    5) = (   0.0267411   0.0154390   0.0000000), wk =   0.1111111
        k(    6) = (   0.0267411   0.0463169   0.0000000), wk =   0.1111111
        k(    7) = (   0.0267411   0.0771948   0.0000000), wk =   0.1111111
        k(    8) = (   0.0267411  -0.0771948   0.0000000), wk =   0.1111111
        k(    9) = (   0.0267411  -0.0463169   0.0000000), wk =   0.1111111
        k(   10) = (   0.0267411  -0.0154390   0.0000000), wk =   0.1111111
        k(   11) = (   0.0534821   0.0308779   0.0000000), wk =   0.1111111
        k(   12) = (   0.0534821   0.0617558   0.0000000), wk =   0.1111111
        k(   13) = (   0.0534821   0.0926337   0.0000000), wk =   0.1111111
        k(   14) = (   0.0534821  -0.0617558   0.0000000), wk =   0.1111111
        k(   15) = (   0.0534821  -0.0308779   0.0000000), wk =   0.1111111
        k(   16) = (   0.0534821   0.0000000   0.0000000), wk =   0.1111111
        k(   17) = (  -0.0802232  -0.0463169   0.0000000), wk =   0.0555556
        k(   18) = (  -0.0802232  -0.0154390   0.0000000), wk =   0.1111111
        k(   19) = (  -0.0802232   0.0154390   0.0000000), wk =   0.1111111
        k(   20) = (  -0.0802232  -0.1389506   0.0000000), wk =   0.0555556

     Largest allocated arrays     est. size (Mb)     dimensions
     Largest temporary arrays     est. size (Mb)     dimensions

     Check: negative/imaginary core charge=   -0.000003    0.000000

     Initial potential from superposition of free atoms
     Check: negative starting charge=   -1.242168

     starting charge  128.99665, renormalised to  147.00000

     negative rho (up, down):  1.416E+00 0.000E+00

     *
     * You are using vdW-DF for exchange-correlation in this calculation.
     * Please cite the following three references that made this development
     * possible:
     *
     *   M. Dion, H. Rydberg, E. Schroder, D. C. Langreth, and
     *   B. I. Lundqvist, Phys. Rev. Lett. 92, 246401 (2004).
     *
     *   T. Thonhauser, V. R. Cooper, S. Li, A. Puzder, P. Hyldgaard, and
     *   D. C. Langreth, Phys. Rev. B 76, 125112 (2007).
     *
     *   G. Roman-Perez and J. M. Soler, Phys. Rev. Lett. 103, 096102 (2009).
     *
     *
     * If you are using vdW-DF2, please also cite:
     *
     *   K. Lee, E. D. Murray, L. Kong, B. I. Lundqvist, and
     *   D. C. Langreth, Phys. Rev. B 82, 081101(R) (2010).
     *
     *
     * If you are calculating the stress with vdW-DF, please also cite:
     *
     *   R. Sabatini, E. Kucukbenli, B. Kolb, T. Thonhauser, and
     *   S. de Gironcoli, J. Phys.: Condens. Matter 24, 424209 (2012).
     *

     Carrying out vdW-DF run using the following parameters:

     Nqs =      20    Nr_points =    1024   r_max =   100.000
     q_mesh =
               0.00001000     0.04494208     0.09755937     0.15916263
               0.23128650     0.31572767     0.41458969     0.53033537
               0.66584808     0.82450364     1.01025438     1.22772762
               1.48234092     1.78043706     2.12944203     2.53805004
               3.01644009     3.57652955     4.23227104     5.00000000

     Gradients computed in reciprocal space

     Adding external electric field

     Computed dipole along edir(3) :
        Dipole               -0.0000 Ry au,         -0.0000 Debye
        Dipole field         -0.0000 Ry au

        Potential amp.        0.0000 Ry
        Total length         46.2259 bohr

     Starting wfc are  156 randomized atomic wfcs

     Self-consistent Calculation

     iteration #  1     ecut=    36.75 Ry     beta=0.10
     Davidson diagonalization with overlap
     ethr =  1.00E-02,  avg # of iterations =  8.2

[...]

     total energy              =   -1872.98832409 Ry
     Harris-Foulkes estimate   =   -1884.41590648 Ry
     estimated scf accuracy    <      68.00562249 Ry

[...]

     iteration # 15     ecut=    36.75 Ry     beta=0.10
     Davidson diagonalization with overlap
     c_bands:  1 eigenvalues not converged
     ethr =  1.38E-06,  avg # of iterations =  6.3

[...]

     End of self-consistent calculation

          k = 0.0000 0.0000 0.0000 ( 21487 PWs)   bands (ev):

   -66.8277 -66.8276 -66.7808 -60.9646 -60.9639 -60.9281 -60.9281 -60.9280
   -60.9280 -60.5399 -60.5045 -60.5035 -33.1818 -33.1743 -33.1319 -33.1319
   -33.1292 -33.1292 -33.0986 -33.0986 -33.0971 -29.8469 -29.8252 -29.6460
   -29.6067 -29.6066 -29.5684 -29.5684 -29.5586 -29.5368 -29.5367 -29.4834
   -29.4834 -29.4000 -29.2827 -29.2705 -29.2155 -29.2154 -29.1971 -29.1971
   -29.1290 -29.1287 -29.0265 -28.9933 -28.9927 -28.8791 -28.8052 -28.8048
    -5.2734  -3.8927  -2.6505  -1.8496  -1.7706  -1.7705  -1.6082  -1.5919
    -1.5919  -1.1104  -1.0779  -1.0779  -0.5653  -0.5653  -0.5314   0.3252
     0.3252   0.4036   1.3213   1.3989   1.6146   1.6146   1.7367   1.8778
     1.9511   1.9933   1.9933   2.1323   2.5315   2.5315   2.5787   2.7526
     2.7526   2.8196   2.8196   2.8983   2.8984   2.9061   2.9061   3.0310
     3.0863   3.0863   3.2483   4.1883   4.1883   4.5494   4.6938   4.9140
     4.9140   5.1585   5.1586   5.1776   5.3098   5.4098   5.5298

[...]

          k =-0.0802-0.0463 0.0000 ( 21432 PWs)   bands (ev):

[...]

     the Fermi energy is     1.5193 ev

!    total energy              =   -1874.45347776 Ry
     Harris-Foulkes estimate   =   -1874.46765969 Ry
     estimated scf accuracy    <       0.00000039 Ry

     The total energy is the sum of the following terms:

     one-electron contribution =   -9146.55046712 Ry
     hartree contribution      =    4556.11489228 Ry
     xc contribution           =    -826.57698895 Ry
     ewald contribution        =    3542.67260928 Ry
     electric field correction =       0.00000000 Ry
     smearing contrib. (-TS)   =      -0.11352324 Ry

     convergence has been achieved in  21 iterations

 BEEF-vdW xc energy contributions
           1 :   -743.444549681896
           2 :    690.402767699188
           3 :   -596.473338237655
           4 :    481.292822225797
[...]
     Pseudo is Ultrasoft + core correction, Zval = 12.0
     Generated by new atomic code, or converted to UPF format
     Using radial grid of  921 points,  8 beta functions with:
                l(1) =   0
                l(2) =   0
                l(3) =   0
                l(4) =   1
                l(5) =   1
                l(6) =   2
                l(7) =   2
                l(8) =   3
     Q(r) pseudized with  6 coefficients,  rinner =    1.200   1.200   1.200
                                                       1.200   1.200   1.200
                                                       1.200

     PseudoPot. # 2 for Ta read from file:
     /afs/slac.stanford.edu/u/if/mamunm/psp/gbrv1.5pbe/Ta.UPF
     MD5 check sum: f8bbe9446314a3b8ea5d9f3e3836c939
     Pseudo is Ultrasoft + core correction, Zval = 13.0
     Generated by new atomic code, or converted to UPF format
     Using radial grid of  921 points,  7 beta functions with:
                l(1) =   0
                l(2) =   0
                l(3) =   1
                l(4) =   1
                l(5) =   2
                l(6) =   2
                l(7) =   3
     Q(r) pseudized with  6 coefficients,  rinner =    1.300   1.300   1.300
                                                       1.300   1.300   1.300
                                                       1.300

     vdW kernel table read from file vdW_kernel_table
     MD5 check sum: 095c7af220d748ca6e76c0b4c6cfb241

     atomic species   valence    mass     pseudopotential
        Hf1           12.00   178.49000     Hf( 1.00)
        Ta1           13.00   180.94788     Ta( 1.00)

     No symmetry found

   Cartesian axes

     site n.     atom                  positions (alat units)
         1           Hf1 tau(   1) = (   0.0000000   0.0000000  10.0000000  )
         2           Hf1 tau(   2) = (  -1.5581534   2.6988008  10.0000000  )
         3           Hf1 tau(   3) = (   1.5581534   2.6988008  10.0000000  )
         4           Ta1 tau(   4) = (   3.1163067   0.0000000  10.0000000  )
         5           Hf1 tau(   5) = (   3.1163067   1.7992005  12.5444538  )
         6           Hf1 tau(   6) = (   1.5581534   4.4980013  12.5444538  )
         7           Hf1 tau(   7) = (  -1.5581534   4.4980013  12.5444538  )
         8           Ta1 tau(   8) = (   0.0000000   1.7992005  12.5444538  )
         9           Hf1 tau(   9) = (  -0.0000056   3.5645809  15.0055659  )
        10           Hf1 tau(  10) = (   1.5288685   0.9165137  15.0055753  )
        11           Hf1 tau(  11) = (   4.7037452   0.9165177  15.0055656  )
        12           Ta1 tau(  12) = (   3.1163097   3.5983915  14.8623857  )

     number of k points=    20  Fermi-Dirac smearing, width (Ry)=  0.0110
                       cart. coord. in units 2pi/alat
        k(    1) = (   0.0000000   0.0000000   0.0000000), wk =   0.0555556
        k(    2) = (   0.0000000   0.0308779   0.0000000), wk =   0.1111111
        k(    3) = (   0.0000000   0.0617558   0.0000000), wk =   0.1111111
        k(    4) = (   0.0000000  -0.0926337   0.0000000), wk =   0.0555556
        k(    5) = (   0.0267411   0.0154390   0.0000000), wk =   0.1111111
        k(    6) = (   0.0267411   0.0463169   0.0000000), wk =   0.1111111
        k(    7) = (   0.0267411   0.0771948   0.0000000), wk =   0.1111111
        k(    8) = (   0.0267411  -0.0771948   0.0000000), wk =   0.1111111
        k(    9) = (   0.0267411  -0.0463169   0.0000000), wk =   0.1111111
        k(   10) = (   0.0267411  -0.0154390   0.0000000), wk =   0.1111111
        k(   11) = (   0.0534821   0.0308779   0.0000000), wk =   0.1111111
        k(   12) = (   0.0534821   0.0617558   0.0000000), wk =   0.1111111
        k(   13) = (   0.0534821   0.0926337   0.0000000), wk =   0.1111111
        k(   14) = (   0.0534821  -0.0617558   0.0000000), wk =   0.1111111
        k(   15) = (   0.0534821  -0.0308779   0.0000000), wk =   0.1111111
        k(   16) = (   0.0534821   0.0000000   0.0000000), wk =   0.1111111
        k(   17) = (  -0.0802232  -0.0463169   0.0000000), wk =   0.0555556
        k(   18) = (  -0.0802232  -0.0154390   0.0000000), wk =   0.1111111
        k(   19) = (  -0.0802232   0.0154390   0.0000000), wk =   0.1111111
        k(   20) = (  -0.0802232  -0.1389506   0.0000000), wk =   0.0555556

     Largest allocated arrays     est. size (Mb)     dimensions
     Largest temporary arrays     est. size (Mb)     dimensions

     Check: negative/imaginary core charge=   -0.000003    0.000000

     Initial potential from superposition of free atoms
     Check: negative starting charge=   -1.246117

     starting charge  128.99665, renormalised to  147.00000

[...]

     *
     * You are using vdW-DF for exchange-correlation in this calculation.
     * Please cite the following three references that made this development
     * possible:
     *
     *   M. Dion, H. Rydberg, E. Schroder, D. C. Langreth, and
     *   B. I. Lundqvist, Phys. Rev. Lett. 92, 246401 (2004).
     *
     *   T. Thonhauser, V. R. Cooper, S. Li, A. Puzder, P. Hyldgaard, and
     *   D. C. Langreth, Phys. Rev. B 76, 125112 (2007).
     *
     *   G. Roman-Perez and J. M. Soler, Phys. Rev. Lett. 103, 096102 (2009).
     *
     *
     * If you are using vdW-DF2, please also cite:
     *
     *   K. Lee, E. D. Murray, L. Kong, B. I. Lundqvist, and
     *   D. C. Langreth, Phys. Rev. B 82, 081101(R) (2010).
     *
     *
     * If you are calculating the stress with vdW-DF, please also cite:
     *
     *   R. Sabatini, E. Kucukbenli, B. Kolb, T. Thonhauser, and
     *   S. de Gironcoli, J. Phys.: Condens. Matter 24, 424209 (2012).
     *

     Carrying out vdW-DF run using the following parameters:

     Nqs =      20    Nr_points =    1024   r_max =   100.000
     q_mesh =
               0.00001000     0.04494208     0.09755937     0.15916263
               0.23128650     0.31572767     0.41458969     0.53033537
               0.66584808     0.82450364     1.01025438     1.22772762
               1.48234092     1.78043706     2.12944203     2.53805004
               3.01644009     3.57652955     4.23227104     5.00000000

     Gradients computed in reciprocal space

[...]

     Starting wfc are  156 randomized atomic wfcs

     Self-consistent Calculation

[...]

     total energy              =   -1874.50542097 Ry
     Harris-Foulkes estimate   =   -1874.50542101 Ry
     estimated scf accuracy    <       0.00000886 Ry

     iteration # 21     ecut=    36.75 Ry     beta=0.10
     Davidson diagonalization with overlap
     ethr =  6.02E-09,  avg # of iterations =  1.0

[...]

     negative rho (up, down):  1.315E+00 0.000E+00

     Adding external electric field

     Computed dipole along edir(3) :
        Dipole                0.0314 Ry au,          0.0797 Debye
        Dipole field          0.0001 Ry au

        Potential amp.       -0.0064 Ry
        Total length         46.2259 bohr

     End of self-consistent calculation

[...]

          k = 0.0535 0.0000 0.0000 ( 21443 PWs)   bands (ev):

[...]

          k =-0.0802-0.1390 0.0000 ( 21432 PWs)   bands (ev):

   -66.7874 -66.7293 -66.6699 -60.9248 -60.9228 -60.9107 -60.9099 -60.8987
   -60.8985 -60.4234 -60.4113 -60.3993 -33.1387 -33.0884 -33.0806 -33.0615
   -33.0565 -33.0504 -33.0435 -33.0074 -32.9994 -29.6984 -29.6697 -29.6024
   -29.5609 -29.5380 -29.5173 -29.4874 -29.4834 -29.4807 -29.4455 -29.4374
   -29.4330 -29.4142 -29.4097 -29.3887 -29.3791 -29.1986 -29.1910 -29.1752
   -28.9770 -28.9653 -28.9250 -28.9178 -28.9169 -28.9145 -28.8953 -28.7346
    -3.6453  -3.5766  -2.3089  -2.2899  -1.3866  -1.2660  -1.0935  -1.0098
    -0.8620  -0.7758  -0.0114   0.0940   0.2054   0.2133   0.3545   0.4261
     0.5574   0.6006   0.6951   0.8318   0.8457   0.9274   1.0751   1.1081
     1.1687   1.2713   1.3108   1.4734   1.4758   1.6000   1.7672   1.8296
     2.0380   2.3029   2.3799   2.5239   2.5663   2.7251   3.2245   3.2958
     3.3631   3.6423   3.7725   3.8905   3.9953   4.1264   4.2439   4.3030
     4.3204   4.5144   4.5762   4.7175   4.7442   4.9249   5.0193

     the Fermi energy is     1.5339 ev

!    total energy              =   -1874.50542182 Ry
     Harris-Foulkes estimate   =   -1874.50542125 Ry
     estimated scf accuracy    <       0.00000091 Ry

     The total energy is the sum of the following terms:

     one-electron contribution =   -9306.51385016 Ry
     hartree contribution      =    4636.37225775 Ry
     xc contribution           =    -826.83960014 Ry
     ewald contribution        =    3622.58488770 Ry
     electric field correction =       0.00000217 Ry
     smearing contrib. (-TS)   =      -0.10911914 Ry

     convergence has been achieved in  21 iterations

 BEEF-vdW xc energy contributions
           1 :   -744.778206440132
           2 :    691.806067902009
           3 :   -597.946602619903
           4 :    482.752953630188
           5 :   -366.594115987493
           6 :    264.824144852911
           7 :   -185.050769168018
           8 :    127.824970685728
           9 :   -89.4947030681017
          10 :    65.2301858214284
          11 :   -50.8256848260967
          12 :    42.9732203970982
          13 :   -38.7256851687191
          14 :    35.0986026014868
          15 :   -29.3747131368903
          16 :    19.9416630260264
          17 :   -7.04651523230291
          18 :   -7.16330224427566
          19 :    19.4832672960249
          20 :   -27.0213829680551
          21 :    28.4046488558494
          22 :   -24.2494602054701
          23 :    16.7353324106077
          24 :   -8.61348253427582
          25 :    2.20245816063402
          26 :    1.17852493812779
          27 :   -1.23906415844988
          28 :   -1.58209385470809
          29 :    6.43174841024938
          30 :   -12.2032429684477
          31 :   -55.3994847476487
          32 :   -40.1056095424298

     Forces acting on atoms (Ry/au):

     negative rho (up, down):  1.315E+00 0.000E+00
     atom    1 type  1   force =     0.00000053    0.00951168    0.00886535
     atom    2 type  1   force =     0.00823575   -0.00475648    0.00886852
     atom    3 type  1   force =    -0.00823608   -0.00475687    0.00886703
     atom    4 type  2   force =    -0.00000069    0.00000138    0.03574953
     atom    5 type  1   force =     0.00000098   -0.00776655   -0.01712172
     atom    6 type  1   force =    -0.00672969    0.00388144   -0.01711882
     atom    7 type  1   force =     0.00672934    0.00388271   -0.01711775
     atom    8 type  2   force =    -0.00000045    0.00000269   -0.00692549
     atom    9 type  1   force =     0.00000071   -0.00003289   -0.00132447
     atom   10 type  1   force =    -0.00002922    0.00001618   -0.00132472
     atom   11 type  1   force =     0.00002946    0.00001655   -0.00132404
     atom   12 type  2   force =    -0.00000063    0.00000017   -0.00009343

     Total force =     0.053840     Total SCF correction =     0.002808

     entering subroutine stress ...

     negative rho (up, down):  1.315E+00 0.000E+00
          total   stress  (Ry/bohr**3)                   (kbar)     P=  -15.19
  -0.00010997   0.00000000  -0.00000000        -16.18      0.00     -0.00
   0.00000000  -0.00010997   0.00000000          0.00    -16.18      0.00
  -0.00000000   0.00000000  -0.00008976         -0.00      0.00    -13.20

 !ASE

     Writing output data file calc.save

     General routines

     Parallel routines

   This run was terminated on:   9:45: 1  26Dec2018

   JOB DONE.
Job  /afs/slac/g/suncat/bin/suncat-tsmpirun -x LD_LIBRARY_PATH -wdir /scratch/qe109770_IJGRL pw.x -in pw.inp

TID   HOST_NAME   COMMAND_LINE            STATUS            TERMINATION_TIME
00000 suncat0025 pw.x -in pw.inp   Done                     12/26/2018 09:45:01
00001 suncat0025 pw.x -in pw.inp   Done                     12/26/2018 09:45:01
00002 suncat0025 pw.x -in pw.inp   Done                     12/26/2018 09:45:01
00003 suncat0025 pw.x -in pw.inp   Done                     12/26/2018 09:45:01
00004 suncat0025 pw.x -in pw.inp   Done                     12/26/2018 09:45:01
00005 suncat0025 pw.x -in pw.inp   Done                     12/26/2018 09:45:01
00006 suncat0025 pw.x -in pw.inp   Done                     12/26/2018 09:45:01
00007 suncat0025 pw.x -in pw.inp   Done                     12/26/2018 09:45:01
00008 suncat0013 pw.x -in pw.inp   Done                     12/26/2018 09:45:01
00009 suncat0013 pw.x -in pw.inp   Done                     12/26/2018 09:45:01
00010 suncat0013 pw.x -in pw.inp   Done                     12/26/2018 09:45:01
00011 suncat0013 pw.x -in pw.inp   Done                     12/26/2018 09:45:01
00012 suncat0013 pw.x -in pw.inp   Done                     12/26/2018 09:45:01
00013 suncat0013 pw.x -in pw.inp   Done                     12/26/2018 09:45:01
00014 suncat0013 pw.x -in pw.inp   Done                     12/26/2018 09:45:01
00015 suncat0013 pw.x -in pw.inp   Done                     12/26/2018 09:45:01
00016 suncat0008 pw.x -in pw.inp   Done                     12/26/2018 09:45:01
00017 suncat0008 pw.x -in pw.inp   Done                     12/26/2018 09:45:01
00018 suncat0008 pw.x -in pw.inp   Done                     12/26/2018 09:45:01
00019 suncat0008 pw.x -in pw.inp   Done                     12/26/2018 09:45:01
00020 suncat0008 pw.x -in pw.inp   Done                     12/26/2018 09:45:01
00021 suncat0008 pw.x -in pw.inp   Done                     12/26/2018 09:45:01
00022 suncat0008 pw.x -in pw.inp   Done                     12/26/2018 09:45:01
00023 suncat0008 pw.x -in pw.inp   Done                     12/26/2018 09:45:01
00024 suncat0001 pw.x -in pw.inp   Done                     12/26/2018 09:45:01
00025 suncat0001 pw.x -in pw.inp   Done                     12/26/2018 09:45:01
00026 suncat0001 pw.x -in pw.inp   Done                     12/26/2018 09:45:01
00027 suncat0001 pw.x -in pw.inp   Done                     12/26/2018 09:45:01
00028 suncat0001 pw.x -in pw.inp   Done                     12/26/2018 09:45:01
00029 suncat0001 pw.x -in pw.inp   Done                     12/26/2018 09:45:01
00030 suncat0001 pw.x -in pw.inp   Done                     12/26/2018 09:45:01
00031 suncat0001 pw.x -in pw.inp   Done                     12/26/2018 09:45:01
00032 suncat0184 pw.x -in pw.inp   Done                     12/26/2018 09:45:01
00033 suncat0184 pw.x -in pw.inp   Done                     12/26/2018 09:45:01
00034 suncat0184 pw.x -in pw.inp   Done                     12/26/2018 09:45:01
00035 suncat0184 pw.x -in pw.inp   Done                     12/26/2018 09:45:01
00036 suncat0184 pw.x -in pw.inp   Done                     12/26/2018 09:45:01
00037 suncat0184 pw.x -in pw.inp   Done                     12/26/2018 09:45:01
00038 suncat0184 pw.x -in pw.inp   Done                     12/26/2018 09:45:01
00039 suncat0184 pw.x -in pw.inp   Done                     12/26/2018 09:45:01
00040 suncat0142 pw.x -in pw.inp   Done                     12/26/2018 09:45:01
00041 suncat0142 pw.x -in pw.inp   Done                     12/26/2018 09:45:01
00042 suncat0142 pw.x -in pw.inp   Done                     12/26/2018 09:45:01
00043 suncat0142 pw.x -in pw.inp   Done                     12/26/2018 09:45:01
00044 suncat0142 pw.x -in pw.inp   Done                     12/26/2018 09:45:01
00045 suncat0142 pw.x -in pw.inp   Done                     12/26/2018 09:45:01
00046 suncat0142 pw.x -in pw.inp   Done                     12/26/2018 09:45:01
00047 suncat0142 pw.x -in pw.inp   Done                     12/26/2018 09:45:01
00048 suncat0117 pw.x -in pw.inp   Done                     12/26/2018 09:45:01
00049 suncat0117 pw.x -in pw.inp   Done                     12/26/2018 09:45:01
00050 suncat0117 pw.x -in pw.inp   Done                     12/26/2018 09:45:01
00051 suncat0117 pw.x -in pw.inp   Done                     12/26/2018 09:45:01
00052 suncat0117 pw.x -in pw.inp   Done                     12/26/2018 09:45:01
00053 suncat0117 pw.x -in pw.inp   Done                     12/26/2018 09:45:01
00054 suncat0117 pw.x -in pw.inp   Done                     12/26/2018 09:45:01
00055 suncat0117 pw.x -in pw.inp   Done                     12/26/2018 09:45:01
00056 suncat0116 pw.x -in pw.inp   Done                     12/26/2018 09:45:01
00057 suncat0116 pw.x -in pw.inp   Done                     12/26/2018 09:45:01
00058 suncat0116 pw.x -in pw.inp   Done                     12/26/2018 09:45:01
00059 suncat0116 pw.x -in pw.inp   Done                     12/26/2018 09:45:01
00060 suncat0116 pw.x -in pw.inp   Done                     12/26/2018 09:45:01
00061 suncat0116 pw.x -in pw.inp   Done                     12/26/2018 09:45:01
00062 suncat0116 pw.x -in pw.inp   Done                     12/26/2018 09:45:01
00063 suncat0116 pw.x -in pw.inp   Done                     12/26/2018 09:45:01