     Program PWSCF v.5.1rc2 (svn rev. 11289) starts on  1Jan2019 at  0: 9:19

     Current dimensions of program PWSCF are:
     Max number of different atomic species (ntypx) = 10
     Max number of k-points (npk) =  40000
     Max angular momentum in pseudopotentials (lmaxx) =  3
     Presently stress not available with electric field

     IMPORTANT: XC functional enforced from input :
     Exchange-correlation      = BEEF-VDW ( 1  4 27 13 2)
     Any further DFT definition will be discarded
     Please, verify this is what you really want

     Subspace diagonalization in iterative solution of the eigenvalue problem:
     a serial algorithm will be used

     Generating pointlists ...
     new r_m :   0.4125 (alat units)  0.7795 (a.u.) for type    1
     new r_m :   0.4125 (alat units)  0.7795 (a.u.) for type    2

     bravais-lattice index     =            0
     lattice parameter (alat)  =       1.8897  a.u.
     unit-cell volume          =    4039.9607 (a.u.)^3
     number of atoms/cell      =           12
     number of atomic types    =            2
     number of electrons       =       192.00
     number of Kohn-Sham states=          126
     kinetic-energy cutoff     =      36.7493  Ry
     charge density cutoff     =     367.4932  Ry
     convergence threshold     =      1.0E-06
     mixing beta               =       0.1000
     number of iterations used =           10  plain     mixing
     Exchange-correlation      = BEEF-VDW ( 1  4 27 13 2)
     nstep                     =           50

     celldm(1)=   1.889726  celldm(2)=   0.000000  celldm(3)=   0.000000
     celldm(4)=   0.000000  celldm(5)=   0.000000  celldm(6)=   0.000000

     crystal axes: (cart. coord. in units of alat)
               a(1) = (   5.328097   0.000000   0.000000 )
               a(2) = (  -2.664049   4.614268   0.000000 )
               a(3) = (   0.000000   0.000000  24.350373 )

     reciprocal axes: (cart. coord. in units 2 pi/alat)
               b(1) = (  0.187684  0.108360  0.000000 )
               b(2) = (  0.000000  0.216719  0.000000 )
               b(3) = (  0.000000  0.000000  0.041067 )

     PseudoPot. # 1 for Ru read from file:
     /afs/slac.stanford.edu/u/if/mamunm/psp/gbrv1.5pbe/Ru.UPF
     MD5 check sum: 7158a806dd851261a58e6920c40ebe78
     Pseudo is Ultrasoft + core correction, Zval = 16.0
     Generated by new atomic code, or converted to UPF format
     Using radial grid of  967 points,  6 beta functions with:
                l(1) =   0
                l(2) =   0
                l(3) =   1
                l(4) =   1
                l(5) =   2
                l(6) =   2
     Q(r) pseudized with  8 coefficients,  rinner =    1.300   1.300   1.300
                                                       1.300   1.300

     PseudoPot. # 2 for Fe read from file:
     /afs/slac.stanford.edu/u/if/mamunm/psp/gbrv1.5pbe/Fe.UPF
     MD5 check sum: a130daea23fe5165f5d574ae7f82ed95
     Pseudo is Ultrasoft + core correction, Zval = 16.0
     Generated by new atomic code, or converted to UPF format
     Using radial grid of  861 points,  6 beta functions with:
                l(1) =   0
                l(2) =   0
                l(3) =   1
                l(4) =   1
                l(5) =   2
                l(6) =   2
     Q(r) pseudized with  8 coefficients,  rinner =    1.000   1.000   1.000
                                                       1.000   1.000

     vdW kernel table read from file vdW_kernel_table
     MD5 check sum: 095c7af220d748ca6e76c0b4c6cfb241

     atomic species   valence    mass     pseudopotential
        Ru1           16.00   101.07000     Ru( 1.00)
        Fe1           16.00    55.84500     Fe( 1.00)

     Starting magnetic structure
     atomic species   magnetization
        Ru1          0.125
        Fe1          0.125

     No symmetry found

   Cartesian axes

     site n.     atom                  positions (alat units)
         1           Ru1 tau(   1) = (   0.0000000   0.0000000  10.0000000  )
         2           Ru1 tau(   2) = (  -1.3320243   2.3071338  10.0000000  )
         3           Ru1 tau(   3) = (   1.3320243   2.3071338  10.0000000  )
         4           Fe1 tau(   4) = (   2.6640486   0.0000000  10.0000000  )
         5           Ru1 tau(   5) = (   2.6640486   1.5380892  12.1751866  )
         6           Ru1 tau(   6) = (   1.3320243   3.8452230  12.1751866  )
         7           Ru1 tau(   7) = (  -1.3320243   3.8452230  12.1751866  )
         8           Fe1 tau(   8) = (   0.0000000   1.5380892  12.1751866  )
         9           Ru1 tau(   9) = (  -0.0000000   3.0761784  14.3503732  )
        10           Ru1 tau(  10) = (   1.3320243   0.7690446  14.3503732  )
        11           Ru1 tau(  11) = (   3.9960729   0.7690446  14.3503732  )
        12           Fe1 tau(  12) = (   2.6640486   3.0761784  14.3503732  )

     number of k points=    40  Fermi-Dirac smearing, width (Ry)=  0.0110
                       cart. coord. in units 2pi/alat
        k(    1) = (   0.0000000   0.0000000   0.0000000), wk =   0.0277778
        k(    2) = (   0.0000000   0.0361199   0.0000000), wk =   0.0555556
        k(    3) = (   0.0000000   0.0722397   0.0000000), wk =   0.0555556
        k(    4) = (   0.0000000  -0.1083596   0.0000000), wk =   0.0277778
        k(    5) = (   0.0312807   0.0180599   0.0000000), wk =   0.0555556
        k(    6) = (   0.0312807   0.0541798   0.0000000), wk =   0.0555556
        k(    7) = (   0.0312807   0.0902996   0.0000000), wk =   0.0555556
        k(    8) = (   0.0312807  -0.0902996   0.0000000), wk =   0.0555556
        k(    9) = (   0.0312807  -0.0541798   0.0000000), wk =   0.0555556
        k(   10) = (   0.0312807  -0.0180599   0.0000000), wk =   0.0555556
        k(   11) = (   0.0625614   0.0361199   0.0000000), wk =   0.0555556
        k(   12) = (   0.0625614   0.0722397   0.0000000), wk =   0.0555556
        k(   13) = (   0.0625614   0.1083596   0.0000000), wk =   0.0555556
        k(   14) = (   0.0625614  -0.0722397   0.0000000), wk =   0.0555556
        k(   15) = (   0.0625614  -0.0361199   0.0000000), wk =   0.0555556
        k(   16) = (   0.0625614  -0.0000000   0.0000000), wk =   0.0555556
        k(   17) = (  -0.0938421  -0.0541798   0.0000000), wk =   0.0277778
        k(   18) = (  -0.0938421  -0.0180599   0.0000000), wk =   0.0555556
        k(   19) = (  -0.0938421   0.0180599   0.0000000), wk =   0.0555556
        k(   20) = (  -0.0938421  -0.1625393   0.0000000), wk =   0.0277778
        k(   21) = (   0.0000000   0.0000000   0.0000000), wk =   0.0277778
        k(   22) = (   0.0000000   0.0361199   0.0000000), wk =   0.0555556
        k(   23) = (   0.0000000   0.0722397   0.0000000), wk =   0.0555556
        k(   24) = (   0.0000000  -0.1083596   0.0000000), wk =   0.0277778
        k(   25) = (   0.0312807   0.0180599   0.0000000), wk =   0.0555556
        k(   26) = (   0.0312807   0.0541798   0.0000000), wk =   0.0555556
        k(   27) = (   0.0312807   0.0902996   0.0000000), wk =   0.0555556
        k(   28) = (   0.0312807  -0.0902996   0.0000000), wk =   0.0555556
        k(   29) = (   0.0312807  -0.0541798   0.0000000), wk =   0.0555556
        k(   30) = (   0.0312807  -0.0180599   0.0000000), wk =   0.0555556
        k(   31) = (   0.0625614   0.0361199   0.0000000), wk =   0.0555556
        k(   32) = (   0.0625614   0.0722397   0.0000000), wk =   0.0555556
        k(   33) = (   0.0625614   0.1083596   0.0000000), wk =   0.0555556
        k(   34) = (   0.0625614  -0.0722397   0.0000000), wk =   0.0555556
        k(   35) = (   0.0625614  -0.0361199   0.0000000), wk =   0.0555556
        k(   36) = (   0.0625614  -0.0000000   0.0000000), wk =   0.0555556
        k(   37) = (  -0.0938421  -0.0541798   0.0000000), wk =   0.0277778
        k(   38) = (  -0.0938421  -0.0180599   0.0000000), wk =   0.0555556
        k(   39) = (  -0.0938421   0.0180599   0.0000000), wk =   0.0555556
        k(   40) = (  -0.0938421  -0.1625393   0.0000000), wk =   0.0277778

     Largest allocated arrays     est. size (Mb)     dimensions
     Largest temporary arrays     est. size (Mb)     dimensions

     Check: negative/imaginary core charge=   -0.000003    0.000000

     Initial potential from superposition of free atoms
     Check: negative starting charge=(component1):   -0.371172
     Check: negative starting charge=(component2):   -0.288690

     starting charge  179.99984, renormalised to  192.00000

     negative rho (up, down):  3.959E-01 3.079E-01

     *
     * You are using vdW-DF for exchange-correlation in this calculation.
     * Please cite the following three references that made this development
     * possible:
     *
     *   M. Dion, H. Rydberg, E. Schroder, D. C. Langreth, and
     *   B. I. Lundqvist, Phys. Rev. Lett. 92, 246401 (2004).
     *
     *   T. Thonhauser, V. R. Cooper, S. Li, A. Puzder, P. Hyldgaard, and
     *   D. C. Langreth, Phys. Rev. B 76, 125112 (2007).
     *
     *   G. Roman-Perez and J. M. Soler, Phys. Rev. Lett. 103, 096102 (2009).
     *
     *
     * If you are using vdW-DF2, please also cite:
     *
     *   K. Lee, E. D. Murray, L. Kong, B. I. Lundqvist, and
     *   D. C. Langreth, Phys. Rev. B 82, 081101(R) (2010).
     *
     *
     * If you are calculating the stress with vdW-DF, please also cite:
     *
     *   R. Sabatini, E. Kucukbenli, B. Kolb, T. Thonhauser, and
     *   S. de Gironcoli, J. Phys.: Condens. Matter 24, 424209 (2012).
     *

     Carrying out vdW-DF run using the following parameters:

     Nqs =      20    Nr_points =    1024   r_max =   100.000
     q_mesh =
               0.00001000     0.04494208     0.09755937     0.15916263
               0.23128650     0.31572767     0.41458969     0.53033537
               0.66584808     0.82450364     1.01025438     1.22772762
               1.48234092     1.78043706     2.12944203     2.53805004
               3.01644009     3.57652955     4.23227104     5.00000000

     Gradients computed in reciprocal space

     Adding external electric field

     Computed dipole along edir(3) :
        Dipole                0.0000 Ry au,          0.0000 Debye
        Dipole field          0.0000 Ry au

        Potential amp.       -0.0000 Ry
        Total length         44.8651 bohr

[...]

     Starting wfc are  156 randomized atomic wfcs

     Self-consistent Calculation

     iteration #  1     ecut=    36.75 Ry     beta=0.10
     Davidson diagonalization with overlap
     ethr =  1.00E-02,  avg # of iterations =  8.5

[...]

     Magnetic moment per site:
     atom:    1    charge:    2.9717    magn:    0.3475    constr:    0.0000
     atom:    2    charge:    2.9717    magn:    0.3475    constr:    0.0000
     atom:    3    charge:    2.9717    magn:    0.3475    constr:    0.0000
     atom:    4    charge:    7.3022    magn:    0.8940    constr:    0.0000
     atom:    5    charge:    2.9762    magn:    0.3463    constr:    0.0000
     atom:    6    charge:    2.9761    magn:    0.3463    constr:    0.0000
     atom:    7    charge:    2.9761    magn:    0.3464    constr:    0.0000
     atom:    8    charge:    7.3059    magn:    0.8834    constr:    0.0000
[...]
        k(    4) = (   0.0000000  -0.1083596   0.0000000), wk =   0.0277778
        k(    5) = (   0.0312807   0.0180599   0.0000000), wk =   0.0555556
        k(    6) = (   0.0312807   0.0541798   0.0000000), wk =   0.0555556
        k(    7) = (   0.0312807   0.0902996   0.0000000), wk =   0.0555556
        k(    8) = (   0.0312807  -0.0902996   0.0000000), wk =   0.0555556
        k(    9) = (   0.0312807  -0.0541798   0.0000000), wk =   0.0555556
        k(   10) = (   0.0312807  -0.0180599   0.0000000), wk =   0.0555556
        k(   11) = (   0.0625614   0.0361199   0.0000000), wk =   0.0555556
        k(   12) = (   0.0625614   0.0722397   0.0000000), wk =   0.0555556
        k(   13) = (   0.0625614   0.1083596   0.0000000), wk =   0.0555556
        k(   14) = (   0.0625614  -0.0722397   0.0000000), wk =   0.0555556
        k(   15) = (   0.0625614  -0.0361199   0.0000000), wk =   0.0555556
        k(   16) = (   0.0625614  -0.0000000   0.0000000), wk =   0.0555556
        k(   17) = (  -0.0938421  -0.0541798   0.0000000), wk =   0.0277778
        k(   18) = (  -0.0938421  -0.0180599   0.0000000), wk =   0.0555556
        k(   19) = (  -0.0938421   0.0180599   0.0000000), wk =   0.0555556
        k(   20) = (  -0.0938421  -0.1625393   0.0000000), wk =   0.0277778
        k(   21) = (   0.0000000   0.0000000   0.0000000), wk =   0.0277778
        k(   22) = (   0.0000000   0.0361199   0.0000000), wk =   0.0555556
        k(   23) = (   0.0000000   0.0722397   0.0000000), wk =   0.0555556
        k(   24) = (   0.0000000  -0.1083596   0.0000000), wk =   0.0277778
        k(   25) = (   0.0312807   0.0180599   0.0000000), wk =   0.0555556
        k(   26) = (   0.0312807   0.0541798   0.0000000), wk =   0.0555556
        k(   27) = (   0.0312807   0.0902996   0.0000000), wk =   0.0555556
        k(   28) = (   0.0312807  -0.0902996   0.0000000), wk =   0.0555556
        k(   29) = (   0.0312807  -0.0541798   0.0000000), wk =   0.0555556
        k(   30) = (   0.0312807  -0.0180599   0.0000000), wk =   0.0555556
        k(   31) = (   0.0625614   0.0361199   0.0000000), wk =   0.0555556
        k(   32) = (   0.0625614   0.0722397   0.0000000), wk =   0.0555556
        k(   33) = (   0.0625614   0.1083596   0.0000000), wk =   0.0555556
        k(   34) = (   0.0625614  -0.0722397   0.0000000), wk =   0.0555556
        k(   35) = (   0.0625614  -0.0361199   0.0000000), wk =   0.0555556
        k(   36) = (   0.0625614  -0.0000000   0.0000000), wk =   0.0555556
        k(   37) = (  -0.0938421  -0.0541798   0.0000000), wk =   0.0277778
        k(   38) = (  -0.0938421  -0.0180599   0.0000000), wk =   0.0555556
        k(   39) = (  -0.0938421   0.0180599   0.0000000), wk =   0.0555556
        k(   40) = (  -0.0938421  -0.1625393   0.0000000), wk =   0.0277778

     Largest allocated arrays     est. size (Mb)     dimensions
     Largest temporary arrays     est. size (Mb)     dimensions

     Check: negative/imaginary core charge=   -0.000003    0.000000

     Initial potential from superposition of free atoms
     Check: negative starting charge=(component1):   -0.370630
     Check: negative starting charge=(component2):   -0.288268

     starting charge  179.99984, renormalised to  192.00000

[...]

     *
     * You are using vdW-DF for exchange-correlation in this calculation.
     * Please cite the following three references that made this development
     * possible:
     *
     *   M. Dion, H. Rydberg, E. Schroder, D. C. Langreth, and
     *   B. I. Lundqvist, Phys. Rev. Lett. 92, 246401 (2004).
     *
     *   T. Thonhauser, V. R. Cooper, S. Li, A. Puzder, P. Hyldgaard, and
     *   D. C. Langreth, Phys. Rev. B 76, 125112 (2007).
     *
     *   G. Roman-Perez and J. M. Soler, Phys. Rev. Lett. 103, 096102 (2009).
     *
     *
     * If you are using vdW-DF2, please also cite:
     *
     *   K. Lee, E. D. Murray, L. Kong, B. I. Lundqvist, and
     *   D. C. Langreth, Phys. Rev. B 82, 081101(R) (2010).
     *
     *
     * If you are calculating the stress with vdW-DF, please also cite:
     *
     *   R. Sabatini, E. Kucukbenli, B. Kolb, T. Thonhauser, and
     *   S. de Gironcoli, J. Phys.: Condens. Matter 24, 424209 (2012).
     *

     Carrying out vdW-DF run using the following parameters:

     Nqs =      20    Nr_points =    1024   r_max =   100.000
     q_mesh =
               0.00001000     0.04494208     0.09755937     0.15916263
               0.23128650     0.31572767     0.41458969     0.53033537
               0.66584808     0.82450364     1.01025438     1.22772762
               1.48234092     1.78043706     2.12944203     2.53805004
               3.01644009     3.57652955     4.23227104     5.00000000

     Gradients computed in reciprocal space

[...]

     Starting wfc are  156 randomized atomic wfcs

     Self-consistent Calculation

[...]

     total energy              =   -2509.88394765 Ry
     Harris-Foulkes estimate   =   -2509.88394758 Ry
     estimated scf accuracy    <       0.00000101 Ry

[...]

     iteration # 34     ecut=    36.75 Ry     beta=0.10
     Davidson diagonalization with overlap
     ethr =  5.27E-10,  avg # of iterations =  2.0

[...]

     negative rho (up, down):  3.451E-01 3.408E-01

[...]

     Adding external electric field

     Computed dipole along edir(3) :
        Dipole                0.0098 Ry au,          0.0250 Debye
        Dipole field          0.0000 Ry au

        Potential amp.       -0.0027 Ry
        Total length         44.8651 bohr

     Magnetic moment per site:
     atom:    1    charge:    2.8409    magn:   -0.0252    constr:    0.0000
     atom:    2    charge:    2.8409    magn:   -0.0252    constr:    0.0000
     atom:    3    charge:    2.8409    magn:   -0.0252    constr:    0.0000
     atom:    4    charge:    7.0780    magn:    1.2582    constr:    0.0000
     atom:    5    charge:    2.8467    magn:   -0.0150    constr:    0.0000
     atom:    6    charge:    2.8467    magn:   -0.0150    constr:    0.0000
     atom:    7    charge:    2.8467    magn:   -0.0150    constr:    0.0000
     atom:    8    charge:    7.0741    magn:    1.0837    constr:    0.0000
     atom:    9    charge:    2.8434    magn:   -0.0255    constr:    0.0000
     atom:   10    charge:    2.8434    magn:   -0.0255    constr:    0.0000
     atom:   11    charge:    2.8434    magn:   -0.0255    constr:    0.0000
     atom:   12    charge:    7.0860    magn:    1.1712    constr:    0.0000

     End of self-consistent calculation

 ------ SPIN UP ------------

[...]

 ------ SPIN DOWN ----------

[...]

          k = 0.0626-0.0000 0.0000 ( 15220 PWs)   bands (ev):

[...]

          k =-0.0938-0.1625 0.0000 ( 15194 PWs)   bands (ev):

   -83.9954 -83.7621 -83.7039 -71.2281 -71.1958 -71.1629 -70.7967 -70.7664
   -70.7425 -70.7358 -70.7119 -70.6810 -50.0890 -50.0875 -50.0578 -49.8701
   -49.8687 -49.8139 -49.8125 -49.8096 -49.7448 -41.4888 -41.3584 -41.3200
   -41.2664 -41.2095 -41.1888 -41.1393 -41.1294 -41.0469 -40.9861 -40.8592
   -40.7954 -40.7601 -40.7494 -40.7129 -40.7081 -40.6997 -40.6630 -40.6620
   -40.6330 -40.6294 -40.5926 -40.5865 -40.5477 -40.5428 -40.4800 -40.4334
    -3.4755  -3.3519  -2.9494  -2.6997  -2.5319  -2.3590  -2.2466  -2.1185
    -2.0626  -1.9177  -1.8973  -1.7779  -1.6158  -1.4320  -1.4061  -1.3562
    -1.1800  -1.1341  -0.9510  -0.7484  -0.3145  -0.2565  -0.2018  -0.0880
    -0.0162   0.0196   0.1054   0.2276   0.2279   0.2763   0.3682   0.3854
     0.4037   0.5055   0.7482   0.7564   0.8343   0.9675   1.1709   1.2871
     1.3167   1.3976   1.4521   1.8114   1.8578   1.9473   1.9591   2.0752
     2.2749   2.3261   2.4262   2.4567   2.5288   2.7209   2.7343   2.7640
     2.7832   2.9051   3.2639   3.3456   3.5225   3.5611   3.6257   3.9067
     4.8445   4.9982   5.5786   6.3050   6.3798   6.7735   6.8699   7.0398
     8.1575   8.1803   8.3525   8.3597   8.7596   8.7886

     the Fermi energy is     2.0738 ev

!    total energy              =   -2509.88394845 Ry
     Harris-Foulkes estimate   =   -2509.88394807 Ry
     estimated scf accuracy    <       0.00000058 Ry

     The total energy is the sum of the following terms:

     one-electron contribution =  -23202.60037575 Ry
     hartree contribution      =   11600.38084697 Ry
     xc contribution           =    -332.37574254 Ry
     ewald contribution        =    9424.80769848 Ry
     electric field correction =       0.00000030 Ry
     smearing contrib. (-TS)   =      -0.09637591 Ry

     total magnetization       =     5.79 Bohr mag/cell
     absolute magnetization    =     9.64 Bohr mag/cell

     convergence has been achieved in  34 iterations

 BEEF-vdW xc energy contributions
           1 :   -289.086850559011
           2 :    264.481998323601
           3 :   -222.247287590045
           4 :    173.356878880557
           5 :   -128.583551871916
           6 :    95.0089830959269
           7 :   -74.5372597755672
           8 :    64.6016385735605
           9 :   -60.3420286770246
          10 :    57.0631013951356
          11 :   -51.9456367038865
          12 :    44.5164574975742
          13 :   -36.0344263822918
          14 :    28.3495525268350
          15 :   -22.8660445714998
          16 :    19.9943748236030
          17 :   -19.1674974079546
          18 :    19.2469738270321
          19 :   -19.0702348237011
          20 :    17.9033271812406
          21 :   -15.6558575597923
          22 :    12.8091259067128
          23 :   -10.1250279843209
          24 :    8.26905568108202
          25 :   -7.51396466439627
          26 :    7.64296978854242
          27 :   -8.08910127850913
          28 :    8.22943816735409
          29 :   -7.68541104433075
          30 :    6.47508951682408
          31 :   -28.7180888310263
          32 :   -21.4419936324445

     Forces acting on atoms (Ry/au):

     negative rho (up, down):  3.451E-01 3.408E-01
     atom    1 type  1   force =     0.00000044   -0.00397951    0.01145577
     atom    2 type  1   force =    -0.00344724    0.00199049    0.01145650
     atom    3 type  1   force =     0.00344798    0.00199031    0.01145608
     atom    4 type  2   force =     0.00000052   -0.00000155    0.00966653
     atom    5 type  1   force =    -0.00000173    0.00372602   -0.01240635
     atom    6 type  1   force =     0.00322748   -0.00186505   -0.01240584
     atom    7 type  1   force =    -0.00322373   -0.00186084   -0.01240344
     atom    8 type  2   force =    -0.00000404   -0.00000292   -0.00830321
     atom    9 type  1   force =    -0.00000002   -0.00020862    0.00092517
     atom   10 type  1   force =    -0.00017756    0.00010322    0.00092001
     atom   11 type  1   force =     0.00018116    0.00010541    0.00092299
     atom   12 type  2   force =    -0.00000325    0.00000303   -0.00128421

     Total force =     0.033336     Total SCF correction =     0.002595

     entering subroutine stress ...

     negative rho (up, down):  3.451E-01 3.408E-01
          total   stress  (Ry/bohr**3)                   (kbar)     P=  -14.17
  -0.00012049   0.00000000  -0.00000000        -17.72      0.00     -0.00
   0.00000000  -0.00012049  -0.00000000          0.00    -17.72     -0.00
  -0.00000000  -0.00000000  -0.00004791         -0.00     -0.00     -7.05

 !ASE

     Writing output data file calc.save

     General routines

     Parallel routines

   This run was terminated on:   2:55:29   1Jan2019

   JOB DONE.
Job  /afs/slac/g/suncat/bin/suncat-tsmpirun -x LD_LIBRARY_PATH -wdir /scratch/qe648911_P3DQS pw.x -in pw.inp

TID   HOST_NAME   COMMAND_LINE            STATUS            TERMINATION_TIME
00000 suncat0068 pw.x -in pw.inp   Done                     01/01/2019 02:55:29
00001 suncat0068 pw.x -in pw.inp   Done                     01/01/2019 02:55:29
00002 suncat0068 pw.x -in pw.inp   Done                     01/01/2019 02:55:29
00003 suncat0068 pw.x -in pw.inp   Done                     01/01/2019 02:55:29
00004 suncat0068 pw.x -in pw.inp   Done                     01/01/2019 02:55:29
00005 suncat0068 pw.x -in pw.inp   Done                     01/01/2019 02:55:29
00006 suncat0068 pw.x -in pw.inp   Done                     01/01/2019 02:55:29
00007 suncat0068 pw.x -in pw.inp   Done                     01/01/2019 02:55:29
00008 suncat0059 pw.x -in pw.inp   Done                     01/01/2019 02:55:29
00009 suncat0059 pw.x -in pw.inp   Done                     01/01/2019 02:55:29
00010 suncat0059 pw.x -in pw.inp   Done                     01/01/2019 02:55:29
00011 suncat0059 pw.x -in pw.inp   Done                     01/01/2019 02:55:29
00012 suncat0059 pw.x -in pw.inp   Done                     01/01/2019 02:55:29
00013 suncat0059 pw.x -in pw.inp   Done                     01/01/2019 02:55:29
00014 suncat0059 pw.x -in pw.inp   Done                     01/01/2019 02:55:29
00015 suncat0059 pw.x -in pw.inp   Done                     01/01/2019 02:55:29
00016 suncat0031 pw.x -in pw.inp   Done                     01/01/2019 02:55:29
00017 suncat0031 pw.x -in pw.inp   Done                     01/01/2019 02:55:29
00018 suncat0031 pw.x -in pw.inp   Done                     01/01/2019 02:55:29
00019 suncat0031 pw.x -in pw.inp   Done                     01/01/2019 02:55:29
00020 suncat0031 pw.x -in pw.inp   Done                     01/01/2019 02:55:29
00021 suncat0031 pw.x -in pw.inp   Done                     01/01/2019 02:55:29
00022 suncat0031 pw.x -in pw.inp   Done                     01/01/2019 02:55:29
00023 suncat0031 pw.x -in pw.inp   Done                     01/01/2019 02:55:29
00024 suncat0030 pw.x -in pw.inp   Done                     01/01/2019 02:55:29
00025 suncat0030 pw.x -in pw.inp   Done                     01/01/2019 02:55:29
00026 suncat0030 pw.x -in pw.inp   Done                     01/01/2019 02:55:29
00027 suncat0030 pw.x -in pw.inp   Done                     01/01/2019 02:55:29
00028 suncat0030 pw.x -in pw.inp   Done                     01/01/2019 02:55:29
00029 suncat0030 pw.x -in pw.inp   Done                     01/01/2019 02:55:29
00030 suncat0030 pw.x -in pw.inp   Done                     01/01/2019 02:55:29
00031 suncat0030 pw.x -in pw.inp   Done                     01/01/2019 02:55:29
00032 suncat0280 pw.x -in pw.inp   Done                     01/01/2019 02:55:29
00033 suncat0280 pw.x -in pw.inp   Done                     01/01/2019 02:55:29
00034 suncat0280 pw.x -in pw.inp   Done                     01/01/2019 02:55:29
00035 suncat0280 pw.x -in pw.inp   Done                     01/01/2019 02:55:29
00036 suncat0280 pw.x -in pw.inp   Done                     01/01/2019 02:55:29
00037 suncat0280 pw.x -in pw.inp   Done                     01/01/2019 02:55:29
00038 suncat0280 pw.x -in pw.inp   Done                     01/01/2019 02:55:29
00039 suncat0280 pw.x -in pw.inp   Done                     01/01/2019 02:55:29
00040 suncat0279 pw.x -in pw.inp   Done                     01/01/2019 02:55:29
00041 suncat0279 pw.x -in pw.inp   Done                     01/01/2019 02:55:29
00042 suncat0279 pw.x -in pw.inp   Done                     01/01/2019 02:55:29
00043 suncat0279 pw.x -in pw.inp   Done                     01/01/2019 02:55:29
00044 suncat0279 pw.x -in pw.inp   Done                     01/01/2019 02:55:29
00045 suncat0279 pw.x -in pw.inp   Done                     01/01/2019 02:55:29
00046 suncat0279 pw.x -in pw.inp   Done                     01/01/2019 02:55:29
00047 suncat0279 pw.x -in pw.inp   Done                     01/01/2019 02:55:29
00048 suncat0278 pw.x -in pw.inp   Done                     01/01/2019 02:55:29
00049 suncat0278 pw.x -in pw.inp   Done                     01/01/2019 02:55:29
00050 suncat0278 pw.x -in pw.inp   Done                     01/01/2019 02:55:29
00051 suncat0278 pw.x -in pw.inp   Done                     01/01/2019 02:55:29
00052 suncat0278 pw.x -in pw.inp   Done                     01/01/2019 02:55:29
00053 suncat0278 pw.x -in pw.inp   Done                     01/01/2019 02:55:29
00054 suncat0278 pw.x -in pw.inp   Done                     01/01/2019 02:55:29
00055 suncat0278 pw.x -in pw.inp   Done                     01/01/2019 02:55:29
00056 suncat0099 pw.x -in pw.inp   Done                     01/01/2019 02:55:29
00057 suncat0099 pw.x -in pw.inp   Done                     01/01/2019 02:55:29
00058 suncat0099 pw.x -in pw.inp   Done                     01/01/2019 02:55:29
00059 suncat0099 pw.x -in pw.inp   Done                     01/01/2019 02:55:29
00060 suncat0099 pw.x -in pw.inp   Done                     01/01/2019 02:55:29
00061 suncat0099 pw.x -in pw.inp   Done                     01/01/2019 02:55:29
00062 suncat0099 pw.x -in pw.inp   Done                     01/01/2019 02:55:29
00063 suncat0099 pw.x -in pw.inp   Done                     01/01/2019 02:55:29