     Program PWSCF v.5.1rc2 (svn rev. 11289) starts on 30Dec2018 at  1:19:44

     Current dimensions of program PWSCF are:
     Max number of different atomic species (ntypx) = 10
     Max number of k-points (npk) =  40000
     Max angular momentum in pseudopotentials (lmaxx) =  3
     Presently stress not available with electric field

     IMPORTANT: XC functional enforced from input :
     Exchange-correlation      = BEEF-VDW ( 1  4 27 13 2)
     Any further DFT definition will be discarded
     Please, verify this is what you really want

     Subspace diagonalization in iterative solution of the eigenvalue problem:
     a serial algorithm will be used

     bravais-lattice index     =            0
     lattice parameter (alat)  =       1.8897  a.u.
     unit-cell volume          =    4005.8911 (a.u.)^3
     number of atoms/cell      =           12
     number of atomic types    =            2
     number of electrons       =       183.00
     number of Kohn-Sham states=          121
     kinetic-energy cutoff     =      36.7493  Ry
     charge density cutoff     =     367.4932  Ry
     convergence threshold     =      1.0E-06
     mixing beta               =       0.1000
     number of iterations used =           10  plain     mixing
     Exchange-correlation      = BEEF-VDW ( 1  4 27 13 2)
     nstep                     =           50

     celldm(1)=   1.889726  celldm(2)=   0.000000  celldm(3)=   0.000000
     celldm(4)=   0.000000  celldm(5)=   0.000000  celldm(6)=   0.000000

     crystal axes: (cart. coord. in units of alat)
               a(1) = (   5.307423   0.000000   0.000000 )
               a(2) = (  -2.653712   4.596363   0.000000 )
               a(3) = (   0.000000   0.000000  24.333493 )

     reciprocal axes: (cart. coord. in units 2 pi/alat)
               b(1) = (  0.188415  0.108782  0.000000 )
               b(2) = (  0.000000  0.217563  0.000000 )
               b(3) = (  0.000000  0.000000  0.041096 )

     PseudoPot. # 1 for Cr read from file:
     /afs/slac.stanford.edu/u/if/mamunm/psp/gbrv1.5pbe/Cr.UPF
     MD5 check sum: 0d52af634a40206e4dee301ad30da4bf
     Pseudo is Ultrasoft + core correction, Zval = 14.0
     Generated by new atomic code, or converted to UPF format
     Using radial grid of  857 points,  6 beta functions with:
                l(1) =   0
                l(2) =   0
                l(3) =   1
                l(4) =   1
                l(5) =   2
                l(6) =   2
     Q(r) pseudized with  8 coefficients,  rinner =    0.950   0.950   0.950
                                                       0.950   0.950

     PseudoPot. # 2 for Ag read from file:
     /afs/slac.stanford.edu/u/if/mamunm/psp/gbrv1.5pbe/Ag.UPF
     MD5 check sum: d66d668201baa78d5eb5b04ef7011058
     Pseudo is Ultrasoft + core correction, Zval = 19.0
     Generated by new atomic code, or converted to UPF format
     Using radial grid of  887 points,  6 beta functions with:
                l(1) =   0
                l(2) =   0
                l(3) =   1
                l(4) =   1
                l(5) =   2
                l(6) =   2
     Q(r) pseudized with  6 coefficients,  rinner =    1.300   1.300   1.300
                                                       1.300   1.300

     vdW kernel table read from file vdW_kernel_table
     MD5 check sum: 095c7af220d748ca6e76c0b4c6cfb241

     atomic species   valence    mass     pseudopotential
        Cr1           14.00    51.99610     Cr( 1.00)
        Ag1           19.00   107.86820     Ag( 1.00)

     No symmetry found

   Cartesian axes

     site n.     atom                  positions (alat units)
         1           Cr1 tau(   1) = (   0.0000000   0.0000000  10.0000000  )
         2           Cr1 tau(   2) = (  -1.3268558   2.2981817  10.0000000  )
         3           Cr1 tau(   3) = (   1.3268558   2.2981817  10.0000000  )
         4           Ag1 tau(   4) = (   2.6537116   0.0000000  10.0000000  )
         5           Cr1 tau(   5) = (   2.6537116   1.5321211  12.1667465  )
         6           Cr1 tau(   6) = (   1.3268558   3.8303028  12.1667465  )
         7           Cr1 tau(   7) = (  -1.3268558   3.8303028  12.1667465  )
         8           Ag1 tau(   8) = (   0.0000000   1.5321211  12.1667465  )
         9           Cr1 tau(   9) = (  -0.0000000   3.0642423  14.3334930  )
        10           Cr1 tau(  10) = (   1.3268558   0.7660606  14.3334930  )
        11           Cr1 tau(  11) = (   3.9805675   0.7660606  14.3334930  )
        12           Ag1 tau(  12) = (   2.6537116   3.0642423  14.3334930  )

     number of k points=    20  Fermi-Dirac smearing, width (Ry)=  0.0110
                       cart. coord. in units 2pi/alat
        k(    1) = (   0.0000000   0.0000000   0.0000000), wk =   0.0555556
        k(    2) = (   0.0000000   0.0362606   0.0000000), wk =   0.1111111
        k(    3) = (   0.0000000   0.0725211   0.0000000), wk =   0.1111111
        k(    4) = (   0.0000000  -0.1087817   0.0000000), wk =   0.0555556
        k(    5) = (   0.0314026   0.0181303   0.0000000), wk =   0.1111111
        k(    6) = (   0.0314026   0.0543908   0.0000000), wk =   0.1111111
        k(    7) = (   0.0314026   0.0906514   0.0000000), wk =   0.1111111
        k(    8) = (   0.0314026  -0.0906514   0.0000000), wk =   0.1111111
        k(    9) = (   0.0314026  -0.0543908   0.0000000), wk =   0.1111111
        k(   10) = (   0.0314026  -0.0181303   0.0000000), wk =   0.1111111
        k(   11) = (   0.0628051   0.0362606   0.0000000), wk =   0.1111111
        k(   12) = (   0.0628051   0.0725211   0.0000000), wk =   0.1111111
        k(   13) = (   0.0628051   0.1087817   0.0000000), wk =   0.1111111
        k(   14) = (   0.0628051  -0.0725211   0.0000000), wk =   0.1111111
        k(   15) = (   0.0628051  -0.0362606   0.0000000), wk =   0.1111111
        k(   16) = (   0.0628051   0.0000000   0.0000000), wk =   0.1111111
        k(   17) = (  -0.0942077  -0.0543908   0.0000000), wk =   0.0555556
        k(   18) = (  -0.0942077  -0.0181303   0.0000000), wk =   0.1111111
        k(   19) = (  -0.0942077   0.0181303   0.0000000), wk =   0.1111111
        k(   20) = (  -0.0942077  -0.1631725   0.0000000), wk =   0.0555556

     Largest allocated arrays     est. size (Mb)     dimensions
     Largest temporary arrays     est. size (Mb)     dimensions

     Check: negative/imaginary core charge=   -0.000004    0.000000

     Initial potential from superposition of free atoms
     Check: negative starting charge=   -0.010494

     starting charge  172.49972, renormalised to  183.00000

     negative rho (up, down):  1.113E-02 0.000E+00

     *
     * You are using vdW-DF for exchange-correlation in this calculation.
     * Please cite the following three references that made this development
     * possible:
     *
     *   M. Dion, H. Rydberg, E. Schroder, D. C. Langreth, and
     *   B. I. Lundqvist, Phys. Rev. Lett. 92, 246401 (2004).
     *
     *   T. Thonhauser, V. R. Cooper, S. Li, A. Puzder, P. Hyldgaard, and
     *   D. C. Langreth, Phys. Rev. B 76, 125112 (2007).
     *
     *   G. Roman-Perez and J. M. Soler, Phys. Rev. Lett. 103, 096102 (2009).
     *
     *
     * If you are using vdW-DF2, please also cite:
     *
     *   K. Lee, E. D. Murray, L. Kong, B. I. Lundqvist, and
     *   D. C. Langreth, Phys. Rev. B 82, 081101(R) (2010).
     *
     *
     * If you are calculating the stress with vdW-DF, please also cite:
     *
     *   R. Sabatini, E. Kucukbenli, B. Kolb, T. Thonhauser, and
     *   S. de Gironcoli, J. Phys.: Condens. Matter 24, 424209 (2012).
     *

     Carrying out vdW-DF run using the following parameters:

     Nqs =      20    Nr_points =    1024   r_max =   100.000
     q_mesh =
               0.00001000     0.04494208     0.09755937     0.15916263
               0.23128650     0.31572767     0.41458969     0.53033537
               0.66584808     0.82450364     1.01025438     1.22772762
               1.48234092     1.78043706     2.12944203     2.53805004
               3.01644009     3.57652955     4.23227104     5.00000000

     Gradients computed in reciprocal space

     Adding external electric field

     Computed dipole along edir(3) :
        Dipole                0.0000 Ry au,          0.0000 Debye
        Dipole field          0.0000 Ry au

        Potential amp.       -0.0000 Ry
        Total length         44.8340 bohr

     Starting wfc are  129 randomized atomic wfcs

     Self-consistent Calculation

     iteration #  1     ecut=    36.75 Ry     beta=0.10
     Davidson diagonalization with overlap
     ethr =  1.00E-02,  avg # of iterations =  7.3

[...]

     total energy              =   -2470.23354469 Ry
     Harris-Foulkes estimate   =   -2488.36169108 Ry
     estimated scf accuracy    <     102.23854387 Ry

[...]

     End of self-consistent calculation

          k = 0.0000 0.0000 0.0000 ( 15161 PWs)   bands (ev):

   -91.7836 -91.5107 -91.5107 -70.4788 -70.4186 -70.4185 -70.3615 -70.3555
   -70.3062 -70.3061 -70.3047 -70.3046 -55.2627 -55.2627 -55.2457 -55.0137
   -55.0137 -55.0135 -55.0135 -54.9205 -54.9196 -41.9971 -41.8887 -41.8797
   -41.8796 -41.8196 -41.8195 -41.7974 -41.7946 -41.7257 -41.7257 -41.7216
   -41.6851 -41.6850 -41.6809 -41.6808 -41.6544 -41.5911 -41.5911 -41.5779
   -41.5522 -41.5521 -41.5368 -41.5178 -41.3917 -41.3916 -41.3894 -41.3893
    -5.8350  -4.8883  -4.8883  -4.7523  -4.7383  -4.7383  -4.5899  -4.3927
    -4.3927  -4.3396  -4.3396  -4.2438  -3.8786  -3.8786  -3.7009  -3.7009
    -3.2082  -2.6120  -2.0394  -1.4113  -1.0551  -0.4526  -0.3990  -0.2453
    -0.2453  -0.0464  -0.0464   0.1445   0.1446   0.4128   0.4128   0.5086
     0.5243   0.5243   0.6419   0.6419   0.7595   1.0210   1.0765   1.0765
     1.2597   1.5600   1.5601   1.6598   1.7112   1.9763   2.3029   2.3029
     2.3530   2.3531   2.4426   2.4426   2.6174   2.6174   2.6206   2.6207
     2.7150   2.7150   2.8227   2.8227   2.8269   2.9121   3.0205   3.0205
     3.3198   3.4914   3.5333   4.4948   4.5887   4.7659   4.7660   4.8199
     4.8200

[...]

          k =-0.0942-0.0544 0.0000 ( 15094 PWs)   bands (ev):

[...]

     the Fermi energy is     1.2900 ev

!    total energy              =   -2475.70514343 Ry
     Harris-Foulkes estimate   =   -2475.70514862 Ry
     estimated scf accuracy    <       0.00000074 Ry

     The total energy is the sum of the following terms:

     one-electron contribution =  -21384.75754264 Ry
     hartree contribution      =   10681.72858289 Ry
     xc contribution           =    -299.23663767 Ry
     ewald contribution        =    8526.68316189 Ry
     electric field correction =       0.00000000 Ry
     smearing contrib. (-TS)   =      -0.12270790 Ry

     convergence has been achieved in  27 iterations

 BEEF-vdW xc energy contributions
           1 :   -259.234715213752
           2 :    233.981460052205
           3 :   -191.728621040682
           4 :    145.101008943167
           5 :   -105.650554361737
           6 :    79.6394197025612
           7 :   -66.8630156418540
           8 :    62.5268383951566
           9 :   -60.6890441391054
          10 :    57.2808272660643
          11 :   -51.3546361241960
[...]
                l(1) =   0
                l(2) =   0
                l(3) =   1
                l(4) =   1
                l(5) =   2
                l(6) =   2
     Q(r) pseudized with  8 coefficients,  rinner =    0.950   0.950   0.950
                                                       0.950   0.950

     PseudoPot. # 2 for Ag read from file:
     /afs/slac.stanford.edu/u/if/mamunm/psp/gbrv1.5pbe/Ag.UPF
     MD5 check sum: d66d668201baa78d5eb5b04ef7011058
     Pseudo is Ultrasoft + core correction, Zval = 19.0
     Generated by new atomic code, or converted to UPF format
     Using radial grid of  887 points,  6 beta functions with:
                l(1) =   0
                l(2) =   0
                l(3) =   1
                l(4) =   1
                l(5) =   2
                l(6) =   2
     Q(r) pseudized with  6 coefficients,  rinner =    1.300   1.300   1.300
                                                       1.300   1.300

     vdW kernel table read from file vdW_kernel_table
     MD5 check sum: 095c7af220d748ca6e76c0b4c6cfb241

     atomic species   valence    mass     pseudopotential
        Cr1           14.00    51.99610     Cr( 1.00)
        Ag1           19.00   107.86820     Ag( 1.00)

     No symmetry found

   Cartesian axes

     site n.     atom                  positions (alat units)
         1           Cr1 tau(   1) = (   0.0000000   0.0000000  10.0000000  )
         2           Cr1 tau(   2) = (  -1.3268558   2.2981817  10.0000000  )
         3           Cr1 tau(   3) = (   1.3268558   2.2981817  10.0000000  )
         4           Ag1 tau(   4) = (   2.6537116   0.0000000  10.0000000  )
         5           Cr1 tau(   5) = (   2.6537116   1.5321211  12.1667465  )
         6           Cr1 tau(   6) = (   1.3268558   3.8303028  12.1667465  )
         7           Cr1 tau(   7) = (  -1.3268558   3.8303028  12.1667465  )
         8           Ag1 tau(   8) = (   0.0000000   1.5321211  12.1667465  )
         9           Cr1 tau(   9) = (  -0.0000705   3.3034021  14.1697856  )
        10           Cr1 tau(  10) = (   1.5339161   0.6464280  14.1697835  )
        11           Cr1 tau(  11) = (   3.7733799   0.6464372  14.1697302  )
        12           Ag1 tau(  12) = (   2.6536725   3.0642131  14.7196566  )

     number of k points=    20  Fermi-Dirac smearing, width (Ry)=  0.0110
                       cart. coord. in units 2pi/alat
        k(    1) = (   0.0000000   0.0000000   0.0000000), wk =   0.0555556
        k(    2) = (   0.0000000   0.0362606   0.0000000), wk =   0.1111111
        k(    3) = (   0.0000000   0.0725211   0.0000000), wk =   0.1111111
        k(    4) = (   0.0000000  -0.1087817   0.0000000), wk =   0.0555556
        k(    5) = (   0.0314026   0.0181303   0.0000000), wk =   0.1111111
        k(    6) = (   0.0314026   0.0543908   0.0000000), wk =   0.1111111
        k(    7) = (   0.0314026   0.0906514   0.0000000), wk =   0.1111111
        k(    8) = (   0.0314026  -0.0906514   0.0000000), wk =   0.1111111
        k(    9) = (   0.0314026  -0.0543908   0.0000000), wk =   0.1111111
        k(   10) = (   0.0314026  -0.0181303   0.0000000), wk =   0.1111111
        k(   11) = (   0.0628051   0.0362606   0.0000000), wk =   0.1111111
        k(   12) = (   0.0628051   0.0725211   0.0000000), wk =   0.1111111
        k(   13) = (   0.0628051   0.1087817   0.0000000), wk =   0.1111111
        k(   14) = (   0.0628051  -0.0725211   0.0000000), wk =   0.1111111
        k(   15) = (   0.0628051  -0.0362606   0.0000000), wk =   0.1111111
        k(   16) = (   0.0628051   0.0000000   0.0000000), wk =   0.1111111
        k(   17) = (  -0.0942077  -0.0543908   0.0000000), wk =   0.0555556
        k(   18) = (  -0.0942077  -0.0181303   0.0000000), wk =   0.1111111
        k(   19) = (  -0.0942077   0.0181303   0.0000000), wk =   0.1111111
        k(   20) = (  -0.0942077  -0.1631725   0.0000000), wk =   0.0555556

     Largest allocated arrays     est. size (Mb)     dimensions
     Largest temporary arrays     est. size (Mb)     dimensions

     Check: negative/imaginary core charge=   -0.000004    0.000000

     Initial potential from superposition of free atoms
     Check: negative starting charge=   -0.011687

     starting charge  172.49972, renormalised to  183.00000

[...]

     *
     * You are using vdW-DF for exchange-correlation in this calculation.
     * Please cite the following three references that made this development
     * possible:
     *
     *   M. Dion, H. Rydberg, E. Schroder, D. C. Langreth, and
     *   B. I. Lundqvist, Phys. Rev. Lett. 92, 246401 (2004).
     *
     *   T. Thonhauser, V. R. Cooper, S. Li, A. Puzder, P. Hyldgaard, and
     *   D. C. Langreth, Phys. Rev. B 76, 125112 (2007).
     *
     *   G. Roman-Perez and J. M. Soler, Phys. Rev. Lett. 103, 096102 (2009).
     *
     *
     * If you are using vdW-DF2, please also cite:
     *
     *   K. Lee, E. D. Murray, L. Kong, B. I. Lundqvist, and
     *   D. C. Langreth, Phys. Rev. B 82, 081101(R) (2010).
     *
     *
     * If you are calculating the stress with vdW-DF, please also cite:
     *
     *   R. Sabatini, E. Kucukbenli, B. Kolb, T. Thonhauser, and
     *   S. de Gironcoli, J. Phys.: Condens. Matter 24, 424209 (2012).
     *

     Carrying out vdW-DF run using the following parameters:

     Nqs =      20    Nr_points =    1024   r_max =   100.000
     q_mesh =
               0.00001000     0.04494208     0.09755937     0.15916263
               0.23128650     0.31572767     0.41458969     0.53033537
               0.66584808     0.82450364     1.01025438     1.22772762
               1.48234092     1.78043706     2.12944203     2.53805004
               3.01644009     3.57652955     4.23227104     5.00000000

     Gradients computed in reciprocal space

[...]

     Starting wfc are  129 randomized atomic wfcs

     Self-consistent Calculation

[...]

     iteration # 17     ecut=    36.75 Ry     beta=0.10
     Davidson diagonalization with overlap
     c_bands:  1 eigenvalues not converged
     ethr =  1.95E-06,  avg # of iterations =  3.4

[...]

     total energy              =   -2475.77268149 Ry
     Harris-Foulkes estimate   =   -2475.77268194 Ry
     estimated scf accuracy    <       0.00000109 Ry

     iteration # 27     ecut=    36.75 Ry     beta=0.10
     Davidson diagonalization with overlap
     ethr =  5.95E-10,  avg # of iterations =  1.3

[...]

     negative rho (up, down):  1.081E-02 0.000E+00

     Adding external electric field

     Computed dipole along edir(3) :
        Dipole               -0.0258 Ry au,         -0.0656 Debye
        Dipole field         -0.0001 Ry au

        Potential amp.        0.0073 Ry
        Total length         44.8340 bohr

     End of self-consistent calculation

[...]

          k = 0.0628 0.0000 0.0000 ( 15076 PWs)   bands (ev):

[...]

          k =-0.0942-0.1632 0.0000 ( 15094 PWs)   bands (ev):

   -91.7906 -91.5639 -91.0050 -70.4876 -70.4550 -70.4284 -70.3944 -70.3856
   -70.3747 -70.3599 -70.2252 -70.2211 -55.2740 -55.2732 -55.2472 -55.0667
   -55.0659 -54.9735 -54.5333 -54.5328 -54.3849 -42.2166 -41.9968 -41.9485
   -41.9476 -41.9077 -41.8312 -41.8080 -41.7987 -41.7885 -41.7851 -41.7755
   -41.7285 -41.7274 -41.6817 -41.6810 -41.6686 -41.6270 -41.6153 -41.5965
   -41.5732 -41.5106 -41.5001 -41.4950 -41.4633 -41.3439 -41.2481 -41.2155
    -4.7950  -4.5538  -4.5416  -4.4543  -4.4092  -4.3272  -4.2100  -4.0967
    -4.0561  -3.8638  -3.8572  -3.7431  -3.5274  -3.4591  -3.3096  -3.2843
    -3.1075  -2.2143  -1.9749  -1.8834  -1.4934  -1.1544  -1.0691  -0.7048
    -0.6640  -0.4983  -0.3999  -0.3201  -0.0615  -0.0394   0.0622   0.1741
     0.2314   0.2318   0.4067   0.4112   0.4612   0.5201   0.7803   0.8076
     0.8302   0.8606   1.0254   1.1722   1.2839   1.3218   1.3932   1.4033
     1.7385   1.7809   1.8767   2.1112   2.1406   2.1668   2.2021   2.2772
     2.3944   2.4135   2.5157   2.6609   2.7737   2.9105   3.1303   3.4179
     3.4292   3.7138   3.8292   4.7714   4.7797   5.1218   5.2022   5.6467
     6.6403

     the Fermi energy is     1.2348 ev

!    total energy              =   -2475.77267946 Ry
     Harris-Foulkes estimate   =   -2475.77268179 Ry
     estimated scf accuracy    <       0.00000052 Ry

     The total energy is the sum of the following terms:

     one-electron contribution =  -21354.52175830 Ry
     hartree contribution      =   10666.79925254 Ry
     xc contribution           =    -299.55399677 Ry
     ewald contribution        =    8511.61304584 Ry
     electric field correction =       0.00000209 Ry
     smearing contrib. (-TS)   =      -0.10922485 Ry

     convergence has been achieved in  27 iterations

 BEEF-vdW xc energy contributions
           1 :   -259.546911563355
           2 :    234.308196761147
           3 :   -192.050143255611
           4 :    145.345879593488
           5 :   -105.715071166898
           6 :    79.4411920544196
           7 :   -66.3985800158426
           8 :    61.8952820121939
           9 :   -60.0604112746673
          10 :    56.8167143902650
          11 :   -51.1183229435721
          12 :    44.3102447457984
          13 :   -38.4662403243554
          14 :    34.8623216229523
          15 :   -33.3728982254200
          16 :    32.8683769363200
          17 :   -32.1193524157560
          18 :    30.5395996333603
          19 :   -28.3565954356487
          20 :    26.2345293324425
          21 :   -24.7139966804255
          22 :    23.8703647305780
          23 :   -23.3665813964201
          24 :    22.7731898785775
          25 :   -21.8783310532366
          26 :    20.7767111132852
          27 :   -19.7280840552002
          28 :    18.9362471010333
          29 :   -18.4200793709941
          30 :    18.0415194970996
          31 :   -25.6634968097434
          32 :   -18.5492561035929

     Forces acting on atoms (Ry/au):

     negative rho (up, down):  1.081E-02 0.000E+00
     atom    1 type  1   force =    -0.00000003   -0.02032902    0.02761911
     atom    2 type  1   force =    -0.01760398    0.01016456    0.02762563
     atom    3 type  1   force =     0.01760211    0.01016290    0.02762878
     atom    4 type  2   force =     0.00000202    0.00000294   -0.04918690
     atom    5 type  1   force =    -0.00000070    0.02256025   -0.01019617
     atom    6 type  1   force =     0.01953867   -0.01128033   -0.01019963
     atom    7 type  1   force =    -0.01953714   -0.01127862   -0.01020097
     atom    8 type  2   force =     0.00000240    0.00001615   -0.00279668
     atom    9 type  1   force =     0.00000530    0.00125808   -0.00049984
     atom   10 type  1   force =     0.00110558   -0.00063114   -0.00050709
     atom   11 type  1   force =    -0.00110613   -0.00063825   -0.00050369
     atom   12 type  2   force =    -0.00000810   -0.00000752    0.00121744

     Total force =     0.088330     Total SCF correction =     0.003294

     entering subroutine stress ...

     negative rho (up, down):  1.081E-02 0.000E+00
          total   stress  (Ry/bohr**3)                   (kbar)     P=   -8.22
  -0.00005997  -0.00000001   0.00000000         -8.82     -0.00      0.00
  -0.00000001  -0.00005993  -0.00000001         -0.00     -8.82     -0.00
   0.00000000  -0.00000001  -0.00004782          0.00     -0.00     -7.03

 !ASE

     Writing output data file calc.save

     General routines

     Parallel routines

   This run was terminated on:   3:57:15  30Dec2018

   JOB DONE.
Job  /afs/slac/g/suncat/bin/suncat-tsmpirun -x LD_LIBRARY_PATH -wdir /scratch/qe648401_CRya7 pw.x -in pw.inp

TID   HOST_NAME   COMMAND_LINE            STATUS            TERMINATION_TIME
00000 suncat0024 pw.x -in pw.inp   Done                     12/30/2018 03:57:15
00001 suncat0024 pw.x -in pw.inp   Done                     12/30/2018 03:57:15
00002 suncat0024 pw.x -in pw.inp   Done                     12/30/2018 03:57:15
00003 suncat0024 pw.x -in pw.inp   Done                     12/30/2018 03:57:15
00004 suncat0024 pw.x -in pw.inp   Done                     12/30/2018 03:57:15
00005 suncat0024 pw.x -in pw.inp   Done                     12/30/2018 03:57:15
00006 suncat0024 pw.x -in pw.inp   Done                     12/30/2018 03:57:15
00007 suncat0024 pw.x -in pw.inp   Done                     12/30/2018 03:57:15
00008 suncat0023 pw.x -in pw.inp   Done                     12/30/2018 03:57:15
00009 suncat0023 pw.x -in pw.inp   Done                     12/30/2018 03:57:15
00010 suncat0023 pw.x -in pw.inp   Done                     12/30/2018 03:57:15
00011 suncat0023 pw.x -in pw.inp   Done                     12/30/2018 03:57:15
00012 suncat0023 pw.x -in pw.inp   Done                     12/30/2018 03:57:15
00013 suncat0023 pw.x -in pw.inp   Done                     12/30/2018 03:57:15
00014 suncat0023 pw.x -in pw.inp   Done                     12/30/2018 03:57:15
00015 suncat0023 pw.x -in pw.inp   Done                     12/30/2018 03:57:15
00016 suncat0190 pw.x -in pw.inp   Done                     12/30/2018 03:57:15
00017 suncat0190 pw.x -in pw.inp   Done                     12/30/2018 03:57:15
00018 suncat0190 pw.x -in pw.inp   Done                     12/30/2018 03:57:15
00019 suncat0190 pw.x -in pw.inp   Done                     12/30/2018 03:57:15
00020 suncat0190 pw.x -in pw.inp   Done                     12/30/2018 03:57:15
00021 suncat0190 pw.x -in pw.inp   Done                     12/30/2018 03:57:15
00022 suncat0190 pw.x -in pw.inp   Done                     12/30/2018 03:57:15
00023 suncat0190 pw.x -in pw.inp   Done                     12/30/2018 03:57:15
00024 suncat0009 pw.x -in pw.inp   Done                     12/30/2018 03:57:15
00025 suncat0009 pw.x -in pw.inp   Done                     12/30/2018 03:57:15
00026 suncat0009 pw.x -in pw.inp   Done                     12/30/2018 03:57:15
00027 suncat0009 pw.x -in pw.inp   Done                     12/30/2018 03:57:15
00028 suncat0009 pw.x -in pw.inp   Done                     12/30/2018 03:57:15
00029 suncat0009 pw.x -in pw.inp   Done                     12/30/2018 03:57:15
00030 suncat0009 pw.x -in pw.inp   Done                     12/30/2018 03:57:15
00031 suncat0009 pw.x -in pw.inp   Done                     12/30/2018 03:57:15
00032 suncat0185 pw.x -in pw.inp   Done                     12/30/2018 03:57:15
00033 suncat0185 pw.x -in pw.inp   Done                     12/30/2018 03:57:15
00034 suncat0185 pw.x -in pw.inp   Done                     12/30/2018 03:57:15
00035 suncat0185 pw.x -in pw.inp   Done                     12/30/2018 03:57:15
00036 suncat0185 pw.x -in pw.inp   Done                     12/30/2018 03:57:15
00037 suncat0185 pw.x -in pw.inp   Done                     12/30/2018 03:57:15
00038 suncat0185 pw.x -in pw.inp   Done                     12/30/2018 03:57:15
00039 suncat0185 pw.x -in pw.inp   Done                     12/30/2018 03:57:15
00040 suncat0183 pw.x -in pw.inp   Done                     12/30/2018 03:57:15
00041 suncat0183 pw.x -in pw.inp   Done                     12/30/2018 03:57:15
00042 suncat0183 pw.x -in pw.inp   Done                     12/30/2018 03:57:15
00043 suncat0183 pw.x -in pw.inp   Done                     12/30/2018 03:57:15
00044 suncat0183 pw.x -in pw.inp   Done                     12/30/2018 03:57:15
00045 suncat0183 pw.x -in pw.inp   Done                     12/30/2018 03:57:15
00046 suncat0183 pw.x -in pw.inp   Done                     12/30/2018 03:57:15
00047 suncat0183 pw.x -in pw.inp   Done                     12/30/2018 03:57:15
00048 suncat0182 pw.x -in pw.inp   Done                     12/30/2018 03:57:15
00049 suncat0182 pw.x -in pw.inp   Done                     12/30/2018 03:57:15
00050 suncat0182 pw.x -in pw.inp   Done                     12/30/2018 03:57:15
00051 suncat0182 pw.x -in pw.inp   Done                     12/30/2018 03:57:15
00052 suncat0182 pw.x -in pw.inp   Done                     12/30/2018 03:57:15
00053 suncat0182 pw.x -in pw.inp   Done                     12/30/2018 03:57:15
00054 suncat0182 pw.x -in pw.inp   Done                     12/30/2018 03:57:15
00055 suncat0182 pw.x -in pw.inp   Done                     12/30/2018 03:57:15
00056 suncat0181 pw.x -in pw.inp   Done                     12/30/2018 03:57:15
00057 suncat0181 pw.x -in pw.inp   Done                     12/30/2018 03:57:15
00058 suncat0181 pw.x -in pw.inp   Done                     12/30/2018 03:57:15
00059 suncat0181 pw.x -in pw.inp   Done                     12/30/2018 03:57:15
00060 suncat0181 pw.x -in pw.inp   Done                     12/30/2018 03:57:15
00061 suncat0181 pw.x -in pw.inp   Done                     12/30/2018 03:57:15
00062 suncat0181 pw.x -in pw.inp   Done                     12/30/2018 03:57:15
00063 suncat0181 pw.x -in pw.inp   Done                     12/30/2018 03:57:15