     Program PWSCF v.5.1rc2 (svn rev. 11289) starts on 25Dec2018 at 20:42:29

     Current dimensions of program PWSCF are:
     Max number of different atomic species (ntypx) = 10
     Max number of k-points (npk) =  40000
     Max angular momentum in pseudopotentials (lmaxx) =  3
     Presently stress not available with electric field

     IMPORTANT: XC functional enforced from input :
     Exchange-correlation      = BEEF-VDW ( 1  4 27 13 2)
     Any further DFT definition will be discarded
     Please, verify this is what you really want

     Subspace diagonalization in iterative solution of the eigenvalue problem:
     a serial algorithm will be used

     Generating pointlists ...
     new r_m :   0.4125 (alat units)  0.7795 (a.u.) for type    1
     new r_m :   0.4125 (alat units)  0.7795 (a.u.) for type    2

     bravais-lattice index     =            0
     lattice parameter (alat)  =       1.8897  a.u.
     unit-cell volume          =    3925.7373 (a.u.)^3
     number of atoms/cell      =           12
     number of atomic types    =            2
     number of electrons       =       192.00
     number of Kohn-Sham states=          126
     kinetic-energy cutoff     =      36.7493  Ry
     charge density cutoff     =     367.4932  Ry
     convergence threshold     =      1.0E-06
     mixing beta               =       0.1000
     number of iterations used =           10  plain     mixing
     Exchange-correlation      = BEEF-VDW ( 1  4 27 13 2)
     nstep                     =           50

     celldm(1)=   1.889726  celldm(2)=   0.000000  celldm(3)=   0.000000
     celldm(4)=   0.000000  celldm(5)=   0.000000  celldm(6)=   0.000000

     crystal axes: (cart. coord. in units of alat)
               a(1) = (   5.258385   0.000000   0.000000 )
               a(2) = (  -2.629192   4.553895   0.000000 )
               a(3) = (   0.000000   0.000000  24.293453 )

     reciprocal axes: (cart. coord. in units 2 pi/alat)
               b(1) = (  0.190172  0.109796  0.000000 )
               b(2) = (  0.000000  0.219592  0.000000 )
               b(3) = (  0.000000  0.000000  0.041163 )

     PseudoPot. # 1 for Fe read from file:
     /afs/slac.stanford.edu/u/if/mamunm/psp/gbrv1.5pbe/Fe.UPF
     MD5 check sum: a130daea23fe5165f5d574ae7f82ed95
     Pseudo is Ultrasoft + core correction, Zval = 16.0
     Generated by new atomic code, or converted to UPF format
     Using radial grid of  861 points,  6 beta functions with:
                l(1) =   0
                l(2) =   0
                l(3) =   1
                l(4) =   1
                l(5) =   2
                l(6) =   2
     Q(r) pseudized with  8 coefficients,  rinner =    1.000   1.000   1.000
                                                       1.000   1.000

     PseudoPot. # 2 for Pt read from file:
     /afs/slac.stanford.edu/u/if/mamunm/psp/gbrv1.5pbe/Pt.UPF
     MD5 check sum: f09d6de1a584b5a045c4fc126da2d0c4
     Pseudo is Ultrasoft + core correction, Zval = 16.0
     Generated by new atomic code, or converted to UPF format
     Using radial grid of  985 points,  6 beta functions with:
                l(1) =   0
                l(2) =   0
                l(3) =   1
                l(4) =   1
                l(5) =   2
                l(6) =   2
     Q(r) pseudized with  8 coefficients,  rinner =    1.300   1.300   1.300
                                                       1.300   1.300

     vdW kernel table read from file vdW_kernel_table
     MD5 check sum: 095c7af220d748ca6e76c0b4c6cfb241

     atomic species   valence    mass     pseudopotential
        Fe1           16.00    55.84500     Fe( 1.00)
        Pt1           16.00   195.08400     Pt( 1.00)

     Starting magnetic structure
     atomic species   magnetization
        Fe1          0.125
        Pt1          0.125

     No symmetry found

   Cartesian axes

     site n.     atom                  positions (alat units)
         1           Fe1 tau(   1) = (   0.0000000   0.0000000  10.0000000  )
         2           Fe1 tau(   2) = (  -1.3145962   2.2769475  10.0000000  )
         3           Fe1 tau(   3) = (   1.3145962   2.2769475  10.0000000  )
         4           Pt1 tau(   4) = (   2.6291925   0.0000000  10.0000000  )
         5           Fe1 tau(   5) = (   2.6291925   1.5179650  12.1467267  )
         6           Fe1 tau(   6) = (   1.3145962   3.7949125  12.1467267  )
         7           Fe1 tau(   7) = (  -1.3145962   3.7949125  12.1467267  )
         8           Pt1 tau(   8) = (   0.0000000   1.5179650  12.1467267  )
         9           Fe1 tau(   9) = (  -0.0000000   3.0359300  14.2934533  )
        10           Fe1 tau(  10) = (   1.3145962   0.7589825  14.2934533  )
        11           Fe1 tau(  11) = (   3.9437887   0.7589825  14.2934533  )
        12           Pt1 tau(  12) = (   2.6291925   3.0359300  14.2934533  )

     number of k points=    40  Fermi-Dirac smearing, width (Ry)=  0.0110
                       cart. coord. in units 2pi/alat
        k(    1) = (   0.0000000   0.0000000   0.0000000), wk =   0.0277778
        k(    2) = (   0.0000000   0.0365987   0.0000000), wk =   0.0555556
        k(    3) = (   0.0000000   0.0731974   0.0000000), wk =   0.0555556
        k(    4) = (   0.0000000  -0.1097961   0.0000000), wk =   0.0277778
        k(    5) = (   0.0316954   0.0182994   0.0000000), wk =   0.0555556
        k(    6) = (   0.0316954   0.0548981   0.0000000), wk =   0.0555556
        k(    7) = (   0.0316954   0.0914968   0.0000000), wk =   0.0555556
        k(    8) = (   0.0316954  -0.0914968   0.0000000), wk =   0.0555556
        k(    9) = (   0.0316954  -0.0548981   0.0000000), wk =   0.0555556
        k(   10) = (   0.0316954  -0.0182994   0.0000000), wk =   0.0555556
        k(   11) = (   0.0633908   0.0365987   0.0000000), wk =   0.0555556
        k(   12) = (   0.0633908   0.0731974   0.0000000), wk =   0.0555556
        k(   13) = (   0.0633908   0.1097961   0.0000000), wk =   0.0555556
        k(   14) = (   0.0633908  -0.0731974   0.0000000), wk =   0.0555556
        k(   15) = (   0.0633908  -0.0365987   0.0000000), wk =   0.0555556
        k(   16) = (   0.0633908   0.0000000   0.0000000), wk =   0.0555556
        k(   17) = (  -0.0950862  -0.0548981   0.0000000), wk =   0.0277778
        k(   18) = (  -0.0950862  -0.0182994   0.0000000), wk =   0.0555556
        k(   19) = (  -0.0950862   0.0182994   0.0000000), wk =   0.0555556
        k(   20) = (  -0.0950862  -0.1646942   0.0000000), wk =   0.0277778
        k(   21) = (   0.0000000   0.0000000   0.0000000), wk =   0.0277778
        k(   22) = (   0.0000000   0.0365987   0.0000000), wk =   0.0555556
        k(   23) = (   0.0000000   0.0731974   0.0000000), wk =   0.0555556
        k(   24) = (   0.0000000  -0.1097961   0.0000000), wk =   0.0277778
        k(   25) = (   0.0316954   0.0182994   0.0000000), wk =   0.0555556
        k(   26) = (   0.0316954   0.0548981   0.0000000), wk =   0.0555556
        k(   27) = (   0.0316954   0.0914968   0.0000000), wk =   0.0555556
        k(   28) = (   0.0316954  -0.0914968   0.0000000), wk =   0.0555556
        k(   29) = (   0.0316954  -0.0548981   0.0000000), wk =   0.0555556
        k(   30) = (   0.0316954  -0.0182994   0.0000000), wk =   0.0555556
        k(   31) = (   0.0633908   0.0365987   0.0000000), wk =   0.0555556
        k(   32) = (   0.0633908   0.0731974   0.0000000), wk =   0.0555556
        k(   33) = (   0.0633908   0.1097961   0.0000000), wk =   0.0555556
        k(   34) = (   0.0633908  -0.0731974   0.0000000), wk =   0.0555556
        k(   35) = (   0.0633908  -0.0365987   0.0000000), wk =   0.0555556
        k(   36) = (   0.0633908   0.0000000   0.0000000), wk =   0.0555556
        k(   37) = (  -0.0950862  -0.0548981   0.0000000), wk =   0.0277778
        k(   38) = (  -0.0950862  -0.0182994   0.0000000), wk =   0.0555556
        k(   39) = (  -0.0950862   0.0182994   0.0000000), wk =   0.0555556
        k(   40) = (  -0.0950862  -0.1646942   0.0000000), wk =   0.0277778

     Largest allocated arrays     est. size (Mb)     dimensions
     Largest temporary arrays     est. size (Mb)     dimensions

     Check: negative/imaginary core charge=   -0.000006    0.000000

     Initial potential from superposition of free atoms
     Check: negative starting charge=(component1):   -0.309850
     Check: negative starting charge=(component2):   -0.240994

     starting charge  181.49991, renormalised to  192.00000

     negative rho (up, down):  3.278E-01 2.549E-01

     *
     * You are using vdW-DF for exchange-correlation in this calculation.
     * Please cite the following three references that made this development
     * possible:
     *
     *   M. Dion, H. Rydberg, E. Schroder, D. C. Langreth, and
     *   B. I. Lundqvist, Phys. Rev. Lett. 92, 246401 (2004).
     *
     *   T. Thonhauser, V. R. Cooper, S. Li, A. Puzder, P. Hyldgaard, and
     *   D. C. Langreth, Phys. Rev. B 76, 125112 (2007).
     *
     *   G. Roman-Perez and J. M. Soler, Phys. Rev. Lett. 103, 096102 (2009).
     *
     *
     * If you are using vdW-DF2, please also cite:
     *
     *   K. Lee, E. D. Murray, L. Kong, B. I. Lundqvist, and
     *   D. C. Langreth, Phys. Rev. B 82, 081101(R) (2010).
     *
     *
     * If you are calculating the stress with vdW-DF, please also cite:
     *
     *   R. Sabatini, E. Kucukbenli, B. Kolb, T. Thonhauser, and
     *   S. de Gironcoli, J. Phys.: Condens. Matter 24, 424209 (2012).
     *

     Carrying out vdW-DF run using the following parameters:

     Nqs =      20    Nr_points =    1024   r_max =   100.000
     q_mesh =
               0.00001000     0.04494208     0.09755937     0.15916263
               0.23128650     0.31572767     0.41458969     0.53033537
               0.66584808     0.82450364     1.01025438     1.22772762
               1.48234092     1.78043706     2.12944203     2.53805004
               3.01644009     3.57652955     4.23227104     5.00000000

     Gradients computed in reciprocal space

     Adding external electric field

     Computed dipole along edir(3) :
        Dipole                0.0000 Ry au,          0.0000 Debye
        Dipole field          0.0000 Ry au

        Potential amp.       -0.0000 Ry
        Total length         44.7603 bohr

[...]

     Starting wfc are  153 randomized atomic wfcs

     Self-consistent Calculation

     iteration #  1     ecut=    36.75 Ry     beta=0.10
     Davidson diagonalization with overlap
     ethr =  1.00E-02,  avg # of iterations =  7.8

[...]

     Magnetic moment per site:
     atom:    1    charge:    7.3219    magn:    0.8837    constr:    0.0000
     atom:    2    charge:    7.3219    magn:    0.8837    constr:    0.0000
     atom:    3    charge:    7.3219    magn:    0.8837    constr:    0.0000
     atom:    4    charge:    2.1289    magn:    0.2475    constr:    0.0000
     atom:    5    charge:    7.3149    magn:    0.8804    constr:    0.0000
     atom:    6    charge:    7.3149    magn:    0.8804    constr:    0.0000
     atom:    7    charge:    7.3149    magn:    0.8804    constr:    0.0000
     atom:    8    charge:    2.1321    magn:    0.2474    constr:    0.0000
[...]
        k(    5) = (   0.0316954   0.0182994   0.0000000), wk =   0.0555556
        k(    6) = (   0.0316954   0.0548981   0.0000000), wk =   0.0555556
        k(    7) = (   0.0316954   0.0914968   0.0000000), wk =   0.0555556
        k(    8) = (   0.0316954  -0.0914968   0.0000000), wk =   0.0555556
        k(    9) = (   0.0316954  -0.0548981   0.0000000), wk =   0.0555556
        k(   10) = (   0.0316954  -0.0182994   0.0000000), wk =   0.0555556
        k(   11) = (   0.0633908   0.0365987   0.0000000), wk =   0.0555556
        k(   12) = (   0.0633908   0.0731974   0.0000000), wk =   0.0555556
        k(   13) = (   0.0633908   0.1097961   0.0000000), wk =   0.0555556
        k(   14) = (   0.0633908  -0.0731974   0.0000000), wk =   0.0555556
        k(   15) = (   0.0633908  -0.0365987   0.0000000), wk =   0.0555556
        k(   16) = (   0.0633908   0.0000000   0.0000000), wk =   0.0555556
        k(   17) = (  -0.0950862  -0.0548981   0.0000000), wk =   0.0277778
        k(   18) = (  -0.0950862  -0.0182994   0.0000000), wk =   0.0555556
        k(   19) = (  -0.0950862   0.0182994   0.0000000), wk =   0.0555556
        k(   20) = (  -0.0950862  -0.1646942   0.0000000), wk =   0.0277778
        k(   21) = (   0.0000000   0.0000000   0.0000000), wk =   0.0277778
        k(   22) = (   0.0000000   0.0365987   0.0000000), wk =   0.0555556
        k(   23) = (   0.0000000   0.0731974   0.0000000), wk =   0.0555556
        k(   24) = (   0.0000000  -0.1097961   0.0000000), wk =   0.0277778
        k(   25) = (   0.0316954   0.0182994   0.0000000), wk =   0.0555556
        k(   26) = (   0.0316954   0.0548981   0.0000000), wk =   0.0555556
        k(   27) = (   0.0316954   0.0914968   0.0000000), wk =   0.0555556
        k(   28) = (   0.0316954  -0.0914968   0.0000000), wk =   0.0555556
        k(   29) = (   0.0316954  -0.0548981   0.0000000), wk =   0.0555556
        k(   30) = (   0.0316954  -0.0182994   0.0000000), wk =   0.0555556
        k(   31) = (   0.0633908   0.0365987   0.0000000), wk =   0.0555556
        k(   32) = (   0.0633908   0.0731974   0.0000000), wk =   0.0555556
        k(   33) = (   0.0633908   0.1097961   0.0000000), wk =   0.0555556
        k(   34) = (   0.0633908  -0.0731974   0.0000000), wk =   0.0555556
        k(   35) = (   0.0633908  -0.0365987   0.0000000), wk =   0.0555556
        k(   36) = (   0.0633908   0.0000000   0.0000000), wk =   0.0555556
        k(   37) = (  -0.0950862  -0.0548981   0.0000000), wk =   0.0277778
        k(   38) = (  -0.0950862  -0.0182994   0.0000000), wk =   0.0555556
        k(   39) = (  -0.0950862   0.0182994   0.0000000), wk =   0.0555556
        k(   40) = (  -0.0950862  -0.1646942   0.0000000), wk =   0.0277778

     Largest allocated arrays     est. size (Mb)     dimensions
     Largest temporary arrays     est. size (Mb)     dimensions

     Check: negative/imaginary core charge=   -0.000006    0.000000

     Initial potential from superposition of free atoms
     Check: negative starting charge=(component1):   -0.310747
     Check: negative starting charge=(component2):   -0.241692

     starting charge  181.49991, renormalised to  192.00000

[...]

     *
     * You are using vdW-DF for exchange-correlation in this calculation.
     * Please cite the following three references that made this development
     * possible:
     *
     *   M. Dion, H. Rydberg, E. Schroder, D. C. Langreth, and
     *   B. I. Lundqvist, Phys. Rev. Lett. 92, 246401 (2004).
     *
     *   T. Thonhauser, V. R. Cooper, S. Li, A. Puzder, P. Hyldgaard, and
     *   D. C. Langreth, Phys. Rev. B 76, 125112 (2007).
     *
     *   G. Roman-Perez and J. M. Soler, Phys. Rev. Lett. 103, 096102 (2009).
     *
     *
     * If you are using vdW-DF2, please also cite:
     *
     *   K. Lee, E. D. Murray, L. Kong, B. I. Lundqvist, and
     *   D. C. Langreth, Phys. Rev. B 82, 081101(R) (2010).
     *
     *
     * If you are calculating the stress with vdW-DF, please also cite:
     *
     *   R. Sabatini, E. Kucukbenli, B. Kolb, T. Thonhauser, and
     *   S. de Gironcoli, J. Phys.: Condens. Matter 24, 424209 (2012).
     *

     Carrying out vdW-DF run using the following parameters:

     Nqs =      20    Nr_points =    1024   r_max =   100.000
     q_mesh =
               0.00001000     0.04494208     0.09755937     0.15916263
               0.23128650     0.31572767     0.41458969     0.53033537
               0.66584808     0.82450364     1.01025438     1.22772762
               1.48234092     1.78043706     2.12944203     2.53805004
               3.01644009     3.57652955     4.23227104     5.00000000

     Gradients computed in reciprocal space

[...]

     Starting wfc are  153 randomized atomic wfcs

     Self-consistent Calculation

[...]

     total energy              =   -2899.14712484 Ry
     Harris-Foulkes estimate   =   -2899.14712325 Ry
     estimated scf accuracy    <       0.00000137 Ry

[...]

     iteration # 29     ecut=    36.75 Ry     beta=0.10
     Davidson diagonalization with overlap
     ethr =  7.14E-10,  avg # of iterations =  1.4

[...]

     negative rho (up, down):  2.687E-01 2.562E-01

[...]

     Adding external electric field

     Computed dipole along edir(3) :
        Dipole               -0.0089 Ry au,         -0.0226 Debye
        Dipole field         -0.0000 Ry au

        Potential amp.        0.0026 Ry
        Total length         44.7603 bohr

     Magnetic moment per site:
     atom:    1    charge:    7.0992    magn:    1.3901    constr:    0.0000
     atom:    2    charge:    7.0991    magn:    1.3902    constr:    0.0000
     atom:    3    charge:    7.0991    magn:    1.3902    constr:    0.0000
     atom:    4    charge:    2.1089    magn:    0.0370    constr:    0.0000
     atom:    5    charge:    7.0961    magn:    1.3735    constr:    0.0000
     atom:    6    charge:    7.0962    magn:    1.3735    constr:    0.0000
     atom:    7    charge:    7.0962    magn:    1.3735    constr:    0.0000
     atom:    8    charge:    2.1124    magn:    0.0442    constr:    0.0000
     atom:    9    charge:    7.0949    magn:    1.3931    constr:    0.0000
     atom:   10    charge:    7.0949    magn:    1.3931    constr:    0.0000
     atom:   11    charge:    7.0948    magn:    1.3932    constr:    0.0000
     atom:   12    charge:    2.1078    magn:    0.0367    constr:    0.0000

     End of self-consistent calculation

 ------ SPIN UP ------------

[...]

 ------ SPIN DOWN ----------

[...]

          k = 0.0634 0.0000 0.0000 ( 14777 PWs)   bands (ev):

[...]

          k =-0.0951-0.1647 0.0000 ( 14758 PWs)   bands (ev):

   -83.9872 -83.9813 -83.9761 -83.9716 -83.9691 -83.9627 -83.9621 -83.9606
   -83.9530 -51.5805 -51.5768 -51.5661 -51.2821 -51.2688 -51.2453 -51.2317
   -51.1577 -51.1050 -50.1744 -50.1666 -50.1565 -50.1350 -50.1287 -50.1199
   -50.1182 -50.1153 -50.1064 -50.0934 -50.0913 -50.0850 -50.0840 -50.0800
   -50.0758 -50.0733 -50.0596 -50.0591 -50.0513 -50.0436 -50.0402 -50.0232
   -50.0029 -49.9969 -49.9801 -49.9718 -49.9634  -5.2193  -4.7560  -3.8423
    -3.3830  -3.1536  -3.1218  -2.6811  -2.6628  -2.6508  -2.3564  -2.3091
    -2.1621  -2.0556  -1.9908  -1.9570  -1.6683  -1.6246  -1.4377  -1.1373
    -1.0808  -0.9496  -0.5653  -0.3243  -0.0574   0.1212   0.3084   0.4708
     0.4842   0.5600   0.6141   0.7131   0.7307   0.7791   0.8799   0.8973
     1.0398   1.1076   1.2527   1.3319   1.4875   1.5095   1.6488   1.6700
     1.8725   1.9530   1.9905   2.0027   2.1792   2.2349   2.2769   2.3296
     2.3508   2.4033   2.5259   2.5524   2.5983   2.6513   2.8088   2.8690
     2.9562   3.1528   3.1759   3.2083   3.3583   3.8150   3.8474   4.5249
     4.5638   4.9832   5.0059   5.6155   5.6340   6.6510   6.7551   7.1269
     7.1355   7.6389   7.6457   7.7998   7.8019   8.8748

     the Fermi energy is     1.3306 ev

!    total energy              =   -2899.14712896 Ry
     Harris-Foulkes estimate   =   -2899.14712489 Ry
     estimated scf accuracy    <       0.00000063 Ry

     The total energy is the sum of the following terms:

     one-electron contribution =  -24097.72174165 Ry
     hartree contribution      =   12057.46264089 Ry
     xc contribution           =    -448.85062420 Ry
     ewald contribution        =    9590.04124895 Ry
     electric field correction =       0.00000025 Ry
     smearing contrib. (-TS)   =      -0.07865322 Ry

     total magnetization       =    27.03 Bohr mag/cell
     absolute magnetization    =    28.41 Bohr mag/cell

     convergence has been achieved in  29 iterations

 BEEF-vdW xc energy contributions
           1 :   -395.664060291825
           2 :    361.990616192509
           3 :   -304.437113772983
           4 :    238.024700187022
           5 :   -176.772455790262
           6 :    128.998359458836
           7 :   -96.0849519128566
           8 :    74.4274776183461
           9 :   -58.8549848493944
          10 :    45.5074116800425
          11 :   -33.0078277509242
          12 :    21.9008633859249
          13 :   -13.2653315290568
          14 :    7.55839955521515
          15 :   -4.31809877817477
          16 :    2.59475131184331
          17 :   -1.57992805455723
          18 :   0.921949554747357
          19 :  -0.622344372134876
          20 :   0.710336003291332
          21 :   -1.01241201917173
          22 :    1.16488617101118
          23 :  -0.829796478632034
          24 :  -8.370743643052947E-002
          25 :    1.34410963816151
          26 :   -2.51800923796873
          27 :    3.18789773728037
          28 :   -3.15325074868974
          29 :    2.51943582922576
          30 :   -1.65915572658037
          31 :   -33.7765482787846
          32 :   -24.2583038502331

     Forces acting on atoms (Ry/au):

     negative rho (up, down):  2.687E-01 2.562E-01
     atom    1 type  1   force =    -0.00000267   -0.00706801   -0.00519462
     atom    2 type  1   force =    -0.00612551    0.00353864   -0.00519704
     atom    3 type  1   force =     0.00611150    0.00353370   -0.00521106
     atom    4 type  2   force =     0.00000044   -0.00000089   -0.01568388
     atom    5 type  1   force =     0.00000571    0.00356237    0.00615442
     atom    6 type  1   force =     0.00308614   -0.00178016    0.00617075
     atom    7 type  1   force =    -0.00308653   -0.00178740    0.00615782
     atom    8 type  2   force =     0.00000157   -0.00000146    0.00946634
     atom    9 type  1   force =     0.00001487   -0.00040324    0.00109416
     atom   10 type  1   force =    -0.00035842    0.00019240    0.00108402
     atom   11 type  1   force =     0.00037294    0.00018370    0.00110818
     atom   12 type  2   force =    -0.00002003    0.00003036    0.00005091

     Total force =     0.026882     Total SCF correction =     0.002800
     SCF correction compared to forces is large: reduce conv_thr to get better values

     entering subroutine stress ...

     negative rho (up, down):  2.687E-01 2.562E-01
          total   stress  (Ry/bohr**3)                   (kbar)     P=   -4.72
  -0.00005820  -0.00000001  -0.00000001         -8.56     -0.00     -0.00
  -0.00000001  -0.00005817  -0.00000000         -0.00     -8.56     -0.00
  -0.00000001  -0.00000000   0.00002008         -0.00     -0.00      2.95

 !ASE

     Writing output data file calc.save

     General routines

     Parallel routines

   This run was terminated on:  23: 8:33  25Dec2018

   JOB DONE.
Job  /afs/slac/g/suncat/bin/suncat-tsmpirun -x LD_LIBRARY_PATH -wdir /scratch/qe109637_tEsXn pw.x -in pw.inp

TID   HOST_NAME   COMMAND_LINE            STATUS            TERMINATION_TIME
00000 suncat0169 pw.x -in pw.inp   Done                     12/25/2018 23:08:33
00001 suncat0169 pw.x -in pw.inp   Done                     12/25/2018 23:08:33
00002 suncat0169 pw.x -in pw.inp   Done                     12/25/2018 23:08:33
00003 suncat0169 pw.x -in pw.inp   Done                     12/25/2018 23:08:33
00004 suncat0169 pw.x -in pw.inp   Done                     12/25/2018 23:08:33
00005 suncat0169 pw.x -in pw.inp   Done                     12/25/2018 23:08:33
00006 suncat0169 pw.x -in pw.inp   Done                     12/25/2018 23:08:33
00007 suncat0169 pw.x -in pw.inp   Done                     12/25/2018 23:08:33
00008 suncat0168 pw.x -in pw.inp   Done                     12/25/2018 23:08:33
00009 suncat0168 pw.x -in pw.inp   Done                     12/25/2018 23:08:33
00010 suncat0168 pw.x -in pw.inp   Done                     12/25/2018 23:08:33
00011 suncat0168 pw.x -in pw.inp   Done                     12/25/2018 23:08:33
00012 suncat0168 pw.x -in pw.inp   Done                     12/25/2018 23:08:33
00013 suncat0168 pw.x -in pw.inp   Done                     12/25/2018 23:08:33
00014 suncat0168 pw.x -in pw.inp   Done                     12/25/2018 23:08:33
00015 suncat0168 pw.x -in pw.inp   Done                     12/25/2018 23:08:33
00016 suncat0161 pw.x -in pw.inp   Done                     12/25/2018 23:08:33
00017 suncat0161 pw.x -in pw.inp   Done                     12/25/2018 23:08:33
00018 suncat0161 pw.x -in pw.inp   Done                     12/25/2018 23:08:33
00019 suncat0161 pw.x -in pw.inp   Done                     12/25/2018 23:08:33
00020 suncat0161 pw.x -in pw.inp   Done                     12/25/2018 23:08:33
00021 suncat0161 pw.x -in pw.inp   Done                     12/25/2018 23:08:33
00022 suncat0161 pw.x -in pw.inp   Done                     12/25/2018 23:08:33
00023 suncat0161 pw.x -in pw.inp   Done                     12/25/2018 23:08:33
00024 suncat0159 pw.x -in pw.inp   Done                     12/25/2018 23:08:33
00025 suncat0159 pw.x -in pw.inp   Done                     12/25/2018 23:08:33
00026 suncat0159 pw.x -in pw.inp   Done                     12/25/2018 23:08:33
00027 suncat0159 pw.x -in pw.inp   Done                     12/25/2018 23:08:33
00028 suncat0159 pw.x -in pw.inp   Done                     12/25/2018 23:08:33
00029 suncat0159 pw.x -in pw.inp   Done                     12/25/2018 23:08:33
00030 suncat0159 pw.x -in pw.inp   Done                     12/25/2018 23:08:33
00031 suncat0159 pw.x -in pw.inp   Done                     12/25/2018 23:08:33
00032 suncat0156 pw.x -in pw.inp   Done                     12/25/2018 23:08:33
00033 suncat0156 pw.x -in pw.inp   Done                     12/25/2018 23:08:33
00034 suncat0156 pw.x -in pw.inp   Done                     12/25/2018 23:08:33
00035 suncat0156 pw.x -in pw.inp   Done                     12/25/2018 23:08:33
00036 suncat0156 pw.x -in pw.inp   Done                     12/25/2018 23:08:33
00037 suncat0156 pw.x -in pw.inp   Done                     12/25/2018 23:08:33
00038 suncat0156 pw.x -in pw.inp   Done                     12/25/2018 23:08:33
00039 suncat0156 pw.x -in pw.inp   Done                     12/25/2018 23:08:33
00040 suncat0153 pw.x -in pw.inp   Done                     12/25/2018 23:08:33
00041 suncat0153 pw.x -in pw.inp   Done                     12/25/2018 23:08:33
00042 suncat0153 pw.x -in pw.inp   Done                     12/25/2018 23:08:33
00043 suncat0153 pw.x -in pw.inp   Done                     12/25/2018 23:08:33
00044 suncat0153 pw.x -in pw.inp   Done                     12/25/2018 23:08:33
00045 suncat0153 pw.x -in pw.inp   Done                     12/25/2018 23:08:33
00046 suncat0153 pw.x -in pw.inp   Done                     12/25/2018 23:08:33
00047 suncat0153 pw.x -in pw.inp   Done                     12/25/2018 23:08:33
00048 suncat0114 pw.x -in pw.inp   Done                     12/25/2018 23:08:33
00049 suncat0114 pw.x -in pw.inp   Done                     12/25/2018 23:08:33
00050 suncat0114 pw.x -in pw.inp   Done                     12/25/2018 23:08:33
00051 suncat0114 pw.x -in pw.inp   Done                     12/25/2018 23:08:33
00052 suncat0114 pw.x -in pw.inp   Done                     12/25/2018 23:08:33
00053 suncat0114 pw.x -in pw.inp   Done                     12/25/2018 23:08:33
00054 suncat0114 pw.x -in pw.inp   Done                     12/25/2018 23:08:33
00055 suncat0114 pw.x -in pw.inp   Done                     12/25/2018 23:08:33
00056 suncat0267 pw.x -in pw.inp   Done                     12/25/2018 23:08:33
00057 suncat0267 pw.x -in pw.inp   Done                     12/25/2018 23:08:33
00058 suncat0267 pw.x -in pw.inp   Done                     12/25/2018 23:08:33
00059 suncat0267 pw.x -in pw.inp   Done                     12/25/2018 23:08:33
00060 suncat0267 pw.x -in pw.inp   Done                     12/25/2018 23:08:33
00061 suncat0267 pw.x -in pw.inp   Done                     12/25/2018 23:08:33
00062 suncat0267 pw.x -in pw.inp   Done                     12/25/2018 23:08:33
00063 suncat0267 pw.x -in pw.inp   Done                     12/25/2018 23:08:33