     Program PWSCF v.5.1rc2 (svn rev. 11289) starts on  2Jan2019 at  1:31:44

     Current dimensions of program PWSCF are:
     Max number of different atomic species (ntypx) = 10
     Max number of k-points (npk) =  40000
     Max angular momentum in pseudopotentials (lmaxx) =  3
     Presently stress not available with electric field

     IMPORTANT: XC functional enforced from input :
     Exchange-correlation      = BEEF-VDW ( 1  4 27 13 2)
     Any further DFT definition will be discarded
     Please, verify this is what you really want

     Subspace diagonalization in iterative solution of the eigenvalue problem:
     a serial algorithm will be used

     bravais-lattice index     =            0
     lattice parameter (alat)  =       1.8897  a.u.
     unit-cell volume          =    6345.4888 (a.u.)^3
     number of atoms/cell      =           12
     number of atomic types    =            2
     number of electrons       =       156.00
     number of Kohn-Sham states=          108
     kinetic-energy cutoff     =      36.7493  Ry
     charge density cutoff     =     367.4932  Ry
     convergence threshold     =      1.0E-06
     mixing beta               =       0.1000
     number of iterations used =           10  plain     mixing
     Exchange-correlation      = BEEF-VDW ( 1  4 27 13 2)
     nstep                     =           50

     celldm(1)=   1.889726  celldm(2)=   0.000000  celldm(3)=   0.000000
     celldm(4)=   0.000000  celldm(5)=   0.000000  celldm(6)=   0.000000

     crystal axes: (cart. coord. in units of alat)
               a(1) = (   6.545299   0.000000   0.000000 )
               a(2) = (  -3.272650   5.668395   0.000000 )
               a(3) = (   0.000000   0.000000  25.344214 )

     reciprocal axes: (cart. coord. in units 2 pi/alat)
               b(1) = (  0.152781  0.088208  0.000000 )
               b(2) = (  0.000000  0.176417  0.000000 )
               b(3) = (  0.000000  0.000000  0.039457 )

     PseudoPot. # 1 for Tl read from file:
     /afs/slac.stanford.edu/u/if/mamunm/psp/gbrv1.5pbe/Tl.UPF
     MD5 check sum: b76cf1f7e72655a2b2c53cf6385d7059
     Pseudo is Ultrasoft + core correction, Zval = 13.0
     Generated by new atomic code, or converted to UPF format
     Using radial grid of  899 points,  6 beta functions with:
                l(1) =   0
                l(2) =   0
                l(3) =   1
                l(4) =   1
                l(5) =   2
                l(6) =   2
     Q(r) pseudized with  6 coefficients,  rinner =    1.100   1.100   1.100
                                                       1.100   1.100

     PseudoPot. # 2 for Nb read from file:
     /afs/slac.stanford.edu/u/if/mamunm/psp/gbrv1.5pbe/Nb.UPF
     MD5 check sum: 573aab8a2fa660278ed4a62cd769473f
     Pseudo is Ultrasoft + core correction, Zval = 13.0
     Generated by new atomic code, or converted to UPF format
     Using radial grid of  887 points,  6 beta functions with:
                l(1) =   0
                l(2) =   0
                l(3) =   1
                l(4) =   1
                l(5) =   2
                l(6) =   2
     Q(r) pseudized with  6 coefficients,  rinner =    1.000   1.000   1.000
                                                       1.000   1.000

     vdW kernel table read from file vdW_kernel_table
     MD5 check sum: 095c7af220d748ca6e76c0b4c6cfb241

     atomic species   valence    mass     pseudopotential
        Tl1           13.00   204.38000     Tl( 1.00)
        Nb1           13.00    92.90637     Nb( 1.00)

     No symmetry found

   Cartesian axes

     site n.     atom                  positions (alat units)
         1           Tl1 tau(   1) = (   0.0000000   0.0000000  10.0000000  )
         2           Tl1 tau(   2) = (  -1.6363248   2.8341977  10.0000000  )
         3           Tl1 tau(   3) = (   1.6363248   2.8341977  10.0000000  )
         4           Nb1 tau(   4) = (   3.2726496   0.0000000  10.0000000  )
         5           Tl1 tau(   5) = (   3.2726496   1.8894651  12.6721072  )
         6           Tl1 tau(   6) = (   1.6363248   4.7236629  12.6721072  )
         7           Tl1 tau(   7) = (  -1.6363248   4.7236629  12.6721072  )
         8           Nb1 tau(   8) = (   0.0000000   1.8894651  12.6721072  )
         9           Tl1 tau(   9) = (  -0.0000000   3.7789303  15.3442145  )
        10           Tl1 tau(  10) = (   1.6363248   0.9447326  15.3442145  )
        11           Tl1 tau(  11) = (   4.9089744   0.9447326  15.3442145  )
        12           Nb1 tau(  12) = (   3.2726496   3.7789303  15.3442145  )

     number of k points=    20  Fermi-Dirac smearing, width (Ry)=  0.0110
                       cart. coord. in units 2pi/alat
        k(    1) = (   0.0000000   0.0000000   0.0000000), wk =   0.0555556
        k(    2) = (   0.0000000   0.0294028   0.0000000), wk =   0.1111111
        k(    3) = (   0.0000000   0.0588056   0.0000000), wk =   0.1111111
        k(    4) = (   0.0000000  -0.0882084   0.0000000), wk =   0.0555556
        k(    5) = (   0.0254636   0.0147014   0.0000000), wk =   0.1111111
        k(    6) = (   0.0254636   0.0441042   0.0000000), wk =   0.1111111
        k(    7) = (   0.0254636   0.0735070   0.0000000), wk =   0.1111111
        k(    8) = (   0.0254636  -0.0735070   0.0000000), wk =   0.1111111
        k(    9) = (   0.0254636  -0.0441042   0.0000000), wk =   0.1111111
        k(   10) = (   0.0254636  -0.0147014   0.0000000), wk =   0.1111111
        k(   11) = (   0.0509271   0.0294028   0.0000000), wk =   0.1111111
        k(   12) = (   0.0509271   0.0588056   0.0000000), wk =   0.1111111
        k(   13) = (   0.0509271   0.0882084   0.0000000), wk =   0.1111111
        k(   14) = (   0.0509271  -0.0588056   0.0000000), wk =   0.1111111
        k(   15) = (   0.0509271  -0.0294028   0.0000000), wk =   0.1111111
        k(   16) = (   0.0509271   0.0000000   0.0000000), wk =   0.1111111
        k(   17) = (  -0.0763907  -0.0441042   0.0000000), wk =   0.0555556
        k(   18) = (  -0.0763907  -0.0147014   0.0000000), wk =   0.1111111
        k(   19) = (  -0.0763907   0.0147014   0.0000000), wk =   0.1111111
        k(   20) = (  -0.0763907  -0.1323126   0.0000000), wk =   0.0555556

     Largest allocated arrays     est. size (Mb)     dimensions
     Largest temporary arrays     est. size (Mb)     dimensions

     Check: negative/imaginary core charge=   -0.000001    0.000000

     Initial potential from superposition of free atoms
     Check: negative starting charge=   -0.456836

     starting charge  155.94801, renormalised to  156.00000

     negative rho (up, down):  4.570E-01 0.000E+00

     *
     * You are using vdW-DF for exchange-correlation in this calculation.
     * Please cite the following three references that made this development
     * possible:
     *
     *   M. Dion, H. Rydberg, E. Schroder, D. C. Langreth, and
     *   B. I. Lundqvist, Phys. Rev. Lett. 92, 246401 (2004).
     *
     *   T. Thonhauser, V. R. Cooper, S. Li, A. Puzder, P. Hyldgaard, and
     *   D. C. Langreth, Phys. Rev. B 76, 125112 (2007).
     *
     *   G. Roman-Perez and J. M. Soler, Phys. Rev. Lett. 103, 096102 (2009).
     *
     *
     * If you are using vdW-DF2, please also cite:
     *
     *   K. Lee, E. D. Murray, L. Kong, B. I. Lundqvist, and
     *   D. C. Langreth, Phys. Rev. B 82, 081101(R) (2010).
     *
     *
     * If you are calculating the stress with vdW-DF, please also cite:
     *
     *   R. Sabatini, E. Kucukbenli, B. Kolb, T. Thonhauser, and
     *   S. de Gironcoli, J. Phys.: Condens. Matter 24, 424209 (2012).
     *

     Carrying out vdW-DF run using the following parameters:

     Nqs =      20    Nr_points =    1024   r_max =   100.000
     q_mesh =
               0.00001000     0.04494208     0.09755937     0.15916263
               0.23128650     0.31572767     0.41458969     0.53033537
               0.66584808     0.82450364     1.01025438     1.22772762
               1.48234092     1.78043706     2.12944203     2.53805004
               3.01644009     3.57652955     4.23227104     5.00000000

     Gradients computed in reciprocal space

     Adding external electric field

     Computed dipole along edir(3) :
        Dipole                0.0000 Ry au,          0.0000 Debye
        Dipole field          0.0000 Ry au

        Potential amp.       -0.0000 Ry
        Total length         46.6963 bohr

     Starting wfc are  120 randomized atomic wfcs

     Self-consistent Calculation

     iteration #  1     ecut=    36.75 Ry     beta=0.10
     Davidson diagonalization with overlap
     ethr =  1.00E-02,  avg # of iterations =  4.8

     Threshold (ethr) on eigenvalues was too large:
     Diagonalizing with lowered threshold

     Davidson diagonalization with overlap
     ethr =  7.78E-04,  avg # of iterations =  6.1

[...]

     total energy              =   -1676.19072230 Ry
     Harris-Foulkes estimate   =   -1676.39749363 Ry
     estimated scf accuracy    <       1.27211201 Ry

[...]

     End of self-consistent calculation

          k = 0.0000 0.0000 0.0000 ( 23751 PWs)   bands (ev):

   -54.7161 -54.7161 -54.5113 -30.7603 -30.7597 -30.6886 -30.6886 -30.6885
   -30.6885 -30.5546 -30.5545 -30.4569 -11.2254 -11.1240 -11.1202 -11.1202
   -11.0141 -11.0056 -10.9274 -10.9274 -10.9118 -10.8543 -10.8542 -10.8492
   -10.8492 -10.7412 -10.7347 -10.7346 -10.7090 -10.6168 -10.5803 -10.5590
   -10.5590 -10.5551 -10.5550 -10.5401 -10.5400 -10.5284 -10.3941 -10.3941
   -10.3597 -10.3597 -10.3490 -10.3490 -10.3396 -10.3267 -10.3267 -10.2683
   -10.2683 -10.2077 -10.2077 -10.1844 -10.1532 -10.1222 -10.1222 -10.0030
   -10.0010  -8.5419  -7.1314  -5.3788  -4.3951  -4.3950  -3.7485  -3.7485
    -2.9047  -2.9046  -1.8269  -1.1469  -0.8510  -0.6974  -0.6974  -0.2323
     0.5429   0.5429   0.6807   0.6808   0.7924   1.1387   1.1387   1.1596
     1.1596   1.6241   1.7076   1.8632   1.8632   2.0262   2.0262   2.0724
     2.0724   2.5261   2.5262   2.6251   3.1590   3.6126   3.9986   4.5655
     4.7666   5.1774   5.1774   5.3900   5.3900   5.6264   5.7162   5.9991
     6.2457   6.4401   7.2637   7.2640

[...]

          k =-0.0764-0.0441 0.0000 ( 23868 PWs)   bands (ev):

[...]

     the Fermi energy is     1.1352 ev

!    total energy              =   -1676.27450091 Ry
     Harris-Foulkes estimate   =   -1676.27449293 Ry
     estimated scf accuracy    <       0.00000040 Ry

     The total energy is the sum of the following terms:

     one-electron contribution =   -9136.01595719 Ry
     hartree contribution      =    4626.58971297 Ry
     xc contribution           =    -633.03418838 Ry
     ewald contribution        =    3466.25486730 Ry
     electric field correction =       0.00000000 Ry
     smearing contrib. (-TS)   =      -0.06893561 Ry

     convergence has been achieved in  16 iterations

 BEEF-vdW xc energy contributions
           1 :   -562.089556755246
           2 :    521.072407812843
           3 :   -449.067161739456
           4 :    362.131087059726
           5 :   -276.629439723268
           6 :    204.225173290125
           7 :   -149.477144128292
           8 :    110.500744631613
           9 :   -81.8815242566394
[...]
     Generated by new atomic code, or converted to UPF format
     Using radial grid of  899 points,  6 beta functions with:
                l(1) =   0
                l(2) =   0
                l(3) =   1
                l(4) =   1
                l(5) =   2
                l(6) =   2
     Q(r) pseudized with  6 coefficients,  rinner =    1.100   1.100   1.100
                                                       1.100   1.100

     PseudoPot. # 2 for Nb read from file:
     /afs/slac.stanford.edu/u/if/mamunm/psp/gbrv1.5pbe/Nb.UPF
     MD5 check sum: 573aab8a2fa660278ed4a62cd769473f
     Pseudo is Ultrasoft + core correction, Zval = 13.0
     Generated by new atomic code, or converted to UPF format
     Using radial grid of  887 points,  6 beta functions with:
                l(1) =   0
                l(2) =   0
                l(3) =   1
                l(4) =   1
                l(5) =   2
                l(6) =   2
     Q(r) pseudized with  6 coefficients,  rinner =    1.000   1.000   1.000
                                                       1.000   1.000

     vdW kernel table read from file vdW_kernel_table
     MD5 check sum: 095c7af220d748ca6e76c0b4c6cfb241

     atomic species   valence    mass     pseudopotential
        Tl1           13.00   204.38000     Tl( 1.00)
        Nb1           13.00    92.90637     Nb( 1.00)

     No symmetry found

   Cartesian axes

     site n.     atom                  positions (alat units)
         1           Tl1 tau(   1) = (   0.0000000   0.0000000  10.0000000  )
         2           Tl1 tau(   2) = (  -1.6363248   2.8341977  10.0000000  )
         3           Tl1 tau(   3) = (   1.6363248   2.8341977  10.0000000  )
         4           Nb1 tau(   4) = (   3.2726496   0.0000000  10.0000000  )
         5           Tl1 tau(   5) = (   3.2726496   1.8894651  12.6721072  )
         6           Tl1 tau(   6) = (   1.6363248   4.7236629  12.6721072  )
         7           Tl1 tau(   7) = (  -1.6363248   4.7236629  12.6721072  )
         8           Nb1 tau(   8) = (   0.0000000   1.8894651  12.6721072  )
         9           Tl1 tau(   9) = (  -0.0000191   3.7633902  15.5958327  )
        10           Tl1 tau(  10) = (   1.6237429   0.9519521  15.5952016  )
        11           Tl1 tau(  11) = (   4.9215413   0.9519792  15.5952097  )
        12           Nb1 tau(  12) = (   3.2726192   3.7790600  14.9402839  )

     number of k points=    20  Fermi-Dirac smearing, width (Ry)=  0.0110
                       cart. coord. in units 2pi/alat
        k(    1) = (   0.0000000   0.0000000   0.0000000), wk =   0.0555556
        k(    2) = (   0.0000000   0.0294028   0.0000000), wk =   0.1111111
        k(    3) = (   0.0000000   0.0588056   0.0000000), wk =   0.1111111
        k(    4) = (   0.0000000  -0.0882084   0.0000000), wk =   0.0555556
        k(    5) = (   0.0254636   0.0147014   0.0000000), wk =   0.1111111
        k(    6) = (   0.0254636   0.0441042   0.0000000), wk =   0.1111111
        k(    7) = (   0.0254636   0.0735070   0.0000000), wk =   0.1111111
        k(    8) = (   0.0254636  -0.0735070   0.0000000), wk =   0.1111111
        k(    9) = (   0.0254636  -0.0441042   0.0000000), wk =   0.1111111
        k(   10) = (   0.0254636  -0.0147014   0.0000000), wk =   0.1111111
        k(   11) = (   0.0509271   0.0294028   0.0000000), wk =   0.1111111
        k(   12) = (   0.0509271   0.0588056   0.0000000), wk =   0.1111111
        k(   13) = (   0.0509271   0.0882084   0.0000000), wk =   0.1111111
        k(   14) = (   0.0509271  -0.0588056   0.0000000), wk =   0.1111111
        k(   15) = (   0.0509271  -0.0294028   0.0000000), wk =   0.1111111
        k(   16) = (   0.0509271   0.0000000   0.0000000), wk =   0.1111111
        k(   17) = (  -0.0763907  -0.0441042   0.0000000), wk =   0.0555556
        k(   18) = (  -0.0763907  -0.0147014   0.0000000), wk =   0.1111111
        k(   19) = (  -0.0763907   0.0147014   0.0000000), wk =   0.1111111
        k(   20) = (  -0.0763907  -0.1323126   0.0000000), wk =   0.0555556

     Largest allocated arrays     est. size (Mb)     dimensions
     Largest temporary arrays     est. size (Mb)     dimensions

     Check: negative/imaginary core charge=   -0.000001    0.000000

     Initial potential from superposition of free atoms
     Check: negative starting charge=   -0.457578

     starting charge  155.94801, renormalised to  156.00000

[...]

     *
     * You are using vdW-DF for exchange-correlation in this calculation.
     * Please cite the following three references that made this development
     * possible:
     *
     *   M. Dion, H. Rydberg, E. Schroder, D. C. Langreth, and
     *   B. I. Lundqvist, Phys. Rev. Lett. 92, 246401 (2004).
     *
     *   T. Thonhauser, V. R. Cooper, S. Li, A. Puzder, P. Hyldgaard, and
     *   D. C. Langreth, Phys. Rev. B 76, 125112 (2007).
     *
     *   G. Roman-Perez and J. M. Soler, Phys. Rev. Lett. 103, 096102 (2009).
     *
     *
     * If you are using vdW-DF2, please also cite:
     *
     *   K. Lee, E. D. Murray, L. Kong, B. I. Lundqvist, and
     *   D. C. Langreth, Phys. Rev. B 82, 081101(R) (2010).
     *
     *
     * If you are calculating the stress with vdW-DF, please also cite:
     *
     *   R. Sabatini, E. Kucukbenli, B. Kolb, T. Thonhauser, and
     *   S. de Gironcoli, J. Phys.: Condens. Matter 24, 424209 (2012).
     *

     Carrying out vdW-DF run using the following parameters:

     Nqs =      20    Nr_points =    1024   r_max =   100.000
     q_mesh =
               0.00001000     0.04494208     0.09755937     0.15916263
               0.23128650     0.31572767     0.41458969     0.53033537
               0.66584808     0.82450364     1.01025438     1.22772762
               1.48234092     1.78043706     2.12944203     2.53805004
               3.01644009     3.57652955     4.23227104     5.00000000

     Gradients computed in reciprocal space

[...]

     Starting wfc are  120 randomized atomic wfcs

     Self-consistent Calculation

[...]

     Threshold (ethr) on eigenvalues was too large:
     Diagonalizing with lowered threshold

     Davidson diagonalization with overlap
     ethr =  5.79E-04,  avg # of iterations = 11.2

[...]

     total energy              =   -1676.32799780 Ry
     Harris-Foulkes estimate   =   -1676.32798755 Ry
     estimated scf accuracy    <       0.00000100 Ry

     iteration # 16     ecut=    36.75 Ry     beta=0.10
     Davidson diagonalization with overlap
     ethr =  6.44E-10,  avg # of iterations =  2.9

[...]

     negative rho (up, down):  4.880E-01 0.000E+00

     Adding external electric field

     Computed dipole along edir(3) :
        Dipole                0.0379 Ry au,          0.0964 Debye
        Dipole field          0.0001 Ry au

        Potential amp.       -0.0070 Ry
        Total length         46.6963 bohr

     End of self-consistent calculation

[...]

          k = 0.0509 0.0000 0.0000 ( 23846 PWs)   bands (ev):

[...]

          k =-0.0764-0.1323 0.0000 ( 23868 PWs)   bands (ev):

   -54.6761 -54.5983 -54.4718 -30.7285 -30.6414 -30.6409 -30.6150 -30.6148
   -30.5985 -30.5097 -30.5092 -30.4161 -11.0243 -10.9097 -10.8805 -10.8545
   -10.8436 -10.7931 -10.7661 -10.7385 -10.7290 -10.7114 -10.7009 -10.6815
   -10.6460 -10.6301 -10.6068 -10.6013 -10.5623 -10.5362 -10.5249 -10.4965
   -10.4950 -10.4863 -10.4853 -10.4683 -10.4503 -10.4449 -10.4367 -10.4358
   -10.4183 -10.4078 -10.4072 -10.3978 -10.3925 -10.3848 -10.3619 -10.3524
   -10.3211 -10.3199 -10.3115 -10.2928 -10.2667 -10.2233 -10.1800 -10.1150
   -10.0663  -7.2909  -6.9090  -5.8862  -5.6553  -4.9219  -4.7099  -4.3775
    -3.6448  -2.6313  -1.8684  -1.2418  -0.5524  -0.0810   0.0206   0.1737
     0.1995   0.2818   0.6121   0.8439   1.1596   1.2657   1.5669   1.6516
     1.6892   1.8008   1.9696   2.0650   2.2778   2.3397   2.5845   2.9638
     3.0643   3.2723   3.6199   3.6751   3.7086   4.2352   4.3096   4.3750
     4.6239   5.0817   5.4090   5.4580   5.5546   5.6180   5.7807   5.8504
     5.9107   6.3826   6.3875   6.3912

     the Fermi energy is     1.1773 ev

!    total energy              =   -1676.32801148 Ry
     Harris-Foulkes estimate   =   -1676.32799858 Ry
     estimated scf accuracy    <       0.00000075 Ry

     The total energy is the sum of the following terms:

     one-electron contribution =   -9009.83900222 Ry
     hartree contribution      =    4563.75091120 Ry
     xc contribution           =    -633.00111769 Ry
     ewald contribution        =    3402.82379484 Ry
     electric field correction =       0.00000285 Ry
     smearing contrib. (-TS)   =      -0.06260046 Ry

     convergence has been achieved in  16 iterations

 BEEF-vdW xc energy contributions
           1 :   -562.204735871602
           2 :    521.143101411100
           3 :   -449.097016787419
           4 :    362.172939312304
           5 :   -276.740771952421
           6 :    204.419171227768
           7 :   -149.706897128812
           8 :    110.686021573831
           9 :   -81.9606644914646
          10 :    58.1457423030461
          11 :   -36.3070595466428
          12 :    16.4839545337969
          13 :  -0.521963562167798
          14 :   -9.80404485428608
          15 :    14.2220863827038
          16 :   -14.2799022381042
          17 :    12.5709563690740
          18 :   -11.4753950847861
          19 :    12.1517952300439
          20 :   -14.2762692015050
          21 :    16.5533100277497
          22 :   -17.6340162845734
          23 :    16.9039348096663
          24 :   -14.7481441219581
          25 :    12.2192103380040
          26 :   -10.3728398310139
          27 :    9.67750347684671
          28 :   -9.82338888508809
          29 :    9.99381852274507
          30 :   -9.40594121896322
          31 :   -46.7792806247277
          32 :   -34.3658846747080

     Forces acting on atoms (Ry/au):

     negative rho (up, down):  4.880E-01 0.000E+00
     atom    1 type  1   force =     0.00000118    0.00981546   -0.02799688
     atom    2 type  1   force =     0.00842139   -0.00488171   -0.02790053
     atom    3 type  1   force =    -0.00842663   -0.00487819   -0.02790081
     atom    4 type  2   force =    -0.00000008   -0.00002381    0.07928276
     atom    5 type  1   force =     0.00000622   -0.01794633   -0.00091453
     atom    6 type  1   force =    -0.01555484    0.00894277   -0.00091959
     atom    7 type  1   force =     0.01555636    0.00894102   -0.00092262
     atom    8 type  2   force =     0.00000063    0.00000688    0.00529493
     atom    9 type  1   force =    -0.00000476   -0.00095984    0.00028881
     atom   10 type  1   force =    -0.00087855    0.00049507    0.00020108
     atom   11 type  1   force =     0.00087818    0.00049630    0.00020447
     atom   12 type  2   force =     0.00000089   -0.00000763    0.00128292

     Total force =     0.099567     Total SCF correction =     0.002873

     entering subroutine stress ...

     negative rho (up, down):  4.880E-01 0.000E+00
          total   stress  (Ry/bohr**3)                   (kbar)     P=  -13.58
  -0.00012392  -0.00000000   0.00000000        -18.23     -0.00      0.00
  -0.00000000  -0.00012396   0.00000000         -0.00    -18.23      0.00
   0.00000000   0.00000000  -0.00002899          0.00      0.00     -4.26

 !ASE

     Writing output data file calc.save

     General routines

     Parallel routines

   This run was terminated on:   3:28:36   2Jan2019

   JOB DONE.
Job  /afs/slac/g/suncat/bin/suncat-tsmpirun -x LD_LIBRARY_PATH -wdir /scratch/qe649262_0FerZ pw.x -in pw.inp

TID   HOST_NAME   COMMAND_LINE            STATUS            TERMINATION_TIME
00000 suncat0031 pw.x -in pw.inp   Done                     01/02/2019 03:28:36
00001 suncat0031 pw.x -in pw.inp   Done                     01/02/2019 03:28:36
00002 suncat0031 pw.x -in pw.inp   Done                     01/02/2019 03:28:36
00003 suncat0031 pw.x -in pw.inp   Done                     01/02/2019 03:28:36
00004 suncat0031 pw.x -in pw.inp   Done                     01/02/2019 03:28:36
00005 suncat0031 pw.x -in pw.inp   Done                     01/02/2019 03:28:36
00006 suncat0031 pw.x -in pw.inp   Done                     01/02/2019 03:28:36
00007 suncat0031 pw.x -in pw.inp   Done                     01/02/2019 03:28:36
00008 suncat0030 pw.x -in pw.inp   Done                     01/02/2019 03:28:36
00009 suncat0030 pw.x -in pw.inp   Done                     01/02/2019 03:28:36
00010 suncat0030 pw.x -in pw.inp   Done                     01/02/2019 03:28:36
00011 suncat0030 pw.x -in pw.inp   Done                     01/02/2019 03:28:36
00012 suncat0030 pw.x -in pw.inp   Done                     01/02/2019 03:28:36
00013 suncat0030 pw.x -in pw.inp   Done                     01/02/2019 03:28:36
00014 suncat0030 pw.x -in pw.inp   Done                     01/02/2019 03:28:36
00015 suncat0030 pw.x -in pw.inp   Done                     01/02/2019 03:28:36
00016 suncat0192 pw.x -in pw.inp   Done                     01/02/2019 03:28:36
00017 suncat0192 pw.x -in pw.inp   Done                     01/02/2019 03:28:36
00018 suncat0192 pw.x -in pw.inp   Done                     01/02/2019 03:28:36
00019 suncat0192 pw.x -in pw.inp   Done                     01/02/2019 03:28:36
00020 suncat0192 pw.x -in pw.inp   Done                     01/02/2019 03:28:36
00021 suncat0192 pw.x -in pw.inp   Done                     01/02/2019 03:28:36
00022 suncat0192 pw.x -in pw.inp   Done                     01/02/2019 03:28:36
00023 suncat0192 pw.x -in pw.inp   Done                     01/02/2019 03:28:36
00024 suncat0185 pw.x -in pw.inp   Done                     01/02/2019 03:28:36
00025 suncat0185 pw.x -in pw.inp   Done                     01/02/2019 03:28:36
00026 suncat0185 pw.x -in pw.inp   Done                     01/02/2019 03:28:36
00027 suncat0185 pw.x -in pw.inp   Done                     01/02/2019 03:28:36
00028 suncat0185 pw.x -in pw.inp   Done                     01/02/2019 03:28:36
00029 suncat0185 pw.x -in pw.inp   Done                     01/02/2019 03:28:36
00030 suncat0185 pw.x -in pw.inp   Done                     01/02/2019 03:28:36
00031 suncat0185 pw.x -in pw.inp   Done                     01/02/2019 03:28:36
00032 suncat0184 pw.x -in pw.inp   Done                     01/02/2019 03:28:36
00033 suncat0184 pw.x -in pw.inp   Done                     01/02/2019 03:28:36
00034 suncat0184 pw.x -in pw.inp   Done                     01/02/2019 03:28:36
00035 suncat0184 pw.x -in pw.inp   Done                     01/02/2019 03:28:36
00036 suncat0184 pw.x -in pw.inp   Done                     01/02/2019 03:28:36
00037 suncat0184 pw.x -in pw.inp   Done                     01/02/2019 03:28:36
00038 suncat0184 pw.x -in pw.inp   Done                     01/02/2019 03:28:36
00039 suncat0184 pw.x -in pw.inp   Done                     01/02/2019 03:28:36
00040 suncat0183 pw.x -in pw.inp   Done                     01/02/2019 03:28:36
00041 suncat0183 pw.x -in pw.inp   Done                     01/02/2019 03:28:36
00042 suncat0183 pw.x -in pw.inp   Done                     01/02/2019 03:28:36
00043 suncat0183 pw.x -in pw.inp   Done                     01/02/2019 03:28:36
00044 suncat0183 pw.x -in pw.inp   Done                     01/02/2019 03:28:36
00045 suncat0183 pw.x -in pw.inp   Done                     01/02/2019 03:28:36
00046 suncat0183 pw.x -in pw.inp   Done                     01/02/2019 03:28:36
00047 suncat0183 pw.x -in pw.inp   Done                     01/02/2019 03:28:36
00048 suncat0172 pw.x -in pw.inp   Done                     01/02/2019 03:28:36
00049 suncat0172 pw.x -in pw.inp   Done                     01/02/2019 03:28:36
00050 suncat0172 pw.x -in pw.inp   Done                     01/02/2019 03:28:36
00051 suncat0172 pw.x -in pw.inp   Done                     01/02/2019 03:28:36
00052 suncat0172 pw.x -in pw.inp   Done                     01/02/2019 03:28:36
00053 suncat0172 pw.x -in pw.inp   Done                     01/02/2019 03:28:36
00054 suncat0172 pw.x -in pw.inp   Done                     01/02/2019 03:28:36
00055 suncat0172 pw.x -in pw.inp   Done                     01/02/2019 03:28:36
00056 suncat0171 pw.x -in pw.inp   Done                     01/02/2019 03:28:36
00057 suncat0171 pw.x -in pw.inp   Done                     01/02/2019 03:28:36
00058 suncat0171 pw.x -in pw.inp   Done                     01/02/2019 03:28:36
00059 suncat0171 pw.x -in pw.inp   Done                     01/02/2019 03:28:36
00060 suncat0171 pw.x -in pw.inp   Done                     01/02/2019 03:28:36
00061 suncat0171 pw.x -in pw.inp   Done                     01/02/2019 03:28:36
00062 suncat0171 pw.x -in pw.inp   Done                     01/02/2019 03:28:36
00063 suncat0171 pw.x -in pw.inp   Done                     01/02/2019 03:28:36