     Program PWSCF v.5.1rc2 (svn rev. 11289) starts on  2Jan2019 at 17:32:55

     Current dimensions of program PWSCF are:
     Max number of different atomic species (ntypx) = 10
     Max number of k-points (npk) =  40000
     Max angular momentum in pseudopotentials (lmaxx) =  3
     Presently stress not available with electric field

     IMPORTANT: XC functional enforced from input :
     Exchange-correlation      = BEEF-VDW ( 1  4 27 13 2)
     Any further DFT definition will be discarded
     Please, verify this is what you really want

     Subspace diagonalization in iterative solution of the eigenvalue problem:
     a serial algorithm will be used

     bravais-lattice index     =            0
     lattice parameter (alat)  =       1.8897  a.u.
     unit-cell volume          =    4222.4260 (a.u.)^3
     number of atoms/cell      =           12
     number of atomic types    =            2
     number of electrons       =       225.00
     number of Kohn-Sham states=          142
     kinetic-energy cutoff     =      36.7493  Ry
     charge density cutoff     =     367.4932  Ry
     convergence threshold     =      1.0E-06
     mixing beta               =       0.1000
     number of iterations used =           10  plain     mixing
     Exchange-correlation      = BEEF-VDW ( 1  4 27 13 2)
     nstep                     =           50

     celldm(1)=   1.889726  celldm(2)=   0.000000  celldm(3)=   0.000000
     celldm(4)=   0.000000  celldm(5)=   0.000000  celldm(6)=   0.000000

     crystal axes: (cart. coord. in units of alat)
               a(1) = (   5.437158   0.000000   0.000000 )
               a(2) = (  -2.718579   4.708717   0.000000 )
               a(3) = (   0.000000   0.000000  24.439421 )

     reciprocal axes: (cart. coord. in units 2 pi/alat)
               b(1) = (  0.183920  0.106186  0.000000 )
               b(2) = (  0.000000  0.212372  0.000000 )
               b(3) = (  0.000000  0.000000  0.040917 )

     PseudoPot. # 1 for Zn read from file:
     /afs/slac.stanford.edu/u/if/mamunm/psp/gbrv1.5pbe/Zn.UPF
     MD5 check sum: df62231357ef9e81f77b2b3087fa5675
     Pseudo is Ultrasoft, Zval = 20.0
     Generated by new atomic code, or converted to UPF format
     Using radial grid of  943 points,  6 beta functions with:
                l(1) =   0
                l(2) =   0
                l(3) =   1
                l(4) =   1
                l(5) =   2
                l(6) =   2
     Q(r) pseudized with  8 coefficients,  rinner =    1.100   1.100   1.100
                                                       1.100   1.100

     PseudoPot. # 2 for Rh read from file:
     /afs/slac.stanford.edu/u/if/mamunm/psp/gbrv1.5pbe/Rh.UPF
     MD5 check sum: 761627e959a2e3a1f56b0b5fe687810e
     Pseudo is Ultrasoft + core correction, Zval = 15.0
     Generated by new atomic code, or converted to UPF format
     Using radial grid of  969 points,  7 beta functions with:
                l(1) =   0
                l(2) =   0
                l(3) =   1
                l(4) =   1
                l(5) =   2
                l(6) =   2
                l(7) =   2
     Q(r) pseudized with  8 coefficients,  rinner =    1.200   1.200   1.200
                                                       1.200   1.200

     vdW kernel table read from file vdW_kernel_table
     MD5 check sum: 095c7af220d748ca6e76c0b4c6cfb241

     atomic species   valence    mass     pseudopotential
        Zn1           20.00    65.38000     Zn( 1.00)
        Rh1           15.00   102.90550     Rh( 1.00)

     No symmetry found

   Cartesian axes

     site n.     atom                  positions (alat units)
         1           Zn1 tau(   1) = (   0.0000000   0.0000000  10.0000000  )
         2           Zn1 tau(   2) = (  -1.3592895   2.3543585  10.0000000  )
         3           Zn1 tau(   3) = (   1.3592895   2.3543585  10.0000000  )
         4           Rh1 tau(   4) = (   2.7185790   0.0000000  10.0000000  )
         5           Zn1 tau(   5) = (   2.7185790   1.5695723  12.2197105  )
         6           Zn1 tau(   6) = (   1.3592895   3.9239308  12.2197105  )
         7           Zn1 tau(   7) = (  -1.3592895   3.9239308  12.2197105  )
         8           Rh1 tau(   8) = (   0.0000000   1.5695723  12.2197105  )
         9           Zn1 tau(   9) = (  -0.0000000   3.1391446  14.4394209  )
        10           Zn1 tau(  10) = (   1.3592895   0.7847862  14.4394209  )
        11           Zn1 tau(  11) = (   4.0778685   0.7847862  14.4394209  )
        12           Rh1 tau(  12) = (   2.7185790   3.1391446  14.4394209  )

     number of k points=    20  Fermi-Dirac smearing, width (Ry)=  0.0110
                       cart. coord. in units 2pi/alat
        k(    1) = (   0.0000000   0.0000000   0.0000000), wk =   0.0555556
        k(    2) = (   0.0000000   0.0353953   0.0000000), wk =   0.1111111
        k(    3) = (   0.0000000   0.0707907   0.0000000), wk =   0.1111111
        k(    4) = (   0.0000000  -0.1061860   0.0000000), wk =   0.0555556
        k(    5) = (   0.0306533   0.0176977   0.0000000), wk =   0.1111111
        k(    6) = (   0.0306533   0.0530930   0.0000000), wk =   0.1111111
        k(    7) = (   0.0306533   0.0884884   0.0000000), wk =   0.1111111
        k(    8) = (   0.0306533  -0.0884884   0.0000000), wk =   0.1111111
        k(    9) = (   0.0306533  -0.0530930   0.0000000), wk =   0.1111111
        k(   10) = (   0.0306533  -0.0176977   0.0000000), wk =   0.1111111
        k(   11) = (   0.0613065   0.0353953   0.0000000), wk =   0.1111111
        k(   12) = (   0.0613065   0.0707907   0.0000000), wk =   0.1111111
        k(   13) = (   0.0613065   0.1061860   0.0000000), wk =   0.1111111
        k(   14) = (   0.0613065  -0.0707907   0.0000000), wk =   0.1111111
        k(   15) = (   0.0613065  -0.0353953   0.0000000), wk =   0.1111111
        k(   16) = (   0.0613065  -0.0000000   0.0000000), wk =   0.1111111
        k(   17) = (  -0.0919598  -0.0530930   0.0000000), wk =   0.0555556
        k(   18) = (  -0.0919598  -0.0176977   0.0000000), wk =   0.1111111
        k(   19) = (  -0.0919598   0.0176977   0.0000000), wk =   0.1111111
        k(   20) = (  -0.0919598  -0.1592791   0.0000000), wk =   0.0555556

     Largest allocated arrays     est. size (Mb)     dimensions
     Largest temporary arrays     est. size (Mb)     dimensions

     Initial potential from superposition of free atoms
     Check: negative starting charge=   -0.164199

     starting charge  223.49844, renormalised to  225.00000

     negative rho (up, down):  1.653E-01 0.000E+00

     *
     * You are using vdW-DF for exchange-correlation in this calculation.
     * Please cite the following three references that made this development
     * possible:
     *
     *   M. Dion, H. Rydberg, E. Schroder, D. C. Langreth, and
     *   B. I. Lundqvist, Phys. Rev. Lett. 92, 246401 (2004).
     *
     *   T. Thonhauser, V. R. Cooper, S. Li, A. Puzder, P. Hyldgaard, and
     *   D. C. Langreth, Phys. Rev. B 76, 125112 (2007).
     *
     *   G. Roman-Perez and J. M. Soler, Phys. Rev. Lett. 103, 096102 (2009).
     *
     *
     * If you are using vdW-DF2, please also cite:
     *
     *   K. Lee, E. D. Murray, L. Kong, B. I. Lundqvist, and
     *   D. C. Langreth, Phys. Rev. B 82, 081101(R) (2010).
     *
     *
     * If you are calculating the stress with vdW-DF, please also cite:
     *
     *   R. Sabatini, E. Kucukbenli, B. Kolb, T. Thonhauser, and
     *   S. de Gironcoli, J. Phys.: Condens. Matter 24, 424209 (2012).
     *

     Carrying out vdW-DF run using the following parameters:

     Nqs =      20    Nr_points =    1024   r_max =   100.000
     q_mesh =
               0.00001000     0.04494208     0.09755937     0.15916263
               0.23128650     0.31572767     0.41458969     0.53033537
               0.66584808     0.82450364     1.01025438     1.22772762
               1.48234092     1.78043706     2.12944203     2.53805004
               3.01644009     3.57652955     4.23227104     5.00000000

     Gradients computed in reciprocal space

     Adding external electric field

     Computed dipole along edir(3) :
        Dipole                0.0000 Ry au,          0.0000 Debye
        Dipole field          0.0000 Ry au

        Potential amp.       -0.0000 Ry
        Total length         45.0292 bohr

     Starting wfc are  153 randomized atomic wfcs

     Self-consistent Calculation

     iteration #  1     ecut=    36.75 Ry     beta=0.10
     Davidson diagonalization with overlap
     ethr =  1.00E-02,  avg # of iterations =  7.5

[...]

     total energy              =   -4681.82507358 Ry
     Harris-Foulkes estimate   =   -4682.81829193 Ry
     estimated scf accuracy    <       5.48107357 Ry

[...]

     End of self-consistent calculation

          k = 0.0000 0.0000 0.0000 ( 15821 PWs)   bands (ev):

  -125.8959-125.8945-125.8945-125.6098-125.6098-125.6084-125.6084-125.6084
  -125.6084 -80.1288 -80.1174 -80.1174 -80.0642 -80.0642 -80.0571 -80.0417
   -80.0344 -80.0344 -79.8327 -79.8324 -79.8211 -79.8211 -79.8209 -79.8209
   -79.7911 -79.7910 -79.7846 -79.7846 -79.7845 -79.7844 -79.7532 -79.7532
   -79.7530 -79.7530 -79.7468 -79.7467 -45.3600 -45.3600 -45.2867 -45.0972
   -45.0972 -45.0970 -45.0970 -44.9791 -44.9786  -8.5724  -7.5224  -7.4592
    -7.4416  -7.4416  -7.4037  -7.3264  -7.2479  -7.2479  -7.1925  -7.1925
    -7.1920  -7.0020  -7.0020  -6.9326  -6.8896  -6.8377  -6.8377  -6.7871
    -6.7021  -6.7004  -6.7004  -6.6787  -6.6787  -6.6385  -6.6385  -6.6325
    -6.4115  -6.4115  -6.3844  -6.3844  -6.3412  -6.3412  -6.3333  -6.3333
    -6.3192  -6.2937  -6.2937  -6.2482  -6.2324  -6.2324  -6.1507  -6.1207
    -6.1207  -6.0581  -5.9488  -5.9468  -3.7818  -2.6881  -2.6881  -2.1197
    -2.1197  -1.9744  -1.9127  -1.9127  -1.4995  -1.1112  -1.1112  -0.7386
    -0.7386  -0.7043  -0.4081  -0.4081  -0.2111   0.1881   0.3962   0.3962
     0.7557   1.1782   1.1782   1.1973   1.1973   1.2157   3.4367   3.4367
     3.8365   4.1068   4.1068   4.5007   4.6062   4.8921   4.8921   5.3701
     5.6340   5.9041   6.3708   6.6357   7.8771   7.8771   7.8972   8.1893
     8.1919   8.1919   8.5452   8.6532  10.1026  10.1027

[...]

          k =-0.0920-0.0531 0.0000 ( 15928 PWs)   bands (ev):

[...]

     the Fermi energy is     0.7460 ev

!    total energy              =   -4681.78654633 Ry
     Harris-Foulkes estimate   =   -4681.78654333 Ry
     estimated scf accuracy    <       0.00000014 Ry

     The total energy is the sum of the following terms:

     one-electron contribution =  -32567.70131516 Ry
     hartree contribution      =   16280.44621638 Ry
     xc contribution           =    -484.16571880 Ry
     ewald contribution        =   12089.66730295 Ry
     electric field correction =       0.00000000 Ry
     smearing contrib. (-TS)   =      -0.03303170 Ry

     convergence has been achieved in  17 iterations

 BEEF-vdW xc energy contributions
           1 :   -428.677283852365
           2 :    389.684907663766
           3 :   -323.855569433739
           4 :    249.739979963966
           5 :   -184.193749731116
           6 :    136.219293073455
           7 :   -105.500519649067
[...]
     Using radial grid of  943 points,  6 beta functions with:
                l(1) =   0
                l(2) =   0
                l(3) =   1
                l(4) =   1
                l(5) =   2
                l(6) =   2
     Q(r) pseudized with  8 coefficients,  rinner =    1.100   1.100   1.100
                                                       1.100   1.100

     PseudoPot. # 2 for Rh read from file:
     /afs/slac.stanford.edu/u/if/mamunm/psp/gbrv1.5pbe/Rh.UPF
     MD5 check sum: 761627e959a2e3a1f56b0b5fe687810e
     Pseudo is Ultrasoft + core correction, Zval = 15.0
     Generated by new atomic code, or converted to UPF format
     Using radial grid of  969 points,  7 beta functions with:
                l(1) =   0
                l(2) =   0
                l(3) =   1
                l(4) =   1
                l(5) =   2
                l(6) =   2
                l(7) =   2
     Q(r) pseudized with  8 coefficients,  rinner =    1.200   1.200   1.200
                                                       1.200   1.200

     vdW kernel table read from file vdW_kernel_table
     MD5 check sum: 095c7af220d748ca6e76c0b4c6cfb241

     atomic species   valence    mass     pseudopotential
        Zn1           20.00    65.38000     Zn( 1.00)
        Rh1           15.00   102.90550     Rh( 1.00)

     No symmetry found

   Cartesian axes

     site n.     atom                  positions (alat units)
         1           Zn1 tau(   1) = (   0.0000000   0.0000000  10.0000000  )
         2           Zn1 tau(   2) = (  -1.3592895   2.3543585  10.0000000  )
         3           Zn1 tau(   3) = (   1.3592895   2.3543585  10.0000000  )
         4           Rh1 tau(   4) = (   2.7185790   0.0000000  10.0000000  )
         5           Zn1 tau(   5) = (   2.7185790   1.5695723  12.2197105  )
         6           Zn1 tau(   6) = (   1.3592895   3.9239308  12.2197105  )
         7           Zn1 tau(   7) = (  -1.3592895   3.9239308  12.2197105  )
         8           Rh1 tau(   8) = (   0.0000000   1.5695723  12.2197105  )
         9           Zn1 tau(   9) = (  -0.0000058   3.1375684  14.5877872  )
        10           Zn1 tau(  10) = (   1.3579268   0.7855659  14.5877834  )
        11           Zn1 tau(  11) = (   4.0792251   0.7855641  14.5877991  )
        12           Rh1 tau(  12) = (   2.7185793   3.1391421  14.2498581  )

     number of k points=    20  Fermi-Dirac smearing, width (Ry)=  0.0110
                       cart. coord. in units 2pi/alat
        k(    1) = (   0.0000000   0.0000000   0.0000000), wk =   0.0555556
        k(    2) = (   0.0000000   0.0353953   0.0000000), wk =   0.1111111
        k(    3) = (   0.0000000   0.0707907   0.0000000), wk =   0.1111111
        k(    4) = (   0.0000000  -0.1061860   0.0000000), wk =   0.0555556
        k(    5) = (   0.0306533   0.0176977   0.0000000), wk =   0.1111111
        k(    6) = (   0.0306533   0.0530930   0.0000000), wk =   0.1111111
        k(    7) = (   0.0306533   0.0884884   0.0000000), wk =   0.1111111
        k(    8) = (   0.0306533  -0.0884884   0.0000000), wk =   0.1111111
        k(    9) = (   0.0306533  -0.0530930   0.0000000), wk =   0.1111111
        k(   10) = (   0.0306533  -0.0176977   0.0000000), wk =   0.1111111
        k(   11) = (   0.0613065   0.0353953   0.0000000), wk =   0.1111111
        k(   12) = (   0.0613065   0.0707907   0.0000000), wk =   0.1111111
        k(   13) = (   0.0613065   0.1061860   0.0000000), wk =   0.1111111
        k(   14) = (   0.0613065  -0.0707907   0.0000000), wk =   0.1111111
        k(   15) = (   0.0613065  -0.0353953   0.0000000), wk =   0.1111111
        k(   16) = (   0.0613065  -0.0000000   0.0000000), wk =   0.1111111
        k(   17) = (  -0.0919598  -0.0530930   0.0000000), wk =   0.0555556
        k(   18) = (  -0.0919598  -0.0176977   0.0000000), wk =   0.1111111
        k(   19) = (  -0.0919598   0.0176977   0.0000000), wk =   0.1111111
        k(   20) = (  -0.0919598  -0.1592791   0.0000000), wk =   0.0555556

     Largest allocated arrays     est. size (Mb)     dimensions
     Largest temporary arrays     est. size (Mb)     dimensions

     Initial potential from superposition of free atoms
     Check: negative starting charge=   -0.163964

     starting charge  223.49844, renormalised to  225.00000

[...]

     *
     * You are using vdW-DF for exchange-correlation in this calculation.
     * Please cite the following three references that made this development
     * possible:
     *
     *   M. Dion, H. Rydberg, E. Schroder, D. C. Langreth, and
     *   B. I. Lundqvist, Phys. Rev. Lett. 92, 246401 (2004).
     *
     *   T. Thonhauser, V. R. Cooper, S. Li, A. Puzder, P. Hyldgaard, and
     *   D. C. Langreth, Phys. Rev. B 76, 125112 (2007).
     *
     *   G. Roman-Perez and J. M. Soler, Phys. Rev. Lett. 103, 096102 (2009).
     *
     *
     * If you are using vdW-DF2, please also cite:
     *
     *   K. Lee, E. D. Murray, L. Kong, B. I. Lundqvist, and
     *   D. C. Langreth, Phys. Rev. B 82, 081101(R) (2010).
     *
     *
     * If you are calculating the stress with vdW-DF, please also cite:
     *
     *   R. Sabatini, E. Kucukbenli, B. Kolb, T. Thonhauser, and
     *   S. de Gironcoli, J. Phys.: Condens. Matter 24, 424209 (2012).
     *

     Carrying out vdW-DF run using the following parameters:

     Nqs =      20    Nr_points =    1024   r_max =   100.000
     q_mesh =
               0.00001000     0.04494208     0.09755937     0.15916263
               0.23128650     0.31572767     0.41458969     0.53033537
               0.66584808     0.82450364     1.01025438     1.22772762
               1.48234092     1.78043706     2.12944203     2.53805004
               3.01644009     3.57652955     4.23227104     5.00000000

     Gradients computed in reciprocal space

[...]

     Starting wfc are  153 randomized atomic wfcs

     Self-consistent Calculation

[...]

     total energy              =   -4681.80523816 Ry
     Harris-Foulkes estimate   =   -4681.80523754 Ry
     estimated scf accuracy    <       0.00000270 Ry

     iteration # 16     ecut=    36.75 Ry     beta=0.10
     Davidson diagonalization with overlap
     ethr =  1.20E-09,  avg # of iterations =  2.0

[...]

     negative rho (up, down):  1.672E-01 0.000E+00

     Adding external electric field

     Computed dipole along edir(3) :
        Dipole                0.0108 Ry au,          0.0276 Debye
        Dipole field          0.0000 Ry au

        Potential amp.       -0.0029 Ry
        Total length         45.0292 bohr

     End of self-consistent calculation

[...]

          k = 0.0613-0.0000 0.0000 ( 15888 PWs)   bands (ev):

[...]

          k =-0.0920-0.1593 0.0000 ( 15928 PWs)   bands (ev):

  -125.7733-125.7729-125.7724-125.5628-125.5624-125.5619-125.5030-125.5025
  -125.5020 -80.0042 -80.0002 -79.9965 -79.9416 -79.9394 -79.9371 -79.9176
   -79.9155 -79.9131 -79.7838 -79.7801 -79.7770 -79.7411 -79.7385 -79.7358
   -79.7211 -79.7169 -79.7132 -79.7064 -79.7045 -79.7020 -79.6869 -79.6850
   -79.6829 -79.6445 -79.6425 -79.6401 -45.2475 -45.2472 -45.1840 -45.1835
   -45.1590 -45.1073 -45.0552 -45.0549 -44.9562  -7.4428  -7.1874  -7.1462
    -7.0801  -7.0152  -6.9700  -6.9650  -6.9423  -6.9423  -6.9150  -6.8971
    -6.8887  -6.8529  -6.8083  -6.7172  -6.7008  -6.6935  -6.6656  -6.6387
    -6.5810  -6.5630  -6.5468  -6.5224  -6.5159  -6.5040  -6.5028  -6.4724
    -6.4567  -6.4541  -6.4195  -6.4039  -6.4008  -6.3970  -6.3863  -6.3595
    -6.3587  -6.3432  -6.2870  -6.2420  -6.2336  -6.1915  -6.1791  -6.1559
    -6.0825  -6.0606  -6.0303  -5.9840  -4.8571  -4.3104  -3.5862  -2.7261
    -2.4728  -2.3697  -2.0383  -1.8260  -1.6538  -1.5019  -1.2626  -1.1954
    -1.1939  -1.0962  -0.8079  -0.6487  -0.5150  -0.3085   0.3394   0.6552
     0.7058   0.9425   1.3629   2.4849   2.6089   2.8278   3.2100   5.2528
     5.2601   5.4779   5.7572   5.7850   6.0474   6.1090   6.1855   6.3724
     6.4194   6.9172   6.9961   7.0914   7.2055   7.6187   7.8401   7.9083
     7.9663   8.0301   8.0839   8.3060   8.5425   8.9425

     the Fermi energy is     0.7996 ev

!    total energy              =   -4681.80524204 Ry
     Harris-Foulkes estimate   =   -4681.80523837 Ry
     estimated scf accuracy    <       0.00000037 Ry

     The total energy is the sum of the following terms:

     one-electron contribution =  -32219.43857140 Ry
     hartree contribution      =   16106.90462862 Ry
     xc contribution           =    -484.12357977 Ry
     ewald contribution        =   11914.88400249 Ry
     electric field correction =       0.00000035 Ry
     smearing contrib. (-TS)   =      -0.03172232 Ry

     convergence has been achieved in  16 iterations

 BEEF-vdW xc energy contributions
           1 :   -428.633710720863
           2 :    389.613592140353
           3 :   -323.747707607402
           4 :    249.611382251803
           5 :   -184.071283872871
           6 :    136.118432824782
           7 :   -105.412567954470
           8 :    85.4800824357536
           9 :   -69.0409906988405
          10 :    52.1766460474176
          11 :   -35.3090131605743
          12 :    21.2183363971744
          13 :   -12.0747845644122
          14 :    7.65541871194182
          15 :   -5.69137578770267
          16 :    3.65743327394051
          17 :  -0.451774610849270
          18 :   -3.23055937739156
          19 :    5.88358587310620
          20 :   -6.59712701138568
          21 :    5.77768048725670
          22 :   -4.74238806460988
          23 :    4.64222838442902
          24 :   -5.62217927701965
          25 :    6.84099883642352
          26 :   -7.25143639122450
          27 :    6.46544510857535
          28 :   -5.02685592759872
          29 :    3.92835955221602
          30 :   -3.80796951004231
          31 :   -34.8180456524622
          32 :   -24.3083416665983

     Forces acting on atoms (Ry/au):

     negative rho (up, down):  1.672E-01 0.000E+00
     atom    1 type  1   force =     0.00000067   -0.00071077   -0.01785441
     atom    2 type  1   force =    -0.00061586    0.00035584   -0.01785382
     atom    3 type  1   force =     0.00061556    0.00035496   -0.01785396
     atom    4 type  2   force =     0.00000009   -0.00000001    0.05245990
     atom    5 type  1   force =    -0.00000019   -0.01168516   -0.00451342
     atom    6 type  1   force =    -0.01011988    0.00584212   -0.00451285
     atom    7 type  1   force =     0.01012025    0.00584257   -0.00451356
     atom    8 type  2   force =    -0.00000019   -0.00000009    0.01165923
     atom    9 type  1   force =     0.00000039    0.00035968    0.00127649
     atom   10 type  1   force =     0.00031136   -0.00017922    0.00127688
     atom   11 type  1   force =    -0.00031141   -0.00017947    0.00127633
     atom   12 type  2   force =    -0.00000078   -0.00000045   -0.00084680

     Total force =     0.065746     Total SCF correction =     0.003382

     entering subroutine stress ...

     negative rho (up, down):  1.672E-01 0.000E+00
          total   stress  (Ry/bohr**3)                   (kbar)     P=  -24.80
  -0.00020915   0.00000000   0.00000000        -30.77      0.00      0.00
   0.00000000  -0.00020915   0.00000000          0.00    -30.77      0.00
   0.00000000   0.00000000  -0.00008750          0.00      0.00    -12.87

 !ASE

     Writing output data file calc.save

     General routines

     Parallel routines

   This run was terminated on:  18:52: 9   2Jan2019

   JOB DONE.
Job  /afs/slac/g/suncat/bin/suncat-tsmpirun -x LD_LIBRARY_PATH -wdir /scratch/qe649504_iYJYX pw.x -in pw.inp

TID   HOST_NAME   COMMAND_LINE            STATUS            TERMINATION_TIME
00000 suncat0047 pw.x -in pw.inp   Done                     01/02/2019 18:52:09
00001 suncat0047 pw.x -in pw.inp   Done                     01/02/2019 18:52:09
00002 suncat0047 pw.x -in pw.inp   Done                     01/02/2019 18:52:09
00003 suncat0047 pw.x -in pw.inp   Done                     01/02/2019 18:52:09
00004 suncat0047 pw.x -in pw.inp   Done                     01/02/2019 18:52:09
00005 suncat0047 pw.x -in pw.inp   Done                     01/02/2019 18:52:09
00006 suncat0047 pw.x -in pw.inp   Done                     01/02/2019 18:52:09
00007 suncat0047 pw.x -in pw.inp   Done                     01/02/2019 18:52:09
00008 suncat0141 pw.x -in pw.inp   Done                     01/02/2019 18:52:09
00009 suncat0141 pw.x -in pw.inp   Done                     01/02/2019 18:52:09
00010 suncat0141 pw.x -in pw.inp   Done                     01/02/2019 18:52:09
00011 suncat0141 pw.x -in pw.inp   Done                     01/02/2019 18:52:09
00012 suncat0141 pw.x -in pw.inp   Done                     01/02/2019 18:52:09
00013 suncat0141 pw.x -in pw.inp   Done                     01/02/2019 18:52:09
00014 suncat0141 pw.x -in pw.inp   Done                     01/02/2019 18:52:09
00015 suncat0141 pw.x -in pw.inp   Done                     01/02/2019 18:52:09
00016 suncat0140 pw.x -in pw.inp   Done                     01/02/2019 18:52:09
00017 suncat0140 pw.x -in pw.inp   Done                     01/02/2019 18:52:09
00018 suncat0140 pw.x -in pw.inp   Done                     01/02/2019 18:52:09
00019 suncat0140 pw.x -in pw.inp   Done                     01/02/2019 18:52:09
00020 suncat0140 pw.x -in pw.inp   Done                     01/02/2019 18:52:09
00021 suncat0140 pw.x -in pw.inp   Done                     01/02/2019 18:52:09
00022 suncat0140 pw.x -in pw.inp   Done                     01/02/2019 18:52:09
00023 suncat0140 pw.x -in pw.inp   Done                     01/02/2019 18:52:09
00024 suncat0135 pw.x -in pw.inp   Done                     01/02/2019 18:52:09
00025 suncat0135 pw.x -in pw.inp   Done                     01/02/2019 18:52:09
00026 suncat0135 pw.x -in pw.inp   Done                     01/02/2019 18:52:09
00027 suncat0135 pw.x -in pw.inp   Done                     01/02/2019 18:52:09
00028 suncat0135 pw.x -in pw.inp   Done                     01/02/2019 18:52:09
00029 suncat0135 pw.x -in pw.inp   Done                     01/02/2019 18:52:09
00030 suncat0135 pw.x -in pw.inp   Done                     01/02/2019 18:52:09
00031 suncat0135 pw.x -in pw.inp   Done                     01/02/2019 18:52:09
00032 suncat0134 pw.x -in pw.inp   Done                     01/02/2019 18:52:09
00033 suncat0134 pw.x -in pw.inp   Done                     01/02/2019 18:52:09
00034 suncat0134 pw.x -in pw.inp   Done                     01/02/2019 18:52:09
00035 suncat0134 pw.x -in pw.inp   Done                     01/02/2019 18:52:09
00036 suncat0134 pw.x -in pw.inp   Done                     01/02/2019 18:52:09
00037 suncat0134 pw.x -in pw.inp   Done                     01/02/2019 18:52:09
00038 suncat0134 pw.x -in pw.inp   Done                     01/02/2019 18:52:09
00039 suncat0134 pw.x -in pw.inp   Done                     01/02/2019 18:52:09
00040 suncat0121 pw.x -in pw.inp   Done                     01/02/2019 18:52:09
00041 suncat0121 pw.x -in pw.inp   Done                     01/02/2019 18:52:09
00042 suncat0121 pw.x -in pw.inp   Done                     01/02/2019 18:52:09
00043 suncat0121 pw.x -in pw.inp   Done                     01/02/2019 18:52:09
00044 suncat0121 pw.x -in pw.inp   Done                     01/02/2019 18:52:09
00045 suncat0121 pw.x -in pw.inp   Done                     01/02/2019 18:52:09
00046 suncat0121 pw.x -in pw.inp   Done                     01/02/2019 18:52:09
00047 suncat0121 pw.x -in pw.inp   Done                     01/02/2019 18:52:09
00048 suncat0115 pw.x -in pw.inp   Done                     01/02/2019 18:52:09
00049 suncat0115 pw.x -in pw.inp   Done                     01/02/2019 18:52:09
00050 suncat0115 pw.x -in pw.inp   Done                     01/02/2019 18:52:09
00051 suncat0115 pw.x -in pw.inp   Done                     01/02/2019 18:52:09
00052 suncat0115 pw.x -in pw.inp   Done                     01/02/2019 18:52:09
00053 suncat0115 pw.x -in pw.inp   Done                     01/02/2019 18:52:09
00054 suncat0115 pw.x -in pw.inp   Done                     01/02/2019 18:52:09
00055 suncat0115 pw.x -in pw.inp   Done                     01/02/2019 18:52:09
00056 suncat0272 pw.x -in pw.inp   Done                     01/02/2019 18:52:09
00057 suncat0272 pw.x -in pw.inp   Done                     01/02/2019 18:52:09
00058 suncat0272 pw.x -in pw.inp   Done                     01/02/2019 18:52:09
00059 suncat0272 pw.x -in pw.inp   Done                     01/02/2019 18:52:09
00060 suncat0272 pw.x -in pw.inp   Done                     01/02/2019 18:52:09
00061 suncat0272 pw.x -in pw.inp   Done                     01/02/2019 18:52:09
00062 suncat0272 pw.x -in pw.inp   Done                     01/02/2019 18:52:09
00063 suncat0272 pw.x -in pw.inp   Done                     01/02/2019 18:52:09