     Program PWSCF v.5.1rc2 (svn rev. 11289) starts on 31Dec2018 at 11:24:27

     Current dimensions of program PWSCF are:
     Max number of different atomic species (ntypx) = 10
     Max number of k-points (npk) =  40000
     Max angular momentum in pseudopotentials (lmaxx) =  3
     Presently stress not available with electric field

     IMPORTANT: XC functional enforced from input :
     Exchange-correlation      = BEEF-VDW ( 1  4 27 13 2)
     Any further DFT definition will be discarded
     Please, verify this is what you really want

     Subspace diagonalization in iterative solution of the eigenvalue problem:
     a serial algorithm will be used

     bravais-lattice index     =            0
     lattice parameter (alat)  =       1.8897  a.u.
     unit-cell volume          =    4761.6038 (a.u.)^3
     number of atoms/cell      =           12
     number of atomic types    =            2
     number of electrons       =       180.00
     number of Kohn-Sham states=          120
     kinetic-energy cutoff     =      36.7493  Ry
     charge density cutoff     =     367.4932  Ry
     convergence threshold     =      1.0E-06
     mixing beta               =       0.1000
     number of iterations used =           10  plain     mixing
     Exchange-correlation      = BEEF-VDW ( 1  4 27 13 2)
     nstep                     =           50

     celldm(1)=   1.889726  celldm(2)=   0.000000  celldm(3)=   0.000000
     celldm(4)=   0.000000  celldm(5)=   0.000000  celldm(6)=   0.000000

     crystal axes: (cart. coord. in units of alat)
               a(1) = (   5.744464   0.000000   0.000000 )
               a(2) = (  -2.872232   4.974852   0.000000 )
               a(3) = (   0.000000   0.000000  24.690335 )

     reciprocal axes: (cart. coord. in units 2 pi/alat)
               b(1) = (  0.174081  0.100506  0.000000 )
               b(2) = (  0.000000  0.201011  0.000000 )
               b(3) = (  0.000000  0.000000  0.040502 )

     PseudoPot. # 1 for Pd read from file:
     /afs/slac.stanford.edu/u/if/mamunm/psp/gbrv1.5pbe/Pd.UPF
     MD5 check sum: 2d733d2bc2cbfd217af676df1668a4bc
     Pseudo is Ultrasoft + core correction, Zval = 16.0
     Generated by new atomic code, or converted to UPF format
     Using radial grid of  887 points,  6 beta functions with:
                l(1) =   0
                l(2) =   0
                l(3) =   1
                l(4) =   1
                l(5) =   2
                l(6) =   2
     Q(r) pseudized with  8 coefficients,  rinner =    1.130   1.130   1.130
                                                       1.130   1.130

     PseudoPot. # 2 for Cd read from file:
     /afs/slac.stanford.edu/u/if/mamunm/psp/gbrv1.5pbe/Cd.UPF
     MD5 check sum: 17164a7926edb8e0dc231208abae86a6
     Pseudo is Ultrasoft + core correction, Zval = 12.0
     Generated by new atomic code, or converted to UPF format
     Using radial grid of  889 points,  6 beta functions with:
                l(1) =   0
                l(2) =   0
                l(3) =   1
                l(4) =   1
                l(5) =   2
                l(6) =   2
     Q(r) pseudized with  6 coefficients,  rinner =    1.000   1.000   1.000
                                                       1.000   1.000

     vdW kernel table read from file vdW_kernel_table
     MD5 check sum: 095c7af220d748ca6e76c0b4c6cfb241

     atomic species   valence    mass     pseudopotential
        Pd1           16.00   106.42000     Pd( 1.00)
        Cd1           12.00   112.41400     Cd( 1.00)

     No symmetry found

   Cartesian axes

     site n.     atom                  positions (alat units)
         1           Pd1 tau(   1) = (   0.0000000   0.0000000  10.0000000  )
         2           Pd1 tau(   2) = (  -1.4361160   2.4874259  10.0000000  )
         3           Pd1 tau(   3) = (   1.4361160   2.4874259  10.0000000  )
         4           Cd1 tau(   4) = (   2.8722320   0.0000000  10.0000000  )
         5           Pd1 tau(   5) = (   2.8722320   1.6582839  12.3451676  )
         6           Pd1 tau(   6) = (   1.4361160   4.1457098  12.3451676  )
         7           Pd1 tau(   7) = (  -1.4361160   4.1457098  12.3451676  )
         8           Cd1 tau(   8) = (   0.0000000   1.6582839  12.3451676  )
         9           Pd1 tau(   9) = (  -0.0000000   3.3165679  14.6903353  )
        10           Pd1 tau(  10) = (   1.4361160   0.8291420  14.6903353  )
        11           Pd1 tau(  11) = (   4.3083480   0.8291420  14.6903353  )
        12           Cd1 tau(  12) = (   2.8722320   3.3165679  14.6903353  )

     number of k points=    20  Fermi-Dirac smearing, width (Ry)=  0.0110
                       cart. coord. in units 2pi/alat
        k(    1) = (   0.0000000   0.0000000   0.0000000), wk =   0.0555556
        k(    2) = (   0.0000000   0.0335018   0.0000000), wk =   0.1111111
        k(    3) = (   0.0000000   0.0670037   0.0000000), wk =   0.1111111
        k(    4) = (   0.0000000  -0.1005055   0.0000000), wk =   0.0555556
        k(    5) = (   0.0290134   0.0167509   0.0000000), wk =   0.1111111
        k(    6) = (   0.0290134   0.0502528   0.0000000), wk =   0.1111111
        k(    7) = (   0.0290134   0.0837546   0.0000000), wk =   0.1111111
        k(    8) = (   0.0290134  -0.0837546   0.0000000), wk =   0.1111111
        k(    9) = (   0.0290134  -0.0502528   0.0000000), wk =   0.1111111
        k(   10) = (   0.0290134  -0.0167509   0.0000000), wk =   0.1111111
        k(   11) = (   0.0580269   0.0335018   0.0000000), wk =   0.1111111
        k(   12) = (   0.0580269   0.0670037   0.0000000), wk =   0.1111111
        k(   13) = (   0.0580269   0.1005055   0.0000000), wk =   0.1111111
        k(   14) = (   0.0580269  -0.0670037   0.0000000), wk =   0.1111111
        k(   15) = (   0.0580269  -0.0335018   0.0000000), wk =   0.1111111
        k(   16) = (   0.0580269   0.0000000   0.0000000), wk =   0.1111111
        k(   17) = (  -0.0870403  -0.0502528   0.0000000), wk =   0.0555556
        k(   18) = (  -0.0870403  -0.0167509   0.0000000), wk =   0.1111111
        k(   19) = (  -0.0870403   0.0167509   0.0000000), wk =   0.1111111
        k(   20) = (  -0.0870403  -0.1507583   0.0000000), wk =   0.0555556

     Largest allocated arrays     est. size (Mb)     dimensions
     Largest temporary arrays     est. size (Mb)     dimensions

     Initial potential from superposition of free atoms
     Check: negative starting charge=   -0.749631

     starting charge  173.99981, renormalised to  180.00000

     negative rho (up, down):  7.755E-01 0.000E+00

     *
     * You are using vdW-DF for exchange-correlation in this calculation.
     * Please cite the following three references that made this development
     * possible:
     *
     *   M. Dion, H. Rydberg, E. Schroder, D. C. Langreth, and
     *   B. I. Lundqvist, Phys. Rev. Lett. 92, 246401 (2004).
     *
     *   T. Thonhauser, V. R. Cooper, S. Li, A. Puzder, P. Hyldgaard, and
     *   D. C. Langreth, Phys. Rev. B 76, 125112 (2007).
     *
     *   G. Roman-Perez and J. M. Soler, Phys. Rev. Lett. 103, 096102 (2009).
     *
     *
     * If you are using vdW-DF2, please also cite:
     *
     *   K. Lee, E. D. Murray, L. Kong, B. I. Lundqvist, and
     *   D. C. Langreth, Phys. Rev. B 82, 081101(R) (2010).
     *
     *
     * If you are calculating the stress with vdW-DF, please also cite:
     *
     *   R. Sabatini, E. Kucukbenli, B. Kolb, T. Thonhauser, and
     *   S. de Gironcoli, J. Phys.: Condens. Matter 24, 424209 (2012).
     *

     Carrying out vdW-DF run using the following parameters:

     Nqs =      20    Nr_points =    1024   r_max =   100.000
     q_mesh =
               0.00001000     0.04494208     0.09755937     0.15916263
               0.23128650     0.31572767     0.41458969     0.53033537
               0.66584808     0.82450364     1.01025438     1.22772762
               1.48234092     1.78043706     2.12944203     2.53805004
               3.01644009     3.57652955     4.23227104     5.00000000

     Gradients computed in reciprocal space

     Adding external electric field

     Computed dipole along edir(3) :
        Dipole               -0.0000 Ry au,         -0.0000 Debye
        Dipole field         -0.0000 Ry au

        Potential amp.        0.0000 Ry
        Total length         45.4915 bohr

     Starting wfc are  135 randomized atomic wfcs

     Self-consistent Calculation

     iteration #  1     ecut=    36.75 Ry     beta=0.10
     Davidson diagonalization with overlap
     ethr =  1.00E-02,  avg # of iterations =  7.2

[...]

     total energy              =   -2145.71412962 Ry
     Harris-Foulkes estimate   =   -2150.33751986 Ry
     estimated scf accuracy    <      27.40850309 Ry

[...]

     End of self-consistent calculation

          k = 0.0000 0.0000 0.0000 ( 17959 PWs)   bands (ev):

   -48.8857 -48.8448 -48.8447 -48.8138 -48.7968 -48.7967 -48.7604 -48.7110
   -48.7109 -48.6892 -48.6834 -48.6622 -48.6622 -48.6477 -48.6477 -48.5820
   -48.5796 -48.5197 -48.5196 -48.5192 -48.5192 -48.4747 -48.4619 -48.4563
   -48.4563 -48.4498 -48.4497  -7.6008  -7.6008  -7.5630  -7.5630  -7.5605
    -7.5161  -7.5161  -7.4866  -7.4815  -7.4812  -7.4812  -7.3796  -7.3795
    -7.2962  -7.2962  -5.6972  -4.1848  -4.0504  -3.3173  -2.9147  -2.8201
    -2.4464  -2.3802  -2.3802  -2.3020  -2.3020  -2.0481  -2.0480  -2.0285
    -2.0285  -2.0143  -1.5619  -1.5619  -1.4024  -1.4024  -1.2378  -1.1508
    -1.0499  -0.7891  -0.7613  -0.7613  -0.6424  -0.6423  -0.3440  -0.3439
    -0.2991  -0.2206  -0.2206  -0.1076  -0.1076  -0.0091  -0.0091   0.1106
     0.1106   0.2460   0.2460   0.4308   0.4484   0.6105   0.6106   0.7438
     0.9049   0.9468   1.6354   1.9192   1.9192   2.5931   3.1609   3.1610
     3.2789   3.4614   3.5052   3.5052   4.8939   5.2248   5.4389   5.6885
     5.9316   6.6270   6.6270   6.6284   6.8669   7.0113   7.0113   7.3815
     7.8212   7.8213   8.8963   9.2652   9.5584   9.7034   9.7034  10.0000

[...]

          k =-0.0870-0.0503 0.0000 ( 17876 PWs)   bands (ev):

[...]

     the Fermi energy is     0.7805 ev

!    total energy              =   -2146.49588657 Ry
     Harris-Foulkes estimate   =   -2146.49695085 Ry
     estimated scf accuracy    <       0.00000048 Ry

     The total energy is the sum of the following terms:

     one-electron contribution =  -16909.64968204 Ry
     hartree contribution      =    8516.39232777 Ry
     xc contribution           =    -415.46719456 Ry
     ewald contribution        =    6662.29160731 Ry
     electric field correction =       0.00000000 Ry
     smearing contrib. (-TS)   =      -0.06294506 Ry

     convergence has been achieved in  16 iterations

 BEEF-vdW xc energy contributions
           1 :   -362.428972265641
           2 :    331.335601397326
           3 :   -278.461989639418
           4 :    218.294104542195
           5 :   -164.665016498782
           6 :    126.038616045705
           7 :   -103.733322320790
           8 :    93.3375444144018
           9 :   -88.1412425733658
          10 :    82.6756147776421
          11 :   -74.7369243230459
          12 :    65.2860051608045
          13 :   -56.7858779739702
[...]
     /afs/slac.stanford.edu/u/if/mamunm/psp/gbrv1.5pbe/Pd.UPF
     MD5 check sum: 2d733d2bc2cbfd217af676df1668a4bc
     Pseudo is Ultrasoft + core correction, Zval = 16.0
     Generated by new atomic code, or converted to UPF format
     Using radial grid of  887 points,  6 beta functions with:
                l(1) =   0
                l(2) =   0
                l(3) =   1
                l(4) =   1
                l(5) =   2
                l(6) =   2
     Q(r) pseudized with  8 coefficients,  rinner =    1.130   1.130   1.130
                                                       1.130   1.130

     PseudoPot. # 2 for Cd read from file:
     /afs/slac.stanford.edu/u/if/mamunm/psp/gbrv1.5pbe/Cd.UPF
     MD5 check sum: 17164a7926edb8e0dc231208abae86a6
     Pseudo is Ultrasoft + core correction, Zval = 12.0
     Generated by new atomic code, or converted to UPF format
     Using radial grid of  889 points,  6 beta functions with:
                l(1) =   0
                l(2) =   0
                l(3) =   1
                l(4) =   1
                l(5) =   2
                l(6) =   2
     Q(r) pseudized with  6 coefficients,  rinner =    1.000   1.000   1.000
                                                       1.000   1.000

     vdW kernel table read from file vdW_kernel_table
     MD5 check sum: 095c7af220d748ca6e76c0b4c6cfb241

     atomic species   valence    mass     pseudopotential
        Pd1           16.00   106.42000     Pd( 1.00)
        Cd1           12.00   112.41400     Cd( 1.00)

     No symmetry found

   Cartesian axes

     site n.     atom                  positions (alat units)
         1           Pd1 tau(   1) = (   0.0000000   0.0000000  10.0000000  )
         2           Pd1 tau(   2) = (  -1.4361160   2.4874259  10.0000000  )
         3           Pd1 tau(   3) = (   1.4361160   2.4874259  10.0000000  )
         4           Cd1 tau(   4) = (   2.8722320   0.0000000  10.0000000  )
         5           Pd1 tau(   5) = (   2.8722320   1.6582839  12.3451676  )
         6           Pd1 tau(   6) = (   1.4361160   4.1457098  12.3451676  )
         7           Pd1 tau(   7) = (  -1.4361160   4.1457098  12.3451676  )
         8           Cd1 tau(   8) = (   0.0000000   1.6582839  12.3451676  )
         9           Pd1 tau(   9) = (   0.0000026   3.3207471  14.6637547  )
        10           Pd1 tau(  10) = (   1.4397535   0.8270594  14.6637709  )
        11           Pd1 tau(  11) = (   4.3047140   0.8270599  14.6637738  )
        12           Cd1 tau(  12) = (   2.8722384   3.3166072  14.8056836  )

     number of k points=    20  Fermi-Dirac smearing, width (Ry)=  0.0110
                       cart. coord. in units 2pi/alat
        k(    1) = (   0.0000000   0.0000000   0.0000000), wk =   0.0555556
        k(    2) = (   0.0000000   0.0335018   0.0000000), wk =   0.1111111
        k(    3) = (   0.0000000   0.0670037   0.0000000), wk =   0.1111111
        k(    4) = (   0.0000000  -0.1005055   0.0000000), wk =   0.0555556
        k(    5) = (   0.0290134   0.0167509   0.0000000), wk =   0.1111111
        k(    6) = (   0.0290134   0.0502528   0.0000000), wk =   0.1111111
        k(    7) = (   0.0290134   0.0837546   0.0000000), wk =   0.1111111
        k(    8) = (   0.0290134  -0.0837546   0.0000000), wk =   0.1111111
        k(    9) = (   0.0290134  -0.0502528   0.0000000), wk =   0.1111111
        k(   10) = (   0.0290134  -0.0167509   0.0000000), wk =   0.1111111
        k(   11) = (   0.0580269   0.0335018   0.0000000), wk =   0.1111111
        k(   12) = (   0.0580269   0.0670037   0.0000000), wk =   0.1111111
        k(   13) = (   0.0580269   0.1005055   0.0000000), wk =   0.1111111
        k(   14) = (   0.0580269  -0.0670037   0.0000000), wk =   0.1111111
        k(   15) = (   0.0580269  -0.0335018   0.0000000), wk =   0.1111111
        k(   16) = (   0.0580269   0.0000000   0.0000000), wk =   0.1111111
        k(   17) = (  -0.0870403  -0.0502528   0.0000000), wk =   0.0555556
        k(   18) = (  -0.0870403  -0.0167509   0.0000000), wk =   0.1111111
        k(   19) = (  -0.0870403   0.0167509   0.0000000), wk =   0.1111111
        k(   20) = (  -0.0870403  -0.1507583   0.0000000), wk =   0.0555556

     Largest allocated arrays     est. size (Mb)     dimensions
     Largest temporary arrays     est. size (Mb)     dimensions

     Initial potential from superposition of free atoms
     Check: negative starting charge=   -0.745199

     starting charge  173.99981, renormalised to  180.00000

[...]

     *
     * You are using vdW-DF for exchange-correlation in this calculation.
     * Please cite the following three references that made this development
     * possible:
     *
     *   M. Dion, H. Rydberg, E. Schroder, D. C. Langreth, and
     *   B. I. Lundqvist, Phys. Rev. Lett. 92, 246401 (2004).
     *
     *   T. Thonhauser, V. R. Cooper, S. Li, A. Puzder, P. Hyldgaard, and
     *   D. C. Langreth, Phys. Rev. B 76, 125112 (2007).
     *
     *   G. Roman-Perez and J. M. Soler, Phys. Rev. Lett. 103, 096102 (2009).
     *
     *
     * If you are using vdW-DF2, please also cite:
     *
     *   K. Lee, E. D. Murray, L. Kong, B. I. Lundqvist, and
     *   D. C. Langreth, Phys. Rev. B 82, 081101(R) (2010).
     *
     *
     * If you are calculating the stress with vdW-DF, please also cite:
     *
     *   R. Sabatini, E. Kucukbenli, B. Kolb, T. Thonhauser, and
     *   S. de Gironcoli, J. Phys.: Condens. Matter 24, 424209 (2012).
     *

     Carrying out vdW-DF run using the following parameters:

     Nqs =      20    Nr_points =    1024   r_max =   100.000
     q_mesh =
               0.00001000     0.04494208     0.09755937     0.15916263
               0.23128650     0.31572767     0.41458969     0.53033537
               0.66584808     0.82450364     1.01025438     1.22772762
               1.48234092     1.78043706     2.12944203     2.53805004
               3.01644009     3.57652955     4.23227104     5.00000000

     Gradients computed in reciprocal space

[...]

     Starting wfc are  135 randomized atomic wfcs

     Self-consistent Calculation

[...]

     total energy              =   -2146.49996587 Ry
     Harris-Foulkes estimate   =   -2146.49996555 Ry
     estimated scf accuracy    <       0.00000131 Ry

     iteration # 17     ecut=    36.75 Ry     beta=0.10
     Davidson diagonalization with overlap
     ethr =  7.30E-10,  avg # of iterations =  2.2

[...]

     negative rho (up, down):  7.735E-01 0.000E+00

     Adding external electric field

     Computed dipole along edir(3) :
        Dipole                0.0098 Ry au,          0.0249 Debye
        Dipole field          0.0000 Ry au

        Potential amp.       -0.0023 Ry
        Total length         45.4915 bohr

     End of self-consistent calculation

[...]

          k = 0.0580 0.0000 0.0000 ( 17923 PWs)   bands (ev):

[...]

          k =-0.0870-0.1508 0.0000 ( 17876 PWs)   bands (ev):

   -48.8438 -48.7959 -48.7946 -48.7908 -48.7896 -48.7838 -48.7804 -48.7668
   -48.7045 -48.6710 -48.6527 -48.6281 -48.6214 -48.6173 -48.6103 -48.6049
   -48.5998 -48.5944 -48.5775 -48.5347 -48.5178 -48.4779 -48.4737 -48.4679
   -48.4538 -48.4474 -48.4434  -7.5153  -7.4862  -7.4751  -7.4566  -7.4247
    -7.4216  -7.4179  -7.4061  -7.3956  -7.3746  -7.3741  -7.3687  -7.3589
    -7.3484  -7.2550  -4.2311  -4.0376  -3.2202  -2.9922  -2.7716  -2.7534
    -2.5453  -2.2578  -2.2370  -2.1458  -2.1092  -1.9865  -1.9528  -1.9389
    -1.8587  -1.8092  -1.7531  -1.5719  -1.5001  -1.3888  -1.3058  -1.2332
    -1.1571  -1.1208  -1.0140  -1.0026  -0.9783  -0.9571  -0.9395  -0.8956
    -0.8366  -0.7681  -0.6325  -0.5506  -0.4817  -0.4640  -0.4478  -0.3989
    -0.3792  -0.2752  -0.2219  -0.2064  -0.0354  -0.0231   0.1244   0.2950
     0.3045   0.5376   0.7940   1.6000   2.1122   2.1767   2.6615   3.0481
     3.3821   4.2609   4.5417   5.1696   5.2199   6.2963   6.3261   6.9079
     6.9282   7.0507   7.0746   7.4901   7.8439   8.1244   8.1569   8.1759
     8.3945   8.5106   8.6368   8.6773   8.7139   9.1207   9.2799   9.6583

     the Fermi energy is     0.7903 ev

!    total energy              =   -2146.49996227 Ry
     Harris-Foulkes estimate   =   -2146.49996607 Ry
     estimated scf accuracy    <       0.00000021 Ry

     The total energy is the sum of the following terms:

     one-electron contribution =  -16904.03127172 Ry
     hartree contribution      =    8513.61862390 Ry
     xc contribution           =    -415.45202792 Ry
     ewald contribution        =    6659.42795478 Ry
     electric field correction =       0.00000025 Ry
     smearing contrib. (-TS)   =      -0.06324156 Ry

     convergence has been achieved in  17 iterations

 BEEF-vdW xc energy contributions
           1 :   -362.482132953262
           2 :    331.383470944504
           3 :   -278.502416363591
           4 :    218.330386674585
           5 :   -164.704557571293
           6 :    126.087576142217
           7 :   -103.791813451256
           8 :    93.3995930846102
           9 :   -88.1997674516577
          10 :    82.7281308699002
          11 :   -74.7872530255694
          12 :    65.3409900623936
          13 :   -56.8496515659420
          14 :    51.2768361179538
          15 :   -48.9107928630556
          16 :    48.4515955733343
          17 :   -48.0281264218705
          18 :    46.3588370194819
          19 :   -43.3515769963456
          20 :    39.8928166620009
          21 :   -37.0995824361814
          22 :    35.5716389680143
          23 :   -35.0895648947722
          24 :    34.8650920633461
          25 :   -34.1092566711134
          26 :    32.5256245768553
          27 :   -30.4348503841511
          28 :    28.4955179608396
          29 :   -27.2409947511933
          30 :    26.7423293731305
          31 :   -34.4391342989726
          32 :   -25.3521577090174

     Forces acting on atoms (Ry/au):

     negative rho (up, down):  7.735E-01 0.000E+00
     atom    1 type  1   force =     0.00000083   -0.00121772    0.00347464
     atom    2 type  1   force =    -0.00105446    0.00060847    0.00347455
     atom    3 type  1   force =     0.00105444    0.00060873    0.00347438
     atom    4 type  2   force =    -0.00000004    0.00000090   -0.01347007
     atom    5 type  1   force =     0.00000063    0.00438983    0.00160464
     atom    6 type  1   force =     0.00380139   -0.00219344    0.00160399
     atom    7 type  1   force =    -0.00380005   -0.00219347    0.00160337
     atom    8 type  2   force =    -0.00000199   -0.00000298   -0.00373743
     atom    9 type  1   force =     0.00000098   -0.00026612    0.00031998
     atom   10 type  1   force =    -0.00023253    0.00013571    0.00031705
     atom   11 type  1   force =     0.00023339    0.00013379    0.00031625
     atom   12 type  2   force =    -0.00000260   -0.00000370    0.00101864

     Total force =     0.017411     Total SCF correction =     0.001552

     entering subroutine stress ...

     negative rho (up, down):  7.735E-01 0.000E+00
          total   stress  (Ry/bohr**3)                   (kbar)     P=   -8.72
  -0.00008121   0.00000000  -0.00000000        -11.95      0.00     -0.00
   0.00000000  -0.00008121  -0.00000000          0.00    -11.95     -0.00
  -0.00000000  -0.00000000  -0.00001542         -0.00     -0.00     -2.27

 !ASE

     Writing output data file calc.save

     General routines

     Parallel routines

   This run was terminated on:  12:41: 3  31Dec2018

   JOB DONE.
Job  /afs/slac/g/suncat/bin/suncat-tsmpirun -x LD_LIBRARY_PATH -wdir /scratch/qe648751_1PTcG pw.x -in pw.inp

TID   HOST_NAME   COMMAND_LINE            STATUS            TERMINATION_TIME
00000 suncat0146 pw.x -in pw.inp   Done                     12/31/2018 12:41:03
00001 suncat0146 pw.x -in pw.inp   Done                     12/31/2018 12:41:03
00002 suncat0146 pw.x -in pw.inp   Done                     12/31/2018 12:41:03
00003 suncat0146 pw.x -in pw.inp   Done                     12/31/2018 12:41:03
00004 suncat0146 pw.x -in pw.inp   Done                     12/31/2018 12:41:03
00005 suncat0146 pw.x -in pw.inp   Done                     12/31/2018 12:41:03
00006 suncat0146 pw.x -in pw.inp   Done                     12/31/2018 12:41:03
00007 suncat0146 pw.x -in pw.inp   Done                     12/31/2018 12:41:03
00008 suncat0136 pw.x -in pw.inp   Done                     12/31/2018 12:41:03
00009 suncat0136 pw.x -in pw.inp   Done                     12/31/2018 12:41:03
00010 suncat0136 pw.x -in pw.inp   Done                     12/31/2018 12:41:03
00011 suncat0136 pw.x -in pw.inp   Done                     12/31/2018 12:41:03
00012 suncat0136 pw.x -in pw.inp   Done                     12/31/2018 12:41:03
00013 suncat0136 pw.x -in pw.inp   Done                     12/31/2018 12:41:03
00014 suncat0136 pw.x -in pw.inp   Done                     12/31/2018 12:41:03
00015 suncat0136 pw.x -in pw.inp   Done                     12/31/2018 12:41:03
00016 suncat0248 pw.x -in pw.inp   Done                     12/31/2018 12:41:03
00017 suncat0248 pw.x -in pw.inp   Done                     12/31/2018 12:41:03
00018 suncat0248 pw.x -in pw.inp   Done                     12/31/2018 12:41:03
00019 suncat0248 pw.x -in pw.inp   Done                     12/31/2018 12:41:03
00020 suncat0248 pw.x -in pw.inp   Done                     12/31/2018 12:41:03
00021 suncat0248 pw.x -in pw.inp   Done                     12/31/2018 12:41:03
00022 suncat0248 pw.x -in pw.inp   Done                     12/31/2018 12:41:03
00023 suncat0248 pw.x -in pw.inp   Done                     12/31/2018 12:41:03
00024 suncat0247 pw.x -in pw.inp   Done                     12/31/2018 12:41:03
00025 suncat0247 pw.x -in pw.inp   Done                     12/31/2018 12:41:03
00026 suncat0247 pw.x -in pw.inp   Done                     12/31/2018 12:41:03
00027 suncat0247 pw.x -in pw.inp   Done                     12/31/2018 12:41:03
00028 suncat0247 pw.x -in pw.inp   Done                     12/31/2018 12:41:03
00029 suncat0247 pw.x -in pw.inp   Done                     12/31/2018 12:41:03
00030 suncat0247 pw.x -in pw.inp   Done                     12/31/2018 12:41:03
00031 suncat0247 pw.x -in pw.inp   Done                     12/31/2018 12:41:03
00032 suncat0246 pw.x -in pw.inp   Done                     12/31/2018 12:41:03
00033 suncat0246 pw.x -in pw.inp   Done                     12/31/2018 12:41:03
00034 suncat0246 pw.x -in pw.inp   Done                     12/31/2018 12:41:03
00035 suncat0246 pw.x -in pw.inp   Done                     12/31/2018 12:41:03
00036 suncat0246 pw.x -in pw.inp   Done                     12/31/2018 12:41:03
00037 suncat0246 pw.x -in pw.inp   Done                     12/31/2018 12:41:03
00038 suncat0246 pw.x -in pw.inp   Done                     12/31/2018 12:41:03
00039 suncat0246 pw.x -in pw.inp   Done                     12/31/2018 12:41:03
00040 suncat0245 pw.x -in pw.inp   Done                     12/31/2018 12:41:03
00041 suncat0245 pw.x -in pw.inp   Done                     12/31/2018 12:41:03
00042 suncat0245 pw.x -in pw.inp   Done                     12/31/2018 12:41:03
00043 suncat0245 pw.x -in pw.inp   Done                     12/31/2018 12:41:03
00044 suncat0245 pw.x -in pw.inp   Done                     12/31/2018 12:41:03
00045 suncat0245 pw.x -in pw.inp   Done                     12/31/2018 12:41:03
00046 suncat0245 pw.x -in pw.inp   Done                     12/31/2018 12:41:03
00047 suncat0245 pw.x -in pw.inp   Done                     12/31/2018 12:41:03
00048 suncat0214 pw.x -in pw.inp   Done                     12/31/2018 12:41:03
00049 suncat0214 pw.x -in pw.inp   Done                     12/31/2018 12:41:03
00050 suncat0214 pw.x -in pw.inp   Done                     12/31/2018 12:41:03
00051 suncat0214 pw.x -in pw.inp   Done                     12/31/2018 12:41:03
00052 suncat0214 pw.x -in pw.inp   Done                     12/31/2018 12:41:03
00053 suncat0214 pw.x -in pw.inp   Done                     12/31/2018 12:41:03
00054 suncat0214 pw.x -in pw.inp   Done                     12/31/2018 12:41:03
00055 suncat0214 pw.x -in pw.inp   Done                     12/31/2018 12:41:03
00056 suncat0213 pw.x -in pw.inp   Done                     12/31/2018 12:41:03
00057 suncat0213 pw.x -in pw.inp   Done                     12/31/2018 12:41:03
00058 suncat0213 pw.x -in pw.inp   Done                     12/31/2018 12:41:03
00059 suncat0213 pw.x -in pw.inp   Done                     12/31/2018 12:41:03
00060 suncat0213 pw.x -in pw.inp   Done                     12/31/2018 12:41:03
00061 suncat0213 pw.x -in pw.inp   Done                     12/31/2018 12:41:03
00062 suncat0213 pw.x -in pw.inp   Done                     12/31/2018 12:41:03
00063 suncat0213 pw.x -in pw.inp   Done                     12/31/2018 12:41:03