     Program PWSCF v.5.1rc2 (svn rev. 11289) starts on 25Dec2018 at  9:36:57

     Current dimensions of program PWSCF are:
     Max number of different atomic species (ntypx) = 10
     Max number of k-points (npk) =  40000
     Max angular momentum in pseudopotentials (lmaxx) =  3
     Presently stress not available with electric field

     IMPORTANT: XC functional enforced from input :
     Exchange-correlation      = BEEF-VDW ( 1  4 27 13 2)
     Any further DFT definition will be discarded
     Please, verify this is what you really want

     Subspace diagonalization in iterative solution of the eigenvalue problem:
     a serial algorithm will be used

     Generating pointlists ...
     new r_m :   0.4125 (alat units)  0.7795 (a.u.) for type    1
     new r_m :   0.4125 (alat units)  0.7795 (a.u.) for type    2

     bravais-lattice index     =            0
     lattice parameter (alat)  =       1.8897  a.u.
     unit-cell volume          =    3948.0718 (a.u.)^3
     number of atoms/cell      =           12
     number of atomic types    =            2
     number of electrons       =       189.00
     number of Kohn-Sham states=          124
     kinetic-energy cutoff     =      36.7493  Ry
     charge density cutoff     =     367.4932  Ry
     convergence threshold     =      1.0E-06
     mixing beta               =       0.1000
     number of iterations used =           10  plain     mixing
     Exchange-correlation      = BEEF-VDW ( 1  4 27 13 2)
     nstep                     =           50

     celldm(1)=   1.889726  celldm(2)=   0.000000  celldm(3)=   0.000000
     celldm(4)=   0.000000  celldm(5)=   0.000000  celldm(6)=   0.000000

     crystal axes: (cart. coord. in units of alat)
               a(1) = (   5.272106   0.000000   0.000000 )
               a(2) = (  -2.636053   4.565778   0.000000 )
               a(3) = (   0.000000   0.000000  24.304657 )

     reciprocal axes: (cart. coord. in units 2 pi/alat)
               b(1) = (  0.189678  0.109510  0.000000 )
               b(2) = (  0.000000  0.219021  0.000000 )
               b(3) = (  0.000000  0.000000  0.041144 )

     PseudoPot. # 1 for Co read from file:
     /afs/slac.stanford.edu/u/if/mamunm/psp/gbrv1.5pbe/Co.UPF
     MD5 check sum: 5f91765df6ddd3222702df6e7b74a16d
     Pseudo is Ultrasoft + core correction, Zval = 17.0
     Generated by new atomic code, or converted to UPF format
     Using radial grid of  863 points,  6 beta functions with:
                l(1) =   0
                l(2) =   0
                l(3) =   1
                l(4) =   1
                l(5) =   2
                l(6) =   2
     Q(r) pseudized with  8 coefficients,  rinner =    1.200   1.200   1.200
                                                       1.200   1.200

     PseudoPot. # 2 for Zr read from file:
     /afs/slac.stanford.edu/u/if/mamunm/psp/gbrv1.5pbe/Zr.UPF
     MD5 check sum: 5db81b1e868ab7776c4564c113de050b
     Pseudo is Ultrasoft + core correction, Zval = 12.0
     Generated by new atomic code, or converted to UPF format
     Using radial grid of  887 points,  6 beta functions with:
                l(1) =   0
                l(2) =   0
                l(3) =   1
                l(4) =   1
                l(5) =   2
                l(6) =   2
     Q(r) pseudized with  6 coefficients,  rinner =    1.200   1.200   1.200
                                                       1.200   1.200

     vdW kernel table read from file vdW_kernel_table
     MD5 check sum: 095c7af220d748ca6e76c0b4c6cfb241

     atomic species   valence    mass     pseudopotential
        Co1           17.00    58.93319     Co( 1.00)
        Zr1           12.00    91.22400     Zr( 1.00)

     Starting magnetic structure
     atomic species   magnetization
        Co1          0.118
        Zr1          0.167

     No symmetry found

   Cartesian axes

     site n.     atom                  positions (alat units)
         1           Co1 tau(   1) = (   0.0000000   0.0000000  10.0000000  )
         2           Co1 tau(   2) = (  -1.3180266   2.2828890  10.0000000  )
         3           Co1 tau(   3) = (   1.3180266   2.2828890  10.0000000  )
         4           Zr1 tau(   4) = (   2.6360531   0.0000000  10.0000000  )
         5           Co1 tau(   5) = (   2.6360531   1.5219260  12.1523284  )
         6           Co1 tau(   6) = (   1.3180266   3.8048150  12.1523284  )
         7           Co1 tau(   7) = (  -1.3180266   3.8048150  12.1523284  )
         8           Zr1 tau(   8) = (   0.0000000   1.5219260  12.1523284  )
         9           Co1 tau(   9) = (  -0.0000000   3.0438520  14.3046568  )
        10           Co1 tau(  10) = (   1.3180266   0.7609630  14.3046568  )
        11           Co1 tau(  11) = (   3.9540797   0.7609630  14.3046568  )
        12           Zr1 tau(  12) = (   2.6360531   3.0438520  14.3046568  )

     number of k points=    40  Fermi-Dirac smearing, width (Ry)=  0.0110
                       cart. coord. in units 2pi/alat
        k(    1) = (   0.0000000   0.0000000   0.0000000), wk =   0.0277778
        k(    2) = (   0.0000000   0.0365035   0.0000000), wk =   0.0555556
        k(    3) = (   0.0000000   0.0730069   0.0000000), wk =   0.0555556
        k(    4) = (   0.0000000  -0.1095104   0.0000000), wk =   0.0277778
        k(    5) = (   0.0316129   0.0182517   0.0000000), wk =   0.0555556
        k(    6) = (   0.0316129   0.0547552   0.0000000), wk =   0.0555556
        k(    7) = (   0.0316129   0.0912586   0.0000000), wk =   0.0555556
        k(    8) = (   0.0316129  -0.0912586   0.0000000), wk =   0.0555556
        k(    9) = (   0.0316129  -0.0547552   0.0000000), wk =   0.0555556
        k(   10) = (   0.0316129  -0.0182517   0.0000000), wk =   0.0555556
        k(   11) = (   0.0632258   0.0365035   0.0000000), wk =   0.0555556
        k(   12) = (   0.0632258   0.0730069   0.0000000), wk =   0.0555556
        k(   13) = (   0.0632258   0.1095104   0.0000000), wk =   0.0555556
        k(   14) = (   0.0632258  -0.0730069   0.0000000), wk =   0.0555556
        k(   15) = (   0.0632258  -0.0365035   0.0000000), wk =   0.0555556
        k(   16) = (   0.0632258   0.0000000   0.0000000), wk =   0.0555556
        k(   17) = (  -0.0948388  -0.0547552   0.0000000), wk =   0.0277778
        k(   18) = (  -0.0948388  -0.0182517   0.0000000), wk =   0.0555556
        k(   19) = (  -0.0948388   0.0182517   0.0000000), wk =   0.0555556
        k(   20) = (  -0.0948388  -0.1642655   0.0000000), wk =   0.0277778
        k(   21) = (   0.0000000   0.0000000   0.0000000), wk =   0.0277778
        k(   22) = (   0.0000000   0.0365035   0.0000000), wk =   0.0555556
        k(   23) = (   0.0000000   0.0730069   0.0000000), wk =   0.0555556
        k(   24) = (   0.0000000  -0.1095104   0.0000000), wk =   0.0277778
        k(   25) = (   0.0316129   0.0182517   0.0000000), wk =   0.0555556
        k(   26) = (   0.0316129   0.0547552   0.0000000), wk =   0.0555556
        k(   27) = (   0.0316129   0.0912586   0.0000000), wk =   0.0555556
        k(   28) = (   0.0316129  -0.0912586   0.0000000), wk =   0.0555556
        k(   29) = (   0.0316129  -0.0547552   0.0000000), wk =   0.0555556
        k(   30) = (   0.0316129  -0.0182517   0.0000000), wk =   0.0555556
        k(   31) = (   0.0632258   0.0365035   0.0000000), wk =   0.0555556
        k(   32) = (   0.0632258   0.0730069   0.0000000), wk =   0.0555556
        k(   33) = (   0.0632258   0.1095104   0.0000000), wk =   0.0555556
        k(   34) = (   0.0632258  -0.0730069   0.0000000), wk =   0.0555556
        k(   35) = (   0.0632258  -0.0365035   0.0000000), wk =   0.0555556
        k(   36) = (   0.0632258   0.0000000   0.0000000), wk =   0.0555556
        k(   37) = (  -0.0948388  -0.0547552   0.0000000), wk =   0.0277778
        k(   38) = (  -0.0948388  -0.0182517   0.0000000), wk =   0.0555556
        k(   39) = (  -0.0948388   0.0182517   0.0000000), wk =   0.0555556
        k(   40) = (  -0.0948388  -0.1642655   0.0000000), wk =   0.0277778

     Largest allocated arrays     est. size (Mb)     dimensions
     Largest temporary arrays     est. size (Mb)     dimensions

     Check: negative/imaginary core charge=   -0.000005    0.000000

     Initial potential from superposition of free atoms
     Check: negative starting charge=(component1):   -0.106562
     Check: negative starting charge=(component2):   -0.076081

     starting charge  179.99349, renormalised to  189.00000

     negative rho (up, down):  1.119E-01 7.989E-02

     *
     * You are using vdW-DF for exchange-correlation in this calculation.
     * Please cite the following three references that made this development
     * possible:
     *
     *   M. Dion, H. Rydberg, E. Schroder, D. C. Langreth, and
     *   B. I. Lundqvist, Phys. Rev. Lett. 92, 246401 (2004).
     *
     *   T. Thonhauser, V. R. Cooper, S. Li, A. Puzder, P. Hyldgaard, and
     *   D. C. Langreth, Phys. Rev. B 76, 125112 (2007).
     *
     *   G. Roman-Perez and J. M. Soler, Phys. Rev. Lett. 103, 096102 (2009).
     *
     *
     * If you are using vdW-DF2, please also cite:
     *
     *   K. Lee, E. D. Murray, L. Kong, B. I. Lundqvist, and
     *   D. C. Langreth, Phys. Rev. B 82, 081101(R) (2010).
     *
     *
     * If you are calculating the stress with vdW-DF, please also cite:
     *
     *   R. Sabatini, E. Kucukbenli, B. Kolb, T. Thonhauser, and
     *   S. de Gironcoli, J. Phys.: Condens. Matter 24, 424209 (2012).
     *

     Carrying out vdW-DF run using the following parameters:

     Nqs =      20    Nr_points =    1024   r_max =   100.000
     q_mesh =
               0.00001000     0.04494208     0.09755937     0.15916263
               0.23128650     0.31572767     0.41458969     0.53033537
               0.66584808     0.82450364     1.01025438     1.22772762
               1.48234092     1.78043706     2.12944203     2.53805004
               3.01644009     3.57652955     4.23227104     5.00000000

     Gradients computed in reciprocal space

     Adding external electric field

     Computed dipole along edir(3) :
        Dipole                0.0000 Ry au,          0.0000 Debye
        Dipole field          0.0000 Ry au

        Potential amp.       -0.0000 Ry
        Total length         44.7809 bohr

[...]

     Starting wfc are  156 randomized atomic wfcs

     Self-consistent Calculation

     iteration #  1     ecut=    36.75 Ry     beta=0.10
     Davidson diagonalization with overlap
     ethr =  1.00E-02,  avg # of iterations =  7.6

[...]

     Magnetic moment per site:
     atom:    1    charge:    8.4236    magn:    0.9631    constr:    0.0000
     atom:    2    charge:    8.4236    magn:    0.9631    constr:    0.0000
     atom:    3    charge:    8.4236    magn:    0.9631    constr:    0.0000
     atom:    4    charge:    1.1757    magn:    0.1771    constr:    0.0000
     atom:    5    charge:    8.4407    magn:    0.9616    constr:    0.0000
     atom:    6    charge:    8.4407    magn:    0.9616    constr:    0.0000
     atom:    7    charge:    8.4407    magn:    0.9616    constr:    0.0000
     atom:    8    charge:    1.1775    magn:    0.1769    constr:    0.0000
[...]
        k(    3) = (   0.0000000   0.0730069   0.0000000), wk =   0.0555556
        k(    4) = (   0.0000000  -0.1095104   0.0000000), wk =   0.0277778
        k(    5) = (   0.0316129   0.0182517   0.0000000), wk =   0.0555556
        k(    6) = (   0.0316129   0.0547552   0.0000000), wk =   0.0555556
        k(    7) = (   0.0316129   0.0912586   0.0000000), wk =   0.0555556
        k(    8) = (   0.0316129  -0.0912586   0.0000000), wk =   0.0555556
        k(    9) = (   0.0316129  -0.0547552   0.0000000), wk =   0.0555556
        k(   10) = (   0.0316129  -0.0182517   0.0000000), wk =   0.0555556
        k(   11) = (   0.0632258   0.0365035   0.0000000), wk =   0.0555556
        k(   12) = (   0.0632258   0.0730069   0.0000000), wk =   0.0555556
        k(   13) = (   0.0632258   0.1095104   0.0000000), wk =   0.0555556
        k(   14) = (   0.0632258  -0.0730069   0.0000000), wk =   0.0555556
        k(   15) = (   0.0632258  -0.0365035   0.0000000), wk =   0.0555556
        k(   16) = (   0.0632258   0.0000000   0.0000000), wk =   0.0555556
        k(   17) = (  -0.0948388  -0.0547552   0.0000000), wk =   0.0277778
        k(   18) = (  -0.0948388  -0.0182517   0.0000000), wk =   0.0555556
        k(   19) = (  -0.0948388   0.0182517   0.0000000), wk =   0.0555556
        k(   20) = (  -0.0948388  -0.1642655   0.0000000), wk =   0.0277778
        k(   21) = (   0.0000000   0.0000000   0.0000000), wk =   0.0277778
        k(   22) = (   0.0000000   0.0365035   0.0000000), wk =   0.0555556
        k(   23) = (   0.0000000   0.0730069   0.0000000), wk =   0.0555556
        k(   24) = (   0.0000000  -0.1095104   0.0000000), wk =   0.0277778
        k(   25) = (   0.0316129   0.0182517   0.0000000), wk =   0.0555556
        k(   26) = (   0.0316129   0.0547552   0.0000000), wk =   0.0555556
        k(   27) = (   0.0316129   0.0912586   0.0000000), wk =   0.0555556
        k(   28) = (   0.0316129  -0.0912586   0.0000000), wk =   0.0555556
        k(   29) = (   0.0316129  -0.0547552   0.0000000), wk =   0.0555556
        k(   30) = (   0.0316129  -0.0182517   0.0000000), wk =   0.0555556
        k(   31) = (   0.0632258   0.0365035   0.0000000), wk =   0.0555556
        k(   32) = (   0.0632258   0.0730069   0.0000000), wk =   0.0555556
        k(   33) = (   0.0632258   0.1095104   0.0000000), wk =   0.0555556
        k(   34) = (   0.0632258  -0.0730069   0.0000000), wk =   0.0555556
        k(   35) = (   0.0632258  -0.0365035   0.0000000), wk =   0.0555556
        k(   36) = (   0.0632258   0.0000000   0.0000000), wk =   0.0555556
        k(   37) = (  -0.0948388  -0.0547552   0.0000000), wk =   0.0277778
        k(   38) = (  -0.0948388  -0.0182517   0.0000000), wk =   0.0555556
        k(   39) = (  -0.0948388   0.0182517   0.0000000), wk =   0.0555556
        k(   40) = (  -0.0948388  -0.1642655   0.0000000), wk =   0.0277778

     Largest allocated arrays     est. size (Mb)     dimensions
     Largest temporary arrays     est. size (Mb)     dimensions

     Check: negative/imaginary core charge=   -0.000005    0.000000

     Initial potential from superposition of free atoms
     Check: negative starting charge=(component1):   -0.106620
     Check: negative starting charge=(component2):   -0.076123

     starting charge  179.99349, renormalised to  189.00000

[...]

     *
     * You are using vdW-DF for exchange-correlation in this calculation.
     * Please cite the following three references that made this development
     * possible:
     *
     *   M. Dion, H. Rydberg, E. Schroder, D. C. Langreth, and
     *   B. I. Lundqvist, Phys. Rev. Lett. 92, 246401 (2004).
     *
     *   T. Thonhauser, V. R. Cooper, S. Li, A. Puzder, P. Hyldgaard, and
     *   D. C. Langreth, Phys. Rev. B 76, 125112 (2007).
     *
     *   G. Roman-Perez and J. M. Soler, Phys. Rev. Lett. 103, 096102 (2009).
     *
     *
     * If you are using vdW-DF2, please also cite:
     *
     *   K. Lee, E. D. Murray, L. Kong, B. I. Lundqvist, and
     *   D. C. Langreth, Phys. Rev. B 82, 081101(R) (2010).
     *
     *
     * If you are calculating the stress with vdW-DF, please also cite:
     *
     *   R. Sabatini, E. Kucukbenli, B. Kolb, T. Thonhauser, and
     *   S. de Gironcoli, J. Phys.: Condens. Matter 24, 424209 (2012).
     *

     Carrying out vdW-DF run using the following parameters:

     Nqs =      20    Nr_points =    1024   r_max =   100.000
     q_mesh =
               0.00001000     0.04494208     0.09755937     0.15916263
               0.23128650     0.31572767     0.41458969     0.53033537
               0.66584808     0.82450364     1.01025438     1.22772762
               1.48234092     1.78043706     2.12944203     2.53805004
               3.01644009     3.57652955     4.23227104     5.00000000

     Gradients computed in reciprocal space

[...]

     Starting wfc are  156 randomized atomic wfcs

     Self-consistent Calculation

[...]

     total energy              =   -2995.05280263 Ry
     Harris-Foulkes estimate   =   -2995.05280229 Ry
     estimated scf accuracy    <       0.00000149 Ry

[...]

     iteration # 37     ecut=    36.75 Ry     beta=0.10
     Davidson diagonalization with overlap
     ethr =  7.87E-10,  avg # of iterations =  1.0

[...]

     negative rho (up, down):  9.553E-02 9.289E-02

[...]

     Adding external electric field

     Computed dipole along edir(3) :
        Dipole                0.0321 Ry au,          0.0816 Debye
        Dipole field          0.0001 Ry au

        Potential amp.       -0.0092 Ry
        Total length         44.7809 bohr

     Magnetic moment per site:
     atom:    1    charge:    8.2941    magn:    0.7076    constr:    0.0000
     atom:    2    charge:    8.2939    magn:    0.7077    constr:    0.0000
     atom:    3    charge:    8.2942    magn:    0.7075    constr:    0.0000
     atom:    4    charge:    1.1138    magn:   -0.0158    constr:    0.0000
     atom:    5    charge:    8.2859    magn:    0.6173    constr:    0.0000
     atom:    6    charge:    8.2859    magn:    0.6174    constr:    0.0000
     atom:    7    charge:    8.2858    magn:    0.6174    constr:    0.0000
     atom:    8    charge:    1.1156    magn:   -0.0144    constr:    0.0000
     atom:    9    charge:    8.2883    magn:    0.7001    constr:    0.0000
     atom:   10    charge:    8.2884    magn:    0.7001    constr:    0.0000
     atom:   11    charge:    8.2882    magn:    0.7002    constr:    0.0000
     atom:   12    charge:    1.1084    magn:   -0.0152    constr:    0.0000

     End of self-consistent calculation

 ------ SPIN UP ------------

[...]

 ------ SPIN DOWN ----------

[...]

          k = 0.0632 0.0000 0.0000 ( 14857 PWs)   bands (ev):

[...]

          k =-0.0948-0.1643 0.0000 ( 14834 PWs)   bands (ev):

   -92.7484 -92.7440 -92.7395 -92.5270 -92.5182 -92.5150 -92.4899 -92.4853
   -92.4812 -56.1577 -56.1338 -56.1210 -56.1172 -56.1021 -56.0858 -56.0421
   -56.0228 -55.9919 -55.9531 -55.9364 -55.9182 -55.9137 -55.8973 -55.8853
   -55.8816 -55.8317 -55.8303 -55.8244 -55.8215 -55.8101 -55.8044 -55.7948
   -55.7926 -55.7844 -55.7830 -55.7535 -47.8347 -47.7163 -47.2498 -25.9567
   -25.8595 -25.8454 -25.8425 -25.7640 -25.7472 -25.3905 -25.3739 -25.3312
    -3.8262  -3.7540  -2.6293  -2.1330  -1.8568  -1.7265  -1.6812  -1.4970
    -1.0547  -1.0358  -1.0294  -0.7033  -0.6698  -0.6235  -0.5752  -0.5205
    -0.2956  -0.2823  -0.2109  -0.1616  -0.0864  -0.0601   0.1401   0.2664
     0.2890   0.3678   0.3736   0.4427   0.4719   0.4843   0.5643   0.6309
     0.6634   0.6825   0.7352   0.7928   0.8672   0.8970   1.0449   1.1027
     1.1099   1.1651   1.2550   1.3352   1.4194   1.4989   1.6540   1.6715
     1.7469   1.8280   2.0503   2.2358   2.2992   2.3999   3.0232   3.1324
     3.2539   3.3053   3.4867   3.5416   3.5816   3.7403   3.9672   4.0048
     4.0767   4.7654   5.2348   5.9258   6.1997   6.4682   6.8767   6.9802
     7.0432   7.1832   7.5872   7.6527

     the Fermi energy is     1.3709 ev

!    total energy              =   -2995.05280375 Ry
     Harris-Foulkes estimate   =   -2995.05280239 Ry
     estimated scf accuracy    <       0.00000060 Ry

     The total energy is the sum of the following terms:

     one-electron contribution =  -23873.74933913 Ry
     hartree contribution      =   11944.09900279 Ry
     xc contribution           =    -359.40773031 Ry
     ewald contribution        =    9294.08954695 Ry
     electric field correction =       0.00000328 Ry
     smearing contrib. (-TS)   =      -0.08428734 Ry

     total magnetization       =     9.26 Bohr mag/cell
     absolute magnetization    =    13.45 Bohr mag/cell

     convergence has been achieved in  37 iterations

 BEEF-vdW xc energy contributions
           1 :   -315.293999979325
           2 :    285.939992002147
           3 :   -235.891343240286
           4 :    178.497963561354
           5 :   -126.224938120877
           6 :    86.2608437440598
           7 :   -59.2283567466429
           8 :    41.0478207614284
           9 :   -26.4748066709055
          10 :    12.2180235165310
          11 :    1.83594535701462
          12 :   -13.5319648923237
          13 :    20.5093753678804
          14 :   -22.0013401962252
          15 :    19.3421275709102
          16 :   -15.1114728487723
          17 :    11.6449599256389
          18 :   -9.91404192744665
          19 :    9.37723315805658
          20 :   -8.74565586304459
          21 :    7.04826650403368
          22 :   -4.30455679849439
          23 :    1.43674583415645
          24 :   0.410278321083865
          25 :  -0.637373990423669
          26 :  -0.462302631857597
          27 :    1.94777339982886
          28 :   -2.85505629602329
          29 :    2.76392120502828
          30 :   -1.96492237370586
          31 :   -28.1577056379865
          32 :   -19.8284996250421

     Forces acting on atoms (Ry/au):

     negative rho (up, down):  9.553E-02 9.289E-02
     atom    1 type  1   force =     0.00000146   -0.01354388    0.00560829
     atom    2 type  1   force =    -0.01172015    0.00679166    0.00560082
     atom    3 type  1   force =     0.01170124    0.00677893    0.00558799
     atom    4 type  2   force =    -0.00000648    0.00001121   -0.01678834
     atom    5 type  1   force =     0.00008059    0.00497128    0.00230038
     atom    6 type  1   force =     0.00430365   -0.00243012    0.00233521
     atom    7 type  1   force =    -0.00431704   -0.00252983    0.00223510
     atom    8 type  2   force =     0.00003436   -0.00000371   -0.00209860
     atom    9 type  1   force =    -0.00006739   -0.00103804   -0.00132310
     atom   10 type  1   force =    -0.00091101    0.00047743   -0.00134425
     atom   11 type  1   force =     0.00088710    0.00054131   -0.00129713
     atom   12 type  2   force =     0.00001366   -0.00002624   -0.00081638

     Total force =     0.032080     Total SCF correction =     0.002837

     entering subroutine stress ...

     negative rho (up, down):  9.553E-02 9.289E-02
          total   stress  (Ry/bohr**3)                   (kbar)     P=  -10.96
  -0.00009581   0.00000002  -0.00000002        -14.09      0.00     -0.00
   0.00000002  -0.00009580  -0.00000001          0.00    -14.09     -0.00
  -0.00000002  -0.00000001  -0.00003198         -0.00     -0.00     -4.71

 !ASE

     Writing output data file calc.save

     General routines

     Parallel routines

   This run was terminated on:  14:16:46  25Dec2018

   JOB DONE.
Job  /afs/slac/g/suncat/bin/suncat-tsmpirun -x LD_LIBRARY_PATH -wdir /scratch/qe109492_8SfbW pw.x -in pw.inp

TID   HOST_NAME   COMMAND_LINE            STATUS            TERMINATION_TIME
00000 suncat0042 pw.x -in pw.inp   Done                     12/25/2018 14:16:46
00001 suncat0042 pw.x -in pw.inp   Done                     12/25/2018 14:16:46
00002 suncat0042 pw.x -in pw.inp   Done                     12/25/2018 14:16:46
00003 suncat0042 pw.x -in pw.inp   Done                     12/25/2018 14:16:46
00004 suncat0042 pw.x -in pw.inp   Done                     12/25/2018 14:16:46
00005 suncat0042 pw.x -in pw.inp   Done                     12/25/2018 14:16:46
00006 suncat0042 pw.x -in pw.inp   Done                     12/25/2018 14:16:46
00007 suncat0042 pw.x -in pw.inp   Done                     12/25/2018 14:16:46
00008 suncat0020 pw.x -in pw.inp   Done                     12/25/2018 14:16:46
00009 suncat0020 pw.x -in pw.inp   Done                     12/25/2018 14:16:46
00010 suncat0020 pw.x -in pw.inp   Done                     12/25/2018 14:16:46
00011 suncat0020 pw.x -in pw.inp   Done                     12/25/2018 14:16:46
00012 suncat0020 pw.x -in pw.inp   Done                     12/25/2018 14:16:46
00013 suncat0020 pw.x -in pw.inp   Done                     12/25/2018 14:16:46
00014 suncat0020 pw.x -in pw.inp   Done                     12/25/2018 14:16:46
00015 suncat0020 pw.x -in pw.inp   Done                     12/25/2018 14:16:46
00016 suncat0196 pw.x -in pw.inp   Done                     12/25/2018 14:16:46
00017 suncat0196 pw.x -in pw.inp   Done                     12/25/2018 14:16:46
00018 suncat0196 pw.x -in pw.inp   Done                     12/25/2018 14:16:46
00019 suncat0196 pw.x -in pw.inp   Done                     12/25/2018 14:16:46
00020 suncat0196 pw.x -in pw.inp   Done                     12/25/2018 14:16:46
00021 suncat0196 pw.x -in pw.inp   Done                     12/25/2018 14:16:46
00022 suncat0196 pw.x -in pw.inp   Done                     12/25/2018 14:16:46
00023 suncat0196 pw.x -in pw.inp   Done                     12/25/2018 14:16:46
00024 suncat0194 pw.x -in pw.inp   Done                     12/25/2018 14:16:46
00025 suncat0194 pw.x -in pw.inp   Done                     12/25/2018 14:16:46
00026 suncat0194 pw.x -in pw.inp   Done                     12/25/2018 14:16:46
00027 suncat0194 pw.x -in pw.inp   Done                     12/25/2018 14:16:46
00028 suncat0194 pw.x -in pw.inp   Done                     12/25/2018 14:16:46
00029 suncat0194 pw.x -in pw.inp   Done                     12/25/2018 14:16:46
00030 suncat0194 pw.x -in pw.inp   Done                     12/25/2018 14:16:46
00031 suncat0194 pw.x -in pw.inp   Done                     12/25/2018 14:16:46
00032 suncat0121 pw.x -in pw.inp   Done                     12/25/2018 14:16:46
00033 suncat0121 pw.x -in pw.inp   Done                     12/25/2018 14:16:46
00034 suncat0121 pw.x -in pw.inp   Done                     12/25/2018 14:16:46
00035 suncat0121 pw.x -in pw.inp   Done                     12/25/2018 14:16:46
00036 suncat0121 pw.x -in pw.inp   Done                     12/25/2018 14:16:46
00037 suncat0121 pw.x -in pw.inp   Done                     12/25/2018 14:16:46
00038 suncat0121 pw.x -in pw.inp   Done                     12/25/2018 14:16:46
00039 suncat0121 pw.x -in pw.inp   Done                     12/25/2018 14:16:46
00040 suncat0115 pw.x -in pw.inp   Done                     12/25/2018 14:16:46
00041 suncat0115 pw.x -in pw.inp   Done                     12/25/2018 14:16:46
00042 suncat0115 pw.x -in pw.inp   Done                     12/25/2018 14:16:46
00043 suncat0115 pw.x -in pw.inp   Done                     12/25/2018 14:16:46
00044 suncat0115 pw.x -in pw.inp   Done                     12/25/2018 14:16:46
00045 suncat0115 pw.x -in pw.inp   Done                     12/25/2018 14:16:46
00046 suncat0115 pw.x -in pw.inp   Done                     12/25/2018 14:16:46
00047 suncat0115 pw.x -in pw.inp   Done                     12/25/2018 14:16:46
00048 suncat0228 pw.x -in pw.inp   Done                     12/25/2018 14:16:46
00049 suncat0228 pw.x -in pw.inp   Done                     12/25/2018 14:16:46
00050 suncat0228 pw.x -in pw.inp   Done                     12/25/2018 14:16:46
00051 suncat0228 pw.x -in pw.inp   Done                     12/25/2018 14:16:46
00052 suncat0228 pw.x -in pw.inp   Done                     12/25/2018 14:16:46
00053 suncat0228 pw.x -in pw.inp   Done                     12/25/2018 14:16:46
00054 suncat0228 pw.x -in pw.inp   Done                     12/25/2018 14:16:46
00055 suncat0228 pw.x -in pw.inp   Done                     12/25/2018 14:16:46
00056 suncat0227 pw.x -in pw.inp   Done                     12/25/2018 14:16:46
00057 suncat0227 pw.x -in pw.inp   Done                     12/25/2018 14:16:46
00058 suncat0227 pw.x -in pw.inp   Done                     12/25/2018 14:16:46
00059 suncat0227 pw.x -in pw.inp   Done                     12/25/2018 14:16:46
00060 suncat0227 pw.x -in pw.inp   Done                     12/25/2018 14:16:46
00061 suncat0227 pw.x -in pw.inp   Done                     12/25/2018 14:16:46
00062 suncat0227 pw.x -in pw.inp   Done                     12/25/2018 14:16:46
00063 suncat0227 pw.x -in pw.inp   Done                     12/25/2018 14:16:46