     Program PWSCF v.5.1rc2 (svn rev. 11289) starts on 30Dec2018 at 22:50: 4

     Current dimensions of program PWSCF are:
     Max number of different atomic species (ntypx) = 10
     Max number of k-points (npk) =  40000
     Max angular momentum in pseudopotentials (lmaxx) =  3
     Presently stress not available with electric field

     IMPORTANT: XC functional enforced from input :
     Exchange-correlation      = BEEF-VDW ( 1  4 27 13 2)
     Any further DFT definition will be discarded
     Please, verify this is what you really want

     Subspace diagonalization in iterative solution of the eigenvalue problem:
     a serial algorithm will be used

     Generating pointlists ...
     new r_m :   0.4125 (alat units)  0.7795 (a.u.) for type    1
     new r_m :   0.4125 (alat units)  0.7795 (a.u.) for type    2

     bravais-lattice index     =            0
     lattice parameter (alat)  =       1.8897  a.u.
     unit-cell volume          =    3934.3396 (a.u.)^3
     number of atoms/cell      =           12
     number of atomic types    =            2
     number of electrons       =       195.00
     number of Kohn-Sham states=          127
     kinetic-energy cutoff     =      36.7493  Ry
     charge density cutoff     =     367.4932  Ry
     convergence threshold     =      1.0E-06
     mixing beta               =       0.1000
     number of iterations used =           10  plain     mixing
     Exchange-correlation      = BEEF-VDW ( 1  4 27 13 2)
     nstep                     =           50

     celldm(1)=   1.889726  celldm(2)=   0.000000  celldm(3)=   0.000000
     celldm(4)=   0.000000  celldm(5)=   0.000000  celldm(6)=   0.000000

     crystal axes: (cart. coord. in units of alat)
               a(1) = (   5.263675   0.000000   0.000000 )
               a(2) = (  -2.631838   4.558476   0.000000 )
               a(3) = (   0.000000   0.000000  24.297773 )

     reciprocal axes: (cart. coord. in units 2 pi/alat)
               b(1) = (  0.189981  0.109686  0.000000 )
               b(2) = (  0.000000  0.219372  0.000000 )
               b(3) = (  0.000000  0.000000  0.041156 )

     PseudoPot. # 1 for Ni read from file:
     /afs/slac.stanford.edu/u/if/mamunm/psp/gbrv1.5pbe/Ni.UPF
     MD5 check sum: 1ee80287db30b12d2bc1f57a5b5d6409
     Pseudo is Ultrasoft + core correction, Zval = 18.0
     Generated by new atomic code, or converted to UPF format
     Using radial grid of  865 points,  6 beta functions with:
                l(1) =   0
                l(2) =   0
                l(3) =   1
                l(4) =   1
                l(5) =   2
                l(6) =   2
     Q(r) pseudized with 10 coefficients,  rinner =    0.980   0.980   0.980
                                                       0.980   0.980

     PseudoPot. # 2 for Au read from file:
     /afs/slac.stanford.edu/u/if/mamunm/psp/gbrv1.5pbe/Au.UPF
     MD5 check sum: 9d7f43293ad2c663164586bc4b293ffc
     Pseudo is Ultrasoft + core correction, Zval = 11.0
     Generated by new atomic code, or converted to UPF format
     Using radial grid of  985 points,  7 beta functions with:
                l(1) =   0
                l(2) =   0
                l(3) =   1
                l(4) =   1
                l(5) =   2
                l(6) =   2
                l(7) =   3
     Q(r) pseudized with  6 coefficients,  rinner =    1.900   1.900   1.900
                                                       1.900   1.900   1.900
                                                       1.900

     vdW kernel table read from file vdW_kernel_table
     MD5 check sum: 095c7af220d748ca6e76c0b4c6cfb241

     atomic species   valence    mass     pseudopotential
        Ni1           18.00    58.69340     Ni( 1.00)
        Au1           11.00   196.96657     Au( 1.00)

     Starting magnetic structure
     atomic species   magnetization
        Ni1          0.111
        Au1          0.182

     No symmetry found

   Cartesian axes

     site n.     atom                  positions (alat units)
         1           Ni1 tau(   1) = (   0.0000000   0.0000000  10.0000000  )
         2           Ni1 tau(   2) = (  -1.3159188   2.2792382  10.0000000  )
         3           Ni1 tau(   3) = (   1.3159188   2.2792382  10.0000000  )
         4           Au1 tau(   4) = (   2.6318375   0.0000000  10.0000000  )
         5           Ni1 tau(   5) = (   2.6318375   1.5194921  12.1488864  )
         6           Ni1 tau(   6) = (   1.3159188   3.7987303  12.1488864  )
         7           Ni1 tau(   7) = (  -1.3159188   3.7987303  12.1488864  )
         8           Au1 tau(   8) = (   0.0000000   1.5194921  12.1488864  )
         9           Ni1 tau(   9) = (  -0.0000000   3.0389842  14.2977727  )
        10           Ni1 tau(  10) = (   1.3159188   0.7597461  14.2977727  )
        11           Ni1 tau(  11) = (   3.9477563   0.7597461  14.2977727  )
        12           Au1 tau(  12) = (   2.6318375   3.0389842  14.2977727  )

     number of k points=    40  Fermi-Dirac smearing, width (Ry)=  0.0110
                       cart. coord. in units 2pi/alat
        k(    1) = (   0.0000000   0.0000000   0.0000000), wk =   0.0277778
        k(    2) = (   0.0000000   0.0365619   0.0000000), wk =   0.0555556
        k(    3) = (   0.0000000   0.0731238   0.0000000), wk =   0.0555556
        k(    4) = (   0.0000000  -0.1096858   0.0000000), wk =   0.0277778
        k(    5) = (   0.0316636   0.0182810   0.0000000), wk =   0.0555556
        k(    6) = (   0.0316636   0.0548429   0.0000000), wk =   0.0555556
        k(    7) = (   0.0316636   0.0914048   0.0000000), wk =   0.0555556
        k(    8) = (   0.0316636  -0.0914048   0.0000000), wk =   0.0555556
        k(    9) = (   0.0316636  -0.0548429   0.0000000), wk =   0.0555556
        k(   10) = (   0.0316636  -0.0182810   0.0000000), wk =   0.0555556
        k(   11) = (   0.0633271   0.0365619   0.0000000), wk =   0.0555556
        k(   12) = (   0.0633271   0.0731238   0.0000000), wk =   0.0555556
        k(   13) = (   0.0633271   0.1096858   0.0000000), wk =   0.0555556
        k(   14) = (   0.0633271  -0.0731238   0.0000000), wk =   0.0555556
        k(   15) = (   0.0633271  -0.0365619   0.0000000), wk =   0.0555556
        k(   16) = (   0.0633271   0.0000000   0.0000000), wk =   0.0555556
        k(   17) = (  -0.0949907  -0.0548429   0.0000000), wk =   0.0277778
        k(   18) = (  -0.0949907  -0.0182810   0.0000000), wk =   0.0555556
        k(   19) = (  -0.0949907   0.0182810   0.0000000), wk =   0.0555556
        k(   20) = (  -0.0949907  -0.1645287   0.0000000), wk =   0.0277778
        k(   21) = (   0.0000000   0.0000000   0.0000000), wk =   0.0277778
        k(   22) = (   0.0000000   0.0365619   0.0000000), wk =   0.0555556
        k(   23) = (   0.0000000   0.0731238   0.0000000), wk =   0.0555556
        k(   24) = (   0.0000000  -0.1096858   0.0000000), wk =   0.0277778
        k(   25) = (   0.0316636   0.0182810   0.0000000), wk =   0.0555556
        k(   26) = (   0.0316636   0.0548429   0.0000000), wk =   0.0555556
        k(   27) = (   0.0316636   0.0914048   0.0000000), wk =   0.0555556
        k(   28) = (   0.0316636  -0.0914048   0.0000000), wk =   0.0555556
        k(   29) = (   0.0316636  -0.0548429   0.0000000), wk =   0.0555556
        k(   30) = (   0.0316636  -0.0182810   0.0000000), wk =   0.0555556
        k(   31) = (   0.0633271   0.0365619   0.0000000), wk =   0.0555556
        k(   32) = (   0.0633271   0.0731238   0.0000000), wk =   0.0555556
        k(   33) = (   0.0633271   0.1096858   0.0000000), wk =   0.0555556
        k(   34) = (   0.0633271  -0.0731238   0.0000000), wk =   0.0555556
        k(   35) = (   0.0633271  -0.0365619   0.0000000), wk =   0.0555556
        k(   36) = (   0.0633271   0.0000000   0.0000000), wk =   0.0555556
        k(   37) = (  -0.0949907  -0.0548429   0.0000000), wk =   0.0277778
        k(   38) = (  -0.0949907  -0.0182810   0.0000000), wk =   0.0555556
        k(   39) = (  -0.0949907   0.0182810   0.0000000), wk =   0.0555556
        k(   40) = (  -0.0949907  -0.1645287   0.0000000), wk =   0.0277778

     Largest allocated arrays     est. size (Mb)     dimensions
     Largest temporary arrays     est. size (Mb)     dimensions

     Check: negative/imaginary core charge=   -0.000003    0.000000

     Initial potential from superposition of free atoms
     Check: negative starting charge=(component1):   -0.000379
     Check: negative starting charge=(component2):   -0.000307

     starting charge  176.99963, renormalised to  195.00000

     negative rho (up, down):  4.179E-04 3.377E-04

     *
     * You are using vdW-DF for exchange-correlation in this calculation.
     * Please cite the following three references that made this development
     * possible:
     *
     *   M. Dion, H. Rydberg, E. Schroder, D. C. Langreth, and
     *   B. I. Lundqvist, Phys. Rev. Lett. 92, 246401 (2004).
     *
     *   T. Thonhauser, V. R. Cooper, S. Li, A. Puzder, P. Hyldgaard, and
     *   D. C. Langreth, Phys. Rev. B 76, 125112 (2007).
     *
     *   G. Roman-Perez and J. M. Soler, Phys. Rev. Lett. 103, 096102 (2009).
     *
     *
     * If you are using vdW-DF2, please also cite:
     *
     *   K. Lee, E. D. Murray, L. Kong, B. I. Lundqvist, and
     *   D. C. Langreth, Phys. Rev. B 82, 081101(R) (2010).
     *
     *
     * If you are calculating the stress with vdW-DF, please also cite:
     *
     *   R. Sabatini, E. Kucukbenli, B. Kolb, T. Thonhauser, and
     *   S. de Gironcoli, J. Phys.: Condens. Matter 24, 424209 (2012).
     *

     Carrying out vdW-DF run using the following parameters:

     Nqs =      20    Nr_points =    1024   r_max =   100.000
     q_mesh =
               0.00001000     0.04494208     0.09755937     0.15916263
               0.23128650     0.31572767     0.41458969     0.53033537
               0.66584808     0.82450364     1.01025438     1.22772762
               1.48234092     1.78043706     2.12944203     2.53805004
               3.01644009     3.57652955     4.23227104     5.00000000

     Gradients computed in reciprocal space

     Adding external electric field

     Computed dipole along edir(3) :
        Dipole                0.0000 Ry au,          0.0000 Debye
        Dipole field          0.0000 Ry au

        Potential amp.       -0.0000 Ry
        Total length         44.7682 bohr

[...]

     Starting wfc are  144 randomized atomic wfcs

     Self-consistent Calculation

     iteration #  1     ecut=    36.75 Ry     beta=0.10
     Davidson diagonalization with overlap
     ethr =  1.00E-02,  avg # of iterations =  7.8

[...]

     Magnetic moment per site:
     atom:    1    charge:    9.7862    magn:    1.0368    constr:    0.0000
     atom:    2    charge:    9.7862    magn:    1.0368    constr:    0.0000
     atom:    3    charge:    9.7862    magn:    1.0368    constr:    0.0000
     atom:    4    charge:    1.5573    magn:    0.2630    constr:    0.0000
     atom:    5    charge:    9.7841    magn:    1.0370    constr:    0.0000
     atom:    6    charge:    9.7842    magn:    1.0370    constr:    0.0000
[...]
        k(    4) = (   0.0000000  -0.1096858   0.0000000), wk =   0.0277778
        k(    5) = (   0.0316636   0.0182810   0.0000000), wk =   0.0555556
        k(    6) = (   0.0316636   0.0548429   0.0000000), wk =   0.0555556
        k(    7) = (   0.0316636   0.0914048   0.0000000), wk =   0.0555556
        k(    8) = (   0.0316636  -0.0914048   0.0000000), wk =   0.0555556
        k(    9) = (   0.0316636  -0.0548429   0.0000000), wk =   0.0555556
        k(   10) = (   0.0316636  -0.0182810   0.0000000), wk =   0.0555556
        k(   11) = (   0.0633271   0.0365619   0.0000000), wk =   0.0555556
        k(   12) = (   0.0633271   0.0731238   0.0000000), wk =   0.0555556
        k(   13) = (   0.0633271   0.1096858   0.0000000), wk =   0.0555556
        k(   14) = (   0.0633271  -0.0731238   0.0000000), wk =   0.0555556
        k(   15) = (   0.0633271  -0.0365619   0.0000000), wk =   0.0555556
        k(   16) = (   0.0633271   0.0000000   0.0000000), wk =   0.0555556
        k(   17) = (  -0.0949907  -0.0548429   0.0000000), wk =   0.0277778
        k(   18) = (  -0.0949907  -0.0182810   0.0000000), wk =   0.0555556
        k(   19) = (  -0.0949907   0.0182810   0.0000000), wk =   0.0555556
        k(   20) = (  -0.0949907  -0.1645287   0.0000000), wk =   0.0277778
        k(   21) = (   0.0000000   0.0000000   0.0000000), wk =   0.0277778
        k(   22) = (   0.0000000   0.0365619   0.0000000), wk =   0.0555556
        k(   23) = (   0.0000000   0.0731238   0.0000000), wk =   0.0555556
        k(   24) = (   0.0000000  -0.1096858   0.0000000), wk =   0.0277778
        k(   25) = (   0.0316636   0.0182810   0.0000000), wk =   0.0555556
        k(   26) = (   0.0316636   0.0548429   0.0000000), wk =   0.0555556
        k(   27) = (   0.0316636   0.0914048   0.0000000), wk =   0.0555556
        k(   28) = (   0.0316636  -0.0914048   0.0000000), wk =   0.0555556
        k(   29) = (   0.0316636  -0.0548429   0.0000000), wk =   0.0555556
        k(   30) = (   0.0316636  -0.0182810   0.0000000), wk =   0.0555556
        k(   31) = (   0.0633271   0.0365619   0.0000000), wk =   0.0555556
        k(   32) = (   0.0633271   0.0731238   0.0000000), wk =   0.0555556
        k(   33) = (   0.0633271   0.1096858   0.0000000), wk =   0.0555556
        k(   34) = (   0.0633271  -0.0731238   0.0000000), wk =   0.0555556
        k(   35) = (   0.0633271  -0.0365619   0.0000000), wk =   0.0555556
        k(   36) = (   0.0633271   0.0000000   0.0000000), wk =   0.0555556
        k(   37) = (  -0.0949907  -0.0548429   0.0000000), wk =   0.0277778
        k(   38) = (  -0.0949907  -0.0182810   0.0000000), wk =   0.0555556
        k(   39) = (  -0.0949907   0.0182810   0.0000000), wk =   0.0555556
        k(   40) = (  -0.0949907  -0.1645287   0.0000000), wk =   0.0277778

     Largest allocated arrays     est. size (Mb)     dimensions
     Largest temporary arrays     est. size (Mb)     dimensions

     Check: negative/imaginary core charge=   -0.000003    0.000000

     Initial potential from superposition of free atoms
     Check: negative starting charge=(component1):   -0.000354
     Check: negative starting charge=(component2):   -0.000286

     starting charge  176.99963, renormalised to  195.00000

[...]

     *
     * You are using vdW-DF for exchange-correlation in this calculation.
     * Please cite the following three references that made this development
     * possible:
     *
     *   M. Dion, H. Rydberg, E. Schroder, D. C. Langreth, and
     *   B. I. Lundqvist, Phys. Rev. Lett. 92, 246401 (2004).
     *
     *   T. Thonhauser, V. R. Cooper, S. Li, A. Puzder, P. Hyldgaard, and
     *   D. C. Langreth, Phys. Rev. B 76, 125112 (2007).
     *
     *   G. Roman-Perez and J. M. Soler, Phys. Rev. Lett. 103, 096102 (2009).
     *
     *
     * If you are using vdW-DF2, please also cite:
     *
     *   K. Lee, E. D. Murray, L. Kong, B. I. Lundqvist, and
     *   D. C. Langreth, Phys. Rev. B 82, 081101(R) (2010).
     *
     *
     * If you are calculating the stress with vdW-DF, please also cite:
     *
     *   R. Sabatini, E. Kucukbenli, B. Kolb, T. Thonhauser, and
     *   S. de Gironcoli, J. Phys.: Condens. Matter 24, 424209 (2012).
     *

     Carrying out vdW-DF run using the following parameters:

     Nqs =      20    Nr_points =    1024   r_max =   100.000
     q_mesh =
               0.00001000     0.04494208     0.09755937     0.15916263
               0.23128650     0.31572767     0.41458969     0.53033537
               0.66584808     0.82450364     1.01025438     1.22772762
               1.48234092     1.78043706     2.12944203     2.53805004
               3.01644009     3.57652955     4.23227104     5.00000000

     Gradients computed in reciprocal space

[...]

     Starting wfc are  144 randomized atomic wfcs

     Self-consistent Calculation

[...]

     total energy              =   -3449.81003466 Ry
     Harris-Foulkes estimate   =   -3449.81003412 Ry
     estimated scf accuracy    <       0.00000119 Ry

[...]

     iteration # 48     ecut=    36.75 Ry     beta=0.10
     Davidson diagonalization with overlap
     ethr =  6.13E-10,  avg # of iterations =  1.0

[...]

     negative rho (up, down):  9.294E-04 7.661E-04

[...]

     Adding external electric field

     Computed dipole along edir(3) :
        Dipole               -0.0156 Ry au,         -0.0395 Debye
        Dipole field         -0.0000 Ry au

        Potential amp.        0.0044 Ry
        Total length         44.7682 bohr

     Magnetic moment per site:
     atom:    1    charge:    9.3651    magn:    0.3810    constr:    0.0000
     atom:    2    charge:    9.3650    magn:    0.3810    constr:    0.0000
     atom:    3    charge:    9.3648    magn:    0.3811    constr:    0.0000
     atom:    4    charge:    1.4522    magn:    0.0101    constr:    0.0000
     atom:    5    charge:    9.3605    magn:    0.3972    constr:    0.0000
     atom:    6    charge:    9.3605    magn:    0.3972    constr:    0.0000
     atom:    7    charge:    9.3605    magn:    0.3972    constr:    0.0000
     atom:    8    charge:    1.4558    magn:    0.0142    constr:    0.0000
     atom:    9    charge:    9.3570    magn:    0.3884    constr:    0.0000
     atom:   10    charge:    9.3571    magn:    0.3884    constr:    0.0000
     atom:   11    charge:    9.3570    magn:    0.3885    constr:    0.0000
     atom:   12    charge:    1.4506    magn:    0.0086    constr:    0.0000

     End of self-consistent calculation

 ------ SPIN UP ------------

[...]

 ------ SPIN DOWN ----------

[...]

          k = 0.0633 0.0000 0.0000 ( 14797 PWs)   bands (ev):

[...]

          k =-0.0950-0.1645 0.0000 ( 14798 PWs)   bands (ev):

  -102.1783-102.1757-102.1730-102.0557-102.0497-102.0479-102.0077-102.0051
  -102.0024 -62.6278 -62.6118 -62.6111 -62.6064 -62.6057 -62.5941 -62.5477
   -62.5345 -62.5314 -62.5125 -62.5072 -62.5001 -62.4826 -62.4806 -62.4776
   -62.4589 -62.4576 -62.4569 -62.4529 -62.4501 -62.4210 -62.3807 -62.3768
   -62.3744 -62.3251 -62.3224 -62.3198  -6.3348  -5.8213  -5.2783  -5.0333
    -4.9056  -4.6241  -4.5590  -4.4998  -4.2837  -4.2345  -4.0372  -3.9500
    -3.9085  -3.8854  -3.7563  -3.5096  -3.3574  -3.3088  -3.1539  -2.6505
    -2.4567  -2.1315  -1.9887  -1.6786  -1.5793  -1.3902  -1.3565  -1.3158
    -1.2661  -1.2286  -1.1385  -1.0552  -1.0340  -0.9607  -0.9462  -0.8922
    -0.8692  -0.8108  -0.7757  -0.6985  -0.6072  -0.5588  -0.4871  -0.4247
    -0.3520  -0.3389  -0.2361  -0.2329  -0.1865  -0.1467  -0.0654  -0.0594
    -0.0098   0.0313   0.0699   0.0848   0.1191   0.2155   0.3225   0.3732
     0.4106   0.4298   0.5279   0.6781   1.5925   1.6714   1.8425   2.0636
     2.7288   2.7843   4.0808   4.1736   4.8854   4.9821   6.3088   6.3593
     6.8955   6.9328   7.0981   7.1223   7.5975   8.0714   8.1164   8.1560
     8.2550   8.3714   8.3806   8.5978   8.6733   8.8659   9.6151

     the Fermi energy is     0.4239 ev

!    total energy              =   -3449.81003563 Ry
     Harris-Foulkes estimate   =   -3449.81003453 Ry
     estimated scf accuracy    <       0.00000052 Ry

     The total energy is the sum of the following terms:

     one-electron contribution =  -25799.91738363 Ry
     hartree contribution      =   12932.14577158 Ry
     xc contribution           =    -523.00862085 Ry
     ewald contribution        =    9941.07739858 Ry
     electric field correction =       0.00000077 Ry
     smearing contrib. (-TS)   =      -0.10720208 Ry

     total magnetization       =     5.70 Bohr mag/cell
     absolute magnetization    =     6.71 Bohr mag/cell

     convergence has been achieved in  48 iterations

 BEEF-vdW xc energy contributions
           1 :   -463.314473146173
           2 :    423.947400966226
           3 :   -356.506749617794
           4 :    278.516807856397
           5 :   -206.616345154741
           6 :    150.916334800877
           7 :   -113.217300888601
           8 :    89.1544213902960
           9 :   -72.4149701408479
          10 :    58.4313007740086
          11 :   -45.8180417968860
          12 :    35.4375443745089
          13 :   -28.3952821440207
          14 :    24.5555315721645
          15 :   -22.4563682132476
          16 :    20.3310404080833
          17 :   -17.2625766859120
          18 :    13.5776838820100
          19 :   -10.3100503853834
          20 :    8.24642828308674
          21 :   -7.32359595547666
          22 :    6.77333427412896
          23 :   -5.82573636225436
          24 :    4.36000993275746
          25 :   -2.99764749619067
          26 :    2.57794719703577
          27 :   -3.44660859890655
          28 :    5.09912006321480
          29 :   -6.45689334596500
          30 :    6.57079860437909
          31 :   -37.6950361931499
          32 :   -26.7517859950030

     Forces acting on atoms (Ry/au):

     negative rho (up, down):  9.294E-04 7.661E-04
     atom    1 type  1   force =    -0.00000066   -0.01379335    0.00841012
     atom    2 type  1   force =    -0.01195061    0.00689906    0.00841184
     atom    3 type  1   force =     0.01194241    0.00689518    0.00838609
     atom    4 type  2   force =    -0.00000406    0.00000615   -0.02926678
     atom    5 type  1   force =    -0.00001161    0.00926433    0.00262313
     atom    6 type  1   force =     0.00795291   -0.00466082    0.00266569
     atom    7 type  1   force =    -0.00795941   -0.00465118    0.00262285
     atom    8 type  2   force =     0.00000564    0.00004034   -0.00238715
     atom    9 type  1   force =     0.00013339    0.00039921    0.00005545
     atom   10 type  1   force =     0.00047156   -0.00004454    0.00004464
     atom   11 type  1   force =    -0.00040141   -0.00016053    0.00006617
     atom   12 type  2   force =    -0.00017816   -0.00019384   -0.00163203

     Total force =     0.043873     Total SCF correction =     0.001536

     entering subroutine stress ...

     negative rho (up, down):  9.294E-04 7.661E-04
          total   stress  (Ry/bohr**3)                   (kbar)     P=  -52.16
  -0.00038642  -0.00000003  -0.00000003        -56.84     -0.00     -0.00
  -0.00000003  -0.00038638  -0.00000004         -0.00    -56.84     -0.01
  -0.00000003  -0.00000004  -0.00029101         -0.00     -0.01    -42.81

 !ASE

     Writing output data file calc.save

     General routines

     Parallel routines

   This run was terminated on:   5:45: 2  31Dec2018

   JOB DONE.
Job  /afs/slac/g/suncat/bin/suncat-tsmpirun -x LD_LIBRARY_PATH -wdir /scratch/qe648649_afvKn pw.x -in pw.inp

TID   HOST_NAME   COMMAND_LINE            STATUS            TERMINATION_TIME
00000 suncat0087 pw.x -in pw.inp   Done                     12/31/2018 05:45:02
00001 suncat0087 pw.x -in pw.inp   Done                     12/31/2018 05:45:02
00002 suncat0087 pw.x -in pw.inp   Done                     12/31/2018 05:45:02
00003 suncat0087 pw.x -in pw.inp   Done                     12/31/2018 05:45:02
00004 suncat0087 pw.x -in pw.inp   Done                     12/31/2018 05:45:02
00005 suncat0087 pw.x -in pw.inp   Done                     12/31/2018 05:45:02
00006 suncat0087 pw.x -in pw.inp   Done                     12/31/2018 05:45:02
00007 suncat0087 pw.x -in pw.inp   Done                     12/31/2018 05:45:02
00008 suncat0086 pw.x -in pw.inp   Done                     12/31/2018 05:45:02
00009 suncat0086 pw.x -in pw.inp   Done                     12/31/2018 05:45:02
00010 suncat0086 pw.x -in pw.inp   Done                     12/31/2018 05:45:02
00011 suncat0086 pw.x -in pw.inp   Done                     12/31/2018 05:45:02
00012 suncat0086 pw.x -in pw.inp   Done                     12/31/2018 05:45:02
00013 suncat0086 pw.x -in pw.inp   Done                     12/31/2018 05:45:02
00014 suncat0086 pw.x -in pw.inp   Done                     12/31/2018 05:45:02
00015 suncat0086 pw.x -in pw.inp   Done                     12/31/2018 05:45:02
00016 suncat0085 pw.x -in pw.inp   Done                     12/31/2018 05:45:02
00017 suncat0085 pw.x -in pw.inp   Done                     12/31/2018 05:45:02
00018 suncat0085 pw.x -in pw.inp   Done                     12/31/2018 05:45:02
00019 suncat0085 pw.x -in pw.inp   Done                     12/31/2018 05:45:02
00020 suncat0085 pw.x -in pw.inp   Done                     12/31/2018 05:45:02
00021 suncat0085 pw.x -in pw.inp   Done                     12/31/2018 05:45:02
00022 suncat0085 pw.x -in pw.inp   Done                     12/31/2018 05:45:02
00023 suncat0085 pw.x -in pw.inp   Done                     12/31/2018 05:45:02
00024 suncat0084 pw.x -in pw.inp   Done                     12/31/2018 05:45:02
00025 suncat0084 pw.x -in pw.inp   Done                     12/31/2018 05:45:02
00026 suncat0084 pw.x -in pw.inp   Done                     12/31/2018 05:45:02
00027 suncat0084 pw.x -in pw.inp   Done                     12/31/2018 05:45:02
00028 suncat0084 pw.x -in pw.inp   Done                     12/31/2018 05:45:02
00029 suncat0084 pw.x -in pw.inp   Done                     12/31/2018 05:45:02
00030 suncat0084 pw.x -in pw.inp   Done                     12/31/2018 05:45:02
00031 suncat0084 pw.x -in pw.inp   Done                     12/31/2018 05:45:02
00032 suncat0139 pw.x -in pw.inp   Done                     12/31/2018 05:45:02
00033 suncat0139 pw.x -in pw.inp   Done                     12/31/2018 05:45:02
00034 suncat0139 pw.x -in pw.inp   Done                     12/31/2018 05:45:02
00035 suncat0139 pw.x -in pw.inp   Done                     12/31/2018 05:45:02
00036 suncat0139 pw.x -in pw.inp   Done                     12/31/2018 05:45:02
00037 suncat0139 pw.x -in pw.inp   Done                     12/31/2018 05:45:02
00038 suncat0139 pw.x -in pw.inp   Done                     12/31/2018 05:45:02
00039 suncat0139 pw.x -in pw.inp   Done                     12/31/2018 05:45:02
00040 suncat0124 pw.x -in pw.inp   Done                     12/31/2018 05:45:02
00041 suncat0124 pw.x -in pw.inp   Done                     12/31/2018 05:45:02
00042 suncat0124 pw.x -in pw.inp   Done                     12/31/2018 05:45:02
00043 suncat0124 pw.x -in pw.inp   Done                     12/31/2018 05:45:02
00044 suncat0124 pw.x -in pw.inp   Done                     12/31/2018 05:45:02
00045 suncat0124 pw.x -in pw.inp   Done                     12/31/2018 05:45:02
00046 suncat0124 pw.x -in pw.inp   Done                     12/31/2018 05:45:02
00047 suncat0124 pw.x -in pw.inp   Done                     12/31/2018 05:45:02
00048 suncat0123 pw.x -in pw.inp   Done                     12/31/2018 05:45:02
00049 suncat0123 pw.x -in pw.inp   Done                     12/31/2018 05:45:02
00050 suncat0123 pw.x -in pw.inp   Done                     12/31/2018 05:45:02
00051 suncat0123 pw.x -in pw.inp   Done                     12/31/2018 05:45:02
00052 suncat0123 pw.x -in pw.inp   Done                     12/31/2018 05:45:02
00053 suncat0123 pw.x -in pw.inp   Done                     12/31/2018 05:45:02
00054 suncat0123 pw.x -in pw.inp   Done                     12/31/2018 05:45:02
00055 suncat0123 pw.x -in pw.inp   Done                     12/31/2018 05:45:02
00056 suncat0122 pw.x -in pw.inp   Done                     12/31/2018 05:45:02
00057 suncat0122 pw.x -in pw.inp   Done                     12/31/2018 05:45:02
00058 suncat0122 pw.x -in pw.inp   Done                     12/31/2018 05:45:02
00059 suncat0122 pw.x -in pw.inp   Done                     12/31/2018 05:45:02
00060 suncat0122 pw.x -in pw.inp   Done                     12/31/2018 05:45:02
00061 suncat0122 pw.x -in pw.inp   Done                     12/31/2018 05:45:02
00062 suncat0122 pw.x -in pw.inp   Done                     12/31/2018 05:45:02
00063 suncat0122 pw.x -in pw.inp   Done                     12/31/2018 05:45:02