     Program PWSCF v.5.1rc2 (svn rev. 11289) starts on  1Jan2019 at 19:55:49

     Current dimensions of program PWSCF are:
     Max number of different atomic species (ntypx) = 10
     Max number of k-points (npk) =  40000
     Max angular momentum in pseudopotentials (lmaxx) =  3
     Presently stress not available with electric field

     IMPORTANT: XC functional enforced from input :
     Exchange-correlation      = BEEF-VDW ( 1  4 27 13 2)
     Any further DFT definition will be discarded
     Please, verify this is what you really want

     Subspace diagonalization in iterative solution of the eigenvalue problem:
     a serial algorithm will be used

     bravais-lattice index     =            0
     lattice parameter (alat)  =       1.8897  a.u.
     unit-cell volume          =    5060.8565 (a.u.)^3
     number of atoms/cell      =           12
     number of atomic types    =            2
     number of electrons       =       168.00
     number of Kohn-Sham states=          114
     kinetic-energy cutoff     =      36.7493  Ry
     charge density cutoff     =     367.4932  Ry
     convergence threshold     =      1.0E-06
     mixing beta               =       0.1000
     number of iterations used =           10  plain     mixing
     Exchange-correlation      = BEEF-VDW ( 1  4 27 13 2)
     nstep                     =           50

     celldm(1)=   1.889726  celldm(2)=   0.000000  celldm(3)=   0.000000
     celldm(4)=   0.000000  celldm(5)=   0.000000  celldm(6)=   0.000000

     crystal axes: (cart. coord. in units of alat)
               a(1) = (   5.906428   0.000000   0.000000 )
               a(2) = (  -2.953214   5.115117   0.000000 )
               a(3) = (   0.000000   0.000000  24.822579 )

     reciprocal axes: (cart. coord. in units 2 pi/alat)
               b(1) = (  0.169307  0.097749  0.000000 )
               b(2) = (  0.000000  0.195499  0.000000 )
               b(3) = (  0.000000  0.000000  0.040286 )

     PseudoPot. # 1 for Tc read from file:
     /afs/slac.stanford.edu/u/if/mamunm/psp/gbrv1.5pbe/Tc.UPF
     MD5 check sum: 9eb49e5b028550b2339a02317eb7b844
     Pseudo is Ultrasoft + core correction, Zval = 15.0
     Generated by new atomic code, or converted to UPF format
     Using radial grid of  965 points,  6 beta functions with:
                l(1) =   0
                l(2) =   0
                l(3) =   1
                l(4) =   1
                l(5) =   2
                l(6) =   2
     Q(r) pseudized with  8 coefficients,  rinner =    1.300   1.300   1.300
                                                       1.300   1.300

     PseudoPot. # 2 for La read from file:
     /afs/slac.stanford.edu/u/if/mamunm/psp/gbrv1.5pbe/La.UPF
     MD5 check sum: 5937b0c7494ba0601a847275249473aa
     Pseudo is Ultrasoft + core correction, Zval = 11.0
     Generated by new atomic code, or converted to UPF format
     Using radial grid of  995 points,  8 beta functions with:
                l(1) =   0
                l(2) =   0
                l(3) =   1
                l(4) =   1
                l(5) =   2
                l(6) =   2
                l(7) =   3
                l(8) =   3
     Q(r) pseudized with  8 coefficients,  rinner =    1.700   1.700   1.700
                                                       1.700   1.700   1.700
                                                       1.700

     vdW kernel table read from file vdW_kernel_table
     MD5 check sum: 095c7af220d748ca6e76c0b4c6cfb241

     atomic species   valence    mass     pseudopotential
        Tc1           15.00    97.90721     Tc( 1.00)
        La1           11.00   138.90547     La( 1.00)

     No symmetry found

   Cartesian axes

     site n.     atom                  positions (alat units)
         1           Tc1 tau(   1) = (   0.0000000   0.0000000  10.0000000  )
         2           Tc1 tau(   2) = (  -1.4766071   2.5575585  10.0000000  )
         3           Tc1 tau(   3) = (   1.4766071   2.5575585  10.0000000  )
         4           La1 tau(   4) = (   2.9532142   0.0000000  10.0000000  )
         5           Tc1 tau(   5) = (   2.9532142   1.7050390  12.4112893  )
         6           Tc1 tau(   6) = (   1.4766071   4.2625976  12.4112893  )
         7           Tc1 tau(   7) = (  -1.4766071   4.2625976  12.4112893  )
         8           La1 tau(   8) = (   0.0000000   1.7050390  12.4112893  )
         9           Tc1 tau(   9) = (  -0.0000000   3.4100781  14.8225786  )
        10           Tc1 tau(  10) = (   1.4766071   0.8525195  14.8225786  )
        11           Tc1 tau(  11) = (   4.4298214   0.8525195  14.8225786  )
        12           La1 tau(  12) = (   2.9532142   3.4100781  14.8225786  )

     number of k points=    20  Fermi-Dirac smearing, width (Ry)=  0.0110
                       cart. coord. in units 2pi/alat
        k(    1) = (   0.0000000   0.0000000   0.0000000), wk =   0.0555556
        k(    2) = (   0.0000000   0.0325832   0.0000000), wk =   0.1111111
        k(    3) = (   0.0000000   0.0651663   0.0000000), wk =   0.1111111
        k(    4) = (   0.0000000  -0.0977495   0.0000000), wk =   0.0555556
        k(    5) = (   0.0282178   0.0162916   0.0000000), wk =   0.1111111
        k(    6) = (   0.0282178   0.0488747   0.0000000), wk =   0.1111111
        k(    7) = (   0.0282178   0.0814579   0.0000000), wk =   0.1111111
        k(    8) = (   0.0282178  -0.0814579   0.0000000), wk =   0.1111111
        k(    9) = (   0.0282178  -0.0488747   0.0000000), wk =   0.1111111
        k(   10) = (   0.0282178  -0.0162916   0.0000000), wk =   0.1111111
        k(   11) = (   0.0564357   0.0325832   0.0000000), wk =   0.1111111
        k(   12) = (   0.0564357   0.0651663   0.0000000), wk =   0.1111111
        k(   13) = (   0.0564357   0.0977495   0.0000000), wk =   0.1111111
        k(   14) = (   0.0564357  -0.0651663   0.0000000), wk =   0.1111111
        k(   15) = (   0.0564357  -0.0325832   0.0000000), wk =   0.1111111
        k(   16) = (   0.0564357   0.0000000   0.0000000), wk =   0.1111111
        k(   17) = (  -0.0846535  -0.0488747   0.0000000), wk =   0.0555556
        k(   18) = (  -0.0846535  -0.0162916   0.0000000), wk =   0.1111111
        k(   19) = (  -0.0846535   0.0162916   0.0000000), wk =   0.1111111
        k(   20) = (  -0.0846535  -0.1466242   0.0000000), wk =   0.0555556

     Largest allocated arrays     est. size (Mb)     dimensions
     Largest temporary arrays     est. size (Mb)     dimensions

     Check: negative/imaginary core charge=   -0.000017    0.000000

     Initial potential from superposition of free atoms
     Check: negative starting charge=   -1.358139

     starting charge  158.90355, renormalised to  168.00000

     negative rho (up, down):  1.436E+00 0.000E+00

     *
     * You are using vdW-DF for exchange-correlation in this calculation.
     * Please cite the following three references that made this development
     * possible:
     *
     *   M. Dion, H. Rydberg, E. Schroder, D. C. Langreth, and
     *   B. I. Lundqvist, Phys. Rev. Lett. 92, 246401 (2004).
     *
     *   T. Thonhauser, V. R. Cooper, S. Li, A. Puzder, P. Hyldgaard, and
     *   D. C. Langreth, Phys. Rev. B 76, 125112 (2007).
     *
     *   G. Roman-Perez and J. M. Soler, Phys. Rev. Lett. 103, 096102 (2009).
     *
     *
     * If you are using vdW-DF2, please also cite:
     *
     *   K. Lee, E. D. Murray, L. Kong, B. I. Lundqvist, and
     *   D. C. Langreth, Phys. Rev. B 82, 081101(R) (2010).
     *
     *
     * If you are calculating the stress with vdW-DF, please also cite:
     *
     *   R. Sabatini, E. Kucukbenli, B. Kolb, T. Thonhauser, and
     *   S. de Gironcoli, J. Phys.: Condens. Matter 24, 424209 (2012).
     *

     Carrying out vdW-DF run using the following parameters:

     Nqs =      20    Nr_points =    1024   r_max =   100.000
     q_mesh =
               0.00001000     0.04494208     0.09755937     0.15916263
               0.23128650     0.31572767     0.41458969     0.53033537
               0.66584808     0.82450364     1.01025438     1.22772762
               1.48234092     1.78043706     2.12944203     2.53805004
               3.01644009     3.57652955     4.23227104     5.00000000

     Gradients computed in reciprocal space

     Adding external electric field

     Computed dipole along edir(3) :
        Dipole                0.0000 Ry au,          0.0000 Debye
        Dipole field          0.0000 Ry au

        Potential amp.       -0.0000 Ry
        Total length         45.7352 bohr

     Starting wfc are  177 randomized atomic wfcs

     Self-consistent Calculation

     iteration #  1     ecut=    36.75 Ry     beta=0.10
     Davidson diagonalization with overlap
     ethr =  1.00E-02,  avg # of iterations =  2.0

[...]

     total energy              =   -1889.21065419 Ry
     Harris-Foulkes estimate   =   -1892.45175667 Ry
     estimated scf accuracy    <      19.25430864 Ry

[...]

     End of self-consistent calculation

          k = 0.0000 0.0000 0.0000 ( 19075 PWs)   bands (ev):

   -64.2469 -64.2034 -64.2034 -64.1538 -64.1498 -64.1133 -64.1132 -64.1123
   -64.1122 -36.5298 -36.4362 -36.4191 -36.3991 -36.3991 -36.3303 -36.3202
   -36.3202 -36.2293 -36.2293 -36.1990 -36.1625 -36.1591 -36.1591 -36.1482
   -36.1481 -36.0994 -36.0994 -36.0862 -36.0389 -36.0389 -36.0103 -36.0102
   -36.0026 -36.0026 -35.9968 -35.9832 -29.2308 -29.2118 -28.6817 -13.1454
   -13.0778 -13.0778 -13.0570 -13.0570 -13.0410 -12.7534 -12.6171 -12.6171
    -2.3642  -1.4746  -1.4721  -1.4721  -1.3583  -1.2190  -1.2190  -0.8888
    -0.8029  -0.8029  -0.7327  -0.7326  -0.6206  -0.1262   0.0511   0.3782
     0.4216   0.4217   0.8622   0.8622   1.2217   1.3878   1.4356   1.4579
     1.7837   1.7837   1.8649   1.8650   2.0287   2.0287   2.2357   2.2357
     2.2606   2.2607   2.5597   2.6414   2.9727   2.9727   3.1297   3.2785
     3.2785   3.4782   3.4782   3.8051   3.8051   3.9200   3.9378   4.5502
     4.6294   4.6774   4.7686   4.8622   5.4024   5.6433   5.7028   5.7028
     5.8327   5.9610   5.9610   5.9665   6.0609   6.0841   6.0841   6.1400
     6.1400   6.1803

[...]

          k =-0.0847-0.0489 0.0000 ( 19036 PWs)   bands (ev):

[...]

     the Fermi energy is     2.3451 ev

!    total energy              =   -1889.01433148 Ry
     Harris-Foulkes estimate   =   -1889.01432925 Ry
     estimated scf accuracy    <       0.00000039 Ry

     The total energy is the sum of the following terms:

     one-electron contribution =  -13635.23084069 Ry
     hartree contribution      =    6824.29336277 Ry
     xc contribution           =    -450.73648219 Ry
     ewald contribution        =    5372.80635931 Ry
     electric field correction =       0.00000000 Ry
     smearing contrib. (-TS)   =      -0.14673067 Ry

     convergence has been achieved in  23 iterations

 BEEF-vdW xc energy contributions
           1 :   -396.186231049198
           2 :    364.223086951397
           3 :   -307.413880164358
           4 :    237.329556643131
           5 :   -166.416700204605
           6 :    104.562090114784
           7 :   -57.1192554587298
           8 :    24.6766402660817
           9 :   -4.38490786947409
[...]
     Generated by new atomic code, or converted to UPF format
     Using radial grid of  965 points,  6 beta functions with:
                l(1) =   0
                l(2) =   0
                l(3) =   1
                l(4) =   1
                l(5) =   2
                l(6) =   2
     Q(r) pseudized with  8 coefficients,  rinner =    1.300   1.300   1.300
                                                       1.300   1.300

     PseudoPot. # 2 for La read from file:
     /afs/slac.stanford.edu/u/if/mamunm/psp/gbrv1.5pbe/La.UPF
     MD5 check sum: 5937b0c7494ba0601a847275249473aa
     Pseudo is Ultrasoft + core correction, Zval = 11.0
     Generated by new atomic code, or converted to UPF format
     Using radial grid of  995 points,  8 beta functions with:
                l(1) =   0
                l(2) =   0
                l(3) =   1
                l(4) =   1
                l(5) =   2
                l(6) =   2
                l(7) =   3
                l(8) =   3
     Q(r) pseudized with  8 coefficients,  rinner =    1.700   1.700   1.700
                                                       1.700   1.700   1.700
                                                       1.700

     vdW kernel table read from file vdW_kernel_table
     MD5 check sum: 095c7af220d748ca6e76c0b4c6cfb241

     atomic species   valence    mass     pseudopotential
        Tc1           15.00    97.90721     Tc( 1.00)
        La1           11.00   138.90547     La( 1.00)

     No symmetry found

   Cartesian axes

     site n.     atom                  positions (alat units)
         1           Tc1 tau(   1) = (   0.0000000   0.0000000  10.0000000  )
         2           Tc1 tau(   2) = (  -1.4766071   2.5575585  10.0000000  )
         3           Tc1 tau(   3) = (   1.4766071   2.5575585  10.0000000  )
         4           La1 tau(   4) = (   2.9532142   0.0000000  10.0000000  )
         5           Tc1 tau(   5) = (   2.9532142   1.7050390  12.4112893  )
         6           Tc1 tau(   6) = (   1.4766071   4.2625976  12.4112893  )
         7           Tc1 tau(   7) = (  -1.4766071   4.2625976  12.4112893  )
         8           La1 tau(   8) = (   0.0000000   1.7050390  12.4112893  )
         9           Tc1 tau(   9) = (   0.0000212   3.6110008  14.3757058  )
        10           Tc1 tau(  10) = (   1.6506366   0.7521033  14.3757751  )
        11           Tc1 tau(  11) = (   4.2558189   0.7520871  14.3758340  )
        12           La1 tau(  12) = (   2.9532420   3.4101207  15.3710985  )

     number of k points=    20  Fermi-Dirac smearing, width (Ry)=  0.0110
                       cart. coord. in units 2pi/alat
        k(    1) = (   0.0000000   0.0000000   0.0000000), wk =   0.0555556
        k(    2) = (   0.0000000   0.0325832   0.0000000), wk =   0.1111111
        k(    3) = (   0.0000000   0.0651663   0.0000000), wk =   0.1111111
        k(    4) = (   0.0000000  -0.0977495   0.0000000), wk =   0.0555556
        k(    5) = (   0.0282178   0.0162916   0.0000000), wk =   0.1111111
        k(    6) = (   0.0282178   0.0488747   0.0000000), wk =   0.1111111
        k(    7) = (   0.0282178   0.0814579   0.0000000), wk =   0.1111111
        k(    8) = (   0.0282178  -0.0814579   0.0000000), wk =   0.1111111
        k(    9) = (   0.0282178  -0.0488747   0.0000000), wk =   0.1111111
        k(   10) = (   0.0282178  -0.0162916   0.0000000), wk =   0.1111111
        k(   11) = (   0.0564357   0.0325832   0.0000000), wk =   0.1111111
        k(   12) = (   0.0564357   0.0651663   0.0000000), wk =   0.1111111
        k(   13) = (   0.0564357   0.0977495   0.0000000), wk =   0.1111111
        k(   14) = (   0.0564357  -0.0651663   0.0000000), wk =   0.1111111
        k(   15) = (   0.0564357  -0.0325832   0.0000000), wk =   0.1111111
        k(   16) = (   0.0564357   0.0000000   0.0000000), wk =   0.1111111
        k(   17) = (  -0.0846535  -0.0488747   0.0000000), wk =   0.0555556
        k(   18) = (  -0.0846535  -0.0162916   0.0000000), wk =   0.1111111
        k(   19) = (  -0.0846535   0.0162916   0.0000000), wk =   0.1111111
        k(   20) = (  -0.0846535  -0.1466242   0.0000000), wk =   0.0555556

     Largest allocated arrays     est. size (Mb)     dimensions
     Largest temporary arrays     est. size (Mb)     dimensions

     Check: negative/imaginary core charge=   -0.000017    0.000000

     Initial potential from superposition of free atoms
     Check: negative starting charge=   -1.348404

     starting charge  158.90355, renormalised to  168.00000

[...]

     *
     * You are using vdW-DF for exchange-correlation in this calculation.
     * Please cite the following three references that made this development
     * possible:
     *
     *   M. Dion, H. Rydberg, E. Schroder, D. C. Langreth, and
     *   B. I. Lundqvist, Phys. Rev. Lett. 92, 246401 (2004).
     *
     *   T. Thonhauser, V. R. Cooper, S. Li, A. Puzder, P. Hyldgaard, and
     *   D. C. Langreth, Phys. Rev. B 76, 125112 (2007).
     *
     *   G. Roman-Perez and J. M. Soler, Phys. Rev. Lett. 103, 096102 (2009).
     *
     *
     * If you are using vdW-DF2, please also cite:
     *
     *   K. Lee, E. D. Murray, L. Kong, B. I. Lundqvist, and
     *   D. C. Langreth, Phys. Rev. B 82, 081101(R) (2010).
     *
     *
     * If you are calculating the stress with vdW-DF, please also cite:
     *
     *   R. Sabatini, E. Kucukbenli, B. Kolb, T. Thonhauser, and
     *   S. de Gironcoli, J. Phys.: Condens. Matter 24, 424209 (2012).
     *

     Carrying out vdW-DF run using the following parameters:

     Nqs =      20    Nr_points =    1024   r_max =   100.000
     q_mesh =
               0.00001000     0.04494208     0.09755937     0.15916263
               0.23128650     0.31572767     0.41458969     0.53033537
               0.66584808     0.82450364     1.01025438     1.22772762
               1.48234092     1.78043706     2.12944203     2.53805004
               3.01644009     3.57652955     4.23227104     5.00000000

     Gradients computed in reciprocal space

[...]

     Starting wfc are  177 randomized atomic wfcs

     Self-consistent Calculation

[...]

     total energy              =   -1889.17795811 Ry
     Harris-Foulkes estimate   =   -1889.17795416 Ry
     estimated scf accuracy    <       0.00000270 Ry

     iteration # 23     ecut=    36.75 Ry     beta=0.10
     Davidson diagonalization with overlap
     ethr =  1.48E-09,  avg # of iterations =  1.1

[...]

     negative rho (up, down):  1.286E+00 0.000E+00

     Adding external electric field

     Computed dipole along edir(3) :
        Dipole                0.4085 Ry au,          1.0383 Debye
        Dipole field          0.0010 Ry au

        Potential amp.       -0.0928 Ry
        Total length         45.7352 bohr

     End of self-consistent calculation

[...]

          k = 0.0564 0.0000 0.0000 ( 19035 PWs)   bands (ev):

[...]

          k =-0.0847-0.1466 0.0000 ( 19036 PWs)   bands (ev):

   -64.0652 -64.0152 -63.9985 -63.8879 -63.8438 -63.8387 -63.6344 -63.6211
   -63.6076 -36.5706 -36.4555 -36.4170 -36.2860 -36.2473 -36.2230 -36.0724
   -36.0607 -35.9823 -35.8789 -35.8664 -35.8332 -35.8182 -35.7403 -35.7028
   -35.7005 -35.6849 -35.6834 -35.6755 -35.6419 -35.6374 -35.6197 -35.6101
   -35.6053 -35.5933 -35.5746 -35.4934 -30.0351 -28.7453 -28.2841 -13.7455
   -13.7288 -13.6945 -12.8225 -12.7046 -12.6942 -12.5039 -12.4970 -12.3910
    -1.4892  -1.0180  -0.8096  -0.4870  -0.4763  -0.4368  -0.2810  -0.1646
     0.0423   0.0501   0.1232   0.2205   0.3409   0.5519   0.6251   0.6939
     0.7803   0.9301   1.0474   1.2766   1.3316   1.4219   1.4561   1.5537
     1.7719   1.8087   1.8207   1.8785   2.0136   2.0526   2.2929   2.3715
     2.4478   2.5582   2.6990   2.7521   2.8818   2.9152   3.0367   3.1329
     3.1652   3.1767   3.2443   3.3630   3.4246   3.8150   3.8987   3.9958
     4.3153   4.3996   4.4212   4.5799   4.6388   4.7737   4.9142   5.0021
     5.0209   5.0381   5.0566   5.1564   5.3027   5.5238   5.6555   6.1697
     6.1837   6.2724

     the Fermi energy is     2.8753 ev

!    total energy              =   -1889.17796235 Ry
     Harris-Foulkes estimate   =   -1889.17796262 Ry
     estimated scf accuracy    <       0.00000097 Ry

     The total energy is the sum of the following terms:

     one-electron contribution =  -14109.96407081 Ry
     hartree contribution      =    7062.97392310 Ry
     xc contribution           =    -451.03237360 Ry
     ewald contribution        =    5608.96127729 Ry
     electric field correction =       0.00041433 Ry
     smearing contrib. (-TS)   =      -0.11713267 Ry

     convergence has been achieved in  23 iterations

 BEEF-vdW xc energy contributions
           1 :   -396.874469613515
           2 :    365.118147226924
           3 :   -308.605368942291
           4 :    238.712566355544
           5 :   -167.709644836100
           6 :    105.439285825926
           7 :   -57.3937411447310
           8 :    24.4080886215340
           9 :   -3.85210342340667
          10 :   -8.43333953831416
          11 :    16.2308374659216
          12 :   -21.8013935426195
          13 :    25.6859150443387
          14 :   -27.2948534474972
          15 :    25.7978541669037
          16 :   -20.8936123503356
          17 :    13.1500225695462
          18 :   -3.89812921589498
          19 :   -5.19088009922382
          20 :    12.5867377893805
          21 :   -17.2539566588703
          22 :    18.7705487328426
          23 :   -17.2561285030381
          24 :    13.1965601822443
          25 :   -7.28144547614284
          26 :   0.304353366779196
          27 :    6.87467558987657
          28 :   -13.3635551464129
          29 :    18.3169828227230
          30 :   -21.0768886902102
          31 :   -36.2633952559150
          32 :   -26.4138622116994

     Forces acting on atoms (Ry/au):

     negative rho (up, down):  1.286E+00 0.000E+00
     atom    1 type  1   force =    -0.00000011   -0.03268103    0.02875646
     atom    2 type  1   force =    -0.02830512    0.01634013    0.02874913
     atom    3 type  1   force =     0.02830464    0.01634083    0.02874443
     atom    4 type  2   force =    -0.00000164   -0.00000952   -0.08978666
     atom    5 type  1   force =    -0.00000207    0.04038328    0.01234744
     atom    6 type  1   force =     0.03495911   -0.02020229    0.01235911
     atom    7 type  1   force =    -0.03495742   -0.02019849    0.01236039
     atom    8 type  2   force =     0.00000117    0.00002709   -0.03322688
     atom    9 type  1   force =     0.00000337   -0.00073431   -0.00002758
     atom   10 type  1   force =    -0.00063185    0.00037066   -0.00003031
     atom   11 type  1   force =     0.00063150    0.00036695   -0.00002962
     atom   12 type  2   force =    -0.00000156   -0.00000329   -0.00021591

     Total force =     0.142128     Total SCF correction =     0.004646

     entering subroutine stress ...

     negative rho (up, down):  1.286E+00 0.000E+00
          total   stress  (Ry/bohr**3)                   (kbar)     P=   -2.11
  -0.00001980   0.00000000   0.00000001         -2.91      0.00      0.00
   0.00000000  -0.00001986   0.00000002          0.00     -2.92      0.00
   0.00000001   0.00000002  -0.00000347          0.00      0.00     -0.51

 !ASE

     Writing output data file calc.save

     General routines

     Parallel routines

   This run was terminated on:   0:48:16   2Jan2019

   JOB DONE.
Job  /afs/slac/g/suncat/bin/suncat-tsmpirun -x LD_LIBRARY_PATH -wdir /scratch/qe649157_OFOMx pw.x -in pw.inp

TID   HOST_NAME   COMMAND_LINE            STATUS            TERMINATION_TIME
00000 suncat0146 pw.x -in pw.inp   Done                     01/02/2019 00:48:16
00001 suncat0146 pw.x -in pw.inp   Done                     01/02/2019 00:48:16
00002 suncat0146 pw.x -in pw.inp   Done                     01/02/2019 00:48:16
00003 suncat0146 pw.x -in pw.inp   Done                     01/02/2019 00:48:16
00004 suncat0146 pw.x -in pw.inp   Done                     01/02/2019 00:48:16
00005 suncat0146 pw.x -in pw.inp   Done                     01/02/2019 00:48:16
00006 suncat0146 pw.x -in pw.inp   Done                     01/02/2019 00:48:16
00007 suncat0146 pw.x -in pw.inp   Done                     01/02/2019 00:48:16
00008 suncat0136 pw.x -in pw.inp   Done                     01/02/2019 00:48:16
00009 suncat0136 pw.x -in pw.inp   Done                     01/02/2019 00:48:16
00010 suncat0136 pw.x -in pw.inp   Done                     01/02/2019 00:48:16
00011 suncat0136 pw.x -in pw.inp   Done                     01/02/2019 00:48:16
00012 suncat0136 pw.x -in pw.inp   Done                     01/02/2019 00:48:16
00013 suncat0136 pw.x -in pw.inp   Done                     01/02/2019 00:48:16
00014 suncat0136 pw.x -in pw.inp   Done                     01/02/2019 00:48:16
00015 suncat0136 pw.x -in pw.inp   Done                     01/02/2019 00:48:16
00016 suncat0248 pw.x -in pw.inp   Done                     01/02/2019 00:48:16
00017 suncat0248 pw.x -in pw.inp   Done                     01/02/2019 00:48:16
00018 suncat0248 pw.x -in pw.inp   Done                     01/02/2019 00:48:16
00019 suncat0248 pw.x -in pw.inp   Done                     01/02/2019 00:48:16
00020 suncat0248 pw.x -in pw.inp   Done                     01/02/2019 00:48:16
00021 suncat0248 pw.x -in pw.inp   Done                     01/02/2019 00:48:16
00022 suncat0248 pw.x -in pw.inp   Done                     01/02/2019 00:48:16
00023 suncat0248 pw.x -in pw.inp   Done                     01/02/2019 00:48:16
00024 suncat0247 pw.x -in pw.inp   Done                     01/02/2019 00:48:16
00025 suncat0247 pw.x -in pw.inp   Done                     01/02/2019 00:48:16
00026 suncat0247 pw.x -in pw.inp   Done                     01/02/2019 00:48:16
00027 suncat0247 pw.x -in pw.inp   Done                     01/02/2019 00:48:16
00028 suncat0247 pw.x -in pw.inp   Done                     01/02/2019 00:48:16
00029 suncat0247 pw.x -in pw.inp   Done                     01/02/2019 00:48:16
00030 suncat0247 pw.x -in pw.inp   Done                     01/02/2019 00:48:16
00031 suncat0247 pw.x -in pw.inp   Done                     01/02/2019 00:48:16
00032 suncat0246 pw.x -in pw.inp   Done                     01/02/2019 00:48:16
00033 suncat0246 pw.x -in pw.inp   Done                     01/02/2019 00:48:16
00034 suncat0246 pw.x -in pw.inp   Done                     01/02/2019 00:48:16
00035 suncat0246 pw.x -in pw.inp   Done                     01/02/2019 00:48:16
00036 suncat0246 pw.x -in pw.inp   Done                     01/02/2019 00:48:16
00037 suncat0246 pw.x -in pw.inp   Done                     01/02/2019 00:48:16
00038 suncat0246 pw.x -in pw.inp   Done                     01/02/2019 00:48:16
00039 suncat0246 pw.x -in pw.inp   Done                     01/02/2019 00:48:16
00040 suncat0245 pw.x -in pw.inp   Done                     01/02/2019 00:48:16
00041 suncat0245 pw.x -in pw.inp   Done                     01/02/2019 00:48:16
00042 suncat0245 pw.x -in pw.inp   Done                     01/02/2019 00:48:16
00043 suncat0245 pw.x -in pw.inp   Done                     01/02/2019 00:48:16
00044 suncat0245 pw.x -in pw.inp   Done                     01/02/2019 00:48:16
00045 suncat0245 pw.x -in pw.inp   Done                     01/02/2019 00:48:16
00046 suncat0245 pw.x -in pw.inp   Done                     01/02/2019 00:48:16
00047 suncat0245 pw.x -in pw.inp   Done                     01/02/2019 00:48:16
00048 suncat0214 pw.x -in pw.inp   Done                     01/02/2019 00:48:16
00049 suncat0214 pw.x -in pw.inp   Done                     01/02/2019 00:48:16
00050 suncat0214 pw.x -in pw.inp   Done                     01/02/2019 00:48:16
00051 suncat0214 pw.x -in pw.inp   Done                     01/02/2019 00:48:16
00052 suncat0214 pw.x -in pw.inp   Done                     01/02/2019 00:48:16
00053 suncat0214 pw.x -in pw.inp   Done                     01/02/2019 00:48:16
00054 suncat0214 pw.x -in pw.inp   Done                     01/02/2019 00:48:16
00055 suncat0214 pw.x -in pw.inp   Done                     01/02/2019 00:48:16
00056 suncat0213 pw.x -in pw.inp   Done                     01/02/2019 00:48:16
00057 suncat0213 pw.x -in pw.inp   Done                     01/02/2019 00:48:16
00058 suncat0213 pw.x -in pw.inp   Done                     01/02/2019 00:48:16
00059 suncat0213 pw.x -in pw.inp   Done                     01/02/2019 00:48:16
00060 suncat0213 pw.x -in pw.inp   Done                     01/02/2019 00:48:16
00061 suncat0213 pw.x -in pw.inp   Done                     01/02/2019 00:48:16
00062 suncat0213 pw.x -in pw.inp   Done                     01/02/2019 00:48:16
00063 suncat0213 pw.x -in pw.inp   Done                     01/02/2019 00:48:16