     Program PWSCF v.5.1rc2 (svn rev. 11289) starts on 31Dec2018 at  5:49: 7

     Current dimensions of program PWSCF are:
     Max number of different atomic species (ntypx) = 10
     Max number of k-points (npk) =  40000
     Max angular momentum in pseudopotentials (lmaxx) =  3
     Presently stress not available with electric field

     IMPORTANT: XC functional enforced from input :
     Exchange-correlation      = BEEF-VDW ( 1  4 27 13 2)
     Any further DFT definition will be discarded
     Please, verify this is what you really want

     Subspace diagonalization in iterative solution of the eigenvalue problem:
     a serial algorithm will be used

     bravais-lattice index     =            0
     lattice parameter (alat)  =       1.8897  a.u.
     unit-cell volume          =    4174.2987 (a.u.)^3
     number of atoms/cell      =           12
     number of atomic types    =            2
     number of electrons       =       201.00
     number of Kohn-Sham states=          130
     kinetic-energy cutoff     =      36.7493  Ry
     charge density cutoff     =     367.4932  Ry
     convergence threshold     =      1.0E-06
     mixing beta               =       0.1000
     number of iterations used =           10  plain     mixing
     Exchange-correlation      = BEEF-VDW ( 1  4 27 13 2)
     nstep                     =           50

     celldm(1)=   1.889726  celldm(2)=   0.000000  celldm(3)=   0.000000
     celldm(4)=   0.000000  celldm(5)=   0.000000  celldm(6)=   0.000000

     crystal axes: (cart. coord. in units of alat)
               a(1) = (   5.408658   0.000000   0.000000 )
               a(2) = (  -2.704329   4.684035   0.000000 )
               a(3) = (   0.000000   0.000000  24.416151 )

     reciprocal axes: (cart. coord. in units 2 pi/alat)
               b(1) = (  0.184889  0.106746  0.000000 )
               b(2) = (  0.000000  0.213491  0.000000 )
               b(3) = (  0.000000  0.000000  0.040956 )

     PseudoPot. # 1 for Os read from file:
     /afs/slac.stanford.edu/u/if/mamunm/psp/gbrv1.5pbe/Os.UPF
     MD5 check sum: a3fb40a04f0c37c25c34bbc47164c9a8
     Pseudo is Ultrasoft + core correction, Zval = 16.0
     Generated by new atomic code, or converted to UPF format
     Using radial grid of  983 points,  8 beta functions with:
                l(1) =   0
                l(2) =   0
                l(3) =   1
                l(4) =   1
                l(5) =   2
                l(6) =   2
                l(7) =   3
                l(8) =   3
     Q(r) pseudized with  8 coefficients,  rinner =    1.150   1.150   1.150
                                                       1.150   1.150   1.150
                                                       1.150

     PseudoPot. # 2 for Cu read from file:
     /afs/slac.stanford.edu/u/if/mamunm/psp/gbrv1.5pbe/Cu.UPF
     MD5 check sum: 6e991ff952a84172a2a52a1c1e996048
     Pseudo is Ultrasoft + core correction, Zval = 19.0
     Generated by new atomic code, or converted to UPF format
     Using radial grid of  867 points,  6 beta functions with:
                l(1) =   0
                l(2) =   0
                l(3) =   1
                l(4) =   1
                l(5) =   2
                l(6) =   2
     Q(r) pseudized with  8 coefficients,  rinner =    1.150   1.150   1.150
                                                       1.150   1.150

     vdW kernel table read from file vdW_kernel_table
     MD5 check sum: 095c7af220d748ca6e76c0b4c6cfb241

     atomic species   valence    mass     pseudopotential
        Os1           16.00   190.23000     Os( 1.00)
        Cu1           19.00    63.54600     Cu( 1.00)

     No symmetry found

   Cartesian axes

     site n.     atom                  positions (alat units)
         1           Os1 tau(   1) = (   0.0000000   0.0000000  10.0000000  )
         2           Os1 tau(   2) = (  -1.3521646   2.3420177  10.0000000  )
         3           Os1 tau(   3) = (   1.3521646   2.3420177  10.0000000  )
         4           Cu1 tau(   4) = (   2.7043292   0.0000000  10.0000000  )
         5           Os1 tau(   5) = (   2.7043292   1.5613452  12.2080755  )
         6           Os1 tau(   6) = (   1.3521646   3.9033629  12.2080755  )
         7           Os1 tau(   7) = (  -1.3521646   3.9033629  12.2080755  )
         8           Cu1 tau(   8) = (   0.0000000   1.5613452  12.2080755  )
         9           Os1 tau(   9) = (  -0.0000000   3.1226903  14.4161510  )
        10           Os1 tau(  10) = (   1.3521646   0.7806726  14.4161510  )
        11           Os1 tau(  11) = (   4.0564937   0.7806726  14.4161510  )
        12           Cu1 tau(  12) = (   2.7043292   3.1226903  14.4161510  )

     number of k points=    20  Fermi-Dirac smearing, width (Ry)=  0.0110
                       cart. coord. in units 2pi/alat
        k(    1) = (   0.0000000   0.0000000   0.0000000), wk =   0.0555556
        k(    2) = (   0.0000000   0.0355819   0.0000000), wk =   0.1111111
        k(    3) = (   0.0000000   0.0711637   0.0000000), wk =   0.1111111
        k(    4) = (   0.0000000  -0.1067456   0.0000000), wk =   0.0555556
        k(    5) = (   0.0308148   0.0177909   0.0000000), wk =   0.1111111
        k(    6) = (   0.0308148   0.0533728   0.0000000), wk =   0.1111111
        k(    7) = (   0.0308148   0.0889546   0.0000000), wk =   0.1111111
        k(    8) = (   0.0308148  -0.0889546   0.0000000), wk =   0.1111111
        k(    9) = (   0.0308148  -0.0533728   0.0000000), wk =   0.1111111
        k(   10) = (   0.0308148  -0.0177909   0.0000000), wk =   0.1111111
        k(   11) = (   0.0616296   0.0355819   0.0000000), wk =   0.1111111
        k(   12) = (   0.0616296   0.0711637   0.0000000), wk =   0.1111111
        k(   13) = (   0.0616296   0.1067456   0.0000000), wk =   0.1111111
        k(   14) = (   0.0616296  -0.0711637   0.0000000), wk =   0.1111111
        k(   15) = (   0.0616296  -0.0355819   0.0000000), wk =   0.1111111
        k(   16) = (   0.0616296   0.0000000   0.0000000), wk =   0.1111111
        k(   17) = (  -0.0924444  -0.0533728   0.0000000), wk =   0.0555556
        k(   18) = (  -0.0924444  -0.0177909   0.0000000), wk =   0.1111111
        k(   19) = (  -0.0924444   0.0177909   0.0000000), wk =   0.1111111
        k(   20) = (  -0.0924444  -0.1601183   0.0000000), wk =   0.0555556

     Largest allocated arrays     est. size (Mb)     dimensions
     Largest temporary arrays     est. size (Mb)     dimensions

     Initial potential from superposition of free atoms
     Check: negative starting charge=   -1.122980

     starting charge  193.49967, renormalised to  201.00000

     negative rho (up, down):  1.167E+00 0.000E+00

     *
     * You are using vdW-DF for exchange-correlation in this calculation.
     * Please cite the following three references that made this development
     * possible:
     *
     *   M. Dion, H. Rydberg, E. Schroder, D. C. Langreth, and
     *   B. I. Lundqvist, Phys. Rev. Lett. 92, 246401 (2004).
     *
     *   T. Thonhauser, V. R. Cooper, S. Li, A. Puzder, P. Hyldgaard, and
     *   D. C. Langreth, Phys. Rev. B 76, 125112 (2007).
     *
     *   G. Roman-Perez and J. M. Soler, Phys. Rev. Lett. 103, 096102 (2009).
     *
     *
     * If you are using vdW-DF2, please also cite:
     *
     *   K. Lee, E. D. Murray, L. Kong, B. I. Lundqvist, and
     *   D. C. Langreth, Phys. Rev. B 82, 081101(R) (2010).
     *
     *
     * If you are calculating the stress with vdW-DF, please also cite:
     *
     *   R. Sabatini, E. Kucukbenli, B. Kolb, T. Thonhauser, and
     *   S. de Gironcoli, J. Phys.: Condens. Matter 24, 424209 (2012).
     *

     Carrying out vdW-DF run using the following parameters:

     Nqs =      20    Nr_points =    1024   r_max =   100.000
     q_mesh =
               0.00001000     0.04494208     0.09755937     0.15916263
               0.23128650     0.31572767     0.41458969     0.53033537
               0.66584808     0.82450364     1.01025438     1.22772762
               1.48234092     1.78043706     2.12944203     2.53805004
               3.01644009     3.57652955     4.23227104     5.00000000

     Gradients computed in reciprocal space

     Adding external electric field

     Computed dipole along edir(3) :
        Dipole               -0.0000 Ry au,         -0.0000 Debye
        Dipole field         -0.0000 Ry au

        Potential amp.        0.0000 Ry
        Total length         44.9863 bohr

     Starting wfc are  156 randomized atomic wfcs

     Self-consistent Calculation

     iteration #  1     ecut=    36.75 Ry     beta=0.10
     Davidson diagonalization with overlap
     ethr =  1.00E-02,  avg # of iterations =  8.1

[...]

     total energy              =   -3012.71382988 Ry
     Harris-Foulkes estimate   =   -3014.14980567 Ry
     estimated scf accuracy    <       8.51478146 Ry

[...]

     End of self-consistent calculation

          k = 0.0000 0.0000 0.0000 ( 15605 PWs)   bands (ev):

  -110.9802-110.6028-110.6026 -84.6535 -84.6041 -84.6040 -84.2847 -84.2832
   -84.2363 -84.2363 -84.2359 -84.2358 -68.3643 -68.3628 -68.3628 -68.0495
   -68.0495 -68.0493 -68.0493 -67.8480 -67.8478 -44.3430 -44.1089 -44.1089
   -44.1070 -44.0174 -43.9856 -43.9855 -43.9456 -43.7225 -43.6765 -43.6765
   -43.6145 -43.6144 -43.5545 -43.5545 -43.5281 -43.4461 -43.4460 -43.4070
   -43.3767 -43.3767 -43.2944 -43.2774 -43.2681 -43.2680 -43.2623 -43.2623
    -7.0229  -5.1094  -4.4896  -4.3816  -4.1460  -3.7523  -3.7523  -3.4176
    -3.4176  -3.3026  -3.2194  -3.0538  -3.0538  -2.7448  -2.7447  -1.9637
    -1.4969  -1.4969  -1.2195  -1.1238  -1.1238  -0.9037  -0.8686  -0.8685
    -0.7846  -0.5623  -0.5623  -0.5171  -0.5171  -0.3924  -0.3924  -0.2335
     0.1156   0.1156   0.1355   0.2974   0.2974   0.5696   0.5696   0.6552
     1.2482   1.4470   1.4470   1.7033   2.1741   2.2778   2.2778   2.5023
     2.6594   2.6594   2.7385   2.7385   2.9298   2.9298   3.1777   3.1777
     3.3391   3.3391   3.3450   3.3450   3.4784   3.9642   3.9642   4.1232
     4.8998   4.9865   5.0851   5.2960   5.3965   5.7324   5.7324   6.3361
     6.3361   6.7364   6.9431   7.4010   8.2957   8.6437   8.6853   9.2028
     9.6073   9.6075

[...]

          k =-0.0924-0.0534 0.0000 ( 15740 PWs)   bands (ev):

[...]

     the Fermi energy is     2.2774 ev

!    total energy              =   -3012.49669237 Ry
     Harris-Foulkes estimate   =   -3012.49668630 Ry
     estimated scf accuracy    <       0.00000077 Ry

     The total energy is the sum of the following terms:

     one-electron contribution =  -24653.64350061 Ry
     hartree contribution      =   12316.20483062 Ry
     xc contribution           =    -467.83010546 Ry
     ewald contribution        =    9792.85382094 Ry
     electric field correction =       0.00000012 Ry
     smearing contrib. (-TS)   =      -0.08173797 Ry

     convergence has been achieved in  19 iterations

 BEEF-vdW xc energy contributions
           1 :   -411.154216284382
           2 :    378.837295162960
           3 :   -322.424815375080
           4 :    255.138037703991
           5 :   -190.546352848046
           6 :    138.458521780605
           7 :   -102.816827860611
[...]
                l(1) =   0
                l(2) =   0
                l(3) =   1
                l(4) =   1
                l(5) =   2
                l(6) =   2
                l(7) =   3
                l(8) =   3
     Q(r) pseudized with  8 coefficients,  rinner =    1.150   1.150   1.150
                                                       1.150   1.150   1.150
                                                       1.150

     PseudoPot. # 2 for Cu read from file:
     /afs/slac.stanford.edu/u/if/mamunm/psp/gbrv1.5pbe/Cu.UPF
     MD5 check sum: 6e991ff952a84172a2a52a1c1e996048
     Pseudo is Ultrasoft + core correction, Zval = 19.0
     Generated by new atomic code, or converted to UPF format
     Using radial grid of  867 points,  6 beta functions with:
                l(1) =   0
                l(2) =   0
                l(3) =   1
                l(4) =   1
                l(5) =   2
                l(6) =   2
     Q(r) pseudized with  8 coefficients,  rinner =    1.150   1.150   1.150
                                                       1.150   1.150

     vdW kernel table read from file vdW_kernel_table
     MD5 check sum: 095c7af220d748ca6e76c0b4c6cfb241

     atomic species   valence    mass     pseudopotential
        Os1           16.00   190.23000     Os( 1.00)
        Cu1           19.00    63.54600     Cu( 1.00)

     No symmetry found

   Cartesian axes

     site n.     atom                  positions (alat units)
         1           Os1 tau(   1) = (   0.0000000   0.0000000  10.0000000  )
         2           Os1 tau(   2) = (  -1.3521646   2.3420177  10.0000000  )
         3           Os1 tau(   3) = (   1.3521646   2.3420177  10.0000000  )
         4           Cu1 tau(   4) = (   2.7043292   0.0000000  10.0000000  )
         5           Os1 tau(   5) = (   2.7043292   1.5613452  12.2080755  )
         6           Os1 tau(   6) = (   1.3521646   3.9033629  12.2080755  )
         7           Os1 tau(   7) = (  -1.3521646   3.9033629  12.2080755  )
         8           Cu1 tau(   8) = (   0.0000000   1.5613452  12.2080755  )
         9           Os1 tau(   9) = (  -0.0000594   3.1602150  14.3542523  )
        10           Os1 tau(  10) = (   1.3846523   0.7618987  14.3542590  )
        11           Os1 tau(  11) = (   4.0239751   0.7619498  14.3542591  )
        12           Cu1 tau(  12) = (   2.7042615   3.1226994  14.4107779  )

     number of k points=    20  Fermi-Dirac smearing, width (Ry)=  0.0110
                       cart. coord. in units 2pi/alat
        k(    1) = (   0.0000000   0.0000000   0.0000000), wk =   0.0555556
        k(    2) = (   0.0000000   0.0355819   0.0000000), wk =   0.1111111
        k(    3) = (   0.0000000   0.0711637   0.0000000), wk =   0.1111111
        k(    4) = (   0.0000000  -0.1067456   0.0000000), wk =   0.0555556
        k(    5) = (   0.0308148   0.0177909   0.0000000), wk =   0.1111111
        k(    6) = (   0.0308148   0.0533728   0.0000000), wk =   0.1111111
        k(    7) = (   0.0308148   0.0889546   0.0000000), wk =   0.1111111
        k(    8) = (   0.0308148  -0.0889546   0.0000000), wk =   0.1111111
        k(    9) = (   0.0308148  -0.0533728   0.0000000), wk =   0.1111111
        k(   10) = (   0.0308148  -0.0177909   0.0000000), wk =   0.1111111
        k(   11) = (   0.0616296   0.0355819   0.0000000), wk =   0.1111111
        k(   12) = (   0.0616296   0.0711637   0.0000000), wk =   0.1111111
        k(   13) = (   0.0616296   0.1067456   0.0000000), wk =   0.1111111
        k(   14) = (   0.0616296  -0.0711637   0.0000000), wk =   0.1111111
        k(   15) = (   0.0616296  -0.0355819   0.0000000), wk =   0.1111111
        k(   16) = (   0.0616296   0.0000000   0.0000000), wk =   0.1111111
        k(   17) = (  -0.0924444  -0.0533728   0.0000000), wk =   0.0555556
        k(   18) = (  -0.0924444  -0.0177909   0.0000000), wk =   0.1111111
        k(   19) = (  -0.0924444   0.0177909   0.0000000), wk =   0.1111111
        k(   20) = (  -0.0924444  -0.1601183   0.0000000), wk =   0.0555556

     Largest allocated arrays     est. size (Mb)     dimensions
     Largest temporary arrays     est. size (Mb)     dimensions

     Initial potential from superposition of free atoms
     Check: negative starting charge=   -1.126318

     starting charge  193.49967, renormalised to  201.00000

[...]

     *
     * You are using vdW-DF for exchange-correlation in this calculation.
     * Please cite the following three references that made this development
     * possible:
     *
     *   M. Dion, H. Rydberg, E. Schroder, D. C. Langreth, and
     *   B. I. Lundqvist, Phys. Rev. Lett. 92, 246401 (2004).
     *
     *   T. Thonhauser, V. R. Cooper, S. Li, A. Puzder, P. Hyldgaard, and
     *   D. C. Langreth, Phys. Rev. B 76, 125112 (2007).
     *
     *   G. Roman-Perez and J. M. Soler, Phys. Rev. Lett. 103, 096102 (2009).
     *
     *
     * If you are using vdW-DF2, please also cite:
     *
     *   K. Lee, E. D. Murray, L. Kong, B. I. Lundqvist, and
     *   D. C. Langreth, Phys. Rev. B 82, 081101(R) (2010).
     *
     *
     * If you are calculating the stress with vdW-DF, please also cite:
     *
     *   R. Sabatini, E. Kucukbenli, B. Kolb, T. Thonhauser, and
     *   S. de Gironcoli, J. Phys.: Condens. Matter 24, 424209 (2012).
     *

     Carrying out vdW-DF run using the following parameters:

     Nqs =      20    Nr_points =    1024   r_max =   100.000
     q_mesh =
               0.00001000     0.04494208     0.09755937     0.15916263
               0.23128650     0.31572767     0.41458969     0.53033537
               0.66584808     0.82450364     1.01025438     1.22772762
               1.48234092     1.78043706     2.12944203     2.53805004
               3.01644009     3.57652955     4.23227104     5.00000000

     Gradients computed in reciprocal space

[...]

     Starting wfc are  156 randomized atomic wfcs

     Self-consistent Calculation

[...]

     total energy              =   -3012.50339890 Ry
     Harris-Foulkes estimate   =   -3012.50339720 Ry
     estimated scf accuracy    <       0.00000158 Ry

     iteration # 18     ecut=    36.75 Ry     beta=0.10
     Davidson diagonalization with overlap
     ethr =  7.88E-10,  avg # of iterations =  2.0

[...]

     negative rho (up, down):  1.126E+00 0.000E+00

     Adding external electric field

     Computed dipole along edir(3) :
        Dipole                0.0304 Ry au,          0.0773 Debye
        Dipole field          0.0001 Ry au

        Potential amp.       -0.0082 Ry
        Total length         44.9863 bohr

     End of self-consistent calculation

[...]

          k = 0.0616 0.0000 0.0000 ( 15684 PWs)   bands (ev):

[...]

          k =-0.0924-0.1601 0.0000 ( 15740 PWs)   bands (ev):

  -110.9957-110.6070-110.5734 -84.6370 -84.6203 -84.6037 -84.2929 -84.2712
   -84.2570 -84.2166 -84.2007 -84.1846 -68.3915 -68.3723 -68.3723 -68.0538
   -68.0538 -68.0198 -68.0197 -67.8550 -67.8196 -44.2335 -44.1218 -44.0596
   -44.0284 -43.9415 -43.9357 -43.8795 -43.8542 -43.8513 -43.7754 -43.6228
   -43.6038 -43.5551 -43.5300 -43.5148 -43.4923 -43.4674 -43.4600 -43.4493
   -43.4217 -43.4140 -43.3849 -43.3788 -43.3485 -43.3417 -43.2877 -43.2253
    -5.2956  -5.0246  -3.7024  -3.5596  -3.4124  -3.1087  -3.0708  -3.0130
    -2.6974  -2.6652  -2.5486  -2.2283  -2.1338  -2.1265  -1.9240  -1.8171
    -1.6564  -1.6255  -1.6113  -1.4693  -1.3676  -1.2422  -1.0012  -0.8851
    -0.8223  -0.7931  -0.7696  -0.6754  -0.6333  -0.5101  -0.4805  -0.4430
    -0.3072  -0.3057  -0.2533  -0.2100  -0.1282  -0.0526   0.0161   0.0452
     0.3340   0.5033   0.5581   0.7497   0.8302   0.8622   1.0883   1.1415
     1.5203   1.5329   1.7070   2.0826   2.1342   2.1863   2.2244   2.2510
     2.4967   2.6514   2.6711   2.6804   3.1419   3.5913   3.8513   4.0128
     4.3755   4.7524   4.8157   5.3382   6.6323   6.7160   6.9709   7.3168
     7.6266   8.1727   8.3250   8.3462   8.8807   8.9773   9.0362   9.0401
    10.0622  10.1377

     the Fermi energy is     2.3113 ev

!    total energy              =   -3012.50340670 Ry
     Harris-Foulkes estimate   =   -3012.50339815 Ry
     estimated scf accuracy    <       0.00000075 Ry

     The total energy is the sum of the following terms:

     one-electron contribution =  -24810.45607812 Ry
     hartree contribution      =   12394.62589336 Ry
     xc contribution           =    -467.96572552 Ry
     ewald contribution        =    9871.37322254 Ry
     electric field correction =       0.00000279 Ry
     smearing contrib. (-TS)   =      -0.08072175 Ry

     convergence has been achieved in  18 iterations

 BEEF-vdW xc energy contributions
           1 :   -411.292393189630
           2 :    379.025931343095
           3 :   -322.684414701151
           4 :    255.444540127361
           5 :   -190.839136764815
           6 :    138.668155829656
           7 :   -102.898579573928
           8 :    81.9819900510118
           9 :   -71.0126669556017
          10 :    64.4763184114331
          11 :   -58.3611256681164
          12 :    50.9638412407700
          13 :   -42.4955458002333
          14 :    34.0899212664675
          15 :   -26.8835587314330
          16 :    21.5278282837545
          17 :   -18.1274453132904
          18 :    16.3877618353458
          19 :   -15.7768305005363
          20 :    15.6378151936017
          21 :   -15.3047490802045
          22 :    14.2732122148823
          23 :   -12.3939790484255
          24 :    9.96691222280674
          25 :   -7.62656598699482
          26 :    6.02633659943967
          27 :   -5.47890440027487
          28 :    5.76693866236690
          29 :   -6.25646800543541
          30 :    6.26030410531774
          31 :   -37.3146126679567
          32 :   -27.7851738649762

     Forces acting on atoms (Ry/au):

     negative rho (up, down):  1.126E+00 0.000E+00
     atom    1 type  1   force =     0.00000748   -0.02311127    0.01631972
     atom    2 type  1   force =    -0.02002584    0.01155459    0.01632848
     atom    3 type  1   force =     0.02002410    0.01154592    0.01632387
     atom    4 type  2   force =     0.00002574   -0.00003797   -0.00242862
     atom    5 type  1   force =    -0.00000020    0.00669914   -0.01361111
     atom    6 type  1   force =     0.00579592   -0.00334700   -0.01360803
     atom    7 type  1   force =    -0.00580254   -0.00335103   -0.01361041
     atom    8 type  2   force =     0.00000328   -0.00000612   -0.00394049
     atom    9 type  1   force =    -0.00000508    0.00014120   -0.00035788
     atom   10 type  1   force =     0.00013108   -0.00006594   -0.00036993
     atom   11 type  1   force =    -0.00013216   -0.00006245   -0.00036554
     atom   12 type  2   force =    -0.00002179    0.00004094   -0.00068006

     Total force =     0.055812     Total SCF correction =     0.007621
     SCF correction compared to forces is large: reduce conv_thr to get better values

     entering subroutine stress ...

     negative rho (up, down):  1.126E+00 0.000E+00
          total   stress  (Ry/bohr**3)                   (kbar)     P=  -34.31
  -0.00030993  -0.00000001   0.00000001        -45.59     -0.00      0.00
  -0.00000001  -0.00030993  -0.00000000         -0.00    -45.59     -0.00
   0.00000001  -0.00000000  -0.00007990          0.00     -0.00    -11.75

 !ASE

     Writing output data file calc.save

     General routines

     Parallel routines

   This run was terminated on:   7: 5:31  31Dec2018

   JOB DONE.
Job  /afs/slac/g/suncat/bin/suncat-tsmpirun -x LD_LIBRARY_PATH -wdir /scratch/qe648688_lmASK pw.x -in pw.inp

TID   HOST_NAME   COMMAND_LINE            STATUS            TERMINATION_TIME
00000 suncat0271 pw.x -in pw.inp   Done                     12/31/2018 07:05:31
00001 suncat0271 pw.x -in pw.inp   Done                     12/31/2018 07:05:31
00002 suncat0271 pw.x -in pw.inp   Done                     12/31/2018 07:05:31
00003 suncat0271 pw.x -in pw.inp   Done                     12/31/2018 07:05:31
00004 suncat0271 pw.x -in pw.inp   Done                     12/31/2018 07:05:31
00005 suncat0271 pw.x -in pw.inp   Done                     12/31/2018 07:05:31
00006 suncat0271 pw.x -in pw.inp   Done                     12/31/2018 07:05:31
00007 suncat0271 pw.x -in pw.inp   Done                     12/31/2018 07:05:31
00008 suncat0266 pw.x -in pw.inp   Done                     12/31/2018 07:05:31
00009 suncat0266 pw.x -in pw.inp   Done                     12/31/2018 07:05:31
00010 suncat0266 pw.x -in pw.inp   Done                     12/31/2018 07:05:31
00011 suncat0266 pw.x -in pw.inp   Done                     12/31/2018 07:05:31
00012 suncat0266 pw.x -in pw.inp   Done                     12/31/2018 07:05:31
00013 suncat0266 pw.x -in pw.inp   Done                     12/31/2018 07:05:31
00014 suncat0266 pw.x -in pw.inp   Done                     12/31/2018 07:05:31
00015 suncat0266 pw.x -in pw.inp   Done                     12/31/2018 07:05:31
00016 suncat0264 pw.x -in pw.inp   Done                     12/31/2018 07:05:31
00017 suncat0264 pw.x -in pw.inp   Done                     12/31/2018 07:05:31
00018 suncat0264 pw.x -in pw.inp   Done                     12/31/2018 07:05:31
00019 suncat0264 pw.x -in pw.inp   Done                     12/31/2018 07:05:31
00020 suncat0264 pw.x -in pw.inp   Done                     12/31/2018 07:05:31
00021 suncat0264 pw.x -in pw.inp   Done                     12/31/2018 07:05:31
00022 suncat0264 pw.x -in pw.inp   Done                     12/31/2018 07:05:31
00023 suncat0264 pw.x -in pw.inp   Done                     12/31/2018 07:05:31
00024 suncat0260 pw.x -in pw.inp   Done                     12/31/2018 07:05:31
00025 suncat0260 pw.x -in pw.inp   Done                     12/31/2018 07:05:31
00026 suncat0260 pw.x -in pw.inp   Done                     12/31/2018 07:05:31
00027 suncat0260 pw.x -in pw.inp   Done                     12/31/2018 07:05:31
00028 suncat0260 pw.x -in pw.inp   Done                     12/31/2018 07:05:31
00029 suncat0260 pw.x -in pw.inp   Done                     12/31/2018 07:05:31
00030 suncat0260 pw.x -in pw.inp   Done                     12/31/2018 07:05:31
00031 suncat0260 pw.x -in pw.inp   Done                     12/31/2018 07:05:31
00032 suncat0241 pw.x -in pw.inp   Done                     12/31/2018 07:05:31
00033 suncat0241 pw.x -in pw.inp   Done                     12/31/2018 07:05:31
00034 suncat0241 pw.x -in pw.inp   Done                     12/31/2018 07:05:31
00035 suncat0241 pw.x -in pw.inp   Done                     12/31/2018 07:05:31
00036 suncat0241 pw.x -in pw.inp   Done                     12/31/2018 07:05:31
00037 suncat0241 pw.x -in pw.inp   Done                     12/31/2018 07:05:31
00038 suncat0241 pw.x -in pw.inp   Done                     12/31/2018 07:05:31
00039 suncat0241 pw.x -in pw.inp   Done                     12/31/2018 07:05:31
00040 suncat0240 pw.x -in pw.inp   Done                     12/31/2018 07:05:31
00041 suncat0240 pw.x -in pw.inp   Done                     12/31/2018 07:05:31
00042 suncat0240 pw.x -in pw.inp   Done                     12/31/2018 07:05:31
00043 suncat0240 pw.x -in pw.inp   Done                     12/31/2018 07:05:31
00044 suncat0240 pw.x -in pw.inp   Done                     12/31/2018 07:05:31
00045 suncat0240 pw.x -in pw.inp   Done                     12/31/2018 07:05:31
00046 suncat0240 pw.x -in pw.inp   Done                     12/31/2018 07:05:31
00047 suncat0240 pw.x -in pw.inp   Done                     12/31/2018 07:05:31
00048 suncat0239 pw.x -in pw.inp   Done                     12/31/2018 07:05:31
00049 suncat0239 pw.x -in pw.inp   Done                     12/31/2018 07:05:31
00050 suncat0239 pw.x -in pw.inp   Done                     12/31/2018 07:05:31
00051 suncat0239 pw.x -in pw.inp   Done                     12/31/2018 07:05:31
00052 suncat0239 pw.x -in pw.inp   Done                     12/31/2018 07:05:31
00053 suncat0239 pw.x -in pw.inp   Done                     12/31/2018 07:05:31
00054 suncat0239 pw.x -in pw.inp   Done                     12/31/2018 07:05:31
00055 suncat0239 pw.x -in pw.inp   Done                     12/31/2018 07:05:31
00056 suncat0098 pw.x -in pw.inp   Done                     12/31/2018 07:05:31
00057 suncat0098 pw.x -in pw.inp   Done                     12/31/2018 07:05:31
00058 suncat0098 pw.x -in pw.inp   Done                     12/31/2018 07:05:31
00059 suncat0098 pw.x -in pw.inp   Done                     12/31/2018 07:05:31
00060 suncat0098 pw.x -in pw.inp   Done                     12/31/2018 07:05:31
00061 suncat0098 pw.x -in pw.inp   Done                     12/31/2018 07:05:31
00062 suncat0098 pw.x -in pw.inp   Done                     12/31/2018 07:05:31
00063 suncat0098 pw.x -in pw.inp   Done                     12/31/2018 07:05:31