     Program PWSCF v.5.1rc2 (svn rev. 11289) starts on 19Dec2018 at 19:27: 5

     Current dimensions of program PWSCF are:
     Max number of different atomic species (ntypx) = 10
     Max number of k-points (npk) =  40000
     Max angular momentum in pseudopotentials (lmaxx) =  3
     Presently stress not available with electric field

     IMPORTANT: XC functional enforced from input :
     Exchange-correlation      = BEEF-VDW ( 1  4 27 13 2)
     Any further DFT definition will be discarded
     Please, verify this is what you really want

     Subspace diagonalization in iterative solution of the eigenvalue problem:
     a serial algorithm will be used

     bravais-lattice index     =            0
     lattice parameter (alat)  =       1.8897  a.u.
     unit-cell volume          =    4962.9491 (a.u.)^3
     number of atoms/cell      =           12
     number of atomic types    =            2
     number of electrons       =       147.00
     number of Kohn-Sham states=          103
     kinetic-energy cutoff     =      36.7493  Ry
     charge density cutoff     =     367.4932  Ry
     convergence threshold     =      1.0E-06
     mixing beta               =       0.1000
     number of iterations used =           10  plain     mixing
     Exchange-correlation      = BEEF-VDW ( 1  4 27 13 2)
     nstep                     =           50

     celldm(1)=   1.889726  celldm(2)=   0.000000  celldm(3)=   0.000000
     celldm(4)=   0.000000  celldm(5)=   0.000000  celldm(6)=   0.000000

     crystal axes: (cart. coord. in units of alat)
               a(1) = (   5.854061   0.000000   0.000000 )
               a(2) = (  -2.927030   5.069765   0.000000 )
               a(3) = (   0.000000   0.000000  24.779820 )

     reciprocal axes: (cart. coord. in units 2 pi/alat)
               b(1) = (  0.170822  0.098624  0.000000 )
               b(2) = (  0.000000  0.197248  0.000000 )
               b(3) = (  0.000000  0.000000  0.040355 )

     PseudoPot. # 1 for Au read from file:
     /afs/slac.stanford.edu/u/if/mamunm/psp/gbrv1.5pbe/Au.UPF
     MD5 check sum: 9d7f43293ad2c663164586bc4b293ffc
     Pseudo is Ultrasoft + core correction, Zval = 11.0
     Generated by new atomic code, or converted to UPF format
     Using radial grid of  985 points,  7 beta functions with:
                l(1) =   0
                l(2) =   0
                l(3) =   1
                l(4) =   1
                l(5) =   2
                l(6) =   2
                l(7) =   3
     Q(r) pseudized with  6 coefficients,  rinner =    1.900   1.900   1.900
                                                       1.900   1.900   1.900
                                                       1.900

     PseudoPot. # 2 for Pt read from file:
     /afs/slac.stanford.edu/u/if/mamunm/psp/gbrv1.5pbe/Pt.UPF
     MD5 check sum: f09d6de1a584b5a045c4fc126da2d0c4
     Pseudo is Ultrasoft + core correction, Zval = 16.0
     Generated by new atomic code, or converted to UPF format
     Using radial grid of  985 points,  6 beta functions with:
                l(1) =   0
                l(2) =   0
                l(3) =   1
                l(4) =   1
                l(5) =   2
                l(6) =   2
     Q(r) pseudized with  8 coefficients,  rinner =    1.300   1.300   1.300
                                                       1.300   1.300

     vdW kernel table read from file vdW_kernel_table
     MD5 check sum: 095c7af220d748ca6e76c0b4c6cfb241

     atomic species   valence    mass     pseudopotential
        Au1           11.00   196.96657     Au( 1.00)
        Pt1           16.00   195.08400     Pt( 1.00)

     No symmetry found

   Cartesian axes

     site n.     atom                  positions (alat units)
         1           Au1 tau(   1) = (   0.0000000   0.0000000  10.0000000  )
         2           Au1 tau(   2) = (  -1.4635152   2.5348826  10.0000000  )
         3           Au1 tau(   3) = (   1.4635152   2.5348826  10.0000000  )
         4           Pt1 tau(   4) = (   2.9270303   0.0000000  10.0000000  )
         5           Au1 tau(   5) = (   2.9270303   1.6899217  12.3899102  )
         6           Au1 tau(   6) = (   1.4635152   4.2248044  12.3899102  )
         7           Au1 tau(   7) = (  -1.4635152   4.2248044  12.3899102  )
         8           Pt1 tau(   8) = (   0.0000000   1.6899217  12.3899102  )
         9           Au1 tau(   9) = (  -0.0000000   3.3798435  14.7798205  )
        10           Au1 tau(  10) = (   1.4635152   0.8449609  14.7798205  )
        11           Au1 tau(  11) = (   4.3905455   0.8449609  14.7798205  )
        12           Pt1 tau(  12) = (   2.9270303   3.3798435  14.7798205  )

     number of k points=    20  Fermi-Dirac smearing, width (Ry)=  0.0110
                       cart. coord. in units 2pi/alat
        k(    1) = (   0.0000000   0.0000000   0.0000000), wk =   0.0555556
        k(    2) = (   0.0000000   0.0328746   0.0000000), wk =   0.1111111
        k(    3) = (   0.0000000   0.0657493   0.0000000), wk =   0.1111111
        k(    4) = (   0.0000000  -0.0986239   0.0000000), wk =   0.0555556
        k(    5) = (   0.0284703   0.0164373   0.0000000), wk =   0.1111111
        k(    6) = (   0.0284703   0.0493119   0.0000000), wk =   0.1111111
        k(    7) = (   0.0284703   0.0821866   0.0000000), wk =   0.1111111
        k(    8) = (   0.0284703  -0.0821866   0.0000000), wk =   0.1111111
        k(    9) = (   0.0284703  -0.0493119   0.0000000), wk =   0.1111111
        k(   10) = (   0.0284703  -0.0164373   0.0000000), wk =   0.1111111
        k(   11) = (   0.0569405   0.0328746   0.0000000), wk =   0.1111111
        k(   12) = (   0.0569405   0.0657493   0.0000000), wk =   0.1111111
        k(   13) = (   0.0569405   0.0986239   0.0000000), wk =   0.1111111
        k(   14) = (   0.0569405  -0.0657493   0.0000000), wk =   0.1111111
        k(   15) = (   0.0569405  -0.0328746   0.0000000), wk =   0.1111111
        k(   16) = (   0.0569405   0.0000000   0.0000000), wk =   0.1111111
        k(   17) = (  -0.0854108  -0.0493119   0.0000000), wk =   0.0555556
        k(   18) = (  -0.0854108  -0.0164373   0.0000000), wk =   0.1111111
        k(   19) = (  -0.0854108   0.0164373   0.0000000), wk =   0.1111111
        k(   20) = (  -0.0854108  -0.1479358   0.0000000), wk =   0.0555556

     Largest allocated arrays     est. size (Mb)     dimensions
     Largest temporary arrays     est. size (Mb)     dimensions

     Check: negative/imaginary core charge=   -0.000002    0.000000

     Initial potential from superposition of free atoms
     Check: negative starting charge=   -0.546755

     starting charge  145.49887, renormalised to  147.00000

     negative rho (up, down):  5.524E-01 0.000E+00

     *
     * You are using vdW-DF for exchange-correlation in this calculation.
     * Please cite the following three references that made this development
     * possible:
     *
     *   M. Dion, H. Rydberg, E. Schroder, D. C. Langreth, and
     *   B. I. Lundqvist, Phys. Rev. Lett. 92, 246401 (2004).
     *
     *   T. Thonhauser, V. R. Cooper, S. Li, A. Puzder, P. Hyldgaard, and
     *   D. C. Langreth, Phys. Rev. B 76, 125112 (2007).
     *
     *   G. Roman-Perez and J. M. Soler, Phys. Rev. Lett. 103, 096102 (2009).
     *
     *
     * If you are using vdW-DF2, please also cite:
     *
     *   K. Lee, E. D. Murray, L. Kong, B. I. Lundqvist, and
     *   D. C. Langreth, Phys. Rev. B 82, 081101(R) (2010).
     *
     *
     * If you are calculating the stress with vdW-DF, please also cite:
     *
     *   R. Sabatini, E. Kucukbenli, B. Kolb, T. Thonhauser, and
     *   S. de Gironcoli, J. Phys.: Condens. Matter 24, 424209 (2012).
     *

     Carrying out vdW-DF run using the following parameters:

     Nqs =      20    Nr_points =    1024   r_max =   100.000
     q_mesh =
               0.00001000     0.04494208     0.09755937     0.15916263
               0.23128650     0.31572767     0.41458969     0.53033537
               0.66584808     0.82450364     1.01025438     1.22772762
               1.48234092     1.78043706     2.12944203     2.53805004
               3.01644009     3.57652955     4.23227104     5.00000000

     Gradients computed in reciprocal space

     Adding external electric field

     Computed dipole along edir(3) :
        Dipole               -0.0000 Ry au,         -0.0000 Debye
        Dipole field         -0.0000 Ry au

        Potential amp.        0.0000 Ry
        Total length         45.6564 bohr

     Starting wfc are  117 randomized atomic wfcs

     Self-consistent Calculation

     iteration #  1     ecut=    36.75 Ry     beta=0.10
     Davidson diagonalization with overlap
     ethr =  1.00E-02,  avg # of iterations =  8.0

     Threshold (ethr) on eigenvalues was too large:
     Diagonalizing with lowered threshold

     Davidson diagonalization with overlap
     ethr =  9.70E-04,  avg # of iterations =  1.5

[...]

     total energy              =   -1687.47092502 Ry
     Harris-Foulkes estimate   =   -1687.68743114 Ry
     estimated scf accuracy    <       1.49582398 Ry

[...]

     End of self-consistent calculation

          k = 0.0000 0.0000 0.0000 ( 18787 PWs)   bands (ev):

   -51.3533 -51.3182 -51.3182 -51.2486 -51.2486 -51.2485 -51.2485 -51.1163
   -51.1160  -7.5646  -6.1201  -5.7256  -5.4982  -5.3834  -5.3531  -5.3531
    -5.1727  -5.1727  -4.9895  -4.9539  -4.8966  -4.8966  -4.7644  -4.7644
    -4.0056  -3.7062  -3.7062  -3.7008  -3.7008  -3.5201  -3.3903  -3.3177
    -3.2258  -3.2258  -3.1576  -3.1312  -3.1312  -2.9606  -2.9606  -2.8207
    -2.8207  -2.7122  -2.7122  -2.3094  -2.1021  -2.1021  -2.0706  -2.0706
    -1.8086  -1.8086  -1.4939  -1.4911  -1.3651  -1.3651  -1.3295  -1.1914
    -1.0360  -0.9835  -0.7715  -0.7715  -0.5894  -0.5397  -0.5397  -0.3327
    -0.3327  -0.2110  -0.2110  -0.1282  -0.1282  -0.0704   0.0983   0.0983
     1.2658   1.4262   1.4806   1.4806   2.3724   2.3724   2.5432   2.5699
     2.5699   2.7123   4.4173   4.4173   4.7198   4.8697   5.0096   5.0096
     5.2353   5.3308   5.4597   5.9418   5.9418   6.2022   6.4973   7.0022
     8.7549   8.8330   9.0704   9.0704   9.1677   9.5206   9.5207

[...]

          k =-0.0854-0.0493 0.0000 ( 18648 PWs)   bands (ev):

[...]

     the Fermi energy is     0.3802 ev

!    total energy              =   -1687.32805255 Ry
     Harris-Foulkes estimate   =   -1687.32803816 Ry
     estimated scf accuracy    <       0.00000029 Ry

     The total energy is the sum of the following terms:

     one-electron contribution =  -10451.33208365 Ry
     hartree contribution      =    5307.43015291 Ry
     xc contribution           =    -752.00730585 Ry
     ewald contribution        =    4208.61078017 Ry
     electric field correction =       0.00000000 Ry
     smearing contrib. (-TS)   =      -0.02959612 Ry

     convergence has been achieved in  15 iterations

 BEEF-vdW xc energy contributions
           1 :   -671.080144137414
           2 :    624.033689297558
           3 :   -539.793561528550
           4 :    434.581776648509
           5 :   -326.024549115017
           6 :    228.588300412163
           7 :   -150.788481229754
[...]
     Using radial grid of  985 points,  7 beta functions with:
                l(1) =   0
                l(2) =   0
                l(3) =   1
                l(4) =   1
                l(5) =   2
                l(6) =   2
                l(7) =   3
     Q(r) pseudized with  6 coefficients,  rinner =    1.900   1.900   1.900
                                                       1.900   1.900   1.900
                                                       1.900

     PseudoPot. # 2 for Pt read from file:
     /afs/slac.stanford.edu/u/if/mamunm/psp/gbrv1.5pbe/Pt.UPF
     MD5 check sum: f09d6de1a584b5a045c4fc126da2d0c4
     Pseudo is Ultrasoft + core correction, Zval = 16.0
     Generated by new atomic code, or converted to UPF format
     Using radial grid of  985 points,  6 beta functions with:
                l(1) =   0
                l(2) =   0
                l(3) =   1
                l(4) =   1
                l(5) =   2
                l(6) =   2
     Q(r) pseudized with  8 coefficients,  rinner =    1.300   1.300   1.300
                                                       1.300   1.300

     vdW kernel table read from file vdW_kernel_table
     MD5 check sum: 095c7af220d748ca6e76c0b4c6cfb241

     atomic species   valence    mass     pseudopotential
        Au1           11.00   196.96657     Au( 1.00)
        Pt1           16.00   195.08400     Pt( 1.00)

     No symmetry found

   Cartesian axes

     site n.     atom                  positions (alat units)
         1           Au1 tau(   1) = (   0.0000000   0.0000000  10.0000000  )
         2           Au1 tau(   2) = (  -1.4635152   2.5348826  10.0000000  )
         3           Au1 tau(   3) = (   1.4635152   2.5348826  10.0000000  )
         4           Pt1 tau(   4) = (   2.9270303   0.0000000  10.0000000  )
         5           Au1 tau(   5) = (   2.9270303   1.6899217  12.3899102  )
         6           Au1 tau(   6) = (   1.4635152   4.2248044  12.3899102  )
         7           Au1 tau(   7) = (  -1.4635152   4.2248044  12.3899102  )
         8           Pt1 tau(   8) = (   0.0000000   1.6899217  12.3899102  )
         9           Au1 tau(   9) = (   0.0000073   3.3725214  14.8391924  )
        10           Au1 tau(  10) = (   1.4571754   0.8486221  14.8391784  )
        11           Au1 tau(  11) = (   4.3968784   0.8486227  14.8391612  )
        12           Pt1 tau(  12) = (   2.9270300   3.3798438  14.6844651  )

     number of k points=    20  Fermi-Dirac smearing, width (Ry)=  0.0110
                       cart. coord. in units 2pi/alat
        k(    1) = (   0.0000000   0.0000000   0.0000000), wk =   0.0555556
        k(    2) = (   0.0000000   0.0328746   0.0000000), wk =   0.1111111
        k(    3) = (   0.0000000   0.0657493   0.0000000), wk =   0.1111111
        k(    4) = (   0.0000000  -0.0986239   0.0000000), wk =   0.0555556
        k(    5) = (   0.0284703   0.0164373   0.0000000), wk =   0.1111111
        k(    6) = (   0.0284703   0.0493119   0.0000000), wk =   0.1111111
        k(    7) = (   0.0284703   0.0821866   0.0000000), wk =   0.1111111
        k(    8) = (   0.0284703  -0.0821866   0.0000000), wk =   0.1111111
        k(    9) = (   0.0284703  -0.0493119   0.0000000), wk =   0.1111111
        k(   10) = (   0.0284703  -0.0164373   0.0000000), wk =   0.1111111
        k(   11) = (   0.0569405   0.0328746   0.0000000), wk =   0.1111111
        k(   12) = (   0.0569405   0.0657493   0.0000000), wk =   0.1111111
        k(   13) = (   0.0569405   0.0986239   0.0000000), wk =   0.1111111
        k(   14) = (   0.0569405  -0.0657493   0.0000000), wk =   0.1111111
        k(   15) = (   0.0569405  -0.0328746   0.0000000), wk =   0.1111111
        k(   16) = (   0.0569405   0.0000000   0.0000000), wk =   0.1111111
        k(   17) = (  -0.0854108  -0.0493119   0.0000000), wk =   0.0555556
        k(   18) = (  -0.0854108  -0.0164373   0.0000000), wk =   0.1111111
        k(   19) = (  -0.0854108   0.0164373   0.0000000), wk =   0.1111111
        k(   20) = (  -0.0854108  -0.1479358   0.0000000), wk =   0.0555556

     Largest allocated arrays     est. size (Mb)     dimensions
     Largest temporary arrays     est. size (Mb)     dimensions

     Check: negative/imaginary core charge=   -0.000002    0.000000

     Initial potential from superposition of free atoms
     Check: negative starting charge=   -0.546846

     starting charge  145.49887, renormalised to  147.00000

[...]

     *
     * You are using vdW-DF for exchange-correlation in this calculation.
     * Please cite the following three references that made this development
     * possible:
     *
     *   M. Dion, H. Rydberg, E. Schroder, D. C. Langreth, and
     *   B. I. Lundqvist, Phys. Rev. Lett. 92, 246401 (2004).
     *
     *   T. Thonhauser, V. R. Cooper, S. Li, A. Puzder, P. Hyldgaard, and
     *   D. C. Langreth, Phys. Rev. B 76, 125112 (2007).
     *
     *   G. Roman-Perez and J. M. Soler, Phys. Rev. Lett. 103, 096102 (2009).
     *
     *
     * If you are using vdW-DF2, please also cite:
     *
     *   K. Lee, E. D. Murray, L. Kong, B. I. Lundqvist, and
     *   D. C. Langreth, Phys. Rev. B 82, 081101(R) (2010).
     *
     *
     * If you are calculating the stress with vdW-DF, please also cite:
     *
     *   R. Sabatini, E. Kucukbenli, B. Kolb, T. Thonhauser, and
     *   S. de Gironcoli, J. Phys.: Condens. Matter 24, 424209 (2012).
     *

     Carrying out vdW-DF run using the following parameters:

     Nqs =      20    Nr_points =    1024   r_max =   100.000
     q_mesh =
               0.00001000     0.04494208     0.09755937     0.15916263
               0.23128650     0.31572767     0.41458969     0.53033537
               0.66584808     0.82450364     1.01025438     1.22772762
               1.48234092     1.78043706     2.12944203     2.53805004
               3.01644009     3.57652955     4.23227104     5.00000000

     Gradients computed in reciprocal space

[...]

     Starting wfc are  117 randomized atomic wfcs

     Self-consistent Calculation

[...]

     Threshold (ethr) on eigenvalues was too large:
     Diagonalizing with lowered threshold

     Davidson diagonalization with overlap
     ethr =  9.92E-04,  avg # of iterations =  1.3

[...]

     total energy              =   -1687.35348764 Ry
     Harris-Foulkes estimate   =   -1687.35348480 Ry
     estimated scf accuracy    <       0.00000184 Ry

     iteration # 15     ecut=    36.75 Ry     beta=0.10
     Davidson diagonalization with overlap
     ethr =  1.25E-09,  avg # of iterations =  2.0

[...]

     negative rho (up, down):  5.308E-01 0.000E+00

     Adding external electric field

     Computed dipole along edir(3) :
        Dipole               -0.0007 Ry au,         -0.0019 Debye
        Dipole field         -0.0000 Ry au

        Potential amp.        0.0002 Ry
        Total length         45.6564 bohr

     End of self-consistent calculation

[...]

          k = 0.0569 0.0000 0.0000 ( 18665 PWs)   bands (ev):

[...]

          k =-0.0854-0.1479 0.0000 ( 18648 PWs)   bands (ev):

   -51.3226 -51.3223 -51.3185 -51.2958 -51.2955 -51.2580 -51.2577 -51.2228
   -51.1277  -6.0769  -5.9300  -5.0017  -4.9346  -4.8032  -4.7692  -4.6744
    -4.6542  -4.4910  -4.4651  -4.4124  -4.3214  -4.0768  -4.0695  -3.9584
    -3.9106  -3.8792  -3.8593  -3.8108  -3.7177  -3.4637  -3.3871  -3.3484
    -3.2833  -3.2344  -3.1946  -3.1709  -3.1492  -3.1129  -3.0361  -2.9791
    -2.9653  -2.9189  -2.9148  -2.8561  -2.8434  -2.7112  -2.6191  -2.5790
    -2.4844  -2.4629  -2.3158  -2.2405  -2.2286  -2.0422  -1.9119  -1.8849
    -1.7530  -1.5458  -1.4920  -1.4706  -1.2066  -1.1100  -1.0908  -1.0672
    -0.9967  -0.9901  -0.9638  -0.7359  -0.5389  -0.5103  -0.4821  -0.3675
     0.0409   0.8674   1.0496   1.2885   1.6799   1.9743   2.4224   3.9910
     4.1635   4.1883   4.3116   6.0892   6.1124   6.4892   6.6492   6.7908
     6.8063   6.8383   6.8424   7.0142   7.1210   7.4072   7.4457   7.9889
     8.0109   8.2344   8.2824   8.4454   8.5268   8.8799   8.9517

     the Fermi energy is     0.3731 ev

!    total energy              =   -1687.35350080 Ry
     Harris-Foulkes estimate   =   -1687.35348787 Ry
     estimated scf accuracy    <       0.00000073 Ry

     The total energy is the sum of the following terms:

     one-electron contribution =  -10436.35618334 Ry
     hartree contribution      =    5299.96742291 Ry
     xc contribution           =    -752.00909182 Ry
     ewald contribution        =    4201.07442401 Ry
     electric field correction =       0.00000000 Ry
     smearing contrib. (-TS)   =      -0.03007258 Ry

     convergence has been achieved in  15 iterations

 BEEF-vdW xc energy contributions
           1 :   -671.721473085414
           2 :    624.657074922160
           3 :   -540.394506985640
           4 :    435.172913789976
           5 :   -326.628664373243
           6 :    229.224619939874
           7 :   -151.460575255200
           8 :    95.3624933764821
           9 :   -57.9979903148686
          10 :    34.0764518703832
          11 :   -18.4757879646843
          12 :    7.76153027400323
          13 :  -0.408255618909493
          14 :   -3.95305529545601
          15 :    5.57196352645622
          16 :   -5.26879159039709
          17 :    4.46257213562501
          18 :   -4.64656297678846
          19 :    6.68942165124008
          20 :   -10.4035175108318
          21 :    14.6320252194831
          22 :   -17.8194365918486
          23 :    18.7621690916978
          24 :   -17.1612939324427
          25 :    13.7137780205184
          26 :   -9.73344560258533
          27 :    6.52132044141513
          28 :   -4.81505117959910
          29 :    4.57348995615337
          30 :   -5.16402677092071
          31 :   -53.4363087419066
          32 :   -39.0647416625130

     Forces acting on atoms (Ry/au):

     negative rho (up, down):  5.308E-01 0.000E+00
     atom    1 type  1   force =     0.00000029    0.00284554   -0.00968329
     atom    2 type  1   force =     0.00245977   -0.00142036   -0.00968043
     atom    3 type  1   force =    -0.00246259   -0.00142231   -0.00967883
     atom    4 type  2   force =    -0.00000024    0.00000014    0.01743588
     atom    5 type  1   force =    -0.00000226   -0.00712983    0.00028376
     atom    6 type  1   force =    -0.00617573    0.00356560    0.00028745
     atom    7 type  1   force =     0.00617856    0.00356516    0.00028744
     atom    8 type  2   force =    -0.00000010    0.00000076    0.00569551
     atom    9 type  1   force =    -0.00000021    0.00010805    0.00111229
     atom   10 type  1   force =     0.00009547   -0.00005684    0.00110896
     atom   11 type  1   force =    -0.00009349   -0.00005694    0.00110269
     atom   12 type  2   force =     0.00000053    0.00000103    0.00172858

     Total force =     0.028309     Total SCF correction =     0.002451

     entering subroutine stress ...

     negative rho (up, down):  5.308E-01 0.000E+00
          total   stress  (Ry/bohr**3)                   (kbar)     P=  -11.66
  -0.00012400  -0.00000000  -0.00000000        -18.24     -0.00     -0.00
  -0.00000000  -0.00012400  -0.00000000         -0.00    -18.24     -0.00
  -0.00000000  -0.00000000   0.00001020         -0.00     -0.00      1.50

 !ASE

     Writing output data file calc.save

     General routines

     Parallel routines

   This run was terminated on:  20:35:29  19Dec2018

   JOB DONE.
Job  /afs/slac/g/suncat/bin/suncat-tsmpirun -x LD_LIBRARY_PATH -wdir /scratch/qe773377_S0hlr pw.x -in pw.inp

TID   HOST_NAME   COMMAND_LINE            STATUS            TERMINATION_TIME
00000 suncat0071 pw.x -in pw.inp   Done                     12/19/2018 20:35:29
00001 suncat0071 pw.x -in pw.inp   Done                     12/19/2018 20:35:29
00002 suncat0071 pw.x -in pw.inp   Done                     12/19/2018 20:35:29
00003 suncat0071 pw.x -in pw.inp   Done                     12/19/2018 20:35:29
00004 suncat0071 pw.x -in pw.inp   Done                     12/19/2018 20:35:29
00005 suncat0071 pw.x -in pw.inp   Done                     12/19/2018 20:35:29
00006 suncat0071 pw.x -in pw.inp   Done                     12/19/2018 20:35:29
00007 suncat0071 pw.x -in pw.inp   Done                     12/19/2018 20:35:29
00008 suncat0065 pw.x -in pw.inp   Done                     12/19/2018 20:35:29
00009 suncat0065 pw.x -in pw.inp   Done                     12/19/2018 20:35:29
00010 suncat0065 pw.x -in pw.inp   Done                     12/19/2018 20:35:29
00011 suncat0065 pw.x -in pw.inp   Done                     12/19/2018 20:35:29
00012 suncat0065 pw.x -in pw.inp   Done                     12/19/2018 20:35:29
00013 suncat0065 pw.x -in pw.inp   Done                     12/19/2018 20:35:29
00014 suncat0065 pw.x -in pw.inp   Done                     12/19/2018 20:35:29
00015 suncat0065 pw.x -in pw.inp   Done                     12/19/2018 20:35:29
00016 suncat0064 pw.x -in pw.inp   Done                     12/19/2018 20:35:29
00017 suncat0064 pw.x -in pw.inp   Done                     12/19/2018 20:35:29
00018 suncat0064 pw.x -in pw.inp   Done                     12/19/2018 20:35:29
00019 suncat0064 pw.x -in pw.inp   Done                     12/19/2018 20:35:29
00020 suncat0064 pw.x -in pw.inp   Done                     12/19/2018 20:35:29
00021 suncat0064 pw.x -in pw.inp   Done                     12/19/2018 20:35:29
00022 suncat0064 pw.x -in pw.inp   Done                     12/19/2018 20:35:29
00023 suncat0064 pw.x -in pw.inp   Done                     12/19/2018 20:35:29
00024 suncat0063 pw.x -in pw.inp   Done                     12/19/2018 20:35:29
00025 suncat0063 pw.x -in pw.inp   Done                     12/19/2018 20:35:29
00026 suncat0063 pw.x -in pw.inp   Done                     12/19/2018 20:35:29
00027 suncat0063 pw.x -in pw.inp   Done                     12/19/2018 20:35:29
00028 suncat0063 pw.x -in pw.inp   Done                     12/19/2018 20:35:29
00029 suncat0063 pw.x -in pw.inp   Done                     12/19/2018 20:35:29
00030 suncat0063 pw.x -in pw.inp   Done                     12/19/2018 20:35:29
00031 suncat0063 pw.x -in pw.inp   Done                     12/19/2018 20:35:29
00032 suncat0062 pw.x -in pw.inp   Done                     12/19/2018 20:35:29
00033 suncat0062 pw.x -in pw.inp   Done                     12/19/2018 20:35:29
00034 suncat0062 pw.x -in pw.inp   Done                     12/19/2018 20:35:29
00035 suncat0062 pw.x -in pw.inp   Done                     12/19/2018 20:35:29
00036 suncat0062 pw.x -in pw.inp   Done                     12/19/2018 20:35:29
00037 suncat0062 pw.x -in pw.inp   Done                     12/19/2018 20:35:29
00038 suncat0062 pw.x -in pw.inp   Done                     12/19/2018 20:35:29
00039 suncat0062 pw.x -in pw.inp   Done                     12/19/2018 20:35:29
00040 suncat0057 pw.x -in pw.inp   Done                     12/19/2018 20:35:29
00041 suncat0057 pw.x -in pw.inp   Done                     12/19/2018 20:35:29
00042 suncat0057 pw.x -in pw.inp   Done                     12/19/2018 20:35:29
00043 suncat0057 pw.x -in pw.inp   Done                     12/19/2018 20:35:29
00044 suncat0057 pw.x -in pw.inp   Done                     12/19/2018 20:35:29
00045 suncat0057 pw.x -in pw.inp   Done                     12/19/2018 20:35:29
00046 suncat0057 pw.x -in pw.inp   Done                     12/19/2018 20:35:29
00047 suncat0057 pw.x -in pw.inp   Done                     12/19/2018 20:35:29
00048 suncat0056 pw.x -in pw.inp   Done                     12/19/2018 20:35:29
00049 suncat0056 pw.x -in pw.inp   Done                     12/19/2018 20:35:29
00050 suncat0056 pw.x -in pw.inp   Done                     12/19/2018 20:35:29
00051 suncat0056 pw.x -in pw.inp   Done                     12/19/2018 20:35:29
00052 suncat0056 pw.x -in pw.inp   Done                     12/19/2018 20:35:29
00053 suncat0056 pw.x -in pw.inp   Done                     12/19/2018 20:35:29
00054 suncat0056 pw.x -in pw.inp   Done                     12/19/2018 20:35:29
00055 suncat0056 pw.x -in pw.inp   Done                     12/19/2018 20:35:29
00056 suncat0055 pw.x -in pw.inp   Done                     12/19/2018 20:35:29
00057 suncat0055 pw.x -in pw.inp   Done                     12/19/2018 20:35:29
00058 suncat0055 pw.x -in pw.inp   Done                     12/19/2018 20:35:29
00059 suncat0055 pw.x -in pw.inp   Done                     12/19/2018 20:35:29
00060 suncat0055 pw.x -in pw.inp   Done                     12/19/2018 20:35:29
00061 suncat0055 pw.x -in pw.inp   Done                     12/19/2018 20:35:29
00062 suncat0055 pw.x -in pw.inp   Done                     12/19/2018 20:35:29
00063 suncat0055 pw.x -in pw.inp   Done                     12/19/2018 20:35:29