     Program PWSCF v.5.1rc2 (svn rev. 11289) starts on 30Dec2018 at  5:54:16

     Current dimensions of program PWSCF are:
     Max number of different atomic species (ntypx) = 10
     Max number of k-points (npk) =  40000
     Max angular momentum in pseudopotentials (lmaxx) =  3
     Presently stress not available with electric field

     IMPORTANT: XC functional enforced from input :
     Exchange-correlation      = BEEF-VDW ( 1  4 27 13 2)
     Any further DFT definition will be discarded
     Please, verify this is what you really want

     Subspace diagonalization in iterative solution of the eigenvalue problem:
     a serial algorithm will be used

     bravais-lattice index     =            0
     lattice parameter (alat)  =       1.8897  a.u.
     unit-cell volume          =    5494.0616 (a.u.)^3
     number of atoms/cell      =           12
     number of atomic types    =            2
     number of electrons       =       117.00
     number of Kohn-Sham states=           88
     kinetic-energy cutoff     =      36.7493  Ry
     charge density cutoff     =     367.4932  Ry
     convergence threshold     =      1.0E-06
     mixing beta               =       0.1000
     number of iterations used =           10  plain     mixing
     Exchange-correlation      = BEEF-VDW ( 1  4 27 13 2)
     nstep                     =           50

     celldm(1)=   1.889726  celldm(2)=   0.000000  celldm(3)=   0.000000
     celldm(4)=   0.000000  celldm(5)=   0.000000  celldm(6)=   0.000000

     crystal axes: (cart. coord. in units of alat)
               a(1) = (   6.131388   0.000000   0.000000 )
               a(2) = (  -3.065694   5.309938   0.000000 )
               a(3) = (   0.000000   0.000000  25.006257 )

     reciprocal axes: (cart. coord. in units 2 pi/alat)
               b(1) = (  0.163095  0.094163  0.000000 )
               b(2) = (  0.000000  0.188326  0.000000 )
               b(3) = (  0.000000  0.000000  0.039990 )

     PseudoPot. # 1 for Hf read from file:
     /afs/slac.stanford.edu/u/if/mamunm/psp/gbrv1.5pbe/Hf.UPF
     MD5 check sum: 8ee9378dfe14276e333edf04c5e4aa26
     Pseudo is Ultrasoft + core correction, Zval = 12.0
     Generated by new atomic code, or converted to UPF format
     Using radial grid of  921 points,  8 beta functions with:
                l(1) =   0
                l(2) =   0
                l(3) =   0
                l(4) =   1
                l(5) =   1
                l(6) =   2
                l(7) =   2
                l(8) =   3
     Q(r) pseudized with  6 coefficients,  rinner =    1.200   1.200   1.200
                                                       1.200   1.200   1.200
                                                       1.200

     PseudoPot. # 2 for Al read from file:
     /afs/slac.stanford.edu/u/if/mamunm/psp/gbrv1.5pbe/Al.UPF
     MD5 check sum: 0a6289f5291fc8f409219462bc851e1f
     Pseudo is Ultrasoft + core correction, Zval =  3.0
     Generated by new atomic code, or converted to UPF format
     Using radial grid of  893 points,  3 beta functions with:
                l(1) =   0
                l(2) =   1
                l(3) =   2
     Q(r) pseudized with  8 coefficients,  rinner =    0.900   0.900   0.900
                                                       0.900   0.900

     vdW kernel table read from file vdW_kernel_table
     MD5 check sum: 095c7af220d748ca6e76c0b4c6cfb241

     atomic species   valence    mass     pseudopotential
        Hf1           12.00   178.49000     Hf( 1.00)
        Al1            3.00    26.98154     Al( 1.00)

     No symmetry found

   Cartesian axes

     site n.     atom                  positions (alat units)
         1           Hf1 tau(   1) = (   0.0000000   0.0000000  10.0000000  )
         2           Hf1 tau(   2) = (  -1.5328470   2.6549689  10.0000000  )
         3           Hf1 tau(   3) = (   1.5328470   2.6549689  10.0000000  )
         4           Al1 tau(   4) = (   3.0656940   0.0000000  10.0000000  )
         5           Hf1 tau(   5) = (   3.0656940   1.7699792  12.5031287  )
         6           Hf1 tau(   6) = (   1.5328470   4.4249481  12.5031287  )
         7           Hf1 tau(   7) = (  -1.5328470   4.4249481  12.5031287  )
         8           Al1 tau(   8) = (   0.0000000   1.7699792  12.5031287  )
         9           Hf1 tau(   9) = (  -0.0000000   3.5399585  15.0062573  )
        10           Hf1 tau(  10) = (   1.5328470   0.8849896  15.0062573  )
        11           Hf1 tau(  11) = (   4.5985410   0.8849896  15.0062573  )
        12           Al1 tau(  12) = (   3.0656940   3.5399585  15.0062573  )

     number of k points=    20  Fermi-Dirac smearing, width (Ry)=  0.0110
                       cart. coord. in units 2pi/alat
        k(    1) = (   0.0000000   0.0000000   0.0000000), wk =   0.0555556
        k(    2) = (   0.0000000   0.0313877   0.0000000), wk =   0.1111111
        k(    3) = (   0.0000000   0.0627754   0.0000000), wk =   0.1111111
        k(    4) = (   0.0000000  -0.0941631   0.0000000), wk =   0.0555556
        k(    5) = (   0.0271825   0.0156938   0.0000000), wk =   0.1111111
        k(    6) = (   0.0271825   0.0470815   0.0000000), wk =   0.1111111
        k(    7) = (   0.0271825   0.0784692   0.0000000), wk =   0.1111111
        k(    8) = (   0.0271825  -0.0784692   0.0000000), wk =   0.1111111
        k(    9) = (   0.0271825  -0.0470815   0.0000000), wk =   0.1111111
        k(   10) = (   0.0271825  -0.0156938   0.0000000), wk =   0.1111111
        k(   11) = (   0.0543651   0.0313877   0.0000000), wk =   0.1111111
        k(   12) = (   0.0543651   0.0627754   0.0000000), wk =   0.1111111
        k(   13) = (   0.0543651   0.0941631   0.0000000), wk =   0.1111111
        k(   14) = (   0.0543651  -0.0627754   0.0000000), wk =   0.1111111
        k(   15) = (   0.0543651  -0.0313877   0.0000000), wk =   0.1111111
        k(   16) = (   0.0543651  -0.0000000   0.0000000), wk =   0.1111111
        k(   17) = (  -0.0815476  -0.0470815   0.0000000), wk =   0.0555556
        k(   18) = (  -0.0815476  -0.0156938   0.0000000), wk =   0.1111111
        k(   19) = (  -0.0815476   0.0156938   0.0000000), wk =   0.1111111
        k(   20) = (  -0.0815476  -0.1412446   0.0000000), wk =   0.0555556

     Largest allocated arrays     est. size (Mb)     dimensions
     Largest temporary arrays     est. size (Mb)     dimensions

     Check: negative/imaginary core charge=   -0.000003    0.000000

     Initial potential from superposition of free atoms
     Check: negative starting charge=   -0.959152

     starting charge   98.99259, renormalised to  117.00000

     negative rho (up, down):  1.134E+00 0.000E+00

     *
     * You are using vdW-DF for exchange-correlation in this calculation.
     * Please cite the following three references that made this development
     * possible:
     *
     *   M. Dion, H. Rydberg, E. Schroder, D. C. Langreth, and
     *   B. I. Lundqvist, Phys. Rev. Lett. 92, 246401 (2004).
     *
     *   T. Thonhauser, V. R. Cooper, S. Li, A. Puzder, P. Hyldgaard, and
     *   D. C. Langreth, Phys. Rev. B 76, 125112 (2007).
     *
     *   G. Roman-Perez and J. M. Soler, Phys. Rev. Lett. 103, 096102 (2009).
     *
     *
     * If you are using vdW-DF2, please also cite:
     *
     *   K. Lee, E. D. Murray, L. Kong, B. I. Lundqvist, and
     *   D. C. Langreth, Phys. Rev. B 82, 081101(R) (2010).
     *
     *
     * If you are calculating the stress with vdW-DF, please also cite:
     *
     *   R. Sabatini, E. Kucukbenli, B. Kolb, T. Thonhauser, and
     *   S. de Gironcoli, J. Phys.: Condens. Matter 24, 424209 (2012).
     *

     Carrying out vdW-DF run using the following parameters:

     Nqs =      20    Nr_points =    1024   r_max =   100.000
     q_mesh =
               0.00001000     0.04494208     0.09755937     0.15916263
               0.23128650     0.31572767     0.41458969     0.53033537
               0.66584808     0.82450364     1.01025438     1.22772762
               1.48234092     1.78043706     2.12944203     2.53805004
               3.01644009     3.57652955     4.23227104     5.00000000

     Gradients computed in reciprocal space

     Adding external electric field

     Computed dipole along edir(3) :
        Dipole               -0.0000 Ry au,         -0.0000 Debye
        Dipole field         -0.0000 Ry au

        Potential amp.        0.0000 Ry
        Total length         46.0736 bohr

     Starting wfc are  129 randomized atomic wfcs

     Self-consistent Calculation

     iteration #  1     ecut=    36.75 Ry     beta=0.10
     Davidson diagonalization with overlap
     ethr =  1.00E-02,  avg # of iterations =  7.5

[...]

     total energy              =   -1465.40520634 Ry
     Harris-Foulkes estimate   =   -1479.19660667 Ry
     estimated scf accuracy    <      79.19097239 Ry

[...]

     End of self-consistent calculation

          k = 0.0000 0.0000 0.0000 ( 20695 PWs)   bands (ev):

   -61.4746 -61.4738 -61.4298 -61.4298 -61.4296 -61.4296 -60.9245 -60.8798
   -60.8797 -30.3361 -30.3216 -30.2091 -30.1655 -30.1655 -30.1319 -30.1319
   -30.1102 -30.0955 -30.0955 -30.0248 -30.0247 -29.8904 -29.7991 -29.7863
   -29.6616 -29.6616 -29.6126 -29.6126 -29.5681 -29.5681 -29.3928 -29.3755
   -29.3755 -29.2869 -29.1385 -29.1385  -6.5323  -5.1575  -4.3495  -2.5428
    -2.5240  -2.3955  -1.5560  -1.5560  -1.0601  -1.0601  -1.0206  -1.0206
    -0.6194  -0.5787  -0.1792  -0.1792   0.1406   0.1406   0.6752   0.7108
     0.9372   1.1367   1.1367   1.1522   1.1522   1.6270   1.6271   1.6846
     2.0192   2.0192   2.0837   2.4449   2.8168   2.8217   3.8054   3.8054
     4.0019   4.0208   4.0209   4.0938   4.0938   4.3117   4.3665   4.3665
     4.4498   4.6344   4.6344   4.6550   4.8095   4.9857   4.9857   4.9866

[...]

          k =-0.0815-0.0471 0.0000 ( 20696 PWs)   bands (ev):

[...]

     the Fermi energy is     1.0567 ev

!    total energy              =   -1465.67675663 Ry
     Harris-Foulkes estimate   =   -1465.71011243 Ry
     estimated scf accuracy    <       0.00000088 Ry

     The total energy is the sum of the following terms:

     one-electron contribution =   -6096.00219429 Ry
     hartree contribution      =    3036.77810395 Ry
     xc contribution           =    -709.48545311 Ry
     ewald contribution        =    2303.12027211 Ry
     electric field correction =       0.00000000 Ry
     smearing contrib. (-TS)   =      -0.08748530 Ry

     convergence has been achieved in  18 iterations

 BEEF-vdW xc energy contributions
           1 :   -639.671476526243
           2 :    593.982059178196
           3 :   -513.216412591785
           4 :    414.331972726174
           5 :   -314.672121587566
           6 :    227.042529967664
           7 :   -157.750262514284
           8 :    107.523598475784
           9 :   -73.9078174913683
          10 :    53.4199654007805
          11 :   -42.6001772652924
          12 :    38.0844815699331
          13 :   -36.4374558236550
          14 :    34.3292994791751
          15 :   -29.1780882638652
          16 :    19.8924059609685
          17 :   -7.24454544267235
          18 :   -6.42697883643302
[...]
               b(2) = (  0.000000  0.188326  0.000000 )
               b(3) = (  0.000000  0.000000  0.039990 )

     PseudoPot. # 1 for Hf read from file:
     /afs/slac.stanford.edu/u/if/mamunm/psp/gbrv1.5pbe/Hf.UPF
     MD5 check sum: 8ee9378dfe14276e333edf04c5e4aa26
     Pseudo is Ultrasoft + core correction, Zval = 12.0
     Generated by new atomic code, or converted to UPF format
     Using radial grid of  921 points,  8 beta functions with:
                l(1) =   0
                l(2) =   0
                l(3) =   0
                l(4) =   1
                l(5) =   1
                l(6) =   2
                l(7) =   2
                l(8) =   3
     Q(r) pseudized with  6 coefficients,  rinner =    1.200   1.200   1.200
                                                       1.200   1.200   1.200
                                                       1.200

     PseudoPot. # 2 for Al read from file:
     /afs/slac.stanford.edu/u/if/mamunm/psp/gbrv1.5pbe/Al.UPF
     MD5 check sum: 0a6289f5291fc8f409219462bc851e1f
     Pseudo is Ultrasoft + core correction, Zval =  3.0
     Generated by new atomic code, or converted to UPF format
     Using radial grid of  893 points,  3 beta functions with:
                l(1) =   0
                l(2) =   1
                l(3) =   2
     Q(r) pseudized with  8 coefficients,  rinner =    0.900   0.900   0.900
                                                       0.900   0.900

     vdW kernel table read from file vdW_kernel_table
     MD5 check sum: 095c7af220d748ca6e76c0b4c6cfb241

     atomic species   valence    mass     pseudopotential
        Hf1           12.00   178.49000     Hf( 1.00)
        Al1            3.00    26.98154     Al( 1.00)

     No symmetry found

   Cartesian axes

     site n.     atom                  positions (alat units)
         1           Hf1 tau(   1) = (   0.0000000   0.0000000  10.0000000  )
         2           Hf1 tau(   2) = (  -1.5328470   2.6549689  10.0000000  )
         3           Hf1 tau(   3) = (   1.5328470   2.6549689  10.0000000  )
         4           Al1 tau(   4) = (   3.0656940   0.0000000  10.0000000  )
         5           Hf1 tau(   5) = (   3.0656940   1.7699792  12.5031287  )
         6           Hf1 tau(   6) = (   1.5328470   4.4249481  12.5031287  )
         7           Hf1 tau(   7) = (  -1.5328470   4.4249481  12.5031287  )
         8           Al1 tau(   8) = (   0.0000000   1.7699792  12.5031287  )
         9           Hf1 tau(   9) = (   0.0000096   3.5142813  14.9507530  )
        10           Hf1 tau(  10) = (   1.5105945   0.8978234  14.9507806  )
        11           Hf1 tau(  11) = (   4.6207955   0.8978112  14.9507619  )
        12           Al1 tau(  12) = (   3.0656945   3.5399601  14.9909119  )

     number of k points=    20  Fermi-Dirac smearing, width (Ry)=  0.0110
                       cart. coord. in units 2pi/alat
        k(    1) = (   0.0000000   0.0000000   0.0000000), wk =   0.0555556
        k(    2) = (   0.0000000   0.0313877   0.0000000), wk =   0.1111111
        k(    3) = (   0.0000000   0.0627754   0.0000000), wk =   0.1111111
        k(    4) = (   0.0000000  -0.0941631   0.0000000), wk =   0.0555556
        k(    5) = (   0.0271825   0.0156938   0.0000000), wk =   0.1111111
        k(    6) = (   0.0271825   0.0470815   0.0000000), wk =   0.1111111
        k(    7) = (   0.0271825   0.0784692   0.0000000), wk =   0.1111111
        k(    8) = (   0.0271825  -0.0784692   0.0000000), wk =   0.1111111
        k(    9) = (   0.0271825  -0.0470815   0.0000000), wk =   0.1111111
        k(   10) = (   0.0271825  -0.0156938   0.0000000), wk =   0.1111111
        k(   11) = (   0.0543651   0.0313877   0.0000000), wk =   0.1111111
        k(   12) = (   0.0543651   0.0627754   0.0000000), wk =   0.1111111
        k(   13) = (   0.0543651   0.0941631   0.0000000), wk =   0.1111111
        k(   14) = (   0.0543651  -0.0627754   0.0000000), wk =   0.1111111
        k(   15) = (   0.0543651  -0.0313877   0.0000000), wk =   0.1111111
        k(   16) = (   0.0543651  -0.0000000   0.0000000), wk =   0.1111111
        k(   17) = (  -0.0815476  -0.0470815   0.0000000), wk =   0.0555556
        k(   18) = (  -0.0815476  -0.0156938   0.0000000), wk =   0.1111111
        k(   19) = (  -0.0815476   0.0156938   0.0000000), wk =   0.1111111
        k(   20) = (  -0.0815476  -0.1412446   0.0000000), wk =   0.0555556

     Largest allocated arrays     est. size (Mb)     dimensions
     Largest temporary arrays     est. size (Mb)     dimensions

     Check: negative/imaginary core charge=   -0.000003    0.000000

     Initial potential from superposition of free atoms
     Check: negative starting charge=   -0.961795

     starting charge   98.99259, renormalised to  117.00000

[...]

     *
     * You are using vdW-DF for exchange-correlation in this calculation.
     * Please cite the following three references that made this development
     * possible:
     *
     *   M. Dion, H. Rydberg, E. Schroder, D. C. Langreth, and
     *   B. I. Lundqvist, Phys. Rev. Lett. 92, 246401 (2004).
     *
     *   T. Thonhauser, V. R. Cooper, S. Li, A. Puzder, P. Hyldgaard, and
     *   D. C. Langreth, Phys. Rev. B 76, 125112 (2007).
     *
     *   G. Roman-Perez and J. M. Soler, Phys. Rev. Lett. 103, 096102 (2009).
     *
     *
     * If you are using vdW-DF2, please also cite:
     *
     *   K. Lee, E. D. Murray, L. Kong, B. I. Lundqvist, and
     *   D. C. Langreth, Phys. Rev. B 82, 081101(R) (2010).
     *
     *
     * If you are calculating the stress with vdW-DF, please also cite:
     *
     *   R. Sabatini, E. Kucukbenli, B. Kolb, T. Thonhauser, and
     *   S. de Gironcoli, J. Phys.: Condens. Matter 24, 424209 (2012).
     *

     Carrying out vdW-DF run using the following parameters:

     Nqs =      20    Nr_points =    1024   r_max =   100.000
     q_mesh =
               0.00001000     0.04494208     0.09755937     0.15916263
               0.23128650     0.31572767     0.41458969     0.53033537
               0.66584808     0.82450364     1.01025438     1.22772762
               1.48234092     1.78043706     2.12944203     2.53805004
               3.01644009     3.57652955     4.23227104     5.00000000

     Gradients computed in reciprocal space

[...]

     Starting wfc are  129 randomized atomic wfcs

     Self-consistent Calculation

[...]

     total energy              =   -1465.71219045 Ry
     Harris-Foulkes estimate   =   -1465.71219065 Ry
     estimated scf accuracy    <       0.00000196 Ry

     iteration # 19     ecut=    36.75 Ry     beta=0.10
     Davidson diagonalization with overlap
     ethr =  1.68E-09,  avg # of iterations =  2.9

[...]

     negative rho (up, down):  1.017E+00 0.000E+00

     Adding external electric field

     Computed dipole along edir(3) :
        Dipole               -0.0074 Ry au,         -0.0189 Debye
        Dipole field         -0.0000 Ry au

        Potential amp.        0.0016 Ry
        Total length         46.0736 bohr

     End of self-consistent calculation

[...]

          k = 0.0544-0.0000 0.0000 ( 20637 PWs)   bands (ev):

[...]

          k =-0.0815-0.1412 0.0000 ( 20696 PWs)   bands (ev):

   -61.4763 -61.4615 -61.4466 -61.4131 -61.3962 -61.3818 -60.8898 -60.8749
   -60.8600 -30.2257 -30.1847 -30.1483 -30.1300 -30.0923 -30.0759 -30.0439
   -30.0318 -30.0065 -30.0002 -29.9693 -29.9513 -29.9484 -29.9299 -29.8952
   -29.8658 -29.7168 -29.6640 -29.6105 -29.5025 -29.4720 -29.4376 -29.4240
   -29.3314 -29.3285 -29.3063 -29.1460  -5.1449  -4.9227  -4.0019  -3.4640
    -2.6721  -2.3186  -2.2649  -1.3227  -1.1029  -1.0842  -0.8192  -0.5081
    -0.4634  -0.3352   0.1040   0.2606   0.2776   0.3356   0.5330   0.7675
     0.8724   0.8887   0.9586   1.0409   1.0664   1.3016   1.3279   1.8058
     1.8699   2.0375   2.0792   2.3453   2.5587   2.7615   3.0166   3.4270
     3.4614   3.6436   3.8641   3.8972   3.9118   3.9843   4.0514   4.1367
     4.1542   4.3151   4.6181   4.6593   4.8047   5.0343   5.2770   5.3950

     the Fermi energy is     1.0420 ev

!    total energy              =   -1465.71219127 Ry
     Harris-Foulkes estimate   =   -1465.71219099 Ry
     estimated scf accuracy    <       0.00000095 Ry

     The total energy is the sum of the following terms:

     one-electron contribution =   -6140.57739744 Ry
     hartree contribution      =    3059.10942320 Ry
     xc contribution           =    -709.59192713 Ry
     ewald contribution        =    2325.43555687 Ry
     electric field correction =       0.00000013 Ry
     smearing contrib. (-TS)   =      -0.08784690 Ry

     convergence has been achieved in  19 iterations

 BEEF-vdW xc energy contributions
           1 :   -640.741867668987
           2 :    595.075208184073
           3 :   -514.330560690046
           4 :    415.437003144473
           5 :   -315.731289433301
           6 :    228.041535188445
           7 :   -158.710157341835
           8 :    108.487562648371
           9 :   -74.9129588831055
          10 :    54.4747715694893
          11 :   -43.6833277919309
          12 :    39.1635917238364
          13 :   -37.4929832599296
          14 :    35.3662184454224
          15 :   -30.2187603778412
          16 :    20.9577339506644
          17 :   -8.33802829970921
          18 :   -5.32254854090729
          19 :    17.0269243253125
          20 :   -24.2353287127697
          21 :    25.7728489533054
          22 :   -22.1566143269426
          23 :    15.2579468390611
          24 :   -7.52952194234831
          25 :    1.17820019673843
          26 :    2.37679500176307
          27 :   -2.64460172704707
          28 :  -9.442217017681287E-002
          29 :    5.02786161036715
          30 :   -10.9876579774333
          31 :   -46.7869391982413
          32 :   -33.7074256386009

     Forces acting on atoms (Ry/au):

     negative rho (up, down):  1.017E+00 0.000E+00
     atom    1 type  1   force =     0.00000461    0.00913480    0.00702945
     atom    2 type  1   force =     0.00791117   -0.00456462    0.00703027
     atom    3 type  1   force =    -0.00791119   -0.00456846    0.00702580
     atom    4 type  2   force =    -0.00000060    0.00000069    0.00113083
     atom    5 type  1   force =    -0.00000065    0.00268957   -0.00509090
     atom    6 type  1   force =     0.00232914   -0.00134810   -0.00509501
     atom    7 type  1   force =    -0.00232819   -0.00134586   -0.00509214
     atom    8 type  2   force =     0.00000015    0.00000060   -0.00642416
     atom    9 type  1   force =    -0.00000583    0.00044807    0.00006489
     atom   10 type  1   force =     0.00039392   -0.00022642    0.00005892
     atom   11 type  1   force =    -0.00039334   -0.00021927    0.00006811
     atom   12 type  2   force =     0.00000080   -0.00000100   -0.00070606

     Total force =     0.023275     Total SCF correction =     0.001720

     entering subroutine stress ...

     negative rho (up, down):  1.017E+00 0.000E+00
          total   stress  (Ry/bohr**3)                   (kbar)     P=  -10.95
  -0.00009147   0.00000000   0.00000000        -13.46      0.00      0.00
   0.00000000  -0.00009148   0.00000000          0.00    -13.46      0.00
   0.00000000   0.00000000  -0.00004039          0.00      0.00     -5.94

 !ASE

     Writing output data file calc.save

     General routines

     Parallel routines

   This run was terminated on:   6:53:57  30Dec2018

   JOB DONE.
Job  /afs/slac/g/suncat/bin/suncat-tsmpirun -x LD_LIBRARY_PATH -wdir /scratch/qe648455_EzmYR pw.x -in pw.inp

TID   HOST_NAME   COMMAND_LINE            STATUS            TERMINATION_TIME
00000 suncat0083 pw.x -in pw.inp   Done                     12/30/2018 06:53:57
00001 suncat0083 pw.x -in pw.inp   Done                     12/30/2018 06:53:57
00002 suncat0083 pw.x -in pw.inp   Done                     12/30/2018 06:53:57
00003 suncat0083 pw.x -in pw.inp   Done                     12/30/2018 06:53:57
00004 suncat0083 pw.x -in pw.inp   Done                     12/30/2018 06:53:57
00005 suncat0083 pw.x -in pw.inp   Done                     12/30/2018 06:53:57
00006 suncat0083 pw.x -in pw.inp   Done                     12/30/2018 06:53:57
00007 suncat0083 pw.x -in pw.inp   Done                     12/30/2018 06:53:57
00008 suncat0066 pw.x -in pw.inp   Done                     12/30/2018 06:53:57
00009 suncat0066 pw.x -in pw.inp   Done                     12/30/2018 06:53:57
00010 suncat0066 pw.x -in pw.inp   Done                     12/30/2018 06:53:57
00011 suncat0066 pw.x -in pw.inp   Done                     12/30/2018 06:53:57
00012 suncat0066 pw.x -in pw.inp   Done                     12/30/2018 06:53:57
00013 suncat0066 pw.x -in pw.inp   Done                     12/30/2018 06:53:57
00014 suncat0066 pw.x -in pw.inp   Done                     12/30/2018 06:53:57
00015 suncat0066 pw.x -in pw.inp   Done                     12/30/2018 06:53:57
00016 suncat0061 pw.x -in pw.inp   Done                     12/30/2018 06:53:57
00017 suncat0061 pw.x -in pw.inp   Done                     12/30/2018 06:53:57
00018 suncat0061 pw.x -in pw.inp   Done                     12/30/2018 06:53:57
00019 suncat0061 pw.x -in pw.inp   Done                     12/30/2018 06:53:57
00020 suncat0061 pw.x -in pw.inp   Done                     12/30/2018 06:53:57
00021 suncat0061 pw.x -in pw.inp   Done                     12/30/2018 06:53:57
00022 suncat0061 pw.x -in pw.inp   Done                     12/30/2018 06:53:57
00023 suncat0061 pw.x -in pw.inp   Done                     12/30/2018 06:53:57
00024 suncat0057 pw.x -in pw.inp   Done                     12/30/2018 06:53:57
00025 suncat0057 pw.x -in pw.inp   Done                     12/30/2018 06:53:57
00026 suncat0057 pw.x -in pw.inp   Done                     12/30/2018 06:53:57
00027 suncat0057 pw.x -in pw.inp   Done                     12/30/2018 06:53:57
00028 suncat0057 pw.x -in pw.inp   Done                     12/30/2018 06:53:57
00029 suncat0057 pw.x -in pw.inp   Done                     12/30/2018 06:53:57
00030 suncat0057 pw.x -in pw.inp   Done                     12/30/2018 06:53:57
00031 suncat0057 pw.x -in pw.inp   Done                     12/30/2018 06:53:57
00032 suncat0106 pw.x -in pw.inp   Done                     12/30/2018 06:53:57
00033 suncat0106 pw.x -in pw.inp   Done                     12/30/2018 06:53:57
00034 suncat0106 pw.x -in pw.inp   Done                     12/30/2018 06:53:57
00035 suncat0106 pw.x -in pw.inp   Done                     12/30/2018 06:53:57
00036 suncat0106 pw.x -in pw.inp   Done                     12/30/2018 06:53:57
00037 suncat0106 pw.x -in pw.inp   Done                     12/30/2018 06:53:57
00038 suncat0106 pw.x -in pw.inp   Done                     12/30/2018 06:53:57
00039 suncat0106 pw.x -in pw.inp   Done                     12/30/2018 06:53:57
00040 suncat0105 pw.x -in pw.inp   Done                     12/30/2018 06:53:57
00041 suncat0105 pw.x -in pw.inp   Done                     12/30/2018 06:53:57
00042 suncat0105 pw.x -in pw.inp   Done                     12/30/2018 06:53:57
00043 suncat0105 pw.x -in pw.inp   Done                     12/30/2018 06:53:57
00044 suncat0105 pw.x -in pw.inp   Done                     12/30/2018 06:53:57
00045 suncat0105 pw.x -in pw.inp   Done                     12/30/2018 06:53:57
00046 suncat0105 pw.x -in pw.inp   Done                     12/30/2018 06:53:57
00047 suncat0105 pw.x -in pw.inp   Done                     12/30/2018 06:53:57
00048 suncat0277 pw.x -in pw.inp   Done                     12/30/2018 06:53:57
00049 suncat0277 pw.x -in pw.inp   Done                     12/30/2018 06:53:57
00050 suncat0277 pw.x -in pw.inp   Done                     12/30/2018 06:53:57
00051 suncat0277 pw.x -in pw.inp   Done                     12/30/2018 06:53:57
00052 suncat0277 pw.x -in pw.inp   Done                     12/30/2018 06:53:57
00053 suncat0277 pw.x -in pw.inp   Done                     12/30/2018 06:53:57
00054 suncat0277 pw.x -in pw.inp   Done                     12/30/2018 06:53:57
00055 suncat0277 pw.x -in pw.inp   Done                     12/30/2018 06:53:57
00056 suncat0276 pw.x -in pw.inp   Done                     12/30/2018 06:53:57
00057 suncat0276 pw.x -in pw.inp   Done                     12/30/2018 06:53:57
00058 suncat0276 pw.x -in pw.inp   Done                     12/30/2018 06:53:57
00059 suncat0276 pw.x -in pw.inp   Done                     12/30/2018 06:53:57
00060 suncat0276 pw.x -in pw.inp   Done                     12/30/2018 06:53:57
00061 suncat0276 pw.x -in pw.inp   Done                     12/30/2018 06:53:57
00062 suncat0276 pw.x -in pw.inp   Done                     12/30/2018 06:53:57
00063 suncat0276 pw.x -in pw.inp   Done                     12/30/2018 06:53:57