     Program PWSCF v.5.1rc2 (svn rev. 11289) starts on 27Dec2018 at 15:15: 4

     Current dimensions of program PWSCF are:
     Max number of different atomic species (ntypx) = 10
     Max number of k-points (npk) =  40000
     Max angular momentum in pseudopotentials (lmaxx) =  3
     Presently stress not available with electric field

     IMPORTANT: XC functional enforced from input :
     Exchange-correlation      = BEEF-VDW ( 1  4 27 13 2)
     Any further DFT definition will be discarded
     Please, verify this is what you really want

     Subspace diagonalization in iterative solution of the eigenvalue problem:
     a serial algorithm will be used

     bravais-lattice index     =            0
     lattice parameter (alat)  =       1.8897  a.u.
     unit-cell volume          =    6508.8404 (a.u.)^3
     number of atoms/cell      =           12
     number of atomic types    =            2
     number of electrons       =       171.00
     number of Kohn-Sham states=          115
     kinetic-energy cutoff     =      36.7493  Ry
     charge density cutoff     =     367.4932  Ry
     convergence threshold     =      1.0E-06
     mixing beta               =       0.1000
     number of iterations used =           10  plain     mixing
     Exchange-correlation      = BEEF-VDW ( 1  4 27 13 2)
     nstep                     =           50

     celldm(1)=   1.889726  celldm(2)=   0.000000  celldm(3)=   0.000000
     celldm(4)=   0.000000  celldm(5)=   0.000000  celldm(6)=   0.000000

     crystal axes: (cart. coord. in units of alat)
               a(1) = (   6.620948   0.000000   0.000000 )
               a(2) = (  -3.310474   5.733910   0.000000 )
               a(3) = (   0.000000   0.000000  25.405982 )

     reciprocal axes: (cart. coord. in units 2 pi/alat)
               b(1) = (  0.151036  0.087201  0.000000 )
               b(2) = (  0.000000  0.174401  0.000000 )
               b(3) = (  0.000000  0.000000  0.039361 )

     PseudoPot. # 1 for Pb read from file:
     /afs/slac.stanford.edu/u/if/mamunm/psp/gbrv1.5pbe/Pb.UPF
     MD5 check sum: 3d1c1779aa92214d1e8f3a7db79003e2
     Pseudo is Ultrasoft + core correction, Zval = 14.0
     Generated by new atomic code, or converted to UPF format
     Using radial grid of  899 points,  6 beta functions with:
                l(1) =   0
                l(2) =   0
                l(3) =   1
                l(4) =   1
                l(5) =   2
                l(6) =   2
     Q(r) pseudized with  6 coefficients,  rinner =    1.000   1.000   1.000
                                                       1.000   1.000

     PseudoPot. # 2 for Re read from file:
     /afs/slac.stanford.edu/u/if/mamunm/psp/gbrv1.5pbe/Re.UPF
     MD5 check sum: 85f993410f3e006da9d71c142b4ad953
     Pseudo is Ultrasoft + core correction, Zval = 15.0
     Generated by new atomic code, or converted to UPF format
     Using radial grid of  981 points,  8 beta functions with:
                l(1) =   0
                l(2) =   0
                l(3) =   1
                l(4) =   1
                l(5) =   2
                l(6) =   2
                l(7) =   3
                l(8) =   3
     Q(r) pseudized with  8 coefficients,  rinner =    1.150   1.150   1.150
                                                       1.150   1.150   1.150
                                                       1.150

     vdW kernel table read from file vdW_kernel_table
     MD5 check sum: 095c7af220d748ca6e76c0b4c6cfb241

     atomic species   valence    mass     pseudopotential
        Pb1           14.00   207.20000     Pb( 1.00)
        Re1           15.00   186.20700     Re( 1.00)

     No symmetry found

   Cartesian axes

     site n.     atom                  positions (alat units)
         1           Pb1 tau(   1) = (   0.0000000   0.0000000  10.0000000  )
         2           Pb1 tau(   2) = (  -1.6552371   2.8669548  10.0000000  )
         3           Pb1 tau(   3) = (   1.6552371   2.8669548  10.0000000  )
         4           Re1 tau(   4) = (   3.3104742   0.0000000  10.0000000  )
         5           Pb1 tau(   5) = (   3.3104742   1.9113032  12.7029909  )
         6           Pb1 tau(   6) = (   1.6552371   4.7782579  12.7029909  )
         7           Pb1 tau(   7) = (  -1.6552371   4.7782579  12.7029909  )
         8           Re1 tau(   8) = (   0.0000000   1.9113032  12.7029909  )
         9           Pb1 tau(   9) = (  -0.0000000   3.8226064  15.4059818  )
        10           Pb1 tau(  10) = (   1.6552371   0.9556516  15.4059818  )
        11           Pb1 tau(  11) = (   4.9657113   0.9556516  15.4059818  )
        12           Re1 tau(  12) = (   3.3104742   3.8226064  15.4059818  )

     number of k points=    20  Fermi-Dirac smearing, width (Ry)=  0.0110
                       cart. coord. in units 2pi/alat
        k(    1) = (   0.0000000   0.0000000   0.0000000), wk =   0.0555556
        k(    2) = (   0.0000000   0.0290668   0.0000000), wk =   0.1111111
        k(    3) = (   0.0000000   0.0581337   0.0000000), wk =   0.1111111
        k(    4) = (   0.0000000  -0.0872005   0.0000000), wk =   0.0555556
        k(    5) = (   0.0251726   0.0145334   0.0000000), wk =   0.1111111
        k(    6) = (   0.0251726   0.0436003   0.0000000), wk =   0.1111111
        k(    7) = (   0.0251726   0.0726671   0.0000000), wk =   0.1111111
        k(    8) = (   0.0251726  -0.0726671   0.0000000), wk =   0.1111111
        k(    9) = (   0.0251726  -0.0436003   0.0000000), wk =   0.1111111
        k(   10) = (   0.0251726  -0.0145334   0.0000000), wk =   0.1111111
        k(   11) = (   0.0503453   0.0290668   0.0000000), wk =   0.1111111
        k(   12) = (   0.0503453   0.0581337   0.0000000), wk =   0.1111111
        k(   13) = (   0.0503453   0.0872005   0.0000000), wk =   0.1111111
        k(   14) = (   0.0503453  -0.0581337   0.0000000), wk =   0.1111111
        k(   15) = (   0.0503453  -0.0290668   0.0000000), wk =   0.1111111
        k(   16) = (   0.0503453   0.0000000   0.0000000), wk =   0.1111111
        k(   17) = (  -0.0755179  -0.0436003   0.0000000), wk =   0.0555556
        k(   18) = (  -0.0755179  -0.0145334   0.0000000), wk =   0.1111111
        k(   19) = (  -0.0755179   0.0145334   0.0000000), wk =   0.1111111
        k(   20) = (  -0.0755179  -0.1308008   0.0000000), wk =   0.0555556

     Largest allocated arrays     est. size (Mb)     dimensions
     Largest temporary arrays     est. size (Mb)     dimensions

     Check: negative/imaginary core charge=   -0.000001    0.000000

     Initial potential from superposition of free atoms
     Check: negative starting charge=   -0.539649

     starting charge  169.47870, renormalised to  171.00000

     negative rho (up, down):  5.445E-01 0.000E+00

     *
     * You are using vdW-DF for exchange-correlation in this calculation.
     * Please cite the following three references that made this development
     * possible:
     *
     *   M. Dion, H. Rydberg, E. Schroder, D. C. Langreth, and
     *   B. I. Lundqvist, Phys. Rev. Lett. 92, 246401 (2004).
     *
     *   T. Thonhauser, V. R. Cooper, S. Li, A. Puzder, P. Hyldgaard, and
     *   D. C. Langreth, Phys. Rev. B 76, 125112 (2007).
     *
     *   G. Roman-Perez and J. M. Soler, Phys. Rev. Lett. 103, 096102 (2009).
     *
     *
     * If you are using vdW-DF2, please also cite:
     *
     *   K. Lee, E. D. Murray, L. Kong, B. I. Lundqvist, and
     *   D. C. Langreth, Phys. Rev. B 82, 081101(R) (2010).
     *
     *
     * If you are calculating the stress with vdW-DF, please also cite:
     *
     *   R. Sabatini, E. Kucukbenli, B. Kolb, T. Thonhauser, and
     *   S. de Gironcoli, J. Phys.: Condens. Matter 24, 424209 (2012).
     *

     Carrying out vdW-DF run using the following parameters:

     Nqs =      20    Nr_points =    1024   r_max =   100.000
     q_mesh =
               0.00001000     0.04494208     0.09755937     0.15916263
               0.23128650     0.31572767     0.41458969     0.53033537
               0.66584808     0.82450364     1.01025438     1.22772762
               1.48234092     1.78043706     2.12944203     2.53805004
               3.01644009     3.57652955     4.23227104     5.00000000

     Gradients computed in reciprocal space

     Adding external electric field

     Computed dipole along edir(3) :
        Dipole               -0.0000 Ry au,         -0.0000 Debye
        Dipole field         -0.0000 Ry au

        Potential amp.        0.0000 Ry
        Total length         46.8101 bohr

     Starting wfc are  120 randomized atomic wfcs

     Self-consistent Calculation

     iteration #  1     ecut=    36.75 Ry     beta=0.10
     Davidson diagonalization with overlap
     ethr =  1.00E-02,  avg # of iterations =  7.0

[...]

     total energy              =   -2069.10323228 Ry
     Harris-Foulkes estimate   =   -2070.49104719 Ry
     estimated scf accuracy    <       7.81501501 Ry

[...]

     End of self-consistent calculation

          k = 0.0000 0.0000 0.0000 ( 24381 PWs)   bands (ev):

   -78.5517 -78.5397 -78.5397 -40.2856 -40.2856 -40.2648 -40.2648 -40.2647
   -40.2647 -40.2112 -40.2109 -40.1841 -16.1699 -16.1305 -16.1281 -16.1281
   -16.1244 -16.0901 -16.0436 -16.0436 -16.0202 -16.0202 -15.9866 -15.9694
   -15.9694 -15.9390 -15.9061 -15.9034 -15.9034 -15.8771 -15.8771 -15.8697
   -15.8396 -15.7848 -15.7848 -15.7845 -15.7845 -15.7815 -15.7666 -15.7647
   -15.7647 -15.7529 -15.7529 -15.7485 -15.7485 -15.7095 -15.7095 -15.7024
   -15.7024 -15.6328 -15.6328 -15.6137 -15.6137 -15.6118 -15.5726 -15.5719
   -15.5564 -10.0480  -8.8838  -7.4199  -6.5775  -6.5775  -5.9690  -5.9690
    -5.2171  -5.2171  -2.8966  -2.3717  -1.9223  -1.5599  -1.5599  -1.2886
    -0.4807  -0.4807  -0.3515  -0.3515  -0.2620   0.7393   0.7393   0.7542
     0.7542   1.0974   1.2222   1.2222   1.2529   1.2986   1.3832   1.3832
     1.3911   1.3911   1.4508   1.6366   1.6592   1.6592   3.0358   3.9280
     3.9280   4.0133   4.0133   4.4137   4.7905   4.8003   4.8855   5.3671
     5.8679   5.8679   5.9870   6.0494   6.1829   6.4770   6.4770   7.0622
     7.3898   7.3898   7.4618

[...]

          k =-0.0755-0.0436 0.0000 ( 24480 PWs)   bands (ev):

[...]

     the Fermi energy is     1.3924 ev

!    total energy              =   -2069.74512486 Ry
     Harris-Foulkes estimate   =   -2069.74512263 Ry
     estimated scf accuracy    <       0.00000048 Ry

     The total energy is the sum of the following terms:

     one-electron contribution =  -10790.86290082 Ry
     hartree contribution      =    5444.06711972 Ry
     xc contribution           =    -749.78992585 Ry
     ewald contribution        =    4026.94376612 Ry
     electric field correction =       0.00000000 Ry
     smearing contrib. (-TS)   =      -0.10318404 Ry

     convergence has been achieved in  15 iterations

 BEEF-vdW xc energy contributions
           1 :   -668.080946004651
           2 :    620.497624718487
           3 :   -536.360727846598
           4 :    433.608083301848
           5 :   -331.025612470806
           6 :    242.750266928851
           7 :   -175.206063829325
           8 :    127.234145728281
           9 :   -92.8935376049601
[...]
     Generated by new atomic code, or converted to UPF format
     Using radial grid of  899 points,  6 beta functions with:
                l(1) =   0
                l(2) =   0
                l(3) =   1
                l(4) =   1
                l(5) =   2
                l(6) =   2
     Q(r) pseudized with  6 coefficients,  rinner =    1.000   1.000   1.000
                                                       1.000   1.000

     PseudoPot. # 2 for Re read from file:
     /afs/slac.stanford.edu/u/if/mamunm/psp/gbrv1.5pbe/Re.UPF
     MD5 check sum: 85f993410f3e006da9d71c142b4ad953
     Pseudo is Ultrasoft + core correction, Zval = 15.0
     Generated by new atomic code, or converted to UPF format
     Using radial grid of  981 points,  8 beta functions with:
                l(1) =   0
                l(2) =   0
                l(3) =   1
                l(4) =   1
                l(5) =   2
                l(6) =   2
                l(7) =   3
                l(8) =   3
     Q(r) pseudized with  8 coefficients,  rinner =    1.150   1.150   1.150
                                                       1.150   1.150   1.150
                                                       1.150

     vdW kernel table read from file vdW_kernel_table
     MD5 check sum: 095c7af220d748ca6e76c0b4c6cfb241

     atomic species   valence    mass     pseudopotential
        Pb1           14.00   207.20000     Pb( 1.00)
        Re1           15.00   186.20700     Re( 1.00)

     No symmetry found

   Cartesian axes

     site n.     atom                  positions (alat units)
         1           Pb1 tau(   1) = (   0.0000000   0.0000000  10.0000000  )
         2           Pb1 tau(   2) = (  -1.6552371   2.8669548  10.0000000  )
         3           Pb1 tau(   3) = (   1.6552371   2.8669548  10.0000000  )
         4           Re1 tau(   4) = (   3.3104742   0.0000000  10.0000000  )
         5           Pb1 tau(   5) = (   3.3104742   1.9113032  12.7029909  )
         6           Pb1 tau(   6) = (   1.6552371   4.7782579  12.7029909  )
         7           Pb1 tau(   7) = (  -1.6552371   4.7782579  12.7029909  )
         8           Re1 tau(   8) = (   0.0000000   1.9113032  12.7029909  )
         9           Pb1 tau(   9) = (   0.0000896   3.7564956  15.5196645  )
        10           Pb1 tau(  10) = (   1.5980240   0.9886521  15.5196827  )
        11           Pb1 tau(  11) = (   5.0230181   0.9887416  15.5194732  )
        12           Re1 tau(  12) = (   3.3104423   3.8226092  14.7765176  )

     number of k points=    20  Fermi-Dirac smearing, width (Ry)=  0.0110
                       cart. coord. in units 2pi/alat
        k(    1) = (   0.0000000   0.0000000   0.0000000), wk =   0.0555556
        k(    2) = (   0.0000000   0.0290668   0.0000000), wk =   0.1111111
        k(    3) = (   0.0000000   0.0581337   0.0000000), wk =   0.1111111
        k(    4) = (   0.0000000  -0.0872005   0.0000000), wk =   0.0555556
        k(    5) = (   0.0251726   0.0145334   0.0000000), wk =   0.1111111
        k(    6) = (   0.0251726   0.0436003   0.0000000), wk =   0.1111111
        k(    7) = (   0.0251726   0.0726671   0.0000000), wk =   0.1111111
        k(    8) = (   0.0251726  -0.0726671   0.0000000), wk =   0.1111111
        k(    9) = (   0.0251726  -0.0436003   0.0000000), wk =   0.1111111
        k(   10) = (   0.0251726  -0.0145334   0.0000000), wk =   0.1111111
        k(   11) = (   0.0503453   0.0290668   0.0000000), wk =   0.1111111
        k(   12) = (   0.0503453   0.0581337   0.0000000), wk =   0.1111111
        k(   13) = (   0.0503453   0.0872005   0.0000000), wk =   0.1111111
        k(   14) = (   0.0503453  -0.0581337   0.0000000), wk =   0.1111111
        k(   15) = (   0.0503453  -0.0290668   0.0000000), wk =   0.1111111
        k(   16) = (   0.0503453   0.0000000   0.0000000), wk =   0.1111111
        k(   17) = (  -0.0755179  -0.0436003   0.0000000), wk =   0.0555556
        k(   18) = (  -0.0755179  -0.0145334   0.0000000), wk =   0.1111111
        k(   19) = (  -0.0755179   0.0145334   0.0000000), wk =   0.1111111
        k(   20) = (  -0.0755179  -0.1308008   0.0000000), wk =   0.0555556

     Largest allocated arrays     est. size (Mb)     dimensions
     Largest temporary arrays     est. size (Mb)     dimensions

     Check: negative/imaginary core charge=   -0.000001    0.000000

     Initial potential from superposition of free atoms
     Check: negative starting charge=   -0.536909

     starting charge  169.47870, renormalised to  171.00000

[...]

     *
     * You are using vdW-DF for exchange-correlation in this calculation.
     * Please cite the following three references that made this development
     * possible:
     *
     *   M. Dion, H. Rydberg, E. Schroder, D. C. Langreth, and
     *   B. I. Lundqvist, Phys. Rev. Lett. 92, 246401 (2004).
     *
     *   T. Thonhauser, V. R. Cooper, S. Li, A. Puzder, P. Hyldgaard, and
     *   D. C. Langreth, Phys. Rev. B 76, 125112 (2007).
     *
     *   G. Roman-Perez and J. M. Soler, Phys. Rev. Lett. 103, 096102 (2009).
     *
     *
     * If you are using vdW-DF2, please also cite:
     *
     *   K. Lee, E. D. Murray, L. Kong, B. I. Lundqvist, and
     *   D. C. Langreth, Phys. Rev. B 82, 081101(R) (2010).
     *
     *
     * If you are calculating the stress with vdW-DF, please also cite:
     *
     *   R. Sabatini, E. Kucukbenli, B. Kolb, T. Thonhauser, and
     *   S. de Gironcoli, J. Phys.: Condens. Matter 24, 424209 (2012).
     *

     Carrying out vdW-DF run using the following parameters:

     Nqs =      20    Nr_points =    1024   r_max =   100.000
     q_mesh =
               0.00001000     0.04494208     0.09755937     0.15916263
               0.23128650     0.31572767     0.41458969     0.53033537
               0.66584808     0.82450364     1.01025438     1.22772762
               1.48234092     1.78043706     2.12944203     2.53805004
               3.01644009     3.57652955     4.23227104     5.00000000

     Gradients computed in reciprocal space

[...]

     Starting wfc are  120 randomized atomic wfcs

     Self-consistent Calculation

[...]

     total energy              =   -2069.79672200 Ry
     Harris-Foulkes estimate   =   -2069.79670168 Ry
     estimated scf accuracy    <       0.00000124 Ry

     iteration # 17     ecut=    36.75 Ry     beta=0.10
     Davidson diagonalization with overlap
     ethr =  7.23E-10,  avg # of iterations =  4.0

[...]

     negative rho (up, down):  5.331E-01 0.000E+00

     Adding external electric field

     Computed dipole along edir(3) :
        Dipole                0.1228 Ry au,          0.3122 Debye
        Dipole field          0.0002 Ry au

        Potential amp.       -0.0222 Ry
        Total length         46.8101 bohr

     End of self-consistent calculation

[...]

          k = 0.0503 0.0000 0.0000 ( 24498 PWs)   bands (ev):

[...]

          k =-0.0755-0.1308 0.0000 ( 24480 PWs)   bands (ev):

   -78.5762 -78.5547 -78.4787 -40.2825 -40.2772 -40.2771 -40.2718 -40.2716
   -40.2220 -40.2218 -40.2145 -40.2080 -16.0775 -16.0314 -16.0041 -15.9879
   -15.9648 -15.9566 -15.9351 -15.9198 -15.9127 -15.9052 -15.8861 -15.8678
   -15.8502 -15.8430 -15.8345 -15.8184 -15.8125 -15.8099 -15.8040 -15.8024
   -15.7867 -15.7826 -15.7725 -15.7689 -15.7664 -15.7653 -15.7506 -15.7428
   -15.7415 -15.7302 -15.7287 -15.7145 -15.7137 -15.7055 -15.6961 -15.6958
   -15.6934 -15.6869 -15.6621 -15.6616 -15.6554 -15.6351 -15.5856 -15.5723
   -15.5455  -9.0521  -8.6857  -7.8767  -7.4315  -6.9052  -6.8482  -6.3835
    -5.9025  -5.0713  -2.9633  -2.3349  -1.5617  -0.7870  -0.7200  -0.4978
    -0.4471  -0.3576  -0.0851   0.0771   0.1639   0.3806   0.7071   0.8577
     1.0516   1.1282   1.2148   1.2168   1.3734   1.4066   1.4196   1.6260
     1.8888   1.9154   2.3528   2.3755   2.6099   2.7774   3.0899   3.1370
     3.5881   3.8688   4.2739   4.3443   4.3876   4.9918   5.0127   5.3342
     5.6167   5.7672   5.8246   5.9361   5.9660   6.0987   6.4288   6.6510
     6.7662   6.7844   6.8409

     the Fermi energy is     1.4295 ev

!    total energy              =   -2069.79668384 Ry
     Harris-Foulkes estimate   =   -2069.79672324 Ry
     estimated scf accuracy    <       0.00000049 Ry

     The total energy is the sum of the following terms:

     one-electron contribution =  -10899.17958998 Ry
     hartree contribution      =    5498.41444293 Ry
     xc contribution           =    -749.89911604 Ry
     ewald contribution        =    4080.95974013 Ry
     electric field correction =       0.00002913 Ry
     smearing contrib. (-TS)   =      -0.09219000 Ry

     convergence has been achieved in  17 iterations

 BEEF-vdW xc energy contributions
           1 :   -668.196419990470
           2 :    620.666460964711
           3 :   -536.604754256328
           4 :    433.899008126384
           5 :   -331.290336592945
           6 :    242.902137415805
           7 :   -175.188684561973
           8 :    127.054808023172
           9 :   -92.6267166832027
          10 :    65.1402354771770
          11 :   -40.1461100874952
          12 :    16.7854272473171
          13 :    3.03066378572896
          14 :   -16.6982148754777
          15 :    22.9582804084397
          16 :   -22.8503063591257
          17 :    19.2534318024981
          18 :   -15.4638468227987
          19 :    13.6851093853594
          20 :   -14.2412052122935
          21 :    15.8449580051356
          22 :   -16.6592017491939
          23 :    15.4880420456559
          24 :   -12.4408463042174
          25 :    8.76996891471799
          26 :   -6.06717970287252
          27 :    5.33252397823094
          28 :   -6.45005418956657
          29 :    8.32945088838119
          30 :   -9.58305361963949
          31 :   -53.7966563252560
          32 :   -39.4792244908889

     Forces acting on atoms (Ry/au):

     negative rho (up, down):  5.331E-01 0.000E+00
     atom    1 type  1   force =    -0.00000732    0.02257793   -0.01157263
     atom    2 type  1   force =     0.01955339   -0.01128813   -0.01156058
     atom    3 type  1   force =    -0.01955215   -0.01128732   -0.01156072
     atom    4 type  2   force =    -0.00000089    0.00000038    0.06213693
     atom    5 type  1   force =    -0.00000327   -0.02172612   -0.01043771
     atom    6 type  1   force =    -0.01882260    0.01086503   -0.01043800
     atom    7 type  1   force =     0.01881719    0.01086088   -0.01043013
     atom    8 type  2   force =    -0.00000160    0.00000043    0.00687046
     atom    9 type  1   force =     0.00001089   -0.00029842   -0.00088449
     atom   10 type  1   force =    -0.00024959    0.00014282   -0.00087209
     atom   11 type  1   force =     0.00025719    0.00014779   -0.00088266
     atom   12 type  2   force =    -0.00000124    0.00000473   -0.00036839

     Total force =     0.087089     Total SCF correction =     0.002826

     entering subroutine stress ...

     negative rho (up, down):  5.331E-01 0.000E+00
          total   stress  (Ry/bohr**3)                   (kbar)     P=   -6.71
  -0.00005533  -0.00000000   0.00000000         -8.14     -0.00      0.00
  -0.00000000  -0.00005533   0.00000000         -0.00     -8.14      0.00
   0.00000000   0.00000000  -0.00002617          0.00      0.00     -3.85

 !ASE

     Writing output data file calc.save

     General routines

     Parallel routines

   This run was terminated on:  17: 5: 2  27Dec2018

   JOB DONE.
Job  /afs/slac/g/suncat/bin/suncat-tsmpirun -x LD_LIBRARY_PATH -wdir /scratch/qe110406_Cl6aI pw.x -in pw.inp

TID   HOST_NAME   COMMAND_LINE            STATUS            TERMINATION_TIME
00000 suncat0062 pw.x -in pw.inp   Done                     12/27/2018 17:05:02
00001 suncat0062 pw.x -in pw.inp   Done                     12/27/2018 17:05:02
00002 suncat0062 pw.x -in pw.inp   Done                     12/27/2018 17:05:02
00003 suncat0062 pw.x -in pw.inp   Done                     12/27/2018 17:05:02
00004 suncat0062 pw.x -in pw.inp   Done                     12/27/2018 17:05:02
00005 suncat0062 pw.x -in pw.inp   Done                     12/27/2018 17:05:02
00006 suncat0062 pw.x -in pw.inp   Done                     12/27/2018 17:05:02
00007 suncat0062 pw.x -in pw.inp   Done                     12/27/2018 17:05:02
00008 suncat0042 pw.x -in pw.inp   Done                     12/27/2018 17:05:02
00009 suncat0042 pw.x -in pw.inp   Done                     12/27/2018 17:05:02
00010 suncat0042 pw.x -in pw.inp   Done                     12/27/2018 17:05:02
00011 suncat0042 pw.x -in pw.inp   Done                     12/27/2018 17:05:02
00012 suncat0042 pw.x -in pw.inp   Done                     12/27/2018 17:05:02
00013 suncat0042 pw.x -in pw.inp   Done                     12/27/2018 17:05:02
00014 suncat0042 pw.x -in pw.inp   Done                     12/27/2018 17:05:02
00015 suncat0042 pw.x -in pw.inp   Done                     12/27/2018 17:05:02
00016 suncat0034 pw.x -in pw.inp   Done                     12/27/2018 17:05:02
00017 suncat0034 pw.x -in pw.inp   Done                     12/27/2018 17:05:02
00018 suncat0034 pw.x -in pw.inp   Done                     12/27/2018 17:05:02
00019 suncat0034 pw.x -in pw.inp   Done                     12/27/2018 17:05:02
00020 suncat0034 pw.x -in pw.inp   Done                     12/27/2018 17:05:02
00021 suncat0034 pw.x -in pw.inp   Done                     12/27/2018 17:05:02
00022 suncat0034 pw.x -in pw.inp   Done                     12/27/2018 17:05:02
00023 suncat0034 pw.x -in pw.inp   Done                     12/27/2018 17:05:02
00024 suncat0029 pw.x -in pw.inp   Done                     12/27/2018 17:05:02
00025 suncat0029 pw.x -in pw.inp   Done                     12/27/2018 17:05:02
00026 suncat0029 pw.x -in pw.inp   Done                     12/27/2018 17:05:02
00027 suncat0029 pw.x -in pw.inp   Done                     12/27/2018 17:05:02
00028 suncat0029 pw.x -in pw.inp   Done                     12/27/2018 17:05:02
00029 suncat0029 pw.x -in pw.inp   Done                     12/27/2018 17:05:02
00030 suncat0029 pw.x -in pw.inp   Done                     12/27/2018 17:05:02
00031 suncat0029 pw.x -in pw.inp   Done                     12/27/2018 17:05:02
00032 suncat0020 pw.x -in pw.inp   Done                     12/27/2018 17:05:02
00033 suncat0020 pw.x -in pw.inp   Done                     12/27/2018 17:05:02
00034 suncat0020 pw.x -in pw.inp   Done                     12/27/2018 17:05:02
00035 suncat0020 pw.x -in pw.inp   Done                     12/27/2018 17:05:02
00036 suncat0020 pw.x -in pw.inp   Done                     12/27/2018 17:05:02
00037 suncat0020 pw.x -in pw.inp   Done                     12/27/2018 17:05:02
00038 suncat0020 pw.x -in pw.inp   Done                     12/27/2018 17:05:02
00039 suncat0020 pw.x -in pw.inp   Done                     12/27/2018 17:05:02
00040 suncat0199 pw.x -in pw.inp   Done                     12/27/2018 17:05:02
00041 suncat0199 pw.x -in pw.inp   Done                     12/27/2018 17:05:02
00042 suncat0199 pw.x -in pw.inp   Done                     12/27/2018 17:05:02
00043 suncat0199 pw.x -in pw.inp   Done                     12/27/2018 17:05:02
00044 suncat0199 pw.x -in pw.inp   Done                     12/27/2018 17:05:02
00045 suncat0199 pw.x -in pw.inp   Done                     12/27/2018 17:05:02
00046 suncat0199 pw.x -in pw.inp   Done                     12/27/2018 17:05:02
00047 suncat0199 pw.x -in pw.inp   Done                     12/27/2018 17:05:02
00048 suncat0006 pw.x -in pw.inp   Done                     12/27/2018 17:05:02
00049 suncat0006 pw.x -in pw.inp   Done                     12/27/2018 17:05:02
00050 suncat0006 pw.x -in pw.inp   Done                     12/27/2018 17:05:02
00051 suncat0006 pw.x -in pw.inp   Done                     12/27/2018 17:05:02
00052 suncat0006 pw.x -in pw.inp   Done                     12/27/2018 17:05:02
00053 suncat0006 pw.x -in pw.inp   Done                     12/27/2018 17:05:02
00054 suncat0006 pw.x -in pw.inp   Done                     12/27/2018 17:05:02
00055 suncat0006 pw.x -in pw.inp   Done                     12/27/2018 17:05:02
00056 suncat0005 pw.x -in pw.inp   Done                     12/27/2018 17:05:02
00057 suncat0005 pw.x -in pw.inp   Done                     12/27/2018 17:05:02
00058 suncat0005 pw.x -in pw.inp   Done                     12/27/2018 17:05:02
00059 suncat0005 pw.x -in pw.inp   Done                     12/27/2018 17:05:02
00060 suncat0005 pw.x -in pw.inp   Done                     12/27/2018 17:05:02
00061 suncat0005 pw.x -in pw.inp   Done                     12/27/2018 17:05:02
00062 suncat0005 pw.x -in pw.inp   Done                     12/27/2018 17:05:02
00063 suncat0005 pw.x -in pw.inp   Done                     12/27/2018 17:05:02