     Program PWSCF v.5.1rc2 (svn rev. 11289) starts on 27Dec2018 at  0: 7:53

     Current dimensions of program PWSCF are:
     Max number of different atomic species (ntypx) = 10
     Max number of k-points (npk) =  40000
     Max angular momentum in pseudopotentials (lmaxx) =  3
     Presently stress not available with electric field

     IMPORTANT: XC functional enforced from input :
     Exchange-correlation      = BEEF-VDW ( 1  4 27 13 2)
     Any further DFT definition will be discarded
     Please, verify this is what you really want

     Subspace diagonalization in iterative solution of the eigenvalue problem:
     a serial algorithm will be used

     Generating pointlists ...
     new r_m :   0.4125 (alat units)  0.7795 (a.u.) for type    1
     new r_m :   0.4125 (alat units)  0.7795 (a.u.) for type    2

     bravais-lattice index     =            0
     lattice parameter (alat)  =       1.8897  a.u.
     unit-cell volume          =    4045.7281 (a.u.)^3
     number of atoms/cell      =           12
     number of atomic types    =            2
     number of electrons       =       171.00
     number of Kohn-Sham states=          115
     kinetic-energy cutoff     =      36.7493  Ry
     charge density cutoff     =     367.4932  Ry
     convergence threshold     =      1.0E-06
     mixing beta               =       0.1000
     number of iterations used =           10  plain     mixing
     Exchange-correlation      = BEEF-VDW ( 1  4 27 13 2)
     nstep                     =           50

     celldm(1)=   1.889726  celldm(2)=   0.000000  celldm(3)=   0.000000
     celldm(4)=   0.000000  celldm(5)=   0.000000  celldm(6)=   0.000000

     crystal axes: (cart. coord. in units of alat)
               a(1) = (   5.331587   0.000000   0.000000 )
               a(2) = (  -2.665794   4.617290   0.000000 )
               a(3) = (   0.000000   0.000000  24.353223 )

     reciprocal axes: (cart. coord. in units 2 pi/alat)
               b(1) = (  0.187561  0.108289  0.000000 )
               b(2) = (  0.000000  0.216577  0.000000 )
               b(3) = (  0.000000  0.000000  0.041062 )

     PseudoPot. # 1 for Mn read from file:
     /afs/slac.stanford.edu/u/if/mamunm/psp/gbrv1.5pbe/Mn.UPF
     MD5 check sum: 82ef2b46521d7a7d9e736dc3972e4928
     Pseudo is Ultrasoft + core correction, Zval = 15.0
     Generated by new atomic code, or converted to UPF format
     Using radial grid of  859 points,  6 beta functions with:
                l(1) =   0
                l(2) =   0
                l(3) =   1
                l(4) =   1
                l(5) =   2
                l(6) =   2
     Q(r) pseudized with  8 coefficients,  rinner =    0.950   0.950   0.950
                                                       0.950   0.950

     PseudoPot. # 2 for Ti read from file:
     /afs/slac.stanford.edu/u/if/mamunm/psp/gbrv1.5pbe/Ti.UPF
     MD5 check sum: 88a00a6731bd790ddea75d31a80cb452
     Pseudo is Ultrasoft + core correction, Zval = 12.0
     Generated by new atomic code, or converted to UPF format
     Using radial grid of  851 points,  6 beta functions with:
                l(1) =   0
                l(2) =   0
                l(3) =   1
                l(4) =   1
                l(5) =   2
                l(6) =   2
     Q(r) pseudized with  6 coefficients,  rinner =    1.000   1.000   1.000
                                                       1.000   1.000

     vdW kernel table read from file vdW_kernel_table
     MD5 check sum: 095c7af220d748ca6e76c0b4c6cfb241

     atomic species   valence    mass     pseudopotential
        Mn1           15.00    54.93804     Mn( 1.00)
        Ti1           12.00    47.86700     Ti( 1.00)

     Starting magnetic structure
     atomic species   magnetization
        Mn1          0.133
        Ti1          0.167

     No symmetry found

   Cartesian axes

     site n.     atom                  positions (alat units)
         1           Mn1 tau(   1) = (   0.0000000   0.0000000  10.0000000  )
         2           Mn1 tau(   2) = (  -1.3328968   2.3086449  10.0000000  )
         3           Mn1 tau(   3) = (   1.3328968   2.3086449  10.0000000  )
         4           Ti1 tau(   4) = (   2.6657935   0.0000000  10.0000000  )
         5           Mn1 tau(   5) = (   2.6657935   1.5390966  12.1766113  )
         6           Mn1 tau(   6) = (   1.3328968   3.8477416  12.1766113  )
         7           Mn1 tau(   7) = (  -1.3328968   3.8477416  12.1766113  )
         8           Ti1 tau(   8) = (   0.0000000   1.5390966  12.1766113  )
         9           Mn1 tau(   9) = (  -0.0000000   3.0781932  14.3532226  )
        10           Mn1 tau(  10) = (   1.3328968   0.7695483  14.3532226  )
        11           Mn1 tau(  11) = (   3.9986903   0.7695483  14.3532226  )
        12           Ti1 tau(  12) = (   2.6657935   3.0781932  14.3532226  )

     number of k points=    40  Fermi-Dirac smearing, width (Ry)=  0.0110
                       cart. coord. in units 2pi/alat
        k(    1) = (   0.0000000   0.0000000   0.0000000), wk =   0.0277778
        k(    2) = (   0.0000000   0.0360962   0.0000000), wk =   0.0555556
        k(    3) = (   0.0000000   0.0721924   0.0000000), wk =   0.0555556
        k(    4) = (   0.0000000  -0.1082886   0.0000000), wk =   0.0277778
        k(    5) = (   0.0312602   0.0180481   0.0000000), wk =   0.0555556
        k(    6) = (   0.0312602   0.0541443   0.0000000), wk =   0.0555556
        k(    7) = (   0.0312602   0.0902405   0.0000000), wk =   0.0555556
        k(    8) = (   0.0312602  -0.0902405   0.0000000), wk =   0.0555556
        k(    9) = (   0.0312602  -0.0541443   0.0000000), wk =   0.0555556
        k(   10) = (   0.0312602  -0.0180481   0.0000000), wk =   0.0555556
        k(   11) = (   0.0625205   0.0360962   0.0000000), wk =   0.0555556
        k(   12) = (   0.0625205   0.0721924   0.0000000), wk =   0.0555556
        k(   13) = (   0.0625205   0.1082886   0.0000000), wk =   0.0555556
        k(   14) = (   0.0625205  -0.0721924   0.0000000), wk =   0.0555556
        k(   15) = (   0.0625205  -0.0360962   0.0000000), wk =   0.0555556
        k(   16) = (   0.0625205   0.0000000   0.0000000), wk =   0.0555556
        k(   17) = (  -0.0937807  -0.0541443   0.0000000), wk =   0.0277778
        k(   18) = (  -0.0937807  -0.0180481   0.0000000), wk =   0.0555556
        k(   19) = (  -0.0937807   0.0180481   0.0000000), wk =   0.0555556
        k(   20) = (  -0.0937807  -0.1624329   0.0000000), wk =   0.0277778
        k(   21) = (   0.0000000   0.0000000   0.0000000), wk =   0.0277778
        k(   22) = (   0.0000000   0.0360962   0.0000000), wk =   0.0555556
        k(   23) = (   0.0000000   0.0721924   0.0000000), wk =   0.0555556
        k(   24) = (   0.0000000  -0.1082886   0.0000000), wk =   0.0277778
        k(   25) = (   0.0312602   0.0180481   0.0000000), wk =   0.0555556
        k(   26) = (   0.0312602   0.0541443   0.0000000), wk =   0.0555556
        k(   27) = (   0.0312602   0.0902405   0.0000000), wk =   0.0555556
        k(   28) = (   0.0312602  -0.0902405   0.0000000), wk =   0.0555556
        k(   29) = (   0.0312602  -0.0541443   0.0000000), wk =   0.0555556
        k(   30) = (   0.0312602  -0.0180481   0.0000000), wk =   0.0555556
        k(   31) = (   0.0625205   0.0360962   0.0000000), wk =   0.0555556
        k(   32) = (   0.0625205   0.0721924   0.0000000), wk =   0.0555556
        k(   33) = (   0.0625205   0.1082886   0.0000000), wk =   0.0555556
        k(   34) = (   0.0625205  -0.0721924   0.0000000), wk =   0.0555556
        k(   35) = (   0.0625205  -0.0360962   0.0000000), wk =   0.0555556
        k(   36) = (   0.0625205   0.0000000   0.0000000), wk =   0.0555556
        k(   37) = (  -0.0937807  -0.0541443   0.0000000), wk =   0.0277778
        k(   38) = (  -0.0937807  -0.0180481   0.0000000), wk =   0.0555556
        k(   39) = (  -0.0937807   0.0180481   0.0000000), wk =   0.0555556
        k(   40) = (  -0.0937807  -0.1624329   0.0000000), wk =   0.0277778

     Largest allocated arrays     est. size (Mb)     dimensions
     Largest temporary arrays     est. size (Mb)     dimensions

     Check: negative/imaginary core charge=   -0.000009    0.000000

     Initial potential from superposition of free atoms
     Check: negative starting charge=(component1):   -0.003851
     Check: negative starting charge=(component2):   -0.002823

     starting charge  163.49910, renormalised to  171.00000

     negative rho (up, down):  4.028E-03 2.953E-03

     *
     * You are using vdW-DF for exchange-correlation in this calculation.
     * Please cite the following three references that made this development
     * possible:
     *
     *   M. Dion, H. Rydberg, E. Schroder, D. C. Langreth, and
     *   B. I. Lundqvist, Phys. Rev. Lett. 92, 246401 (2004).
     *
     *   T. Thonhauser, V. R. Cooper, S. Li, A. Puzder, P. Hyldgaard, and
     *   D. C. Langreth, Phys. Rev. B 76, 125112 (2007).
     *
     *   G. Roman-Perez and J. M. Soler, Phys. Rev. Lett. 103, 096102 (2009).
     *
     *
     * If you are using vdW-DF2, please also cite:
     *
     *   K. Lee, E. D. Murray, L. Kong, B. I. Lundqvist, and
     *   D. C. Langreth, Phys. Rev. B 82, 081101(R) (2010).
     *
     *
     * If you are calculating the stress with vdW-DF, please also cite:
     *
     *   R. Sabatini, E. Kucukbenli, B. Kolb, T. Thonhauser, and
     *   S. de Gironcoli, J. Phys.: Condens. Matter 24, 424209 (2012).
     *

     Carrying out vdW-DF run using the following parameters:

     Nqs =      20    Nr_points =    1024   r_max =   100.000
     q_mesh =
               0.00001000     0.04494208     0.09755937     0.15916263
               0.23128650     0.31572767     0.41458969     0.53033537
               0.66584808     0.82450364     1.01025438     1.22772762
               1.48234092     1.78043706     2.12944203     2.53805004
               3.01644009     3.57652955     4.23227104     5.00000000

     Gradients computed in reciprocal space

     Adding external electric field

     Computed dipole along edir(3) :
        Dipole                0.0000 Ry au,          0.0000 Debye
        Dipole field          0.0000 Ry au

        Potential amp.       -0.0000 Ry
        Total length         44.8704 bohr

[...]

     Starting wfc are  147 randomized atomic wfcs

     Self-consistent Calculation

     iteration #  1     ecut=    36.75 Ry     beta=0.10
     Davidson diagonalization with overlap
     ethr =  1.00E-02,  avg # of iterations =  3.6

[...]

     Magnetic moment per site:
     atom:    1    charge:    6.0740    magn:    0.7754    constr:    0.0000
     atom:    2    charge:    6.0740    magn:    0.7754    constr:    0.0000
     atom:    3    charge:    6.0740    magn:    0.7754    constr:    0.0000
     atom:    4    charge:    3.3352    magn:    0.5034    constr:    0.0000
     atom:    5    charge:    6.0935    magn:    0.7792    constr:    0.0000
     atom:    6    charge:    6.0935    magn:    0.7792    constr:    0.0000
     atom:    7    charge:    6.0935    magn:    0.7792    constr:    0.0000
     atom:    8    charge:    3.3346    magn:    0.5054    constr:    0.0000
[...]
        k(    3) = (   0.0000000   0.0721924   0.0000000), wk =   0.0555556
        k(    4) = (   0.0000000  -0.1082886   0.0000000), wk =   0.0277778
        k(    5) = (   0.0312602   0.0180481   0.0000000), wk =   0.0555556
        k(    6) = (   0.0312602   0.0541443   0.0000000), wk =   0.0555556
        k(    7) = (   0.0312602   0.0902405   0.0000000), wk =   0.0555556
        k(    8) = (   0.0312602  -0.0902405   0.0000000), wk =   0.0555556
        k(    9) = (   0.0312602  -0.0541443   0.0000000), wk =   0.0555556
        k(   10) = (   0.0312602  -0.0180481   0.0000000), wk =   0.0555556
        k(   11) = (   0.0625205   0.0360962   0.0000000), wk =   0.0555556
        k(   12) = (   0.0625205   0.0721924   0.0000000), wk =   0.0555556
        k(   13) = (   0.0625205   0.1082886   0.0000000), wk =   0.0555556
        k(   14) = (   0.0625205  -0.0721924   0.0000000), wk =   0.0555556
        k(   15) = (   0.0625205  -0.0360962   0.0000000), wk =   0.0555556
        k(   16) = (   0.0625205   0.0000000   0.0000000), wk =   0.0555556
        k(   17) = (  -0.0937807  -0.0541443   0.0000000), wk =   0.0277778
        k(   18) = (  -0.0937807  -0.0180481   0.0000000), wk =   0.0555556
        k(   19) = (  -0.0937807   0.0180481   0.0000000), wk =   0.0555556
        k(   20) = (  -0.0937807  -0.1624329   0.0000000), wk =   0.0277778
        k(   21) = (   0.0000000   0.0000000   0.0000000), wk =   0.0277778
        k(   22) = (   0.0000000   0.0360962   0.0000000), wk =   0.0555556
        k(   23) = (   0.0000000   0.0721924   0.0000000), wk =   0.0555556
        k(   24) = (   0.0000000  -0.1082886   0.0000000), wk =   0.0277778
        k(   25) = (   0.0312602   0.0180481   0.0000000), wk =   0.0555556
        k(   26) = (   0.0312602   0.0541443   0.0000000), wk =   0.0555556
        k(   27) = (   0.0312602   0.0902405   0.0000000), wk =   0.0555556
        k(   28) = (   0.0312602  -0.0902405   0.0000000), wk =   0.0555556
        k(   29) = (   0.0312602  -0.0541443   0.0000000), wk =   0.0555556
        k(   30) = (   0.0312602  -0.0180481   0.0000000), wk =   0.0555556
        k(   31) = (   0.0625205   0.0360962   0.0000000), wk =   0.0555556
        k(   32) = (   0.0625205   0.0721924   0.0000000), wk =   0.0555556
        k(   33) = (   0.0625205   0.1082886   0.0000000), wk =   0.0555556
        k(   34) = (   0.0625205  -0.0721924   0.0000000), wk =   0.0555556
        k(   35) = (   0.0625205  -0.0360962   0.0000000), wk =   0.0555556
        k(   36) = (   0.0625205   0.0000000   0.0000000), wk =   0.0555556
        k(   37) = (  -0.0937807  -0.0541443   0.0000000), wk =   0.0277778
        k(   38) = (  -0.0937807  -0.0180481   0.0000000), wk =   0.0555556
        k(   39) = (  -0.0937807   0.0180481   0.0000000), wk =   0.0555556
        k(   40) = (  -0.0937807  -0.1624329   0.0000000), wk =   0.0277778

     Largest allocated arrays     est. size (Mb)     dimensions
     Largest temporary arrays     est. size (Mb)     dimensions

     Check: negative/imaginary core charge=   -0.000009    0.000000

     Initial potential from superposition of free atoms
     Check: negative starting charge=(component1):   -0.003726
     Check: negative starting charge=(component2):   -0.002731

     starting charge  163.49910, renormalised to  171.00000

[...]

     *
     * You are using vdW-DF for exchange-correlation in this calculation.
     * Please cite the following three references that made this development
     * possible:
     *
     *   M. Dion, H. Rydberg, E. Schroder, D. C. Langreth, and
     *   B. I. Lundqvist, Phys. Rev. Lett. 92, 246401 (2004).
     *
     *   T. Thonhauser, V. R. Cooper, S. Li, A. Puzder, P. Hyldgaard, and
     *   D. C. Langreth, Phys. Rev. B 76, 125112 (2007).
     *
     *   G. Roman-Perez and J. M. Soler, Phys. Rev. Lett. 103, 096102 (2009).
     *
     *
     * If you are using vdW-DF2, please also cite:
     *
     *   K. Lee, E. D. Murray, L. Kong, B. I. Lundqvist, and
     *   D. C. Langreth, Phys. Rev. B 82, 081101(R) (2010).
     *
     *
     * If you are calculating the stress with vdW-DF, please also cite:
     *
     *   R. Sabatini, E. Kucukbenli, B. Kolb, T. Thonhauser, and
     *   S. de Gironcoli, J. Phys.: Condens. Matter 24, 424209 (2012).
     *

     Carrying out vdW-DF run using the following parameters:

     Nqs =      20    Nr_points =    1024   r_max =   100.000
     q_mesh =
               0.00001000     0.04494208     0.09755937     0.15916263
               0.23128650     0.31572767     0.41458969     0.53033537
               0.66584808     0.82450364     1.01025438     1.22772762
               1.48234092     1.78043706     2.12944203     2.53805004
               3.01644009     3.57652955     4.23227104     5.00000000

     Gradients computed in reciprocal space

[...]

     Starting wfc are  147 randomized atomic wfcs

     Self-consistent Calculation

[...]

     total energy              =   -2268.62353710 Ry
     Harris-Foulkes estimate   =   -2268.62353529 Ry
     estimated scf accuracy    <       0.00000153 Ry

[...]

     iteration # 39     ecut=    36.75 Ry     beta=0.10
     Davidson diagonalization with overlap
     ethr =  8.93E-10,  avg # of iterations =  3.0

[...]

     negative rho (up, down):  4.011E-03 1.857E-03

[...]

     Adding external electric field

     Computed dipole along edir(3) :
        Dipole               -0.0019 Ry au,         -0.0049 Debye
        Dipole field         -0.0000 Ry au

        Potential amp.        0.0005 Ry
        Total length         44.8704 bohr

     Magnetic moment per site:
     atom:    1    charge:    5.9999    magn:    1.3002    constr:    0.0000
     atom:    2    charge:    5.9999    magn:    1.3002    constr:    0.0000
     atom:    3    charge:    5.9999    magn:    1.3002    constr:    0.0000
     atom:    4    charge:    3.1252    magn:   -0.1878    constr:    0.0000
     atom:    5    charge:    5.9918    magn:    1.1090    constr:    0.0000
     atom:    6    charge:    5.9919    magn:    1.1090    constr:    0.0000
     atom:    7    charge:    5.9919    magn:    1.1090    constr:    0.0000
     atom:    8    charge:    3.1234    magn:   -0.1537    constr:    0.0000
     atom:    9    charge:    6.0096    magn:    1.3352    constr:    0.0000
     atom:   10    charge:    6.0096    magn:    1.3352    constr:    0.0000
     atom:   11    charge:    6.0096    magn:    1.3352    constr:    0.0000
     atom:   12    charge:    3.1297    magn:   -0.1819    constr:    0.0000

     End of self-consistent calculation

 ------ SPIN UP ------------

[...]

 ------ SPIN DOWN ----------

[...]

          k = 0.0625 0.0000 0.0000 ( 15228 PWs)   bands (ev):

[...]

          k =-0.0938-0.1624 0.0000 ( 15226 PWs)   bands (ev):

   -76.2170 -76.2056 -76.1942 -76.0321 -76.0210 -76.0100 -75.9989 -75.9877
   -75.9767 -56.1899 -56.0642 -56.0403 -45.1391 -45.0661 -45.0327 -45.0284
   -44.9999 -44.9916 -44.9874 -44.9750 -44.9322 -44.9104 -44.8996 -44.8743
   -44.8637 -44.8620 -44.8387 -44.8345 -44.8263 -44.8165 -44.7858 -44.7452
   -44.7372 -44.7365 -44.7150 -44.7127 -44.7045 -44.7012 -44.6845 -32.4879
   -32.4170 -32.4101 -32.3504 -32.3134 -32.3059 -32.2896 -32.2824 -32.2751
    -3.7362  -3.7044  -2.3361  -2.2133  -1.4449  -1.3881  -1.1194  -1.0361
    -0.8021  -0.6416  -0.3530  -0.2140  -0.1218  -0.0221   0.0920   0.1359
     0.2830   0.3153   0.4737   0.5563   0.5782   0.6049   0.6893   0.7836
     0.8931   1.0298   1.0303   1.0886   1.1937   1.2275   1.3077   1.3690
     1.6850   1.7007   1.7170   1.8259   1.8486   1.8968   2.1444   2.3026
     2.4282   2.4586   2.6417   2.7031   2.7875   2.8416   2.8921   2.9781
     3.0295   3.0573   3.1011   3.1051   3.1520   3.2527   3.3003   3.4419
     3.5108   3.6307   3.7551   3.8123   3.9491   4.1402   4.1667   4.3087
     4.3926   4.4955   5.1862

     the Fermi energy is     1.0413 ev

!    total energy              =   -2268.62354346 Ry
     Harris-Foulkes estimate   =   -2268.62353728 Ry
     estimated scf accuracy    <       0.00000097 Ry

     The total energy is the sum of the following terms:

     one-electron contribution =  -18569.89385580 Ry
     hartree contribution      =    9279.34886525 Ry
     xc contribution           =    -305.15180951 Ry
     ewald contribution        =    7327.16107666 Ry
     electric field correction =       0.00000001 Ry
     smearing contrib. (-TS)   =      -0.08782008 Ry

     total magnetization       =    26.24 Bohr mag/cell
     absolute magnetization    =    31.96 Bohr mag/cell

     convergence has been achieved in  39 iterations

 BEEF-vdW xc energy contributions
           1 :   -265.693138692604
           2 :    239.558506946399
           3 :   -196.188142281389
           4 :    148.689716805902
           5 :   -108.253853362786
           6 :    80.1378003560863
           7 :   -63.3895545507127
           8 :    53.4429025087013
           9 :   -45.4906286184631
          10 :    36.7788290300054
          11 :   -27.0773058672743
          12 :    17.6851778940567
          13 :   -10.0032491358370
          14 :    4.62002082245209
          15 :   -1.24736430142593
          16 :  -0.825647748122719
          17 :    2.26706952723629
          18 :   -3.49003334722340
          19 :    4.63469488077760
          20 :   -5.61582253722224
          21 :    6.18882674964124
          22 :   -6.07649319362815
          23 :    5.15512144202006
          24 :   -3.61648497582439
          25 :    1.96097341552564
          26 :  -0.763830168320794
          27 :   0.324656114799552
          28 :  -0.456355842973437
          29 :   0.600738658971466
          30 :  -0.225138263430608
          31 :   -24.7655295354175
          32 :   -17.5565806735416

     Forces acting on atoms (Ry/au):

     negative rho (up, down):  4.011E-03 1.857E-03
     atom    1 type  1   force =    -0.00000155   -0.00039460   -0.00719529
     atom    2 type  1   force =    -0.00034458    0.00019821   -0.00719531
     atom    3 type  1   force =     0.00034384    0.00019973   -0.00719442
     atom    4 type  2   force =     0.00000123    0.00000024    0.01411376
     atom    5 type  1   force =     0.00000077   -0.00794482   -0.00177462
     atom    6 type  1   force =    -0.00688611    0.00396993   -0.00177442
     atom    7 type  1   force =     0.00688575    0.00396916   -0.00177443
     atom    8 type  2   force =     0.00000124    0.00000675    0.01183312
     atom    9 type  1   force =     0.00000257    0.00007162    0.00057852
     atom   10 type  1   force =     0.00006588   -0.00003870    0.00055843
     atom   11 type  1   force =    -0.00006577   -0.00004015    0.00058804
     atom   12 type  2   force =    -0.00000327    0.00000262   -0.00076338

     Total force =     0.026372     Total SCF correction =     0.004434
     SCF correction compared to forces is large: reduce conv_thr to get better values

     entering subroutine stress ...

     negative rho (up, down):  4.011E-03 1.857E-03
          total   stress  (Ry/bohr**3)                   (kbar)     P=    7.35
   0.00007920   0.00000000  -0.00000000         11.65      0.00     -0.00
   0.00000000   0.00007920   0.00000000          0.00     11.65      0.00
  -0.00000000   0.00000000  -0.00000856         -0.00      0.00     -1.26

 !ASE

     Writing output data file calc.save

     General routines

     Parallel routines

   This run was terminated on:   2:44:29  27Dec2018

   JOB DONE.
Job  /afs/slac/g/suncat/bin/suncat-tsmpirun -x LD_LIBRARY_PATH -wdir /scratch/qe110095_S00nP pw.x -in pw.inp

TID   HOST_NAME   COMMAND_LINE            STATUS            TERMINATION_TIME
00000 suncat0024 pw.x -in pw.inp   Done                     12/27/2018 02:44:29
00001 suncat0024 pw.x -in pw.inp   Done                     12/27/2018 02:44:29
00002 suncat0024 pw.x -in pw.inp   Done                     12/27/2018 02:44:29
00003 suncat0024 pw.x -in pw.inp   Done                     12/27/2018 02:44:29
00004 suncat0024 pw.x -in pw.inp   Done                     12/27/2018 02:44:29
00005 suncat0024 pw.x -in pw.inp   Done                     12/27/2018 02:44:29
00006 suncat0024 pw.x -in pw.inp   Done                     12/27/2018 02:44:29
00007 suncat0024 pw.x -in pw.inp   Done                     12/27/2018 02:44:29
00008 suncat0023 pw.x -in pw.inp   Done                     12/27/2018 02:44:29
00009 suncat0023 pw.x -in pw.inp   Done                     12/27/2018 02:44:29
00010 suncat0023 pw.x -in pw.inp   Done                     12/27/2018 02:44:29
00011 suncat0023 pw.x -in pw.inp   Done                     12/27/2018 02:44:29
00012 suncat0023 pw.x -in pw.inp   Done                     12/27/2018 02:44:29
00013 suncat0023 pw.x -in pw.inp   Done                     12/27/2018 02:44:29
00014 suncat0023 pw.x -in pw.inp   Done                     12/27/2018 02:44:29
00015 suncat0023 pw.x -in pw.inp   Done                     12/27/2018 02:44:29
00016 suncat0022 pw.x -in pw.inp   Done                     12/27/2018 02:44:29
00017 suncat0022 pw.x -in pw.inp   Done                     12/27/2018 02:44:29
00018 suncat0022 pw.x -in pw.inp   Done                     12/27/2018 02:44:29
00019 suncat0022 pw.x -in pw.inp   Done                     12/27/2018 02:44:29
00020 suncat0022 pw.x -in pw.inp   Done                     12/27/2018 02:44:29
00021 suncat0022 pw.x -in pw.inp   Done                     12/27/2018 02:44:29
00022 suncat0022 pw.x -in pw.inp   Done                     12/27/2018 02:44:29
00023 suncat0022 pw.x -in pw.inp   Done                     12/27/2018 02:44:29
00024 suncat0018 pw.x -in pw.inp   Done                     12/27/2018 02:44:29
00025 suncat0018 pw.x -in pw.inp   Done                     12/27/2018 02:44:29
00026 suncat0018 pw.x -in pw.inp   Done                     12/27/2018 02:44:29
00027 suncat0018 pw.x -in pw.inp   Done                     12/27/2018 02:44:29
00028 suncat0018 pw.x -in pw.inp   Done                     12/27/2018 02:44:29
00029 suncat0018 pw.x -in pw.inp   Done                     12/27/2018 02:44:29
00030 suncat0018 pw.x -in pw.inp   Done                     12/27/2018 02:44:29
00031 suncat0018 pw.x -in pw.inp   Done                     12/27/2018 02:44:29
00032 suncat0017 pw.x -in pw.inp   Done                     12/27/2018 02:44:29
00033 suncat0017 pw.x -in pw.inp   Done                     12/27/2018 02:44:29
00034 suncat0017 pw.x -in pw.inp   Done                     12/27/2018 02:44:29
00035 suncat0017 pw.x -in pw.inp   Done                     12/27/2018 02:44:29
00036 suncat0017 pw.x -in pw.inp   Done                     12/27/2018 02:44:29
00037 suncat0017 pw.x -in pw.inp   Done                     12/27/2018 02:44:29
00038 suncat0017 pw.x -in pw.inp   Done                     12/27/2018 02:44:29
00039 suncat0017 pw.x -in pw.inp   Done                     12/27/2018 02:44:29
00040 suncat0016 pw.x -in pw.inp   Done                     12/27/2018 02:44:29
00041 suncat0016 pw.x -in pw.inp   Done                     12/27/2018 02:44:29
00042 suncat0016 pw.x -in pw.inp   Done                     12/27/2018 02:44:29
00043 suncat0016 pw.x -in pw.inp   Done                     12/27/2018 02:44:29
00044 suncat0016 pw.x -in pw.inp   Done                     12/27/2018 02:44:29
00045 suncat0016 pw.x -in pw.inp   Done                     12/27/2018 02:44:29
00046 suncat0016 pw.x -in pw.inp   Done                     12/27/2018 02:44:29
00047 suncat0016 pw.x -in pw.inp   Done                     12/27/2018 02:44:29
00048 suncat0014 pw.x -in pw.inp   Done                     12/27/2018 02:44:29
00049 suncat0014 pw.x -in pw.inp   Done                     12/27/2018 02:44:29
00050 suncat0014 pw.x -in pw.inp   Done                     12/27/2018 02:44:29
00051 suncat0014 pw.x -in pw.inp   Done                     12/27/2018 02:44:29
00052 suncat0014 pw.x -in pw.inp   Done                     12/27/2018 02:44:29
00053 suncat0014 pw.x -in pw.inp   Done                     12/27/2018 02:44:29
00054 suncat0014 pw.x -in pw.inp   Done                     12/27/2018 02:44:29
00055 suncat0014 pw.x -in pw.inp   Done                     12/27/2018 02:44:29
00056 suncat0198 pw.x -in pw.inp   Done                     12/27/2018 02:44:29
00057 suncat0198 pw.x -in pw.inp   Done                     12/27/2018 02:44:29
00058 suncat0198 pw.x -in pw.inp   Done                     12/27/2018 02:44:29
00059 suncat0198 pw.x -in pw.inp   Done                     12/27/2018 02:44:29
00060 suncat0198 pw.x -in pw.inp   Done                     12/27/2018 02:44:29
00061 suncat0198 pw.x -in pw.inp   Done                     12/27/2018 02:44:29
00062 suncat0198 pw.x -in pw.inp   Done                     12/27/2018 02:44:29
00063 suncat0198 pw.x -in pw.inp   Done                     12/27/2018 02:44:29