     Program PWSCF v.5.1rc2 (svn rev. 11289) starts on 31Dec2018 at  8:31: 7

     Current dimensions of program PWSCF are:
     Max number of different atomic species (ntypx) = 10
     Max number of k-points (npk) =  40000
     Max angular momentum in pseudopotentials (lmaxx) =  3
     Presently stress not available with electric field

     IMPORTANT: XC functional enforced from input :
     Exchange-correlation      = BEEF-VDW ( 1  4 27 13 2)
     Any further DFT definition will be discarded
     Please, verify this is what you really want

     Subspace diagonalization in iterative solution of the eigenvalue problem:
     a serial algorithm will be used

     bravais-lattice index     =            0
     lattice parameter (alat)  =       1.8897  a.u.
     unit-cell volume          =    7480.1707 (a.u.)^3
     number of atoms/cell      =           12
     number of atomic types    =            2
     number of electrons       =       162.00
     number of Kohn-Sham states=          111
     kinetic-energy cutoff     =      36.7493  Ry
     charge density cutoff     =     367.4932  Ry
     convergence threshold     =      1.0E-06
     mixing beta               =       0.1000
     number of iterations used =           10  plain     mixing
     Exchange-correlation      = BEEF-VDW ( 1  4 27 13 2)
     nstep                     =           50

     celldm(1)=   1.889726  celldm(2)=   0.000000  celldm(3)=   0.000000
     celldm(4)=   0.000000  celldm(5)=   0.000000  celldm(6)=   0.000000

     crystal axes: (cart. coord. in units of alat)
               a(1) = (   7.049435   0.000000   0.000000 )
               a(2) = (  -3.524717   6.104989   0.000000 )
               a(3) = (   0.000000   0.000000  25.755839 )

     reciprocal axes: (cart. coord. in units 2 pi/alat)
               b(1) = (  0.141855  0.081900  0.000000 )
               b(2) = (  0.000000  0.163800  0.000000 )
               b(3) = (  0.000000  0.000000  0.038826 )

     PseudoPot. # 1 for Pb read from file:
     /afs/slac.stanford.edu/u/if/mamunm/psp/gbrv1.5pbe/Pb.UPF
     MD5 check sum: 3d1c1779aa92214d1e8f3a7db79003e2
     Pseudo is Ultrasoft + core correction, Zval = 14.0
     Generated by new atomic code, or converted to UPF format
     Using radial grid of  899 points,  6 beta functions with:
                l(1) =   0
                l(2) =   0
                l(3) =   1
                l(4) =   1
                l(5) =   2
                l(6) =   2
     Q(r) pseudized with  6 coefficients,  rinner =    1.000   1.000   1.000
                                                       1.000   1.000

     PseudoPot. # 2 for Cd read from file:
     /afs/slac.stanford.edu/u/if/mamunm/psp/gbrv1.5pbe/Cd.UPF
     MD5 check sum: 17164a7926edb8e0dc231208abae86a6
     Pseudo is Ultrasoft + core correction, Zval = 12.0
     Generated by new atomic code, or converted to UPF format
     Using radial grid of  889 points,  6 beta functions with:
                l(1) =   0
                l(2) =   0
                l(3) =   1
                l(4) =   1
                l(5) =   2
                l(6) =   2
     Q(r) pseudized with  6 coefficients,  rinner =    1.000   1.000   1.000
                                                       1.000   1.000

     vdW kernel table read from file vdW_kernel_table
     MD5 check sum: 095c7af220d748ca6e76c0b4c6cfb241

     atomic species   valence    mass     pseudopotential
        Pb1           14.00   207.20000     Pb( 1.00)
        Cd1           12.00   112.41400     Cd( 1.00)

     No symmetry found

   Cartesian axes

     site n.     atom                  positions (alat units)
         1           Pb1 tau(   1) = (   0.0000000   0.0000000  10.0000000  )
         2           Pb1 tau(   2) = (  -1.7623587   3.0524947  10.0000000  )
         3           Pb1 tau(   3) = (   1.7623587   3.0524947  10.0000000  )
         4           Cd1 tau(   4) = (   3.5247173   0.0000000  10.0000000  )
         5           Pb1 tau(   5) = (   3.5247173   2.0349965  12.8779196  )
         6           Pb1 tau(   6) = (   1.7623587   5.0874912  12.8779196  )
         7           Pb1 tau(   7) = (  -1.7623587   5.0874912  12.8779196  )
         8           Cd1 tau(   8) = (   0.0000000   2.0349965  12.8779196  )
         9           Pb1 tau(   9) = (  -0.0000000   4.0699930  15.7558392  )
        10           Pb1 tau(  10) = (   1.7623587   1.0174982  15.7558392  )
        11           Pb1 tau(  11) = (   5.2870760   1.0174982  15.7558392  )
        12           Cd1 tau(  12) = (   3.5247173   4.0699930  15.7558392  )

     number of k points=    20  Fermi-Dirac smearing, width (Ry)=  0.0110
                       cart. coord. in units 2pi/alat
        k(    1) = (   0.0000000   0.0000000   0.0000000), wk =   0.0555556
        k(    2) = (   0.0000000   0.0273001   0.0000000), wk =   0.1111111
        k(    3) = (   0.0000000   0.0546001   0.0000000), wk =   0.1111111
        k(    4) = (   0.0000000  -0.0819002   0.0000000), wk =   0.0555556
        k(    5) = (   0.0236426   0.0136500   0.0000000), wk =   0.1111111
        k(    6) = (   0.0236426   0.0409501   0.0000000), wk =   0.1111111
        k(    7) = (   0.0236426   0.0682502   0.0000000), wk =   0.1111111
        k(    8) = (   0.0236426  -0.0682502   0.0000000), wk =   0.1111111
        k(    9) = (   0.0236426  -0.0409501   0.0000000), wk =   0.1111111
        k(   10) = (   0.0236426  -0.0136500   0.0000000), wk =   0.1111111
        k(   11) = (   0.0472851   0.0273001   0.0000000), wk =   0.1111111
        k(   12) = (   0.0472851   0.0546001   0.0000000), wk =   0.1111111
        k(   13) = (   0.0472851   0.0819002   0.0000000), wk =   0.1111111
        k(   14) = (   0.0472851  -0.0546001   0.0000000), wk =   0.1111111
        k(   15) = (   0.0472851  -0.0273001   0.0000000), wk =   0.1111111
        k(   16) = (   0.0472851   0.0000000   0.0000000), wk =   0.1111111
        k(   17) = (  -0.0709277  -0.0409501   0.0000000), wk =   0.0555556
        k(   18) = (  -0.0709277  -0.0136500   0.0000000), wk =   0.1111111
        k(   19) = (  -0.0709277   0.0136500   0.0000000), wk =   0.1111111
        k(   20) = (  -0.0709277  -0.1228503   0.0000000), wk =   0.0555556

     Largest allocated arrays     est. size (Mb)     dimensions
     Largest temporary arrays     est. size (Mb)     dimensions

     Check: negative/imaginary core charge=   -0.000001    0.000000

     Initial potential from superposition of free atoms
     Check: negative starting charge=   -0.212830

     starting charge  160.47871, renormalised to  162.00000

     negative rho (up, down):  2.148E-01 0.000E+00

     *
     * You are using vdW-DF for exchange-correlation in this calculation.
     * Please cite the following three references that made this development
     * possible:
     *
     *   M. Dion, H. Rydberg, E. Schroder, D. C. Langreth, and
     *   B. I. Lundqvist, Phys. Rev. Lett. 92, 246401 (2004).
     *
     *   T. Thonhauser, V. R. Cooper, S. Li, A. Puzder, P. Hyldgaard, and
     *   D. C. Langreth, Phys. Rev. B 76, 125112 (2007).
     *
     *   G. Roman-Perez and J. M. Soler, Phys. Rev. Lett. 103, 096102 (2009).
     *
     *
     * If you are using vdW-DF2, please also cite:
     *
     *   K. Lee, E. D. Murray, L. Kong, B. I. Lundqvist, and
     *   D. C. Langreth, Phys. Rev. B 82, 081101(R) (2010).
     *
     *
     * If you are calculating the stress with vdW-DF, please also cite:
     *
     *   R. Sabatini, E. Kucukbenli, B. Kolb, T. Thonhauser, and
     *   S. de Gironcoli, J. Phys.: Condens. Matter 24, 424209 (2012).
     *

     Carrying out vdW-DF run using the following parameters:

     Nqs =      20    Nr_points =    1024   r_max =   100.000
     q_mesh =
               0.00001000     0.04494208     0.09755937     0.15916263
               0.23128650     0.31572767     0.41458969     0.53033537
               0.66584808     0.82450364     1.01025438     1.22772762
               1.48234092     1.78043706     2.12944203     2.53805004
               3.01644009     3.57652955     4.23227104     5.00000000

     Gradients computed in reciprocal space

     Adding external electric field

     Computed dipole along edir(3) :
        Dipole               -0.0000 Ry au,         -0.0000 Debye
        Dipole field         -0.0000 Ry au

        Potential amp.        0.0000 Ry
        Total length         47.4547 bohr

     Starting wfc are  108 randomized atomic wfcs +    3 random wfc

     Self-consistent Calculation

     iteration #  1     ecut=    36.75 Ry     beta=0.10
     Davidson diagonalization with overlap
     ethr =  1.00E-02,  avg # of iterations =  7.5

     Threshold (ethr) on eigenvalues was too large:
     Diagonalizing with lowered threshold

     Davidson diagonalization with overlap
     ethr =  2.79E-04,  avg # of iterations =  7.3

[...]

     total energy              =   -1842.44425059 Ry
     Harris-Foulkes estimate   =   -1842.51983051 Ry
     estimated scf accuracy    <       0.45457216 Ry

[...]

     End of self-consistent calculation

          k = 0.0000 0.0000 0.0000 ( 28059 PWs)   bands (ev):

   -16.8368 -16.8298 -16.8153 -16.8153 -16.8032 -16.8032 -16.7808 -16.7580
   -16.7527 -16.7526 -16.7489 -16.7336 -16.7277 -16.7277 -16.7118 -16.7056
   -16.7055 -16.6785 -16.6780 -16.6742 -16.6742 -16.6701 -16.6701 -16.6555
   -16.6554 -16.6501 -16.6500 -16.6147 -16.6146 -16.5987 -16.5987 -16.5825
   -16.5523 -16.5412 -16.5373 -16.5269 -16.5267 -16.5067 -16.5067 -16.4765
   -16.4760 -16.4759 -16.4276 -16.4274 -16.3962  -9.8727  -9.0553  -8.3980
    -8.2651  -8.2651  -8.1422  -8.1422  -7.9813  -7.9708  -7.9708  -7.9459
    -7.9458  -7.8838  -7.8838  -7.8743  -7.8743  -7.8352  -7.4375  -6.9337
    -6.9337  -6.6930  -6.6930  -6.1460  -6.1460  -2.9577  -2.8034  -2.3530
    -1.9970  -1.9970  -1.7559  -1.4829  -1.1754  -1.1754  -0.9006  -0.9006
    -0.5338  -0.2671   0.9270   1.9715   1.9715   2.1427   2.1428   2.8730
     3.4080   3.4459   3.5447   4.0420   4.1140   4.1140   4.3371   4.3371
     4.4677   4.5961   4.7950   5.1829   5.1829   5.4759   5.7839   6.1039
     6.1040   6.2111   6.2362   6.2918   6.2919   6.4000   6.9216

[...]

          k =-0.0709-0.0410 0.0000 ( 28194 PWs)   bands (ev):

[...]

     the Fermi energy is     0.6941 ev

!    total energy              =   -1842.39985235 Ry
     Harris-Foulkes estimate   =   -1842.39954639 Ry
     estimated scf accuracy    <       0.00000084 Ry

     The total energy is the sum of the following terms:

     one-electron contribution =   -8406.84165389 Ry
     hartree contribution      =    4277.12117175 Ry
     xc contribution           =    -709.77762464 Ry
     ewald contribution        =    2997.13484840 Ry
     electric field correction =       0.00000000 Ry
     smearing contrib. (-TS)   =      -0.03659397 Ry

     convergence has been achieved in  12 iterations

 BEEF-vdW xc energy contributions
           1 :   -630.711384082173
           2 :    584.039433766739
           3 :   -502.737128859355
           4 :    405.910985212287
           5 :   -312.578207994692
           6 :    235.623395375031
           7 :   -179.135650798909
           8 :    139.648235354027
[...]
                l(1) =   0
                l(2) =   0
                l(3) =   1
                l(4) =   1
                l(5) =   2
                l(6) =   2
     Q(r) pseudized with  6 coefficients,  rinner =    1.000   1.000   1.000
                                                       1.000   1.000

     PseudoPot. # 2 for Cd read from file:
     /afs/slac.stanford.edu/u/if/mamunm/psp/gbrv1.5pbe/Cd.UPF
     MD5 check sum: 17164a7926edb8e0dc231208abae86a6
     Pseudo is Ultrasoft + core correction, Zval = 12.0
     Generated by new atomic code, or converted to UPF format
     Using radial grid of  889 points,  6 beta functions with:
                l(1) =   0
                l(2) =   0
                l(3) =   1
                l(4) =   1
                l(5) =   2
                l(6) =   2
     Q(r) pseudized with  6 coefficients,  rinner =    1.000   1.000   1.000
                                                       1.000   1.000

     vdW kernel table read from file vdW_kernel_table
     MD5 check sum: 095c7af220d748ca6e76c0b4c6cfb241

     atomic species   valence    mass     pseudopotential
        Pb1           14.00   207.20000     Pb( 1.00)
        Cd1           12.00   112.41400     Cd( 1.00)

     No symmetry found

   Cartesian axes

     site n.     atom                  positions (alat units)
         1           Pb1 tau(   1) = (   0.0000000   0.0000000  10.0000000  )
         2           Pb1 tau(   2) = (  -1.7623587   3.0524947  10.0000000  )
         3           Pb1 tau(   3) = (   1.7623587   3.0524947  10.0000000  )
         4           Cd1 tau(   4) = (   3.5247173   0.0000000  10.0000000  )
         5           Pb1 tau(   5) = (   3.5247173   2.0349965  12.8779196  )
         6           Pb1 tau(   6) = (   1.7623587   5.0874912  12.8779196  )
         7           Pb1 tau(   7) = (  -1.7623587   5.0874912  12.8779196  )
         8           Cd1 tau(   8) = (   0.0000000   2.0349965  12.8779196  )
         9           Pb1 tau(   9) = (   0.0000153   4.0296889  15.6590111  )
        10           Pb1 tau(  10) = (   1.7276777   1.0370269  15.6608806  )
        11           Pb1 tau(  11) = (   5.3217310   1.0370060  15.6608244  )
        12           Cd1 tau(  12) = (   3.5247047   4.0700883  15.7751492  )

     number of k points=    20  Fermi-Dirac smearing, width (Ry)=  0.0110
                       cart. coord. in units 2pi/alat
        k(    1) = (   0.0000000   0.0000000   0.0000000), wk =   0.0555556
        k(    2) = (   0.0000000   0.0273001   0.0000000), wk =   0.1111111
        k(    3) = (   0.0000000   0.0546001   0.0000000), wk =   0.1111111
        k(    4) = (   0.0000000  -0.0819002   0.0000000), wk =   0.0555556
        k(    5) = (   0.0236426   0.0136500   0.0000000), wk =   0.1111111
        k(    6) = (   0.0236426   0.0409501   0.0000000), wk =   0.1111111
        k(    7) = (   0.0236426   0.0682502   0.0000000), wk =   0.1111111
        k(    8) = (   0.0236426  -0.0682502   0.0000000), wk =   0.1111111
        k(    9) = (   0.0236426  -0.0409501   0.0000000), wk =   0.1111111
        k(   10) = (   0.0236426  -0.0136500   0.0000000), wk =   0.1111111
        k(   11) = (   0.0472851   0.0273001   0.0000000), wk =   0.1111111
        k(   12) = (   0.0472851   0.0546001   0.0000000), wk =   0.1111111
        k(   13) = (   0.0472851   0.0819002   0.0000000), wk =   0.1111111
        k(   14) = (   0.0472851  -0.0546001   0.0000000), wk =   0.1111111
        k(   15) = (   0.0472851  -0.0273001   0.0000000), wk =   0.1111111
        k(   16) = (   0.0472851   0.0000000   0.0000000), wk =   0.1111111
        k(   17) = (  -0.0709277  -0.0409501   0.0000000), wk =   0.0555556
        k(   18) = (  -0.0709277  -0.0136500   0.0000000), wk =   0.1111111
        k(   19) = (  -0.0709277   0.0136500   0.0000000), wk =   0.1111111
        k(   20) = (  -0.0709277  -0.1228503   0.0000000), wk =   0.0555556

     Largest allocated arrays     est. size (Mb)     dimensions
     Largest temporary arrays     est. size (Mb)     dimensions

     Check: negative/imaginary core charge=   -0.000001    0.000000

     Initial potential from superposition of free atoms
     Check: negative starting charge=   -0.214014

     starting charge  160.47871, renormalised to  162.00000

[...]

     *
     * You are using vdW-DF for exchange-correlation in this calculation.
     * Please cite the following three references that made this development
     * possible:
     *
     *   M. Dion, H. Rydberg, E. Schroder, D. C. Langreth, and
     *   B. I. Lundqvist, Phys. Rev. Lett. 92, 246401 (2004).
     *
     *   T. Thonhauser, V. R. Cooper, S. Li, A. Puzder, P. Hyldgaard, and
     *   D. C. Langreth, Phys. Rev. B 76, 125112 (2007).
     *
     *   G. Roman-Perez and J. M. Soler, Phys. Rev. Lett. 103, 096102 (2009).
     *
     *
     * If you are using vdW-DF2, please also cite:
     *
     *   K. Lee, E. D. Murray, L. Kong, B. I. Lundqvist, and
     *   D. C. Langreth, Phys. Rev. B 82, 081101(R) (2010).
     *
     *
     * If you are calculating the stress with vdW-DF, please also cite:
     *
     *   R. Sabatini, E. Kucukbenli, B. Kolb, T. Thonhauser, and
     *   S. de Gironcoli, J. Phys.: Condens. Matter 24, 424209 (2012).
     *

     Carrying out vdW-DF run using the following parameters:

     Nqs =      20    Nr_points =    1024   r_max =   100.000
     q_mesh =
               0.00001000     0.04494208     0.09755937     0.15916263
               0.23128650     0.31572767     0.41458969     0.53033537
               0.66584808     0.82450364     1.01025438     1.22772762
               1.48234092     1.78043706     2.12944203     2.53805004
               3.01644009     3.57652955     4.23227104     5.00000000

     Gradients computed in reciprocal space

[...]

     Starting wfc are  108 randomized atomic wfcs +    3 random wfc

     Self-consistent Calculation

[...]

     Threshold (ethr) on eigenvalues was too large:
     Diagonalizing with lowered threshold

     Davidson diagonalization with overlap
     ethr =  2.80E-04,  avg # of iterations =  7.5

[...]

     total energy              =   -1842.40718141 Ry
     Harris-Foulkes estimate   =   -1842.40709287 Ry
     estimated scf accuracy    <       0.00000115 Ry

     iteration # 13     ecut=    36.75 Ry     beta=0.10
     Davidson diagonalization with overlap
     ethr =  7.09E-10,  avg # of iterations =  3.9

[...]

     negative rho (up, down):  2.251E-01 0.000E+00

     Adding external electric field

     Computed dipole along edir(3) :
        Dipole               -0.0107 Ry au,         -0.0271 Debye
        Dipole field         -0.0000 Ry au

        Potential amp.        0.0017 Ry
        Total length         47.4547 bohr

     End of self-consistent calculation

[...]

          k = 0.0473 0.0000 0.0000 ( 28137 PWs)   bands (ev):

[...]

          k =-0.0709-0.1229 0.0000 ( 28194 PWs)   bands (ev):

   -16.8247 -16.8076 -16.7713 -16.7613 -16.7481 -16.7444 -16.7393 -16.7387
   -16.7357 -16.7326 -16.7286 -16.7265 -16.7174 -16.7133 -16.7109 -16.7103
   -16.7088 -16.7048 -16.7017 -16.6980 -16.6963 -16.6949 -16.6809 -16.6773
   -16.6761 -16.6608 -16.6543 -16.6480 -16.6329 -16.6008 -16.5906 -16.5812
   -16.5609 -16.5593 -16.5580 -16.5342 -16.5337 -16.5274 -16.5195 -16.5171
   -16.5096 -16.4961 -16.4932 -16.4751 -16.4248  -9.1661  -9.0162  -8.4196
    -8.3148  -8.2414  -8.2162  -8.1536  -8.1321  -8.0188  -7.9667  -7.9455
    -7.8983  -7.8921  -7.8833  -7.8803  -7.8692  -7.8626  -7.8445  -7.5503
    -7.4558  -7.0715  -6.9187  -6.8068  -6.0993  -3.4449  -2.8501  -2.2091
    -0.8528  -0.6632  -0.5058  -0.4156  -0.4108  -0.3849   0.2391   0.3426
     0.5303   0.9003   1.3454   1.3895   1.6128   1.6805   1.9200   2.0471
     2.4639   2.4843   2.6736   3.0816   3.3355   3.5854   3.6937   3.8979
     4.0963   4.2027   4.4965   4.6575   4.8122   4.8569   4.9369   5.0179
     5.1290   5.5094   5.5831   5.7779   5.7864   5.8055   6.0081

     the Fermi energy is     0.6836 ev

!    total energy              =   -1842.40737815 Ry
     Harris-Foulkes estimate   =   -1842.40718161 Ry
     estimated scf accuracy    <       0.00000050 Ry

     The total energy is the sum of the following terms:

     one-electron contribution =   -8490.14255423 Ry
     hartree contribution      =    4318.76420543 Ry
     xc contribution           =    -709.83122665 Ry
     ewald contribution        =    3038.83801241 Ry
     electric field correction =       0.00000019 Ry
     smearing contrib. (-TS)   =      -0.03581530 Ry

     convergence has been achieved in  13 iterations

 BEEF-vdW xc energy contributions
           1 :   -630.929625707132
           2 :    584.287279915659
           3 :   -503.018519558896
           4 :    406.195266718334
           5 :   -312.817236651613
           6 :    235.784617201316
           7 :   -179.227306906906
           8 :    139.718674971224
           9 :   -110.172772153270
          10 :    84.2097888289381
          11 :   -58.9356496189778
          12 :    35.2016955914729
          13 :   -15.8270249413827
          14 :    3.18146404564573
          15 :    2.44428376011342
          16 :   -2.97903909064621
          17 :    1.44870179350085
          18 :  -0.436894549315411
          19 :    1.02138344248749
          20 :   -2.66244342531115
          21 :    3.93944969519214
          22 :   -3.61502192941782
          23 :    1.41741475416688
          24 :    1.82916019978290
          25 :   -4.70911413009605
          26 :    6.01307013494727
          27 :   -5.37756456364616
          28 :    3.43699797937779
          29 :   -1.43439792394952
          30 :   0.522298657908891
          31 :   -51.4429822725633
          32 :   -37.5981795849584

     Forces acting on atoms (Ry/au):

     negative rho (up, down):  2.251E-01 0.000E+00
     atom    1 type  1   force =     0.00000162    0.00257792    0.00599018
     atom    2 type  1   force =     0.00227861   -0.00129841    0.00592504
     atom    3 type  1   force =    -0.00227812   -0.00129930    0.00592195
     atom    4 type  2   force =    -0.00000072   -0.00001069   -0.00137776
     atom    5 type  1   force =     0.00000093    0.00065741   -0.00348966
     atom    6 type  1   force =     0.00058564   -0.00032665   -0.00352080
     atom    7 type  1   force =    -0.00058545   -0.00032717   -0.00351906
     atom    8 type  2   force =    -0.00000076   -0.00002522   -0.00392994
     atom    9 type  1   force =    -0.00000414    0.00061284   -0.00088572
     atom   10 type  1   force =     0.00054381   -0.00027045   -0.00105700
     atom   11 type  1   force =    -0.00054382   -0.00026667   -0.00106008
     atom   12 type  2   force =     0.00000239   -0.00002361    0.00100286

     Total force =     0.013683     Total SCF correction =     0.004172
     SCF correction compared to forces is large: reduce conv_thr to get better values

     entering subroutine stress ...

     negative rho (up, down):  2.251E-01 0.000E+00
          total   stress  (Ry/bohr**3)                   (kbar)     P=   -3.48
  -0.00002781  -0.00000000   0.00000000         -4.09     -0.00      0.00
  -0.00000000  -0.00002781  -0.00000001         -0.00     -4.09     -0.00
   0.00000000  -0.00000001  -0.00001537          0.00     -0.00     -2.26

 !ASE

     Writing output data file calc.save

     General routines

     Parallel routines

   This run was terminated on:  10: 5:27  31Dec2018

   JOB DONE.
Job  /afs/slac/g/suncat/bin/suncat-tsmpirun -x LD_LIBRARY_PATH -wdir /scratch/qe648716_Vl4mE pw.x -in pw.inp

TID   HOST_NAME   COMMAND_LINE            STATUS            TERMINATION_TIME
00000 suncat0251 pw.x -in pw.inp   Done                     12/31/2018 10:05:27
00001 suncat0251 pw.x -in pw.inp   Done                     12/31/2018 10:05:27
00002 suncat0251 pw.x -in pw.inp   Done                     12/31/2018 10:05:27
00003 suncat0251 pw.x -in pw.inp   Done                     12/31/2018 10:05:27
00004 suncat0251 pw.x -in pw.inp   Done                     12/31/2018 10:05:27
00005 suncat0251 pw.x -in pw.inp   Done                     12/31/2018 10:05:27
00006 suncat0251 pw.x -in pw.inp   Done                     12/31/2018 10:05:27
00007 suncat0251 pw.x -in pw.inp   Done                     12/31/2018 10:05:27
00008 suncat0244 pw.x -in pw.inp   Done                     12/31/2018 10:05:27
00009 suncat0244 pw.x -in pw.inp   Done                     12/31/2018 10:05:27
00010 suncat0244 pw.x -in pw.inp   Done                     12/31/2018 10:05:27
00011 suncat0244 pw.x -in pw.inp   Done                     12/31/2018 10:05:27
00012 suncat0244 pw.x -in pw.inp   Done                     12/31/2018 10:05:27
00013 suncat0244 pw.x -in pw.inp   Done                     12/31/2018 10:05:27
00014 suncat0244 pw.x -in pw.inp   Done                     12/31/2018 10:05:27
00015 suncat0244 pw.x -in pw.inp   Done                     12/31/2018 10:05:27
00016 suncat0243 pw.x -in pw.inp   Done                     12/31/2018 10:05:27
00017 suncat0243 pw.x -in pw.inp   Done                     12/31/2018 10:05:27
00018 suncat0243 pw.x -in pw.inp   Done                     12/31/2018 10:05:27
00019 suncat0243 pw.x -in pw.inp   Done                     12/31/2018 10:05:27
00020 suncat0243 pw.x -in pw.inp   Done                     12/31/2018 10:05:27
00021 suncat0243 pw.x -in pw.inp   Done                     12/31/2018 10:05:27
00022 suncat0243 pw.x -in pw.inp   Done                     12/31/2018 10:05:27
00023 suncat0243 pw.x -in pw.inp   Done                     12/31/2018 10:05:27
00024 suncat0242 pw.x -in pw.inp   Done                     12/31/2018 10:05:27
00025 suncat0242 pw.x -in pw.inp   Done                     12/31/2018 10:05:27
00026 suncat0242 pw.x -in pw.inp   Done                     12/31/2018 10:05:27
00027 suncat0242 pw.x -in pw.inp   Done                     12/31/2018 10:05:27
00028 suncat0242 pw.x -in pw.inp   Done                     12/31/2018 10:05:27
00029 suncat0242 pw.x -in pw.inp   Done                     12/31/2018 10:05:27
00030 suncat0242 pw.x -in pw.inp   Done                     12/31/2018 10:05:27
00031 suncat0242 pw.x -in pw.inp   Done                     12/31/2018 10:05:27
00032 suncat0209 pw.x -in pw.inp   Done                     12/31/2018 10:05:27
00033 suncat0209 pw.x -in pw.inp   Done                     12/31/2018 10:05:27
00034 suncat0209 pw.x -in pw.inp   Done                     12/31/2018 10:05:27
00035 suncat0209 pw.x -in pw.inp   Done                     12/31/2018 10:05:27
00036 suncat0209 pw.x -in pw.inp   Done                     12/31/2018 10:05:27
00037 suncat0209 pw.x -in pw.inp   Done                     12/31/2018 10:05:27
00038 suncat0209 pw.x -in pw.inp   Done                     12/31/2018 10:05:27
00039 suncat0209 pw.x -in pw.inp   Done                     12/31/2018 10:05:27
00040 suncat0205 pw.x -in pw.inp   Done                     12/31/2018 10:05:27
00041 suncat0205 pw.x -in pw.inp   Done                     12/31/2018 10:05:27
00042 suncat0205 pw.x -in pw.inp   Done                     12/31/2018 10:05:27
00043 suncat0205 pw.x -in pw.inp   Done                     12/31/2018 10:05:27
00044 suncat0205 pw.x -in pw.inp   Done                     12/31/2018 10:05:27
00045 suncat0205 pw.x -in pw.inp   Done                     12/31/2018 10:05:27
00046 suncat0205 pw.x -in pw.inp   Done                     12/31/2018 10:05:27
00047 suncat0205 pw.x -in pw.inp   Done                     12/31/2018 10:05:27
00048 suncat0204 pw.x -in pw.inp   Done                     12/31/2018 10:05:27
00049 suncat0204 pw.x -in pw.inp   Done                     12/31/2018 10:05:27
00050 suncat0204 pw.x -in pw.inp   Done                     12/31/2018 10:05:27
00051 suncat0204 pw.x -in pw.inp   Done                     12/31/2018 10:05:27
00052 suncat0204 pw.x -in pw.inp   Done                     12/31/2018 10:05:27
00053 suncat0204 pw.x -in pw.inp   Done                     12/31/2018 10:05:27
00054 suncat0204 pw.x -in pw.inp   Done                     12/31/2018 10:05:27
00055 suncat0204 pw.x -in pw.inp   Done                     12/31/2018 10:05:27
00056 suncat0203 pw.x -in pw.inp   Done                     12/31/2018 10:05:27
00057 suncat0203 pw.x -in pw.inp   Done                     12/31/2018 10:05:27
00058 suncat0203 pw.x -in pw.inp   Done                     12/31/2018 10:05:27
00059 suncat0203 pw.x -in pw.inp   Done                     12/31/2018 10:05:27
00060 suncat0203 pw.x -in pw.inp   Done                     12/31/2018 10:05:27
00061 suncat0203 pw.x -in pw.inp   Done                     12/31/2018 10:05:27
00062 suncat0203 pw.x -in pw.inp   Done                     12/31/2018 10:05:27
00063 suncat0203 pw.x -in pw.inp   Done                     12/31/2018 10:05:27