     Program PWSCF v.5.1rc2 (svn rev. 11289) starts on 27Dec2018 at  4: 1:16

     Current dimensions of program PWSCF are:
     Max number of different atomic species (ntypx) = 10
     Max number of k-points (npk) =  40000
     Max angular momentum in pseudopotentials (lmaxx) =  3
     Presently stress not available with electric field

     IMPORTANT: XC functional enforced from input :
     Exchange-correlation      = BEEF-VDW ( 1  4 27 13 2)
     Any further DFT definition will be discarded
     Please, verify this is what you really want

     Subspace diagonalization in iterative solution of the eigenvalue problem:
     a serial algorithm will be used

     bravais-lattice index     =            0
     lattice parameter (alat)  =       1.8897  a.u.
     unit-cell volume          =    4868.4449 (a.u.)^3
     number of atoms/cell      =           12
     number of atomic types    =            2
     number of electrons       =       159.00
     number of Kohn-Sham states=          109
     kinetic-energy cutoff     =      36.7493  Ry
     charge density cutoff     =     367.4932  Ry
     convergence threshold     =      1.0E-06
     mixing beta               =       0.1000
     number of iterations used =           10  plain     mixing
     Exchange-correlation      = BEEF-VDW ( 1  4 27 13 2)
     nstep                     =           50

     celldm(1)=   1.889726  celldm(2)=   0.000000  celldm(3)=   0.000000
     celldm(4)=   0.000000  celldm(5)=   0.000000  celldm(6)=   0.000000

     crystal axes: (cart. coord. in units of alat)
               a(1) = (   5.802945   0.000000   0.000000 )
               a(2) = (  -2.901473   5.025498   0.000000 )
               a(3) = (   0.000000   0.000000  24.738085 )

     reciprocal axes: (cart. coord. in units 2 pi/alat)
               b(1) = (  0.172326  0.099493  0.000000 )
               b(2) = (  0.000000  0.198985  0.000000 )
               b(3) = (  0.000000  0.000000  0.040424 )

     PseudoPot. # 1 for Mo read from file:
     /afs/slac.stanford.edu/u/if/mamunm/psp/gbrv1.5pbe/Mo.UPF
     MD5 check sum: 30c4dcd161f5d35cd49bb5239c51a633
     Pseudo is Ultrasoft + core correction, Zval = 14.0
     Generated by new atomic code, or converted to UPF format
     Using radial grid of  889 points,  6 beta functions with:
                l(1) =   0
                l(2) =   0
                l(3) =   1
                l(4) =   1
                l(5) =   2
                l(6) =   2
     Q(r) pseudized with  6 coefficients,  rinner =    1.000   1.000   1.000
                                                       1.000   1.000

     PseudoPot. # 2 for Sc read from file:
     /afs/slac.stanford.edu/u/if/mamunm/psp/gbrv1.5pbe/Sc.UPF
     MD5 check sum: db30a2753ba66ef00f23801d899b7e7f
     Pseudo is Ultrasoft + core correction, Zval = 11.0
     Generated by new atomic code, or converted to UPF format
     Using radial grid of  849 points,  6 beta functions with:
                l(1) =   0
                l(2) =   0
                l(3) =   1
                l(4) =   1
                l(5) =   2
                l(6) =   2
     Q(r) pseudized with  6 coefficients,  rinner =    1.200   1.200   1.200
                                                       1.200   1.200

     vdW kernel table read from file vdW_kernel_table
     MD5 check sum: 095c7af220d748ca6e76c0b4c6cfb241

     atomic species   valence    mass     pseudopotential
        Mo1           14.00    95.95000     Mo( 1.00)
        Sc1           11.00    44.95591     Sc( 1.00)

     No symmetry found

   Cartesian axes

     site n.     atom                  positions (alat units)
         1           Mo1 tau(   1) = (   0.0000000   0.0000000  10.0000000  )
         2           Mo1 tau(   2) = (  -1.4507363   2.5127490  10.0000000  )
         3           Mo1 tau(   3) = (   1.4507363   2.5127490  10.0000000  )
         4           Sc1 tau(   4) = (   2.9014726   0.0000000  10.0000000  )
         5           Mo1 tau(   5) = (   2.9014726   1.6751660  12.3690425  )
         6           Mo1 tau(   6) = (   1.4507363   4.1879150  12.3690425  )
         7           Mo1 tau(   7) = (  -1.4507363   4.1879150  12.3690425  )
         8           Sc1 tau(   8) = (   0.0000000   1.6751660  12.3690425  )
         9           Mo1 tau(   9) = (  -0.0000000   3.3503320  14.7380850  )
        10           Mo1 tau(  10) = (   1.4507363   0.8375830  14.7380850  )
        11           Mo1 tau(  11) = (   4.3522089   0.8375830  14.7380850  )
        12           Sc1 tau(  12) = (   2.9014726   3.3503320  14.7380850  )

     number of k points=    20  Fermi-Dirac smearing, width (Ry)=  0.0110
                       cart. coord. in units 2pi/alat
        k(    1) = (   0.0000000   0.0000000   0.0000000), wk =   0.0555556
        k(    2) = (   0.0000000   0.0331642   0.0000000), wk =   0.1111111
        k(    3) = (   0.0000000   0.0663284   0.0000000), wk =   0.1111111
        k(    4) = (   0.0000000  -0.0994926   0.0000000), wk =   0.0555556
        k(    5) = (   0.0287210   0.0165821   0.0000000), wk =   0.1111111
        k(    6) = (   0.0287210   0.0497463   0.0000000), wk =   0.1111111
        k(    7) = (   0.0287210   0.0829105   0.0000000), wk =   0.1111111
        k(    8) = (   0.0287210  -0.0829105   0.0000000), wk =   0.1111111
        k(    9) = (   0.0287210  -0.0497463   0.0000000), wk =   0.1111111
        k(   10) = (   0.0287210  -0.0165821   0.0000000), wk =   0.1111111
        k(   11) = (   0.0574421   0.0331642   0.0000000), wk =   0.1111111
        k(   12) = (   0.0574421   0.0663284   0.0000000), wk =   0.1111111
        k(   13) = (   0.0574421   0.0994926   0.0000000), wk =   0.1111111
        k(   14) = (   0.0574421  -0.0663284   0.0000000), wk =   0.1111111
        k(   15) = (   0.0574421  -0.0331642   0.0000000), wk =   0.1111111
        k(   16) = (   0.0574421   0.0000000   0.0000000), wk =   0.1111111
        k(   17) = (  -0.0861631  -0.0497463   0.0000000), wk =   0.0555556
        k(   18) = (  -0.0861631  -0.0165821   0.0000000), wk =   0.1111111
        k(   19) = (  -0.0861631   0.0165821   0.0000000), wk =   0.1111111
        k(   20) = (  -0.0861631  -0.1492389   0.0000000), wk =   0.0555556

     Largest allocated arrays     est. size (Mb)     dimensions
     Largest temporary arrays     est. size (Mb)     dimensions

     Initial potential from superposition of free atoms
     Check: negative starting charge=   -0.004298

     starting charge  158.98322, renormalised to  159.00000

     negative rho (up, down):  4.298E-03 0.000E+00

     *
     * You are using vdW-DF for exchange-correlation in this calculation.
     * Please cite the following three references that made this development
     * possible:
     *
     *   M. Dion, H. Rydberg, E. Schroder, D. C. Langreth, and
     *   B. I. Lundqvist, Phys. Rev. Lett. 92, 246401 (2004).
     *
     *   T. Thonhauser, V. R. Cooper, S. Li, A. Puzder, P. Hyldgaard, and
     *   D. C. Langreth, Phys. Rev. B 76, 125112 (2007).
     *
     *   G. Roman-Perez and J. M. Soler, Phys. Rev. Lett. 103, 096102 (2009).
     *
     *
     * If you are using vdW-DF2, please also cite:
     *
     *   K. Lee, E. D. Murray, L. Kong, B. I. Lundqvist, and
     *   D. C. Langreth, Phys. Rev. B 82, 081101(R) (2010).
     *
     *
     * If you are calculating the stress with vdW-DF, please also cite:
     *
     *   R. Sabatini, E. Kucukbenli, B. Kolb, T. Thonhauser, and
     *   S. de Gironcoli, J. Phys.: Condens. Matter 24, 424209 (2012).
     *

     Carrying out vdW-DF run using the following parameters:

     Nqs =      20    Nr_points =    1024   r_max =   100.000
     q_mesh =
               0.00001000     0.04494208     0.09755937     0.15916263
               0.23128650     0.31572767     0.41458969     0.53033537
               0.66584808     0.82450364     1.01025438     1.22772762
               1.48234092     1.78043706     2.12944203     2.53805004
               3.01644009     3.57652955     4.23227104     5.00000000

     Gradients computed in reciprocal space

     Adding external electric field

     Computed dipole along edir(3) :
        Dipole               -0.0000 Ry au,         -0.0000 Debye
        Dipole field         -0.0000 Ry au

        Potential amp.        0.0000 Ry
        Total length         45.5795 bohr

     Starting wfc are  156 randomized atomic wfcs

     Self-consistent Calculation

     iteration #  1     ecut=    36.75 Ry     beta=0.10
     Davidson diagonalization with overlap
     ethr =  1.00E-02,  avg # of iterations =  2.0

[...]

     total energy              =   -1543.02166047 Ry
     Harris-Foulkes estimate   =   -1544.29802441 Ry
     estimated scf accuracy    <       7.09305026 Ry

[...]

     End of self-consistent calculation

          k = 0.0000 0.0000 0.0000 ( 18319 PWs)   bands (ev):

   -59.3250 -59.2386 -59.2386 -59.1470 -59.1388 -59.0670 -59.0670 -59.0650
   -59.0649 -47.5918 -47.5911 -47.0848 -33.7549 -33.5577 -33.5351 -33.5350
   -33.5149 -33.4568 -33.4404 -33.4404 -33.2931 -33.2930 -33.2141 -33.1708
   -33.1708 -33.1403 -33.1311 -33.1311 -33.0142 -33.0142 -33.0111 -32.9975
   -32.9975 -32.9374 -32.9059 -32.8288 -32.8287 -32.8248 -32.8248 -26.2655
   -26.2474 -26.1766 -26.1766 -26.1721 -26.1721 -25.7392 -25.7110 -25.7110
    -3.8560  -2.5374  -2.1862  -2.0592  -1.7533  -1.7533  -1.7473  -1.5178
    -1.5178  -1.3384  -1.2955  -1.2228  -1.2228  -1.0059  -1.0059  -0.3464
     0.0772   0.0772   0.6920   0.6920   0.7732   0.8766   1.2678   1.4224
     1.6831   1.6831   1.6873   1.7448   1.7449   1.8633   1.8633   2.0833
     2.0833   2.2439   2.2439   2.6336   2.8286   2.8517   2.8517   2.8797
     3.3136   3.3136   3.4713   3.6573   3.6573   4.0125   4.0125   4.1565
     4.1566   4.2183   4.4963   4.7574   4.7574   5.0918   5.2223   5.4032
     5.4034   5.4385   5.5217   5.5340   5.6841

[...]

          k =-0.0862-0.0497 0.0000 ( 18280 PWs)   bands (ev):

[...]

     the Fermi energy is     1.7152 ev

!    total energy              =   -1543.69896736 Ry
     Harris-Foulkes estimate   =   -1543.69896735 Ry
     estimated scf accuracy    <       0.00000069 Ry

     The total energy is the sum of the following terms:

     one-electron contribution =  -12740.55855528 Ry
     hartree contribution      =    6360.91980219 Ry
     xc contribution           =    -221.49256208 Ry
     ewald contribution        =    5057.53973670 Ry
     electric field correction =       0.00000009 Ry
     smearing contrib. (-TS)   =      -0.10738898 Ry

     convergence has been achieved in  18 iterations

 BEEF-vdW xc energy contributions
           1 :   -189.727629731476
           2 :    171.996981240100
           3 :   -142.210537853569
           4 :    109.040784335898
           5 :   -80.5547559591789
           6 :    61.4249267402824
           7 :   -52.0810719982736
           8 :    49.7108182776578
           9 :   -50.2591829214211
          10 :    50.3298736432213
          11 :   -48.2525759583821
          12 :    44.1097192603107
          13 :   -39.0445140568138
          14 :    34.3727390026615
          15 :   -30.9397416190554
          16 :    28.8765728248696
[...]
               b(3) = (  0.000000  0.000000  0.040424 )

     PseudoPot. # 1 for Mo read from file:
     /afs/slac.stanford.edu/u/if/mamunm/psp/gbrv1.5pbe/Mo.UPF
     MD5 check sum: 30c4dcd161f5d35cd49bb5239c51a633
     Pseudo is Ultrasoft + core correction, Zval = 14.0
     Generated by new atomic code, or converted to UPF format
     Using radial grid of  889 points,  6 beta functions with:
                l(1) =   0
                l(2) =   0
                l(3) =   1
                l(4) =   1
                l(5) =   2
                l(6) =   2
     Q(r) pseudized with  6 coefficients,  rinner =    1.000   1.000   1.000
                                                       1.000   1.000

     PseudoPot. # 2 for Sc read from file:
     /afs/slac.stanford.edu/u/if/mamunm/psp/gbrv1.5pbe/Sc.UPF
     MD5 check sum: db30a2753ba66ef00f23801d899b7e7f
     Pseudo is Ultrasoft + core correction, Zval = 11.0
     Generated by new atomic code, or converted to UPF format
     Using radial grid of  849 points,  6 beta functions with:
                l(1) =   0
                l(2) =   0
                l(3) =   1
                l(4) =   1
                l(5) =   2
                l(6) =   2
     Q(r) pseudized with  6 coefficients,  rinner =    1.200   1.200   1.200
                                                       1.200   1.200

     vdW kernel table read from file vdW_kernel_table
     MD5 check sum: 095c7af220d748ca6e76c0b4c6cfb241

     atomic species   valence    mass     pseudopotential
        Mo1           14.00    95.95000     Mo( 1.00)
        Sc1           11.00    44.95591     Sc( 1.00)

     No symmetry found

   Cartesian axes

     site n.     atom                  positions (alat units)
         1           Mo1 tau(   1) = (   0.0000000   0.0000000  10.0000000  )
         2           Mo1 tau(   2) = (  -1.4507363   2.5127490  10.0000000  )
         3           Mo1 tau(   3) = (   1.4507363   2.5127490  10.0000000  )
         4           Sc1 tau(   4) = (   2.9014726   0.0000000  10.0000000  )
         5           Mo1 tau(   5) = (   2.9014726   1.6751660  12.3690425  )
         6           Mo1 tau(   6) = (   1.4507363   4.1879150  12.3690425  )
         7           Mo1 tau(   7) = (  -1.4507363   4.1879150  12.3690425  )
         8           Sc1 tau(   8) = (   0.0000000   1.6751660  12.3690425  )
         9           Mo1 tau(   9) = (  -0.0000009   3.4817426  14.5249510  )
        10           Mo1 tau(  10) = (   1.5645084   0.7719062  14.5249609  )
        11           Mo1 tau(  11) = (   4.2384036   0.7718856  14.5249573  )
        12           Sc1 tau(  12) = (   2.9014834   3.3503383  15.2248045  )

     number of k points=    20  Fermi-Dirac smearing, width (Ry)=  0.0110
                       cart. coord. in units 2pi/alat
        k(    1) = (   0.0000000   0.0000000   0.0000000), wk =   0.0555556
        k(    2) = (   0.0000000   0.0331642   0.0000000), wk =   0.1111111
        k(    3) = (   0.0000000   0.0663284   0.0000000), wk =   0.1111111
        k(    4) = (   0.0000000  -0.0994926   0.0000000), wk =   0.0555556
        k(    5) = (   0.0287210   0.0165821   0.0000000), wk =   0.1111111
        k(    6) = (   0.0287210   0.0497463   0.0000000), wk =   0.1111111
        k(    7) = (   0.0287210   0.0829105   0.0000000), wk =   0.1111111
        k(    8) = (   0.0287210  -0.0829105   0.0000000), wk =   0.1111111
        k(    9) = (   0.0287210  -0.0497463   0.0000000), wk =   0.1111111
        k(   10) = (   0.0287210  -0.0165821   0.0000000), wk =   0.1111111
        k(   11) = (   0.0574421   0.0331642   0.0000000), wk =   0.1111111
        k(   12) = (   0.0574421   0.0663284   0.0000000), wk =   0.1111111
        k(   13) = (   0.0574421   0.0994926   0.0000000), wk =   0.1111111
        k(   14) = (   0.0574421  -0.0663284   0.0000000), wk =   0.1111111
        k(   15) = (   0.0574421  -0.0331642   0.0000000), wk =   0.1111111
        k(   16) = (   0.0574421   0.0000000   0.0000000), wk =   0.1111111
        k(   17) = (  -0.0861631  -0.0497463   0.0000000), wk =   0.0555556
        k(   18) = (  -0.0861631  -0.0165821   0.0000000), wk =   0.1111111
        k(   19) = (  -0.0861631   0.0165821   0.0000000), wk =   0.1111111
        k(   20) = (  -0.0861631  -0.1492389   0.0000000), wk =   0.0555556

     Largest allocated arrays     est. size (Mb)     dimensions
     Largest temporary arrays     est. size (Mb)     dimensions

     Initial potential from superposition of free atoms
     Check: negative starting charge=   -0.004200

     starting charge  158.98322, renormalised to  159.00000

[...]

     *
     * You are using vdW-DF for exchange-correlation in this calculation.
     * Please cite the following three references that made this development
     * possible:
     *
     *   M. Dion, H. Rydberg, E. Schroder, D. C. Langreth, and
     *   B. I. Lundqvist, Phys. Rev. Lett. 92, 246401 (2004).
     *
     *   T. Thonhauser, V. R. Cooper, S. Li, A. Puzder, P. Hyldgaard, and
     *   D. C. Langreth, Phys. Rev. B 76, 125112 (2007).
     *
     *   G. Roman-Perez and J. M. Soler, Phys. Rev. Lett. 103, 096102 (2009).
     *
     *
     * If you are using vdW-DF2, please also cite:
     *
     *   K. Lee, E. D. Murray, L. Kong, B. I. Lundqvist, and
     *   D. C. Langreth, Phys. Rev. B 82, 081101(R) (2010).
     *
     *
     * If you are calculating the stress with vdW-DF, please also cite:
     *
     *   R. Sabatini, E. Kucukbenli, B. Kolb, T. Thonhauser, and
     *   S. de Gironcoli, J. Phys.: Condens. Matter 24, 424209 (2012).
     *

     Carrying out vdW-DF run using the following parameters:

     Nqs =      20    Nr_points =    1024   r_max =   100.000
     q_mesh =
               0.00001000     0.04494208     0.09755937     0.15916263
               0.23128650     0.31572767     0.41458969     0.53033537
               0.66584808     0.82450364     1.01025438     1.22772762
               1.48234092     1.78043706     2.12944203     2.53805004
               3.01644009     3.57652955     4.23227104     5.00000000

     Gradients computed in reciprocal space

[...]

     Starting wfc are  156 randomized atomic wfcs

     Self-consistent Calculation

[...]

     total energy              =   -1543.74921704 Ry
     Harris-Foulkes estimate   =   -1543.74921733 Ry
     estimated scf accuracy    <       0.00000203 Ry

     iteration # 18     ecut=    36.75 Ry     beta=0.10
     Davidson diagonalization with overlap
     ethr =  1.28E-09,  avg # of iterations =  2.3

[...]

     negative rho (up, down):  4.069E-03 0.000E+00

     Adding external electric field

     Computed dipole along edir(3) :
        Dipole                0.2191 Ry au,          0.5569 Debye
        Dipole field          0.0006 Ry au

        Potential amp.       -0.0516 Ry
        Total length         45.5795 bohr

     End of self-consistent calculation

[...]

          k = 0.0574 0.0000 0.0000 ( 18319 PWs)   bands (ev):

[...]

          k =-0.0862-0.1492 0.0000 ( 18280 PWs)   bands (ev):

   -59.0530 -59.0175 -58.9838 -58.8775 -58.8576 -58.8474 -58.8266 -58.7797
   -58.7656 -48.0407 -47.3166 -46.8333 -33.5037 -33.3978 -33.3013 -33.2965
   -33.2218 -33.1860 -33.1497 -33.1162 -33.0938 -33.0385 -32.9798 -32.9182
   -32.9155 -32.9013 -32.8763 -32.8570 -32.8526 -32.8006 -32.7952 -32.7450
   -32.6664 -32.6333 -32.6308 -32.6210 -32.6197 -32.6048 -32.5156 -26.7377
   -26.5635 -26.5547 -25.9761 -25.9301 -25.9117 -25.5159 -25.4882 -25.4699
    -2.2209  -1.9904  -1.4224  -1.2383  -1.1244  -0.8472  -0.7455  -0.7452
    -0.5708  -0.5001  -0.4158  -0.3321  -0.2081  -0.1121   0.0928   0.1591
     0.2644   0.3316   0.3736   0.6110   0.7856   0.8807   0.9865   1.1508
     1.1623   1.2487   1.3036   1.3126   1.3876   1.4837   1.5240   1.6627
     1.7418   1.9823   2.2283   2.4303   2.4772   2.5088   2.5506   2.7382
     2.8214   3.0344   3.1787   3.2738   3.3423   3.3575   3.4825   3.5710
     3.6135   3.7509   4.0882   4.1966   4.2601   4.3764   4.5083   4.7596
     4.9336   5.0049   5.0877   5.3529   5.4536

     the Fermi energy is     1.9590 ev

!    total energy              =   -1543.74921727 Ry
     Harris-Foulkes estimate   =   -1543.74921121 Ry
     estimated scf accuracy    <       0.00000085 Ry

     The total energy is the sum of the following terms:

     one-electron contribution =  -12852.76897616 Ry
     hartree contribution      =    6418.13853028 Ry
     xc contribution           =    -221.66701359 Ry
     ewald contribution        =    5112.64921014 Ry
     electric field correction =       0.00012390 Ry
     smearing contrib. (-TS)   =      -0.10109184 Ry

     convergence has been achieved in  18 iterations

 BEEF-vdW xc energy contributions
           1 :   -189.943317708068
           2 :    172.281467079282
           3 :   -142.607683474930
           4 :    109.518996251231
           5 :   -80.9814421680324
           6 :    61.6275211042781
           7 :   -51.9598636403925
           8 :    49.3038501102138
           9 :   -49.7171884368572
          10 :    49.8381495814548
          11 :   -47.9493445672970
          12 :    44.0310415896246
          13 :   -39.1178921299563
          14 :    34.4619457542190
          15 :   -30.9140835528062
          16 :    28.6685808669291
          17 :   -27.3367305915681
          18 :    26.2141869422042
          19 :   -24.6211265784825
          20 :    22.1984300447740
          21 :   -19.0621483243584
          22 :    15.7370277567967
          23 :   -12.8876861350168
          24 :    10.9687007484653
          25 :   -9.98266860920802
          26 :    9.48179683294768
          27 :   -8.82056884083948
          28 :    7.51253586950810
          29 :   -5.48555277754565
          30 :    3.08809065689627
          31 :   -21.7699121504144
          32 :   -16.4494552374478

     Forces acting on atoms (Ry/au):

     negative rho (up, down):  4.069E-03 0.000E+00
     atom    1 type  1   force =     0.00000017   -0.02525968    0.02163983
     atom    2 type  1   force =    -0.02187590    0.01263042    0.02163973
     atom    3 type  1   force =     0.02187509    0.01262961    0.02163296
     atom    4 type  2   force =     0.00000020   -0.00000033   -0.04674589
     atom    5 type  1   force =     0.00000111    0.03512480    0.00350588
     atom    6 type  1   force =     0.03041943   -0.01756159    0.00350502
     atom    7 type  1   force =    -0.03041856   -0.01756257    0.00350529
     atom    8 type  2   force =    -0.00000182   -0.00000128   -0.02862303
     atom    9 type  1   force =     0.00000113   -0.00015533    0.00008203
     atom   10 type  1   force =    -0.00013417    0.00007861    0.00008171
     atom   11 type  1   force =     0.00013488    0.00007796    0.00008392
     atom   12 type  2   force =    -0.00000155   -0.00000062   -0.00030745

     Total force =     0.100307     Total SCF correction =     0.005025

     entering subroutine stress ...

     negative rho (up, down):  4.069E-03 0.000E+00
          total   stress  (Ry/bohr**3)                   (kbar)     P=  -15.76
  -0.00015251   0.00000000  -0.00000000        -22.43      0.00     -0.00
   0.00000000  -0.00015251   0.00000000          0.00    -22.43      0.00
  -0.00000000   0.00000000  -0.00001647         -0.00      0.00     -2.42

 !ASE

     Writing output data file calc.save

     General routines

     Parallel routines

   This run was terminated on:   5: 7:26  27Dec2018

   JOB DONE.
Job  /afs/slac/g/suncat/bin/suncat-tsmpirun -x LD_LIBRARY_PATH -wdir /scratch/qe110150_YihgV pw.x -in pw.inp

TID   HOST_NAME   COMMAND_LINE            STATUS            TERMINATION_TIME
00000 suncat0092 pw.x -in pw.inp   Done                     12/27/2018 05:07:26
00001 suncat0092 pw.x -in pw.inp   Done                     12/27/2018 05:07:26
00002 suncat0092 pw.x -in pw.inp   Done                     12/27/2018 05:07:26
00003 suncat0092 pw.x -in pw.inp   Done                     12/27/2018 05:07:26
00004 suncat0092 pw.x -in pw.inp   Done                     12/27/2018 05:07:26
00005 suncat0092 pw.x -in pw.inp   Done                     12/27/2018 05:07:26
00006 suncat0092 pw.x -in pw.inp   Done                     12/27/2018 05:07:26
00007 suncat0092 pw.x -in pw.inp   Done                     12/27/2018 05:07:26
00008 suncat0075 pw.x -in pw.inp   Done                     12/27/2018 05:07:26
00009 suncat0075 pw.x -in pw.inp   Done                     12/27/2018 05:07:26
00010 suncat0075 pw.x -in pw.inp   Done                     12/27/2018 05:07:26
00011 suncat0075 pw.x -in pw.inp   Done                     12/27/2018 05:07:26
00012 suncat0075 pw.x -in pw.inp   Done                     12/27/2018 05:07:26
00013 suncat0075 pw.x -in pw.inp   Done                     12/27/2018 05:07:26
00014 suncat0075 pw.x -in pw.inp   Done                     12/27/2018 05:07:26
00015 suncat0075 pw.x -in pw.inp   Done                     12/27/2018 05:07:26
00016 suncat0074 pw.x -in pw.inp   Done                     12/27/2018 05:07:26
00017 suncat0074 pw.x -in pw.inp   Done                     12/27/2018 05:07:26
00018 suncat0074 pw.x -in pw.inp   Done                     12/27/2018 05:07:26
00019 suncat0074 pw.x -in pw.inp   Done                     12/27/2018 05:07:26
00020 suncat0074 pw.x -in pw.inp   Done                     12/27/2018 05:07:26
00021 suncat0074 pw.x -in pw.inp   Done                     12/27/2018 05:07:26
00022 suncat0074 pw.x -in pw.inp   Done                     12/27/2018 05:07:26
00023 suncat0074 pw.x -in pw.inp   Done                     12/27/2018 05:07:26
00024 suncat0195 pw.x -in pw.inp   Done                     12/27/2018 05:07:26
00025 suncat0195 pw.x -in pw.inp   Done                     12/27/2018 05:07:26
00026 suncat0195 pw.x -in pw.inp   Done                     12/27/2018 05:07:26
00027 suncat0195 pw.x -in pw.inp   Done                     12/27/2018 05:07:26
00028 suncat0195 pw.x -in pw.inp   Done                     12/27/2018 05:07:26
00029 suncat0195 pw.x -in pw.inp   Done                     12/27/2018 05:07:26
00030 suncat0195 pw.x -in pw.inp   Done                     12/27/2018 05:07:26
00031 suncat0195 pw.x -in pw.inp   Done                     12/27/2018 05:07:26
00032 suncat0003 pw.x -in pw.inp   Done                     12/27/2018 05:07:26
00033 suncat0003 pw.x -in pw.inp   Done                     12/27/2018 05:07:26
00034 suncat0003 pw.x -in pw.inp   Done                     12/27/2018 05:07:26
00035 suncat0003 pw.x -in pw.inp   Done                     12/27/2018 05:07:26
00036 suncat0003 pw.x -in pw.inp   Done                     12/27/2018 05:07:26
00037 suncat0003 pw.x -in pw.inp   Done                     12/27/2018 05:07:26
00038 suncat0003 pw.x -in pw.inp   Done                     12/27/2018 05:07:26
00039 suncat0003 pw.x -in pw.inp   Done                     12/27/2018 05:07:26
00040 suncat0002 pw.x -in pw.inp   Done                     12/27/2018 05:07:26
00041 suncat0002 pw.x -in pw.inp   Done                     12/27/2018 05:07:26
00042 suncat0002 pw.x -in pw.inp   Done                     12/27/2018 05:07:26
00043 suncat0002 pw.x -in pw.inp   Done                     12/27/2018 05:07:26
00044 suncat0002 pw.x -in pw.inp   Done                     12/27/2018 05:07:26
00045 suncat0002 pw.x -in pw.inp   Done                     12/27/2018 05:07:26
00046 suncat0002 pw.x -in pw.inp   Done                     12/27/2018 05:07:26
00047 suncat0002 pw.x -in pw.inp   Done                     12/27/2018 05:07:26
00048 suncat0283 pw.x -in pw.inp   Done                     12/27/2018 05:07:26
00049 suncat0283 pw.x -in pw.inp   Done                     12/27/2018 05:07:26
00050 suncat0283 pw.x -in pw.inp   Done                     12/27/2018 05:07:26
00051 suncat0283 pw.x -in pw.inp   Done                     12/27/2018 05:07:26
00052 suncat0283 pw.x -in pw.inp   Done                     12/27/2018 05:07:26
00053 suncat0283 pw.x -in pw.inp   Done                     12/27/2018 05:07:26
00054 suncat0283 pw.x -in pw.inp   Done                     12/27/2018 05:07:26
00055 suncat0283 pw.x -in pw.inp   Done                     12/27/2018 05:07:26
00056 suncat0282 pw.x -in pw.inp   Done                     12/27/2018 05:07:26
00057 suncat0282 pw.x -in pw.inp   Done                     12/27/2018 05:07:26
00058 suncat0282 pw.x -in pw.inp   Done                     12/27/2018 05:07:26
00059 suncat0282 pw.x -in pw.inp   Done                     12/27/2018 05:07:26
00060 suncat0282 pw.x -in pw.inp   Done                     12/27/2018 05:07:26
00061 suncat0282 pw.x -in pw.inp   Done                     12/27/2018 05:07:26
00062 suncat0282 pw.x -in pw.inp   Done                     12/27/2018 05:07:26
00063 suncat0282 pw.x -in pw.inp   Done                     12/27/2018 05:07:26