     Program PWSCF v.5.1rc2 (svn rev. 11289) starts on 31Dec2018 at 17:56:29

     Current dimensions of program PWSCF are:
     Max number of different atomic species (ntypx) = 10
     Max number of k-points (npk) =  40000
     Max angular momentum in pseudopotentials (lmaxx) =  3
     Presently stress not available with electric field

     IMPORTANT: XC functional enforced from input :
     Exchange-correlation      = BEEF-VDW ( 1  4 27 13 2)
     Any further DFT definition will be discarded
     Please, verify this is what you really want

     Subspace diagonalization in iterative solution of the eigenvalue problem:
     a serial algorithm will be used

     bravais-lattice index     =            0
     lattice parameter (alat)  =       1.8897  a.u.
     unit-cell volume          =    4231.2710 (a.u.)^3
     number of atoms/cell      =           12
     number of atomic types    =            2
     number of electrons       =       192.00
     number of Kohn-Sham states=          126
     kinetic-energy cutoff     =      36.7493  Ry
     charge density cutoff     =     367.4932  Ry
     convergence threshold     =      1.0E-06
     mixing beta               =       0.1000
     number of iterations used =           10  plain     mixing
     Exchange-correlation      = BEEF-VDW ( 1  4 27 13 2)
     nstep                     =           50

     celldm(1)=   1.889726  celldm(2)=   0.000000  celldm(3)=   0.000000
     celldm(4)=   0.000000  celldm(5)=   0.000000  celldm(6)=   0.000000

     crystal axes: (cart. coord. in units of alat)
               a(1) = (   5.442375   0.000000   0.000000 )
               a(2) = (  -2.721188   4.713235   0.000000 )
               a(3) = (   0.000000   0.000000  24.443681 )

     reciprocal axes: (cart. coord. in units 2 pi/alat)
               b(1) = (  0.183743  0.106084  0.000000 )
               b(2) = (  0.000000  0.212168  0.000000 )
               b(3) = (  0.000000  0.000000  0.040910 )

     PseudoPot. # 1 for Re read from file:
     /afs/slac.stanford.edu/u/if/mamunm/psp/gbrv1.5pbe/Re.UPF
     MD5 check sum: 85f993410f3e006da9d71c142b4ad953
     Pseudo is Ultrasoft + core correction, Zval = 15.0
     Generated by new atomic code, or converted to UPF format
     Using radial grid of  981 points,  8 beta functions with:
                l(1) =   0
                l(2) =   0
                l(3) =   1
                l(4) =   1
                l(5) =   2
                l(6) =   2
                l(7) =   3
                l(8) =   3
     Q(r) pseudized with  8 coefficients,  rinner =    1.150   1.150   1.150
                                                       1.150   1.150   1.150
                                                       1.150

     PseudoPot. # 2 for Cu read from file:
     /afs/slac.stanford.edu/u/if/mamunm/psp/gbrv1.5pbe/Cu.UPF
     MD5 check sum: 6e991ff952a84172a2a52a1c1e996048
     Pseudo is Ultrasoft + core correction, Zval = 19.0
     Generated by new atomic code, or converted to UPF format
     Using radial grid of  867 points,  6 beta functions with:
                l(1) =   0
                l(2) =   0
                l(3) =   1
                l(4) =   1
                l(5) =   2
                l(6) =   2
     Q(r) pseudized with  8 coefficients,  rinner =    1.150   1.150   1.150
                                                       1.150   1.150

     vdW kernel table read from file vdW_kernel_table
     MD5 check sum: 095c7af220d748ca6e76c0b4c6cfb241

     atomic species   valence    mass     pseudopotential
        Re1           15.00   186.20700     Re( 1.00)
        Cu1           19.00    63.54600     Cu( 1.00)

     No symmetry found

   Cartesian axes

     site n.     atom                  positions (alat units)
         1           Re1 tau(   1) = (   0.0000000   0.0000000  10.0000000  )
         2           Re1 tau(   2) = (  -1.3605939   2.3566177  10.0000000  )
         3           Re1 tau(   3) = (   1.3605939   2.3566177  10.0000000  )
         4           Cu1 tau(   4) = (   2.7211877   0.0000000  10.0000000  )
         5           Re1 tau(   5) = (   2.7211877   1.5710785  12.2218405  )
         6           Re1 tau(   6) = (   1.3605939   3.9276962  12.2218405  )
         7           Re1 tau(   7) = (  -1.3605939   3.9276962  12.2218405  )
         8           Cu1 tau(   8) = (   0.0000000   1.5710785  12.2218405  )
         9           Re1 tau(   9) = (  -0.0000000   3.1421569  14.4436810  )
        10           Re1 tau(  10) = (   1.3605939   0.7855392  14.4436810  )
        11           Re1 tau(  11) = (   4.0817816   0.7855392  14.4436810  )
        12           Cu1 tau(  12) = (   2.7211877   3.1421569  14.4436810  )

     number of k points=    20  Fermi-Dirac smearing, width (Ry)=  0.0110
                       cart. coord. in units 2pi/alat
        k(    1) = (   0.0000000   0.0000000   0.0000000), wk =   0.0555556
        k(    2) = (   0.0000000   0.0353614   0.0000000), wk =   0.1111111
        k(    3) = (   0.0000000   0.0707228   0.0000000), wk =   0.1111111
        k(    4) = (   0.0000000  -0.1060842   0.0000000), wk =   0.0555556
        k(    5) = (   0.0306239   0.0176807   0.0000000), wk =   0.1111111
        k(    6) = (   0.0306239   0.0530421   0.0000000), wk =   0.1111111
        k(    7) = (   0.0306239   0.0884035   0.0000000), wk =   0.1111111
        k(    8) = (   0.0306239  -0.0884035   0.0000000), wk =   0.1111111
        k(    9) = (   0.0306239  -0.0530421   0.0000000), wk =   0.1111111
        k(   10) = (   0.0306239  -0.0176807   0.0000000), wk =   0.1111111
        k(   11) = (   0.0612478   0.0353614   0.0000000), wk =   0.1111111
        k(   12) = (   0.0612478   0.0707228   0.0000000), wk =   0.1111111
        k(   13) = (   0.0612478   0.1060842   0.0000000), wk =   0.1111111
        k(   14) = (   0.0612478  -0.0707228   0.0000000), wk =   0.1111111
        k(   15) = (   0.0612478  -0.0353614   0.0000000), wk =   0.1111111
        k(   16) = (   0.0612478   0.0000000   0.0000000), wk =   0.1111111
        k(   17) = (  -0.0918716  -0.0530421   0.0000000), wk =   0.0555556
        k(   18) = (  -0.0918716  -0.0176807   0.0000000), wk =   0.1111111
        k(   19) = (  -0.0918716   0.0176807   0.0000000), wk =   0.1111111
        k(   20) = (  -0.0918716  -0.1591264   0.0000000), wk =   0.0555556

     Largest allocated arrays     est. size (Mb)     dimensions
     Largest temporary arrays     est. size (Mb)     dimensions

     Initial potential from superposition of free atoms
     Check: negative starting charge=   -1.163733

     starting charge  184.49959, renormalised to  192.00000

     negative rho (up, down):  1.211E+00 0.000E+00

     *
     * You are using vdW-DF for exchange-correlation in this calculation.
     * Please cite the following three references that made this development
     * possible:
     *
     *   M. Dion, H. Rydberg, E. Schroder, D. C. Langreth, and
     *   B. I. Lundqvist, Phys. Rev. Lett. 92, 246401 (2004).
     *
     *   T. Thonhauser, V. R. Cooper, S. Li, A. Puzder, P. Hyldgaard, and
     *   D. C. Langreth, Phys. Rev. B 76, 125112 (2007).
     *
     *   G. Roman-Perez and J. M. Soler, Phys. Rev. Lett. 103, 096102 (2009).
     *
     *
     * If you are using vdW-DF2, please also cite:
     *
     *   K. Lee, E. D. Murray, L. Kong, B. I. Lundqvist, and
     *   D. C. Langreth, Phys. Rev. B 82, 081101(R) (2010).
     *
     *
     * If you are calculating the stress with vdW-DF, please also cite:
     *
     *   R. Sabatini, E. Kucukbenli, B. Kolb, T. Thonhauser, and
     *   S. de Gironcoli, J. Phys.: Condens. Matter 24, 424209 (2012).
     *

     Carrying out vdW-DF run using the following parameters:

     Nqs =      20    Nr_points =    1024   r_max =   100.000
     q_mesh =
               0.00001000     0.04494208     0.09755937     0.15916263
               0.23128650     0.31572767     0.41458969     0.53033537
               0.66584808     0.82450364     1.01025438     1.22772762
               1.48234092     1.78043706     2.12944203     2.53805004
               3.01644009     3.57652955     4.23227104     5.00000000

     Gradients computed in reciprocal space

     Adding external electric field

     Computed dipole along edir(3) :
        Dipole               -0.0000 Ry au,         -0.0000 Debye
        Dipole field         -0.0000 Ry au

        Potential amp.        0.0000 Ry
        Total length         45.0371 bohr

     Starting wfc are  156 randomized atomic wfcs

     Self-consistent Calculation

     iteration #  1     ecut=    36.75 Ry     beta=0.10
     Davidson diagonalization with overlap
     ethr =  1.00E-02,  avg # of iterations =  7.2

[...]

     total energy              =   -2943.72559829 Ry
     Harris-Foulkes estimate   =   -2945.93459177 Ry
     estimated scf accuracy    <      12.81332220 Ry

[...]

     End of self-consistent calculation

          k = 0.0000 0.0000 0.0000 ( 15845 PWs)   bands (ev):

  -111.4185-110.8833-110.8833 -78.8409 -78.7750 -78.7750 -78.3961 -78.3939
   -78.3323 -78.3323 -78.3318 -78.3318 -68.8058 -68.8058 -68.7649 -68.2926
   -68.2926 -68.2926 -68.2926 -68.1846 -68.1846 -41.0578 -40.7810 -40.7810
   -40.7195 -40.5677 -40.5677 -40.5234 -40.4809 -40.3022 -40.2293 -40.2293
   -40.1736 -40.1736 -40.1463 -40.0811 -40.0811 -40.0398 -40.0398 -39.9509
   -39.9283 -39.9283 -39.7931 -39.7714 -39.6350 -39.6350 -39.6306 -39.6306
    -7.0053  -4.9698  -4.3898  -4.2548  -3.9894  -3.6735  -3.6735  -3.3101
    -3.3101  -3.0369  -3.0004  -2.8754  -2.8754  -2.5571  -2.5571  -1.6328
    -1.5087  -1.5087  -1.3258  -1.3258  -1.2618  -0.9356  -0.9356  -0.9336
    -0.8580  -0.4804  -0.4804  -0.2541  -0.2541  -0.1021  -0.1021   0.0363
     0.2430   0.2430   0.2776   0.2776   0.7483   0.8336   0.9522   0.9522
     1.5598   1.8730   1.8730   2.0147   2.3956   2.8533   2.8533   2.9313
     3.3493   3.3493   3.3524   3.3524   3.6199   3.6199   3.6424   3.7160
     3.7160   3.9285   3.9285   4.2489   4.2489   4.8267   4.8267   5.0583
     5.1146   5.3561   5.9535   5.9535   5.9904   6.5487   6.6495   6.7098
     6.8749   7.0292   7.0292   7.4666   8.3460   8.6694

[...]

          k =-0.0919-0.0530 0.0000 ( 15968 PWs)   bands (ev):

[...]

     the Fermi energy is     2.1465 ev

!    total energy              =   -2943.97135703 Ry
     Harris-Foulkes estimate   =   -2943.97135088 Ry
     estimated scf accuracy    <       0.00000009 Ry

     The total energy is the sum of the following terms:

     one-electron contribution =  -22218.52453183 Ry
     hartree contribution      =   11098.85211472 Ry
     xc contribution           =    -606.43134603 Ry
     ewald contribution        =    8782.18685752 Ry
     electric field correction =       0.00000000 Ry
     smearing contrib. (-TS)   =      -0.05445142 Ry

     convergence has been achieved in  18 iterations

 BEEF-vdW xc energy contributions
           1 :   -538.971170398046
           2 :    498.656579902649
           3 :   -427.189594614937
           4 :    339.506155684238
           5 :   -251.333930088710
           6 :    174.708031394154
           7 :   -115.542179403056
           8 :    73.7805497973930
[...]
     Generated by new atomic code, or converted to UPF format
     Using radial grid of  981 points,  8 beta functions with:
                l(1) =   0
                l(2) =   0
                l(3) =   1
                l(4) =   1
                l(5) =   2
                l(6) =   2
                l(7) =   3
                l(8) =   3
     Q(r) pseudized with  8 coefficients,  rinner =    1.150   1.150   1.150
                                                       1.150   1.150   1.150
                                                       1.150

     PseudoPot. # 2 for Cu read from file:
     /afs/slac.stanford.edu/u/if/mamunm/psp/gbrv1.5pbe/Cu.UPF
     MD5 check sum: 6e991ff952a84172a2a52a1c1e996048
     Pseudo is Ultrasoft + core correction, Zval = 19.0
     Generated by new atomic code, or converted to UPF format
     Using radial grid of  867 points,  6 beta functions with:
                l(1) =   0
                l(2) =   0
                l(3) =   1
                l(4) =   1
                l(5) =   2
                l(6) =   2
     Q(r) pseudized with  8 coefficients,  rinner =    1.150   1.150   1.150
                                                       1.150   1.150

     vdW kernel table read from file vdW_kernel_table
     MD5 check sum: 095c7af220d748ca6e76c0b4c6cfb241

     atomic species   valence    mass     pseudopotential
        Re1           15.00   186.20700     Re( 1.00)
        Cu1           19.00    63.54600     Cu( 1.00)

     No symmetry found

   Cartesian axes

     site n.     atom                  positions (alat units)
         1           Re1 tau(   1) = (   0.0000000   0.0000000  10.0000000  )
         2           Re1 tau(   2) = (  -1.3605939   2.3566177  10.0000000  )
         3           Re1 tau(   3) = (   1.3605939   2.3566177  10.0000000  )
         4           Cu1 tau(   4) = (   2.7211877   0.0000000  10.0000000  )
         5           Re1 tau(   5) = (   2.7211877   1.5710785  12.2218405  )
         6           Re1 tau(   6) = (   1.3605939   3.9276962  12.2218405  )
         7           Re1 tau(   7) = (  -1.3605939   3.9276962  12.2218405  )
         8           Cu1 tau(   8) = (   0.0000000   1.5710785  12.2218405  )
         9           Re1 tau(   9) = (  -0.0000007   3.2148969  14.3636517  )
        10           Re1 tau(  10) = (   1.4235898   0.7491682  14.3636504  )
        11           Re1 tau(  11) = (   4.0187906   0.7491715  14.3636490  )
        12           Cu1 tau(  12) = (   2.7211860   3.1421559  14.4720718  )

     number of k points=    20  Fermi-Dirac smearing, width (Ry)=  0.0110
                       cart. coord. in units 2pi/alat
        k(    1) = (   0.0000000   0.0000000   0.0000000), wk =   0.0555556
        k(    2) = (   0.0000000   0.0353614   0.0000000), wk =   0.1111111
        k(    3) = (   0.0000000   0.0707228   0.0000000), wk =   0.1111111
        k(    4) = (   0.0000000  -0.1060842   0.0000000), wk =   0.0555556
        k(    5) = (   0.0306239   0.0176807   0.0000000), wk =   0.1111111
        k(    6) = (   0.0306239   0.0530421   0.0000000), wk =   0.1111111
        k(    7) = (   0.0306239   0.0884035   0.0000000), wk =   0.1111111
        k(    8) = (   0.0306239  -0.0884035   0.0000000), wk =   0.1111111
        k(    9) = (   0.0306239  -0.0530421   0.0000000), wk =   0.1111111
        k(   10) = (   0.0306239  -0.0176807   0.0000000), wk =   0.1111111
        k(   11) = (   0.0612478   0.0353614   0.0000000), wk =   0.1111111
        k(   12) = (   0.0612478   0.0707228   0.0000000), wk =   0.1111111
        k(   13) = (   0.0612478   0.1060842   0.0000000), wk =   0.1111111
        k(   14) = (   0.0612478  -0.0707228   0.0000000), wk =   0.1111111
        k(   15) = (   0.0612478  -0.0353614   0.0000000), wk =   0.1111111
        k(   16) = (   0.0612478   0.0000000   0.0000000), wk =   0.1111111
        k(   17) = (  -0.0918716  -0.0530421   0.0000000), wk =   0.0555556
        k(   18) = (  -0.0918716  -0.0176807   0.0000000), wk =   0.1111111
        k(   19) = (  -0.0918716   0.0176807   0.0000000), wk =   0.1111111
        k(   20) = (  -0.0918716  -0.1591264   0.0000000), wk =   0.0555556

     Largest allocated arrays     est. size (Mb)     dimensions
     Largest temporary arrays     est. size (Mb)     dimensions

     Initial potential from superposition of free atoms
     Check: negative starting charge=   -1.163351

     starting charge  184.49959, renormalised to  192.00000

[...]

     *
     * You are using vdW-DF for exchange-correlation in this calculation.
     * Please cite the following three references that made this development
     * possible:
     *
     *   M. Dion, H. Rydberg, E. Schroder, D. C. Langreth, and
     *   B. I. Lundqvist, Phys. Rev. Lett. 92, 246401 (2004).
     *
     *   T. Thonhauser, V. R. Cooper, S. Li, A. Puzder, P. Hyldgaard, and
     *   D. C. Langreth, Phys. Rev. B 76, 125112 (2007).
     *
     *   G. Roman-Perez and J. M. Soler, Phys. Rev. Lett. 103, 096102 (2009).
     *
     *
     * If you are using vdW-DF2, please also cite:
     *
     *   K. Lee, E. D. Murray, L. Kong, B. I. Lundqvist, and
     *   D. C. Langreth, Phys. Rev. B 82, 081101(R) (2010).
     *
     *
     * If you are calculating the stress with vdW-DF, please also cite:
     *
     *   R. Sabatini, E. Kucukbenli, B. Kolb, T. Thonhauser, and
     *   S. de Gironcoli, J. Phys.: Condens. Matter 24, 424209 (2012).
     *

     Carrying out vdW-DF run using the following parameters:

     Nqs =      20    Nr_points =    1024   r_max =   100.000
     q_mesh =
               0.00001000     0.04494208     0.09755937     0.15916263
               0.23128650     0.31572767     0.41458969     0.53033537
               0.66584808     0.82450364     1.01025438     1.22772762
               1.48234092     1.78043706     2.12944203     2.53805004
               3.01644009     3.57652955     4.23227104     5.00000000

     Gradients computed in reciprocal space

[...]

     Starting wfc are  156 randomized atomic wfcs

     Self-consistent Calculation

[...]

     total energy              =   -2943.98802603 Ry
     Harris-Foulkes estimate   =   -2943.98802797 Ry
     estimated scf accuracy    <       0.00000222 Ry

     iteration # 18     ecut=    36.75 Ry     beta=0.10
     Davidson diagonalization with overlap
     ethr =  1.15E-09,  avg # of iterations =  2.3

[...]

     negative rho (up, down):  1.213E+00 0.000E+00

     Adding external electric field

     Computed dipole along edir(3) :
        Dipole                0.0165 Ry au,          0.0421 Debye
        Dipole field          0.0000 Ry au

        Potential amp.       -0.0044 Ry
        Total length         45.0371 bohr

     End of self-consistent calculation

[...]

          k = 0.0612 0.0000 0.0000 ( 15910 PWs)   bands (ev):

[...]

          k =-0.0919-0.1591 0.0000 ( 15968 PWs)   bands (ev):

  -111.4364-110.8468-110.8300 -78.7847 -78.7623 -78.7398 -78.3625 -78.3508
   -78.3299 -78.3182 -78.3089 -78.3033 -68.8211 -68.8210 -68.7863 -68.2590
   -68.2589 -68.2423 -68.2423 -68.1441 -68.1304 -40.8916 -40.7178 -40.6725
   -40.6028 -40.5695 -40.5552 -40.4812 -40.4632 -40.3702 -40.2913 -40.1462
   -40.1461 -40.0663 -40.0616 -40.0443 -39.9902 -39.9866 -39.9824 -39.9722
   -39.9535 -39.9068 -39.8695 -39.8498 -39.8491 -39.8439 -39.6360 -39.6213
    -5.2072  -4.9776  -3.5375  -3.3866  -3.2559  -3.0286  -2.9125  -2.7970
    -2.6566  -2.6440  -2.3536  -2.2315  -1.9905  -1.9288  -1.8381  -1.7957
    -1.7654  -1.4749  -1.4405  -1.4037  -1.2798  -1.0672  -1.0342  -1.0199
    -0.9591  -0.8567  -0.7413  -0.6550  -0.5859  -0.5348  -0.4267  -0.2104
    -0.1670  -0.0402   0.1248   0.1415   0.2221   0.3959   0.4004   0.6038
     0.6895   0.8714   0.9147   1.1360   1.3464   1.4060   1.4184   1.5580
     2.1114   2.2177   2.4441   2.7823   2.8104   2.8374   2.9234   2.9650
     3.2570   3.3839   3.4591   3.5719   4.0383   4.2826   4.5640   4.7647
     4.9313   5.1423   5.7921   5.9104   6.7212   7.6496   7.7021   7.7843
     7.8108   8.3125   8.3488   8.6413   8.8455   9.0683

     the Fermi energy is     2.1794 ev

!    total energy              =   -2943.98803470 Ry
     Harris-Foulkes estimate   =   -2943.98802631 Ry
     estimated scf accuracy    <       0.00000011 Ry

     The total energy is the sum of the following terms:

     one-electron contribution =  -22366.03051933 Ry
     hartree contribution      =   11172.73594345 Ry
     xc contribution           =    -606.63875509 Ry
     ewald contribution        =    8855.99585342 Ry
     electric field correction =       0.00000081 Ry
     smearing contrib. (-TS)   =      -0.05055796 Ry

     convergence has been achieved in  18 iterations

 BEEF-vdW xc energy contributions
           1 :   -539.179190298123
           2 :    498.925473138374
           3 :   -427.544610064182
           4 :    339.917267779479
           5 :   -251.722782425479
           6 :    174.981004005608
           7 :   -115.634917304247
           8 :    73.6925657987016
           9 :   -45.3428515683238
          10 :    25.7369273885922
          11 :   -11.1361562679180
          12 :  -0.269644152446062
          13 :    8.76298074577767
          14 :   -14.0717379535450
          15 :    16.2041857030490
          16 :   -15.7642357165066
          17 :    13.7787895107532
          18 :   -11.3217479510754
          19 :    9.21203353183444
          20 :   -7.90758724611146
          21 :    7.54757887517360
          22 :   -8.02821580100726
          23 :    9.04348967979342
          24 :   -10.1197222173834
          25 :    10.7153189590661
          26 :   -10.4113731999951
          27 :    9.11732129127552
          28 :   -7.16080660421653
          29 :    5.17171319676004
          30 :   -3.79067880483581
          31 :   -44.3678557938150
          32 :   -32.4183257369033

     Forces acting on atoms (Ry/au):

     negative rho (up, down):  1.213E+00 0.000E+00
     atom    1 type  1   force =    -0.00000136   -0.03571373    0.02448952
     atom    2 type  1   force =    -0.03092770    0.01785637    0.02448925
     atom    3 type  1   force =     0.03092783    0.01785801    0.02448877
     atom    4 type  2   force =    -0.00000259    0.00000066   -0.01154189
     atom    5 type  1   force =     0.00000111    0.00476405   -0.01802308
     atom    6 type  1   force =     0.00412458   -0.00238295   -0.01802299
     atom    7 type  1   force =    -0.00412538   -0.00238360   -0.01802325
     atom    8 type  2   force =     0.00000266   -0.00000146   -0.00832580
     atom    9 type  1   force =     0.00000039    0.00043252    0.00021957
     atom   10 type  1   force =     0.00037493   -0.00021594    0.00022122
     atom   11 type  1   force =    -0.00037484   -0.00021603    0.00022232
     atom   12 type  2   force =     0.00000037    0.00000209   -0.00019364

     Total force =     0.082893     Total SCF correction =     0.001410

     entering subroutine stress ...

     negative rho (up, down):  1.213E+00 0.000E+00
          total   stress  (Ry/bohr**3)                   (kbar)     P=  -33.51
  -0.00029040   0.00000000  -0.00000000        -42.72      0.00     -0.00
   0.00000000  -0.00029040   0.00000000          0.00    -42.72      0.00
  -0.00000000   0.00000000  -0.00010257         -0.00      0.00    -15.09

 !ASE

     Writing output data file calc.save

     General routines

     Parallel routines

   This run was terminated on:  19: 1: 2  31Dec2018

   JOB DONE.
Job  /afs/slac/g/suncat/bin/suncat-tsmpirun -x LD_LIBRARY_PATH -wdir /scratch/qe648833_1k2Jv pw.x -in pw.inp

TID   HOST_NAME   COMMAND_LINE            STATUS            TERMINATION_TIME
00000 suncat0056 pw.x -in pw.inp   Done                     12/31/2018 19:01:02
00001 suncat0056 pw.x -in pw.inp   Done                     12/31/2018 19:01:02
00002 suncat0056 pw.x -in pw.inp   Done                     12/31/2018 19:01:02
00003 suncat0056 pw.x -in pw.inp   Done                     12/31/2018 19:01:02
00004 suncat0056 pw.x -in pw.inp   Done                     12/31/2018 19:01:02
00005 suncat0056 pw.x -in pw.inp   Done                     12/31/2018 19:01:02
00006 suncat0056 pw.x -in pw.inp   Done                     12/31/2018 19:01:02
00007 suncat0056 pw.x -in pw.inp   Done                     12/31/2018 19:01:02
00008 suncat0052 pw.x -in pw.inp   Done                     12/31/2018 19:01:02
00009 suncat0052 pw.x -in pw.inp   Done                     12/31/2018 19:01:02
00010 suncat0052 pw.x -in pw.inp   Done                     12/31/2018 19:01:02
00011 suncat0052 pw.x -in pw.inp   Done                     12/31/2018 19:01:02
00012 suncat0052 pw.x -in pw.inp   Done                     12/31/2018 19:01:02
00013 suncat0052 pw.x -in pw.inp   Done                     12/31/2018 19:01:02
00014 suncat0052 pw.x -in pw.inp   Done                     12/31/2018 19:01:02
00015 suncat0052 pw.x -in pw.inp   Done                     12/31/2018 19:01:02
00016 suncat0048 pw.x -in pw.inp   Done                     12/31/2018 19:01:02
00017 suncat0048 pw.x -in pw.inp   Done                     12/31/2018 19:01:02
00018 suncat0048 pw.x -in pw.inp   Done                     12/31/2018 19:01:02
00019 suncat0048 pw.x -in pw.inp   Done                     12/31/2018 19:01:02
00020 suncat0048 pw.x -in pw.inp   Done                     12/31/2018 19:01:02
00021 suncat0048 pw.x -in pw.inp   Done                     12/31/2018 19:01:02
00022 suncat0048 pw.x -in pw.inp   Done                     12/31/2018 19:01:02
00023 suncat0048 pw.x -in pw.inp   Done                     12/31/2018 19:01:02
00024 suncat0047 pw.x -in pw.inp   Done                     12/31/2018 19:01:02
00025 suncat0047 pw.x -in pw.inp   Done                     12/31/2018 19:01:02
00026 suncat0047 pw.x -in pw.inp   Done                     12/31/2018 19:01:02
00027 suncat0047 pw.x -in pw.inp   Done                     12/31/2018 19:01:02
00028 suncat0047 pw.x -in pw.inp   Done                     12/31/2018 19:01:02
00029 suncat0047 pw.x -in pw.inp   Done                     12/31/2018 19:01:02
00030 suncat0047 pw.x -in pw.inp   Done                     12/31/2018 19:01:02
00031 suncat0047 pw.x -in pw.inp   Done                     12/31/2018 19:01:02
00032 suncat0041 pw.x -in pw.inp   Done                     12/31/2018 19:01:02
00033 suncat0041 pw.x -in pw.inp   Done                     12/31/2018 19:01:02
00034 suncat0041 pw.x -in pw.inp   Done                     12/31/2018 19:01:02
00035 suncat0041 pw.x -in pw.inp   Done                     12/31/2018 19:01:02
00036 suncat0041 pw.x -in pw.inp   Done                     12/31/2018 19:01:02
00037 suncat0041 pw.x -in pw.inp   Done                     12/31/2018 19:01:02
00038 suncat0041 pw.x -in pw.inp   Done                     12/31/2018 19:01:02
00039 suncat0041 pw.x -in pw.inp   Done                     12/31/2018 19:01:02
00040 suncat0039 pw.x -in pw.inp   Done                     12/31/2018 19:01:02
00041 suncat0039 pw.x -in pw.inp   Done                     12/31/2018 19:01:02
00042 suncat0039 pw.x -in pw.inp   Done                     12/31/2018 19:01:02
00043 suncat0039 pw.x -in pw.inp   Done                     12/31/2018 19:01:02
00044 suncat0039 pw.x -in pw.inp   Done                     12/31/2018 19:01:02
00045 suncat0039 pw.x -in pw.inp   Done                     12/31/2018 19:01:02
00046 suncat0039 pw.x -in pw.inp   Done                     12/31/2018 19:01:02
00047 suncat0039 pw.x -in pw.inp   Done                     12/31/2018 19:01:02
00048 suncat0207 pw.x -in pw.inp   Done                     12/31/2018 19:01:02
00049 suncat0207 pw.x -in pw.inp   Done                     12/31/2018 19:01:02
00050 suncat0207 pw.x -in pw.inp   Done                     12/31/2018 19:01:02
00051 suncat0207 pw.x -in pw.inp   Done                     12/31/2018 19:01:02
00052 suncat0207 pw.x -in pw.inp   Done                     12/31/2018 19:01:02
00053 suncat0207 pw.x -in pw.inp   Done                     12/31/2018 19:01:02
00054 suncat0207 pw.x -in pw.inp   Done                     12/31/2018 19:01:02
00055 suncat0207 pw.x -in pw.inp   Done                     12/31/2018 19:01:02
00056 suncat0206 pw.x -in pw.inp   Done                     12/31/2018 19:01:02
00057 suncat0206 pw.x -in pw.inp   Done                     12/31/2018 19:01:02
00058 suncat0206 pw.x -in pw.inp   Done                     12/31/2018 19:01:02
00059 suncat0206 pw.x -in pw.inp   Done                     12/31/2018 19:01:02
00060 suncat0206 pw.x -in pw.inp   Done                     12/31/2018 19:01:02
00061 suncat0206 pw.x -in pw.inp   Done                     12/31/2018 19:01:02
00062 suncat0206 pw.x -in pw.inp   Done                     12/31/2018 19:01:02
00063 suncat0206 pw.x -in pw.inp   Done                     12/31/2018 19:01:02