     Program PWSCF v.5.1rc2 (svn rev. 11289) starts on 25Dec2018 at 17:13:24

     Current dimensions of program PWSCF are:
     Max number of different atomic species (ntypx) = 10
     Max number of k-points (npk) =  40000
     Max angular momentum in pseudopotentials (lmaxx) =  3
     Presently stress not available with electric field

     IMPORTANT: XC functional enforced from input :
     Exchange-correlation      = BEEF-VDW ( 1  4 27 13 2)
     Any further DFT definition will be discarded
     Please, verify this is what you really want

     Subspace diagonalization in iterative solution of the eigenvalue problem:
     a serial algorithm will be used

     bravais-lattice index     =            0
     lattice parameter (alat)  =       1.8897  a.u.
     unit-cell volume          =    4635.9634 (a.u.)^3
     number of atoms/cell      =           12
     number of atomic types    =            2
     number of electrons       =       213.00
     number of Kohn-Sham states=          136
     kinetic-energy cutoff     =      36.7493  Ry
     charge density cutoff     =     367.4932  Ry
     convergence threshold     =      1.0E-06
     mixing beta               =       0.1000
     number of iterations used =           10  plain     mixing
     Exchange-correlation      = BEEF-VDW ( 1  4 27 13 2)
     nstep                     =           50

     celldm(1)=   1.889726  celldm(2)=   0.000000  celldm(3)=   0.000000
     celldm(4)=   0.000000  celldm(5)=   0.000000  celldm(6)=   0.000000

     crystal axes: (cart. coord. in units of alat)
               a(1) = (   5.674718   0.000000   0.000000 )
               a(2) = (  -2.837359   4.914450   0.000000 )
               a(3) = (   0.000000   0.000000  24.633388 )

     reciprocal axes: (cart. coord. in units 2 pi/alat)
               b(1) = (  0.176220  0.101741  0.000000 )
               b(2) = (  0.000000  0.203482  0.000000 )
               b(3) = (  0.000000  0.000000  0.040595 )

     PseudoPot. # 1 for Cu read from file:
     /afs/slac.stanford.edu/u/if/mamunm/psp/gbrv1.5pbe/Cu.UPF
     MD5 check sum: 6e991ff952a84172a2a52a1c1e996048
     Pseudo is Ultrasoft + core correction, Zval = 19.0
     Generated by new atomic code, or converted to UPF format
     Using radial grid of  867 points,  6 beta functions with:
                l(1) =   0
                l(2) =   0
                l(3) =   1
                l(4) =   1
                l(5) =   2
                l(6) =   2
     Q(r) pseudized with  8 coefficients,  rinner =    1.150   1.150   1.150
                                                       1.150   1.150

     PseudoPot. # 2 for Pb read from file:
     /afs/slac.stanford.edu/u/if/mamunm/psp/gbrv1.5pbe/Pb.UPF
     MD5 check sum: 3d1c1779aa92214d1e8f3a7db79003e2
     Pseudo is Ultrasoft + core correction, Zval = 14.0
     Generated by new atomic code, or converted to UPF format
     Using radial grid of  899 points,  6 beta functions with:
                l(1) =   0
                l(2) =   0
                l(3) =   1
                l(4) =   1
                l(5) =   2
                l(6) =   2
     Q(r) pseudized with  6 coefficients,  rinner =    1.000   1.000   1.000
                                                       1.000   1.000

     vdW kernel table read from file vdW_kernel_table
     MD5 check sum: 095c7af220d748ca6e76c0b4c6cfb241

     atomic species   valence    mass     pseudopotential
        Cu1           19.00    63.54600     Cu( 1.00)
        Pb1           14.00   207.20000     Pb( 1.00)

     No symmetry found

   Cartesian axes

     site n.     atom                  positions (alat units)
         1           Cu1 tau(   1) = (   0.0000000   0.0000000  10.0000000  )
         2           Cu1 tau(   2) = (  -1.4186796   2.4572251  10.0000000  )
         3           Cu1 tau(   3) = (   1.4186796   2.4572251  10.0000000  )
         4           Pb1 tau(   4) = (   2.8373592   0.0000000  10.0000000  )
         5           Cu1 tau(   5) = (   2.8373592   1.6381501  12.3166941  )
         6           Cu1 tau(   6) = (   1.4186796   4.0953752  12.3166941  )
         7           Cu1 tau(   7) = (  -1.4186796   4.0953752  12.3166941  )
         8           Pb1 tau(   8) = (   0.0000000   1.6381501  12.3166941  )
         9           Cu1 tau(   9) = (  -0.0000000   3.2763002  14.6333881  )
        10           Cu1 tau(  10) = (   1.4186796   0.8190750  14.6333881  )
        11           Cu1 tau(  11) = (   4.2560387   0.8190750  14.6333881  )
        12           Pb1 tau(  12) = (   2.8373592   3.2763002  14.6333881  )

     number of k points=    20  Fermi-Dirac smearing, width (Ry)=  0.0110
                       cart. coord. in units 2pi/alat
        k(    1) = (   0.0000000   0.0000000   0.0000000), wk =   0.0555556
        k(    2) = (   0.0000000   0.0339136   0.0000000), wk =   0.1111111
        k(    3) = (   0.0000000   0.0678272   0.0000000), wk =   0.1111111
        k(    4) = (   0.0000000  -0.1017408   0.0000000), wk =   0.0555556
        k(    5) = (   0.0293700   0.0169568   0.0000000), wk =   0.1111111
        k(    6) = (   0.0293700   0.0508704   0.0000000), wk =   0.1111111
        k(    7) = (   0.0293700   0.0847840   0.0000000), wk =   0.1111111
        k(    8) = (   0.0293700  -0.0847840   0.0000000), wk =   0.1111111
        k(    9) = (   0.0293700  -0.0508704   0.0000000), wk =   0.1111111
        k(   10) = (   0.0293700  -0.0169568   0.0000000), wk =   0.1111111
        k(   11) = (   0.0587401   0.0339136   0.0000000), wk =   0.1111111
        k(   12) = (   0.0587401   0.0678272   0.0000000), wk =   0.1111111
        k(   13) = (   0.0587401   0.1017408   0.0000000), wk =   0.1111111
        k(   14) = (   0.0587401  -0.0678272   0.0000000), wk =   0.1111111
        k(   15) = (   0.0587401  -0.0339136   0.0000000), wk =   0.1111111
        k(   16) = (   0.0587401   0.0000000   0.0000000), wk =   0.1111111
        k(   17) = (  -0.0881101  -0.0508704   0.0000000), wk =   0.0555556
        k(   18) = (  -0.0881101  -0.0169568   0.0000000), wk =   0.1111111
        k(   19) = (  -0.0881101   0.0169568   0.0000000), wk =   0.1111111
        k(   20) = (  -0.0881101  -0.1526112   0.0000000), wk =   0.0555556

     Largest allocated arrays     est. size (Mb)     dimensions
     Largest temporary arrays     est. size (Mb)     dimensions

     Check: negative/imaginary core charge=   -0.000001    0.000000

     Initial potential from superposition of free atoms
     Check: negative starting charge=   -0.050307

     starting charge  203.99293, renormalised to  213.00000

     negative rho (up, down):  5.253E-02 0.000E+00

     *
     * You are using vdW-DF for exchange-correlation in this calculation.
     * Please cite the following three references that made this development
     * possible:
     *
     *   M. Dion, H. Rydberg, E. Schroder, D. C. Langreth, and
     *   B. I. Lundqvist, Phys. Rev. Lett. 92, 246401 (2004).
     *
     *   T. Thonhauser, V. R. Cooper, S. Li, A. Puzder, P. Hyldgaard, and
     *   D. C. Langreth, Phys. Rev. B 76, 125112 (2007).
     *
     *   G. Roman-Perez and J. M. Soler, Phys. Rev. Lett. 103, 096102 (2009).
     *
     *
     * If you are using vdW-DF2, please also cite:
     *
     *   K. Lee, E. D. Murray, L. Kong, B. I. Lundqvist, and
     *   D. C. Langreth, Phys. Rev. B 82, 081101(R) (2010).
     *
     *
     * If you are calculating the stress with vdW-DF, please also cite:
     *
     *   R. Sabatini, E. Kucukbenli, B. Kolb, T. Thonhauser, and
     *   S. de Gironcoli, J. Phys.: Condens. Matter 24, 424209 (2012).
     *

     Carrying out vdW-DF run using the following parameters:

     Nqs =      20    Nr_points =    1024   r_max =   100.000
     q_mesh =
               0.00001000     0.04494208     0.09755937     0.15916263
               0.23128650     0.31572767     0.41458969     0.53033537
               0.66584808     0.82450364     1.01025438     1.22772762
               1.48234092     1.78043706     2.12944203     2.53805004
               3.01644009     3.57652955     4.23227104     5.00000000

     Gradients computed in reciprocal space

     Adding external electric field

     Computed dipole along edir(3) :
        Dipole               -0.0000 Ry au,         -0.0000 Debye
        Dipole field         -0.0000 Ry au

        Potential amp.        0.0000 Ry
        Total length         45.3866 bohr

     Starting wfc are  144 randomized atomic wfcs

     Self-consistent Calculation

     iteration #  1     ecut=    36.75 Ry     beta=0.10
     Davidson diagonalization with overlap
     ethr =  1.00E-02,  avg # of iterations =  7.4

[...]

     total energy              =   -4141.75578641 Ry
     Harris-Foulkes estimate   =   -4145.96852380 Ry
     estimated scf accuracy    <      24.13126981 Ry

[...]

     iteration #  9     ecut=    36.75 Ry     beta=0.10
     Davidson diagonalization with overlap
     c_bands:  1 eigenvalues not converged
     c_bands:  1 eigenvalues not converged
     ethr =  3.18E-06,  avg # of iterations =  9.1

[...]

     End of self-consistent calculation

          k = 0.0000 0.0000 0.0000 ( 17531 PWs)   bands (ev):

  -111.9533-111.9518-111.9518-111.6236-111.6235-111.6221-111.6221-111.6221
  -111.6221 -69.3970 -69.3956 -69.3956 -69.3870 -69.3870 -69.3867 -69.2951
   -69.2837 -69.2837 -69.0819 -69.0819 -69.0818 -69.0818 -69.0741 -69.0741
   -69.0470 -69.0469 -69.0323 -69.0323 -69.0322 -69.0322 -68.9829 -68.9826
   -68.9774 -68.9774 -68.9773 -68.9773 -16.6359 -16.6281 -16.6281 -16.6133
   -16.6133 -16.4228 -16.4204 -16.4128 -16.4128 -16.4124 -16.4124 -16.3901
   -16.3901 -16.3829 -16.3829 -10.0043  -8.6215  -7.7337  -3.6252  -3.6165
    -3.2882  -3.0876  -3.0876  -2.8556  -2.8556  -2.7585  -2.7585  -2.6352
    -2.6308  -2.6308  -2.4478  -2.2942  -2.2942  -2.2792  -2.1829  -2.1829
    -2.1016  -2.0769  -1.9888  -1.9888  -1.9089  -1.9089  -1.8680  -1.8022
    -1.8022  -1.6162  -1.6162  -1.5659  -1.5619  -1.5619  -1.5115  -1.5115
    -1.4826  -1.4172  -1.4172  -1.4156  -1.3773  -1.3773  -1.3093  -1.2220
    -1.2220  -1.0865  -1.0775  -1.0679  -1.0679  -0.9041  -0.8263  -0.6722
    -0.2741  -0.2741   0.0580   0.0580   0.5387   0.6628   2.2071   2.5274
     2.5274   2.6499   3.7423   3.8464   3.8464   4.4021   4.4677   4.4677
     4.8656   5.6197   5.7892   6.3284   6.3566   7.1156   7.1156   7.3569
     7.3569   7.5529   7.9493   9.1418   9.2419   9.2419   9.5498   9.5502

[...]

          k =-0.0881-0.0509 0.0000 ( 17428 PWs)   bands (ev):

[...]

     the Fermi energy is     0.6759 ev

!    total energy              =   -4142.29000947 Ry
     Harris-Foulkes estimate   =   -4142.29003590 Ry
     estimated scf accuracy    <       0.00000030 Ry

     The total energy is the sum of the following terms:

     one-electron contribution =  -26521.66159173 Ry
     hartree contribution      =   13290.25179131 Ry
     xc contribution           =    -556.17968892 Ry
     ewald contribution        =    9645.32119526 Ry
     electric field correction =       0.00000000 Ry
     smearing contrib. (-TS)   =      -0.02171540 Ry

     convergence has been achieved in  19 iterations

 BEEF-vdW xc energy contributions
[...]
     Using radial grid of  867 points,  6 beta functions with:
                l(1) =   0
                l(2) =   0
                l(3) =   1
                l(4) =   1
                l(5) =   2
                l(6) =   2
     Q(r) pseudized with  8 coefficients,  rinner =    1.150   1.150   1.150
                                                       1.150   1.150

     PseudoPot. # 2 for Pb read from file:
     /afs/slac.stanford.edu/u/if/mamunm/psp/gbrv1.5pbe/Pb.UPF
     MD5 check sum: 3d1c1779aa92214d1e8f3a7db79003e2
     Pseudo is Ultrasoft + core correction, Zval = 14.0
     Generated by new atomic code, or converted to UPF format
     Using radial grid of  899 points,  6 beta functions with:
                l(1) =   0
                l(2) =   0
                l(3) =   1
                l(4) =   1
                l(5) =   2
                l(6) =   2
     Q(r) pseudized with  6 coefficients,  rinner =    1.000   1.000   1.000
                                                       1.000   1.000

     vdW kernel table read from file vdW_kernel_table
     MD5 check sum: 095c7af220d748ca6e76c0b4c6cfb241

     atomic species   valence    mass     pseudopotential
        Cu1           19.00    63.54600     Cu( 1.00)
        Pb1           14.00   207.20000     Pb( 1.00)

     No symmetry found

   Cartesian axes

     site n.     atom                  positions (alat units)
         1           Cu1 tau(   1) = (   0.0000000   0.0000000  10.0000000  )
         2           Cu1 tau(   2) = (  -1.4186796   2.4572251  10.0000000  )
         3           Cu1 tau(   3) = (   1.4186796   2.4572251  10.0000000  )
         4           Pb1 tau(   4) = (   2.8373592   0.0000000  10.0000000  )
         5           Cu1 tau(   5) = (   2.8373592   1.6381501  12.3166941  )
         6           Cu1 tau(   6) = (   1.4186796   4.0953752  12.3166941  )
         7           Cu1 tau(   7) = (  -1.4186796   4.0953752  12.3166941  )
         8           Pb1 tau(   8) = (   0.0000000   1.6381501  12.3166941  )
         9           Cu1 tau(   9) = (  -0.0001120   3.4334092  14.4514604  )
        10           Cu1 tau(  10) = (   1.5546792   0.7405604  14.4514188  )
        11           Cu1 tau(  11) = (   4.1199453   0.7405493  14.4512971  )
        12           Pb1 tau(  12) = (   2.8372859   3.2763405  15.0841931  )

     number of k points=    20  Fermi-Dirac smearing, width (Ry)=  0.0110
                       cart. coord. in units 2pi/alat
        k(    1) = (   0.0000000   0.0000000   0.0000000), wk =   0.0555556
        k(    2) = (   0.0000000   0.0339136   0.0000000), wk =   0.1111111
        k(    3) = (   0.0000000   0.0678272   0.0000000), wk =   0.1111111
        k(    4) = (   0.0000000  -0.1017408   0.0000000), wk =   0.0555556
        k(    5) = (   0.0293700   0.0169568   0.0000000), wk =   0.1111111
        k(    6) = (   0.0293700   0.0508704   0.0000000), wk =   0.1111111
        k(    7) = (   0.0293700   0.0847840   0.0000000), wk =   0.1111111
        k(    8) = (   0.0293700  -0.0847840   0.0000000), wk =   0.1111111
        k(    9) = (   0.0293700  -0.0508704   0.0000000), wk =   0.1111111
        k(   10) = (   0.0293700  -0.0169568   0.0000000), wk =   0.1111111
        k(   11) = (   0.0587401   0.0339136   0.0000000), wk =   0.1111111
        k(   12) = (   0.0587401   0.0678272   0.0000000), wk =   0.1111111
        k(   13) = (   0.0587401   0.1017408   0.0000000), wk =   0.1111111
        k(   14) = (   0.0587401  -0.0678272   0.0000000), wk =   0.1111111
        k(   15) = (   0.0587401  -0.0339136   0.0000000), wk =   0.1111111
        k(   16) = (   0.0587401   0.0000000   0.0000000), wk =   0.1111111
        k(   17) = (  -0.0881101  -0.0508704   0.0000000), wk =   0.0555556
        k(   18) = (  -0.0881101  -0.0169568   0.0000000), wk =   0.1111111
        k(   19) = (  -0.0881101   0.0169568   0.0000000), wk =   0.1111111
        k(   20) = (  -0.0881101  -0.1526112   0.0000000), wk =   0.0555556

     Largest allocated arrays     est. size (Mb)     dimensions
     Largest temporary arrays     est. size (Mb)     dimensions

     Check: negative/imaginary core charge=   -0.000001    0.000000

     Initial potential from superposition of free atoms
     Check: negative starting charge=   -0.050140

     starting charge  203.99293, renormalised to  213.00000

[...]

     *
     * You are using vdW-DF for exchange-correlation in this calculation.
     * Please cite the following three references that made this development
     * possible:
     *
     *   M. Dion, H. Rydberg, E. Schroder, D. C. Langreth, and
     *   B. I. Lundqvist, Phys. Rev. Lett. 92, 246401 (2004).
     *
     *   T. Thonhauser, V. R. Cooper, S. Li, A. Puzder, P. Hyldgaard, and
     *   D. C. Langreth, Phys. Rev. B 76, 125112 (2007).
     *
     *   G. Roman-Perez and J. M. Soler, Phys. Rev. Lett. 103, 096102 (2009).
     *
     *
     * If you are using vdW-DF2, please also cite:
     *
     *   K. Lee, E. D. Murray, L. Kong, B. I. Lundqvist, and
     *   D. C. Langreth, Phys. Rev. B 82, 081101(R) (2010).
     *
     *
     * If you are calculating the stress with vdW-DF, please also cite:
     *
     *   R. Sabatini, E. Kucukbenli, B. Kolb, T. Thonhauser, and
     *   S. de Gironcoli, J. Phys.: Condens. Matter 24, 424209 (2012).
     *

     Carrying out vdW-DF run using the following parameters:

     Nqs =      20    Nr_points =    1024   r_max =   100.000
     q_mesh =
               0.00001000     0.04494208     0.09755937     0.15916263
               0.23128650     0.31572767     0.41458969     0.53033537
               0.66584808     0.82450364     1.01025438     1.22772762
               1.48234092     1.78043706     2.12944203     2.53805004
               3.01644009     3.57652955     4.23227104     5.00000000

     Gradients computed in reciprocal space

[...]

     Starting wfc are  144 randomized atomic wfcs

     Self-consistent Calculation

[...]

     total energy              =   -4142.33431064 Ry
     Harris-Foulkes estimate   =   -4142.33430970 Ry
     estimated scf accuracy    <       0.00000182 Ry

     iteration # 18     ecut=    36.75 Ry     beta=0.10
     Davidson diagonalization with overlap
     ethr =  8.56E-10,  avg # of iterations =  2.0

[...]

     negative rho (up, down):  5.430E-02 0.000E+00

     Adding external electric field

     Computed dipole along edir(3) :
        Dipole                0.0799 Ry au,          0.2031 Debye
        Dipole field          0.0002 Ry au

        Potential amp.       -0.0197 Ry
        Total length         45.3866 bohr

     End of self-consistent calculation

[...]

          k = 0.0587 0.0000 0.0000 ( 17453 PWs)   bands (ev):

[...]

          k =-0.0881-0.1526 0.0000 ( 17428 PWs)   bands (ev):

  -111.8124-111.8119-111.8114-111.6151-111.6120-111.6118-111.5273-111.5269
  -111.5264 -69.2584 -69.2558 -69.2535 -69.2275 -69.2253 -69.2230 -69.1712
   -69.1671 -69.1625 -69.0515 -69.0497 -69.0495 -69.0355 -69.0257 -69.0242
   -68.9857 -68.9851 -68.9830 -68.9808 -68.9756 -68.9746 -68.9413 -68.9372
   -68.9330 -68.8880 -68.8858 -68.8833 -16.5306 -16.5247 -16.5155 -16.4973
   -16.4954 -16.3442 -16.3413 -16.3239 -16.3210 -16.3135 -16.3125 -16.3110
   -16.3032 -16.2814 -16.2766  -8.9594  -8.2580  -7.7633  -5.0671  -4.0353
    -3.9071  -3.8773  -2.9585  -2.7469  -2.7346  -2.6434  -2.6285  -2.5657
    -2.5164  -2.4900  -2.3780  -2.3174  -2.3071  -2.2885  -2.2038  -2.1579
    -2.1507  -2.0823  -2.0627  -1.9908  -1.9070  -1.8439  -1.8277  -1.7916
    -1.7832  -1.7550  -1.7269  -1.7079  -1.6679  -1.6545  -1.6191  -1.6010
    -1.5558  -1.5372  -1.5172  -1.5072  -1.4486  -1.4335  -1.4117  -1.3744
    -1.3000  -1.2725  -1.2614  -1.1428  -1.0867  -0.8665  -0.4547  -0.4058
     0.0828   0.1878   0.6580   1.6170   1.8122   2.1961   3.4986   4.0293
     4.2990   4.6312   4.6869   4.7895   5.0280   5.6100   5.6632   5.7207
     5.9121   6.1668   6.3575   6.4029   6.4592   6.6854   6.8439   7.0194
     7.1999   7.2869   7.4263   7.4765   7.7296   7.8526   8.4222   8.4466

     the Fermi energy is     0.7682 ev

!    total energy              =   -4142.33429071 Ry
     Harris-Foulkes estimate   =   -4142.33431071 Ry
     estimated scf accuracy    <       0.00000045 Ry

     The total energy is the sum of the following terms:

     one-electron contribution =  -26707.45260994 Ry
     hartree contribution      =   13383.79625198 Ry
     xc contribution           =    -556.14733240 Ry
     ewald contribution        =    9737.49051709 Ry
     electric field correction =       0.00001731 Ry
     smearing contrib. (-TS)   =      -0.02113474 Ry

     convergence has been achieved in  18 iterations

 BEEF-vdW xc energy contributions
           1 :   -494.015936947038
           2 :    451.780023812412
           3 :   -379.467854222299
           4 :    295.843227856061
           5 :   -218.457881909793
           6 :    157.583313492657
           7 :   -114.493683267960
           8 :    84.1396451117420
           9 :   -59.9975701232734
          10 :    38.0979496638623
          11 :   -18.2708046085861
          12 :    2.63168234385569
          13 :    7.03299928237186
          14 :   -11.0144913506080
          15 :    11.5729422798892
          16 :   -11.4196823120931
          17 :    12.1060987425932
          18 :   -13.4609330939099
          19 :    14.2881668804204
          20 :   -13.6270384014485
          21 :    11.5883833240566
          22 :   -9.23065483617438
          23 :    7.70333280807495
          24 :   -7.39497634069187
          25 :    7.73292334219207
          26 :   -7.73025144460178
          27 :    6.80338141928382
          28 :   -5.22038015530313
          29 :    3.86087023664913
          30 :   -3.50524257047039
          31 :   -39.3006041645367
          32 :   -27.5327174644920

     Forces acting on atoms (Ry/au):

     negative rho (up, down):  5.430E-02 0.000E+00
     atom    1 type  1   force =    -0.00000265   -0.00916634    0.00789899
     atom    2 type  1   force =    -0.00793988    0.00458535    0.00790029
     atom    3 type  1   force =     0.00794130    0.00458309    0.00790391
     atom    4 type  2   force =    -0.00000038    0.00000026   -0.03192424
     atom    5 type  1   force =    -0.00000140    0.01187055    0.00470351
     atom    6 type  1   force =     0.01027305   -0.00593410    0.00469683
     atom    7 type  1   force =    -0.01027324   -0.00593139    0.00470520
     atom    8 type  2   force =     0.00000632    0.00000298   -0.00387992
     atom    9 type  1   force =    -0.00000171    0.00143401   -0.00012771
     atom   10 type  1   force =     0.00124842   -0.00072209   -0.00012545
     atom   11 type  1   force =    -0.00124729   -0.00071852   -0.00011212
     atom   12 type  2   force =    -0.00000254   -0.00000382   -0.00163930

     Total force =     0.044399     Total SCF correction =     0.002302

     entering subroutine stress ...

     negative rho (up, down):  5.430E-02 0.000E+00
          total   stress  (Ry/bohr**3)                   (kbar)     P=  -15.65
  -0.00013594  -0.00000001   0.00000000        -20.00     -0.00      0.00
  -0.00000001  -0.00013594  -0.00000000         -0.00    -20.00     -0.00
   0.00000000  -0.00000000  -0.00004734          0.00     -0.00     -6.96

 !ASE

     Writing output data file calc.save

     General routines

     Parallel routines

   This run was terminated on:  21:33:25  25Dec2018

   JOB DONE.
Job  /afs/slac/g/suncat/bin/suncat-tsmpirun -x LD_LIBRARY_PATH -wdir /scratch/qe109583_kVOIq pw.x -in pw.inp

TID   HOST_NAME   COMMAND_LINE            STATUS            TERMINATION_TIME
00000 suncat0041 pw.x -in pw.inp   Done                     12/25/2018 21:33:25
00001 suncat0041 pw.x -in pw.inp   Done                     12/25/2018 21:33:25
00002 suncat0041 pw.x -in pw.inp   Done                     12/25/2018 21:33:25
00003 suncat0041 pw.x -in pw.inp   Done                     12/25/2018 21:33:25
00004 suncat0041 pw.x -in pw.inp   Done                     12/25/2018 21:33:25
00005 suncat0041 pw.x -in pw.inp   Done                     12/25/2018 21:33:25
00006 suncat0041 pw.x -in pw.inp   Done                     12/25/2018 21:33:25
00007 suncat0041 pw.x -in pw.inp   Done                     12/25/2018 21:33:25
00008 suncat0034 pw.x -in pw.inp   Done                     12/25/2018 21:33:25
00009 suncat0034 pw.x -in pw.inp   Done                     12/25/2018 21:33:25
00010 suncat0034 pw.x -in pw.inp   Done                     12/25/2018 21:33:25
00011 suncat0034 pw.x -in pw.inp   Done                     12/25/2018 21:33:25
00012 suncat0034 pw.x -in pw.inp   Done                     12/25/2018 21:33:25
00013 suncat0034 pw.x -in pw.inp   Done                     12/25/2018 21:33:25
00014 suncat0034 pw.x -in pw.inp   Done                     12/25/2018 21:33:25
00015 suncat0034 pw.x -in pw.inp   Done                     12/25/2018 21:33:25
00016 suncat0026 pw.x -in pw.inp   Done                     12/25/2018 21:33:25
00017 suncat0026 pw.x -in pw.inp   Done                     12/25/2018 21:33:25
00018 suncat0026 pw.x -in pw.inp   Done                     12/25/2018 21:33:25
00019 suncat0026 pw.x -in pw.inp   Done                     12/25/2018 21:33:25
00020 suncat0026 pw.x -in pw.inp   Done                     12/25/2018 21:33:25
00021 suncat0026 pw.x -in pw.inp   Done                     12/25/2018 21:33:25
00022 suncat0026 pw.x -in pw.inp   Done                     12/25/2018 21:33:25
00023 suncat0026 pw.x -in pw.inp   Done                     12/25/2018 21:33:25
00024 suncat0025 pw.x -in pw.inp   Done                     12/25/2018 21:33:25
00025 suncat0025 pw.x -in pw.inp   Done                     12/25/2018 21:33:25
00026 suncat0025 pw.x -in pw.inp   Done                     12/25/2018 21:33:25
00027 suncat0025 pw.x -in pw.inp   Done                     12/25/2018 21:33:25
00028 suncat0025 pw.x -in pw.inp   Done                     12/25/2018 21:33:25
00029 suncat0025 pw.x -in pw.inp   Done                     12/25/2018 21:33:25
00030 suncat0025 pw.x -in pw.inp   Done                     12/25/2018 21:33:25
00031 suncat0025 pw.x -in pw.inp   Done                     12/25/2018 21:33:25
00032 suncat0013 pw.x -in pw.inp   Done                     12/25/2018 21:33:25
00033 suncat0013 pw.x -in pw.inp   Done                     12/25/2018 21:33:25
00034 suncat0013 pw.x -in pw.inp   Done                     12/25/2018 21:33:25
00035 suncat0013 pw.x -in pw.inp   Done                     12/25/2018 21:33:25
00036 suncat0013 pw.x -in pw.inp   Done                     12/25/2018 21:33:25
00037 suncat0013 pw.x -in pw.inp   Done                     12/25/2018 21:33:25
00038 suncat0013 pw.x -in pw.inp   Done                     12/25/2018 21:33:25
00039 suncat0013 pw.x -in pw.inp   Done                     12/25/2018 21:33:25
00040 suncat0001 pw.x -in pw.inp   Done                     12/25/2018 21:33:25
00041 suncat0001 pw.x -in pw.inp   Done                     12/25/2018 21:33:25
00042 suncat0001 pw.x -in pw.inp   Done                     12/25/2018 21:33:25
00043 suncat0001 pw.x -in pw.inp   Done                     12/25/2018 21:33:25
00044 suncat0001 pw.x -in pw.inp   Done                     12/25/2018 21:33:25
00045 suncat0001 pw.x -in pw.inp   Done                     12/25/2018 21:33:25
00046 suncat0001 pw.x -in pw.inp   Done                     12/25/2018 21:33:25
00047 suncat0001 pw.x -in pw.inp   Done                     12/25/2018 21:33:25
00048 suncat0117 pw.x -in pw.inp   Done                     12/25/2018 21:33:25
00049 suncat0117 pw.x -in pw.inp   Done                     12/25/2018 21:33:25
00050 suncat0117 pw.x -in pw.inp   Done                     12/25/2018 21:33:25
00051 suncat0117 pw.x -in pw.inp   Done                     12/25/2018 21:33:25
00052 suncat0117 pw.x -in pw.inp   Done                     12/25/2018 21:33:25
00053 suncat0117 pw.x -in pw.inp   Done                     12/25/2018 21:33:25
00054 suncat0117 pw.x -in pw.inp   Done                     12/25/2018 21:33:25
00055 suncat0117 pw.x -in pw.inp   Done                     12/25/2018 21:33:25
00056 suncat0116 pw.x -in pw.inp   Done                     12/25/2018 21:33:25
00057 suncat0116 pw.x -in pw.inp   Done                     12/25/2018 21:33:25
00058 suncat0116 pw.x -in pw.inp   Done                     12/25/2018 21:33:25
00059 suncat0116 pw.x -in pw.inp   Done                     12/25/2018 21:33:25
00060 suncat0116 pw.x -in pw.inp   Done                     12/25/2018 21:33:25
00061 suncat0116 pw.x -in pw.inp   Done                     12/25/2018 21:33:25
00062 suncat0116 pw.x -in pw.inp   Done                     12/25/2018 21:33:25
00063 suncat0116 pw.x -in pw.inp   Done                     12/25/2018 21:33:25