     Program PWSCF v.5.1rc2 (svn rev. 11289) starts on 31Dec2018 at  6:51:19

     Current dimensions of program PWSCF are:
     Max number of different atomic species (ntypx) = 10
     Max number of k-points (npk) =  40000
     Max angular momentum in pseudopotentials (lmaxx) =  3
     Presently stress not available with electric field

     IMPORTANT: XC functional enforced from input :
     Exchange-correlation      = BEEF-VDW ( 1  4 27 13 2)
     Any further DFT definition will be discarded
     Please, verify this is what you really want

     Subspace diagonalization in iterative solution of the eigenvalue problem:
     a serial algorithm will be used

     bravais-lattice index     =            0
     lattice parameter (alat)  =       1.8897  a.u.
     unit-cell volume          =    4553.5537 (a.u.)^3
     number of atoms/cell      =           12
     number of atomic types    =            2
     number of electrons       =       180.00
     number of Kohn-Sham states=          120
     kinetic-energy cutoff     =      36.7493  Ry
     charge density cutoff     =     367.4932  Ry
     convergence threshold     =      1.0E-06
     mixing beta               =       0.1000
     number of iterations used =           10  plain     mixing
     Exchange-correlation      = BEEF-VDW ( 1  4 27 13 2)
     nstep                     =           50

     celldm(1)=   1.889726  celldm(2)=   0.000000  celldm(3)=   0.000000
     celldm(4)=   0.000000  celldm(5)=   0.000000  celldm(6)=   0.000000

     crystal axes: (cart. coord. in units of alat)
               a(1) = (   5.628379   0.000000   0.000000 )
               a(2) = (  -2.814189   4.874319   0.000000 )
               a(3) = (   0.000000   0.000000  24.595552 )

     reciprocal axes: (cart. coord. in units 2 pi/alat)
               b(1) = (  0.177671  0.102578  0.000000 )
               b(2) = (  0.000000  0.205157  0.000000 )
               b(3) = (  0.000000  0.000000  0.040658 )

     PseudoPot. # 1 for Os read from file:
     /afs/slac.stanford.edu/u/if/mamunm/psp/gbrv1.5pbe/Os.UPF
     MD5 check sum: a3fb40a04f0c37c25c34bbc47164c9a8
     Pseudo is Ultrasoft + core correction, Zval = 16.0
     Generated by new atomic code, or converted to UPF format
     Using radial grid of  983 points,  8 beta functions with:
                l(1) =   0
                l(2) =   0
                l(3) =   1
                l(4) =   1
                l(5) =   2
                l(6) =   2
                l(7) =   3
                l(8) =   3
     Q(r) pseudized with  8 coefficients,  rinner =    1.150   1.150   1.150
                                                       1.150   1.150   1.150
                                                       1.150

     PseudoPot. # 2 for Hf read from file:
     /afs/slac.stanford.edu/u/if/mamunm/psp/gbrv1.5pbe/Hf.UPF
     MD5 check sum: 8ee9378dfe14276e333edf04c5e4aa26
     Pseudo is Ultrasoft + core correction, Zval = 12.0
     Generated by new atomic code, or converted to UPF format
     Using radial grid of  921 points,  8 beta functions with:
                l(1) =   0
                l(2) =   0
                l(3) =   0
                l(4) =   1
                l(5) =   1
                l(6) =   2
                l(7) =   2
                l(8) =   3
     Q(r) pseudized with  6 coefficients,  rinner =    1.200   1.200   1.200
                                                       1.200   1.200   1.200
                                                       1.200

     vdW kernel table read from file vdW_kernel_table
     MD5 check sum: 095c7af220d748ca6e76c0b4c6cfb241

     atomic species   valence    mass     pseudopotential
        Os1           16.00   190.23000     Os( 1.00)
        Hf1           12.00   178.49000     Hf( 1.00)

     No symmetry found

   Cartesian axes

     site n.     atom                  positions (alat units)
         1           Os1 tau(   1) = (   0.0000000   0.0000000  10.0000000  )
         2           Os1 tau(   2) = (  -1.4070947   2.4371596  10.0000000  )
         3           Os1 tau(   3) = (   1.4070947   2.4371596  10.0000000  )
         4           Hf1 tau(   4) = (   2.8141895   0.0000000  10.0000000  )
         5           Os1 tau(   5) = (   2.8141895   1.6247730  12.2977761  )
         6           Os1 tau(   6) = (   1.4070947   4.0619326  12.2977761  )
         7           Os1 tau(   7) = (  -1.4070947   4.0619326  12.2977761  )
         8           Hf1 tau(   8) = (   0.0000000   1.6247730  12.2977761  )
         9           Os1 tau(   9) = (  -0.0000000   3.2495461  14.5955521  )
        10           Os1 tau(  10) = (   1.4070947   0.8123865  14.5955521  )
        11           Os1 tau(  11) = (   4.2212842   0.8123865  14.5955521  )
        12           Hf1 tau(  12) = (   2.8141895   3.2495461  14.5955521  )

     number of k points=    20  Fermi-Dirac smearing, width (Ry)=  0.0110
                       cart. coord. in units 2pi/alat
        k(    1) = (   0.0000000   0.0000000   0.0000000), wk =   0.0555556
        k(    2) = (   0.0000000   0.0341928   0.0000000), wk =   0.1111111
        k(    3) = (   0.0000000   0.0683856   0.0000000), wk =   0.1111111
        k(    4) = (   0.0000000  -0.1025784   0.0000000), wk =   0.0555556
        k(    5) = (   0.0296118   0.0170964   0.0000000), wk =   0.1111111
        k(    6) = (   0.0296118   0.0512892   0.0000000), wk =   0.1111111
        k(    7) = (   0.0296118   0.0854820   0.0000000), wk =   0.1111111
        k(    8) = (   0.0296118  -0.0854820   0.0000000), wk =   0.1111111
        k(    9) = (   0.0296118  -0.0512892   0.0000000), wk =   0.1111111
        k(   10) = (   0.0296118  -0.0170964   0.0000000), wk =   0.1111111
        k(   11) = (   0.0592237   0.0341928   0.0000000), wk =   0.1111111
        k(   12) = (   0.0592237   0.0683856   0.0000000), wk =   0.1111111
        k(   13) = (   0.0592237   0.1025784   0.0000000), wk =   0.1111111
        k(   14) = (   0.0592237  -0.0683856   0.0000000), wk =   0.1111111
        k(   15) = (   0.0592237  -0.0341928   0.0000000), wk =   0.1111111
        k(   16) = (   0.0592237   0.0000000   0.0000000), wk =   0.1111111
        k(   17) = (  -0.0888355  -0.0512892   0.0000000), wk =   0.0555556
        k(   18) = (  -0.0888355  -0.0170964   0.0000000), wk =   0.1111111
        k(   19) = (  -0.0888355   0.0170964   0.0000000), wk =   0.1111111
        k(   20) = (  -0.0888355  -0.1538676   0.0000000), wk =   0.0555556

     Largest allocated arrays     est. size (Mb)     dimensions
     Largest temporary arrays     est. size (Mb)     dimensions

     Check: negative/imaginary core charge=   -0.000002    0.000000

     Initial potential from superposition of free atoms
     Check: negative starting charge=   -1.440188

     starting charge  169.49967, renormalised to  180.00000

     negative rho (up, down):  1.529E+00 0.000E+00

     *
     * You are using vdW-DF for exchange-correlation in this calculation.
     * Please cite the following three references that made this development
     * possible:
     *
     *   M. Dion, H. Rydberg, E. Schroder, D. C. Langreth, and
     *   B. I. Lundqvist, Phys. Rev. Lett. 92, 246401 (2004).
     *
     *   T. Thonhauser, V. R. Cooper, S. Li, A. Puzder, P. Hyldgaard, and
     *   D. C. Langreth, Phys. Rev. B 76, 125112 (2007).
     *
     *   G. Roman-Perez and J. M. Soler, Phys. Rev. Lett. 103, 096102 (2009).
     *
     *
     * If you are using vdW-DF2, please also cite:
     *
     *   K. Lee, E. D. Murray, L. Kong, B. I. Lundqvist, and
     *   D. C. Langreth, Phys. Rev. B 82, 081101(R) (2010).
     *
     *
     * If you are calculating the stress with vdW-DF, please also cite:
     *
     *   R. Sabatini, E. Kucukbenli, B. Kolb, T. Thonhauser, and
     *   S. de Gironcoli, J. Phys.: Condens. Matter 24, 424209 (2012).
     *

     Carrying out vdW-DF run using the following parameters:

     Nqs =      20    Nr_points =    1024   r_max =   100.000
     q_mesh =
               0.00001000     0.04494208     0.09755937     0.15916263
               0.23128650     0.31572767     0.41458969     0.53033537
               0.66584808     0.82450364     1.01025438     1.22772762
               1.48234092     1.78043706     2.12944203     2.53805004
               3.01644009     3.57652955     4.23227104     5.00000000

     Gradients computed in reciprocal space

     Adding external electric field

     Computed dipole along edir(3) :
        Dipole                0.0000 Ry au,          0.0000 Debye
        Dipole field          0.0000 Ry au

        Potential amp.       -0.0000 Ry
        Total length         45.3169 bohr

     Starting wfc are  156 randomized atomic wfcs

     Self-consistent Calculation

     iteration #  1     ecut=    36.75 Ry     beta=0.10
     Davidson diagonalization with overlap
     ethr =  1.00E-02,  avg # of iterations =  8.1

[...]

     total energy              =   -2281.02154829 Ry
     Harris-Foulkes estimate   =   -2282.78092837 Ry
     estimated scf accuracy    <      11.27762603 Ry

[...]

     End of self-consistent calculation

          k = 0.0000 0.0000 0.0000 ( 17111 PWs)   bands (ev):

   -83.6715 -83.6427 -83.6426 -83.4191 -83.4184 -83.3909 -83.3909 -83.3907
   -83.3907 -59.4043 -59.4040 -58.8103 -43.2760 -43.1010 -43.1010 -43.0582
   -43.0182 -42.9964 -42.9964 -42.9578 -42.8025 -42.7612 -42.7612 -42.7322
   -42.7109 -42.7109 -42.6985 -42.6985 -42.6815 -42.6815 -42.6572 -42.6328
   -42.6328 -42.4833 -42.4833 -42.4769 -42.4769 -42.4644 -42.4543 -28.1153
   -28.0932 -27.9035 -27.9035 -27.8977 -27.8977 -27.4585 -27.4585 -27.4332
    -5.7209  -3.9809  -3.3425  -2.8367  -2.8367  -2.8199  -2.5990  -2.5990
    -2.4455  -1.9906  -1.9633  -1.9633  -1.8747  -1.8420  -1.8420  -0.6695
    -0.3404  -0.3404   0.1955   0.1955   0.4584   0.4867   0.7892   0.8976
     1.2107   1.2107   1.2577   1.2577   1.4172   1.4172   1.7340   1.7340
     1.9121   1.9197   1.9197   2.6005   2.6557   2.8929   2.8929   3.0439
     3.0439   3.2588   3.3457   3.3457   3.5930   4.0256   4.0256   4.3259
     4.4698   4.6195   4.6195   5.0826   5.3987   5.4792   5.9392   5.9392
     6.0732   6.2462   6.2462   6.7035   6.7035   6.7665   6.8210   7.0232
     7.0232   7.2722   7.2722   7.4091   7.4124   7.6732   7.6732   7.7425

[...]

          k =-0.0888-0.0513 0.0000 ( 17160 PWs)   bands (ev):

[...]

     the Fermi energy is     2.6457 ev

!    total energy              =   -2279.79939566 Ry
     Harris-Foulkes estimate   =   -2279.79938945 Ry
     estimated scf accuracy    <       0.00000044 Ry

     The total energy is the sum of the following terms:

     one-electron contribution =  -17460.41104801 Ry
     hartree contribution      =    8715.75268883 Ry
     xc contribution           =    -580.49358823 Ry
     ewald contribution        =    7045.42983313 Ry
     electric field correction =       0.00000000 Ry
     smearing contrib. (-TS)   =      -0.07728137 Ry

     convergence has been achieved in  17 iterations

 BEEF-vdW xc energy contributions
           1 :   -514.865892252112
           2 :    477.701500753316
           3 :   -411.841513388948
           4 :    331.187624346215
[...]
                l(2) =   0
                l(3) =   1
                l(4) =   1
                l(5) =   2
                l(6) =   2
                l(7) =   3
                l(8) =   3
     Q(r) pseudized with  8 coefficients,  rinner =    1.150   1.150   1.150
                                                       1.150   1.150   1.150
                                                       1.150

     PseudoPot. # 2 for Hf read from file:
     /afs/slac.stanford.edu/u/if/mamunm/psp/gbrv1.5pbe/Hf.UPF
     MD5 check sum: 8ee9378dfe14276e333edf04c5e4aa26
     Pseudo is Ultrasoft + core correction, Zval = 12.0
     Generated by new atomic code, or converted to UPF format
     Using radial grid of  921 points,  8 beta functions with:
                l(1) =   0
                l(2) =   0
                l(3) =   0
                l(4) =   1
                l(5) =   1
                l(6) =   2
                l(7) =   2
                l(8) =   3
     Q(r) pseudized with  6 coefficients,  rinner =    1.200   1.200   1.200
                                                       1.200   1.200   1.200
                                                       1.200

     vdW kernel table read from file vdW_kernel_table
     MD5 check sum: 095c7af220d748ca6e76c0b4c6cfb241

     atomic species   valence    mass     pseudopotential
        Os1           16.00   190.23000     Os( 1.00)
        Hf1           12.00   178.49000     Hf( 1.00)

     No symmetry found

   Cartesian axes

     site n.     atom                  positions (alat units)
         1           Os1 tau(   1) = (   0.0000000   0.0000000  10.0000000  )
         2           Os1 tau(   2) = (  -1.4070947   2.4371596  10.0000000  )
         3           Os1 tau(   3) = (   1.4070947   2.4371596  10.0000000  )
         4           Hf1 tau(   4) = (   2.8141895   0.0000000  10.0000000  )
         5           Os1 tau(   5) = (   2.8141895   1.6247730  12.2977761  )
         6           Os1 tau(   6) = (   1.4070947   4.0619326  12.2977761  )
         7           Os1 tau(   7) = (  -1.4070947   4.0619326  12.2977761  )
         8           Hf1 tau(   8) = (   0.0000000   1.6247730  12.2977761  )
         9           Os1 tau(   9) = (  -0.0000042   3.2837040  14.4920191  )
        10           Os1 tau(  10) = (   1.4366737   0.7952951  14.4920221  )
        11           Os1 tau(  11) = (   4.1917094   0.7953027  14.4920238  )
        12           Hf1 tau(  12) = (   2.8141909   3.2495495  14.5598422  )

     number of k points=    20  Fermi-Dirac smearing, width (Ry)=  0.0110
                       cart. coord. in units 2pi/alat
        k(    1) = (   0.0000000   0.0000000   0.0000000), wk =   0.0555556
        k(    2) = (   0.0000000   0.0341928   0.0000000), wk =   0.1111111
        k(    3) = (   0.0000000   0.0683856   0.0000000), wk =   0.1111111
        k(    4) = (   0.0000000  -0.1025784   0.0000000), wk =   0.0555556
        k(    5) = (   0.0296118   0.0170964   0.0000000), wk =   0.1111111
        k(    6) = (   0.0296118   0.0512892   0.0000000), wk =   0.1111111
        k(    7) = (   0.0296118   0.0854820   0.0000000), wk =   0.1111111
        k(    8) = (   0.0296118  -0.0854820   0.0000000), wk =   0.1111111
        k(    9) = (   0.0296118  -0.0512892   0.0000000), wk =   0.1111111
        k(   10) = (   0.0296118  -0.0170964   0.0000000), wk =   0.1111111
        k(   11) = (   0.0592237   0.0341928   0.0000000), wk =   0.1111111
        k(   12) = (   0.0592237   0.0683856   0.0000000), wk =   0.1111111
        k(   13) = (   0.0592237   0.1025784   0.0000000), wk =   0.1111111
        k(   14) = (   0.0592237  -0.0683856   0.0000000), wk =   0.1111111
        k(   15) = (   0.0592237  -0.0341928   0.0000000), wk =   0.1111111
        k(   16) = (   0.0592237   0.0000000   0.0000000), wk =   0.1111111
        k(   17) = (  -0.0888355  -0.0512892   0.0000000), wk =   0.0555556
        k(   18) = (  -0.0888355  -0.0170964   0.0000000), wk =   0.1111111
        k(   19) = (  -0.0888355   0.0170964   0.0000000), wk =   0.1111111
        k(   20) = (  -0.0888355  -0.1538676   0.0000000), wk =   0.0555556

     Largest allocated arrays     est. size (Mb)     dimensions
     Largest temporary arrays     est. size (Mb)     dimensions

     Check: negative/imaginary core charge=   -0.000002    0.000000

     Initial potential from superposition of free atoms
     Check: negative starting charge=   -1.443580

     starting charge  169.49967, renormalised to  180.00000

[...]

     *
     * You are using vdW-DF for exchange-correlation in this calculation.
     * Please cite the following three references that made this development
     * possible:
     *
     *   M. Dion, H. Rydberg, E. Schroder, D. C. Langreth, and
     *   B. I. Lundqvist, Phys. Rev. Lett. 92, 246401 (2004).
     *
     *   T. Thonhauser, V. R. Cooper, S. Li, A. Puzder, P. Hyldgaard, and
     *   D. C. Langreth, Phys. Rev. B 76, 125112 (2007).
     *
     *   G. Roman-Perez and J. M. Soler, Phys. Rev. Lett. 103, 096102 (2009).
     *
     *
     * If you are using vdW-DF2, please also cite:
     *
     *   K. Lee, E. D. Murray, L. Kong, B. I. Lundqvist, and
     *   D. C. Langreth, Phys. Rev. B 82, 081101(R) (2010).
     *
     *
     * If you are calculating the stress with vdW-DF, please also cite:
     *
     *   R. Sabatini, E. Kucukbenli, B. Kolb, T. Thonhauser, and
     *   S. de Gironcoli, J. Phys.: Condens. Matter 24, 424209 (2012).
     *

     Carrying out vdW-DF run using the following parameters:

     Nqs =      20    Nr_points =    1024   r_max =   100.000
     q_mesh =
               0.00001000     0.04494208     0.09755937     0.15916263
               0.23128650     0.31572767     0.41458969     0.53033537
               0.66584808     0.82450364     1.01025438     1.22772762
               1.48234092     1.78043706     2.12944203     2.53805004
               3.01644009     3.57652955     4.23227104     5.00000000

     Gradients computed in reciprocal space

[...]

     Starting wfc are  156 randomized atomic wfcs

     Self-consistent Calculation

[...]

     total energy              =   -2279.82236808 Ry
     Harris-Foulkes estimate   =   -2279.82236659 Ry
     estimated scf accuracy    <       0.00000398 Ry

     iteration # 16     ecut=    36.75 Ry     beta=0.10
     Davidson diagonalization with overlap
     ethr =  2.21E-09,  avg # of iterations =  2.0

[...]

     negative rho (up, down):  1.457E+00 0.000E+00

     Adding external electric field

     Computed dipole along edir(3) :
        Dipole                0.0401 Ry au,          0.1020 Debye
        Dipole field          0.0001 Ry au

        Potential amp.       -0.0100 Ry
        Total length         45.3169 bohr

     End of self-consistent calculation

[...]

          k = 0.0592 0.0000 0.0000 ( 17106 PWs)   bands (ev):

[...]

          k =-0.0888-0.1539 0.0000 ( 17160 PWs)   bands (ev):

   -83.6489 -83.6392 -83.6294 -83.3762 -83.3641 -83.3557 -83.3514 -83.3419
   -83.3327 -59.3774 -59.3290 -58.6678 -43.2045 -43.1236 -43.0542 -43.0278
   -42.9547 -42.9354 -42.8987 -42.8667 -42.8528 -42.8182 -42.7235 -42.7116
   -42.6817 -42.6479 -42.6474 -42.6328 -42.6222 -42.6114 -42.5929 -42.5859
   -42.5597 -42.5571 -42.5464 -42.5428 -42.5112 -42.4432 -42.4139 -28.0810
   -28.0463 -27.9046 -27.8833 -27.8694 -27.8474 -27.3759 -27.3527 -27.3090
    -3.9922  -3.7450  -2.4100  -2.3614  -1.9568  -1.9426  -1.8847  -1.7179
    -1.6200  -1.5519  -1.2592  -1.0688  -0.9249  -0.8029  -0.6646  -0.5327
    -0.4504  -0.3017  -0.1598  -0.0705   0.1323   0.2740   0.4690   0.5659
     0.6798   0.6910   0.8186   0.8579   0.8663   0.9367   1.0351   1.0644
     1.1986   1.3139   1.6416   1.6930   1.6943   2.0442   2.1389   2.1817
     2.2165   2.2842   2.5166   2.6166   2.9155   2.9402   3.0377   3.0822
     3.4615   3.6817   4.0951   4.2533   4.3620   4.9673   5.3765   5.3973
     5.7010   5.7035   5.8288   6.1408   6.3600   6.4857   6.6814   6.7431
     6.9637   6.9881   7.7915   7.8174   7.9187   8.1838   8.2943   8.4034

     the Fermi energy is     2.6885 ev

!    total energy              =   -2279.82237603 Ry
     Harris-Foulkes estimate   =   -2279.82236877 Ry
     estimated scf accuracy    <       0.00000067 Ry

     The total energy is the sum of the following terms:

     one-electron contribution =  -17686.74682482 Ry
     hartree contribution      =    8829.14657944 Ry
     xc contribution           =    -580.72169758 Ry
     ewald contribution        =    7158.57537283 Ry
     electric field correction =       0.00000445 Ry
     smearing contrib. (-TS)   =      -0.07581034 Ry

     convergence has been achieved in  16 iterations

 BEEF-vdW xc energy contributions
           1 :   -515.460843549192
           2 :    478.378523341467
           3 :   -412.630224484027
           4 :    332.042785096353
           5 :   -251.472426735742
           6 :    182.718194498136
           7 :   -132.094538247636
           8 :    100.103268406972
           9 :   -82.8885606190391
          10 :    74.5921519588248
          11 :   -69.6489362974496
          12 :    64.2814539608164
          13 :   -56.9391230151961
          14 :    47.8567945112071
          15 :   -38.1970029387271
          16 :    29.2269075003110
          17 :   -21.8147402035477
          18 :    16.2838972001952
          19 :   -12.5211769047273
          20 :    10.1795661626242
          21 :   -8.86362303201975
          22 :    8.23808142604707
          23 :   -8.05885367176359
          24 :    8.14432970948303
          25 :   -8.32217037327325
          26 :    8.38063589844933
          27 :   -8.06016124265136
          28 :    7.10503095515207
          29 :   -5.37509382919654
          30 :    2.96883246106938
          31 :   -43.9544126317472
          32 :   -32.8662769997844

     Forces acting on atoms (Ry/au):

     negative rho (up, down):  1.457E+00 0.000E+00
     atom    1 type  1   force =    -0.00000260   -0.01132063    0.02139451
     atom    2 type  1   force =    -0.00980740    0.00566088    0.02139350
     atom    3 type  1   force =     0.00980050    0.00566263    0.02139590
     atom    4 type  2   force =     0.00000395   -0.00000068    0.00433512
     atom    5 type  1   force =    -0.00001054    0.00590604   -0.01459948
     atom    6 type  1   force =     0.00511904   -0.00295917   -0.01460928
     atom    7 type  1   force =    -0.00511733   -0.00294487   -0.01459516
     atom    8 type  2   force =     0.00001243   -0.00000280   -0.02440897
     atom    9 type  1   force =     0.00000632   -0.00027561   -0.00008846
     atom   10 type  1   force =    -0.00023483    0.00014314   -0.00008888
     atom   11 type  1   force =     0.00023804    0.00013586   -0.00009173
     atom   12 type  2   force =    -0.00000757   -0.00000480   -0.00003707

     Total force =     0.055829     Total SCF correction =     0.002001

     entering subroutine stress ...

     negative rho (up, down):  1.457E+00 0.000E+00
          total   stress  (Ry/bohr**3)                   (kbar)     P=  -25.74
  -0.00022073  -0.00000000   0.00000000        -32.47     -0.00      0.00
  -0.00000000  -0.00022073   0.00000000         -0.00    -32.47      0.00
   0.00000000   0.00000000  -0.00008347          0.00      0.00    -12.28

 !ASE

     Writing output data file calc.save

     General routines

     Parallel routines

   This run was terminated on:   7:57:51  31Dec2018

   JOB DONE.
Job  /afs/slac/g/suncat/bin/suncat-tsmpirun -x LD_LIBRARY_PATH -wdir /scratch/qe648694_uLKkK pw.x -in pw.inp

TID   HOST_NAME   COMMAND_LINE            STATUS            TERMINATION_TIME
00000 suncat0156 pw.x -in pw.inp   Done                     12/31/2018 07:57:51
00001 suncat0156 pw.x -in pw.inp   Done                     12/31/2018 07:57:51
00002 suncat0156 pw.x -in pw.inp   Done                     12/31/2018 07:57:51
00003 suncat0156 pw.x -in pw.inp   Done                     12/31/2018 07:57:51
00004 suncat0156 pw.x -in pw.inp   Done                     12/31/2018 07:57:51
00005 suncat0156 pw.x -in pw.inp   Done                     12/31/2018 07:57:51
00006 suncat0156 pw.x -in pw.inp   Done                     12/31/2018 07:57:51
00007 suncat0156 pw.x -in pw.inp   Done                     12/31/2018 07:57:51
00008 suncat0153 pw.x -in pw.inp   Done                     12/31/2018 07:57:51
00009 suncat0153 pw.x -in pw.inp   Done                     12/31/2018 07:57:51
00010 suncat0153 pw.x -in pw.inp   Done                     12/31/2018 07:57:51
00011 suncat0153 pw.x -in pw.inp   Done                     12/31/2018 07:57:51
00012 suncat0153 pw.x -in pw.inp   Done                     12/31/2018 07:57:51
00013 suncat0153 pw.x -in pw.inp   Done                     12/31/2018 07:57:51
00014 suncat0153 pw.x -in pw.inp   Done                     12/31/2018 07:57:51
00015 suncat0153 pw.x -in pw.inp   Done                     12/31/2018 07:57:51
00016 suncat0145 pw.x -in pw.inp   Done                     12/31/2018 07:57:51
00017 suncat0145 pw.x -in pw.inp   Done                     12/31/2018 07:57:51
00018 suncat0145 pw.x -in pw.inp   Done                     12/31/2018 07:57:51
00019 suncat0145 pw.x -in pw.inp   Done                     12/31/2018 07:57:51
00020 suncat0145 pw.x -in pw.inp   Done                     12/31/2018 07:57:51
00021 suncat0145 pw.x -in pw.inp   Done                     12/31/2018 07:57:51
00022 suncat0145 pw.x -in pw.inp   Done                     12/31/2018 07:57:51
00023 suncat0145 pw.x -in pw.inp   Done                     12/31/2018 07:57:51
00024 suncat0144 pw.x -in pw.inp   Done                     12/31/2018 07:57:51
00025 suncat0144 pw.x -in pw.inp   Done                     12/31/2018 07:57:51
00026 suncat0144 pw.x -in pw.inp   Done                     12/31/2018 07:57:51
00027 suncat0144 pw.x -in pw.inp   Done                     12/31/2018 07:57:51
00028 suncat0144 pw.x -in pw.inp   Done                     12/31/2018 07:57:51
00029 suncat0144 pw.x -in pw.inp   Done                     12/31/2018 07:57:51
00030 suncat0144 pw.x -in pw.inp   Done                     12/31/2018 07:57:51
00031 suncat0144 pw.x -in pw.inp   Done                     12/31/2018 07:57:51
00032 suncat0133 pw.x -in pw.inp   Done                     12/31/2018 07:57:51
00033 suncat0133 pw.x -in pw.inp   Done                     12/31/2018 07:57:51
00034 suncat0133 pw.x -in pw.inp   Done                     12/31/2018 07:57:51
00035 suncat0133 pw.x -in pw.inp   Done                     12/31/2018 07:57:51
00036 suncat0133 pw.x -in pw.inp   Done                     12/31/2018 07:57:51
00037 suncat0133 pw.x -in pw.inp   Done                     12/31/2018 07:57:51
00038 suncat0133 pw.x -in pw.inp   Done                     12/31/2018 07:57:51
00039 suncat0133 pw.x -in pw.inp   Done                     12/31/2018 07:57:51
00040 suncat0132 pw.x -in pw.inp   Done                     12/31/2018 07:57:51
00041 suncat0132 pw.x -in pw.inp   Done                     12/31/2018 07:57:51
00042 suncat0132 pw.x -in pw.inp   Done                     12/31/2018 07:57:51
00043 suncat0132 pw.x -in pw.inp   Done                     12/31/2018 07:57:51
00044 suncat0132 pw.x -in pw.inp   Done                     12/31/2018 07:57:51
00045 suncat0132 pw.x -in pw.inp   Done                     12/31/2018 07:57:51
00046 suncat0132 pw.x -in pw.inp   Done                     12/31/2018 07:57:51
00047 suncat0132 pw.x -in pw.inp   Done                     12/31/2018 07:57:51
00048 suncat0131 pw.x -in pw.inp   Done                     12/31/2018 07:57:51
00049 suncat0131 pw.x -in pw.inp   Done                     12/31/2018 07:57:51
00050 suncat0131 pw.x -in pw.inp   Done                     12/31/2018 07:57:51
00051 suncat0131 pw.x -in pw.inp   Done                     12/31/2018 07:57:51
00052 suncat0131 pw.x -in pw.inp   Done                     12/31/2018 07:57:51
00053 suncat0131 pw.x -in pw.inp   Done                     12/31/2018 07:57:51
00054 suncat0131 pw.x -in pw.inp   Done                     12/31/2018 07:57:51
00055 suncat0131 pw.x -in pw.inp   Done                     12/31/2018 07:57:51
00056 suncat0130 pw.x -in pw.inp   Done                     12/31/2018 07:57:51
00057 suncat0130 pw.x -in pw.inp   Done                     12/31/2018 07:57:51
00058 suncat0130 pw.x -in pw.inp   Done                     12/31/2018 07:57:51
00059 suncat0130 pw.x -in pw.inp   Done                     12/31/2018 07:57:51
00060 suncat0130 pw.x -in pw.inp   Done                     12/31/2018 07:57:51
00061 suncat0130 pw.x -in pw.inp   Done                     12/31/2018 07:57:51
00062 suncat0130 pw.x -in pw.inp   Done                     12/31/2018 07:57:51
00063 suncat0130 pw.x -in pw.inp   Done                     12/31/2018 07:57:51