     Program PWSCF v.5.1rc2 (svn rev. 11289) starts on 19Dec2018 at 23: 8:28

     Current dimensions of program PWSCF are:
     Max number of different atomic species (ntypx) = 10
     Max number of k-points (npk) =  40000
     Max angular momentum in pseudopotentials (lmaxx) =  3
     Presently stress not available with electric field

     IMPORTANT: XC functional enforced from input :
     Exchange-correlation      = BEEF-VDW ( 1  4 27 13 2)
     Any further DFT definition will be discarded
     Please, verify this is what you really want

     Subspace diagonalization in iterative solution of the eigenvalue problem:
     a serial algorithm will be used

     bravais-lattice index     =            0
     lattice parameter (alat)  =       1.8897  a.u.
     unit-cell volume          =    6682.1267 (a.u.)^3
     number of atoms/cell      =           12
     number of atomic types    =            2
     number of electrons       =       150.00
     number of Kohn-Sham states=          105
     kinetic-energy cutoff     =      36.7493  Ry
     charge density cutoff     =     367.4932  Ry
     convergence threshold     =      1.0E-06
     mixing beta               =       0.1000
     number of iterations used =           10  plain     mixing
     Exchange-correlation      = BEEF-VDW ( 1  4 27 13 2)
     nstep                     =           50

     celldm(1)=   1.889726  celldm(2)=   0.000000  celldm(3)=   0.000000
     celldm(4)=   0.000000  celldm(5)=   0.000000  celldm(6)=   0.000000

     crystal axes: (cart. coord. in units of alat)
               a(1) = (   6.700000   0.000000   0.000000 )
               a(2) = (  -3.350000   5.802370   0.000000 )
               a(3) = (   0.000000   0.000000  25.470527 )

     reciprocal axes: (cart. coord. in units 2 pi/alat)
               b(1) = (  0.149254  0.086172  0.000000 )
               b(2) = (  0.000000  0.172343  0.000000 )
               b(3) = (  0.000000  0.000000  0.039261 )

     PseudoPot. # 1 for Cd read from file:
     /afs/slac.stanford.edu/u/if/mamunm/psp/gbrv1.5pbe/Cd.UPF
     MD5 check sum: 17164a7926edb8e0dc231208abae86a6
     Pseudo is Ultrasoft + core correction, Zval = 12.0
     Generated by new atomic code, or converted to UPF format
     Using radial grid of  889 points,  6 beta functions with:
                l(1) =   0
                l(2) =   0
                l(3) =   1
                l(4) =   1
                l(5) =   2
                l(6) =   2
     Q(r) pseudized with  6 coefficients,  rinner =    1.000   1.000   1.000
                                                       1.000   1.000

     PseudoPot. # 2 for Pb read from file:
     /afs/slac.stanford.edu/u/if/mamunm/psp/gbrv1.5pbe/Pb.UPF
     MD5 check sum: 3d1c1779aa92214d1e8f3a7db79003e2
     Pseudo is Ultrasoft + core correction, Zval = 14.0
     Generated by new atomic code, or converted to UPF format
     Using radial grid of  899 points,  6 beta functions with:
                l(1) =   0
                l(2) =   0
                l(3) =   1
                l(4) =   1
                l(5) =   2
                l(6) =   2
     Q(r) pseudized with  6 coefficients,  rinner =    1.000   1.000   1.000
                                                       1.000   1.000

     vdW kernel table read from file vdW_kernel_table
     MD5 check sum: 095c7af220d748ca6e76c0b4c6cfb241

     atomic species   valence    mass     pseudopotential
        Cd1           12.00   112.41400     Cd( 1.00)
        Pb1           14.00   207.20000     Pb( 1.00)

     No symmetry found

   Cartesian axes

     site n.     atom                  positions (alat units)
         1           Cd1 tau(   1) = (   0.0000000   0.0000000  10.0000000  )
         2           Cd1 tau(   2) = (  -1.6749999   2.9011849  10.0000000  )
         3           Cd1 tau(   3) = (   1.6749999   2.9011849  10.0000000  )
         4           Pb1 tau(   4) = (   3.3499998   0.0000000  10.0000000  )
         5           Cd1 tau(   5) = (   3.3499998   1.9341233  12.7352634  )
         6           Cd1 tau(   6) = (   1.6749999   4.8353082  12.7352634  )
         7           Cd1 tau(   7) = (  -1.6749999   4.8353082  12.7352634  )
         8           Pb1 tau(   8) = (   0.0000000   1.9341233  12.7352634  )
         9           Cd1 tau(   9) = (  -0.0000000   3.8682465  15.4705267  )
        10           Cd1 tau(  10) = (   1.6749999   0.9670616  15.4705267  )
        11           Cd1 tau(  11) = (   5.0249997   0.9670616  15.4705267  )
        12           Pb1 tau(  12) = (   3.3499998   3.8682465  15.4705267  )

     number of k points=    20  Fermi-Dirac smearing, width (Ry)=  0.0110
                       cart. coord. in units 2pi/alat
        k(    1) = (   0.0000000   0.0000000   0.0000000), wk =   0.0555556
        k(    2) = (   0.0000000   0.0287239   0.0000000), wk =   0.1111111
        k(    3) = (   0.0000000   0.0574478   0.0000000), wk =   0.1111111
        k(    4) = (   0.0000000  -0.0861717   0.0000000), wk =   0.0555556
        k(    5) = (   0.0248756   0.0143619   0.0000000), wk =   0.1111111
        k(    6) = (   0.0248756   0.0430858   0.0000000), wk =   0.1111111
        k(    7) = (   0.0248756   0.0718097   0.0000000), wk =   0.1111111
        k(    8) = (   0.0248756  -0.0718097   0.0000000), wk =   0.1111111
        k(    9) = (   0.0248756  -0.0430858   0.0000000), wk =   0.1111111
        k(   10) = (   0.0248756  -0.0143619   0.0000000), wk =   0.1111111
        k(   11) = (   0.0497512   0.0287239   0.0000000), wk =   0.1111111
        k(   12) = (   0.0497512   0.0574478   0.0000000), wk =   0.1111111
        k(   13) = (   0.0497512   0.0861717   0.0000000), wk =   0.1111111
        k(   14) = (   0.0497512  -0.0574478   0.0000000), wk =   0.1111111
        k(   15) = (   0.0497512  -0.0287239   0.0000000), wk =   0.1111111
        k(   16) = (   0.0497512   0.0000000   0.0000000), wk =   0.1111111
        k(   17) = (  -0.0746269  -0.0430858   0.0000000), wk =   0.0555556
        k(   18) = (  -0.0746269  -0.0143619   0.0000000), wk =   0.1111111
        k(   19) = (  -0.0746269   0.0143619   0.0000000), wk =   0.1111111
        k(   20) = (  -0.0746269  -0.1292575   0.0000000), wk =   0.0555556

     Largest allocated arrays     est. size (Mb)     dimensions
     Largest temporary arrays     est. size (Mb)     dimensions

     Initial potential from superposition of free atoms
     Check: negative starting charge=   -0.249302

     starting charge  145.49257, renormalised to  150.00000

     negative rho (up, down):  2.570E-01 0.000E+00

     *
     * You are using vdW-DF for exchange-correlation in this calculation.
     * Please cite the following three references that made this development
     * possible:
     *
     *   M. Dion, H. Rydberg, E. Schroder, D. C. Langreth, and
     *   B. I. Lundqvist, Phys. Rev. Lett. 92, 246401 (2004).
     *
     *   T. Thonhauser, V. R. Cooper, S. Li, A. Puzder, P. Hyldgaard, and
     *   D. C. Langreth, Phys. Rev. B 76, 125112 (2007).
     *
     *   G. Roman-Perez and J. M. Soler, Phys. Rev. Lett. 103, 096102 (2009).
     *
     *
     * If you are using vdW-DF2, please also cite:
     *
     *   K. Lee, E. D. Murray, L. Kong, B. I. Lundqvist, and
     *   D. C. Langreth, Phys. Rev. B 82, 081101(R) (2010).
     *
     *
     * If you are calculating the stress with vdW-DF, please also cite:
     *
     *   R. Sabatini, E. Kucukbenli, B. Kolb, T. Thonhauser, and
     *   S. de Gironcoli, J. Phys.: Condens. Matter 24, 424209 (2012).
     *

     Carrying out vdW-DF run using the following parameters:

     Nqs =      20    Nr_points =    1024   r_max =   100.000
     q_mesh =
               0.00001000     0.04494208     0.09755937     0.15916263
               0.23128650     0.31572767     0.41458969     0.53033537
               0.66584808     0.82450364     1.01025438     1.22772762
               1.48234092     1.78043706     2.12944203     2.53805004
               3.01644009     3.57652955     4.23227104     5.00000000

     Gradients computed in reciprocal space

     Adding external electric field

     Computed dipole along edir(3) :
        Dipole                0.0000 Ry au,          0.0000 Debye
        Dipole field          0.0000 Ry au

        Potential amp.       -0.0000 Ry
        Total length         46.9290 bohr

     Starting wfc are  108 randomized atomic wfcs

     Self-consistent Calculation

     iteration #  1     ecut=    36.75 Ry     beta=0.10
     Davidson diagonalization with overlap
     ethr =  1.00E-02,  avg # of iterations =  8.2

     Threshold (ethr) on eigenvalues was too large:
     Diagonalizing with lowered threshold

     Davidson diagonalization with overlap
     ethr =  4.89E-04,  avg # of iterations =  5.4

[...]

     total energy              =   -1542.94242141 Ry
     Harris-Foulkes estimate   =   -1543.06248313 Ry
     estimated scf accuracy    <       0.73757416 Ry

[...]

     End of self-consistent calculation

          k = 0.0000 0.0000 0.0000 ( 25113 PWs)   bands (ev):

   -17.0804 -17.0788 -17.0676 -17.0676 -17.0650 -17.0650 -17.0594 -17.0594
   -17.0579 -17.0579 -17.0371 -17.0311 -17.0311 -17.0201 -17.0201  -9.4551
    -9.3638  -9.1168  -8.8476  -8.8127  -8.8127  -8.7297  -8.7149  -8.6722
    -8.6722  -8.6693  -8.6693  -8.6521  -8.6521  -8.6263  -8.5865  -8.5852
    -8.5852  -8.5544  -8.4754  -8.4754  -8.4206  -8.4206  -8.4134  -8.3974
    -8.3548  -8.3548  -8.3373  -8.3373  -8.3122  -8.3122  -8.3110  -8.2625
    -8.2625  -8.2421  -8.2421  -8.2026  -8.2026  -8.1783  -8.1783  -8.1728
    -8.1200  -8.0920  -8.0920  -8.0329  -8.0269  -7.7885  -6.9723  -3.8549
    -3.6215  -2.7379  -2.3859  -2.3859  -2.1518  -2.1518  -1.4900  -1.3690
    -1.3690  -0.6501  -0.6315  -0.6315   0.1267   0.5244   0.7287   0.7287
     1.0767   1.0767   1.7862   3.0224   3.1596   3.5275   4.0219   4.2608
     4.2608   4.4591   4.4591   4.6969   4.9820   5.5859   5.5945   5.5945
     6.4872   6.5187   6.5187   6.5318   6.7382   6.7490   6.7492   7.0270
     7.1719

[...]

          k =-0.0746-0.0431 0.0000 ( 25206 PWs)   bands (ev):

[...]

     the Fermi energy is     0.3323 ev

!    total energy              =   -1542.79702048 Ry
     Harris-Foulkes estimate   =   -1542.79705935 Ry
     estimated scf accuracy    <       0.00000031 Ry

     The total energy is the sum of the following terms:

     one-electron contribution =   -8112.15640963 Ry
     hartree contribution      =    4141.50670891 Ry
     xc contribution           =    -562.81517910 Ry
     ewald contribution        =    2990.70242050 Ry
     electric field correction =       0.00000000 Ry
     smearing contrib. (-TS)   =      -0.03456116 Ry

     convergence has been achieved in  13 iterations

 BEEF-vdW xc energy contributions
           1 :   -496.130996713079
           2 :    455.979323655755
           3 :   -387.519193856581
           4 :    309.071771691587
           5 :   -237.864291162642
           6 :    184.049739603381
           7 :   -148.789471901877
           8 :    126.585588706466
           9 :   -109.948300542908
          10 :    93.6448297766860
          11 :   -76.5178904737317
          12 :    60.5523037518282
[...]
     Generated by new atomic code, or converted to UPF format
     Using radial grid of  889 points,  6 beta functions with:
                l(1) =   0
                l(2) =   0
                l(3) =   1
                l(4) =   1
                l(5) =   2
                l(6) =   2
     Q(r) pseudized with  6 coefficients,  rinner =    1.000   1.000   1.000
                                                       1.000   1.000

     PseudoPot. # 2 for Pb read from file:
     /afs/slac.stanford.edu/u/if/mamunm/psp/gbrv1.5pbe/Pb.UPF
     MD5 check sum: 3d1c1779aa92214d1e8f3a7db79003e2
     Pseudo is Ultrasoft + core correction, Zval = 14.0
     Generated by new atomic code, or converted to UPF format
     Using radial grid of  899 points,  6 beta functions with:
                l(1) =   0
                l(2) =   0
                l(3) =   1
                l(4) =   1
                l(5) =   2
                l(6) =   2
     Q(r) pseudized with  6 coefficients,  rinner =    1.000   1.000   1.000
                                                       1.000   1.000

     vdW kernel table read from file vdW_kernel_table
     MD5 check sum: 095c7af220d748ca6e76c0b4c6cfb241

     atomic species   valence    mass     pseudopotential
        Cd1           12.00   112.41400     Cd( 1.00)
        Pb1           14.00   207.20000     Pb( 1.00)

     No symmetry found

   Cartesian axes

     site n.     atom                  positions (alat units)
         1           Cd1 tau(   1) = (   0.0000000   0.0000000  10.0000000  )
         2           Cd1 tau(   2) = (  -1.6749999   2.9011849  10.0000000  )
         3           Cd1 tau(   3) = (   1.6749999   2.9011849  10.0000000  )
         4           Pb1 tau(   4) = (   3.3499998   0.0000000  10.0000000  )
         5           Cd1 tau(   5) = (   3.3499998   1.9341233  12.7352634  )
         6           Cd1 tau(   6) = (   1.6749999   4.8353082  12.7352634  )
         7           Cd1 tau(   7) = (  -1.6749999   4.8353082  12.7352634  )
         8           Pb1 tau(   8) = (   0.0000000   1.9341233  12.7352634  )
         9           Cd1 tau(   9) = (  -0.0000023   3.9260065  15.5362241  )
        10           Cd1 tau(  10) = (   1.7248818   0.9381866  15.5362659  )
        11           Cd1 tau(  11) = (   4.9751064   0.9381332  15.5362488  )
        12           Pb1 tau(  12) = (   3.3500400   3.8683966  15.5084560  )

     number of k points=    20  Fermi-Dirac smearing, width (Ry)=  0.0110
                       cart. coord. in units 2pi/alat
        k(    1) = (   0.0000000   0.0000000   0.0000000), wk =   0.0555556
        k(    2) = (   0.0000000   0.0287239   0.0000000), wk =   0.1111111
        k(    3) = (   0.0000000   0.0574478   0.0000000), wk =   0.1111111
        k(    4) = (   0.0000000  -0.0861717   0.0000000), wk =   0.0555556
        k(    5) = (   0.0248756   0.0143619   0.0000000), wk =   0.1111111
        k(    6) = (   0.0248756   0.0430858   0.0000000), wk =   0.1111111
        k(    7) = (   0.0248756   0.0718097   0.0000000), wk =   0.1111111
        k(    8) = (   0.0248756  -0.0718097   0.0000000), wk =   0.1111111
        k(    9) = (   0.0248756  -0.0430858   0.0000000), wk =   0.1111111
        k(   10) = (   0.0248756  -0.0143619   0.0000000), wk =   0.1111111
        k(   11) = (   0.0497512   0.0287239   0.0000000), wk =   0.1111111
        k(   12) = (   0.0497512   0.0574478   0.0000000), wk =   0.1111111
        k(   13) = (   0.0497512   0.0861717   0.0000000), wk =   0.1111111
        k(   14) = (   0.0497512  -0.0574478   0.0000000), wk =   0.1111111
        k(   15) = (   0.0497512  -0.0287239   0.0000000), wk =   0.1111111
        k(   16) = (   0.0497512   0.0000000   0.0000000), wk =   0.1111111
        k(   17) = (  -0.0746269  -0.0430858   0.0000000), wk =   0.0555556
        k(   18) = (  -0.0746269  -0.0143619   0.0000000), wk =   0.1111111
        k(   19) = (  -0.0746269   0.0143619   0.0000000), wk =   0.1111111
        k(   20) = (  -0.0746269  -0.1292575   0.0000000), wk =   0.0555556

     Largest allocated arrays     est. size (Mb)     dimensions
     Largest temporary arrays     est. size (Mb)     dimensions

     Initial potential from superposition of free atoms
     Check: negative starting charge=   -0.250803

     starting charge  145.49257, renormalised to  150.00000

[...]

     *
     * You are using vdW-DF for exchange-correlation in this calculation.
     * Please cite the following three references that made this development
     * possible:
     *
     *   M. Dion, H. Rydberg, E. Schroder, D. C. Langreth, and
     *   B. I. Lundqvist, Phys. Rev. Lett. 92, 246401 (2004).
     *
     *   T. Thonhauser, V. R. Cooper, S. Li, A. Puzder, P. Hyldgaard, and
     *   D. C. Langreth, Phys. Rev. B 76, 125112 (2007).
     *
     *   G. Roman-Perez and J. M. Soler, Phys. Rev. Lett. 103, 096102 (2009).
     *
     *
     * If you are using vdW-DF2, please also cite:
     *
     *   K. Lee, E. D. Murray, L. Kong, B. I. Lundqvist, and
     *   D. C. Langreth, Phys. Rev. B 82, 081101(R) (2010).
     *
     *
     * If you are calculating the stress with vdW-DF, please also cite:
     *
     *   R. Sabatini, E. Kucukbenli, B. Kolb, T. Thonhauser, and
     *   S. de Gironcoli, J. Phys.: Condens. Matter 24, 424209 (2012).
     *

     Carrying out vdW-DF run using the following parameters:

     Nqs =      20    Nr_points =    1024   r_max =   100.000
     q_mesh =
               0.00001000     0.04494208     0.09755937     0.15916263
               0.23128650     0.31572767     0.41458969     0.53033537
               0.66584808     0.82450364     1.01025438     1.22772762
               1.48234092     1.78043706     2.12944203     2.53805004
               3.01644009     3.57652955     4.23227104     5.00000000

     Gradients computed in reciprocal space

[...]

     Starting wfc are  108 randomized atomic wfcs

     Self-consistent Calculation

[...]

     Threshold (ethr) on eigenvalues was too large:
     Diagonalizing with lowered threshold

     Davidson diagonalization with overlap
     ethr =  4.93E-04,  avg # of iterations =  5.4

[...]

     total energy              =   -1542.79854076 Ry
     Harris-Foulkes estimate   =   -1542.79852208 Ry
     estimated scf accuracy    <       0.00000137 Ry

     iteration # 13     ecut=    36.75 Ry     beta=0.10
     Davidson diagonalization with overlap
     ethr =  9.11E-10,  avg # of iterations =  4.7

[...]

     negative rho (up, down):  2.575E-01 0.000E+00

     Adding external electric field

     Computed dipole along edir(3) :
        Dipole                0.0071 Ry au,          0.0180 Debye
        Dipole field          0.0000 Ry au

        Potential amp.       -0.0012 Ry
        Total length         46.9290 bohr

     End of self-consistent calculation

[...]

          k = 0.0498 0.0000 0.0000 ( 25168 PWs)   bands (ev):

[...]

          k =-0.0746-0.1293 0.0000 ( 25206 PWs)   bands (ev):

   -17.0845 -17.0718 -17.0715 -17.0653 -17.0637 -17.0622 -17.0530 -17.0526
   -17.0434 -17.0420 -17.0249 -17.0182 -17.0178 -17.0078 -17.0054  -9.0902
    -9.0184  -8.8608  -8.7715  -8.6975  -8.6743  -8.6731  -8.6559  -8.6345
    -8.6301  -8.6167  -8.5924  -8.5912  -8.5814  -8.5527  -8.5103  -8.4850
    -8.4790  -8.4745  -8.4465  -8.4146  -8.4136  -8.4022  -8.3990  -8.3876
    -8.3860  -8.3847  -8.3662  -8.3571  -8.3489  -8.3367  -8.3314  -8.3281
    -8.3202  -8.3193  -8.2978  -8.2737  -8.2719  -8.2653  -8.2506  -8.2260
    -8.2144  -8.1689  -8.1028  -8.0664  -8.0398  -7.8478  -7.5750  -5.0594
    -4.3121  -3.7704  -3.4031  -2.6208  -2.2106  -2.1925  -1.8826  -0.4286
     0.1541   0.2008   1.1289   1.1693   1.2192   1.4757   1.5275   2.0052
     2.4287   2.5144   2.9109   2.9199   2.9522   3.3329   3.5331   3.6922
     4.2964   4.3404   4.5190   4.7360   4.7914   4.8278   4.8395   5.0540
     5.1144   5.2027   5.3950   5.5943   5.7309   5.7714   6.0618   6.0923
     6.3818

     the Fermi energy is     0.3389 ev

!    total energy              =   -1542.79849897 Ry
     Harris-Foulkes estimate   =   -1542.79854109 Ry
     estimated scf accuracy    <       0.00000070 Ry

     The total energy is the sum of the following terms:

     one-electron contribution =   -8045.95858524 Ry
     hartree contribution      =    4108.47044042 Ry
     xc contribution           =    -562.78710327 Ry
     ewald contribution        =    2957.51142018 Ry
     electric field correction =       0.00000009 Ry
     smearing contrib. (-TS)   =      -0.03467117 Ry

     convergence has been achieved in  13 iterations

 BEEF-vdW xc energy contributions
           1 :   -496.099828832067
           2 :    455.924157260022
           3 :   -387.437041045697
           4 :    308.985210696754
           5 :   -237.806244723282
           6 :    184.040049261376
           7 :   -148.820186101707
           8 :    126.625369092824
           9 :   -109.962607252598
          10 :    93.6177989241271
          11 :   -76.4612864353450
          12 :    60.4962645076807
          13 :   -48.4059904705003
          14 :    41.3989012663577
          15 :   -38.5417584281045
          16 :    37.5984371244801
          17 :   -36.4870214124803
          18 :    34.3140452664745
          19 :   -31.4661015652607
          20 :    28.9443340991303
          21 :   -27.5371043190936
          22 :    27.3602333162787
          23 :   -27.9214968951128
          24 :    28.5057471459095
          25 :   -28.5613400759680
          26 :    27.8902590129483
          27 :   -26.6360859210631
          28 :    25.1625989433824
          29 :   -23.8994720962777
          30 :    23.1811347488329
          31 :   -42.8386843371574
          32 :   -31.2094180974819

     Forces acting on atoms (Ry/au):

     negative rho (up, down):  2.575E-01 0.000E+00
     atom    1 type  1   force =     0.00000381   -0.00414746   -0.00386409
     atom    2 type  1   force =    -0.00358718    0.00207645   -0.00386069
     atom    3 type  1   force =     0.00359364    0.00207918   -0.00385477
     atom    4 type  2   force =    -0.00000473   -0.00000142   -0.00277936
     atom    5 type  1   force =     0.00000170    0.00034220    0.00137088
     atom    6 type  1   force =     0.00029731   -0.00017795    0.00135621
     atom    7 type  1   force =    -0.00030661   -0.00017893    0.00135378
     atom    8 type  2   force =    -0.00000124    0.00000017    0.00639812
     atom    9 type  1   force =     0.00000249   -0.00138345    0.00132623
     atom   10 type  1   force =    -0.00118207    0.00070279    0.00132060
     atom   11 type  1   force =     0.00118500    0.00069630    0.00132282
     atom   12 type  2   force =    -0.00000211   -0.00000789   -0.00008973

     Total force =     0.012722     Total SCF correction =     0.002015
     SCF correction compared to forces is large: reduce conv_thr to get better values

     entering subroutine stress ...

     negative rho (up, down):  2.575E-01 0.000E+00
          total   stress  (Ry/bohr**3)                   (kbar)     P=   -5.62
  -0.00005483  -0.00000000  -0.00000000         -8.07     -0.00     -0.00
  -0.00000000  -0.00005483   0.00000000         -0.00     -8.07      0.00
  -0.00000000   0.00000000  -0.00000493         -0.00      0.00     -0.73

 !ASE

     Writing output data file calc.save

     General routines

     Parallel routines

   This run was terminated on:  23:51:24  19Dec2018

   JOB DONE.
Job  /afs/slac/g/suncat/bin/suncat-tsmpirun -x LD_LIBRARY_PATH -wdir /scratch/qe773447_eyrhm pw.x -in pw.inp

TID   HOST_NAME   COMMAND_LINE            STATUS            TERMINATION_TIME
00000 suncat0004 pw.x -in pw.inp   Done                     12/19/2018 23:51:24
00001 suncat0004 pw.x -in pw.inp   Done                     12/19/2018 23:51:24
00002 suncat0004 pw.x -in pw.inp   Done                     12/19/2018 23:51:24
00003 suncat0004 pw.x -in pw.inp   Done                     12/19/2018 23:51:24
00004 suncat0004 pw.x -in pw.inp   Done                     12/19/2018 23:51:24
00005 suncat0004 pw.x -in pw.inp   Done                     12/19/2018 23:51:24
00006 suncat0004 pw.x -in pw.inp   Done                     12/19/2018 23:51:24
00007 suncat0004 pw.x -in pw.inp   Done                     12/19/2018 23:51:24
00008 suncat0187 pw.x -in pw.inp   Done                     12/19/2018 23:51:24
00009 suncat0187 pw.x -in pw.inp   Done                     12/19/2018 23:51:24
00010 suncat0187 pw.x -in pw.inp   Done                     12/19/2018 23:51:24
00011 suncat0187 pw.x -in pw.inp   Done                     12/19/2018 23:51:24
00012 suncat0187 pw.x -in pw.inp   Done                     12/19/2018 23:51:24
00013 suncat0187 pw.x -in pw.inp   Done                     12/19/2018 23:51:24
00014 suncat0187 pw.x -in pw.inp   Done                     12/19/2018 23:51:24
00015 suncat0187 pw.x -in pw.inp   Done                     12/19/2018 23:51:24
00016 suncat0186 pw.x -in pw.inp   Done                     12/19/2018 23:51:24
00017 suncat0186 pw.x -in pw.inp   Done                     12/19/2018 23:51:24
00018 suncat0186 pw.x -in pw.inp   Done                     12/19/2018 23:51:24
00019 suncat0186 pw.x -in pw.inp   Done                     12/19/2018 23:51:24
00020 suncat0186 pw.x -in pw.inp   Done                     12/19/2018 23:51:24
00021 suncat0186 pw.x -in pw.inp   Done                     12/19/2018 23:51:24
00022 suncat0186 pw.x -in pw.inp   Done                     12/19/2018 23:51:24
00023 suncat0186 pw.x -in pw.inp   Done                     12/19/2018 23:51:24
00024 suncat0185 pw.x -in pw.inp   Done                     12/19/2018 23:51:24
00025 suncat0185 pw.x -in pw.inp   Done                     12/19/2018 23:51:24
00026 suncat0185 pw.x -in pw.inp   Done                     12/19/2018 23:51:24
00027 suncat0185 pw.x -in pw.inp   Done                     12/19/2018 23:51:24
00028 suncat0185 pw.x -in pw.inp   Done                     12/19/2018 23:51:24
00029 suncat0185 pw.x -in pw.inp   Done                     12/19/2018 23:51:24
00030 suncat0185 pw.x -in pw.inp   Done                     12/19/2018 23:51:24
00031 suncat0185 pw.x -in pw.inp   Done                     12/19/2018 23:51:24
00032 suncat0133 pw.x -in pw.inp   Done                     12/19/2018 23:51:24
00033 suncat0133 pw.x -in pw.inp   Done                     12/19/2018 23:51:24
00034 suncat0133 pw.x -in pw.inp   Done                     12/19/2018 23:51:24
00035 suncat0133 pw.x -in pw.inp   Done                     12/19/2018 23:51:24
00036 suncat0133 pw.x -in pw.inp   Done                     12/19/2018 23:51:24
00037 suncat0133 pw.x -in pw.inp   Done                     12/19/2018 23:51:24
00038 suncat0133 pw.x -in pw.inp   Done                     12/19/2018 23:51:24
00039 suncat0133 pw.x -in pw.inp   Done                     12/19/2018 23:51:24
00040 suncat0132 pw.x -in pw.inp   Done                     12/19/2018 23:51:24
00041 suncat0132 pw.x -in pw.inp   Done                     12/19/2018 23:51:24
00042 suncat0132 pw.x -in pw.inp   Done                     12/19/2018 23:51:24
00043 suncat0132 pw.x -in pw.inp   Done                     12/19/2018 23:51:24
00044 suncat0132 pw.x -in pw.inp   Done                     12/19/2018 23:51:24
00045 suncat0132 pw.x -in pw.inp   Done                     12/19/2018 23:51:24
00046 suncat0132 pw.x -in pw.inp   Done                     12/19/2018 23:51:24
00047 suncat0132 pw.x -in pw.inp   Done                     12/19/2018 23:51:24
00048 suncat0131 pw.x -in pw.inp   Done                     12/19/2018 23:51:24
00049 suncat0131 pw.x -in pw.inp   Done                     12/19/2018 23:51:24
00050 suncat0131 pw.x -in pw.inp   Done                     12/19/2018 23:51:24
00051 suncat0131 pw.x -in pw.inp   Done                     12/19/2018 23:51:24
00052 suncat0131 pw.x -in pw.inp   Done                     12/19/2018 23:51:24
00053 suncat0131 pw.x -in pw.inp   Done                     12/19/2018 23:51:24
00054 suncat0131 pw.x -in pw.inp   Done                     12/19/2018 23:51:24
00055 suncat0131 pw.x -in pw.inp   Done                     12/19/2018 23:51:24
00056 suncat0130 pw.x -in pw.inp   Done                     12/19/2018 23:51:24
00057 suncat0130 pw.x -in pw.inp   Done                     12/19/2018 23:51:24
00058 suncat0130 pw.x -in pw.inp   Done                     12/19/2018 23:51:24
00059 suncat0130 pw.x -in pw.inp   Done                     12/19/2018 23:51:24
00060 suncat0130 pw.x -in pw.inp   Done                     12/19/2018 23:51:24
00061 suncat0130 pw.x -in pw.inp   Done                     12/19/2018 23:51:24
00062 suncat0130 pw.x -in pw.inp   Done                     12/19/2018 23:51:24
00063 suncat0130 pw.x -in pw.inp   Done                     12/19/2018 23:51:24