     Program PWSCF v.5.1rc2 (svn rev. 11289) starts on  2Jan2019 at 20:53:11

     Current dimensions of program PWSCF are:
     Max number of different atomic species (ntypx) = 10
     Max number of k-points (npk) =  40000
     Max angular momentum in pseudopotentials (lmaxx) =  3
     Presently stress not available with electric field

     IMPORTANT: XC functional enforced from input :
     Exchange-correlation      = BEEF-VDW ( 1  4 27 13 2)
     Any further DFT definition will be discarded
     Please, verify this is what you really want

     Subspace diagonalization in iterative solution of the eigenvalue problem:
     a serial algorithm will be used

     bravais-lattice index     =            0
     lattice parameter (alat)  =       1.8897  a.u.
     unit-cell volume          =    6028.4179 (a.u.)^3
     number of atoms/cell      =           12
     number of atomic types    =            2
     number of electrons       =       150.00
     number of Kohn-Sham states=          105
     kinetic-energy cutoff     =      36.7493  Ry
     charge density cutoff     =     367.4932  Ry
     convergence threshold     =      1.0E-06
     mixing beta               =       0.1000
     number of iterations used =           10  plain     mixing
     Exchange-correlation      = BEEF-VDW ( 1  4 27 13 2)
     nstep                     =           50

     celldm(1)=   1.889726  celldm(2)=   0.000000  celldm(3)=   0.000000
     celldm(4)=   0.000000  celldm(5)=   0.000000  celldm(6)=   0.000000

     crystal axes: (cart. coord. in units of alat)
               a(1) = (   6.395161   0.000000   0.000000 )
               a(2) = (  -3.197581   5.538372   0.000000 )
               a(3) = (   0.000000   0.000000  25.221627 )

     reciprocal axes: (cart. coord. in units 2 pi/alat)
               b(1) = (  0.156368  0.090279  0.000000 )
               b(2) = (  0.000000  0.180558  0.000000 )
               b(3) = (  0.000000  0.000000  0.039649 )

     PseudoPot. # 1 for Zr read from file:
     /afs/slac.stanford.edu/u/if/mamunm/psp/gbrv1.5pbe/Zr.UPF
     MD5 check sum: 5db81b1e868ab7776c4564c113de050b
     Pseudo is Ultrasoft + core correction, Zval = 12.0
     Generated by new atomic code, or converted to UPF format
     Using radial grid of  887 points,  6 beta functions with:
                l(1) =   0
                l(2) =   0
                l(3) =   1
                l(4) =   1
                l(5) =   2
                l(6) =   2
     Q(r) pseudized with  6 coefficients,  rinner =    1.200   1.200   1.200
                                                       1.200   1.200

     PseudoPot. # 2 for Pb read from file:
     /afs/slac.stanford.edu/u/if/mamunm/psp/gbrv1.5pbe/Pb.UPF
     MD5 check sum: 3d1c1779aa92214d1e8f3a7db79003e2
     Pseudo is Ultrasoft + core correction, Zval = 14.0
     Generated by new atomic code, or converted to UPF format
     Using radial grid of  899 points,  6 beta functions with:
                l(1) =   0
                l(2) =   0
                l(3) =   1
                l(4) =   1
                l(5) =   2
                l(6) =   2
     Q(r) pseudized with  6 coefficients,  rinner =    1.000   1.000   1.000
                                                       1.000   1.000

     vdW kernel table read from file vdW_kernel_table
     MD5 check sum: 095c7af220d748ca6e76c0b4c6cfb241

     atomic species   valence    mass     pseudopotential
        Zr1           12.00    91.22400     Zr( 1.00)
        Pb1           14.00   207.20000     Pb( 1.00)

     No symmetry found

   Cartesian axes

     site n.     atom                  positions (alat units)
         1           Zr1 tau(   1) = (   0.0000000   0.0000000  10.0000000  )
         2           Zr1 tau(   2) = (  -1.5987903   2.7691861  10.0000000  )
         3           Zr1 tau(   3) = (   1.5987903   2.7691861  10.0000000  )
         4           Pb1 tau(   4) = (   3.1975807   0.0000000  10.0000000  )
         5           Zr1 tau(   5) = (   3.1975807   1.8461241  12.6108137  )
         6           Zr1 tau(   6) = (   1.5987903   4.6153102  12.6108137  )
         7           Zr1 tau(   7) = (  -1.5987903   4.6153102  12.6108137  )
         8           Pb1 tau(   8) = (   0.0000000   1.8461241  12.6108137  )
         9           Zr1 tau(   9) = (  -0.0000000   3.6922481  15.2216274  )
        10           Zr1 tau(  10) = (   1.5987903   0.9230620  15.2216274  )
        11           Zr1 tau(  11) = (   4.7963710   0.9230620  15.2216274  )
        12           Pb1 tau(  12) = (   3.1975807   3.6922481  15.2216274  )

     number of k points=    20  Fermi-Dirac smearing, width (Ry)=  0.0110
                       cart. coord. in units 2pi/alat
        k(    1) = (   0.0000000   0.0000000   0.0000000), wk =   0.0555556
        k(    2) = (   0.0000000   0.0300931   0.0000000), wk =   0.1111111
        k(    3) = (   0.0000000   0.0601862   0.0000000), wk =   0.1111111
        k(    4) = (   0.0000000  -0.0902792   0.0000000), wk =   0.0555556
        k(    5) = (   0.0260614   0.0150465   0.0000000), wk =   0.1111111
        k(    6) = (   0.0260614   0.0451396   0.0000000), wk =   0.1111111
        k(    7) = (   0.0260614   0.0752327   0.0000000), wk =   0.1111111
        k(    8) = (   0.0260614  -0.0752327   0.0000000), wk =   0.1111111
        k(    9) = (   0.0260614  -0.0451396   0.0000000), wk =   0.1111111
        k(   10) = (   0.0260614  -0.0150465   0.0000000), wk =   0.1111111
        k(   11) = (   0.0521227   0.0300931   0.0000000), wk =   0.1111111
        k(   12) = (   0.0521227   0.0601862   0.0000000), wk =   0.1111111
        k(   13) = (   0.0521227   0.0902792   0.0000000), wk =   0.1111111
        k(   14) = (   0.0521227  -0.0601862   0.0000000), wk =   0.1111111
        k(   15) = (   0.0521227  -0.0300931   0.0000000), wk =   0.1111111
        k(   16) = (   0.0521227   0.0000000   0.0000000), wk =   0.1111111
        k(   17) = (  -0.0781841  -0.0451396   0.0000000), wk =   0.0555556
        k(   18) = (  -0.0781841  -0.0150465   0.0000000), wk =   0.1111111
        k(   19) = (  -0.0781841   0.0150465   0.0000000), wk =   0.1111111
        k(   20) = (  -0.0781841  -0.1354189   0.0000000), wk =   0.0555556

     Largest allocated arrays     est. size (Mb)     dimensions
     Largest temporary arrays     est. size (Mb)     dimensions

     Initial potential from superposition of free atoms
     Check: negative starting charge=   -0.600504

     starting charge  149.97360, renormalised to  150.00000

     negative rho (up, down):  6.006E-01 0.000E+00

     *
     * You are using vdW-DF for exchange-correlation in this calculation.
     * Please cite the following three references that made this development
     * possible:
     *
     *   M. Dion, H. Rydberg, E. Schroder, D. C. Langreth, and
     *   B. I. Lundqvist, Phys. Rev. Lett. 92, 246401 (2004).
     *
     *   T. Thonhauser, V. R. Cooper, S. Li, A. Puzder, P. Hyldgaard, and
     *   D. C. Langreth, Phys. Rev. B 76, 125112 (2007).
     *
     *   G. Roman-Perez and J. M. Soler, Phys. Rev. Lett. 103, 096102 (2009).
     *
     *
     * If you are using vdW-DF2, please also cite:
     *
     *   K. Lee, E. D. Murray, L. Kong, B. I. Lundqvist, and
     *   D. C. Langreth, Phys. Rev. B 82, 081101(R) (2010).
     *
     *
     * If you are calculating the stress with vdW-DF, please also cite:
     *
     *   R. Sabatini, E. Kucukbenli, B. Kolb, T. Thonhauser, and
     *   S. de Gironcoli, J. Phys.: Condens. Matter 24, 424209 (2012).
     *

     Carrying out vdW-DF run using the following parameters:

     Nqs =      20    Nr_points =    1024   r_max =   100.000
     q_mesh =
               0.00001000     0.04494208     0.09755937     0.15916263
               0.23128650     0.31572767     0.41458969     0.53033537
               0.66584808     0.82450364     1.01025438     1.22772762
               1.48234092     1.78043706     2.12944203     2.53805004
               3.01644009     3.57652955     4.23227104     5.00000000

     Gradients computed in reciprocal space

     Adding external electric field

     Computed dipole along edir(3) :
        Dipole               -0.0000 Ry au,         -0.0000 Debye
        Dipole field         -0.0000 Ry au

        Potential amp.        0.0000 Ry
        Total length         46.4704 bohr

     Starting wfc are  144 randomized atomic wfcs

     Self-consistent Calculation

     iteration #  1     ecut=    36.75 Ry     beta=0.10
     Davidson diagonalization with overlap
     ethr =  1.00E-02,  avg # of iterations =  2.0

[...]

     total energy              =   -1395.44491184 Ry
     Harris-Foulkes estimate   =   -1396.22423402 Ry
     estimated scf accuracy    <       4.44089782 Ry

[...]

     End of self-consistent calculation

          k = 0.0000 0.0000 0.0000 ( 22729 PWs)   bands (ev):

   -47.6652 -47.6624 -47.5954 -47.5954 -47.5948 -47.5947 -47.2888 -47.2215
   -47.2213 -25.8713 -25.8702 -25.8265 -25.7831 -25.7831 -25.7491 -25.7491
   -25.7414 -25.7414 -25.7162 -25.6585 -25.6585 -25.6160 -25.4576 -25.4410
   -25.4146 -25.4145 -25.2191 -25.2191 -25.2144 -25.2144 -25.1563 -25.1562
   -25.1249 -25.1233 -24.8959 -24.8958 -15.2690 -15.2690 -15.2688 -15.2394
   -15.2394 -14.9576 -14.9494 -14.9354 -14.9354 -14.9298 -14.9298 -14.9189
   -14.9189 -14.9133 -14.9133  -7.6838  -6.8533  -6.8460  -1.5870  -1.4330
    -1.0745  -0.4370  -0.4369  -0.4349  -0.4349  -0.0431   0.1253   0.1729
     0.1729   0.5534   0.5534   0.8199   0.8199   1.0468   1.1011   1.3053
     1.3053   1.3813   1.4925   1.4925   1.9891   1.9891   2.1323   2.1617
     2.1617   2.3379   2.7712   3.1018   3.2231   3.8275   3.8557   3.9087
     3.9087   3.9818   4.0325   4.0341   4.0341   4.1563   4.1563   4.2916
     4.2916   4.5180   4.5180   4.7157   4.7157   5.0381   5.0890   5.0891
     5.2781

[...]

          k =-0.0782-0.0451 0.0000 ( 22684 PWs)   bands (ev):

[...]

     the Fermi energy is     1.7353 ev

!    total energy              =   -1395.80080557 Ry
     Harris-Foulkes estimate   =   -1395.80089105 Ry
     estimated scf accuracy    <       0.00000056 Ry

     The total energy is the sum of the following terms:

     one-electron contribution =   -8943.84283544 Ry
     hartree contribution      =    4484.74332593 Ry
     xc contribution           =    -361.70815954 Ry
     ewald contribution        =    3425.10666310 Ry
     electric field correction =       0.00000000 Ry
     smearing contrib. (-TS)   =      -0.09979962 Ry

     convergence has been achieved in  16 iterations

 BEEF-vdW xc energy contributions
           1 :   -316.814062983260
           2 :    291.316289810482
           3 :   -247.243572903427
           4 :    195.416104433315
           5 :   -146.311313813507
           6 :    106.679931678963
           7 :   -78.3005958475421
           8 :    58.9508820356445
           9 :   -44.6722320044850
          10 :    32.0534435728990
          11 :   -19.5653246155405
          12 :    7.62062223092028
          13 :    2.33041500082078
          14 :   -8.99453638483652
          15 :    12.0561020208222
          16 :   -12.2892047666073
          17 :    11.0637818588871
[...]
               b(3) = (  0.000000  0.000000  0.039649 )

     PseudoPot. # 1 for Zr read from file:
     /afs/slac.stanford.edu/u/if/mamunm/psp/gbrv1.5pbe/Zr.UPF
     MD5 check sum: 5db81b1e868ab7776c4564c113de050b
     Pseudo is Ultrasoft + core correction, Zval = 12.0
     Generated by new atomic code, or converted to UPF format
     Using radial grid of  887 points,  6 beta functions with:
                l(1) =   0
                l(2) =   0
                l(3) =   1
                l(4) =   1
                l(5) =   2
                l(6) =   2
     Q(r) pseudized with  6 coefficients,  rinner =    1.200   1.200   1.200
                                                       1.200   1.200

     PseudoPot. # 2 for Pb read from file:
     /afs/slac.stanford.edu/u/if/mamunm/psp/gbrv1.5pbe/Pb.UPF
     MD5 check sum: 3d1c1779aa92214d1e8f3a7db79003e2
     Pseudo is Ultrasoft + core correction, Zval = 14.0
     Generated by new atomic code, or converted to UPF format
     Using radial grid of  899 points,  6 beta functions with:
                l(1) =   0
                l(2) =   0
                l(3) =   1
                l(4) =   1
                l(5) =   2
                l(6) =   2
     Q(r) pseudized with  6 coefficients,  rinner =    1.000   1.000   1.000
                                                       1.000   1.000

     vdW kernel table read from file vdW_kernel_table
     MD5 check sum: 095c7af220d748ca6e76c0b4c6cfb241

     atomic species   valence    mass     pseudopotential
        Zr1           12.00    91.22400     Zr( 1.00)
        Pb1           14.00   207.20000     Pb( 1.00)

     No symmetry found

   Cartesian axes

     site n.     atom                  positions (alat units)
         1           Zr1 tau(   1) = (   0.0000000   0.0000000  10.0000000  )
         2           Zr1 tau(   2) = (  -1.5987903   2.7691861  10.0000000  )
         3           Zr1 tau(   3) = (   1.5987903   2.7691861  10.0000000  )
         4           Pb1 tau(   4) = (   3.1975807   0.0000000  10.0000000  )
         5           Zr1 tau(   5) = (   3.1975807   1.8461241  12.6108137  )
         6           Zr1 tau(   6) = (   1.5987903   4.6153102  12.6108137  )
         7           Zr1 tau(   7) = (  -1.5987903   4.6153102  12.6108137  )
         8           Pb1 tau(   8) = (   0.0000000   1.8461241  12.6108137  )
         9           Zr1 tau(   9) = (  -0.0000108   3.6822231  15.0933687  )
        10           Zr1 tau(  10) = (   1.5900946   0.9281476  15.0933746  )
        11           Zr1 tau(  11) = (   4.8050531   0.9281540  15.0933755  )
        12           Pb1 tau(  12) = (   3.1975645   3.6922607  15.5094195  )

     number of k points=    20  Fermi-Dirac smearing, width (Ry)=  0.0110
                       cart. coord. in units 2pi/alat
        k(    1) = (   0.0000000   0.0000000   0.0000000), wk =   0.0555556
        k(    2) = (   0.0000000   0.0300931   0.0000000), wk =   0.1111111
        k(    3) = (   0.0000000   0.0601862   0.0000000), wk =   0.1111111
        k(    4) = (   0.0000000  -0.0902792   0.0000000), wk =   0.0555556
        k(    5) = (   0.0260614   0.0150465   0.0000000), wk =   0.1111111
        k(    6) = (   0.0260614   0.0451396   0.0000000), wk =   0.1111111
        k(    7) = (   0.0260614   0.0752327   0.0000000), wk =   0.1111111
        k(    8) = (   0.0260614  -0.0752327   0.0000000), wk =   0.1111111
        k(    9) = (   0.0260614  -0.0451396   0.0000000), wk =   0.1111111
        k(   10) = (   0.0260614  -0.0150465   0.0000000), wk =   0.1111111
        k(   11) = (   0.0521227   0.0300931   0.0000000), wk =   0.1111111
        k(   12) = (   0.0521227   0.0601862   0.0000000), wk =   0.1111111
        k(   13) = (   0.0521227   0.0902792   0.0000000), wk =   0.1111111
        k(   14) = (   0.0521227  -0.0601862   0.0000000), wk =   0.1111111
        k(   15) = (   0.0521227  -0.0300931   0.0000000), wk =   0.1111111
        k(   16) = (   0.0521227   0.0000000   0.0000000), wk =   0.1111111
        k(   17) = (  -0.0781841  -0.0451396   0.0000000), wk =   0.0555556
        k(   18) = (  -0.0781841  -0.0150465   0.0000000), wk =   0.1111111
        k(   19) = (  -0.0781841   0.0150465   0.0000000), wk =   0.1111111
        k(   20) = (  -0.0781841  -0.1354189   0.0000000), wk =   0.0555556

     Largest allocated arrays     est. size (Mb)     dimensions
     Largest temporary arrays     est. size (Mb)     dimensions

     Initial potential from superposition of free atoms
     Check: negative starting charge=   -0.599192

     starting charge  149.97360, renormalised to  150.00000

[...]

     *
     * You are using vdW-DF for exchange-correlation in this calculation.
     * Please cite the following three references that made this development
     * possible:
     *
     *   M. Dion, H. Rydberg, E. Schroder, D. C. Langreth, and
     *   B. I. Lundqvist, Phys. Rev. Lett. 92, 246401 (2004).
     *
     *   T. Thonhauser, V. R. Cooper, S. Li, A. Puzder, P. Hyldgaard, and
     *   D. C. Langreth, Phys. Rev. B 76, 125112 (2007).
     *
     *   G. Roman-Perez and J. M. Soler, Phys. Rev. Lett. 103, 096102 (2009).
     *
     *
     * If you are using vdW-DF2, please also cite:
     *
     *   K. Lee, E. D. Murray, L. Kong, B. I. Lundqvist, and
     *   D. C. Langreth, Phys. Rev. B 82, 081101(R) (2010).
     *
     *
     * If you are calculating the stress with vdW-DF, please also cite:
     *
     *   R. Sabatini, E. Kucukbenli, B. Kolb, T. Thonhauser, and
     *   S. de Gironcoli, J. Phys.: Condens. Matter 24, 424209 (2012).
     *

     Carrying out vdW-DF run using the following parameters:

     Nqs =      20    Nr_points =    1024   r_max =   100.000
     q_mesh =
               0.00001000     0.04494208     0.09755937     0.15916263
               0.23128650     0.31572767     0.41458969     0.53033537
               0.66584808     0.82450364     1.01025438     1.22772762
               1.48234092     1.78043706     2.12944203     2.53805004
               3.01644009     3.57652955     4.23227104     5.00000000

     Gradients computed in reciprocal space

[...]

     Starting wfc are  144 randomized atomic wfcs

     Self-consistent Calculation

[...]

     total energy              =   -1395.81834565 Ry
     Harris-Foulkes estimate   =   -1395.81834771 Ry
     estimated scf accuracy    <       0.00000111 Ry

     iteration # 18     ecut=    36.75 Ry     beta=0.10
     Davidson diagonalization with overlap
     ethr =  7.39E-10,  avg # of iterations =  3.2

[...]

     negative rho (up, down):  6.166E-01 0.000E+00

     Adding external electric field

     Computed dipole along edir(3) :
        Dipole               -0.0415 Ry au,         -0.1054 Debye
        Dipole field         -0.0001 Ry au

        Potential amp.        0.0080 Ry
        Total length         46.4704 bohr

     End of self-consistent calculation

[...]

          k = 0.0521 0.0000 0.0000 ( 22691 PWs)   bands (ev):

[...]

          k =-0.0782-0.1354 0.0000 ( 22684 PWs)   bands (ev):

   -47.6968 -47.6741 -47.6510 -47.5724 -47.5489 -47.5250 -47.2564 -47.2347
   -47.2124 -25.8556 -25.8166 -25.8124 -25.7537 -25.7529 -25.7070 -25.6904
   -25.6894 -25.6689 -25.6466 -25.6142 -25.5624 -25.5575 -25.5379 -25.5139
   -25.4730 -25.4363 -25.3198 -25.2841 -25.2694 -25.2659 -25.2419 -25.1752
   -25.1142 -25.0468 -25.0206 -24.9083 -15.3365 -15.3250 -15.3239 -15.3037
   -15.2999 -14.9944 -14.9721 -14.9698 -14.9609 -14.9543 -14.9005 -14.8655
   -14.8647 -14.8609 -14.8524  -7.2824  -6.6992  -6.4211  -2.4313  -1.7929
    -1.6060  -1.4354  -0.5393  -0.3514  -0.2341  -0.2173  -0.1244  -0.0760
     0.2358   0.7636   0.8283   0.9501   1.0734   1.2418   1.3149   1.3874
     1.4395   1.4879   1.5283   1.6678   1.7541   1.8682   2.2047   2.2488
     2.3548   2.4854   2.5813   2.7086   3.0168   3.3236   3.4118   3.7134
     3.7308   3.7405   3.8471   3.9149   3.9402   4.0097   4.0626   4.1512
     4.1686   4.3275   4.3306   4.4751   4.6433   4.9612   5.0869   5.2496
     5.3799

     the Fermi energy is     1.6831 ev

!    total energy              =   -1395.81826558 Ry
     Harris-Foulkes estimate   =   -1395.81834621 Ry
     estimated scf accuracy    <       0.00000029 Ry

     The total energy is the sum of the following terms:

     one-electron contribution =   -8954.05900636 Ry
     hartree contribution      =    4489.82531106 Ry
     xc contribution           =    -361.76599502 Ry
     ewald contribution        =    3430.27634939 Ry
     electric field correction =       0.00000359 Ry
     smearing contrib. (-TS)   =      -0.09492824 Ry

     convergence has been achieved in  18 iterations

 BEEF-vdW xc energy contributions
           1 :   -316.883601700408
           2 :    291.393457285023
           3 :   -247.328935184756
           4 :    195.499338283987
           5 :   -146.377723978804
           6 :    106.723779188358
           7 :   -78.3310819743855
           8 :    58.9837143534643
           9 :   -44.7146780624233
          10 :    32.0970282789557
          11 :   -19.5919121788191
          12 :    7.61594507210401
          13 :    2.36598814248487
          14 :   -9.04491244776176
          15 :    12.0981247290525
          16 :   -12.3055740559946
          17 :    11.0532467571920
          18 :   -9.62914104683267
          19 :    8.73092573837783
          20 :   -8.38348948022826
          21 :    8.19390176655321
          22 :   -7.72167699324518
          23 :    6.75327026416238
          24 :   -5.38316780911157
          25 :    3.92349593083514
          26 :   -2.73235661839527
          27 :    2.05531820861830
          28 :   -1.94100221913783
          29 :    2.24583037358150
          30 :   -2.70767697921468
          31 :   -30.3712586632577
          32 :   -22.5602934945385

     Forces acting on atoms (Ry/au):

     negative rho (up, down):  6.166E-01 0.000E+00
     atom    1 type  1   force =     0.00000024   -0.00060580    0.01733342
     atom    2 type  1   force =    -0.00052482    0.00030141    0.01733023
     atom    3 type  1   force =     0.00052505    0.00030142    0.01732990
     atom    4 type  2   force =    -0.00000196    0.00000581   -0.03766838
     atom    5 type  1   force =     0.00000002    0.00960849    0.00150554
     atom    6 type  1   force =     0.00832071   -0.00480475    0.00150850
     atom    7 type  1   force =    -0.00832156   -0.00480540    0.00150793
     atom    8 type  2   force =     0.00000050   -0.00001031   -0.02135080
     atom    9 type  1   force =     0.00000044    0.00020011    0.00035406
     atom   10 type  1   force =     0.00016979   -0.00010913    0.00035948
     atom   11 type  1   force =    -0.00017020   -0.00010999    0.00035848
     atom   12 type  2   force =     0.00000178    0.00002813    0.00143162

     Total force =     0.055347     Total SCF correction =     0.001559

     entering subroutine stress ...

     negative rho (up, down):  6.166E-01 0.000E+00
          total   stress  (Ry/bohr**3)                   (kbar)     P=   -8.81
  -0.00008464  -0.00000000   0.00000000        -12.45     -0.00      0.00
  -0.00000000  -0.00008465  -0.00000000         -0.00    -12.45     -0.00
   0.00000000  -0.00000000  -0.00001042          0.00     -0.00     -1.53

 !ASE

     Writing output data file calc.save

     General routines

     Parallel routines

   This run was terminated on:  22:15:16   2Jan2019

   JOB DONE.
Job  /afs/slac/g/suncat/bin/suncat-tsmpirun -x LD_LIBRARY_PATH -wdir /scratch/qe649556_KBe50 pw.x -in pw.inp

TID   HOST_NAME   COMMAND_LINE            STATUS            TERMINATION_TIME
00000 suncat0086 pw.x -in pw.inp   Done                     01/02/2019 22:15:16
00001 suncat0086 pw.x -in pw.inp   Done                     01/02/2019 22:15:16
00002 suncat0086 pw.x -in pw.inp   Done                     01/02/2019 22:15:16
00003 suncat0086 pw.x -in pw.inp   Done                     01/02/2019 22:15:16
00004 suncat0086 pw.x -in pw.inp   Done                     01/02/2019 22:15:16
00005 suncat0086 pw.x -in pw.inp   Done                     01/02/2019 22:15:16
00006 suncat0086 pw.x -in pw.inp   Done                     01/02/2019 22:15:16
00007 suncat0086 pw.x -in pw.inp   Done                     01/02/2019 22:15:16
00008 suncat0068 pw.x -in pw.inp   Done                     01/02/2019 22:15:16
00009 suncat0068 pw.x -in pw.inp   Done                     01/02/2019 22:15:16
00010 suncat0068 pw.x -in pw.inp   Done                     01/02/2019 22:15:16
00011 suncat0068 pw.x -in pw.inp   Done                     01/02/2019 22:15:16
00012 suncat0068 pw.x -in pw.inp   Done                     01/02/2019 22:15:16
00013 suncat0068 pw.x -in pw.inp   Done                     01/02/2019 22:15:16
00014 suncat0068 pw.x -in pw.inp   Done                     01/02/2019 22:15:16
00015 suncat0068 pw.x -in pw.inp   Done                     01/02/2019 22:15:16
00016 suncat0065 pw.x -in pw.inp   Done                     01/02/2019 22:15:16
00017 suncat0065 pw.x -in pw.inp   Done                     01/02/2019 22:15:16
00018 suncat0065 pw.x -in pw.inp   Done                     01/02/2019 22:15:16
00019 suncat0065 pw.x -in pw.inp   Done                     01/02/2019 22:15:16
00020 suncat0065 pw.x -in pw.inp   Done                     01/02/2019 22:15:16
00021 suncat0065 pw.x -in pw.inp   Done                     01/02/2019 22:15:16
00022 suncat0065 pw.x -in pw.inp   Done                     01/02/2019 22:15:16
00023 suncat0065 pw.x -in pw.inp   Done                     01/02/2019 22:15:16
00024 suncat0064 pw.x -in pw.inp   Done                     01/02/2019 22:15:16
00025 suncat0064 pw.x -in pw.inp   Done                     01/02/2019 22:15:16
00026 suncat0064 pw.x -in pw.inp   Done                     01/02/2019 22:15:16
00027 suncat0064 pw.x -in pw.inp   Done                     01/02/2019 22:15:16
00028 suncat0064 pw.x -in pw.inp   Done                     01/02/2019 22:15:16
00029 suncat0064 pw.x -in pw.inp   Done                     01/02/2019 22:15:16
00030 suncat0064 pw.x -in pw.inp   Done                     01/02/2019 22:15:16
00031 suncat0064 pw.x -in pw.inp   Done                     01/02/2019 22:15:16
00032 suncat0029 pw.x -in pw.inp   Done                     01/02/2019 22:15:16
00033 suncat0029 pw.x -in pw.inp   Done                     01/02/2019 22:15:16
00034 suncat0029 pw.x -in pw.inp   Done                     01/02/2019 22:15:16
00035 suncat0029 pw.x -in pw.inp   Done                     01/02/2019 22:15:16
00036 suncat0029 pw.x -in pw.inp   Done                     01/02/2019 22:15:16
00037 suncat0029 pw.x -in pw.inp   Done                     01/02/2019 22:15:16
00038 suncat0029 pw.x -in pw.inp   Done                     01/02/2019 22:15:16
00039 suncat0029 pw.x -in pw.inp   Done                     01/02/2019 22:15:16
00040 suncat0019 pw.x -in pw.inp   Done                     01/02/2019 22:15:16
00041 suncat0019 pw.x -in pw.inp   Done                     01/02/2019 22:15:16
00042 suncat0019 pw.x -in pw.inp   Done                     01/02/2019 22:15:16
00043 suncat0019 pw.x -in pw.inp   Done                     01/02/2019 22:15:16
00044 suncat0019 pw.x -in pw.inp   Done                     01/02/2019 22:15:16
00045 suncat0019 pw.x -in pw.inp   Done                     01/02/2019 22:15:16
00046 suncat0019 pw.x -in pw.inp   Done                     01/02/2019 22:15:16
00047 suncat0019 pw.x -in pw.inp   Done                     01/02/2019 22:15:16
00048 suncat0018 pw.x -in pw.inp   Done                     01/02/2019 22:15:16
00049 suncat0018 pw.x -in pw.inp   Done                     01/02/2019 22:15:16
00050 suncat0018 pw.x -in pw.inp   Done                     01/02/2019 22:15:16
00051 suncat0018 pw.x -in pw.inp   Done                     01/02/2019 22:15:16
00052 suncat0018 pw.x -in pw.inp   Done                     01/02/2019 22:15:16
00053 suncat0018 pw.x -in pw.inp   Done                     01/02/2019 22:15:16
00054 suncat0018 pw.x -in pw.inp   Done                     01/02/2019 22:15:16
00055 suncat0018 pw.x -in pw.inp   Done                     01/02/2019 22:15:16
00056 suncat0001 pw.x -in pw.inp   Done                     01/02/2019 22:15:16
00057 suncat0001 pw.x -in pw.inp   Done                     01/02/2019 22:15:16
00058 suncat0001 pw.x -in pw.inp   Done                     01/02/2019 22:15:16
00059 suncat0001 pw.x -in pw.inp   Done                     01/02/2019 22:15:16
00060 suncat0001 pw.x -in pw.inp   Done                     01/02/2019 22:15:16
00061 suncat0001 pw.x -in pw.inp   Done                     01/02/2019 22:15:16
00062 suncat0001 pw.x -in pw.inp   Done                     01/02/2019 22:15:16
00063 suncat0001 pw.x -in pw.inp   Done                     01/02/2019 22:15:16