     Program PWSCF v.5.1rc2 (svn rev. 11289) starts on  1Jan2019 at  6: 0:15

     Current dimensions of program PWSCF are:
     Max number of different atomic species (ntypx) = 10
     Max number of k-points (npk) =  40000
     Max angular momentum in pseudopotentials (lmaxx) =  3
     Presently stress not available with electric field

     IMPORTANT: XC functional enforced from input :
     Exchange-correlation      = BEEF-VDW ( 1  4 27 13 2)
     Any further DFT definition will be discarded
     Please, verify this is what you really want

     Subspace diagonalization in iterative solution of the eigenvalue problem:
     a serial algorithm will be used

     bravais-lattice index     =            0
     lattice parameter (alat)  =       1.8897  a.u.
     unit-cell volume          =    6036.8693 (a.u.)^3
     number of atoms/cell      =           12
     number of atomic types    =            2
     number of electrons       =       135.00
     number of Kohn-Sham states=           97
     kinetic-energy cutoff     =      36.7493  Ry
     charge density cutoff     =     367.4932  Ry
     convergence threshold     =      1.0E-06
     mixing beta               =       0.1000
     number of iterations used =           10  plain     mixing
     Exchange-correlation      = BEEF-VDW ( 1  4 27 13 2)
     nstep                     =           50

     celldm(1)=   1.889726  celldm(2)=   0.000000  celldm(3)=   0.000000
     celldm(4)=   0.000000  celldm(5)=   0.000000  celldm(6)=   0.000000

     crystal axes: (cart. coord. in units of alat)
               a(1) = (   6.399222   0.000000   0.000000 )
               a(2) = (  -3.199611   5.541889   0.000000 )
               a(3) = (   0.000000   0.000000  25.224943 )

     reciprocal axes: (cart. coord. in units 2 pi/alat)
               b(1) = (  0.156269  0.090222  0.000000 )
               b(2) = (  0.000000  0.180444  0.000000 )
               b(3) = (  0.000000  0.000000  0.039643 )

     PseudoPot. # 1 for Sc read from file:
     /afs/slac.stanford.edu/u/if/mamunm/psp/gbrv1.5pbe/Sc.UPF
     MD5 check sum: db30a2753ba66ef00f23801d899b7e7f
     Pseudo is Ultrasoft + core correction, Zval = 11.0
     Generated by new atomic code, or converted to UPF format
     Using radial grid of  849 points,  6 beta functions with:
                l(1) =   0
                l(2) =   0
                l(3) =   1
                l(4) =   1
                l(5) =   2
                l(6) =   2
     Q(r) pseudized with  6 coefficients,  rinner =    1.200   1.200   1.200
                                                       1.200   1.200

     PseudoPot. # 2 for Cd read from file:
     /afs/slac.stanford.edu/u/if/mamunm/psp/gbrv1.5pbe/Cd.UPF
     MD5 check sum: 17164a7926edb8e0dc231208abae86a6
     Pseudo is Ultrasoft + core correction, Zval = 12.0
     Generated by new atomic code, or converted to UPF format
     Using radial grid of  889 points,  6 beta functions with:
                l(1) =   0
                l(2) =   0
                l(3) =   1
                l(4) =   1
                l(5) =   2
                l(6) =   2
     Q(r) pseudized with  6 coefficients,  rinner =    1.000   1.000   1.000
                                                       1.000   1.000

     vdW kernel table read from file vdW_kernel_table
     MD5 check sum: 095c7af220d748ca6e76c0b4c6cfb241

     atomic species   valence    mass     pseudopotential
        Sc1           11.00    44.95591     Sc( 1.00)
        Cd1           12.00   112.41400     Cd( 1.00)

     No symmetry found

   Cartesian axes

     site n.     atom                  positions (alat units)
         1           Sc1 tau(   1) = (   0.0000000   0.0000000  10.0000000  )
         2           Sc1 tau(   2) = (  -1.5998055   2.7709444  10.0000000  )
         3           Sc1 tau(   3) = (   1.5998055   2.7709444  10.0000000  )
         4           Cd1 tau(   4) = (   3.1996110   0.0000000  10.0000000  )
         5           Sc1 tau(   5) = (   3.1996110   1.8472963  12.6124714  )
         6           Sc1 tau(   6) = (   1.5998055   4.6182407  12.6124714  )
         7           Sc1 tau(   7) = (  -1.5998055   4.6182407  12.6124714  )
         8           Cd1 tau(   8) = (   0.0000000   1.8472963  12.6124714  )
         9           Sc1 tau(   9) = (  -0.0000000   3.6945925  15.2249429  )
        10           Sc1 tau(  10) = (   1.5998055   0.9236481  15.2249429  )
        11           Sc1 tau(  11) = (   4.7994165   0.9236481  15.2249429  )
        12           Cd1 tau(  12) = (   3.1996110   3.6945925  15.2249429  )

     number of k points=    20  Fermi-Dirac smearing, width (Ry)=  0.0110
                       cart. coord. in units 2pi/alat
        k(    1) = (   0.0000000   0.0000000   0.0000000), wk =   0.0555556
        k(    2) = (   0.0000000   0.0300740   0.0000000), wk =   0.1111111
        k(    3) = (   0.0000000   0.0601480   0.0000000), wk =   0.1111111
        k(    4) = (   0.0000000  -0.0902219   0.0000000), wk =   0.0555556
        k(    5) = (   0.0260448   0.0150370   0.0000000), wk =   0.1111111
        k(    6) = (   0.0260448   0.0451110   0.0000000), wk =   0.1111111
        k(    7) = (   0.0260448   0.0751850   0.0000000), wk =   0.1111111
        k(    8) = (   0.0260448  -0.0751850   0.0000000), wk =   0.1111111
        k(    9) = (   0.0260448  -0.0451110   0.0000000), wk =   0.1111111
        k(   10) = (   0.0260448  -0.0150370   0.0000000), wk =   0.1111111
        k(   11) = (   0.0520897   0.0300740   0.0000000), wk =   0.1111111
        k(   12) = (   0.0520897   0.0601480   0.0000000), wk =   0.1111111
        k(   13) = (   0.0520897   0.0902219   0.0000000), wk =   0.1111111
        k(   14) = (   0.0520897  -0.0601480   0.0000000), wk =   0.1111111
        k(   15) = (   0.0520897  -0.0300740   0.0000000), wk =   0.1111111
        k(   16) = (   0.0520897   0.0000000   0.0000000), wk =   0.1111111
        k(   17) = (  -0.0781345  -0.0451110   0.0000000), wk =   0.0555556
        k(   18) = (  -0.0781345  -0.0150370   0.0000000), wk =   0.1111111
        k(   19) = (  -0.0781345   0.0150370   0.0000000), wk =   0.1111111
        k(   20) = (  -0.0781345  -0.1353329   0.0000000), wk =   0.0555556

     Largest allocated arrays     est. size (Mb)     dimensions
     Largest temporary arrays     est. size (Mb)     dimensions

     Initial potential from superposition of free atoms
     Check: negative starting charge=   -0.065253

     starting charge  133.47825, renormalised to  135.00000

     negative rho (up, down):  6.600E-02 0.000E+00

     *
     * You are using vdW-DF for exchange-correlation in this calculation.
     * Please cite the following three references that made this development
     * possible:
     *
     *   M. Dion, H. Rydberg, E. Schroder, D. C. Langreth, and
     *   B. I. Lundqvist, Phys. Rev. Lett. 92, 246401 (2004).
     *
     *   T. Thonhauser, V. R. Cooper, S. Li, A. Puzder, P. Hyldgaard, and
     *   D. C. Langreth, Phys. Rev. B 76, 125112 (2007).
     *
     *   G. Roman-Perez and J. M. Soler, Phys. Rev. Lett. 103, 096102 (2009).
     *
     *
     * If you are using vdW-DF2, please also cite:
     *
     *   K. Lee, E. D. Murray, L. Kong, B. I. Lundqvist, and
     *   D. C. Langreth, Phys. Rev. B 82, 081101(R) (2010).
     *
     *
     * If you are calculating the stress with vdW-DF, please also cite:
     *
     *   R. Sabatini, E. Kucukbenli, B. Kolb, T. Thonhauser, and
     *   S. de Gironcoli, J. Phys.: Condens. Matter 24, 424209 (2012).
     *

     Carrying out vdW-DF run using the following parameters:

     Nqs =      20    Nr_points =    1024   r_max =   100.000
     q_mesh =
               0.00001000     0.04494208     0.09755937     0.15916263
               0.23128650     0.31572767     0.41458969     0.53033537
               0.66584808     0.82450364     1.01025438     1.22772762
               1.48234092     1.78043706     2.12944203     2.53805004
               3.01644009     3.57652955     4.23227104     5.00000000

     Gradients computed in reciprocal space

     Adding external electric field

     Computed dipole along edir(3) :
        Dipole                0.0000 Ry au,          0.0000 Debye
        Dipole field          0.0000 Ry au

        Potential amp.       -0.0000 Ry
        Total length         46.4765 bohr

     Starting wfc are  144 randomized atomic wfcs

     Self-consistent Calculation

     iteration #  1     ecut=    36.75 Ry     beta=0.10
     Davidson diagonalization with overlap
     ethr =  1.00E-02,  avg # of iterations =  2.0

[...]

     total energy              =   -1201.27963107 Ry
     Harris-Foulkes estimate   =   -1201.83398933 Ry
     estimated scf accuracy    <       3.19158631 Ry

[...]

     End of self-consistent calculation

          k = 0.0000 0.0000 0.0000 ( 22741 PWs)   bands (ev):

   -49.6358 -49.6349 -49.5992 -49.5991 -49.5990 -49.5989 -49.2978 -49.2619
   -49.2617 -28.3464 -28.3126 -28.3057 -28.3035 -28.2936 -28.2936 -28.2737
   -28.2737 -28.2653 -28.2652 -28.2540 -28.2540 -28.1114 -28.1077 -28.0585
   -28.0004 -28.0003 -27.9963 -27.9962 -27.9255 -27.9254 -27.8637 -27.8442
   -27.8441 -27.7748 -27.7297 -27.7296  -7.9901  -7.9901  -7.9807  -7.9807
    -7.9661  -7.9504  -7.9436  -7.9436  -7.9110  -7.9110  -7.8439  -7.8439
    -7.8342  -7.7776  -7.7776  -5.2607  -4.1169  -3.1518  -1.4573  -1.3928
    -1.3224  -0.4652  -0.4652  -0.3077  -0.3077  -0.0833   0.0826   0.0826
     0.1673   0.4305   0.4749   0.4750   0.5261   0.5261   0.7041   0.8481
     1.0793   1.2158   1.2158   1.2400   1.2400   1.3794   1.4030   1.4031
     1.6406   1.6406   1.8086   1.9914   2.5208   2.6595   2.6922   2.6922
     2.7725   2.7726   2.8191   2.8192   2.9350   2.9351   3.1504   3.1505
     3.1663

[...]

          k =-0.0781-0.0451 0.0000 ( 22692 PWs)   bands (ev):

[...]

     the Fermi energy is     0.4989 ev

!    total energy              =   -1201.54164482 Ry
     Harris-Foulkes estimate   =   -1201.54165165 Ry
     estimated scf accuracy    <       0.00000037 Ry

     The total energy is the sum of the following terms:

     one-electron contribution =   -7469.23399207 Ry
     hartree contribution      =    3744.34507138 Ry
     xc contribution           =    -247.07375913 Ry
     ewald contribution        =    2770.54355838 Ry
     electric field correction =       0.00000000 Ry
     smearing contrib. (-TS)   =      -0.12252337 Ry

     convergence has been achieved in  17 iterations

 BEEF-vdW xc energy contributions
           1 :   -212.972338199352
           2 :    191.227685019427
           3 :   -156.149252928798
           4 :    119.694118298821
           5 :   -91.1943650205134
           6 :    73.8017976024060
           7 :   -65.0687264693771
           8 :    60.2565720000713
           9 :   -55.6798305648364
          10 :    50.1713879466662
          11 :   -44.4936422285419
          12 :    39.8170462137768
          13 :   -36.5940814382662
          14 :    34.4440783626886
          15 :   -32.7388559261332
          16 :    31.1428979447318
          17 :   -29.6574939630416
          18 :    28.3236756008103
          19 :   -27.0313305434786
[...]
               b(1) = (  0.156269  0.090222  0.000000 )
               b(2) = (  0.000000  0.180444  0.000000 )
               b(3) = (  0.000000  0.000000  0.039643 )

     PseudoPot. # 1 for Sc read from file:
     /afs/slac.stanford.edu/u/if/mamunm/psp/gbrv1.5pbe/Sc.UPF
     MD5 check sum: db30a2753ba66ef00f23801d899b7e7f
     Pseudo is Ultrasoft + core correction, Zval = 11.0
     Generated by new atomic code, or converted to UPF format
     Using radial grid of  849 points,  6 beta functions with:
                l(1) =   0
                l(2) =   0
                l(3) =   1
                l(4) =   1
                l(5) =   2
                l(6) =   2
     Q(r) pseudized with  6 coefficients,  rinner =    1.200   1.200   1.200
                                                       1.200   1.200

     PseudoPot. # 2 for Cd read from file:
     /afs/slac.stanford.edu/u/if/mamunm/psp/gbrv1.5pbe/Cd.UPF
     MD5 check sum: 17164a7926edb8e0dc231208abae86a6
     Pseudo is Ultrasoft + core correction, Zval = 12.0
     Generated by new atomic code, or converted to UPF format
     Using radial grid of  889 points,  6 beta functions with:
                l(1) =   0
                l(2) =   0
                l(3) =   1
                l(4) =   1
                l(5) =   2
                l(6) =   2
     Q(r) pseudized with  6 coefficients,  rinner =    1.000   1.000   1.000
                                                       1.000   1.000

     vdW kernel table read from file vdW_kernel_table
     MD5 check sum: 095c7af220d748ca6e76c0b4c6cfb241

     atomic species   valence    mass     pseudopotential
        Sc1           11.00    44.95591     Sc( 1.00)
        Cd1           12.00   112.41400     Cd( 1.00)

     No symmetry found

   Cartesian axes

     site n.     atom                  positions (alat units)
         1           Sc1 tau(   1) = (   0.0000000   0.0000000  10.0000000  )
         2           Sc1 tau(   2) = (  -1.5998055   2.7709444  10.0000000  )
         3           Sc1 tau(   3) = (   1.5998055   2.7709444  10.0000000  )
         4           Cd1 tau(   4) = (   3.1996110   0.0000000  10.0000000  )
         5           Sc1 tau(   5) = (   3.1996110   1.8472963  12.6124714  )
         6           Sc1 tau(   6) = (   1.5998055   4.6182407  12.6124714  )
         7           Sc1 tau(   7) = (  -1.5998055   4.6182407  12.6124714  )
         8           Cd1 tau(   8) = (   0.0000000   1.8472963  12.6124714  )
         9           Sc1 tau(   9) = (  -0.0000154   3.6810639  15.2317649  )
        10           Sc1 tau(  10) = (   1.5881693   0.9302211  15.2317569  )
        11           Sc1 tau(  11) = (   4.8110435   0.9302390  15.2316791  )
        12           Cd1 tau(  12) = (   3.1995761   3.6946863  15.1714645  )

     number of k points=    20  Fermi-Dirac smearing, width (Ry)=  0.0110
                       cart. coord. in units 2pi/alat
        k(    1) = (   0.0000000   0.0000000   0.0000000), wk =   0.0555556
        k(    2) = (   0.0000000   0.0300740   0.0000000), wk =   0.1111111
        k(    3) = (   0.0000000   0.0601480   0.0000000), wk =   0.1111111
        k(    4) = (   0.0000000  -0.0902219   0.0000000), wk =   0.0555556
        k(    5) = (   0.0260448   0.0150370   0.0000000), wk =   0.1111111
        k(    6) = (   0.0260448   0.0451110   0.0000000), wk =   0.1111111
        k(    7) = (   0.0260448   0.0751850   0.0000000), wk =   0.1111111
        k(    8) = (   0.0260448  -0.0751850   0.0000000), wk =   0.1111111
        k(    9) = (   0.0260448  -0.0451110   0.0000000), wk =   0.1111111
        k(   10) = (   0.0260448  -0.0150370   0.0000000), wk =   0.1111111
        k(   11) = (   0.0520897   0.0300740   0.0000000), wk =   0.1111111
        k(   12) = (   0.0520897   0.0601480   0.0000000), wk =   0.1111111
        k(   13) = (   0.0520897   0.0902219   0.0000000), wk =   0.1111111
        k(   14) = (   0.0520897  -0.0601480   0.0000000), wk =   0.1111111
        k(   15) = (   0.0520897  -0.0300740   0.0000000), wk =   0.1111111
        k(   16) = (   0.0520897   0.0000000   0.0000000), wk =   0.1111111
        k(   17) = (  -0.0781345  -0.0451110   0.0000000), wk =   0.0555556
        k(   18) = (  -0.0781345  -0.0150370   0.0000000), wk =   0.1111111
        k(   19) = (  -0.0781345   0.0150370   0.0000000), wk =   0.1111111
        k(   20) = (  -0.0781345  -0.1353329   0.0000000), wk =   0.0555556

     Largest allocated arrays     est. size (Mb)     dimensions
     Largest temporary arrays     est. size (Mb)     dimensions

     Initial potential from superposition of free atoms
     Check: negative starting charge=   -0.065201

     starting charge  133.47825, renormalised to  135.00000

[...]

     *
     * You are using vdW-DF for exchange-correlation in this calculation.
     * Please cite the following three references that made this development
     * possible:
     *
     *   M. Dion, H. Rydberg, E. Schroder, D. C. Langreth, and
     *   B. I. Lundqvist, Phys. Rev. Lett. 92, 246401 (2004).
     *
     *   T. Thonhauser, V. R. Cooper, S. Li, A. Puzder, P. Hyldgaard, and
     *   D. C. Langreth, Phys. Rev. B 76, 125112 (2007).
     *
     *   G. Roman-Perez and J. M. Soler, Phys. Rev. Lett. 103, 096102 (2009).
     *
     *
     * If you are using vdW-DF2, please also cite:
     *
     *   K. Lee, E. D. Murray, L. Kong, B. I. Lundqvist, and
     *   D. C. Langreth, Phys. Rev. B 82, 081101(R) (2010).
     *
     *
     * If you are calculating the stress with vdW-DF, please also cite:
     *
     *   R. Sabatini, E. Kucukbenli, B. Kolb, T. Thonhauser, and
     *   S. de Gironcoli, J. Phys.: Condens. Matter 24, 424209 (2012).
     *

     Carrying out vdW-DF run using the following parameters:

     Nqs =      20    Nr_points =    1024   r_max =   100.000
     q_mesh =
               0.00001000     0.04494208     0.09755937     0.15916263
               0.23128650     0.31572767     0.41458969     0.53033537
               0.66584808     0.82450364     1.01025438     1.22772762
               1.48234092     1.78043706     2.12944203     2.53805004
               3.01644009     3.57652955     4.23227104     5.00000000

     Gradients computed in reciprocal space

[...]

     Starting wfc are  144 randomized atomic wfcs

     Self-consistent Calculation

[...]

     total energy              =   -1201.54239420 Ry
     Harris-Foulkes estimate   =   -1201.54239720 Ry
     estimated scf accuracy    <       0.00000383 Ry

     iteration # 17     ecut=    36.75 Ry     beta=0.10
     Davidson diagonalization with overlap
     ethr =  2.83E-09,  avg # of iterations =  2.2

[...]

     negative rho (up, down):  6.833E-02 0.000E+00

     Adding external electric field

     Computed dipole along edir(3) :
        Dipole                0.0091 Ry au,          0.0231 Debye
        Dipole field          0.0000 Ry au

        Potential amp.       -0.0018 Ry
        Total length         46.4765 bohr

     End of self-consistent calculation

[...]

          k = 0.0521 0.0000 0.0000 ( 22718 PWs)   bands (ev):

[...]

          k =-0.0781-0.1353 0.0000 ( 22692 PWs)   bands (ev):

   -49.6226 -49.6160 -49.6103 -49.6040 -49.5982 -49.5918 -49.2782 -49.2663
   -49.2541 -28.3137 -28.3102 -28.3016 -28.2827 -28.2825 -28.2747 -28.2691
   -28.2612 -28.1947 -28.1834 -28.1764 -28.1688 -28.1661 -28.1586 -28.1181
   -28.1122 -28.0061 -28.0026 -27.9801 -27.8838 -27.8661 -27.8537 -27.8423
   -27.8380 -27.8233 -27.8202 -27.7317  -7.9796  -7.9660  -7.9578  -7.9476
    -7.9466  -7.9309  -7.9306  -7.9226  -7.9138  -7.9065  -7.8291  -7.8141
    -7.8079  -7.7817  -7.7615  -4.1342  -3.9469  -3.2321  -2.4604  -1.7251
    -1.3811  -1.3588  -0.5693  -0.5374  -0.3834  -0.1073   0.0815   0.2266
     0.2303   0.3666   0.3971   0.4616   0.5816   0.7029   0.7391   1.0051
     1.0053   1.0301   1.1364   1.1880   1.2049   1.2928   1.5002   1.5680
     1.6876   1.7182   1.8043   1.8632   2.0419   2.4777   2.5001   2.5590
     2.5615   2.6194   2.6900   2.7337   2.7472   2.7988   2.8722   2.9003
     2.9861

     the Fermi energy is     0.5062 ev

!    total energy              =   -1201.54238681 Ry
     Harris-Foulkes estimate   =   -1201.54239455 Ry
     estimated scf accuracy    <       0.00000074 Ry

     The total energy is the sum of the following terms:

     one-electron contribution =   -7478.91499316 Ry
     hartree contribution      =    3749.23287327 Ry
     xc contribution           =    -247.07789291 Ry
     ewald contribution        =    2775.33967616 Ry
     electric field correction =       0.00000017 Ry
     smearing contrib. (-TS)   =      -0.12205033 Ry

     convergence has been achieved in  17 iterations

 BEEF-vdW xc energy contributions
           1 :   -212.983899493156
           2 :    191.243069037538
           3 :   -156.168502142977
           4 :    119.712225819944
           5 :   -91.2037729145862
           6 :    73.7977379126298
           7 :   -65.0535756873717
           8 :    60.2390687052618
           9 :   -55.6691102280321
          10 :    50.1706498143877
          11 :   -44.4985666119406
          12 :    39.8196910083205
          13 :   -36.5886742435248
          14 :    34.4306658229939
          15 :   -32.7230068626344
          16 :    31.1321695207881
          17 :   -29.6567036672491
          18 :    28.3315925276456
          19 :   -27.0410825422606
          20 :    25.6457169771125
          21 :   -24.2171582209090
          22 :    23.0542672173560
          23 :   -22.4160996294186
          24 :    22.2281620892609
          25 :   -22.0696733304824
          26 :    21.4910140620439
          27 :   -20.3963873210886
          28 :    19.1468362535074
          29 :   -18.2772742041751
          30 :    18.0624412972546
          31 :   -22.0917400010218
          32 :   -15.9735532004430

     Forces acting on atoms (Ry/au):

     negative rho (up, down):  6.833E-02 0.000E+00
     atom    1 type  1   force =     0.00000718    0.00367370   -0.00130411
     atom    2 type  1   force =     0.00317996   -0.00182868   -0.00129638
     atom    3 type  1   force =    -0.00317973   -0.00183783   -0.00130577
     atom    4 type  2   force =    -0.00000624    0.00000658    0.00585510
     atom    5 type  1   force =    -0.00000299   -0.00046036   -0.00015481
     atom    6 type  1   force =    -0.00040867    0.00023833   -0.00016004
     atom    7 type  1   force =     0.00040916    0.00024075   -0.00015835
     atom    8 type  2   force =    -0.00000238    0.00000402   -0.00014851
     atom    9 type  1   force =    -0.00000520   -0.00034229   -0.00012302
     atom   10 type  1   force =    -0.00027215    0.00015719   -0.00012087
     atom   11 type  1   force =     0.00027204    0.00016355   -0.00010616
     atom   12 type  2   force =     0.00000900   -0.00001497   -0.00097707

     Total force =     0.009049     Total SCF correction =     0.000858

     entering subroutine stress ...

     negative rho (up, down):  6.833E-02 0.000E+00
          total   stress  (Ry/bohr**3)                   (kbar)     P=   -3.67
  -0.00003445  -0.00000000   0.00000000         -5.07     -0.00      0.00
  -0.00000000  -0.00003445   0.00000000         -0.00     -5.07      0.00
   0.00000000   0.00000000  -0.00000594          0.00      0.00     -0.87

 !ASE

     Writing output data file calc.save

     General routines

     Parallel routines

   This run was terminated on:   7: 3:35   1Jan2019

   JOB DONE.
Job  /afs/slac/g/suncat/bin/suncat-tsmpirun -x LD_LIBRARY_PATH -wdir /scratch/qe648954_pOtIW pw.x -in pw.inp

TID   HOST_NAME   COMMAND_LINE            STATUS            TERMINATION_TIME
00000 suncat0056 pw.x -in pw.inp   Done                     01/01/2019 07:03:35
00001 suncat0056 pw.x -in pw.inp   Done                     01/01/2019 07:03:35
00002 suncat0056 pw.x -in pw.inp   Done                     01/01/2019 07:03:35
00003 suncat0056 pw.x -in pw.inp   Done                     01/01/2019 07:03:35
00004 suncat0056 pw.x -in pw.inp   Done                     01/01/2019 07:03:35
00005 suncat0056 pw.x -in pw.inp   Done                     01/01/2019 07:03:35
00006 suncat0056 pw.x -in pw.inp   Done                     01/01/2019 07:03:35
00007 suncat0056 pw.x -in pw.inp   Done                     01/01/2019 07:03:35
00008 suncat0052 pw.x -in pw.inp   Done                     01/01/2019 07:03:35
00009 suncat0052 pw.x -in pw.inp   Done                     01/01/2019 07:03:35
00010 suncat0052 pw.x -in pw.inp   Done                     01/01/2019 07:03:35
00011 suncat0052 pw.x -in pw.inp   Done                     01/01/2019 07:03:35
00012 suncat0052 pw.x -in pw.inp   Done                     01/01/2019 07:03:35
00013 suncat0052 pw.x -in pw.inp   Done                     01/01/2019 07:03:35
00014 suncat0052 pw.x -in pw.inp   Done                     01/01/2019 07:03:35
00015 suncat0052 pw.x -in pw.inp   Done                     01/01/2019 07:03:35
00016 suncat0048 pw.x -in pw.inp   Done                     01/01/2019 07:03:35
00017 suncat0048 pw.x -in pw.inp   Done                     01/01/2019 07:03:35
00018 suncat0048 pw.x -in pw.inp   Done                     01/01/2019 07:03:35
00019 suncat0048 pw.x -in pw.inp   Done                     01/01/2019 07:03:35
00020 suncat0048 pw.x -in pw.inp   Done                     01/01/2019 07:03:35
00021 suncat0048 pw.x -in pw.inp   Done                     01/01/2019 07:03:35
00022 suncat0048 pw.x -in pw.inp   Done                     01/01/2019 07:03:35
00023 suncat0048 pw.x -in pw.inp   Done                     01/01/2019 07:03:35
00024 suncat0047 pw.x -in pw.inp   Done                     01/01/2019 07:03:35
00025 suncat0047 pw.x -in pw.inp   Done                     01/01/2019 07:03:35
00026 suncat0047 pw.x -in pw.inp   Done                     01/01/2019 07:03:35
00027 suncat0047 pw.x -in pw.inp   Done                     01/01/2019 07:03:35
00028 suncat0047 pw.x -in pw.inp   Done                     01/01/2019 07:03:35
00029 suncat0047 pw.x -in pw.inp   Done                     01/01/2019 07:03:35
00030 suncat0047 pw.x -in pw.inp   Done                     01/01/2019 07:03:35
00031 suncat0047 pw.x -in pw.inp   Done                     01/01/2019 07:03:35
00032 suncat0031 pw.x -in pw.inp   Done                     01/01/2019 07:03:35
00033 suncat0031 pw.x -in pw.inp   Done                     01/01/2019 07:03:35
00034 suncat0031 pw.x -in pw.inp   Done                     01/01/2019 07:03:35
00035 suncat0031 pw.x -in pw.inp   Done                     01/01/2019 07:03:35
00036 suncat0031 pw.x -in pw.inp   Done                     01/01/2019 07:03:35
00037 suncat0031 pw.x -in pw.inp   Done                     01/01/2019 07:03:35
00038 suncat0031 pw.x -in pw.inp   Done                     01/01/2019 07:03:35
00039 suncat0031 pw.x -in pw.inp   Done                     01/01/2019 07:03:35
00040 suncat0030 pw.x -in pw.inp   Done                     01/01/2019 07:03:35
00041 suncat0030 pw.x -in pw.inp   Done                     01/01/2019 07:03:35
00042 suncat0030 pw.x -in pw.inp   Done                     01/01/2019 07:03:35
00043 suncat0030 pw.x -in pw.inp   Done                     01/01/2019 07:03:35
00044 suncat0030 pw.x -in pw.inp   Done                     01/01/2019 07:03:35
00045 suncat0030 pw.x -in pw.inp   Done                     01/01/2019 07:03:35
00046 suncat0030 pw.x -in pw.inp   Done                     01/01/2019 07:03:35
00047 suncat0030 pw.x -in pw.inp   Done                     01/01/2019 07:03:35
00048 suncat0132 pw.x -in pw.inp   Done                     01/01/2019 07:03:35
00049 suncat0132 pw.x -in pw.inp   Done                     01/01/2019 07:03:35
00050 suncat0132 pw.x -in pw.inp   Done                     01/01/2019 07:03:35
00051 suncat0132 pw.x -in pw.inp   Done                     01/01/2019 07:03:35
00052 suncat0132 pw.x -in pw.inp   Done                     01/01/2019 07:03:35
00053 suncat0132 pw.x -in pw.inp   Done                     01/01/2019 07:03:35
00054 suncat0132 pw.x -in pw.inp   Done                     01/01/2019 07:03:35
00055 suncat0132 pw.x -in pw.inp   Done                     01/01/2019 07:03:35
00056 suncat0131 pw.x -in pw.inp   Done                     01/01/2019 07:03:35
00057 suncat0131 pw.x -in pw.inp   Done                     01/01/2019 07:03:35
00058 suncat0131 pw.x -in pw.inp   Done                     01/01/2019 07:03:35
00059 suncat0131 pw.x -in pw.inp   Done                     01/01/2019 07:03:35
00060 suncat0131 pw.x -in pw.inp   Done                     01/01/2019 07:03:35
00061 suncat0131 pw.x -in pw.inp   Done                     01/01/2019 07:03:35
00062 suncat0131 pw.x -in pw.inp   Done                     01/01/2019 07:03:35
00063 suncat0131 pw.x -in pw.inp   Done                     01/01/2019 07:03:35