     Program PWSCF v.5.1rc2 (svn rev. 11289) starts on 27Dec2018 at  7:11:14

     Current dimensions of program PWSCF are:
     Max number of different atomic species (ntypx) = 10
     Max number of k-points (npk) =  40000
     Max angular momentum in pseudopotentials (lmaxx) =  3
     Presently stress not available with electric field

     IMPORTANT: XC functional enforced from input :
     Exchange-correlation      = BEEF-VDW ( 1  4 27 13 2)
     Any further DFT definition will be discarded
     Please, verify this is what you really want

     Subspace diagonalization in iterative solution of the eigenvalue problem:
     a serial algorithm will be used

     bravais-lattice index     =            0
     lattice parameter (alat)  =       1.8897  a.u.
     unit-cell volume          =    5117.5855 (a.u.)^3
     number of atoms/cell      =           12
     number of atomic types    =            2
     number of electrons       =       153.00
     number of Kohn-Sham states=          106
     kinetic-energy cutoff     =      36.7493  Ry
     charge density cutoff     =     367.4932  Ry
     convergence threshold     =      1.0E-06
     mixing beta               =       0.1000
     number of iterations used =           10  plain     mixing
     Exchange-correlation      = BEEF-VDW ( 1  4 27 13 2)
     nstep                     =           50

     celldm(1)=   1.889726  celldm(2)=   0.000000  celldm(3)=   0.000000
     celldm(4)=   0.000000  celldm(5)=   0.000000  celldm(6)=   0.000000

     crystal axes: (cart. coord. in units of alat)
               a(1) = (   5.936504   0.000000   0.000000 )
               a(2) = (  -2.968252   5.141163   0.000000 )
               a(3) = (   0.000000   0.000000  24.847135 )

     reciprocal axes: (cart. coord. in units 2 pi/alat)
               b(1) = (  0.168449  0.097254  0.000000 )
               b(2) = (  0.000000  0.194509  0.000000 )
               b(3) = (  0.000000  0.000000  0.040246 )

     PseudoPot. # 1 for Nb read from file:
     /afs/slac.stanford.edu/u/if/mamunm/psp/gbrv1.5pbe/Nb.UPF
     MD5 check sum: 573aab8a2fa660278ed4a62cd769473f
     Pseudo is Ultrasoft + core correction, Zval = 13.0
     Generated by new atomic code, or converted to UPF format
     Using radial grid of  887 points,  6 beta functions with:
                l(1) =   0
                l(2) =   0
                l(3) =   1
                l(4) =   1
                l(5) =   2
                l(6) =   2
     Q(r) pseudized with  6 coefficients,  rinner =    1.000   1.000   1.000
                                                       1.000   1.000

     PseudoPot. # 2 for Ti read from file:
     /afs/slac.stanford.edu/u/if/mamunm/psp/gbrv1.5pbe/Ti.UPF
     MD5 check sum: 88a00a6731bd790ddea75d31a80cb452
     Pseudo is Ultrasoft + core correction, Zval = 12.0
     Generated by new atomic code, or converted to UPF format
     Using radial grid of  851 points,  6 beta functions with:
                l(1) =   0
                l(2) =   0
                l(3) =   1
                l(4) =   1
                l(5) =   2
                l(6) =   2
     Q(r) pseudized with  6 coefficients,  rinner =    1.000   1.000   1.000
                                                       1.000   1.000

     vdW kernel table read from file vdW_kernel_table
     MD5 check sum: 095c7af220d748ca6e76c0b4c6cfb241

     atomic species   valence    mass     pseudopotential
        Nb1           13.00    92.90637     Nb( 1.00)
        Ti1           12.00    47.86700     Ti( 1.00)

     No symmetry found

   Cartesian axes

     site n.     atom                  positions (alat units)
         1           Nb1 tau(   1) = (   0.0000000   0.0000000  10.0000000  )
         2           Nb1 tau(   2) = (  -1.4841260   2.5705817  10.0000000  )
         3           Nb1 tau(   3) = (   1.4841260   2.5705817  10.0000000  )
         4           Ti1 tau(   4) = (   2.9682521   0.0000000  10.0000000  )
         5           Nb1 tau(   5) = (   2.9682521   1.7137211  12.4235677  )
         6           Nb1 tau(   6) = (   1.4841260   4.2843028  12.4235677  )
         7           Nb1 tau(   7) = (  -1.4841260   4.2843028  12.4235677  )
         8           Ti1 tau(   8) = (   0.0000000   1.7137211  12.4235677  )
         9           Nb1 tau(   9) = (  -0.0000000   3.4274423  14.8471353  )
        10           Nb1 tau(  10) = (   1.4841260   0.8568606  14.8471353  )
        11           Nb1 tau(  11) = (   4.4523781   0.8568606  14.8471353  )
        12           Ti1 tau(  12) = (   2.9682521   3.4274423  14.8471353  )

     number of k points=    20  Fermi-Dirac smearing, width (Ry)=  0.0110
                       cart. coord. in units 2pi/alat
        k(    1) = (   0.0000000   0.0000000   0.0000000), wk =   0.0555556
        k(    2) = (   0.0000000   0.0324181   0.0000000), wk =   0.1111111
        k(    3) = (   0.0000000   0.0648362   0.0000000), wk =   0.1111111
        k(    4) = (   0.0000000  -0.0972543   0.0000000), wk =   0.0555556
        k(    5) = (   0.0280749   0.0162090   0.0000000), wk =   0.1111111
        k(    6) = (   0.0280749   0.0486271   0.0000000), wk =   0.1111111
        k(    7) = (   0.0280749   0.0810452   0.0000000), wk =   0.1111111
        k(    8) = (   0.0280749  -0.0810452   0.0000000), wk =   0.1111111
        k(    9) = (   0.0280749  -0.0486271   0.0000000), wk =   0.1111111
        k(   10) = (   0.0280749  -0.0162090   0.0000000), wk =   0.1111111
        k(   11) = (   0.0561498   0.0324181   0.0000000), wk =   0.1111111
        k(   12) = (   0.0561498   0.0648362   0.0000000), wk =   0.1111111
        k(   13) = (   0.0561498   0.0972543   0.0000000), wk =   0.1111111
        k(   14) = (   0.0561498  -0.0648362   0.0000000), wk =   0.1111111
        k(   15) = (   0.0561498  -0.0324181   0.0000000), wk =   0.1111111
        k(   16) = (   0.0561498   0.0000000   0.0000000), wk =   0.1111111
        k(   17) = (  -0.0842247  -0.0486271   0.0000000), wk =   0.0555556
        k(   18) = (  -0.0842247  -0.0162090   0.0000000), wk =   0.1111111
        k(   19) = (  -0.0842247   0.0162090   0.0000000), wk =   0.1111111
        k(   20) = (  -0.0842247  -0.1458814   0.0000000), wk =   0.0555556

     Largest allocated arrays     est. size (Mb)     dimensions
     Largest temporary arrays     est. size (Mb)     dimensions

     Check: negative/imaginary core charge=   -0.000003    0.000000

     Initial potential from superposition of free atoms
     Check: negative starting charge=   -0.007361

     starting charge  149.97527, renormalised to  153.00000

     negative rho (up, down):  7.509E-03 0.000E+00

     *
     * You are using vdW-DF for exchange-correlation in this calculation.
     * Please cite the following three references that made this development
     * possible:
     *
     *   M. Dion, H. Rydberg, E. Schroder, D. C. Langreth, and
     *   B. I. Lundqvist, Phys. Rev. Lett. 92, 246401 (2004).
     *
     *   T. Thonhauser, V. R. Cooper, S. Li, A. Puzder, P. Hyldgaard, and
     *   D. C. Langreth, Phys. Rev. B 76, 125112 (2007).
     *
     *   G. Roman-Perez and J. M. Soler, Phys. Rev. Lett. 103, 096102 (2009).
     *
     *
     * If you are using vdW-DF2, please also cite:
     *
     *   K. Lee, E. D. Murray, L. Kong, B. I. Lundqvist, and
     *   D. C. Langreth, Phys. Rev. B 82, 081101(R) (2010).
     *
     *
     * If you are calculating the stress with vdW-DF, please also cite:
     *
     *   R. Sabatini, E. Kucukbenli, B. Kolb, T. Thonhauser, and
     *   S. de Gironcoli, J. Phys.: Condens. Matter 24, 424209 (2012).
     *

     Carrying out vdW-DF run using the following parameters:

     Nqs =      20    Nr_points =    1024   r_max =   100.000
     q_mesh =
               0.00001000     0.04494208     0.09755937     0.15916263
               0.23128650     0.31572767     0.41458969     0.53033537
               0.66584808     0.82450364     1.01025438     1.22772762
               1.48234092     1.78043706     2.12944203     2.53805004
               3.01644009     3.57652955     4.23227104     5.00000000

     Gradients computed in reciprocal space

     Adding external electric field

     Computed dipole along edir(3) :
        Dipole               -0.0000 Ry au,         -0.0000 Debye
        Dipole field         -0.0000 Ry au

        Potential amp.        0.0000 Ry
        Total length         45.7804 bohr

     Starting wfc are  147 randomized atomic wfcs

     Self-consistent Calculation

     iteration #  1     ecut=    36.75 Ry     beta=0.10
     Davidson diagonalization with overlap
     ethr =  1.00E-02,  avg # of iterations =  2.2

[...]

     total energy              =   -1418.51133388 Ry
     Harris-Foulkes estimate   =   -1431.82411025 Ry
     estimated scf accuracy    <      73.97950605 Ry

[...]

     End of self-consistent calculation

          k = 0.0000 0.0000 0.0000 ( 19267 PWs)   bands (ev):

   -55.5719 -55.5716 -55.4478 -53.5085 -53.4774 -53.4112 -53.3910 -53.3910
   -53.3798 -53.3798 -53.3339 -53.3339 -31.8681 -31.8503 -31.7922 -31.7922
   -31.7860 -31.7860 -31.6968 -31.6968 -31.6725 -30.0145 -29.8881 -29.8305
   -29.7266 -29.7266 -29.7090 -29.6658 -29.6658 -29.5886 -29.5886 -29.5557
   -29.4518 -29.4518 -29.3918 -29.3918 -29.2932 -29.2067 -29.1982 -29.1884
   -29.1884 -29.1039 -29.0628 -29.0628 -29.0608 -29.0608 -29.0421 -29.0421
    -3.9134  -2.6206  -2.0217  -1.9905  -1.6824  -1.5142  -1.5142  -1.2947
    -1.2947  -1.2058  -1.0484  -0.9383  -0.9383  -0.8128  -0.8128  -0.1448
     0.2169   0.2169   0.9799   1.1049   1.1590   1.1590   1.4726   1.5932
     1.8842   1.8842   1.8884   1.8884   2.0609   2.0809   2.0809   2.1489
     2.2029   2.2029   2.2215   2.2215   2.3811   2.6785   2.6785   2.8902
     3.3472   3.3472   3.5329   3.6078   3.6078   3.8800   3.8800   3.8840
     4.1130   4.2620   4.2620   4.4726   4.4726   4.9405   4.9405   5.1578
     5.1578   5.2744

[...]

          k =-0.0842-0.0486 0.0000 ( 19284 PWs)   bands (ev):

[...]

     the Fermi energy is     1.5698 ev

!    total energy              =   -1426.20777871 Ry
     Harris-Foulkes estimate   =   -1426.20777813 Ry
     estimated scf accuracy    <       0.00000025 Ry

     The total energy is the sum of the following terms:

     one-electron contribution =  -11179.33525474 Ry
     hartree contribution      =    5579.29347748 Ry
     xc contribution           =    -227.18919929 Ry
     ewald contribution        =    4401.15004855 Ry
     electric field correction =       0.00000000 Ry
     smearing contrib. (-TS)   =      -0.12685071 Ry

     convergence has been achieved in  23 iterations

 BEEF-vdW xc energy contributions
           1 :   -194.882748979958
           2 :    176.465880047871
           3 :   -145.389915510792
           4 :    110.425817816531
           5 :   -79.6541005293805
           6 :    57.5947871709883
           7 :   -44.4174381156652
           8 :    37.1475773660636
           9 :   -31.8926397467427
          10 :    25.8045851103760
          11 :   -17.9839264695179
          12 :    9.20785626963905
          13 :  -0.967717329341269
          14 :   -5.53119769588156
          15 :    9.90885329745714
[...]

     PseudoPot. # 1 for Nb read from file:
     /afs/slac.stanford.edu/u/if/mamunm/psp/gbrv1.5pbe/Nb.UPF
     MD5 check sum: 573aab8a2fa660278ed4a62cd769473f
     Pseudo is Ultrasoft + core correction, Zval = 13.0
     Generated by new atomic code, or converted to UPF format
     Using radial grid of  887 points,  6 beta functions with:
                l(1) =   0
                l(2) =   0
                l(3) =   1
                l(4) =   1
                l(5) =   2
                l(6) =   2
     Q(r) pseudized with  6 coefficients,  rinner =    1.000   1.000   1.000
                                                       1.000   1.000

     PseudoPot. # 2 for Ti read from file:
     /afs/slac.stanford.edu/u/if/mamunm/psp/gbrv1.5pbe/Ti.UPF
     MD5 check sum: 88a00a6731bd790ddea75d31a80cb452
     Pseudo is Ultrasoft + core correction, Zval = 12.0
     Generated by new atomic code, or converted to UPF format
     Using radial grid of  851 points,  6 beta functions with:
                l(1) =   0
                l(2) =   0
                l(3) =   1
                l(4) =   1
                l(5) =   2
                l(6) =   2
     Q(r) pseudized with  6 coefficients,  rinner =    1.000   1.000   1.000
                                                       1.000   1.000

     vdW kernel table read from file vdW_kernel_table
     MD5 check sum: 095c7af220d748ca6e76c0b4c6cfb241

     atomic species   valence    mass     pseudopotential
        Nb1           13.00    92.90637     Nb( 1.00)
        Ti1           12.00    47.86700     Ti( 1.00)

     No symmetry found

   Cartesian axes

     site n.     atom                  positions (alat units)
         1           Nb1 tau(   1) = (   0.0000000   0.0000000  10.0000000  )
         2           Nb1 tau(   2) = (  -1.4841260   2.5705817  10.0000000  )
         3           Nb1 tau(   3) = (   1.4841260   2.5705817  10.0000000  )
         4           Ti1 tau(   4) = (   2.9682521   0.0000000  10.0000000  )
         5           Nb1 tau(   5) = (   2.9682521   1.7137211  12.4235677  )
         6           Nb1 tau(   6) = (   1.4841260   4.2843028  12.4235677  )
         7           Nb1 tau(   7) = (  -1.4841260   4.2843028  12.4235677  )
         8           Ti1 tau(   8) = (   0.0000000   1.7137211  12.4235677  )
         9           Nb1 tau(   9) = (  -0.0000052   3.4113271  14.8016901  )
        10           Nb1 tau(  10) = (   1.4701783   0.8649203  14.8016950  )
        11           Nb1 tau(  11) = (   4.4663225   0.8649191  14.8016872  )
        12           Ti1 tau(  12) = (   2.9682492   3.4274444  14.9051404  )

     number of k points=    20  Fermi-Dirac smearing, width (Ry)=  0.0110
                       cart. coord. in units 2pi/alat
        k(    1) = (   0.0000000   0.0000000   0.0000000), wk =   0.0555556
        k(    2) = (   0.0000000   0.0324181   0.0000000), wk =   0.1111111
        k(    3) = (   0.0000000   0.0648362   0.0000000), wk =   0.1111111
        k(    4) = (   0.0000000  -0.0972543   0.0000000), wk =   0.0555556
        k(    5) = (   0.0280749   0.0162090   0.0000000), wk =   0.1111111
        k(    6) = (   0.0280749   0.0486271   0.0000000), wk =   0.1111111
        k(    7) = (   0.0280749   0.0810452   0.0000000), wk =   0.1111111
        k(    8) = (   0.0280749  -0.0810452   0.0000000), wk =   0.1111111
        k(    9) = (   0.0280749  -0.0486271   0.0000000), wk =   0.1111111
        k(   10) = (   0.0280749  -0.0162090   0.0000000), wk =   0.1111111
        k(   11) = (   0.0561498   0.0324181   0.0000000), wk =   0.1111111
        k(   12) = (   0.0561498   0.0648362   0.0000000), wk =   0.1111111
        k(   13) = (   0.0561498   0.0972543   0.0000000), wk =   0.1111111
        k(   14) = (   0.0561498  -0.0648362   0.0000000), wk =   0.1111111
        k(   15) = (   0.0561498  -0.0324181   0.0000000), wk =   0.1111111
        k(   16) = (   0.0561498   0.0000000   0.0000000), wk =   0.1111111
        k(   17) = (  -0.0842247  -0.0486271   0.0000000), wk =   0.0555556
        k(   18) = (  -0.0842247  -0.0162090   0.0000000), wk =   0.1111111
        k(   19) = (  -0.0842247   0.0162090   0.0000000), wk =   0.1111111
        k(   20) = (  -0.0842247  -0.1458814   0.0000000), wk =   0.0555556

     Largest allocated arrays     est. size (Mb)     dimensions
     Largest temporary arrays     est. size (Mb)     dimensions

     Check: negative/imaginary core charge=   -0.000003    0.000000

     Initial potential from superposition of free atoms
     Check: negative starting charge=   -0.007527

     starting charge  149.97527, renormalised to  153.00000

[...]

     *
     * You are using vdW-DF for exchange-correlation in this calculation.
     * Please cite the following three references that made this development
     * possible:
     *
     *   M. Dion, H. Rydberg, E. Schroder, D. C. Langreth, and
     *   B. I. Lundqvist, Phys. Rev. Lett. 92, 246401 (2004).
     *
     *   T. Thonhauser, V. R. Cooper, S. Li, A. Puzder, P. Hyldgaard, and
     *   D. C. Langreth, Phys. Rev. B 76, 125112 (2007).
     *
     *   G. Roman-Perez and J. M. Soler, Phys. Rev. Lett. 103, 096102 (2009).
     *
     *
     * If you are using vdW-DF2, please also cite:
     *
     *   K. Lee, E. D. Murray, L. Kong, B. I. Lundqvist, and
     *   D. C. Langreth, Phys. Rev. B 82, 081101(R) (2010).
     *
     *
     * If you are calculating the stress with vdW-DF, please also cite:
     *
     *   R. Sabatini, E. Kucukbenli, B. Kolb, T. Thonhauser, and
     *   S. de Gironcoli, J. Phys.: Condens. Matter 24, 424209 (2012).
     *

     Carrying out vdW-DF run using the following parameters:

     Nqs =      20    Nr_points =    1024   r_max =   100.000
     q_mesh =
               0.00001000     0.04494208     0.09755937     0.15916263
               0.23128650     0.31572767     0.41458969     0.53033537
               0.66584808     0.82450364     1.01025438     1.22772762
               1.48234092     1.78043706     2.12944203     2.53805004
               3.01644009     3.57652955     4.23227104     5.00000000

     Gradients computed in reciprocal space

[...]

     Starting wfc are  147 randomized atomic wfcs

     Self-consistent Calculation

[...]

     total energy              =   -1426.21199910 Ry
     Harris-Foulkes estimate   =   -1426.21199836 Ry
     estimated scf accuracy    <       0.00000227 Ry

     iteration # 22     ecut=    36.75 Ry     beta=0.10
     Davidson diagonalization with overlap
     ethr =  1.48E-09,  avg # of iterations =  2.9

[...]

     negative rho (up, down):  6.298E-03 0.000E+00

     Adding external electric field

     Computed dipole along edir(3) :
        Dipole                0.0100 Ry au,          0.0254 Debye
        Dipole field          0.0000 Ry au

        Potential amp.       -0.0022 Ry
        Total length         45.7804 bohr

     End of self-consistent calculation

[...]

          k = 0.0561 0.0000 0.0000 ( 19249 PWs)   bands (ev):

[...]

          k =-0.0842-0.1459 0.0000 ( 19284 PWs)   bands (ev):

   -55.5993 -55.5608 -55.4276 -53.4536 -53.4450 -53.4192 -53.3976 -53.3806
   -53.3631 -53.3601 -53.3535 -53.3227 -31.9083 -31.8471 -31.7911 -31.7750
   -31.7685 -31.7523 -31.6688 -31.6619 -31.6512 -29.8373 -29.8130 -29.7203
   -29.6916 -29.6338 -29.5964 -29.5707 -29.5553 -29.5008 -29.4708 -29.4635
   -29.4574 -29.4078 -29.3967 -29.3960 -29.3848 -29.3779 -29.3744 -29.2836
   -29.2720 -29.2559 -29.1697 -29.1316 -29.1279 -29.0958 -29.0669 -29.0487
    -2.4012  -2.3189  -1.4034  -1.2959  -1.0796  -0.9343  -0.7682  -0.7344
    -0.5751  -0.5307  -0.2965  -0.1133  -0.0963   0.0840   0.1351   0.2082
     0.3343   0.4443   0.4832   0.6807   0.7049   0.8552   0.8872   1.1271
     1.1575   1.1590   1.2056   1.2860   1.3456   1.4141   1.4863   1.5856
     1.6677   1.8831   1.8958   1.9166   1.9384   2.0707   2.5274   2.5425
     2.8150   2.8441   3.0887   3.1088   3.1743   3.1857   3.3765   3.5012
     3.5319   3.5765   3.5863   3.6827   3.8290   3.8575   3.8597   4.1074
     4.2410   4.4923

     the Fermi energy is     1.5773 ev

!    total energy              =   -1426.21199982 Ry
     Harris-Foulkes estimate   =   -1426.21199940 Ry
     estimated scf accuracy    <       0.00000028 Ry

     The total energy is the sum of the following terms:

     one-electron contribution =  -11212.57125840 Ry
     hartree contribution      =    5595.95827407 Ry
     xc contribution           =    -227.23162175 Ry
     ewald contribution        =    4417.76014071 Ry
     electric field correction =       0.00000025 Ry
     smearing contrib. (-TS)   =      -0.12753471 Ry

     convergence has been achieved in  22 iterations

 BEEF-vdW xc energy contributions
           1 :   -195.008694875659
           2 :    176.604712793272
           3 :   -145.545195905062
           4 :    110.586816639913
           5 :   -79.7994101023824
           6 :    57.7056072740661
           7 :   -44.4918873469616
           8 :    37.2041928194003
           9 :   -31.9578598891535
          10 :    25.8950249715846
          11 :   -18.0975277472189
          12 :    9.32823359381311
          13 :   -1.07671697966697
          14 :   -5.44390069135514
          15 :    9.84343050415657
          16 :   -12.5243177717003
          17 :    14.2605010113270
          18 :   -15.7191095364275
          19 :    17.1657821613618
          20 :   -18.4415879375560
          21 :    19.1387215775613
          22 :   -18.8531639312473
          23 :    17.3932916254978
          24 :   -14.8819266781625
          25 :    11.7258883382740
          26 :   -8.47804117173192
          27 :    5.64166019176156
          28 :   -3.49497710525637
          29 :    2.00975763629978
          30 :  -0.913526768093675
          31 :   -22.0077207949515
          32 :   -16.4102976454699

     Forces acting on atoms (Ry/au):

     negative rho (up, down):  6.298E-03 0.000E+00
     atom    1 type  1   force =    -0.00000042    0.00263628    0.00713515
     atom    2 type  1   force =     0.00228290   -0.00131857    0.00713480
     atom    3 type  1   force =    -0.00228315   -0.00131832    0.00713492
     atom    4 type  2   force =    -0.00000005    0.00000001   -0.00175553
     atom    5 type  1   force =     0.00000010    0.00409676   -0.00136657
     atom    6 type  1   force =     0.00354789   -0.00204812   -0.00136613
     atom    7 type  1   force =    -0.00354832   -0.00204824   -0.00136559
     atom    8 type  2   force =     0.00000219   -0.00000091   -0.01052633
     atom    9 type  1   force =     0.00000005   -0.00024718   -0.00160872
     atom   10 type  1   force =    -0.00021578    0.00012385   -0.00160901
     atom   11 type  1   force =     0.00021493    0.00012365   -0.00160919
     atom   12 type  2   force =    -0.00000032    0.00000080   -0.00019780

     Total force =     0.018746     Total SCF correction =     0.000920

     entering subroutine stress ...

     negative rho (up, down):  6.298E-03 0.000E+00
          total   stress  (Ry/bohr**3)                   (kbar)     P=  -19.82
  -0.00019006  -0.00000000   0.00000000        -27.96     -0.00      0.00
  -0.00000000  -0.00019007   0.00000000         -0.00    -27.96      0.00
   0.00000000   0.00000000  -0.00002413          0.00      0.00     -3.55

 !ASE

     Writing output data file calc.save

     General routines

     Parallel routines

   This run was terminated on:   8:51: 4  27Dec2018

   JOB DONE.
Job  /afs/slac/g/suncat/bin/suncat-tsmpirun -x LD_LIBRARY_PATH -wdir /scratch/qe110218_2y7qi pw.x -in pw.inp

TID   HOST_NAME   COMMAND_LINE            STATUS            TERMINATION_TIME
00000 suncat0108 pw.x -in pw.inp   Done                     12/27/2018 08:51:04
00001 suncat0108 pw.x -in pw.inp   Done                     12/27/2018 08:51:04
00002 suncat0108 pw.x -in pw.inp   Done                     12/27/2018 08:51:04
00003 suncat0108 pw.x -in pw.inp   Done                     12/27/2018 08:51:04
00004 suncat0108 pw.x -in pw.inp   Done                     12/27/2018 08:51:04
00005 suncat0108 pw.x -in pw.inp   Done                     12/27/2018 08:51:04
00006 suncat0108 pw.x -in pw.inp   Done                     12/27/2018 08:51:04
00007 suncat0108 pw.x -in pw.inp   Done                     12/27/2018 08:51:04
00008 suncat0107 pw.x -in pw.inp   Done                     12/27/2018 08:51:04
00009 suncat0107 pw.x -in pw.inp   Done                     12/27/2018 08:51:04
00010 suncat0107 pw.x -in pw.inp   Done                     12/27/2018 08:51:04
00011 suncat0107 pw.x -in pw.inp   Done                     12/27/2018 08:51:04
00012 suncat0107 pw.x -in pw.inp   Done                     12/27/2018 08:51:04
00013 suncat0107 pw.x -in pw.inp   Done                     12/27/2018 08:51:04
00014 suncat0107 pw.x -in pw.inp   Done                     12/27/2018 08:51:04
00015 suncat0107 pw.x -in pw.inp   Done                     12/27/2018 08:51:04
00016 suncat0106 pw.x -in pw.inp   Done                     12/27/2018 08:51:04
00017 suncat0106 pw.x -in pw.inp   Done                     12/27/2018 08:51:04
00018 suncat0106 pw.x -in pw.inp   Done                     12/27/2018 08:51:04
00019 suncat0106 pw.x -in pw.inp   Done                     12/27/2018 08:51:04
00020 suncat0106 pw.x -in pw.inp   Done                     12/27/2018 08:51:04
00021 suncat0106 pw.x -in pw.inp   Done                     12/27/2018 08:51:04
00022 suncat0106 pw.x -in pw.inp   Done                     12/27/2018 08:51:04
00023 suncat0106 pw.x -in pw.inp   Done                     12/27/2018 08:51:04
00024 suncat0105 pw.x -in pw.inp   Done                     12/27/2018 08:51:04
00025 suncat0105 pw.x -in pw.inp   Done                     12/27/2018 08:51:04
00026 suncat0105 pw.x -in pw.inp   Done                     12/27/2018 08:51:04
00027 suncat0105 pw.x -in pw.inp   Done                     12/27/2018 08:51:04
00028 suncat0105 pw.x -in pw.inp   Done                     12/27/2018 08:51:04
00029 suncat0105 pw.x -in pw.inp   Done                     12/27/2018 08:51:04
00030 suncat0105 pw.x -in pw.inp   Done                     12/27/2018 08:51:04
00031 suncat0105 pw.x -in pw.inp   Done                     12/27/2018 08:51:04
00032 suncat0238 pw.x -in pw.inp   Done                     12/27/2018 08:51:04
00033 suncat0238 pw.x -in pw.inp   Done                     12/27/2018 08:51:04
00034 suncat0238 pw.x -in pw.inp   Done                     12/27/2018 08:51:04
00035 suncat0238 pw.x -in pw.inp   Done                     12/27/2018 08:51:04
00036 suncat0238 pw.x -in pw.inp   Done                     12/27/2018 08:51:04
00037 suncat0238 pw.x -in pw.inp   Done                     12/27/2018 08:51:04
00038 suncat0238 pw.x -in pw.inp   Done                     12/27/2018 08:51:04
00039 suncat0238 pw.x -in pw.inp   Done                     12/27/2018 08:51:04
00040 suncat0237 pw.x -in pw.inp   Done                     12/27/2018 08:51:04
00041 suncat0237 pw.x -in pw.inp   Done                     12/27/2018 08:51:04
00042 suncat0237 pw.x -in pw.inp   Done                     12/27/2018 08:51:04
00043 suncat0237 pw.x -in pw.inp   Done                     12/27/2018 08:51:04
00044 suncat0237 pw.x -in pw.inp   Done                     12/27/2018 08:51:04
00045 suncat0237 pw.x -in pw.inp   Done                     12/27/2018 08:51:04
00046 suncat0237 pw.x -in pw.inp   Done                     12/27/2018 08:51:04
00047 suncat0237 pw.x -in pw.inp   Done                     12/27/2018 08:51:04
00048 suncat0236 pw.x -in pw.inp   Done                     12/27/2018 08:51:04
00049 suncat0236 pw.x -in pw.inp   Done                     12/27/2018 08:51:04
00050 suncat0236 pw.x -in pw.inp   Done                     12/27/2018 08:51:04
00051 suncat0236 pw.x -in pw.inp   Done                     12/27/2018 08:51:04
00052 suncat0236 pw.x -in pw.inp   Done                     12/27/2018 08:51:04
00053 suncat0236 pw.x -in pw.inp   Done                     12/27/2018 08:51:04
00054 suncat0236 pw.x -in pw.inp   Done                     12/27/2018 08:51:04
00055 suncat0236 pw.x -in pw.inp   Done                     12/27/2018 08:51:04
00056 suncat0235 pw.x -in pw.inp   Done                     12/27/2018 08:51:04
00057 suncat0235 pw.x -in pw.inp   Done                     12/27/2018 08:51:04
00058 suncat0235 pw.x -in pw.inp   Done                     12/27/2018 08:51:04
00059 suncat0235 pw.x -in pw.inp   Done                     12/27/2018 08:51:04
00060 suncat0235 pw.x -in pw.inp   Done                     12/27/2018 08:51:04
00061 suncat0235 pw.x -in pw.inp   Done                     12/27/2018 08:51:04
00062 suncat0235 pw.x -in pw.inp   Done                     12/27/2018 08:51:04
00063 suncat0235 pw.x -in pw.inp   Done                     12/27/2018 08:51:04