     Program PWSCF v.5.1rc2 (svn rev. 11289) starts on 19Dec2018 at  9:38:29

     Current dimensions of program PWSCF are:
     Max number of different atomic species (ntypx) = 10
     Max number of k-points (npk) =  40000
     Max angular momentum in pseudopotentials (lmaxx) =  3
     Presently stress not available with electric field

     IMPORTANT: XC functional enforced from input :
     Exchange-correlation      = BEEF-VDW ( 1  4 27 13 2)
     Any further DFT definition will be discarded
     Please, verify this is what you really want

     Subspace diagonalization in iterative solution of the eigenvalue problem:
     a serial algorithm will be used

     Found symmetry operation: I + (  0.5000  0.5000  0.0000)
     This is a supercell, fractional translations are disabled

     bravais-lattice index     =            0
     lattice parameter (alat)  =       1.8897  a.u.
     unit-cell volume          =    6279.9483 (a.u.)^3
     number of atoms/cell      =           12
     number of atomic types    =            2
     number of electrons       =       144.00
     number of Kohn-Sham states=          102
     kinetic-energy cutoff     =      36.7493  Ry
     charge density cutoff     =     367.4932  Ry
     convergence threshold     =      1.0E-06
     mixing beta               =       0.1000
     number of iterations used =           10  plain     mixing
     Exchange-correlation      = BEEF-VDW ( 1  4 27 13 2)
     nstep                     =           50

     celldm(1)=   1.889726  celldm(2)=   0.000000  celldm(3)=   0.000000
     celldm(4)=   0.000000  celldm(5)=   0.000000  celldm(6)=   0.000000

     crystal axes: (cart. coord. in units of alat)
               a(1) = (   6.268188   0.000000   0.000000 )
               a(2) = (   2.086132   5.910858   0.000000 )
               a(3) = (   0.000000   0.000000  25.116951 )

     reciprocal axes: (cart. coord. in units 2 pi/alat)
               b(1) = (  0.159536 -0.056305  0.000000 )
               b(2) = (  0.000000  0.169180  0.000000 )
               b(3) = (  0.000000  0.000000  0.039814 )

     PseudoPot. # 1 for V  read from file:
     /afs/slac.stanford.edu/u/if/mamunm/psp/gbrv1.5pbe/V.UPF
     MD5 check sum: 22b79981416ebb76fdaf5b1b8640f6fb
     Pseudo is Ultrasoft + core correction, Zval = 13.0
     Generated by new atomic code, or converted to UPF format
     Using radial grid of  853 points,  6 beta functions with:
                l(1) =   0
                l(2) =   0
                l(3) =   1
                l(4) =   1
                l(5) =   2
                l(6) =   2
     Q(r) pseudized with  8 coefficients,  rinner =    1.100   1.100   1.100
                                                       1.100   1.100

     PseudoPot. # 2 for La read from file:
     /afs/slac.stanford.edu/u/if/mamunm/psp/gbrv1.5pbe/La.UPF
     MD5 check sum: 5937b0c7494ba0601a847275249473aa
     Pseudo is Ultrasoft + core correction, Zval = 11.0
     Generated by new atomic code, or converted to UPF format
     Using radial grid of  995 points,  8 beta functions with:
                l(1) =   0
                l(2) =   0
                l(3) =   1
                l(4) =   1
                l(5) =   2
                l(6) =   2
                l(7) =   3
                l(8) =   3
     Q(r) pseudized with  8 coefficients,  rinner =    1.700   1.700   1.700
                                                       1.700   1.700   1.700
                                                       1.700

     vdW kernel table read from file vdW_kernel_table
     MD5 check sum: 095c7af220d748ca6e76c0b4c6cfb241

     atomic species   valence    mass     pseudopotential
        V1            13.00    50.94150     V ( 1.00)
        La1           11.00   138.90547     La( 1.00)

     No symmetry found

   Cartesian axes

     site n.     atom                  positions (alat units)
         1           V1  tau(   1) = (   0.0000000   0.0000000  10.0000000  )
         2           V1  tau(   2) = (   4.1771604   2.9554288  10.0000000  )
         3           La1 tau(   3) = (   3.1340942   0.0000000  10.0000000  )
         4           La1 tau(   4) = (   1.0430662   2.9554288  10.0000000  )
         5           V1  tau(   5) = (   6.2681884   4.4348751  12.5584757  )
         6           V1  tau(   6) = (   2.0910280   1.4794463  12.5584757  )
         7           La1 tau(   7) = (   3.1340942   4.4348751  12.5584757  )
         8           La1 tau(   8) = (   5.2251223   1.4794463  12.5584757  )
         9           V1  tau(   9) = (   4.1820561   2.9588926  15.1169515  )
        10           V1  tau(  10) = (   0.0048957   0.0034638  15.1169515  )
        11           La1 tau(  11) = (   1.0479619   2.9588926  15.1169515  )
        12           La1 tau(  12) = (   3.1389899   0.0034638  15.1169515  )

     number of k points=    20  Fermi-Dirac smearing, width (Ry)=  0.0110
                       cart. coord. in units 2pi/alat
        k(    1) = (   0.0000000   0.0000000   0.0000000), wk =   0.0555556
        k(    2) = (   0.0000000   0.0281967   0.0000000), wk =   0.1111111
        k(    3) = (   0.0000000   0.0563934   0.0000000), wk =   0.1111111
        k(    4) = (   0.0000000  -0.0845901   0.0000000), wk =   0.0555556
        k(    5) = (   0.0265893  -0.0093842   0.0000000), wk =   0.1111111
        k(    6) = (   0.0265893   0.0188125   0.0000000), wk =   0.1111111
        k(    7) = (   0.0265893   0.0470092   0.0000000), wk =   0.1111111
        k(    8) = (   0.0265893  -0.0939743   0.0000000), wk =   0.1111111
        k(    9) = (   0.0265893  -0.0657776   0.0000000), wk =   0.1111111
        k(   10) = (   0.0265893  -0.0375809   0.0000000), wk =   0.1111111
        k(   11) = (   0.0531786  -0.0187684   0.0000000), wk =   0.1111111
        k(   12) = (   0.0531786   0.0094283   0.0000000), wk =   0.1111111
        k(   13) = (   0.0531786   0.0376250   0.0000000), wk =   0.1111111
        k(   14) = (   0.0531786  -0.1033585   0.0000000), wk =   0.1111111
        k(   15) = (   0.0531786  -0.0751618   0.0000000), wk =   0.1111111
        k(   16) = (   0.0531786  -0.0469651   0.0000000), wk =   0.1111111
        k(   17) = (  -0.0797679   0.0281527   0.0000000), wk =   0.0555556
        k(   18) = (  -0.0797679   0.0563494   0.0000000), wk =   0.1111111
        k(   19) = (  -0.0797679   0.0845460   0.0000000), wk =   0.1111111
        k(   20) = (  -0.0797679  -0.0564374   0.0000000), wk =   0.0555556

     Largest allocated arrays     est. size (Mb)     dimensions
     Largest temporary arrays     est. size (Mb)     dimensions

     Initial potential from superposition of free atoms
     Check: negative starting charge=   -0.419125

     starting charge  143.80022, renormalised to  144.00000

     negative rho (up, down):  4.197E-01 0.000E+00

     *
     * You are using vdW-DF for exchange-correlation in this calculation.
     * Please cite the following three references that made this development
     * possible:
     *
     *   M. Dion, H. Rydberg, E. Schroder, D. C. Langreth, and
     *   B. I. Lundqvist, Phys. Rev. Lett. 92, 246401 (2004).
     *
     *   T. Thonhauser, V. R. Cooper, S. Li, A. Puzder, P. Hyldgaard, and
     *   D. C. Langreth, Phys. Rev. B 76, 125112 (2007).
     *
     *   G. Roman-Perez and J. M. Soler, Phys. Rev. Lett. 103, 096102 (2009).
     *
     *
     * If you are using vdW-DF2, please also cite:
     *
     *   K. Lee, E. D. Murray, L. Kong, B. I. Lundqvist, and
     *   D. C. Langreth, Phys. Rev. B 82, 081101(R) (2010).
     *
     *
     * If you are calculating the stress with vdW-DF, please also cite:
     *
     *   R. Sabatini, E. Kucukbenli, B. Kolb, T. Thonhauser, and
     *   S. de Gironcoli, J. Phys.: Condens. Matter 24, 424209 (2012).
     *

     Carrying out vdW-DF run using the following parameters:

     Nqs =      20    Nr_points =    1024   r_max =   100.000
     q_mesh =
               0.00001000     0.04494208     0.09755937     0.15916263
               0.23128650     0.31572767     0.41458969     0.53033537
               0.66584808     0.82450364     1.01025438     1.22772762
               1.48234092     1.78043706     2.12944203     2.53805004
               3.01644009     3.57652955     4.23227104     5.00000000

     Gradients computed in reciprocal space

     Adding external electric field

     Computed dipole along edir(3) :
        Dipole                0.0000 Ry au,          0.0000 Debye
        Dipole field          0.0000 Ry au

        Potential amp.       -0.0000 Ry
        Total length         46.2776 bohr

     Starting wfc are  180 randomized atomic wfcs

     Self-consistent Calculation

     iteration #  1     ecut=    36.75 Ry     beta=0.10
     Davidson diagonalization with overlap
     ethr =  1.00E-02,  avg # of iterations =  2.0

[...]

     total energy              =   -1495.85346631 Ry
     Harris-Foulkes estimate   =   -1499.09276975 Ry
     estimated scf accuracy    <      17.74330082 Ry

[...]

     iteration # 12     ecut=    36.75 Ry     beta=0.10
     Davidson diagonalization with overlap
     c_bands:  1 eigenvalues not converged
     c_bands:  1 eigenvalues not converged
     ethr =  2.38E-05,  avg # of iterations =  7.2

[...]

     End of self-consistent calculation

          k = 0.0000 0.0000 0.0000 ( 23693 PWs)   bands (ev):

   -62.6647 -62.6647 -62.6636 -62.6636 -62.5692 -62.5681 -36.5548 -36.5539
   -36.5527 -36.5517 -36.5068 -36.5063 -36.4858 -36.4858 -36.4694 -36.4651
   -36.4390 -36.4377 -36.4374 -36.4370 -36.3900 -36.3680 -36.3390 -36.3349
   -31.0020 -30.9902 -30.8969 -30.8957 -30.4337 -30.3445 -15.1476 -15.1322
   -14.8560 -14.8046 -14.7977 -14.7692 -14.7444 -14.6643 -14.6548 -14.5982
   -14.5602 -14.1695 -14.1649 -14.0877 -14.0453 -13.8896 -13.8845 -13.6404
    -2.1155  -1.1375  -1.0793  -1.0734  -1.0236  -0.3431  -0.3234  -0.1258
     0.0680   0.1041   0.3476   0.4832   0.6027   0.8244   0.8913   0.9785
     1.0006   1.0322   1.0692   1.1658   1.3163   1.3308   1.3826   1.4394
     1.6559   1.7922   1.9582   1.9628   2.0518   2.1293   2.2997   2.3690
     2.3764   2.4530   2.6034   2.7932   2.9524   2.9729   2.9866   3.0222
     3.3400   3.4286   3.4816   3.4949   3.5134   3.6685   3.6890   3.7135
     3.7378   3.7582   3.8150   3.8289   3.8365   3.8977

[...]

          k =-0.0798 0.0282 0.0000 ( 23602 PWs)   bands (ev):

[...]

     the Fermi energy is     1.5673 ev

!    total energy              =   -1498.01980919 Ry
     Harris-Foulkes estimate   =   -1498.01981001 Ry
     estimated scf accuracy    <       0.00000067 Ry

     The total energy is the sum of the following terms:

     one-electron contribution =   -8185.44155003 Ry
     hartree contribution      =    4094.71508548 Ry
     xc contribution           =    -426.83591915 Ry
     ewald contribution        =    3019.72074624 Ry
     electric field correction =       0.00000000 Ry
     smearing contrib. (-TS)   =      -0.17817174 Ry

     convergence has been achieved in  28 iterations

 BEEF-vdW xc energy contributions
           1 :   -375.331024229792
           2 :    342.930244060278
           3 :   -286.872074320163
           4 :    220.906774873104
[...]

[...]

     Found symmetry operation: I + (  0.5000  0.5000  0.0000)
     This is a supercell, fractional translations are disabled

[...]

   This run was terminated on:  10:34: 4  19Dec2018

[...]

     Program PWSCF v.5.1rc2 (svn rev. 11289) starts on 19Dec2018 at 10:34:10

[...]

   This run was terminated on:  10:42:56  19Dec2018

[...]

     Program PWSCF v.5.1rc2 (svn rev. 11289) starts on 19Dec2018 at 10:43: 2

     Current dimensions of program PWSCF are:
     Max number of different atomic species (ntypx) = 10
     Max number of k-points (npk) =  40000
     Max angular momentum in pseudopotentials (lmaxx) =  3
     Presently stress not available with electric field

     IMPORTANT: XC functional enforced from input :
     Exchange-correlation      = BEEF-VDW ( 1  4 27 13 2)
     Any further DFT definition will be discarded
     Please, verify this is what you really want

     Subspace diagonalization in iterative solution of the eigenvalue problem:
     a serial algorithm will be used

     bravais-lattice index     =            0
     lattice parameter (alat)  =       1.8897  a.u.
     unit-cell volume          =    6279.9483 (a.u.)^3
     number of atoms/cell      =           12
     number of atomic types    =            2
     number of electrons       =       144.00
     number of Kohn-Sham states=          102
     kinetic-energy cutoff     =      36.7493  Ry
     charge density cutoff     =     367.4932  Ry
     convergence threshold     =      1.0E-06
     mixing beta               =       0.1000
     number of iterations used =           10  plain     mixing
     Exchange-correlation      = BEEF-VDW ( 1  4 27 13 2)
     nstep                     =           50

     celldm(1)=   1.889726  celldm(2)=   0.000000  celldm(3)=   0.000000
     celldm(4)=   0.000000  celldm(5)=   0.000000  celldm(6)=   0.000000

     crystal axes: (cart. coord. in units of alat)
               a(1) = (   6.268188   0.000000   0.000000 )
               a(2) = (   2.086132   5.910858   0.000000 )
               a(3) = (   0.000000   0.000000  25.116951 )

     reciprocal axes: (cart. coord. in units 2 pi/alat)
               b(1) = (  0.159536 -0.056305  0.000000 )
               b(2) = (  0.000000  0.169180  0.000000 )
               b(3) = (  0.000000  0.000000  0.039814 )

     PseudoPot. # 1 for V  read from file:
     /afs/slac.stanford.edu/u/if/mamunm/psp/gbrv1.5pbe/V.UPF
     MD5 check sum: 22b79981416ebb76fdaf5b1b8640f6fb
     Pseudo is Ultrasoft + core correction, Zval = 13.0
     Generated by new atomic code, or converted to UPF format
     Using radial grid of  853 points,  6 beta functions with:
                l(1) =   0
                l(2) =   0
                l(3) =   1
                l(4) =   1
                l(5) =   2
                l(6) =   2
     Q(r) pseudized with  8 coefficients,  rinner =    1.100   1.100   1.100
                                                       1.100   1.100

     PseudoPot. # 2 for La read from file:
     /afs/slac.stanford.edu/u/if/mamunm/psp/gbrv1.5pbe/La.UPF
     MD5 check sum: 5937b0c7494ba0601a847275249473aa
     Pseudo is Ultrasoft + core correction, Zval = 11.0
     Generated by new atomic code, or converted to UPF format
     Using radial grid of  995 points,  8 beta functions with:
                l(1) =   0
                l(2) =   0
                l(3) =   1
                l(4) =   1
                l(5) =   2
                l(6) =   2
                l(7) =   3
                l(8) =   3
     Q(r) pseudized with  8 coefficients,  rinner =    1.700   1.700   1.700
                                                       1.700   1.700   1.700
                                                       1.700

     vdW kernel table read from file vdW_kernel_table
     MD5 check sum: 095c7af220d748ca6e76c0b4c6cfb241

     atomic species   valence    mass     pseudopotential
        V1            13.00    50.94150     V ( 1.00)
        La1           11.00   138.90547     La( 1.00)

     No symmetry found

   Cartesian axes

     site n.     atom                  positions (alat units)
         1           V1  tau(   1) = (   0.0000000   0.0000000  10.0000000  )
         2           V1  tau(   2) = (   4.1771604   2.9554288  10.0000000  )
         3           La1 tau(   3) = (   3.1340942   0.0000000  10.0000000  )
         4           La1 tau(   4) = (   1.0430662   2.9554288  10.0000000  )
         5           V1  tau(   5) = (   6.2681884   4.4348751  12.5584757  )
         6           V1  tau(   6) = (   2.0910280   1.4794463  12.5584757  )
         7           La1 tau(   7) = (   3.1340942   4.4348751  12.5584757  )
         8           La1 tau(   8) = (   5.2251223   1.4794463  12.5584757  )
         9           V1  tau(   9) = (   4.1834841   2.9598908  14.5480284  )
        10           V1  tau(  10) = (   0.0062500   0.0044410  14.5479970  )
        11           La1 tau(  11) = (   1.0476269   2.9587170  15.2226249  )
        12           La1 tau(  12) = (   3.1386967   0.0032011  15.2226482  )

     number of k points=    20  Fermi-Dirac smearing, width (Ry)=  0.0110
                       cart. coord. in units 2pi/alat
        k(    1) = (   0.0000000   0.0000000   0.0000000), wk =   0.0555556
        k(    2) = (   0.0000000   0.0281967   0.0000000), wk =   0.1111111
        k(    3) = (   0.0000000   0.0563934   0.0000000), wk =   0.1111111
        k(    4) = (   0.0000000  -0.0845901   0.0000000), wk =   0.0555556
        k(    5) = (   0.0265893  -0.0093842   0.0000000), wk =   0.1111111
        k(    6) = (   0.0265893   0.0188125   0.0000000), wk =   0.1111111
        k(    7) = (   0.0265893   0.0470092   0.0000000), wk =   0.1111111
        k(    8) = (   0.0265893  -0.0939743   0.0000000), wk =   0.1111111
        k(    9) = (   0.0265893  -0.0657776   0.0000000), wk =   0.1111111
        k(   10) = (   0.0265893  -0.0375809   0.0000000), wk =   0.1111111
        k(   11) = (   0.0531786  -0.0187684   0.0000000), wk =   0.1111111
        k(   12) = (   0.0531786   0.0094283   0.0000000), wk =   0.1111111
        k(   13) = (   0.0531786   0.0376250   0.0000000), wk =   0.1111111
        k(   14) = (   0.0531786  -0.1033585   0.0000000), wk =   0.1111111
        k(   15) = (   0.0531786  -0.0751618   0.0000000), wk =   0.1111111
        k(   16) = (   0.0531786  -0.0469651   0.0000000), wk =   0.1111111
        k(   17) = (  -0.0797679   0.0281527   0.0000000), wk =   0.0555556
        k(   18) = (  -0.0797679   0.0563494   0.0000000), wk =   0.1111111
        k(   19) = (  -0.0797679   0.0845460   0.0000000), wk =   0.1111111
        k(   20) = (  -0.0797679  -0.0564374   0.0000000), wk =   0.0555556

     Largest allocated arrays     est. size (Mb)     dimensions
     Largest temporary arrays     est. size (Mb)     dimensions

     Initial potential from superposition of free atoms
     Check: negative starting charge=   -0.419074

     starting charge  143.80022, renormalised to  144.00000

[...]

     *
     * You are using vdW-DF for exchange-correlation in this calculation.
     * Please cite the following three references that made this development
     * possible:
     *
     *   M. Dion, H. Rydberg, E. Schroder, D. C. Langreth, and
     *   B. I. Lundqvist, Phys. Rev. Lett. 92, 246401 (2004).
     *
     *   T. Thonhauser, V. R. Cooper, S. Li, A. Puzder, P. Hyldgaard, and
     *   D. C. Langreth, Phys. Rev. B 76, 125112 (2007).
     *
     *   G. Roman-Perez and J. M. Soler, Phys. Rev. Lett. 103, 096102 (2009).
     *
     *
     * If you are using vdW-DF2, please also cite:
     *
     *   K. Lee, E. D. Murray, L. Kong, B. I. Lundqvist, and
     *   D. C. Langreth, Phys. Rev. B 82, 081101(R) (2010).
     *
     *
     * If you are calculating the stress with vdW-DF, please also cite:
     *
     *   R. Sabatini, E. Kucukbenli, B. Kolb, T. Thonhauser, and
     *   S. de Gironcoli, J. Phys.: Condens. Matter 24, 424209 (2012).
     *

     Carrying out vdW-DF run using the following parameters:

     Nqs =      20    Nr_points =    1024   r_max =   100.000
     q_mesh =
               0.00001000     0.04494208     0.09755937     0.15916263
               0.23128650     0.31572767     0.41458969     0.53033537
               0.66584808     0.82450364     1.01025438     1.22772762
               1.48234092     1.78043706     2.12944203     2.53805004
               3.01644009     3.57652955     4.23227104     5.00000000

     Gradients computed in reciprocal space

[...]

     Starting wfc are  180 randomized atomic wfcs

     Self-consistent Calculation

[...]

     iteration # 17     ecut=    36.75 Ry     beta=0.10
     Davidson diagonalization with overlap
     c_bands:  1 eigenvalues not converged
     ethr =  5.81E-07,  avg # of iterations =  6.0

[...]

     total energy              =   -1498.06745136 Ry
     Harris-Foulkes estimate   =   -1498.06745153 Ry
     estimated scf accuracy    <       0.00000172 Ry

     iteration # 28     ecut=    36.75 Ry     beta=0.10
     Davidson diagonalization with overlap
     ethr =  1.19E-09,  avg # of iterations =  1.0

[...]

     negative rho (up, down):  2.589E-01 0.000E+00

     Adding external electric field

     Computed dipole along edir(3) :
        Dipole                0.1758 Ry au,          0.4467 Debye
        Dipole field          0.0004 Ry au

        Potential amp.       -0.0326 Ry
        Total length         46.2776 bohr

     End of self-consistent calculation

[...]

          k = 0.0532-0.0470 0.0000 ( 23642 PWs)   bands (ev):

[...]

          k =-0.0798-0.0564 0.0000 ( 23612 PWs)   bands (ev):

   -62.5198 -62.5188 -62.4849 -62.4838 -62.3232 -62.3218 -36.4095 -36.4027
   -36.3590 -36.3579 -36.3377 -36.3276 -36.3153 -36.3055 -36.2859 -36.2792
   -36.2625 -36.2597 -36.2248 -36.2100 -36.2006 -36.1929 -36.1212 -36.1178
   -31.0659 -30.9765 -30.8316 -30.7432 -30.0076 -29.9119 -15.1937 -15.0264
   -14.8625 -14.8510 -14.6952 -14.6379 -14.6340 -14.6168 -14.5003 -14.4439
   -14.3978 -14.2142 -14.0187 -13.7799 -13.7318 -13.7017 -13.5891 -13.3655
    -0.2153  -0.1609   0.0478   0.1000   0.3407   0.3968   0.4646   0.5450
     0.7563   0.7707   0.7739   0.8338   0.9902   1.0821   1.1124   1.1236
     1.2893   1.3025   1.3678   1.4359   1.5428   1.5692   1.5752   1.6362
     1.6411   1.6477   1.8630   1.9540   1.9566   2.0196   2.0929   2.0985
     2.1622   2.1673   2.2231   2.3009   2.3873   2.4696   2.7027   2.7401
     2.9717   2.9868   3.1326   3.2644   3.3174   3.3901   3.4091   3.5134
     3.5261   3.6627   3.7168   3.7379   3.7607   3.9140

     the Fermi energy is     1.7203 ev

!    total energy              =   -1498.06745044 Ry
     Harris-Foulkes estimate   =   -1498.06745447 Ry
     estimated scf accuracy    <       0.00000089 Ry

     The total energy is the sum of the following terms:

     one-electron contribution =   -8466.84014176 Ry
     hartree contribution      =    4236.35974799 Ry
     xc contribution           =    -427.05965105 Ry
     ewald contribution        =    3159.62875636 Ry
     electric field correction =       0.00006182 Ry
     smearing contrib. (-TS)   =      -0.15622380 Ry

     convergence has been achieved in  28 iterations

 BEEF-vdW xc energy contributions
           1 :   -375.564761754709
           2 :    343.265035255505
           3 :   -287.335940551745
           4 :    221.423432504406
           5 :   -158.965793962265
           6 :    109.057337664325
           7 :   -74.9200874051516
           8 :    54.9071777850226
           9 :   -44.8606940033009
          10 :    40.3858995773852
          11 :   -38.1313970986698
          12 :    35.9700502023200
          13 :   -32.6287652834841
          14 :    27.4086323419536
          15 :   -20.2571512012998
          16 :    11.9529598563215
          17 :   -4.00794096569746
          18 :   -1.87469074088847
          19 :    4.55455465817926
          20 :   -3.99193426837564
          21 :    1.24696846697344
          22 :    2.05104548560104
          23 :   -4.45070885507056
          24 :    5.22651731272492
          25 :   -4.48459522859559
          26 :    2.87118933136492
          27 :   -1.14161150029861
          28 :  -0.153968994905767
          29 :   0.764111124892565
          30 :  -0.678106696629129
          31 :   -33.7686579110593
          32 :   -24.2857662026092

     Forces acting on atoms (Ry/au):

     negative rho (up, down):  2.589E-01 0.000E+00
     atom    1 type  1   force =    -0.00005520   -0.00003940    0.02746132
     atom    2 type  1   force =    -0.00005711   -0.00003976    0.02746444
     atom    3 type  2   force =     0.00008875    0.00005462   -0.02707564
     atom    4 type  2   force =     0.00008213    0.00006671   -0.02707733
     atom    5 type  1   force =    -0.00008846   -0.00006190    0.02833924
     atom    6 type  1   force =    -0.00008384   -0.00005985    0.02833674
     atom    7 type  2   force =    -0.00007308   -0.00001268   -0.02945160
     atom    8 type  2   force =    -0.00003866   -0.00006575   -0.02945292
     atom    9 type  1   force =     0.00010335    0.00007136    0.00064045
     atom   10 type  1   force =     0.00010913    0.00007678    0.00065258
     atom   11 type  2   force =     0.00001447   -0.00000285    0.00008250
     atom   12 type  2   force =    -0.00000148    0.00001271    0.00008021

     Total force =     0.079477     Total SCF correction =     0.003051

     entering subroutine stress ...

     negative rho (up, down):  2.589E-01 0.000E+00
          total   stress  (Ry/bohr**3)                   (kbar)     P=   -8.06
  -0.00009442  -0.00003701   0.00000010        -13.89     -5.44      0.01
  -0.00003701  -0.00006829   0.00000007         -5.44    -10.05      0.01
   0.00000010   0.00000007  -0.00000168          0.01      0.01     -0.25

 !ASE

     Writing output data file calc.save

     General routines

     Parallel routines

   This run was terminated on:  10:52: 0  19Dec2018

   JOB DONE.
Job  /afs/slac/g/suncat/bin/suncat-tsmpirun -x LD_LIBRARY_PATH -wdir /scratch/qe530757_wxVy4 pw.x -in pw.inp

TID   HOST_NAME   COMMAND_LINE            STATUS            TERMINATION_TIME
00000 suncat2044 pw.x -in pw.inp   Done                     12/19/2018 10:52:00
00001 suncat2044 pw.x -in pw.inp   Done                     12/19/2018 10:52:00
00002 suncat2044 pw.x -in pw.inp   Done                     12/19/2018 10:52:00
00003 suncat2044 pw.x -in pw.inp   Done                     12/19/2018 10:52:00
00004 suncat2044 pw.x -in pw.inp   Done                     12/19/2018 10:52:00
00005 suncat2044 pw.x -in pw.inp   Done                     12/19/2018 10:52:00
00006 suncat2044 pw.x -in pw.inp   Done                     12/19/2018 10:52:00
00007 suncat2044 pw.x -in pw.inp   Done                     12/19/2018 10:52:00
00008 suncat2044 pw.x -in pw.inp   Done                     12/19/2018 10:52:00
00009 suncat2044 pw.x -in pw.inp   Done                     12/19/2018 10:52:00
00010 suncat2044 pw.x -in pw.inp   Done                     12/19/2018 10:52:00
00011 suncat2044 pw.x -in pw.inp   Done                     12/19/2018 10:52:00
00012 suncat2044 pw.x -in pw.inp   Done                     12/19/2018 10:52:00
00013 suncat2044 pw.x -in pw.inp   Done                     12/19/2018 10:52:00
00014 suncat2044 pw.x -in pw.inp   Done                     12/19/2018 10:52:00
00015 suncat2044 pw.x -in pw.inp   Done                     12/19/2018 10:52:00
00016 suncat2043 pw.x -in pw.inp   Done                     12/19/2018 10:52:00
00017 suncat2043 pw.x -in pw.inp   Done                     12/19/2018 10:52:00
00018 suncat2043 pw.x -in pw.inp   Done                     12/19/2018 10:52:00
00019 suncat2043 pw.x -in pw.inp   Done                     12/19/2018 10:52:00
00020 suncat2043 pw.x -in pw.inp   Done                     12/19/2018 10:52:00
00021 suncat2043 pw.x -in pw.inp   Done                     12/19/2018 10:52:00
00022 suncat2043 pw.x -in pw.inp   Done                     12/19/2018 10:52:00
00023 suncat2043 pw.x -in pw.inp   Done                     12/19/2018 10:52:00
00024 suncat2043 pw.x -in pw.inp   Done                     12/19/2018 10:52:00
00025 suncat2043 pw.x -in pw.inp   Done                     12/19/2018 10:52:00
00026 suncat2043 pw.x -in pw.inp   Done                     12/19/2018 10:52:00
00027 suncat2043 pw.x -in pw.inp   Done                     12/19/2018 10:52:00
00028 suncat2043 pw.x -in pw.inp   Done                     12/19/2018 10:52:00
00029 suncat2043 pw.x -in pw.inp   Done                     12/19/2018 10:52:00
00030 suncat2043 pw.x -in pw.inp   Done                     12/19/2018 10:52:00
00031 suncat2043 pw.x -in pw.inp   Done                     12/19/2018 10:52:00