     Program PWSCF v.5.1rc2 (svn rev. 11289) starts on 26Dec2018 at 17:29: 3

     Current dimensions of program PWSCF are:
     Max number of different atomic species (ntypx) = 10
     Max number of k-points (npk) =  40000
     Max angular momentum in pseudopotentials (lmaxx) =  3
     Presently stress not available with electric field

     IMPORTANT: XC functional enforced from input :
     Exchange-correlation      = BEEF-VDW ( 1  4 27 13 2)
     Any further DFT definition will be discarded
     Please, verify this is what you really want

     Subspace diagonalization in iterative solution of the eigenvalue problem:
     a serial algorithm will be used

     bravais-lattice index     =            0
     lattice parameter (alat)  =       1.8897  a.u.
     unit-cell volume          =    7189.8788 (a.u.)^3
     number of atoms/cell      =           12
     number of atomic types    =            2
     number of electrons       =       147.00
     number of Kohn-Sham states=          103
     kinetic-energy cutoff     =      36.7493  Ry
     charge density cutoff     =     367.4932  Ry
     convergence threshold     =      1.0E-06
     mixing beta               =       0.1000
     number of iterations used =           10  plain     mixing
     Exchange-correlation      = BEEF-VDW ( 1  4 27 13 2)
     nstep                     =           50

     celldm(1)=   1.889726  celldm(2)=   0.000000  celldm(3)=   0.000000
     celldm(4)=   0.000000  celldm(5)=   0.000000  celldm(6)=   0.000000

     crystal axes: (cart. coord. in units of alat)
               a(1) = (   6.924969   0.000000   0.000000 )
               a(2) = (  -3.462484   5.997199   0.000000 )
               a(3) = (   0.000000   0.000000  25.654213 )

     reciprocal axes: (cart. coord. in units 2 pi/alat)
               b(1) = (  0.144405  0.083372  0.000000 )
               b(2) = (  0.000000  0.166745  0.000000 )
               b(3) = (  0.000000  0.000000  0.038980 )

     PseudoPot. # 1 for La read from file:
     /afs/slac.stanford.edu/u/if/mamunm/psp/gbrv1.5pbe/La.UPF
     MD5 check sum: 5937b0c7494ba0601a847275249473aa
     Pseudo is Ultrasoft + core correction, Zval = 11.0
     Generated by new atomic code, or converted to UPF format
     Using radial grid of  995 points,  8 beta functions with:
                l(1) =   0
                l(2) =   0
                l(3) =   1
                l(4) =   1
                l(5) =   2
                l(6) =   2
                l(7) =   3
                l(8) =   3
     Q(r) pseudized with  8 coefficients,  rinner =    1.700   1.700   1.700
                                                       1.700   1.700   1.700
                                                       1.700

     PseudoPot. # 2 for Pt read from file:
     /afs/slac.stanford.edu/u/if/mamunm/psp/gbrv1.5pbe/Pt.UPF
     MD5 check sum: f09d6de1a584b5a045c4fc126da2d0c4
     Pseudo is Ultrasoft + core correction, Zval = 16.0
     Generated by new atomic code, or converted to UPF format
     Using radial grid of  985 points,  6 beta functions with:
                l(1) =   0
                l(2) =   0
                l(3) =   1
                l(4) =   1
                l(5) =   2
                l(6) =   2
     Q(r) pseudized with  8 coefficients,  rinner =    1.300   1.300   1.300
                                                       1.300   1.300

     vdW kernel table read from file vdW_kernel_table
     MD5 check sum: 095c7af220d748ca6e76c0b4c6cfb241

     atomic species   valence    mass     pseudopotential
        La1           11.00   138.90547     La( 1.00)
        Pt1           16.00   195.08400     Pt( 1.00)

     No symmetry found

   Cartesian axes

     site n.     atom                  positions (alat units)
         1           La1 tau(   1) = (   0.0000000   0.0000000  10.0000000  )
         2           La1 tau(   2) = (  -1.7312422   2.9985994  10.0000000  )
         3           La1 tau(   3) = (   1.7312422   2.9985994  10.0000000  )
         4           Pt1 tau(   4) = (   3.4624844   0.0000000  10.0000000  )
         5           La1 tau(   5) = (   3.4624844   1.9990663  12.8271067  )
         6           La1 tau(   6) = (   1.7312422   4.9976657  12.8271067  )
         7           La1 tau(   7) = (  -1.7312422   4.9976657  12.8271067  )
         8           Pt1 tau(   8) = (   0.0000000   1.9990663  12.8271067  )
         9           La1 tau(   9) = (  -0.0000000   3.9981326  15.6542133  )
        10           La1 tau(  10) = (   1.7312422   0.9995331  15.6542133  )
        11           La1 tau(  11) = (   5.1937266   0.9995331  15.6542133  )
        12           Pt1 tau(  12) = (   3.4624844   3.9981326  15.6542133  )

     number of k points=    20  Fermi-Dirac smearing, width (Ry)=  0.0110
                       cart. coord. in units 2pi/alat
        k(    1) = (   0.0000000   0.0000000   0.0000000), wk =   0.0555556
        k(    2) = (   0.0000000   0.0277908   0.0000000), wk =   0.1111111
        k(    3) = (   0.0000000   0.0555815   0.0000000), wk =   0.1111111
        k(    4) = (   0.0000000  -0.0833723   0.0000000), wk =   0.0555556
        k(    5) = (   0.0240675   0.0138954   0.0000000), wk =   0.1111111
        k(    6) = (   0.0240675   0.0416861   0.0000000), wk =   0.1111111
        k(    7) = (   0.0240675   0.0694769   0.0000000), wk =   0.1111111
        k(    8) = (   0.0240675  -0.0694769   0.0000000), wk =   0.1111111
        k(    9) = (   0.0240675  -0.0416861   0.0000000), wk =   0.1111111
        k(   10) = (   0.0240675  -0.0138954   0.0000000), wk =   0.1111111
        k(   11) = (   0.0481350   0.0277908   0.0000000), wk =   0.1111111
        k(   12) = (   0.0481350   0.0555815   0.0000000), wk =   0.1111111
        k(   13) = (   0.0481350   0.0833723   0.0000000), wk =   0.1111111
        k(   14) = (   0.0481350  -0.0555815   0.0000000), wk =   0.1111111
        k(   15) = (   0.0481350  -0.0277908   0.0000000), wk =   0.1111111
        k(   16) = (   0.0481350   0.0000000   0.0000000), wk =   0.1111111
        k(   17) = (  -0.0722025  -0.0416861   0.0000000), wk =   0.0555556
        k(   18) = (  -0.0722025  -0.0138954   0.0000000), wk =   0.1111111
        k(   19) = (  -0.0722025   0.0138954   0.0000000), wk =   0.1111111
        k(   20) = (  -0.0722025  -0.1250584   0.0000000), wk =   0.0555556

     Largest allocated arrays     est. size (Mb)     dimensions
     Largest temporary arrays     est. size (Mb)     dimensions

     Initial potential from superposition of free atoms
     Check: negative starting charge=   -1.176424

     starting charge  145.21135, renormalised to  147.00000

     negative rho (up, down):  1.191E+00 0.000E+00

     *
     * You are using vdW-DF for exchange-correlation in this calculation.
     * Please cite the following three references that made this development
     * possible:
     *
     *   M. Dion, H. Rydberg, E. Schroder, D. C. Langreth, and
     *   B. I. Lundqvist, Phys. Rev. Lett. 92, 246401 (2004).
     *
     *   T. Thonhauser, V. R. Cooper, S. Li, A. Puzder, P. Hyldgaard, and
     *   D. C. Langreth, Phys. Rev. B 76, 125112 (2007).
     *
     *   G. Roman-Perez and J. M. Soler, Phys. Rev. Lett. 103, 096102 (2009).
     *
     *
     * If you are using vdW-DF2, please also cite:
     *
     *   K. Lee, E. D. Murray, L. Kong, B. I. Lundqvist, and
     *   D. C. Langreth, Phys. Rev. B 82, 081101(R) (2010).
     *
     *
     * If you are calculating the stress with vdW-DF, please also cite:
     *
     *   R. Sabatini, E. Kucukbenli, B. Kolb, T. Thonhauser, and
     *   S. de Gironcoli, J. Phys.: Condens. Matter 24, 424209 (2012).
     *

     Carrying out vdW-DF run using the following parameters:

     Nqs =      20    Nr_points =    1024   r_max =   100.000
     q_mesh =
               0.00001000     0.04494208     0.09755937     0.15916263
               0.23128650     0.31572767     0.41458969     0.53033537
               0.66584808     0.82450364     1.01025438     1.22772762
               1.48234092     1.78043706     2.12944203     2.53805004
               3.01644009     3.57652955     4.23227104     5.00000000

     Gradients computed in reciprocal space

     Adding external electric field

     Computed dipole along edir(3) :
        Dipole               -0.0000 Ry au,         -0.0000 Debye
        Dipole field         -0.0000 Ry au

        Potential amp.        0.0000 Ry
        Total length         47.2675 bohr

     Starting wfc are  216 randomized atomic wfcs

     Self-consistent Calculation

     iteration #  1     ecut=    36.75 Ry     beta=0.10
     Davidson diagonalization with overlap
     ethr =  1.00E-02,  avg # of iterations =  2.0

[...]

     total energy              =   -1570.51539636 Ry
     Harris-Foulkes estimate   =   -1575.09956471 Ry
     estimated scf accuracy    <      25.43991664 Ry

[...]

     iteration # 10     ecut=    36.75 Ry     beta=0.10
     Davidson diagonalization with overlap
     c_bands:  1 eigenvalues not converged
     c_bands:  1 eigenvalues not converged
     ethr =  3.94E-05,  avg # of iterations = 15.4

[...]

     End of self-consistent calculation

          k = 0.0000 0.0000 0.0000 ( 27081 PWs)   bands (ev):

   -50.1042 -50.0949 -50.0949 -49.8302 -49.8302 -49.8301 -49.8301 -49.7467
   -49.7467 -31.1163 -31.0886 -30.8739 -30.8739 -30.8672 -30.8672 -30.7092
   -30.5055 -30.5055 -15.7226 -15.5686 -15.3277 -15.1515 -15.1515 -15.0589
   -15.0141 -15.0141 -14.9785 -14.9785 -14.7974 -14.5431 -14.5431 -14.3156
   -14.3156 -14.1836 -14.0961 -13.9599 -13.9002 -13.9002 -13.8415 -13.8415
   -13.8182 -13.8182 -13.6728 -13.5330 -13.5330  -1.9821  -1.5205  -1.3202
    -0.7945  -0.7945  -0.5874  -0.5553  -0.5553  -0.4722  -0.4722  -0.4423
    -0.4423  -0.3490  -0.1508   0.0329   0.0329   0.0357   0.0357   0.2477
     0.4802   1.3034   1.3325   1.6985   2.1682   2.1682   2.2406   2.2406
     2.4495   2.4621   2.4621   2.5357   2.8528   2.8528   3.0256   3.0256
     3.2092   3.2092   3.3338   3.4223   3.4356   3.5531   3.5941   3.5942
     3.6063   3.6186   3.6922   3.6922   3.7236   3.7237   3.7338   3.7737
     3.7737   3.8098   3.8133   3.8212   3.8451   3.8453   3.8554

[...]

          k =-0.0722-0.0417 0.0000 ( 27002 PWs)   bands (ev):

[...]

     the Fermi energy is     2.2975 ev

!    total energy              =   -1573.44220339 Ry
     Harris-Foulkes estimate   =   -1573.44220617 Ry
     estimated scf accuracy    <       0.00000074 Ry

     The total energy is the sum of the following terms:

     one-electron contribution =   -7107.45648882 Ry
     hartree contribution      =    3574.45659150 Ry
     xc contribution           =    -632.86350544 Ry
     ewald contribution        =    2592.54107128 Ry
     electric field correction =       0.00000002 Ry
     smearing contrib. (-TS)   =      -0.11987193 Ry

     convergence has been achieved in  21 iterations

 BEEF-vdW xc energy contributions
           1 :   -561.660645148712
           2 :    518.385998017862
           3 :   -441.425000211581
           4 :    346.594377410852
           5 :   -250.996396695617
           6 :    168.483378614213
           7 :   -106.954698555185
[...]
     Generated by new atomic code, or converted to UPF format
     Using radial grid of  995 points,  8 beta functions with:
                l(1) =   0
                l(2) =   0
                l(3) =   1
                l(4) =   1
                l(5) =   2
                l(6) =   2
                l(7) =   3
                l(8) =   3
     Q(r) pseudized with  8 coefficients,  rinner =    1.700   1.700   1.700
                                                       1.700   1.700   1.700
                                                       1.700

     PseudoPot. # 2 for Pt read from file:
     /afs/slac.stanford.edu/u/if/mamunm/psp/gbrv1.5pbe/Pt.UPF
     MD5 check sum: f09d6de1a584b5a045c4fc126da2d0c4
     Pseudo is Ultrasoft + core correction, Zval = 16.0
     Generated by new atomic code, or converted to UPF format
     Using radial grid of  985 points,  6 beta functions with:
                l(1) =   0
                l(2) =   0
                l(3) =   1
                l(4) =   1
                l(5) =   2
                l(6) =   2
     Q(r) pseudized with  8 coefficients,  rinner =    1.300   1.300   1.300
                                                       1.300   1.300

     vdW kernel table read from file vdW_kernel_table
     MD5 check sum: 095c7af220d748ca6e76c0b4c6cfb241

     atomic species   valence    mass     pseudopotential
        La1           11.00   138.90547     La( 1.00)
        Pt1           16.00   195.08400     Pt( 1.00)

     No symmetry found

   Cartesian axes

     site n.     atom                  positions (alat units)
         1           La1 tau(   1) = (   0.0000000   0.0000000  10.0000000  )
         2           La1 tau(   2) = (  -1.7312422   2.9985994  10.0000000  )
         3           La1 tau(   3) = (   1.7312422   2.9985994  10.0000000  )
         4           Pt1 tau(   4) = (   3.4624844   0.0000000  10.0000000  )
         5           La1 tau(   5) = (   3.4624844   1.9990663  12.8271067  )
         6           La1 tau(   6) = (   1.7312422   4.9976657  12.8271067  )
         7           La1 tau(   7) = (  -1.7312422   4.9976657  12.8271067  )
         8           Pt1 tau(   8) = (   0.0000000   1.9990663  12.8271067  )
         9           La1 tau(   9) = (  -0.0000002   3.8752926  15.7063037  )
        10           La1 tau(  10) = (   1.6248210   1.0609708  15.7062618  )
        11           La1 tau(  11) = (   5.3001156   1.0609770  15.7062721  )
        12           Pt1 tau(  12) = (   3.4624756   3.9981052  15.1151430  )

     number of k points=    20  Fermi-Dirac smearing, width (Ry)=  0.0110
                       cart. coord. in units 2pi/alat
        k(    1) = (   0.0000000   0.0000000   0.0000000), wk =   0.0555556
        k(    2) = (   0.0000000   0.0277908   0.0000000), wk =   0.1111111
        k(    3) = (   0.0000000   0.0555815   0.0000000), wk =   0.1111111
        k(    4) = (   0.0000000  -0.0833723   0.0000000), wk =   0.0555556
        k(    5) = (   0.0240675   0.0138954   0.0000000), wk =   0.1111111
        k(    6) = (   0.0240675   0.0416861   0.0000000), wk =   0.1111111
        k(    7) = (   0.0240675   0.0694769   0.0000000), wk =   0.1111111
        k(    8) = (   0.0240675  -0.0694769   0.0000000), wk =   0.1111111
        k(    9) = (   0.0240675  -0.0416861   0.0000000), wk =   0.1111111
        k(   10) = (   0.0240675  -0.0138954   0.0000000), wk =   0.1111111
        k(   11) = (   0.0481350   0.0277908   0.0000000), wk =   0.1111111
        k(   12) = (   0.0481350   0.0555815   0.0000000), wk =   0.1111111
        k(   13) = (   0.0481350   0.0833723   0.0000000), wk =   0.1111111
        k(   14) = (   0.0481350  -0.0555815   0.0000000), wk =   0.1111111
        k(   15) = (   0.0481350  -0.0277908   0.0000000), wk =   0.1111111
        k(   16) = (   0.0481350   0.0000000   0.0000000), wk =   0.1111111
        k(   17) = (  -0.0722025  -0.0416861   0.0000000), wk =   0.0555556
        k(   18) = (  -0.0722025  -0.0138954   0.0000000), wk =   0.1111111
        k(   19) = (  -0.0722025   0.0138954   0.0000000), wk =   0.1111111
        k(   20) = (  -0.0722025  -0.1250584   0.0000000), wk =   0.0555556

     Largest allocated arrays     est. size (Mb)     dimensions
     Largest temporary arrays     est. size (Mb)     dimensions

     Initial potential from superposition of free atoms
     Check: negative starting charge=   -1.174917

     starting charge  145.21135, renormalised to  147.00000

[...]

     *
     * You are using vdW-DF for exchange-correlation in this calculation.
     * Please cite the following three references that made this development
     * possible:
     *
     *   M. Dion, H. Rydberg, E. Schroder, D. C. Langreth, and
     *   B. I. Lundqvist, Phys. Rev. Lett. 92, 246401 (2004).
     *
     *   T. Thonhauser, V. R. Cooper, S. Li, A. Puzder, P. Hyldgaard, and
     *   D. C. Langreth, Phys. Rev. B 76, 125112 (2007).
     *
     *   G. Roman-Perez and J. M. Soler, Phys. Rev. Lett. 103, 096102 (2009).
     *
     *
     * If you are using vdW-DF2, please also cite:
     *
     *   K. Lee, E. D. Murray, L. Kong, B. I. Lundqvist, and
     *   D. C. Langreth, Phys. Rev. B 82, 081101(R) (2010).
     *
     *
     * If you are calculating the stress with vdW-DF, please also cite:
     *
     *   R. Sabatini, E. Kucukbenli, B. Kolb, T. Thonhauser, and
     *   S. de Gironcoli, J. Phys.: Condens. Matter 24, 424209 (2012).
     *

     Carrying out vdW-DF run using the following parameters:

     Nqs =      20    Nr_points =    1024   r_max =   100.000
     q_mesh =
               0.00001000     0.04494208     0.09755937     0.15916263
               0.23128650     0.31572767     0.41458969     0.53033537
               0.66584808     0.82450364     1.01025438     1.22772762
               1.48234092     1.78043706     2.12944203     2.53805004
               3.01644009     3.57652955     4.23227104     5.00000000

     Gradients computed in reciprocal space

[...]

     Starting wfc are  216 randomized atomic wfcs

     Self-consistent Calculation

[...]

     iteration # 14     ecut=    36.75 Ry     beta=0.10
     Davidson diagonalization with overlap
     c_bands:  2 eigenvalues not converged
     ethr =  1.57E-06,  avg # of iterations =  7.0

[...]

     total energy              =   -1573.47441639 Ry
     Harris-Foulkes estimate   =   -1573.47441646 Ry
     estimated scf accuracy    <       0.00000124 Ry

     iteration # 22     ecut=    36.75 Ry     beta=0.10
     Davidson diagonalization with overlap
     ethr =  8.45E-10,  avg # of iterations =  3.0

[...]

     negative rho (up, down):  9.197E-01 0.000E+00

     Adding external electric field

     Computed dipole along edir(3) :
        Dipole                0.0738 Ry au,          0.1875 Debye
        Dipole field          0.0001 Ry au

        Potential amp.       -0.0122 Ry
        Total length         47.2675 bohr

     End of self-consistent calculation

[...]

          k = 0.0481 0.0000 0.0000 ( 27063 PWs)   bands (ev):

[...]

          k =-0.0722-0.1251 0.0000 ( 27002 PWs)   bands (ev):

   -50.1612 -50.1389 -50.1389 -50.0272 -50.0210 -50.0210 -49.7606 -49.7606
   -49.6746 -31.0150 -30.9703 -30.8965 -30.8507 -30.8160 -30.7938 -30.5425
   -30.4780 -30.4038 -15.3518 -15.2381 -15.1201 -14.9656 -14.8695 -14.8061
   -14.7765 -14.7409 -14.6883 -14.6328 -14.6019 -14.5635 -14.5517 -14.5458
   -14.4453 -14.3180 -14.3058 -14.2307 -14.0657 -14.0047 -13.9960 -13.8782
   -13.8283 -13.7941 -13.7654 -13.7335 -13.4982  -1.0645  -1.0085  -0.6572
    -0.5688  -0.5600  -0.5166  -0.4414  -0.4405  -0.3455  -0.2204  -0.2167
    -0.1057  -0.0392   0.0636   0.0677   0.1423   0.1785   0.2108   0.9261
     1.0105   1.1116   1.3897   1.6494   1.8431   2.0034   2.0934   2.1663
     2.2576   2.3944   2.4882   2.6103   2.7434   2.7713   2.8520   2.8596
     2.9806   3.0429   3.1101   3.2650   3.2743   3.3012   3.4663   3.4664
     3.5743   3.6156   3.6495   3.6788   3.6877   3.7511   3.7610   3.8233
     3.8287   3.8625   3.8649   3.8720   3.9237   3.9483   3.9885

     the Fermi energy is     2.3650 ev

!    total energy              =   -1573.47441753 Ry
     Harris-Foulkes estimate   =   -1573.47441746 Ry
     estimated scf accuracy    <       0.00000034 Ry

     The total energy is the sum of the following terms:

     one-electron contribution =   -7244.45618078 Ry
     hartree contribution      =    3643.08527981 Ry
     xc contribution           =    -632.94257478 Ry
     ewald contribution        =    2660.95425352 Ry
     electric field correction =       0.00000951 Ry
     smearing contrib. (-TS)   =      -0.11520480 Ry

     convergence has been achieved in  22 iterations

 BEEF-vdW xc energy contributions
           1 :   -561.750984235314
           2 :    518.535437427784
           3 :   -441.644994685381
           4 :    346.834424087512
           5 :   -251.166096728293
           6 :    168.498119699155
           7 :   -106.783583493623
           8 :    67.5350455391118
           9 :   -47.0883687271314
          10 :    38.9061162167861
          11 :   -36.0768886590600
          12 :    33.2402237707845
          13 :   -27.5113609313520
          14 :    18.4189889314541
          15 :   -7.22078808492552
          16 :   -3.99320519662899
          17 :    13.1238130361204
          18 :   -18.6835957499110
          19 :    20.1470818008917
          20 :   -18.0080225573121
          21 :    13.5640036862879
          22 :   -8.50947660032330
          23 :    4.44332074611498
          24 :   -2.42173268292458
          25 :    2.68866476680410
          26 :   -4.68481523829621
          27 :    7.33133340483016
          28 :   -9.47370706980666
          29 :    10.3059278633367
          30 :   -9.62343258982526
          31 :   -47.1533057406737
          32 :   -34.0765778602810

     Forces acting on atoms (Ry/au):

     negative rho (up, down):  9.197E-01 0.000E+00
     atom    1 type  1   force =    -0.00000006    0.02040721   -0.00893371
     atom    2 type  1   force =     0.01767287   -0.01020266   -0.00893366
     atom    3 type  1   force =    -0.01767353   -0.01020269   -0.00893391
     atom    4 type  2   force =     0.00000181   -0.00000025    0.03572914
     atom    5 type  1   force =     0.00000083   -0.01266677   -0.00058899
     atom    6 type  1   force =    -0.01097040    0.00633240   -0.00058653
     atom    7 type  1   force =     0.01096978    0.00633120   -0.00058735
     atom    8 type  2   force =    -0.00000131   -0.00000033   -0.00476412
     atom    9 type  1   force =     0.00000002    0.00013073   -0.00045622
     atom   10 type  1   force =     0.00011206   -0.00006468   -0.00045597
     atom   11 type  1   force =    -0.00011180   -0.00006350   -0.00045680
     atom   12 type  2   force =    -0.00000025   -0.00000066   -0.00103188

     Total force =     0.057202     Total SCF correction =     0.001771

     entering subroutine stress ...

     negative rho (up, down):  9.197E-01 0.000E+00
          total   stress  (Ry/bohr**3)                   (kbar)     P=   -4.11
  -0.00003579  -0.00000000  -0.00000000         -5.26     -0.00     -0.00
  -0.00000000  -0.00003579   0.00000000         -0.00     -5.26      0.00
  -0.00000000   0.00000000  -0.00001217         -0.00      0.00     -1.79

 !ASE

     Writing output data file calc.save

     General routines

     Parallel routines

   This run was terminated on:  22: 9:18  26Dec2018

   JOB DONE.
Job  /afs/slac/g/suncat/bin/suncat-tsmpirun -x LD_LIBRARY_PATH -wdir /scratch/qe110019_uwvPt pw.x -in pw.inp

TID   HOST_NAME   COMMAND_LINE            STATUS            TERMINATION_TIME
00000 suncat0139 pw.x -in pw.inp   Done                     12/26/2018 22:09:18
00001 suncat0139 pw.x -in pw.inp   Done                     12/26/2018 22:09:18
00002 suncat0139 pw.x -in pw.inp   Done                     12/26/2018 22:09:18
00003 suncat0139 pw.x -in pw.inp   Done                     12/26/2018 22:09:18
00004 suncat0139 pw.x -in pw.inp   Done                     12/26/2018 22:09:18
00005 suncat0139 pw.x -in pw.inp   Done                     12/26/2018 22:09:18
00006 suncat0139 pw.x -in pw.inp   Done                     12/26/2018 22:09:18
00007 suncat0139 pw.x -in pw.inp   Done                     12/26/2018 22:09:18
00008 suncat0124 pw.x -in pw.inp   Done                     12/26/2018 22:09:18
00009 suncat0124 pw.x -in pw.inp   Done                     12/26/2018 22:09:18
00010 suncat0124 pw.x -in pw.inp   Done                     12/26/2018 22:09:18
00011 suncat0124 pw.x -in pw.inp   Done                     12/26/2018 22:09:18
00012 suncat0124 pw.x -in pw.inp   Done                     12/26/2018 22:09:18
00013 suncat0124 pw.x -in pw.inp   Done                     12/26/2018 22:09:18
00014 suncat0124 pw.x -in pw.inp   Done                     12/26/2018 22:09:18
00015 suncat0124 pw.x -in pw.inp   Done                     12/26/2018 22:09:18
00016 suncat0123 pw.x -in pw.inp   Done                     12/26/2018 22:09:18
00017 suncat0123 pw.x -in pw.inp   Done                     12/26/2018 22:09:18
00018 suncat0123 pw.x -in pw.inp   Done                     12/26/2018 22:09:18
00019 suncat0123 pw.x -in pw.inp   Done                     12/26/2018 22:09:18
00020 suncat0123 pw.x -in pw.inp   Done                     12/26/2018 22:09:18
00021 suncat0123 pw.x -in pw.inp   Done                     12/26/2018 22:09:18
00022 suncat0123 pw.x -in pw.inp   Done                     12/26/2018 22:09:18
00023 suncat0123 pw.x -in pw.inp   Done                     12/26/2018 22:09:18
00024 suncat0122 pw.x -in pw.inp   Done                     12/26/2018 22:09:18
00025 suncat0122 pw.x -in pw.inp   Done                     12/26/2018 22:09:18
00026 suncat0122 pw.x -in pw.inp   Done                     12/26/2018 22:09:18
00027 suncat0122 pw.x -in pw.inp   Done                     12/26/2018 22:09:18
00028 suncat0122 pw.x -in pw.inp   Done                     12/26/2018 22:09:18
00029 suncat0122 pw.x -in pw.inp   Done                     12/26/2018 22:09:18
00030 suncat0122 pw.x -in pw.inp   Done                     12/26/2018 22:09:18
00031 suncat0122 pw.x -in pw.inp   Done                     12/26/2018 22:09:18
00032 suncat0241 pw.x -in pw.inp   Done                     12/26/2018 22:09:18
00033 suncat0241 pw.x -in pw.inp   Done                     12/26/2018 22:09:18
00034 suncat0241 pw.x -in pw.inp   Done                     12/26/2018 22:09:18
00035 suncat0241 pw.x -in pw.inp   Done                     12/26/2018 22:09:18
00036 suncat0241 pw.x -in pw.inp   Done                     12/26/2018 22:09:18
00037 suncat0241 pw.x -in pw.inp   Done                     12/26/2018 22:09:18
00038 suncat0241 pw.x -in pw.inp   Done                     12/26/2018 22:09:18
00039 suncat0241 pw.x -in pw.inp   Done                     12/26/2018 22:09:18
00040 suncat0240 pw.x -in pw.inp   Done                     12/26/2018 22:09:18
00041 suncat0240 pw.x -in pw.inp   Done                     12/26/2018 22:09:18
00042 suncat0240 pw.x -in pw.inp   Done                     12/26/2018 22:09:18
00043 suncat0240 pw.x -in pw.inp   Done                     12/26/2018 22:09:18
00044 suncat0240 pw.x -in pw.inp   Done                     12/26/2018 22:09:18
00045 suncat0240 pw.x -in pw.inp   Done                     12/26/2018 22:09:18
00046 suncat0240 pw.x -in pw.inp   Done                     12/26/2018 22:09:18
00047 suncat0240 pw.x -in pw.inp   Done                     12/26/2018 22:09:18
00048 suncat0239 pw.x -in pw.inp   Done                     12/26/2018 22:09:18
00049 suncat0239 pw.x -in pw.inp   Done                     12/26/2018 22:09:18
00050 suncat0239 pw.x -in pw.inp   Done                     12/26/2018 22:09:18
00051 suncat0239 pw.x -in pw.inp   Done                     12/26/2018 22:09:18
00052 suncat0239 pw.x -in pw.inp   Done                     12/26/2018 22:09:18
00053 suncat0239 pw.x -in pw.inp   Done                     12/26/2018 22:09:18
00054 suncat0239 pw.x -in pw.inp   Done                     12/26/2018 22:09:18
00055 suncat0239 pw.x -in pw.inp   Done                     12/26/2018 22:09:18
00056 suncat0098 pw.x -in pw.inp   Done                     12/26/2018 22:09:18
00057 suncat0098 pw.x -in pw.inp   Done                     12/26/2018 22:09:18
00058 suncat0098 pw.x -in pw.inp   Done                     12/26/2018 22:09:18
00059 suncat0098 pw.x -in pw.inp   Done                     12/26/2018 22:09:18
00060 suncat0098 pw.x -in pw.inp   Done                     12/26/2018 22:09:18
00061 suncat0098 pw.x -in pw.inp   Done                     12/26/2018 22:09:18
00062 suncat0098 pw.x -in pw.inp   Done                     12/26/2018 22:09:18
00063 suncat0098 pw.x -in pw.inp   Done                     12/26/2018 22:09:18