     Program PWSCF v.5.1rc2 (svn rev. 11289) starts on 31Dec2018 at 22:12:20

     Current dimensions of program PWSCF are:
     Max number of different atomic species (ntypx) = 10
     Max number of k-points (npk) =  40000
     Max angular momentum in pseudopotentials (lmaxx) =  3
     Presently stress not available with electric field

     IMPORTANT: XC functional enforced from input :
     Exchange-correlation      = BEEF-VDW ( 1  4 27 13 2)
     Any further DFT definition will be discarded
     Please, verify this is what you really want

     Subspace diagonalization in iterative solution of the eigenvalue problem:
     a serial algorithm will be used

     bravais-lattice index     =            0
     lattice parameter (alat)  =       1.8897  a.u.
     unit-cell volume          =    4497.0388 (a.u.)^3
     number of atoms/cell      =           12
     number of atomic types    =            2
     number of electrons       =       171.00
     number of Kohn-Sham states=          115
     kinetic-energy cutoff     =      36.7493  Ry
     charge density cutoff     =     367.4932  Ry
     convergence threshold     =      1.0E-06
     mixing beta               =       0.1000
     number of iterations used =           10  plain     mixing
     Exchange-correlation      = BEEF-VDW ( 1  4 27 13 2)
     nstep                     =           50

     celldm(1)=   1.889726  celldm(2)=   0.000000  celldm(3)=   0.000000
     celldm(4)=   0.000000  celldm(5)=   0.000000  celldm(6)=   0.000000

     crystal axes: (cart. coord. in units of alat)
               a(1) = (   5.596321   0.000000   0.000000 )
               a(2) = (  -2.798161   4.846556   0.000000 )
               a(3) = (   0.000000   0.000000  24.569377 )

     reciprocal axes: (cart. coord. in units 2 pi/alat)
               b(1) = (  0.178689  0.103166  0.000000 )
               b(2) = (  0.000000  0.206332  0.000000 )
               b(3) = (  0.000000  0.000000  0.040701 )

     PseudoPot. # 1 for Rh read from file:
     /afs/slac.stanford.edu/u/if/mamunm/psp/gbrv1.5pbe/Rh.UPF
     MD5 check sum: 761627e959a2e3a1f56b0b5fe687810e
     Pseudo is Ultrasoft + core correction, Zval = 15.0
     Generated by new atomic code, or converted to UPF format
     Using radial grid of  969 points,  7 beta functions with:
                l(1) =   0
                l(2) =   0
                l(3) =   1
                l(4) =   1
                l(5) =   2
                l(6) =   2
                l(7) =   2
     Q(r) pseudized with  8 coefficients,  rinner =    1.200   1.200   1.200
                                                       1.200   1.200

     PseudoPot. # 2 for Hf read from file:
     /afs/slac.stanford.edu/u/if/mamunm/psp/gbrv1.5pbe/Hf.UPF
     MD5 check sum: 8ee9378dfe14276e333edf04c5e4aa26
     Pseudo is Ultrasoft + core correction, Zval = 12.0
     Generated by new atomic code, or converted to UPF format
     Using radial grid of  921 points,  8 beta functions with:
                l(1) =   0
                l(2) =   0
                l(3) =   0
                l(4) =   1
                l(5) =   1
                l(6) =   2
                l(7) =   2
                l(8) =   3
     Q(r) pseudized with  6 coefficients,  rinner =    1.200   1.200   1.200
                                                       1.200   1.200   1.200
                                                       1.200

     vdW kernel table read from file vdW_kernel_table
     MD5 check sum: 095c7af220d748ca6e76c0b4c6cfb241

     atomic species   valence    mass     pseudopotential
        Rh1           15.00   102.90550     Rh( 1.00)
        Hf1           12.00   178.49000     Hf( 1.00)

     No symmetry found

   Cartesian axes

     site n.     atom                  positions (alat units)
         1           Rh1 tau(   1) = (   0.0000000   0.0000000  10.0000000  )
         2           Rh1 tau(   2) = (  -1.3990803   2.4232781  10.0000000  )
         3           Rh1 tau(   3) = (   1.3990803   2.4232781  10.0000000  )
         4           Hf1 tau(   4) = (   2.7981606   0.0000000  10.0000000  )
         5           Rh1 tau(   5) = (   2.7981606   1.6155188  12.2846885  )
         6           Rh1 tau(   6) = (   1.3990803   4.0387969  12.2846885  )
         7           Rh1 tau(   7) = (  -1.3990803   4.0387969  12.2846885  )
         8           Hf1 tau(   8) = (   0.0000000   1.6155188  12.2846885  )
         9           Rh1 tau(   9) = (  -0.0000000   3.2310375  14.5693771  )
        10           Rh1 tau(  10) = (   1.3990803   0.8077594  14.5693771  )
        11           Rh1 tau(  11) = (   4.1972408   0.8077594  14.5693771  )
        12           Hf1 tau(  12) = (   2.7981606   3.2310375  14.5693771  )

     number of k points=    20  Fermi-Dirac smearing, width (Ry)=  0.0110
                       cart. coord. in units 2pi/alat
        k(    1) = (   0.0000000   0.0000000   0.0000000), wk =   0.0555556
        k(    2) = (   0.0000000   0.0343887   0.0000000), wk =   0.1111111
        k(    3) = (   0.0000000   0.0687774   0.0000000), wk =   0.1111111
        k(    4) = (   0.0000000  -0.1031660   0.0000000), wk =   0.0555556
        k(    5) = (   0.0297815   0.0171943   0.0000000), wk =   0.1111111
        k(    6) = (   0.0297815   0.0515830   0.0000000), wk =   0.1111111
        k(    7) = (   0.0297815   0.0859717   0.0000000), wk =   0.1111111
        k(    8) = (   0.0297815  -0.0859717   0.0000000), wk =   0.1111111
        k(    9) = (   0.0297815  -0.0515830   0.0000000), wk =   0.1111111
        k(   10) = (   0.0297815  -0.0171943   0.0000000), wk =   0.1111111
        k(   11) = (   0.0595629   0.0343887   0.0000000), wk =   0.1111111
        k(   12) = (   0.0595629   0.0687774   0.0000000), wk =   0.1111111
        k(   13) = (   0.0595629   0.1031660   0.0000000), wk =   0.1111111
        k(   14) = (   0.0595629  -0.0687774   0.0000000), wk =   0.1111111
        k(   15) = (   0.0595629  -0.0343887   0.0000000), wk =   0.1111111
        k(   16) = (   0.0595629   0.0000000   0.0000000), wk =   0.1111111
        k(   17) = (  -0.0893444  -0.0515830   0.0000000), wk =   0.0555556
        k(   18) = (  -0.0893444  -0.0171943   0.0000000), wk =   0.1111111
        k(   19) = (  -0.0893444   0.0171943   0.0000000), wk =   0.1111111
        k(   20) = (  -0.0893444  -0.1547491   0.0000000), wk =   0.0555556

     Largest allocated arrays     est. size (Mb)     dimensions
     Largest temporary arrays     est. size (Mb)     dimensions

     Check: negative/imaginary core charge=   -0.000002    0.000000

     Initial potential from superposition of free atoms
     Check: negative starting charge=   -0.815241

     starting charge  160.49911, renormalised to  171.00000

     negative rho (up, down):  8.686E-01 0.000E+00

     *
     * You are using vdW-DF for exchange-correlation in this calculation.
     * Please cite the following three references that made this development
     * possible:
     *
     *   M. Dion, H. Rydberg, E. Schroder, D. C. Langreth, and
     *   B. I. Lundqvist, Phys. Rev. Lett. 92, 246401 (2004).
     *
     *   T. Thonhauser, V. R. Cooper, S. Li, A. Puzder, P. Hyldgaard, and
     *   D. C. Langreth, Phys. Rev. B 76, 125112 (2007).
     *
     *   G. Roman-Perez and J. M. Soler, Phys. Rev. Lett. 103, 096102 (2009).
     *
     *
     * If you are using vdW-DF2, please also cite:
     *
     *   K. Lee, E. D. Murray, L. Kong, B. I. Lundqvist, and
     *   D. C. Langreth, Phys. Rev. B 82, 081101(R) (2010).
     *
     *
     * If you are calculating the stress with vdW-DF, please also cite:
     *
     *   R. Sabatini, E. Kucukbenli, B. Kolb, T. Thonhauser, and
     *   S. de Gironcoli, J. Phys.: Condens. Matter 24, 424209 (2012).
     *

     Carrying out vdW-DF run using the following parameters:

     Nqs =      20    Nr_points =    1024   r_max =   100.000
     q_mesh =
               0.00001000     0.04494208     0.09755937     0.15916263
               0.23128650     0.31572767     0.41458969     0.53033537
               0.66584808     0.82450364     1.01025438     1.22772762
               1.48234092     1.78043706     2.12944203     2.53805004
               3.01644009     3.57652955     4.23227104     5.00000000

     Gradients computed in reciprocal space

     Adding external electric field

     Computed dipole along edir(3) :
        Dipole                0.0000 Ry au,          0.0000 Debye
        Dipole field          0.0000 Ry au

        Potential amp.       -0.0000 Ry
        Total length         45.2687 bohr

     Starting wfc are  147 randomized atomic wfcs

     Self-consistent Calculation

     iteration #  1     ecut=    36.75 Ry     beta=0.10
     Davidson diagonalization with overlap
     ethr =  1.00E-02,  avg # of iterations =  7.7

[...]

     total energy              =   -2030.51336270 Ry
     Harris-Foulkes estimate   =   -2037.87434765 Ry
     estimated scf accuracy    <      44.24117316 Ry

[...]

     End of self-consistent calculation

          k = 0.0000 0.0000 0.0000 ( 16847 PWs)   bands (ev):

   -60.9145 -60.9142 -60.2849 -44.6230 -44.5509 -44.5509 -44.5378 -44.4915
   -44.4914 -44.3813 -44.2935 -44.2935 -44.2766 -44.2679 -44.2024 -44.2024
   -44.1782 -44.1782 -44.0387 -44.0340 -44.0324 -44.0025 -43.9969 -43.9969
   -43.9794 -43.9794 -43.9500 -43.9499 -43.9495 -43.9495 -29.5447 -29.5301
   -29.3452 -29.3452 -29.3413 -29.3413 -28.8425 -28.8425 -28.7993  -4.7037
    -3.2751  -3.0343  -2.8664  -2.8664  -2.8272  -2.6435  -2.5183  -2.5183
    -2.3341  -2.3341  -2.2419  -2.0944  -2.0505  -2.0505  -1.0391  -0.9984
    -0.9984  -0.6861  -0.6861  -0.4096  -0.2096  -0.1990  -0.1117   0.0283
     0.0283   0.1544   0.1544   0.4081   0.4081   0.5590   0.5590   0.5988
     0.5988   1.0770   1.4669   1.4669   1.4788   1.4788   1.4790   1.5976
     1.5976   2.0977   2.1072   2.2360   2.2360   2.5149   2.8178   2.8602
     2.9155   3.1075   3.9599   3.9599   4.3769   4.5981   4.5981   4.6425
     4.6425   4.8351   5.0394   5.0394   5.1638   5.1638   5.3852   5.3852
     5.8560   6.0365   6.1515   6.1515   6.5187   6.6934   6.6934   6.7611
     7.4558   7.5735   7.5735

[...]

          k =-0.0893-0.0516 0.0000 ( 16920 PWs)   bands (ev):

[...]

     the Fermi energy is     1.8808 ev

!    total energy              =   -2032.02640379 Ry
     Harris-Foulkes estimate   =   -2032.02640151 Ry
     estimated scf accuracy    <       0.00000038 Ry

     The total energy is the sum of the following terms:

     one-electron contribution =  -16023.44958484 Ry
     hartree contribution      =    8041.26579928 Ry
     xc contribution           =    -511.54843322 Ry
     ewald contribution        =    6461.78808885 Ry
     electric field correction =       0.00000000 Ry
     smearing contrib. (-TS)   =      -0.08227385 Ry

     convergence has been achieved in  18 iterations

 BEEF-vdW xc energy contributions
           1 :   -453.074396959374
           2 :    418.563246335006
           3 :   -358.107624323507
           4 :    285.492224235396
           5 :   -214.898609112387
           6 :    156.659629425035
           7 :   -115.149754603518
           8 :    89.1521250377756
[...]
     Generated by new atomic code, or converted to UPF format
     Using radial grid of  969 points,  7 beta functions with:
                l(1) =   0
                l(2) =   0
                l(3) =   1
                l(4) =   1
                l(5) =   2
                l(6) =   2
                l(7) =   2
     Q(r) pseudized with  8 coefficients,  rinner =    1.200   1.200   1.200
                                                       1.200   1.200

     PseudoPot. # 2 for Hf read from file:
     /afs/slac.stanford.edu/u/if/mamunm/psp/gbrv1.5pbe/Hf.UPF
     MD5 check sum: 8ee9378dfe14276e333edf04c5e4aa26
     Pseudo is Ultrasoft + core correction, Zval = 12.0
     Generated by new atomic code, or converted to UPF format
     Using radial grid of  921 points,  8 beta functions with:
                l(1) =   0
                l(2) =   0
                l(3) =   0
                l(4) =   1
                l(5) =   1
                l(6) =   2
                l(7) =   2
                l(8) =   3
     Q(r) pseudized with  6 coefficients,  rinner =    1.200   1.200   1.200
                                                       1.200   1.200   1.200
                                                       1.200

     vdW kernel table read from file vdW_kernel_table
     MD5 check sum: 095c7af220d748ca6e76c0b4c6cfb241

     atomic species   valence    mass     pseudopotential
        Rh1           15.00   102.90550     Rh( 1.00)
        Hf1           12.00   178.49000     Hf( 1.00)

     No symmetry found

   Cartesian axes

     site n.     atom                  positions (alat units)
         1           Rh1 tau(   1) = (   0.0000000   0.0000000  10.0000000  )
         2           Rh1 tau(   2) = (  -1.3990803   2.4232781  10.0000000  )
         3           Rh1 tau(   3) = (   1.3990803   2.4232781  10.0000000  )
         4           Hf1 tau(   4) = (   2.7981606   0.0000000  10.0000000  )
         5           Rh1 tau(   5) = (   2.7981606   1.6155188  12.2846885  )
         6           Rh1 tau(   6) = (   1.3990803   4.0387969  12.2846885  )
         7           Rh1 tau(   7) = (  -1.3990803   4.0387969  12.2846885  )
         8           Hf1 tau(   8) = (   0.0000000   1.6155188  12.2846885  )
         9           Rh1 tau(   9) = (  -0.0000012   3.2245450  14.5214310  )
        10           Rh1 tau(  10) = (   1.3934534   0.8110071  14.5214318  )
        11           Rh1 tau(  11) = (   4.2028612   0.8110057  14.5214290  )
        12           Hf1 tau(  12) = (   2.7981700   3.2310431  14.4541124  )

     number of k points=    20  Fermi-Dirac smearing, width (Ry)=  0.0110
                       cart. coord. in units 2pi/alat
        k(    1) = (   0.0000000   0.0000000   0.0000000), wk =   0.0555556
        k(    2) = (   0.0000000   0.0343887   0.0000000), wk =   0.1111111
        k(    3) = (   0.0000000   0.0687774   0.0000000), wk =   0.1111111
        k(    4) = (   0.0000000  -0.1031660   0.0000000), wk =   0.0555556
        k(    5) = (   0.0297815   0.0171943   0.0000000), wk =   0.1111111
        k(    6) = (   0.0297815   0.0515830   0.0000000), wk =   0.1111111
        k(    7) = (   0.0297815   0.0859717   0.0000000), wk =   0.1111111
        k(    8) = (   0.0297815  -0.0859717   0.0000000), wk =   0.1111111
        k(    9) = (   0.0297815  -0.0515830   0.0000000), wk =   0.1111111
        k(   10) = (   0.0297815  -0.0171943   0.0000000), wk =   0.1111111
        k(   11) = (   0.0595629   0.0343887   0.0000000), wk =   0.1111111
        k(   12) = (   0.0595629   0.0687774   0.0000000), wk =   0.1111111
        k(   13) = (   0.0595629   0.1031660   0.0000000), wk =   0.1111111
        k(   14) = (   0.0595629  -0.0687774   0.0000000), wk =   0.1111111
        k(   15) = (   0.0595629  -0.0343887   0.0000000), wk =   0.1111111
        k(   16) = (   0.0595629   0.0000000   0.0000000), wk =   0.1111111
        k(   17) = (  -0.0893444  -0.0515830   0.0000000), wk =   0.0555556
        k(   18) = (  -0.0893444  -0.0171943   0.0000000), wk =   0.1111111
        k(   19) = (  -0.0893444   0.0171943   0.0000000), wk =   0.1111111
        k(   20) = (  -0.0893444  -0.1547491   0.0000000), wk =   0.0555556

     Largest allocated arrays     est. size (Mb)     dimensions
     Largest temporary arrays     est. size (Mb)     dimensions

     Check: negative/imaginary core charge=   -0.000002    0.000000

     Initial potential from superposition of free atoms
     Check: negative starting charge=   -0.814671

     starting charge  160.49911, renormalised to  171.00000

[...]

     *
     * You are using vdW-DF for exchange-correlation in this calculation.
     * Please cite the following three references that made this development
     * possible:
     *
     *   M. Dion, H. Rydberg, E. Schroder, D. C. Langreth, and
     *   B. I. Lundqvist, Phys. Rev. Lett. 92, 246401 (2004).
     *
     *   T. Thonhauser, V. R. Cooper, S. Li, A. Puzder, P. Hyldgaard, and
     *   D. C. Langreth, Phys. Rev. B 76, 125112 (2007).
     *
     *   G. Roman-Perez and J. M. Soler, Phys. Rev. Lett. 103, 096102 (2009).
     *
     *
     * If you are using vdW-DF2, please also cite:
     *
     *   K. Lee, E. D. Murray, L. Kong, B. I. Lundqvist, and
     *   D. C. Langreth, Phys. Rev. B 82, 081101(R) (2010).
     *
     *
     * If you are calculating the stress with vdW-DF, please also cite:
     *
     *   R. Sabatini, E. Kucukbenli, B. Kolb, T. Thonhauser, and
     *   S. de Gironcoli, J. Phys.: Condens. Matter 24, 424209 (2012).
     *

     Carrying out vdW-DF run using the following parameters:

     Nqs =      20    Nr_points =    1024   r_max =   100.000
     q_mesh =
               0.00001000     0.04494208     0.09755937     0.15916263
               0.23128650     0.31572767     0.41458969     0.53033537
               0.66584808     0.82450364     1.01025438     1.22772762
               1.48234092     1.78043706     2.12944203     2.53805004
               3.01644009     3.57652955     4.23227104     5.00000000

     Gradients computed in reciprocal space

[...]

     Starting wfc are  147 randomized atomic wfcs

     Self-consistent Calculation

[...]

     total energy              =   -2032.04292291 Ry
     Harris-Foulkes estimate   =   -2032.04292224 Ry
     estimated scf accuracy    <       0.00000141 Ry

     iteration # 18     ecut=    36.75 Ry     beta=0.10
     Davidson diagonalization with overlap
     ethr =  8.27E-10,  avg # of iterations =  2.0

[...]

     negative rho (up, down):  8.590E-01 0.000E+00

     Adding external electric field

     Computed dipole along edir(3) :
        Dipole                0.0002 Ry au,          0.0005 Debye
        Dipole field          0.0000 Ry au

        Potential amp.       -0.0001 Ry
        Total length         45.2687 bohr

     End of self-consistent calculation

[...]

          k = 0.0596 0.0000 0.0000 ( 16912 PWs)   bands (ev):

[...]

          k =-0.0893-0.1547 0.0000 ( 16920 PWs)   bands (ev):

   -60.9433 -60.7722 -60.2439 -44.6258 -44.5886 -44.5797 -44.5599 -44.5186
   -44.5176 -44.4961 -44.4823 -44.3576 -44.2475 -44.2207 -44.1486 -44.1451
   -44.1278 -44.1261 -44.1195 -44.1153 -44.1047 -44.0885 -44.0493 -44.0400
   -44.0274 -44.0139 -43.9992 -43.9971 -43.9929 -43.9687 -29.5714 -29.4082
   -29.3901 -29.3768 -29.2555 -29.2409 -28.8360 -28.8208 -28.7684  -3.1557
    -3.0925  -2.3286  -2.1798  -2.1553  -2.0379  -2.0164  -1.9261  -1.8898
    -1.7178  -1.6721  -1.4953  -1.4265  -1.3250  -1.2477  -1.1164  -1.0086
    -0.9518  -0.8367  -0.8051  -0.4682  -0.3704  -0.3296  -0.1227  -0.1139
    -0.1060  -0.0429   0.0069   0.0965   0.1403   0.1516   0.1944   0.1988
     0.2164   0.3010   0.3760   0.5638   0.6626   0.7271   0.8015   0.8161
     1.0205   1.1707   1.2069   1.2454   1.4815   1.6183   1.7222   2.0794
     2.1412   2.1417   2.5231   3.2094   3.3437   3.9861   4.0885   4.1950
     4.3516   4.4861   4.5785   4.7262   4.7377   4.9049   4.9150   5.1480
     5.6998   6.2143   6.7736   6.8345   7.1735   7.4369   7.4560   7.9494
     7.9707   8.1256   8.2172

     the Fermi energy is     1.8715 ev

!    total energy              =   -2032.04292536 Ry
     Harris-Foulkes estimate   =   -2032.04292301 Ry
     estimated scf accuracy    <       0.00000053 Ry

     The total energy is the sum of the following terms:

     one-electron contribution =  -16165.18839661 Ry
     hartree contribution      =    8112.02824752 Ry
     xc contribution           =    -511.69066766 Ry
     ewald contribution        =    6532.88836795 Ry
     electric field correction =       0.00000000 Ry
     smearing contrib. (-TS)   =      -0.08047656 Ry

     convergence has been achieved in  18 iterations

 BEEF-vdW xc energy contributions
           1 :   -453.556104967202
           2 :    419.098035699113
           3 :   -358.708887311303
           4 :    286.118796490628
           5 :   -215.474522327784
           6 :    157.117011632509
           7 :   -115.468083957580
           8 :    89.3710672712124
           9 :   -74.2257479066378
          10 :    64.6669053051489
          11 :   -56.6452573431384
          12 :    48.2763945681714
          13 :   -39.5195794955001
          14 :    31.2044804374935
          15 :   -24.0699793547402
          16 :    18.2630214020948
          17 :   -13.4004896120050
          18 :    8.97275083829538
          19 :   -4.75859886024671
          20 :   0.988188106758003
          21 :    1.80528037519468
          22 :   -3.12577228749444
          23 :    2.83419714595107
          24 :   -1.28878645583575
          25 :  -0.745307936265476
          26 :    2.35353925198376
          27 :   -2.78642241654853
          28 :    1.71439068266403
          29 :   0.658367438460743
          30 :   -3.66162765113734
          31 :   -39.0790710370703
          32 :   -28.8642899974541

     Forces acting on atoms (Ry/au):

     negative rho (up, down):  8.590E-01 0.000E+00
     atom    1 type  1   force =     0.00000116    0.00351832    0.00881320
     atom    2 type  1   force =     0.00304493   -0.00175790    0.00881174
     atom    3 type  1   force =    -0.00305041   -0.00176325    0.00881814
     atom    4 type  2   force =    -0.00000199   -0.00000186    0.02387997
     atom    5 type  1   force =    -0.00000004   -0.00188224   -0.01339306
     atom    6 type  1   force =    -0.00162811    0.00094063   -0.01339335
     atom    7 type  1   force =     0.00163142    0.00094259   -0.01339506
     atom    8 type  2   force =    -0.00000404   -0.00000031   -0.00979229
     atom    9 type  1   force =     0.00000256    0.00003622   -0.00018626
     atom   10 type  1   force =     0.00003187   -0.00001590   -0.00018722
     atom   11 type  1   force =    -0.00003022   -0.00001813   -0.00018617
     atom   12 type  2   force =     0.00000286    0.00000185    0.00021034

     Total force =     0.038540     Total SCF correction =     0.001159

     entering subroutine stress ...

     negative rho (up, down):  8.590E-01 0.000E+00
          total   stress  (Ry/bohr**3)                   (kbar)     P=  -29.80
  -0.00021628   0.00000000   0.00000000        -31.82      0.00      0.00
   0.00000000  -0.00021628   0.00000000          0.00    -31.82      0.00
   0.00000000   0.00000000  -0.00017519          0.00      0.00    -25.77

 !ASE

     Writing output data file calc.save

     General routines

     Parallel routines

   This run was terminated on:  23:17:50  31Dec2018

   JOB DONE.
Job  /afs/slac/g/suncat/bin/suncat-tsmpirun -x LD_LIBRARY_PATH -wdir /scratch/qe648875_ww51f pw.x -in pw.inp

TID   HOST_NAME   COMMAND_LINE            STATUS            TERMINATION_TIME
00000 suncat0068 pw.x -in pw.inp   Done                     12/31/2018 23:17:50
00001 suncat0068 pw.x -in pw.inp   Done                     12/31/2018 23:17:50
00002 suncat0068 pw.x -in pw.inp   Done                     12/31/2018 23:17:50
00003 suncat0068 pw.x -in pw.inp   Done                     12/31/2018 23:17:50
00004 suncat0068 pw.x -in pw.inp   Done                     12/31/2018 23:17:50
00005 suncat0068 pw.x -in pw.inp   Done                     12/31/2018 23:17:50
00006 suncat0068 pw.x -in pw.inp   Done                     12/31/2018 23:17:50
00007 suncat0068 pw.x -in pw.inp   Done                     12/31/2018 23:17:50
00008 suncat0059 pw.x -in pw.inp   Done                     12/31/2018 23:17:50
00009 suncat0059 pw.x -in pw.inp   Done                     12/31/2018 23:17:50
00010 suncat0059 pw.x -in pw.inp   Done                     12/31/2018 23:17:50
00011 suncat0059 pw.x -in pw.inp   Done                     12/31/2018 23:17:50
00012 suncat0059 pw.x -in pw.inp   Done                     12/31/2018 23:17:50
00013 suncat0059 pw.x -in pw.inp   Done                     12/31/2018 23:17:50
00014 suncat0059 pw.x -in pw.inp   Done                     12/31/2018 23:17:50
00015 suncat0059 pw.x -in pw.inp   Done                     12/31/2018 23:17:50
00016 suncat0031 pw.x -in pw.inp   Done                     12/31/2018 23:17:50
00017 suncat0031 pw.x -in pw.inp   Done                     12/31/2018 23:17:50
00018 suncat0031 pw.x -in pw.inp   Done                     12/31/2018 23:17:50
00019 suncat0031 pw.x -in pw.inp   Done                     12/31/2018 23:17:50
00020 suncat0031 pw.x -in pw.inp   Done                     12/31/2018 23:17:50
00021 suncat0031 pw.x -in pw.inp   Done                     12/31/2018 23:17:50
00022 suncat0031 pw.x -in pw.inp   Done                     12/31/2018 23:17:50
00023 suncat0031 pw.x -in pw.inp   Done                     12/31/2018 23:17:50
00024 suncat0030 pw.x -in pw.inp   Done                     12/31/2018 23:17:50
00025 suncat0030 pw.x -in pw.inp   Done                     12/31/2018 23:17:50
00026 suncat0030 pw.x -in pw.inp   Done                     12/31/2018 23:17:50
00027 suncat0030 pw.x -in pw.inp   Done                     12/31/2018 23:17:50
00028 suncat0030 pw.x -in pw.inp   Done                     12/31/2018 23:17:50
00029 suncat0030 pw.x -in pw.inp   Done                     12/31/2018 23:17:50
00030 suncat0030 pw.x -in pw.inp   Done                     12/31/2018 23:17:50
00031 suncat0030 pw.x -in pw.inp   Done                     12/31/2018 23:17:50
00032 suncat0280 pw.x -in pw.inp   Done                     12/31/2018 23:17:50
00033 suncat0280 pw.x -in pw.inp   Done                     12/31/2018 23:17:50
00034 suncat0280 pw.x -in pw.inp   Done                     12/31/2018 23:17:50
00035 suncat0280 pw.x -in pw.inp   Done                     12/31/2018 23:17:50
00036 suncat0280 pw.x -in pw.inp   Done                     12/31/2018 23:17:50
00037 suncat0280 pw.x -in pw.inp   Done                     12/31/2018 23:17:50
00038 suncat0280 pw.x -in pw.inp   Done                     12/31/2018 23:17:50
00039 suncat0280 pw.x -in pw.inp   Done                     12/31/2018 23:17:50
00040 suncat0279 pw.x -in pw.inp   Done                     12/31/2018 23:17:50
00041 suncat0279 pw.x -in pw.inp   Done                     12/31/2018 23:17:50
00042 suncat0279 pw.x -in pw.inp   Done                     12/31/2018 23:17:50
00043 suncat0279 pw.x -in pw.inp   Done                     12/31/2018 23:17:50
00044 suncat0279 pw.x -in pw.inp   Done                     12/31/2018 23:17:50
00045 suncat0279 pw.x -in pw.inp   Done                     12/31/2018 23:17:50
00046 suncat0279 pw.x -in pw.inp   Done                     12/31/2018 23:17:50
00047 suncat0279 pw.x -in pw.inp   Done                     12/31/2018 23:17:50
00048 suncat0278 pw.x -in pw.inp   Done                     12/31/2018 23:17:50
00049 suncat0278 pw.x -in pw.inp   Done                     12/31/2018 23:17:50
00050 suncat0278 pw.x -in pw.inp   Done                     12/31/2018 23:17:50
00051 suncat0278 pw.x -in pw.inp   Done                     12/31/2018 23:17:50
00052 suncat0278 pw.x -in pw.inp   Done                     12/31/2018 23:17:50
00053 suncat0278 pw.x -in pw.inp   Done                     12/31/2018 23:17:50
00054 suncat0278 pw.x -in pw.inp   Done                     12/31/2018 23:17:50
00055 suncat0278 pw.x -in pw.inp   Done                     12/31/2018 23:17:50
00056 suncat0099 pw.x -in pw.inp   Done                     12/31/2018 23:17:50
00057 suncat0099 pw.x -in pw.inp   Done                     12/31/2018 23:17:50
00058 suncat0099 pw.x -in pw.inp   Done                     12/31/2018 23:17:50
00059 suncat0099 pw.x -in pw.inp   Done                     12/31/2018 23:17:50
00060 suncat0099 pw.x -in pw.inp   Done                     12/31/2018 23:17:50
00061 suncat0099 pw.x -in pw.inp   Done                     12/31/2018 23:17:50
00062 suncat0099 pw.x -in pw.inp   Done                     12/31/2018 23:17:50
00063 suncat0099 pw.x -in pw.inp   Done                     12/31/2018 23:17:50