     Program PWSCF v.5.1rc2 (svn rev. 11289) starts on 30Dec2018 at  3:50:34

     Current dimensions of program PWSCF are:
     Max number of different atomic species (ntypx) = 10
     Max number of k-points (npk) =  40000
     Max angular momentum in pseudopotentials (lmaxx) =  3
     Presently stress not available with electric field

     IMPORTANT: XC functional enforced from input :
     Exchange-correlation      = BEEF-VDW ( 1  4 27 13 2)
     Any further DFT definition will be discarded
     Please, verify this is what you really want

     Subspace diagonalization in iterative solution of the eigenvalue problem:
     a serial algorithm will be used

     bravais-lattice index     =            0
     lattice parameter (alat)  =       1.8897  a.u.
     unit-cell volume          =    3897.4536 (a.u.)^3
     number of atoms/cell      =           12
     number of atomic types    =            2
     number of electrons       =       180.00
     number of Kohn-Sham states=          120
     kinetic-energy cutoff     =      36.7493  Ry
     charge density cutoff     =     367.4932  Ry
     convergence threshold     =      1.0E-06
     mixing beta               =       0.1000
     number of iterations used =           10  plain     mixing
     Exchange-correlation      = BEEF-VDW ( 1  4 27 13 2)
     nstep                     =           50

     celldm(1)=   1.889726  celldm(2)=   0.000000  celldm(3)=   0.000000
     celldm(4)=   0.000000  celldm(5)=   0.000000  celldm(6)=   0.000000

     crystal axes: (cart. coord. in units of alat)
               a(1) = (   5.240944   0.000000   0.000000 )
               a(2) = (  -2.620472   4.538791   0.000000 )
               a(3) = (   0.000000   0.000000  24.279213 )

     reciprocal axes: (cart. coord. in units 2 pi/alat)
               b(1) = (  0.190805  0.110161  0.000000 )
               b(2) = (  0.000000  0.220323  0.000000 )
               b(3) = (  0.000000  0.000000  0.041187 )

     PseudoPot. # 1 for Cu read from file:
     /afs/slac.stanford.edu/u/if/mamunm/psp/gbrv1.5pbe/Cu.UPF
     MD5 check sum: 6e991ff952a84172a2a52a1c1e996048
     Pseudo is Ultrasoft + core correction, Zval = 19.0
     Generated by new atomic code, or converted to UPF format
     Using radial grid of  867 points,  6 beta functions with:
                l(1) =   0
                l(2) =   0
                l(3) =   1
                l(4) =   1
                l(5) =   2
                l(6) =   2
     Q(r) pseudized with  8 coefficients,  rinner =    1.150   1.150   1.150
                                                       1.150   1.150

     PseudoPot. # 2 for Al read from file:
     /afs/slac.stanford.edu/u/if/mamunm/psp/gbrv1.5pbe/Al.UPF
     MD5 check sum: 0a6289f5291fc8f409219462bc851e1f
     Pseudo is Ultrasoft + core correction, Zval =  3.0
     Generated by new atomic code, or converted to UPF format
     Using radial grid of  893 points,  3 beta functions with:
                l(1) =   0
                l(2) =   1
                l(3) =   2
     Q(r) pseudized with  8 coefficients,  rinner =    0.900   0.900   0.900
                                                       0.900   0.900

     vdW kernel table read from file vdW_kernel_table
     MD5 check sum: 095c7af220d748ca6e76c0b4c6cfb241

     atomic species   valence    mass     pseudopotential
        Cu1           19.00    63.54600     Cu( 1.00)
        Al1            3.00    26.98154     Al( 1.00)

     No symmetry found

   Cartesian axes

     site n.     atom                  positions (alat units)
         1           Cu1 tau(   1) = (   0.0000000   0.0000000  10.0000000  )
         2           Cu1 tau(   2) = (  -1.3102361   2.2693955  10.0000000  )
         3           Cu1 tau(   3) = (   1.3102361   2.2693955  10.0000000  )
         4           Al1 tau(   4) = (   2.6204722   0.0000000  10.0000000  )
         5           Cu1 tau(   5) = (   2.6204722   1.5129303  12.1396066  )
         6           Cu1 tau(   6) = (   1.3102361   3.7823259  12.1396066  )
         7           Cu1 tau(   7) = (  -1.3102361   3.7823259  12.1396066  )
         8           Al1 tau(   8) = (   0.0000000   1.5129303  12.1396066  )
         9           Cu1 tau(   9) = (  -0.0000000   3.0258607  14.2792132  )
        10           Cu1 tau(  10) = (   1.3102361   0.7564652  14.2792132  )
        11           Cu1 tau(  11) = (   3.9307083   0.7564652  14.2792132  )
        12           Al1 tau(  12) = (   2.6204722   3.0258607  14.2792132  )

     number of k points=    20  Fermi-Dirac smearing, width (Ry)=  0.0110
                       cart. coord. in units 2pi/alat
        k(    1) = (   0.0000000   0.0000000   0.0000000), wk =   0.0555556
        k(    2) = (   0.0000000   0.0367205   0.0000000), wk =   0.1111111
        k(    3) = (   0.0000000   0.0734410   0.0000000), wk =   0.1111111
        k(    4) = (   0.0000000  -0.1101615   0.0000000), wk =   0.0555556
        k(    5) = (   0.0318009   0.0183602   0.0000000), wk =   0.1111111
        k(    6) = (   0.0318009   0.0550807   0.0000000), wk =   0.1111111
        k(    7) = (   0.0318009   0.0918012   0.0000000), wk =   0.1111111
        k(    8) = (   0.0318009  -0.0918012   0.0000000), wk =   0.1111111
        k(    9) = (   0.0318009  -0.0550807   0.0000000), wk =   0.1111111
        k(   10) = (   0.0318009  -0.0183602   0.0000000), wk =   0.1111111
        k(   11) = (   0.0636018   0.0367205   0.0000000), wk =   0.1111111
        k(   12) = (   0.0636018   0.0734410   0.0000000), wk =   0.1111111
        k(   13) = (   0.0636018   0.1101615   0.0000000), wk =   0.1111111
        k(   14) = (   0.0636018  -0.0734410   0.0000000), wk =   0.1111111
        k(   15) = (   0.0636018  -0.0367205   0.0000000), wk =   0.1111111
        k(   16) = (   0.0636018   0.0000000   0.0000000), wk =   0.1111111
        k(   17) = (  -0.0954027  -0.0550807   0.0000000), wk =   0.0555556
        k(   18) = (  -0.0954027  -0.0183602   0.0000000), wk =   0.1111111
        k(   19) = (  -0.0954027   0.0183602   0.0000000), wk =   0.1111111
        k(   20) = (  -0.0954027  -0.1652422   0.0000000), wk =   0.0555556

     Largest allocated arrays     est. size (Mb)     dimensions
     Largest temporary arrays     est. size (Mb)     dimensions

     Initial potential from superposition of free atoms
     Check: negative starting charge=   -0.000136

     starting charge  170.99259, renormalised to  180.00000

     negative rho (up, down):  1.436E-04 0.000E+00

     *
     * You are using vdW-DF for exchange-correlation in this calculation.
     * Please cite the following three references that made this development
     * possible:
     *
     *   M. Dion, H. Rydberg, E. Schroder, D. C. Langreth, and
     *   B. I. Lundqvist, Phys. Rev. Lett. 92, 246401 (2004).
     *
     *   T. Thonhauser, V. R. Cooper, S. Li, A. Puzder, P. Hyldgaard, and
     *   D. C. Langreth, Phys. Rev. B 76, 125112 (2007).
     *
     *   G. Roman-Perez and J. M. Soler, Phys. Rev. Lett. 103, 096102 (2009).
     *
     *
     * If you are using vdW-DF2, please also cite:
     *
     *   K. Lee, E. D. Murray, L. Kong, B. I. Lundqvist, and
     *   D. C. Langreth, Phys. Rev. B 82, 081101(R) (2010).
     *
     *
     * If you are calculating the stress with vdW-DF, please also cite:
     *
     *   R. Sabatini, E. Kucukbenli, B. Kolb, T. Thonhauser, and
     *   S. de Gironcoli, J. Phys.: Condens. Matter 24, 424209 (2012).
     *

     Carrying out vdW-DF run using the following parameters:

     Nqs =      20    Nr_points =    1024   r_max =   100.000
     q_mesh =
               0.00001000     0.04494208     0.09755937     0.15916263
               0.23128650     0.31572767     0.41458969     0.53033537
               0.66584808     0.82450364     1.01025438     1.22772762
               1.48234092     1.78043706     2.12944203     2.53805004
               3.01644009     3.57652955     4.23227104     5.00000000

     Gradients computed in reciprocal space

     Adding external electric field

     Computed dipole along edir(3) :
        Dipole               -0.0000 Ry au,         -0.0000 Debye
        Dipole field         -0.0000 Ry au

        Potential amp.        0.0000 Ry
        Total length         44.7340 bohr

     Starting wfc are  129 randomized atomic wfcs

     Self-consistent Calculation

     iteration #  1     ecut=    36.75 Ry     beta=0.10
     Davidson diagonalization with overlap
     ethr =  1.00E-02,  avg # of iterations =  6.9

[...]

     total energy              =   -3658.42050843 Ry
     Harris-Foulkes estimate   =   -3674.46544154 Ry
     estimated scf accuracy    <      90.04595820 Ry

[...]

     End of self-consistent calculation

          k = 0.0000 0.0000 0.0000 ( 14765 PWs)   bands (ev):

  -113.0918-113.0871-113.0871-112.6564-112.6558-112.6517-112.6517-112.6511
  -112.6511 -70.5343 -70.5214 -70.5214 -70.5006 -70.5006 -70.4948 -70.4303
   -70.4035 -70.4035 -70.1117 -70.1117 -70.1109 -70.1109 -70.0899 -70.0893
   -70.0731 -70.0725 -70.0339 -70.0339 -70.0333 -70.0333 -69.9962 -69.9949
   -69.9799 -69.9799 -69.9792 -69.9792  -9.4754  -7.5054  -5.9626  -4.9342
    -4.6956  -4.5146  -4.5146  -4.4134  -4.1993  -4.1993  -4.0017  -4.0017
    -3.9945  -3.8996  -3.8996  -3.6248  -3.4363  -3.4363  -3.2854  -3.2854
    -3.2082  -3.1439  -3.1268  -2.9795  -2.9795  -2.9177  -2.8819  -2.8819
    -2.8186  -2.8186  -2.5274  -2.5274  -2.4663  -2.4663  -2.4127  -2.3610
    -2.3610  -2.2311  -2.2311  -2.1975  -2.1913  -2.1913  -2.0672  -2.0619
    -1.9598  -1.9598  -1.7462  -1.7363  -1.4022  -1.4022  -1.3469  -0.6552
    -0.4414  -0.4414  -0.1874  -0.0031  -0.0031   0.3387   2.3539   2.5067
     2.5067   3.2282   3.4842   4.0815   4.1351   4.1502   4.1502   4.6260
     4.6865   4.6865   5.4960   5.6505   6.9761   7.1078   7.1078   7.1124
     7.1823   7.1823   7.5878   7.6780   9.7691   9.7691   9.7937   9.8014

[...]

          k =-0.0954-0.0551 0.0000 ( 14638 PWs)   bands (ev):

[...]

     the Fermi energy is    -0.0002 ev

!    total energy              =   -3665.13380503 Ry
     Harris-Foulkes estimate   =   -3665.13378313 Ry
     estimated scf accuracy    <       0.00000087 Ry

     The total energy is the sum of the following terms:

     one-electron contribution =  -23340.02190099 Ry
     hartree contribution      =   11677.90541933 Ry
     xc contribution           =    -373.28490291 Ry
     ewald contribution        =    8370.29561241 Ry
     electric field correction =       0.00000000 Ry
     smearing contrib. (-TS)   =      -0.02803288 Ry

     convergence has been achieved in  15 iterations

 BEEF-vdW xc energy contributions
           1 :   -330.085403959243
           2 :    298.899622684467
           3 :   -246.212299258846
           4 :    186.724239749503
           5 :   -133.687814830616
           6 :    94.1053591093071
           7 :   -67.7367062845849
           8 :    49.7371739361227
           9 :   -34.8315323610829
          10 :    20.4407322263281
          11 :   -7.26817430356016
          12 :   -2.37903169886590
          13 :    6.95927870333736
          14 :   -7.08540772542756
          15 :    5.19434764110184
[...]
     /afs/slac.stanford.edu/u/if/mamunm/psp/gbrv1.5pbe/Cu.UPF
     MD5 check sum: 6e991ff952a84172a2a52a1c1e996048
     Pseudo is Ultrasoft + core correction, Zval = 19.0
     Generated by new atomic code, or converted to UPF format
     Using radial grid of  867 points,  6 beta functions with:
                l(1) =   0
                l(2) =   0
                l(3) =   1
                l(4) =   1
                l(5) =   2
                l(6) =   2
     Q(r) pseudized with  8 coefficients,  rinner =    1.150   1.150   1.150
                                                       1.150   1.150

     PseudoPot. # 2 for Al read from file:
     /afs/slac.stanford.edu/u/if/mamunm/psp/gbrv1.5pbe/Al.UPF
     MD5 check sum: 0a6289f5291fc8f409219462bc851e1f
     Pseudo is Ultrasoft + core correction, Zval =  3.0
     Generated by new atomic code, or converted to UPF format
     Using radial grid of  893 points,  3 beta functions with:
                l(1) =   0
                l(2) =   1
                l(3) =   2
     Q(r) pseudized with  8 coefficients,  rinner =    0.900   0.900   0.900
                                                       0.900   0.900

     vdW kernel table read from file vdW_kernel_table
     MD5 check sum: 095c7af220d748ca6e76c0b4c6cfb241

     atomic species   valence    mass     pseudopotential
        Cu1           19.00    63.54600     Cu( 1.00)
        Al1            3.00    26.98154     Al( 1.00)

     No symmetry found

   Cartesian axes

     site n.     atom                  positions (alat units)
         1           Cu1 tau(   1) = (   0.0000000   0.0000000  10.0000000  )
         2           Cu1 tau(   2) = (  -1.3102361   2.2693955  10.0000000  )
         3           Cu1 tau(   3) = (   1.3102361   2.2693955  10.0000000  )
         4           Al1 tau(   4) = (   2.6204722   0.0000000  10.0000000  )
         5           Cu1 tau(   5) = (   2.6204722   1.5129303  12.1396066  )
         6           Cu1 tau(   6) = (   1.3102361   3.7823259  12.1396066  )
         7           Cu1 tau(   7) = (  -1.3102361   3.7823259  12.1396066  )
         8           Al1 tau(   8) = (   0.0000000   1.5129303  12.1396066  )
         9           Cu1 tau(   9) = (  -0.0000001   3.0231427  14.2631981  )
        10           Cu1 tau(  10) = (   1.3078497   0.7578342  14.2632024  )
        11           Cu1 tau(  11) = (   3.9330977   0.7578392  14.2631757  )
        12           Al1 tau(  12) = (   2.6204729   3.0258589  14.3501855  )

     number of k points=    20  Fermi-Dirac smearing, width (Ry)=  0.0110
                       cart. coord. in units 2pi/alat
        k(    1) = (   0.0000000   0.0000000   0.0000000), wk =   0.0555556
        k(    2) = (   0.0000000   0.0367205   0.0000000), wk =   0.1111111
        k(    3) = (   0.0000000   0.0734410   0.0000000), wk =   0.1111111
        k(    4) = (   0.0000000  -0.1101615   0.0000000), wk =   0.0555556
        k(    5) = (   0.0318009   0.0183602   0.0000000), wk =   0.1111111
        k(    6) = (   0.0318009   0.0550807   0.0000000), wk =   0.1111111
        k(    7) = (   0.0318009   0.0918012   0.0000000), wk =   0.1111111
        k(    8) = (   0.0318009  -0.0918012   0.0000000), wk =   0.1111111
        k(    9) = (   0.0318009  -0.0550807   0.0000000), wk =   0.1111111
        k(   10) = (   0.0318009  -0.0183602   0.0000000), wk =   0.1111111
        k(   11) = (   0.0636018   0.0367205   0.0000000), wk =   0.1111111
        k(   12) = (   0.0636018   0.0734410   0.0000000), wk =   0.1111111
        k(   13) = (   0.0636018   0.1101615   0.0000000), wk =   0.1111111
        k(   14) = (   0.0636018  -0.0734410   0.0000000), wk =   0.1111111
        k(   15) = (   0.0636018  -0.0367205   0.0000000), wk =   0.1111111
        k(   16) = (   0.0636018   0.0000000   0.0000000), wk =   0.1111111
        k(   17) = (  -0.0954027  -0.0550807   0.0000000), wk =   0.0555556
        k(   18) = (  -0.0954027  -0.0183602   0.0000000), wk =   0.1111111
        k(   19) = (  -0.0954027   0.0183602   0.0000000), wk =   0.1111111
        k(   20) = (  -0.0954027  -0.1652422   0.0000000), wk =   0.0555556

     Largest allocated arrays     est. size (Mb)     dimensions
     Largest temporary arrays     est. size (Mb)     dimensions

     Initial potential from superposition of free atoms
     Check: negative starting charge=   -0.000136

     starting charge  170.99259, renormalised to  180.00000

[...]

     *
     * You are using vdW-DF for exchange-correlation in this calculation.
     * Please cite the following three references that made this development
     * possible:
     *
     *   M. Dion, H. Rydberg, E. Schroder, D. C. Langreth, and
     *   B. I. Lundqvist, Phys. Rev. Lett. 92, 246401 (2004).
     *
     *   T. Thonhauser, V. R. Cooper, S. Li, A. Puzder, P. Hyldgaard, and
     *   D. C. Langreth, Phys. Rev. B 76, 125112 (2007).
     *
     *   G. Roman-Perez and J. M. Soler, Phys. Rev. Lett. 103, 096102 (2009).
     *
     *
     * If you are using vdW-DF2, please also cite:
     *
     *   K. Lee, E. D. Murray, L. Kong, B. I. Lundqvist, and
     *   D. C. Langreth, Phys. Rev. B 82, 081101(R) (2010).
     *
     *
     * If you are calculating the stress with vdW-DF, please also cite:
     *
     *   R. Sabatini, E. Kucukbenli, B. Kolb, T. Thonhauser, and
     *   S. de Gironcoli, J. Phys.: Condens. Matter 24, 424209 (2012).
     *

     Carrying out vdW-DF run using the following parameters:

     Nqs =      20    Nr_points =    1024   r_max =   100.000
     q_mesh =
               0.00001000     0.04494208     0.09755937     0.15916263
               0.23128650     0.31572767     0.41458969     0.53033537
               0.66584808     0.82450364     1.01025438     1.22772762
               1.48234092     1.78043706     2.12944203     2.53805004
               3.01644009     3.57652955     4.23227104     5.00000000

     Gradients computed in reciprocal space

[...]

     Starting wfc are  129 randomized atomic wfcs

     Self-consistent Calculation

[...]

     total energy              =   -3665.13451370 Ry
     Harris-Foulkes estimate   =   -3665.13451019 Ry
     estimated scf accuracy    <       0.00000295 Ry

     iteration # 16     ecut=    36.75 Ry     beta=0.10
     Davidson diagonalization with overlap
     ethr =  1.64E-09,  avg # of iterations =  2.0

[...]

     negative rho (up, down):  9.926E-04 0.000E+00

     Adding external electric field

     Computed dipole along edir(3) :
        Dipole                0.0083 Ry au,          0.0210 Debye
        Dipole field          0.0000 Ry au

        Potential amp.       -0.0024 Ry
        Total length         44.7340 bohr

     End of self-consistent calculation

[...]

          k = 0.0636 0.0000 0.0000 ( 14667 PWs)   bands (ev):

[...]

          k =-0.0954-0.1652 0.0000 ( 14638 PWs)   bands (ev):

  -113.0629-113.0613-113.0597-112.6653-112.6637-112.6622-112.6506-112.6491
  -112.6475 -70.4970 -70.4845 -70.4837 -70.4812 -70.4810 -70.4693 -70.3986
   -70.3905 -70.3805 -70.1194 -70.1118 -70.1064 -70.1062 -70.0987 -70.0931
   -70.0687 -70.0574 -70.0541 -70.0460 -70.0425 -70.0305 -70.0028 -69.9976
   -69.9905 -69.9873 -69.9825 -69.9759  -7.8540  -7.5629  -6.0668  -5.8039
    -4.9744  -4.8455  -4.6846  -4.2537  -4.0566  -4.0095  -3.9540  -3.8379
    -3.8018  -3.6425  -3.6158  -3.6118  -3.5915  -3.5107  -3.4194  -3.3458
    -3.3134  -3.1794  -3.1215  -3.0781  -3.0469  -2.9641  -2.9203  -2.9020
    -2.8925  -2.8572  -2.8490  -2.8132  -2.7819  -2.7525  -2.7193  -2.7038
    -2.6486  -2.5720  -2.5665  -2.5451  -2.5075  -2.3998  -2.3621  -2.3042
    -2.2379  -2.2271  -2.1804  -2.0103  -1.9475  -1.8568  -0.9319  -0.9290
    -0.9183  -0.3328  -0.1659   1.1863   1.6073   1.8327   2.1707   4.2868
     4.4503   4.6284   4.7954   4.9488   5.0230   5.2940   5.3592   5.7630
     5.8005   6.1044   6.3427   6.3637   6.4411   6.7176   6.8778   7.1689
     7.2951   7.3048   7.4382   7.9421   8.0645   8.6083   8.6970   8.8400

     the Fermi energy is     0.0084 ev

!    total energy              =   -3665.13453052 Ry
     Harris-Foulkes estimate   =   -3665.13451415 Ry
     estimated scf accuracy    <       0.00000099 Ry

     The total energy is the sum of the following terms:

     one-electron contribution =  -23373.63355614 Ry
     hartree contribution      =   11694.80502659 Ry
     xc contribution           =    -373.27818548 Ry
     ewald contribution        =    8387.00030473 Ry
     electric field correction =       0.00000022 Ry
     smearing contrib. (-TS)   =      -0.02812044 Ry

     convergence has been achieved in  16 iterations

 BEEF-vdW xc energy contributions
           1 :   -330.079312487689
           2 :    298.891996650064
           3 :   -246.201483707779
           4 :    186.709218428921
           5 :   -133.668945578747
           6 :    94.0842164642965
           7 :   -67.7149861512991
           8 :    49.7156618181087
           9 :   -34.8099596347227
          10 :    20.4183093209136
          11 :   -7.24450879221985
          12 :   -2.40307895890339
          13 :    6.98176367971786
          14 :   -7.10451817271144
          15 :    5.21007258184380
          16 :   -4.00235846961920
          17 :    4.85615468232243
          18 :   -7.23658059261180
          19 :    9.39093078262493
          20 :   -9.73266476836284
          21 :    7.95544752623493
          22 :   -5.17901591058546
          23 :    3.11021673396618
          24 :   -2.85493063452020
          25 :    4.20650818543089
          26 :   -5.86888650957451
          27 :    6.41241866738073
          28 :   -5.27242923793818
          29 :    3.10041702452298
          30 :   -1.25398133059565
          31 :   -26.9911017488328
          32 :   -18.5348098671488

     Forces acting on atoms (Ry/au):

     negative rho (up, down):  9.926E-04 0.000E+00
     atom    1 type  1   force =     0.00000086    0.00043072    0.00232633
     atom    2 type  1   force =     0.00037382   -0.00021581    0.00232812
     atom    3 type  1   force =    -0.00037099   -0.00021418    0.00232616
     atom    4 type  2   force =    -0.00000036   -0.00000007   -0.01118044
     atom    5 type  1   force =    -0.00000137    0.00199688    0.00080073
     atom    6 type  1   force =     0.00173180   -0.00099755    0.00080120
     atom    7 type  1   force =    -0.00173137   -0.00099739    0.00080308
     atom    8 type  2   force =     0.00000064    0.00000118   -0.00253692
     atom    9 type  1   force =    -0.00000090    0.00069608    0.00116607
     atom   10 type  1   force =     0.00060524   -0.00034990    0.00116645
     atom   11 type  1   force =    -0.00060679   -0.00034926    0.00117085
     atom   12 type  2   force =    -0.00000058   -0.00000070    0.00082837

     Total force =     0.012976     Total SCF correction =     0.006487
     SCF correction compared to forces is large: reduce conv_thr to get better values

     entering subroutine stress ...

     negative rho (up, down):  9.926E-04 0.000E+00
          total   stress  (Ry/bohr**3)                   (kbar)     P=  -16.19
  -0.00015002   0.00000000  -0.00000000        -22.07      0.00     -0.00
   0.00000000  -0.00015002  -0.00000000          0.00    -22.07     -0.00
  -0.00000000  -0.00000000  -0.00003015         -0.00     -0.00     -4.43

 !ASE

     Writing output data file calc.save

     General routines

     Parallel routines

   This run was terminated on:   4:44:49  30Dec2018

   JOB DONE.
Job  /afs/slac/g/suncat/bin/suncat-tsmpirun -x LD_LIBRARY_PATH -wdir /scratch/qe648414_QWZ5v pw.x -in pw.inp

TID   HOST_NAME   COMMAND_LINE            STATUS            TERMINATION_TIME
00000 suncat0056 pw.x -in pw.inp   Done                     12/30/2018 04:44:49
00001 suncat0056 pw.x -in pw.inp   Done                     12/30/2018 04:44:49
00002 suncat0056 pw.x -in pw.inp   Done                     12/30/2018 04:44:49
00003 suncat0056 pw.x -in pw.inp   Done                     12/30/2018 04:44:49
00004 suncat0056 pw.x -in pw.inp   Done                     12/30/2018 04:44:49
00005 suncat0056 pw.x -in pw.inp   Done                     12/30/2018 04:44:49
00006 suncat0056 pw.x -in pw.inp   Done                     12/30/2018 04:44:49
00007 suncat0056 pw.x -in pw.inp   Done                     12/30/2018 04:44:49
00008 suncat0052 pw.x -in pw.inp   Done                     12/30/2018 04:44:49
00009 suncat0052 pw.x -in pw.inp   Done                     12/30/2018 04:44:49
00010 suncat0052 pw.x -in pw.inp   Done                     12/30/2018 04:44:49
00011 suncat0052 pw.x -in pw.inp   Done                     12/30/2018 04:44:49
00012 suncat0052 pw.x -in pw.inp   Done                     12/30/2018 04:44:49
00013 suncat0052 pw.x -in pw.inp   Done                     12/30/2018 04:44:49
00014 suncat0052 pw.x -in pw.inp   Done                     12/30/2018 04:44:49
00015 suncat0052 pw.x -in pw.inp   Done                     12/30/2018 04:44:49
00016 suncat0048 pw.x -in pw.inp   Done                     12/30/2018 04:44:49
00017 suncat0048 pw.x -in pw.inp   Done                     12/30/2018 04:44:49
00018 suncat0048 pw.x -in pw.inp   Done                     12/30/2018 04:44:49
00019 suncat0048 pw.x -in pw.inp   Done                     12/30/2018 04:44:49
00020 suncat0048 pw.x -in pw.inp   Done                     12/30/2018 04:44:49
00021 suncat0048 pw.x -in pw.inp   Done                     12/30/2018 04:44:49
00022 suncat0048 pw.x -in pw.inp   Done                     12/30/2018 04:44:49
00023 suncat0048 pw.x -in pw.inp   Done                     12/30/2018 04:44:49
00024 suncat0047 pw.x -in pw.inp   Done                     12/30/2018 04:44:49
00025 suncat0047 pw.x -in pw.inp   Done                     12/30/2018 04:44:49
00026 suncat0047 pw.x -in pw.inp   Done                     12/30/2018 04:44:49
00027 suncat0047 pw.x -in pw.inp   Done                     12/30/2018 04:44:49
00028 suncat0047 pw.x -in pw.inp   Done                     12/30/2018 04:44:49
00029 suncat0047 pw.x -in pw.inp   Done                     12/30/2018 04:44:49
00030 suncat0047 pw.x -in pw.inp   Done                     12/30/2018 04:44:49
00031 suncat0047 pw.x -in pw.inp   Done                     12/30/2018 04:44:49
00032 suncat0041 pw.x -in pw.inp   Done                     12/30/2018 04:44:49
00033 suncat0041 pw.x -in pw.inp   Done                     12/30/2018 04:44:49
00034 suncat0041 pw.x -in pw.inp   Done                     12/30/2018 04:44:49
00035 suncat0041 pw.x -in pw.inp   Done                     12/30/2018 04:44:49
00036 suncat0041 pw.x -in pw.inp   Done                     12/30/2018 04:44:49
00037 suncat0041 pw.x -in pw.inp   Done                     12/30/2018 04:44:49
00038 suncat0041 pw.x -in pw.inp   Done                     12/30/2018 04:44:49
00039 suncat0041 pw.x -in pw.inp   Done                     12/30/2018 04:44:49
00040 suncat0039 pw.x -in pw.inp   Done                     12/30/2018 04:44:49
00041 suncat0039 pw.x -in pw.inp   Done                     12/30/2018 04:44:49
00042 suncat0039 pw.x -in pw.inp   Done                     12/30/2018 04:44:49
00043 suncat0039 pw.x -in pw.inp   Done                     12/30/2018 04:44:49
00044 suncat0039 pw.x -in pw.inp   Done                     12/30/2018 04:44:49
00045 suncat0039 pw.x -in pw.inp   Done                     12/30/2018 04:44:49
00046 suncat0039 pw.x -in pw.inp   Done                     12/30/2018 04:44:49
00047 suncat0039 pw.x -in pw.inp   Done                     12/30/2018 04:44:49
00048 suncat0207 pw.x -in pw.inp   Done                     12/30/2018 04:44:49
00049 suncat0207 pw.x -in pw.inp   Done                     12/30/2018 04:44:49
00050 suncat0207 pw.x -in pw.inp   Done                     12/30/2018 04:44:49
00051 suncat0207 pw.x -in pw.inp   Done                     12/30/2018 04:44:49
00052 suncat0207 pw.x -in pw.inp   Done                     12/30/2018 04:44:49
00053 suncat0207 pw.x -in pw.inp   Done                     12/30/2018 04:44:49
00054 suncat0207 pw.x -in pw.inp   Done                     12/30/2018 04:44:49
00055 suncat0207 pw.x -in pw.inp   Done                     12/30/2018 04:44:49
00056 suncat0206 pw.x -in pw.inp   Done                     12/30/2018 04:44:49
00057 suncat0206 pw.x -in pw.inp   Done                     12/30/2018 04:44:49
00058 suncat0206 pw.x -in pw.inp   Done                     12/30/2018 04:44:49
00059 suncat0206 pw.x -in pw.inp   Done                     12/30/2018 04:44:49
00060 suncat0206 pw.x -in pw.inp   Done                     12/30/2018 04:44:49
00061 suncat0206 pw.x -in pw.inp   Done                     12/30/2018 04:44:49
00062 suncat0206 pw.x -in pw.inp   Done                     12/30/2018 04:44:49
00063 suncat0206 pw.x -in pw.inp   Done                     12/30/2018 04:44:49