     Program PWSCF v.5.1rc2 (svn rev. 11289) starts on  1Jan2019 at 20:34:13

     Current dimensions of program PWSCF are:
     Max number of different atomic species (ntypx) = 10
     Max number of k-points (npk) =  40000
     Max angular momentum in pseudopotentials (lmaxx) =  3
     Presently stress not available with electric field

     IMPORTANT: XC functional enforced from input :
     Exchange-correlation      = BEEF-VDW ( 1  4 27 13 2)
     Any further DFT definition will be discarded
     Please, verify this is what you really want

     Subspace diagonalization in iterative solution of the eigenvalue problem:
     a serial algorithm will be used

     bravais-lattice index     =            0
     lattice parameter (alat)  =       1.8897  a.u.
     unit-cell volume          =    4336.1616 (a.u.)^3
     number of atoms/cell      =           12
     number of atomic types    =            2
     number of electrons       =       180.00
     number of Kohn-Sham states=          120
     kinetic-energy cutoff     =      36.7493  Ry
     charge density cutoff     =     367.4932  Ry
     convergence threshold     =      1.0E-06
     mixing beta               =       0.1000
     number of iterations used =           10  plain     mixing
     Exchange-correlation      = BEEF-VDW ( 1  4 27 13 2)
     nstep                     =           50

     celldm(1)=   1.889726  celldm(2)=   0.000000  celldm(3)=   0.000000
     celldm(4)=   0.000000  celldm(5)=   0.000000  celldm(6)=   0.000000

     crystal axes: (cart. coord. in units of alat)
               a(1) = (   5.503778   0.000000   0.000000 )
               a(2) = (  -2.751889   4.766411   0.000000 )
               a(3) = (   0.000000   0.000000  24.493816 )

     reciprocal axes: (cart. coord. in units 2 pi/alat)
               b(1) = (  0.181693  0.104901  0.000000 )
               b(2) = (  0.000000  0.209801  0.000000 )
               b(3) = (  0.000000  0.000000  0.040827 )

     PseudoPot. # 1 for Tc read from file:
     /afs/slac.stanford.edu/u/if/mamunm/psp/gbrv1.5pbe/Tc.UPF
     MD5 check sum: 9eb49e5b028550b2339a02317eb7b844
     Pseudo is Ultrasoft + core correction, Zval = 15.0
     Generated by new atomic code, or converted to UPF format
     Using radial grid of  965 points,  6 beta functions with:
                l(1) =   0
                l(2) =   0
                l(3) =   1
                l(4) =   1
                l(5) =   2
                l(6) =   2
     Q(r) pseudized with  8 coefficients,  rinner =    1.300   1.300   1.300
                                                       1.300   1.300

     PseudoPot. # 2 for Re read from file:
     /afs/slac.stanford.edu/u/if/mamunm/psp/gbrv1.5pbe/Re.UPF
     MD5 check sum: 85f993410f3e006da9d71c142b4ad953
     Pseudo is Ultrasoft + core correction, Zval = 15.0
     Generated by new atomic code, or converted to UPF format
     Using radial grid of  981 points,  8 beta functions with:
                l(1) =   0
                l(2) =   0
                l(3) =   1
                l(4) =   1
                l(5) =   2
                l(6) =   2
                l(7) =   3
                l(8) =   3
     Q(r) pseudized with  8 coefficients,  rinner =    1.150   1.150   1.150
                                                       1.150   1.150   1.150
                                                       1.150

     vdW kernel table read from file vdW_kernel_table
     MD5 check sum: 095c7af220d748ca6e76c0b4c6cfb241

     atomic species   valence    mass     pseudopotential
        Tc1           15.00    97.90721     Tc( 1.00)
        Re1           15.00   186.20700     Re( 1.00)

     No symmetry found

   Cartesian axes

     site n.     atom                  positions (alat units)
         1           Tc1 tau(   1) = (   0.0000000   0.0000000  10.0000000  )
         2           Tc1 tau(   2) = (  -1.3759444   2.3832057  10.0000000  )
         3           Tc1 tau(   3) = (   1.3759444   2.3832057  10.0000000  )
         4           Re1 tau(   4) = (   2.7518889   0.0000000  10.0000000  )
         5           Tc1 tau(   5) = (   2.7518889   1.5888038  12.2469079  )
         6           Tc1 tau(   6) = (   1.3759444   3.9720095  12.2469079  )
         7           Tc1 tau(   7) = (  -1.3759444   3.9720095  12.2469079  )
         8           Re1 tau(   8) = (   0.0000000   1.5888038  12.2469079  )
         9           Tc1 tau(   9) = (  -0.0000000   3.1776076  14.4938157  )
        10           Tc1 tau(  10) = (   1.3759444   0.7944019  14.4938157  )
        11           Tc1 tau(  11) = (   4.1278333   0.7944019  14.4938157  )
        12           Re1 tau(  12) = (   2.7518889   3.1776076  14.4938157  )

     number of k points=    20  Fermi-Dirac smearing, width (Ry)=  0.0110
                       cart. coord. in units 2pi/alat
        k(    1) = (   0.0000000   0.0000000   0.0000000), wk =   0.0555556
        k(    2) = (   0.0000000   0.0349669   0.0000000), wk =   0.1111111
        k(    3) = (   0.0000000   0.0699338   0.0000000), wk =   0.1111111
        k(    4) = (   0.0000000  -0.1049007   0.0000000), wk =   0.0555556
        k(    5) = (   0.0302822   0.0174835   0.0000000), wk =   0.1111111
        k(    6) = (   0.0302822   0.0524504   0.0000000), wk =   0.1111111
        k(    7) = (   0.0302822   0.0874173   0.0000000), wk =   0.1111111
        k(    8) = (   0.0302822  -0.0874173   0.0000000), wk =   0.1111111
        k(    9) = (   0.0302822  -0.0524504   0.0000000), wk =   0.1111111
        k(   10) = (   0.0302822  -0.0174835   0.0000000), wk =   0.1111111
        k(   11) = (   0.0605645   0.0349669   0.0000000), wk =   0.1111111
        k(   12) = (   0.0605645   0.0699338   0.0000000), wk =   0.1111111
        k(   13) = (   0.0605645   0.1049007   0.0000000), wk =   0.1111111
        k(   14) = (   0.0605645  -0.0699338   0.0000000), wk =   0.1111111
        k(   15) = (   0.0605645  -0.0349669   0.0000000), wk =   0.1111111
        k(   16) = (   0.0605645   0.0000000   0.0000000), wk =   0.1111111
        k(   17) = (  -0.0908467  -0.0524504   0.0000000), wk =   0.0555556
        k(   18) = (  -0.0908467  -0.0174835   0.0000000), wk =   0.1111111
        k(   19) = (  -0.0908467   0.0174835   0.0000000), wk =   0.1111111
        k(   20) = (  -0.0908467  -0.1573511   0.0000000), wk =   0.0555556

     Largest allocated arrays     est. size (Mb)     dimensions
     Largest temporary arrays     est. size (Mb)     dimensions

     Check: negative/imaginary core charge=   -0.000017    0.000000

     Initial potential from superposition of free atoms
     Check: negative starting charge=   -1.517535

     starting charge  169.49962, renormalised to  180.00000

     negative rho (up, down):  1.612E+00 0.000E+00

     *
     * You are using vdW-DF for exchange-correlation in this calculation.
     * Please cite the following three references that made this development
     * possible:
     *
     *   M. Dion, H. Rydberg, E. Schroder, D. C. Langreth, and
     *   B. I. Lundqvist, Phys. Rev. Lett. 92, 246401 (2004).
     *
     *   T. Thonhauser, V. R. Cooper, S. Li, A. Puzder, P. Hyldgaard, and
     *   D. C. Langreth, Phys. Rev. B 76, 125112 (2007).
     *
     *   G. Roman-Perez and J. M. Soler, Phys. Rev. Lett. 103, 096102 (2009).
     *
     *
     * If you are using vdW-DF2, please also cite:
     *
     *   K. Lee, E. D. Murray, L. Kong, B. I. Lundqvist, and
     *   D. C. Langreth, Phys. Rev. B 82, 081101(R) (2010).
     *
     *
     * If you are calculating the stress with vdW-DF, please also cite:
     *
     *   R. Sabatini, E. Kucukbenli, B. Kolb, T. Thonhauser, and
     *   S. de Gironcoli, J. Phys.: Condens. Matter 24, 424209 (2012).
     *

     Carrying out vdW-DF run using the following parameters:

     Nqs =      20    Nr_points =    1024   r_max =   100.000
     q_mesh =
               0.00001000     0.04494208     0.09755937     0.15916263
               0.23128650     0.31572767     0.41458969     0.53033537
               0.66584808     0.82450364     1.01025438     1.22772762
               1.48234092     1.78043706     2.12944203     2.53805004
               3.01644009     3.57652955     4.23227104     5.00000000

     Gradients computed in reciprocal space

     Adding external electric field

     Computed dipole along edir(3) :
        Dipole                0.0000 Ry au,          0.0000 Debye
        Dipole field          0.0000 Ry au

        Potential amp.       -0.0000 Ry
        Total length         45.1294 bohr

     Starting wfc are  156 randomized atomic wfcs

     Self-consistent Calculation

     iteration #  1     ecut=    36.75 Ry     beta=0.10
     Davidson diagonalization with overlap
     ethr =  1.00E-02,  avg # of iterations =  7.8

[...]

     total energy              =   -2155.69762294 Ry
     Harris-Foulkes estimate   =   -2157.35811168 Ry
     estimated scf accuracy    <      10.92880320 Ry

[...]

     End of self-consistent calculation

          k = 0.0000 0.0000 0.0000 ( 16235 PWs)   bands (ev):

   -78.1841 -77.9831 -77.9829 -64.7774 -64.6741 -64.6741 -64.5487 -64.5393
   -64.4531 -64.4531 -64.4508 -64.4508 -39.9216 -39.9216 -39.8828 -39.7629
   -39.7363 -39.6586 -39.6586 -39.6508 -39.6508 -37.2030 -36.9795 -36.9275
   -36.9275 -36.9122 -36.8212 -36.8127 -36.8126 -36.6025 -36.6007 -36.6007
   -36.5385 -36.5353 -36.5353 -36.5083 -36.5083 -36.3771 -36.3690 -36.3690
   -36.3544 -36.3544 -36.2534 -36.2237 -36.1256 -36.1256 -36.1197 -36.1197
    -4.8006  -3.2501  -3.2205  -2.9281  -2.9281  -2.8202  -2.5441  -2.4378
    -2.4378  -2.2121  -2.2105  -2.2105  -1.8643  -1.8643  -1.8595  -0.6868
    -0.6868  -0.5980   0.1955   0.1955   0.2097   0.4583   0.4683   0.7640
     0.7640   1.1288   1.1288   1.1604   1.1939   1.1939   1.3904   1.3904
     1.5631   1.6282   1.6282   2.0769   2.7923   2.7923   2.8006   2.9191
     2.9191   2.9504   3.2557   3.2557   3.2934   3.8231   3.8231   4.2231
     4.2232   4.4063   4.4588   4.6812   4.6812   4.8087   4.8087   4.8862
     4.8862   4.9162   5.1730   5.4812   5.5629   5.5816   5.5816   5.9022
     5.9022   6.0132   6.0132   6.4075   6.6793   7.0021   7.0021   7.1254

[...]

          k =-0.0908-0.0525 0.0000 ( 16280 PWs)   bands (ev):

[...]

     the Fermi energy is     2.4638 ev

!    total energy              =   -2153.92772405 Ry
     Harris-Foulkes estimate   =   -2153.92771423 Ry
     estimated scf accuracy    <       0.00000088 Ry

     The total energy is the sum of the following terms:

     one-electron contribution =  -18372.43762969 Ry
     hartree contribution      =    9180.62702848 Ry
     xc contribution           =    -459.79829002 Ry
     ewald contribution        =    7497.77025138 Ry
     electric field correction =       0.00000003 Ry
     smearing contrib. (-TS)   =      -0.08908423 Ry

     convergence has been achieved in  17 iterations

 BEEF-vdW xc energy contributions
           1 :   -405.057301924197
           2 :    373.928325417466
           3 :   -318.359158223280
           4 :    249.293231611768
           5 :   -178.591396095389
           6 :    115.782069338855
           7 :   -66.1432251161472
           8 :    30.4594096411291
[...]
     Using radial grid of  965 points,  6 beta functions with:
                l(1) =   0
                l(2) =   0
                l(3) =   1
                l(4) =   1
                l(5) =   2
                l(6) =   2
     Q(r) pseudized with  8 coefficients,  rinner =    1.300   1.300   1.300
                                                       1.300   1.300

     PseudoPot. # 2 for Re read from file:
     /afs/slac.stanford.edu/u/if/mamunm/psp/gbrv1.5pbe/Re.UPF
     MD5 check sum: 85f993410f3e006da9d71c142b4ad953
     Pseudo is Ultrasoft + core correction, Zval = 15.0
     Generated by new atomic code, or converted to UPF format
     Using radial grid of  981 points,  8 beta functions with:
                l(1) =   0
                l(2) =   0
                l(3) =   1
                l(4) =   1
                l(5) =   2
                l(6) =   2
                l(7) =   3
                l(8) =   3
     Q(r) pseudized with  8 coefficients,  rinner =    1.150   1.150   1.150
                                                       1.150   1.150   1.150
                                                       1.150

     vdW kernel table read from file vdW_kernel_table
     MD5 check sum: 095c7af220d748ca6e76c0b4c6cfb241

     atomic species   valence    mass     pseudopotential
        Tc1           15.00    97.90721     Tc( 1.00)
        Re1           15.00   186.20700     Re( 1.00)

     No symmetry found

   Cartesian axes

     site n.     atom                  positions (alat units)
         1           Tc1 tau(   1) = (   0.0000000   0.0000000  10.0000000  )
         2           Tc1 tau(   2) = (  -1.3759444   2.3832057  10.0000000  )
         3           Tc1 tau(   3) = (   1.3759444   2.3832057  10.0000000  )
         4           Re1 tau(   4) = (   2.7518889   0.0000000  10.0000000  )
         5           Tc1 tau(   5) = (   2.7518889   1.5888038  12.2469079  )
         6           Tc1 tau(   6) = (   1.3759444   3.9720095  12.2469079  )
         7           Tc1 tau(   7) = (  -1.3759444   3.9720095  12.2469079  )
         8           Re1 tau(   8) = (   0.0000000   1.5888038  12.2469079  )
         9           Tc1 tau(   9) = (   0.0000065   3.1730928  14.3880169  )
        10           Tc1 tau(  10) = (   1.3720293   0.7966616  14.3880128  )
        11           Tc1 tau(  11) = (   4.1317482   0.7966658  14.3880131  )
        12           Re1 tau(  12) = (   2.7518894   3.1776099  14.3457818  )

     number of k points=    20  Fermi-Dirac smearing, width (Ry)=  0.0110
                       cart. coord. in units 2pi/alat
        k(    1) = (   0.0000000   0.0000000   0.0000000), wk =   0.0555556
        k(    2) = (   0.0000000   0.0349669   0.0000000), wk =   0.1111111
        k(    3) = (   0.0000000   0.0699338   0.0000000), wk =   0.1111111
        k(    4) = (   0.0000000  -0.1049007   0.0000000), wk =   0.0555556
        k(    5) = (   0.0302822   0.0174835   0.0000000), wk =   0.1111111
        k(    6) = (   0.0302822   0.0524504   0.0000000), wk =   0.1111111
        k(    7) = (   0.0302822   0.0874173   0.0000000), wk =   0.1111111
        k(    8) = (   0.0302822  -0.0874173   0.0000000), wk =   0.1111111
        k(    9) = (   0.0302822  -0.0524504   0.0000000), wk =   0.1111111
        k(   10) = (   0.0302822  -0.0174835   0.0000000), wk =   0.1111111
        k(   11) = (   0.0605645   0.0349669   0.0000000), wk =   0.1111111
        k(   12) = (   0.0605645   0.0699338   0.0000000), wk =   0.1111111
        k(   13) = (   0.0605645   0.1049007   0.0000000), wk =   0.1111111
        k(   14) = (   0.0605645  -0.0699338   0.0000000), wk =   0.1111111
        k(   15) = (   0.0605645  -0.0349669   0.0000000), wk =   0.1111111
        k(   16) = (   0.0605645   0.0000000   0.0000000), wk =   0.1111111
        k(   17) = (  -0.0908467  -0.0524504   0.0000000), wk =   0.0555556
        k(   18) = (  -0.0908467  -0.0174835   0.0000000), wk =   0.1111111
        k(   19) = (  -0.0908467   0.0174835   0.0000000), wk =   0.1111111
        k(   20) = (  -0.0908467  -0.1573511   0.0000000), wk =   0.0555556

     Largest allocated arrays     est. size (Mb)     dimensions
     Largest temporary arrays     est. size (Mb)     dimensions

     Check: negative/imaginary core charge=   -0.000017    0.000000

     Initial potential from superposition of free atoms
     Check: negative starting charge=   -1.511268

     starting charge  169.49962, renormalised to  180.00000

[...]

     *
     * You are using vdW-DF for exchange-correlation in this calculation.
     * Please cite the following three references that made this development
     * possible:
     *
     *   M. Dion, H. Rydberg, E. Schroder, D. C. Langreth, and
     *   B. I. Lundqvist, Phys. Rev. Lett. 92, 246401 (2004).
     *
     *   T. Thonhauser, V. R. Cooper, S. Li, A. Puzder, P. Hyldgaard, and
     *   D. C. Langreth, Phys. Rev. B 76, 125112 (2007).
     *
     *   G. Roman-Perez and J. M. Soler, Phys. Rev. Lett. 103, 096102 (2009).
     *
     *
     * If you are using vdW-DF2, please also cite:
     *
     *   K. Lee, E. D. Murray, L. Kong, B. I. Lundqvist, and
     *   D. C. Langreth, Phys. Rev. B 82, 081101(R) (2010).
     *
     *
     * If you are calculating the stress with vdW-DF, please also cite:
     *
     *   R. Sabatini, E. Kucukbenli, B. Kolb, T. Thonhauser, and
     *   S. de Gironcoli, J. Phys.: Condens. Matter 24, 424209 (2012).
     *

     Carrying out vdW-DF run using the following parameters:

     Nqs =      20    Nr_points =    1024   r_max =   100.000
     q_mesh =
               0.00001000     0.04494208     0.09755937     0.15916263
               0.23128650     0.31572767     0.41458969     0.53033537
               0.66584808     0.82450364     1.01025438     1.22772762
               1.48234092     1.78043706     2.12944203     2.53805004
               3.01644009     3.57652955     4.23227104     5.00000000

     Gradients computed in reciprocal space

[...]

     Starting wfc are  156 randomized atomic wfcs

     Self-consistent Calculation

[...]

     total energy              =   -2153.94396717 Ry
     Harris-Foulkes estimate   =   -2153.94396554 Ry
     estimated scf accuracy    <       0.00000252 Ry

     iteration # 17     ecut=    36.75 Ry     beta=0.10
     Davidson diagonalization with overlap
     ethr =  1.40E-09,  avg # of iterations =  2.0

[...]

     negative rho (up, down):  1.593E+00 0.000E+00

     Adding external electric field

     Computed dipole along edir(3) :
        Dipole                0.0434 Ry au,          0.1104 Debye
        Dipole field          0.0001 Ry au

        Potential amp.       -0.0114 Ry
        Total length         45.1294 bohr

     End of self-consistent calculation

[...]

          k = 0.0606 0.0000 0.0000 ( 16338 PWs)   bands (ev):

[...]

          k =-0.0908-0.1574 0.0000 ( 16280 PWs)   bands (ev):

   -78.1591 -77.9977 -77.8964 -64.7327 -64.6985 -64.6619 -64.5100 -64.4798
   -64.4486 -64.4453 -64.4147 -64.3846 -39.9043 -39.8792 -39.8774 -39.7702
   -39.6989 -39.6522 -39.6269 -39.5903 -39.5662 -37.0792 -36.9619 -36.9181
   -36.8429 -36.8129 -36.7617 -36.7339 -36.7243 -36.7080 -36.6362 -36.5109
   -36.5018 -36.4785 -36.4579 -36.4546 -36.4464 -36.4213 -36.4143 -36.4020
   -36.3867 -36.3542 -36.3182 -36.3053 -36.2508 -36.2380 -36.1500 -36.1008
    -3.3518  -3.0137  -2.1695  -2.1240  -2.0376  -1.9148  -1.8701  -1.7052
    -1.6303  -1.4455  -1.2872  -1.2782  -1.0808  -0.9171  -0.8827  -0.8545
    -0.4710  -0.4331  -0.4292  -0.2287  -0.0281  -0.0195   0.4906   0.5372
     0.7491   0.7594   0.8176   0.9057   0.9515   0.9839   1.0393   1.0766
     1.1949   1.2250   1.3068   1.3668   1.3768   1.4229   1.4263   1.4468
     2.2267   2.3300   2.3740   2.4784   2.5915   2.6355   2.8677   3.0641
     3.0699   3.1890   3.3547   3.3862   3.4428   3.4970   3.6188   3.8651
     3.8746   4.1038   4.5137   4.6211   5.1057   5.2061   5.3489   5.6881
     5.8441   5.8803   7.3748   7.5743   7.6032   7.6718   7.8540   7.9586

     the Fermi energy is     2.4883 ev

!    total energy              =   -2153.94397712 Ry
     Harris-Foulkes estimate   =   -2153.94396761 Ry
     estimated scf accuracy    <       0.00000070 Ry

     The total energy is the sum of the following terms:

     one-electron contribution =  -18679.91720258 Ry
     hartree contribution      =    9334.48835866 Ry
     xc contribution           =    -460.09882349 Ry
     ewald contribution        =    7651.66974094 Ry
     electric field correction =       0.00000547 Ry
     smearing contrib. (-TS)   =      -0.08605611 Ry

     convergence has been achieved in  17 iterations

 BEEF-vdW xc energy contributions
           1 :   -405.361978800267
           2 :    374.338070353940
           3 :   -318.916035411355
           4 :    249.939892407765
           5 :   -179.193017334478
           6 :    116.188683769950
           7 :   -66.2672427391470
           8 :    30.3253334545753
           9 :   -6.02188730436944
          10 :   -10.3262494485401
          11 :    21.9334717765832
          12 :   -30.4879712431439
          13 :    36.0312827589919
          14 :   -37.6329904747418
          15 :    34.4002775584323
          16 :   -26.3564155689832
          17 :    14.8026812885876
          18 :   -2.07125107487957
          19 :   -9.19186350107651
          20 :    16.8611287238598
          21 :   -19.9397312959949
          22 :    18.7007842664698
          23 :   -14.3649049327095
          24 :    8.49803441005974
          25 :   -2.42865230455482
          26 :   -3.08557388581028
          27 :    7.84683472643928
          28 :   -11.9484962669786
          29 :    15.4304642167231
          30 :   -18.0599424093022
          31 :   -36.7492614309394
          32 :   -27.0822504869782

     Forces acting on atoms (Ry/au):

     negative rho (up, down):  1.593E+00 0.000E+00
     atom    1 type  1   force =    -0.00000090    0.00246272    0.01483176
     atom    2 type  1   force =     0.00213462   -0.00123234    0.01483278
     atom    3 type  1   force =    -0.00213510   -0.00123067    0.01483266
     atom    4 type  2   force =    -0.00000175    0.00000005    0.03166488
     atom    5 type  1   force =    -0.00000342   -0.00234709   -0.01980160
     atom    6 type  1   force =    -0.00203117    0.00117264   -0.01980476
     atom    7 type  1   force =     0.00203050    0.00117659   -0.01980135
     atom    8 type  2   force =     0.00000928   -0.00000518   -0.01590817
     atom    9 type  1   force =    -0.00000112    0.00044733   -0.00011447
     atom   10 type  1   force =     0.00038666   -0.00022406   -0.00011478
     atom   11 type  1   force =    -0.00038804   -0.00022270   -0.00011329
     atom   12 type  2   force =     0.00000043    0.00000269   -0.00050366

     Total force =     0.055927     Total SCF correction =     0.001572

     entering subroutine stress ...

     negative rho (up, down):  1.593E+00 0.000E+00
          total   stress  (Ry/bohr**3)                   (kbar)     P=  -26.38
  -0.00022229   0.00000000   0.00000000        -32.70      0.00      0.00
   0.00000000  -0.00022229  -0.00000000          0.00    -32.70     -0.00
   0.00000000  -0.00000000  -0.00009342          0.00     -0.00    -13.74

 !ASE

     Writing output data file calc.save

     General routines

     Parallel routines

   This run was terminated on:  21:37:31   1Jan2019

   JOB DONE.
Job  /afs/slac/g/suncat/bin/suncat-tsmpirun -x LD_LIBRARY_PATH -wdir /scratch/qe649172_9xXxo pw.x -in pw.inp

TID   HOST_NAME   COMMAND_LINE            STATUS            TERMINATION_TIME
00000 suncat0068 pw.x -in pw.inp   Done                     01/01/2019 21:37:31
00001 suncat0068 pw.x -in pw.inp   Done                     01/01/2019 21:37:31
00002 suncat0068 pw.x -in pw.inp   Done                     01/01/2019 21:37:31
00003 suncat0068 pw.x -in pw.inp   Done                     01/01/2019 21:37:31
00004 suncat0068 pw.x -in pw.inp   Done                     01/01/2019 21:37:31
00005 suncat0068 pw.x -in pw.inp   Done                     01/01/2019 21:37:31
00006 suncat0068 pw.x -in pw.inp   Done                     01/01/2019 21:37:31
00007 suncat0068 pw.x -in pw.inp   Done                     01/01/2019 21:37:31
00008 suncat0065 pw.x -in pw.inp   Done                     01/01/2019 21:37:31
00009 suncat0065 pw.x -in pw.inp   Done                     01/01/2019 21:37:31
00010 suncat0065 pw.x -in pw.inp   Done                     01/01/2019 21:37:31
00011 suncat0065 pw.x -in pw.inp   Done                     01/01/2019 21:37:31
00012 suncat0065 pw.x -in pw.inp   Done                     01/01/2019 21:37:31
00013 suncat0065 pw.x -in pw.inp   Done                     01/01/2019 21:37:31
00014 suncat0065 pw.x -in pw.inp   Done                     01/01/2019 21:37:31
00015 suncat0065 pw.x -in pw.inp   Done                     01/01/2019 21:37:31
00016 suncat0064 pw.x -in pw.inp   Done                     01/01/2019 21:37:31
00017 suncat0064 pw.x -in pw.inp   Done                     01/01/2019 21:37:31
00018 suncat0064 pw.x -in pw.inp   Done                     01/01/2019 21:37:31
00019 suncat0064 pw.x -in pw.inp   Done                     01/01/2019 21:37:31
00020 suncat0064 pw.x -in pw.inp   Done                     01/01/2019 21:37:31
00021 suncat0064 pw.x -in pw.inp   Done                     01/01/2019 21:37:31
00022 suncat0064 pw.x -in pw.inp   Done                     01/01/2019 21:37:31
00023 suncat0064 pw.x -in pw.inp   Done                     01/01/2019 21:37:31
00024 suncat0059 pw.x -in pw.inp   Done                     01/01/2019 21:37:31
00025 suncat0059 pw.x -in pw.inp   Done                     01/01/2019 21:37:31
00026 suncat0059 pw.x -in pw.inp   Done                     01/01/2019 21:37:31
00027 suncat0059 pw.x -in pw.inp   Done                     01/01/2019 21:37:31
00028 suncat0059 pw.x -in pw.inp   Done                     01/01/2019 21:37:31
00029 suncat0059 pw.x -in pw.inp   Done                     01/01/2019 21:37:31
00030 suncat0059 pw.x -in pw.inp   Done                     01/01/2019 21:37:31
00031 suncat0059 pw.x -in pw.inp   Done                     01/01/2019 21:37:31
00032 suncat0169 pw.x -in pw.inp   Done                     01/01/2019 21:37:31
00033 suncat0169 pw.x -in pw.inp   Done                     01/01/2019 21:37:31
00034 suncat0169 pw.x -in pw.inp   Done                     01/01/2019 21:37:31
00035 suncat0169 pw.x -in pw.inp   Done                     01/01/2019 21:37:31
00036 suncat0169 pw.x -in pw.inp   Done                     01/01/2019 21:37:31
00037 suncat0169 pw.x -in pw.inp   Done                     01/01/2019 21:37:31
00038 suncat0169 pw.x -in pw.inp   Done                     01/01/2019 21:37:31
00039 suncat0169 pw.x -in pw.inp   Done                     01/01/2019 21:37:31
00040 suncat0168 pw.x -in pw.inp   Done                     01/01/2019 21:37:31
00041 suncat0168 pw.x -in pw.inp   Done                     01/01/2019 21:37:31
00042 suncat0168 pw.x -in pw.inp   Done                     01/01/2019 21:37:31
00043 suncat0168 pw.x -in pw.inp   Done                     01/01/2019 21:37:31
00044 suncat0168 pw.x -in pw.inp   Done                     01/01/2019 21:37:31
00045 suncat0168 pw.x -in pw.inp   Done                     01/01/2019 21:37:31
00046 suncat0168 pw.x -in pw.inp   Done                     01/01/2019 21:37:31
00047 suncat0168 pw.x -in pw.inp   Done                     01/01/2019 21:37:31
00048 suncat0156 pw.x -in pw.inp   Done                     01/01/2019 21:37:31
00049 suncat0156 pw.x -in pw.inp   Done                     01/01/2019 21:37:31
00050 suncat0156 pw.x -in pw.inp   Done                     01/01/2019 21:37:31
00051 suncat0156 pw.x -in pw.inp   Done                     01/01/2019 21:37:31
00052 suncat0156 pw.x -in pw.inp   Done                     01/01/2019 21:37:31
00053 suncat0156 pw.x -in pw.inp   Done                     01/01/2019 21:37:31
00054 suncat0156 pw.x -in pw.inp   Done                     01/01/2019 21:37:31
00055 suncat0156 pw.x -in pw.inp   Done                     01/01/2019 21:37:31
00056 suncat0153 pw.x -in pw.inp   Done                     01/01/2019 21:37:31
00057 suncat0153 pw.x -in pw.inp   Done                     01/01/2019 21:37:31
00058 suncat0153 pw.x -in pw.inp   Done                     01/01/2019 21:37:31
00059 suncat0153 pw.x -in pw.inp   Done                     01/01/2019 21:37:31
00060 suncat0153 pw.x -in pw.inp   Done                     01/01/2019 21:37:31
00061 suncat0153 pw.x -in pw.inp   Done                     01/01/2019 21:37:31
00062 suncat0153 pw.x -in pw.inp   Done                     01/01/2019 21:37:31
00063 suncat0153 pw.x -in pw.inp   Done                     01/01/2019 21:37:31