     Program PWSCF v.5.1rc2 (svn rev. 11289) starts on 27Dec2018 at  3:14:46

     Current dimensions of program PWSCF are:
     Max number of different atomic species (ntypx) = 10
     Max number of k-points (npk) =  40000
     Max angular momentum in pseudopotentials (lmaxx) =  3
     Presently stress not available with electric field

     IMPORTANT: XC functional enforced from input :
     Exchange-correlation      = BEEF-VDW ( 1  4 27 13 2)
     Any further DFT definition will be discarded
     Please, verify this is what you really want

     Subspace diagonalization in iterative solution of the eigenvalue problem:
     a serial algorithm will be used

     bravais-lattice index     =            0
     lattice parameter (alat)  =       1.8897  a.u.
     unit-cell volume          =    4541.6232 (a.u.)^3
     number of atoms/cell      =           12
     number of atomic types    =            2
     number of electrons       =       174.00
     number of Kohn-Sham states=          117
     kinetic-energy cutoff     =      36.7493  Ry
     charge density cutoff     =     367.4932  Ry
     convergence threshold     =      1.0E-06
     mixing beta               =       0.1000
     number of iterations used =           10  plain     mixing
     Exchange-correlation      = BEEF-VDW ( 1  4 27 13 2)
     nstep                     =           50

     celldm(1)=   1.889726  celldm(2)=   0.000000  celldm(3)=   0.000000
     celldm(4)=   0.000000  celldm(5)=   0.000000  celldm(6)=   0.000000

     crystal axes: (cart. coord. in units of alat)
               a(1) = (   5.621631   0.000000   0.000000 )
               a(2) = (  -2.810815   4.868475   0.000000 )
               a(3) = (   0.000000   0.000000  24.590042 )

     reciprocal axes: (cart. coord. in units 2 pi/alat)
               b(1) = (  0.177884  0.102702  0.000000 )
               b(2) = (  0.000000  0.205403  0.000000 )
               b(3) = (  0.000000  0.000000  0.040667 )

     PseudoPot. # 1 for Mo read from file:
     /afs/slac.stanford.edu/u/if/mamunm/psp/gbrv1.5pbe/Mo.UPF
     MD5 check sum: 30c4dcd161f5d35cd49bb5239c51a633
     Pseudo is Ultrasoft + core correction, Zval = 14.0
     Generated by new atomic code, or converted to UPF format
     Using radial grid of  889 points,  6 beta functions with:
                l(1) =   0
                l(2) =   0
                l(3) =   1
                l(4) =   1
                l(5) =   2
                l(6) =   2
     Q(r) pseudized with  6 coefficients,  rinner =    1.000   1.000   1.000
                                                       1.000   1.000

     PseudoPot. # 2 for Pt read from file:
     /afs/slac.stanford.edu/u/if/mamunm/psp/gbrv1.5pbe/Pt.UPF
     MD5 check sum: f09d6de1a584b5a045c4fc126da2d0c4
     Pseudo is Ultrasoft + core correction, Zval = 16.0
     Generated by new atomic code, or converted to UPF format
     Using radial grid of  985 points,  6 beta functions with:
                l(1) =   0
                l(2) =   0
                l(3) =   1
                l(4) =   1
                l(5) =   2
                l(6) =   2
     Q(r) pseudized with  8 coefficients,  rinner =    1.300   1.300   1.300
                                                       1.300   1.300

     vdW kernel table read from file vdW_kernel_table
     MD5 check sum: 095c7af220d748ca6e76c0b4c6cfb241

     atomic species   valence    mass     pseudopotential
        Mo1           14.00    95.95000     Mo( 1.00)
        Pt1           16.00   195.08400     Pt( 1.00)

     No symmetry found

   Cartesian axes

     site n.     atom                  positions (alat units)
         1           Mo1 tau(   1) = (   0.0000000   0.0000000  10.0000000  )
         2           Mo1 tau(   2) = (  -1.4054076   2.4342374  10.0000000  )
         3           Mo1 tau(   3) = (   1.4054076   2.4342374  10.0000000  )
         4           Pt1 tau(   4) = (   2.8108153   0.0000000  10.0000000  )
         5           Mo1 tau(   5) = (   2.8108153   1.6228250  12.2950211  )
         6           Mo1 tau(   6) = (   1.4054076   4.0570624  12.2950211  )
         7           Mo1 tau(   7) = (  -1.4054076   4.0570624  12.2950211  )
         8           Pt1 tau(   8) = (   0.0000000   1.6228250  12.2950211  )
         9           Mo1 tau(   9) = (  -0.0000000   3.2456499  14.5900421  )
        10           Mo1 tau(  10) = (   1.4054076   0.8114125  14.5900421  )
        11           Mo1 tau(  11) = (   4.2162229   0.8114125  14.5900421  )
        12           Pt1 tau(  12) = (   2.8108153   3.2456499  14.5900421  )

     number of k points=    20  Fermi-Dirac smearing, width (Ry)=  0.0110
                       cart. coord. in units 2pi/alat
        k(    1) = (   0.0000000   0.0000000   0.0000000), wk =   0.0555556
        k(    2) = (   0.0000000   0.0342339   0.0000000), wk =   0.1111111
        k(    3) = (   0.0000000   0.0684677   0.0000000), wk =   0.1111111
        k(    4) = (   0.0000000  -0.1027016   0.0000000), wk =   0.0555556
        k(    5) = (   0.0296474   0.0171169   0.0000000), wk =   0.1111111
        k(    6) = (   0.0296474   0.0513508   0.0000000), wk =   0.1111111
        k(    7) = (   0.0296474   0.0855846   0.0000000), wk =   0.1111111
        k(    8) = (   0.0296474  -0.0855846   0.0000000), wk =   0.1111111
        k(    9) = (   0.0296474  -0.0513508   0.0000000), wk =   0.1111111
        k(   10) = (   0.0296474  -0.0171169   0.0000000), wk =   0.1111111
        k(   11) = (   0.0592948   0.0342339   0.0000000), wk =   0.1111111
        k(   12) = (   0.0592948   0.0684677   0.0000000), wk =   0.1111111
        k(   13) = (   0.0592948   0.1027016   0.0000000), wk =   0.1111111
        k(   14) = (   0.0592948  -0.0684677   0.0000000), wk =   0.1111111
        k(   15) = (   0.0592948  -0.0342339   0.0000000), wk =   0.1111111
        k(   16) = (   0.0592948   0.0000000   0.0000000), wk =   0.1111111
        k(   17) = (  -0.0889422  -0.0513508   0.0000000), wk =   0.0555556
        k(   18) = (  -0.0889422  -0.0171169   0.0000000), wk =   0.1111111
        k(   19) = (  -0.0889422   0.0171169   0.0000000), wk =   0.1111111
        k(   20) = (  -0.0889422  -0.1540524   0.0000000), wk =   0.0555556

     Largest allocated arrays     est. size (Mb)     dimensions
     Largest temporary arrays     est. size (Mb)     dimensions

     Initial potential from superposition of free atoms
     Check: negative starting charge=   -0.545055

     starting charge  172.49040, renormalised to  174.00000

     negative rho (up, down):  5.498E-01 0.000E+00

     *
     * You are using vdW-DF for exchange-correlation in this calculation.
     * Please cite the following three references that made this development
     * possible:
     *
     *   M. Dion, H. Rydberg, E. Schroder, D. C. Langreth, and
     *   B. I. Lundqvist, Phys. Rev. Lett. 92, 246401 (2004).
     *
     *   T. Thonhauser, V. R. Cooper, S. Li, A. Puzder, P. Hyldgaard, and
     *   D. C. Langreth, Phys. Rev. B 76, 125112 (2007).
     *
     *   G. Roman-Perez and J. M. Soler, Phys. Rev. Lett. 103, 096102 (2009).
     *
     *
     * If you are using vdW-DF2, please also cite:
     *
     *   K. Lee, E. D. Murray, L. Kong, B. I. Lundqvist, and
     *   D. C. Langreth, Phys. Rev. B 82, 081101(R) (2010).
     *
     *
     * If you are calculating the stress with vdW-DF, please also cite:
     *
     *   R. Sabatini, E. Kucukbenli, B. Kolb, T. Thonhauser, and
     *   S. de Gironcoli, J. Phys.: Condens. Matter 24, 424209 (2012).
     *

     Carrying out vdW-DF run using the following parameters:

     Nqs =      20    Nr_points =    1024   r_max =   100.000
     q_mesh =
               0.00001000     0.04494208     0.09755937     0.15916263
               0.23128650     0.31572767     0.41458969     0.53033537
               0.66584808     0.82450364     1.01025438     1.22772762
               1.48234092     1.78043706     2.12944203     2.53805004
               3.01644009     3.57652955     4.23227104     5.00000000

     Gradients computed in reciprocal space

     Adding external electric field

     Computed dipole along edir(3) :
        Dipole               -0.0000 Ry au,         -0.0000 Debye
        Dipole field         -0.0000 Ry au

        Potential amp.        0.0000 Ry
        Total length         45.3067 bohr

     Starting wfc are  153 randomized atomic wfcs

     Self-consistent Calculation

     iteration #  1     ecut=    36.75 Ry     beta=0.10
     Davidson diagonalization with overlap
     ethr =  1.00E-02,  avg # of iterations =  2.0

[...]

     total energy              =   -1895.63423531 Ry
     Harris-Foulkes estimate   =   -1898.09635304 Ry
     estimated scf accuracy    <      14.02313493 Ry

[...]

     End of self-consistent calculation

          k = 0.0000 0.0000 0.0000 ( 17075 PWs)   bands (ev):

   -58.8799 -58.7984 -58.7606 -58.7381 -58.7381 -58.6828 -58.6827 -58.6696
   -58.6696 -51.1085 -51.0971 -51.0971 -50.6769 -50.6769 -50.6766 -50.6766
   -50.6067 -50.6054 -33.4245 -33.2350 -33.2103 -33.1495 -33.1495 -33.1362
   -33.0901 -33.0901 -32.9551 -32.9551 -32.9002 -32.7874 -32.7874 -32.7688
   -32.7688 -32.6486 -32.5278 -32.5278 -32.5249 -32.5151 -32.4314 -32.4075
   -32.4075 -32.3017 -32.3017 -32.2947 -32.2947  -4.8048  -3.4157  -3.3457
    -3.1542  -3.1542  -2.7668  -2.7668  -2.6998  -2.6047  -2.4750  -2.4750
    -2.3020  -2.3020  -2.2718  -1.6021  -1.3373  -1.3373  -0.9728  -0.9728
    -0.6656  -0.2019  -0.0861   0.2717   0.6692   0.6692   0.8801   0.8801
     1.1505   1.1505   1.1881   1.1881   1.2671   1.7582   1.7582   1.8496
     1.8601   2.2677   2.2677   2.3248   2.3248   2.6349   2.9731   2.9731
     3.1417   3.3774   3.4742   4.1123   4.1123   4.3293   4.3293   4.3804
     4.3804   4.6887   4.6887   4.7785   4.8487   4.8487   5.0733   5.0733
     5.1599   5.1599   5.3311   5.4741   5.4741   6.1848   6.3542   6.3923
     6.4867   6.5229   6.6362   6.7566   6.7566

[...]

          k =-0.0889-0.0514 0.0000 ( 17120 PWs)   bands (ev):

[...]

     the Fermi energy is     2.3520 ev

!    total energy              =   -1896.66384895 Ry
     Harris-Foulkes estimate   =   -1896.66383441 Ry
     estimated scf accuracy    <       0.00000088 Ry

     The total energy is the sum of the following terms:

     one-electron contribution =  -16314.10897280 Ry
     hartree contribution      =    8160.98801389 Ry
     xc contribution           =    -355.68518484 Ry
     ewald contribution        =    6612.22993812 Ry
     electric field correction =       0.00000002 Ry
     smearing contrib. (-TS)   =      -0.08764334 Ry

     convergence has been achieved in  17 iterations

 BEEF-vdW xc energy contributions
           1 :   -310.945935208845
           2 :    286.839695627852
           3 :   -244.613599306237
           4 :    193.931833767273
           5 :   -144.861301275768
           6 :    104.895916812525
           7 :   -77.3379651470065
           8 :    61.3354843677749
           9 :   -53.2695718865237
          10 :    48.7215486526194
          11 :   -44.2249546532435
          12 :    38.2116244529045
          13 :   -31.0000896452416
          14 :    24.0353747960958
[...]
     PseudoPot. # 1 for Mo read from file:
     /afs/slac.stanford.edu/u/if/mamunm/psp/gbrv1.5pbe/Mo.UPF
     MD5 check sum: 30c4dcd161f5d35cd49bb5239c51a633
     Pseudo is Ultrasoft + core correction, Zval = 14.0
     Generated by new atomic code, or converted to UPF format
     Using radial grid of  889 points,  6 beta functions with:
                l(1) =   0
                l(2) =   0
                l(3) =   1
                l(4) =   1
                l(5) =   2
                l(6) =   2
     Q(r) pseudized with  6 coefficients,  rinner =    1.000   1.000   1.000
                                                       1.000   1.000

     PseudoPot. # 2 for Pt read from file:
     /afs/slac.stanford.edu/u/if/mamunm/psp/gbrv1.5pbe/Pt.UPF
     MD5 check sum: f09d6de1a584b5a045c4fc126da2d0c4
     Pseudo is Ultrasoft + core correction, Zval = 16.0
     Generated by new atomic code, or converted to UPF format
     Using radial grid of  985 points,  6 beta functions with:
                l(1) =   0
                l(2) =   0
                l(3) =   1
                l(4) =   1
                l(5) =   2
                l(6) =   2
     Q(r) pseudized with  8 coefficients,  rinner =    1.300   1.300   1.300
                                                       1.300   1.300

     vdW kernel table read from file vdW_kernel_table
     MD5 check sum: 095c7af220d748ca6e76c0b4c6cfb241

     atomic species   valence    mass     pseudopotential
        Mo1           14.00    95.95000     Mo( 1.00)
        Pt1           16.00   195.08400     Pt( 1.00)

     No symmetry found

   Cartesian axes

     site n.     atom                  positions (alat units)
         1           Mo1 tau(   1) = (   0.0000000   0.0000000  10.0000000  )
         2           Mo1 tau(   2) = (  -1.4054076   2.4342374  10.0000000  )
         3           Mo1 tau(   3) = (   1.4054076   2.4342374  10.0000000  )
         4           Pt1 tau(   4) = (   2.8108153   0.0000000  10.0000000  )
         5           Mo1 tau(   5) = (   2.8108153   1.6228250  12.2950211  )
         6           Mo1 tau(   6) = (   1.4054076   4.0570624  12.2950211  )
         7           Mo1 tau(   7) = (  -1.4054076   4.0570624  12.2950211  )
         8           Pt1 tau(   8) = (   0.0000000   1.6228250  12.2950211  )
         9           Mo1 tau(   9) = (   0.0000005   3.2567358  14.4736654  )
        10           Mo1 tau(  10) = (   1.4150089   0.8058695  14.4736664  )
        11           Mo1 tau(  11) = (   4.2066212   0.8058691  14.4736668  )
        12           Pt1 tau(  12) = (   2.8108148   3.2456487  14.5688588  )

     number of k points=    20  Fermi-Dirac smearing, width (Ry)=  0.0110
                       cart. coord. in units 2pi/alat
        k(    1) = (   0.0000000   0.0000000   0.0000000), wk =   0.0555556
        k(    2) = (   0.0000000   0.0342339   0.0000000), wk =   0.1111111
        k(    3) = (   0.0000000   0.0684677   0.0000000), wk =   0.1111111
        k(    4) = (   0.0000000  -0.1027016   0.0000000), wk =   0.0555556
        k(    5) = (   0.0296474   0.0171169   0.0000000), wk =   0.1111111
        k(    6) = (   0.0296474   0.0513508   0.0000000), wk =   0.1111111
        k(    7) = (   0.0296474   0.0855846   0.0000000), wk =   0.1111111
        k(    8) = (   0.0296474  -0.0855846   0.0000000), wk =   0.1111111
        k(    9) = (   0.0296474  -0.0513508   0.0000000), wk =   0.1111111
        k(   10) = (   0.0296474  -0.0171169   0.0000000), wk =   0.1111111
        k(   11) = (   0.0592948   0.0342339   0.0000000), wk =   0.1111111
        k(   12) = (   0.0592948   0.0684677   0.0000000), wk =   0.1111111
        k(   13) = (   0.0592948   0.1027016   0.0000000), wk =   0.1111111
        k(   14) = (   0.0592948  -0.0684677   0.0000000), wk =   0.1111111
        k(   15) = (   0.0592948  -0.0342339   0.0000000), wk =   0.1111111
        k(   16) = (   0.0592948   0.0000000   0.0000000), wk =   0.1111111
        k(   17) = (  -0.0889422  -0.0513508   0.0000000), wk =   0.0555556
        k(   18) = (  -0.0889422  -0.0171169   0.0000000), wk =   0.1111111
        k(   19) = (  -0.0889422   0.0171169   0.0000000), wk =   0.1111111
        k(   20) = (  -0.0889422  -0.1540524   0.0000000), wk =   0.0555556

     Largest allocated arrays     est. size (Mb)     dimensions
     Largest temporary arrays     est. size (Mb)     dimensions

     Initial potential from superposition of free atoms
     Check: negative starting charge=   -0.547380

     starting charge  172.49040, renormalised to  174.00000

[...]

     *
     * You are using vdW-DF for exchange-correlation in this calculation.
     * Please cite the following three references that made this development
     * possible:
     *
     *   M. Dion, H. Rydberg, E. Schroder, D. C. Langreth, and
     *   B. I. Lundqvist, Phys. Rev. Lett. 92, 246401 (2004).
     *
     *   T. Thonhauser, V. R. Cooper, S. Li, A. Puzder, P. Hyldgaard, and
     *   D. C. Langreth, Phys. Rev. B 76, 125112 (2007).
     *
     *   G. Roman-Perez and J. M. Soler, Phys. Rev. Lett. 103, 096102 (2009).
     *
     *
     * If you are using vdW-DF2, please also cite:
     *
     *   K. Lee, E. D. Murray, L. Kong, B. I. Lundqvist, and
     *   D. C. Langreth, Phys. Rev. B 82, 081101(R) (2010).
     *
     *
     * If you are calculating the stress with vdW-DF, please also cite:
     *
     *   R. Sabatini, E. Kucukbenli, B. Kolb, T. Thonhauser, and
     *   S. de Gironcoli, J. Phys.: Condens. Matter 24, 424209 (2012).
     *

     Carrying out vdW-DF run using the following parameters:

     Nqs =      20    Nr_points =    1024   r_max =   100.000
     q_mesh =
               0.00001000     0.04494208     0.09755937     0.15916263
               0.23128650     0.31572767     0.41458969     0.53033537
               0.66584808     0.82450364     1.01025438     1.22772762
               1.48234092     1.78043706     2.12944203     2.53805004
               3.01644009     3.57652955     4.23227104     5.00000000

     Gradients computed in reciprocal space

[...]

     Starting wfc are  153 randomized atomic wfcs

     Self-consistent Calculation

[...]

     total energy              =   -1896.67996796 Ry
     Harris-Foulkes estimate   =   -1896.67996501 Ry
     estimated scf accuracy    <       0.00000154 Ry

     iteration # 17     ecut=    36.75 Ry     beta=0.10
     Davidson diagonalization with overlap
     ethr =  8.87E-10,  avg # of iterations =  1.9

[...]

     negative rho (up, down):  5.221E-01 0.000E+00

     Adding external electric field

     Computed dipole along edir(3) :
        Dipole                0.0183 Ry au,          0.0464 Debye
        Dipole field          0.0001 Ry au

        Potential amp.       -0.0046 Ry
        Total length         45.3067 bohr

     End of self-consistent calculation

[...]

          k = 0.0593 0.0000 0.0000 ( 17076 PWs)   bands (ev):

[...]

          k =-0.0889-0.1541 0.0000 ( 17120 PWs)   bands (ev):

   -58.8304 -58.8060 -58.7552 -58.7368 -58.7364 -58.6975 -58.6728 -58.6486
   -58.6140 -51.2276 -51.2067 -51.2053 -50.6859 -50.6845 -50.6813 -50.6800
   -50.6100 -50.6083 -33.2916 -33.2155 -33.1585 -33.0617 -33.0414 -33.0142
   -32.9970 -32.9643 -32.9236 -32.8671 -32.8321 -32.8110 -32.7552 -32.7524
   -32.7376 -32.7124 -32.7076 -32.6580 -32.6141 -32.5860 -32.5799 -32.4599
   -32.4525 -32.3899 -32.3870 -32.3480 -32.2779  -3.5708  -3.0841  -2.6026
    -2.5686  -2.4252  -2.2702  -2.1086  -1.9807  -1.9617  -1.7996  -1.7418
    -1.6035  -1.4964  -1.4381  -1.1663  -1.1645  -1.0538  -0.9204  -0.7685
    -0.7123  -0.6750  -0.6225  -0.2028  -0.0092   0.0805   0.2952   0.5642
     0.5977   0.7206   0.7575   1.0219   1.1035   1.1567   1.1910   1.3894
     1.4173   1.4276   1.5134   1.5992   1.6067   2.0763   2.0925   2.2359
     2.4230   2.5403   2.6412   2.8849   2.9597   3.0090   3.1309   3.1774
     3.6289   3.6316   3.7309   3.8343   3.9422   4.0806   4.2191   4.4205
     4.5506   4.6224   5.1677   5.3743   5.4738   5.8087   6.1016   6.5302
     6.9911   7.2395   7.5549   7.8408   7.9450

     the Fermi energy is     2.3465 ev

!    total energy              =   -1896.67998300 Ry
     Harris-Foulkes estimate   =   -1896.67996816 Ry
     estimated scf accuracy    <       0.00000090 Ry

     The total energy is the sum of the following terms:

     one-electron contribution =  -16525.04770735 Ry
     hartree contribution      =    8266.41319998 Ry
     xc contribution           =    -355.90564059 Ry
     ewald contribution        =    6717.94546248 Ry
     electric field correction =       0.00000092 Ry
     smearing contrib. (-TS)   =      -0.08529843 Ry

     convergence has been achieved in  17 iterations

 BEEF-vdW xc energy contributions
           1 :   -311.320004490336
           2 :    287.286774301677
           3 :   -245.159357565231
           4 :    194.532012088427
           5 :   -145.416827175017
           6 :    105.301016059577
           7 :   -77.5369335252687
           8 :    61.3560382683007
           9 :   -53.2136526526024
          10 :    48.7185389923121
          11 :   -44.3706024608269
          12 :    38.5241765026714
          13 :   -31.4143625712083
          14 :    24.4362605324907
          15 :   -19.1272662591212
          16 :    16.3183226052639
          17 :   -15.7856849585344
          18 :    16.4567763763558
          19 :   -16.9870291935684
          20 :    16.3767175713560
          21 :   -14.3406345148090
          22 :    11.2985998113847
          23 :   -8.05894815637640
          24 :    5.38701951697084
          25 :   -3.67329547938505
          26 :    2.82707832621264
          27 :   -2.40614827239807
          28 :    1.87971193668801
          29 :  -0.885629205499356
          30 :  -0.635437872416787
          31 :   -30.4416074857039
          32 :   -23.0310527561464

     Forces acting on atoms (Ry/au):

     negative rho (up, down):  5.221E-01 0.000E+00
     atom    1 type  1   force =    -0.00000022   -0.00252062    0.02225855
     atom    2 type  1   force =    -0.00218427    0.00126101    0.02226162
     atom    3 type  1   force =     0.00218365    0.00126091    0.02226002
     atom    4 type  2   force =     0.00000010    0.00000030    0.00200682
     atom    5 type  1   force =    -0.00000019   -0.00285240   -0.01396256
     atom    6 type  1   force =    -0.00246919    0.00142610   -0.01396247
     atom    7 type  1   force =     0.00246922    0.00142675   -0.01396258
     atom    8 type  2   force =     0.00000046   -0.00000231   -0.02620774
     atom    9 type  1   force =    -0.00000004    0.00004389   -0.00021488
     atom   10 type  1   force =     0.00003743   -0.00002230   -0.00021546
     atom   11 type  1   force =    -0.00003717   -0.00002197   -0.00021561
     atom   12 type  2   force =     0.00000023    0.00000065   -0.00004572

     Total force =     0.052971     Total SCF correction =     0.002019

     entering subroutine stress ...

     negative rho (up, down):  5.221E-01 0.000E+00
          total   stress  (Ry/bohr**3)                   (kbar)     P=  -19.16
  -0.00016022  -0.00000000   0.00000000        -23.57     -0.00      0.00
  -0.00000000  -0.00016022  -0.00000000         -0.00    -23.57     -0.00
   0.00000000  -0.00000000  -0.00007027          0.00     -0.00    -10.34

 !ASE

     Writing output data file calc.save

     General routines

     Parallel routines

   This run was terminated on:   4: 0:52  27Dec2018

   JOB DONE.
Job  /afs/slac/g/suncat/bin/suncat-tsmpirun -x LD_LIBRARY_PATH -wdir /scratch/qe110144_LDu4K pw.x -in pw.inp

TID   HOST_NAME   COMMAND_LINE            STATUS            TERMINATION_TIME
00000 suncat0095 pw.x -in pw.inp   Done                     12/27/2018 04:00:52
00001 suncat0095 pw.x -in pw.inp   Done                     12/27/2018 04:00:52
00002 suncat0095 pw.x -in pw.inp   Done                     12/27/2018 04:00:52
00003 suncat0095 pw.x -in pw.inp   Done                     12/27/2018 04:00:52
00004 suncat0095 pw.x -in pw.inp   Done                     12/27/2018 04:00:52
00005 suncat0095 pw.x -in pw.inp   Done                     12/27/2018 04:00:52
00006 suncat0095 pw.x -in pw.inp   Done                     12/27/2018 04:00:52
00007 suncat0095 pw.x -in pw.inp   Done                     12/27/2018 04:00:52
00008 suncat0094 pw.x -in pw.inp   Done                     12/27/2018 04:00:52
00009 suncat0094 pw.x -in pw.inp   Done                     12/27/2018 04:00:52
00010 suncat0094 pw.x -in pw.inp   Done                     12/27/2018 04:00:52
00011 suncat0094 pw.x -in pw.inp   Done                     12/27/2018 04:00:52
00012 suncat0094 pw.x -in pw.inp   Done                     12/27/2018 04:00:52
00013 suncat0094 pw.x -in pw.inp   Done                     12/27/2018 04:00:52
00014 suncat0094 pw.x -in pw.inp   Done                     12/27/2018 04:00:52
00015 suncat0094 pw.x -in pw.inp   Done                     12/27/2018 04:00:52
00016 suncat0092 pw.x -in pw.inp   Done                     12/27/2018 04:00:52
00017 suncat0092 pw.x -in pw.inp   Done                     12/27/2018 04:00:52
00018 suncat0092 pw.x -in pw.inp   Done                     12/27/2018 04:00:52
00019 suncat0092 pw.x -in pw.inp   Done                     12/27/2018 04:00:52
00020 suncat0092 pw.x -in pw.inp   Done                     12/27/2018 04:00:52
00021 suncat0092 pw.x -in pw.inp   Done                     12/27/2018 04:00:52
00022 suncat0092 pw.x -in pw.inp   Done                     12/27/2018 04:00:52
00023 suncat0092 pw.x -in pw.inp   Done                     12/27/2018 04:00:52
00024 suncat0195 pw.x -in pw.inp   Done                     12/27/2018 04:00:52
00025 suncat0195 pw.x -in pw.inp   Done                     12/27/2018 04:00:52
00026 suncat0195 pw.x -in pw.inp   Done                     12/27/2018 04:00:52
00027 suncat0195 pw.x -in pw.inp   Done                     12/27/2018 04:00:52
00028 suncat0195 pw.x -in pw.inp   Done                     12/27/2018 04:00:52
00029 suncat0195 pw.x -in pw.inp   Done                     12/27/2018 04:00:52
00030 suncat0195 pw.x -in pw.inp   Done                     12/27/2018 04:00:52
00031 suncat0195 pw.x -in pw.inp   Done                     12/27/2018 04:00:52
00032 suncat0003 pw.x -in pw.inp   Done                     12/27/2018 04:00:52
00033 suncat0003 pw.x -in pw.inp   Done                     12/27/2018 04:00:52
00034 suncat0003 pw.x -in pw.inp   Done                     12/27/2018 04:00:52
00035 suncat0003 pw.x -in pw.inp   Done                     12/27/2018 04:00:52
00036 suncat0003 pw.x -in pw.inp   Done                     12/27/2018 04:00:52
00037 suncat0003 pw.x -in pw.inp   Done                     12/27/2018 04:00:52
00038 suncat0003 pw.x -in pw.inp   Done                     12/27/2018 04:00:52
00039 suncat0003 pw.x -in pw.inp   Done                     12/27/2018 04:00:52
00040 suncat0002 pw.x -in pw.inp   Done                     12/27/2018 04:00:52
00041 suncat0002 pw.x -in pw.inp   Done                     12/27/2018 04:00:52
00042 suncat0002 pw.x -in pw.inp   Done                     12/27/2018 04:00:52
00043 suncat0002 pw.x -in pw.inp   Done                     12/27/2018 04:00:52
00044 suncat0002 pw.x -in pw.inp   Done                     12/27/2018 04:00:52
00045 suncat0002 pw.x -in pw.inp   Done                     12/27/2018 04:00:52
00046 suncat0002 pw.x -in pw.inp   Done                     12/27/2018 04:00:52
00047 suncat0002 pw.x -in pw.inp   Done                     12/27/2018 04:00:52
00048 suncat0283 pw.x -in pw.inp   Done                     12/27/2018 04:00:52
00049 suncat0283 pw.x -in pw.inp   Done                     12/27/2018 04:00:52
00050 suncat0283 pw.x -in pw.inp   Done                     12/27/2018 04:00:52
00051 suncat0283 pw.x -in pw.inp   Done                     12/27/2018 04:00:52
00052 suncat0283 pw.x -in pw.inp   Done                     12/27/2018 04:00:52
00053 suncat0283 pw.x -in pw.inp   Done                     12/27/2018 04:00:52
00054 suncat0283 pw.x -in pw.inp   Done                     12/27/2018 04:00:52
00055 suncat0283 pw.x -in pw.inp   Done                     12/27/2018 04:00:52
00056 suncat0282 pw.x -in pw.inp   Done                     12/27/2018 04:00:52
00057 suncat0282 pw.x -in pw.inp   Done                     12/27/2018 04:00:52
00058 suncat0282 pw.x -in pw.inp   Done                     12/27/2018 04:00:52
00059 suncat0282 pw.x -in pw.inp   Done                     12/27/2018 04:00:52
00060 suncat0282 pw.x -in pw.inp   Done                     12/27/2018 04:00:52
00061 suncat0282 pw.x -in pw.inp   Done                     12/27/2018 04:00:52
00062 suncat0282 pw.x -in pw.inp   Done                     12/27/2018 04:00:52
00063 suncat0282 pw.x -in pw.inp   Done                     12/27/2018 04:00:52