     Program PWSCF v.5.1rc2 (svn rev. 11289) starts on 19Dec2018 at 10: 0:41

     Current dimensions of program PWSCF are:
     Max number of different atomic species (ntypx) = 10
     Max number of k-points (npk) =  40000
     Max angular momentum in pseudopotentials (lmaxx) =  3
     Presently stress not available with electric field

     IMPORTANT: XC functional enforced from input :
     Exchange-correlation      = BEEF-VDW ( 1  4 27 13 2)
     Any further DFT definition will be discarded
     Please, verify this is what you really want

     Subspace diagonalization in iterative solution of the eigenvalue problem:
     a serial algorithm will be used

     Found symmetry operation: I + (  0.5000  0.5000  0.0000)
     This is a supercell, fractional translations are disabled

     bravais-lattice index     =            0
     lattice parameter (alat)  =       1.8897  a.u.
     unit-cell volume          =    5038.9778 (a.u.)^3
     number of atoms/cell      =           12
     number of atomic types    =            2
     number of electrons       =       162.00
     number of Kohn-Sham states=          111
     kinetic-energy cutoff     =      36.7493  Ry
     charge density cutoff     =     367.4932  Ry
     convergence threshold     =      1.0E-06
     mixing beta               =       0.1000
     number of iterations used =           10  plain     mixing
     Exchange-correlation      = BEEF-VDW ( 1  4 27 13 2)
     nstep                     =           50

     celldm(1)=   1.889726  celldm(2)=   0.000000  celldm(3)=   0.000000
     celldm(4)=   0.000000  celldm(5)=   0.000000  celldm(6)=   0.000000

     crystal axes: (cart. coord. in units of alat)
               a(1) = (   5.760715   0.000000   0.000000 )
               a(2) = (   2.409824   5.232455   0.000000 )
               a(3) = (   0.000000   0.000000  24.772167 )

     reciprocal axes: (cart. coord. in units 2 pi/alat)
               b(1) = (  0.173590 -0.079947  0.000000 )
               b(2) = (  0.000000  0.191115  0.000000 )
               b(3) = (  0.000000  0.000000  0.040368 )

     PseudoPot. # 1 for V  read from file:
     /afs/slac.stanford.edu/u/if/mamunm/psp/gbrv1.5pbe/V.UPF
     MD5 check sum: 22b79981416ebb76fdaf5b1b8640f6fb
     Pseudo is Ultrasoft + core correction, Zval = 13.0
     Generated by new atomic code, or converted to UPF format
     Using radial grid of  853 points,  6 beta functions with:
                l(1) =   0
                l(2) =   0
                l(3) =   1
                l(4) =   1
                l(5) =   2
                l(6) =   2
     Q(r) pseudized with  8 coefficients,  rinner =    1.100   1.100   1.100
                                                       1.100   1.100

     PseudoPot. # 2 for Sn read from file:
     /afs/slac.stanford.edu/u/if/mamunm/psp/gbrv1.5pbe/Sn.UPF
     MD5 check sum: 469debedee59599fedebd795477fea03
     Pseudo is Ultrasoft + core correction, Zval = 14.0
     Generated by new atomic code, or converted to UPF format
     Using radial grid of  891 points,  6 beta functions with:
                l(1) =   0
                l(2) =   0
                l(3) =   1
                l(4) =   1
                l(5) =   2
                l(6) =   2
     Q(r) pseudized with  8 coefficients,  rinner =    1.350   1.350   1.350
                                                       1.350   1.350

     vdW kernel table read from file vdW_kernel_table
     MD5 check sum: 095c7af220d748ca6e76c0b4c6cfb241

     atomic species   valence    mass     pseudopotential
        V1            13.00    50.94150     V ( 1.00)
        Sn1           14.00   118.71000     Sn( 1.00)

     No symmetry found

   Cartesian axes

     site n.     atom                  positions (alat units)
         1           V1  tau(   1) = (   0.0000000   0.0000000  10.0000000  )
         2           V1  tau(   2) = (   4.0852695   2.6162273  10.0000000  )
         3           Sn1 tau(   3) = (   2.8803574   0.0000000  10.0000000  )
         4           Sn1 tau(   4) = (   1.2049121   2.6162273  10.0000000  )
         5           V1  tau(   5) = (   5.7607148   3.6891910  12.3860835  )
         6           V1  tau(   6) = (   1.6754453   1.0729637  12.3860835  )
         7           Sn1 tau(   7) = (   2.8803574   3.6891910  12.3860835  )
         8           Sn1 tau(   8) = (   4.5558027   1.0729637  12.3860835  )
         9           V1  tau(   9) = (   3.3508906   2.1459273  14.7721670  )
        10           V1  tau(  10) = (   7.4361601   4.7621547  14.7721670  )
        11           Sn1 tau(  11) = (   6.2312479   2.1459273  14.7721670  )
        12           Sn1 tau(  12) = (   4.5558027   4.7621547  14.7721670  )

     number of k points=    20  Fermi-Dirac smearing, width (Ry)=  0.0110
                       cart. coord. in units 2pi/alat
        k(    1) = (   0.0000000   0.0000000   0.0000000), wk =   0.0555556
        k(    2) = (   0.0000000   0.0318525   0.0000000), wk =   0.1111111
        k(    3) = (   0.0000000   0.0637050   0.0000000), wk =   0.1111111
        k(    4) = (   0.0000000  -0.0955574   0.0000000), wk =   0.0555556
        k(    5) = (   0.0289316  -0.0133245   0.0000000), wk =   0.1111111
        k(    6) = (   0.0289316   0.0185279   0.0000000), wk =   0.1111111
        k(    7) = (   0.0289316   0.0503804   0.0000000), wk =   0.1111111
        k(    8) = (   0.0289316  -0.1088820   0.0000000), wk =   0.1111111
        k(    9) = (   0.0289316  -0.0770295   0.0000000), wk =   0.1111111
        k(   10) = (   0.0289316  -0.0451770   0.0000000), wk =   0.1111111
        k(   11) = (   0.0578632  -0.0266491   0.0000000), wk =   0.1111111
        k(   12) = (   0.0578632   0.0052034   0.0000000), wk =   0.1111111
        k(   13) = (   0.0578632   0.0370559   0.0000000), wk =   0.1111111
        k(   14) = (   0.0578632  -0.1222065   0.0000000), wk =   0.1111111
        k(   15) = (   0.0578632  -0.0903540   0.0000000), wk =   0.1111111
        k(   16) = (   0.0578632  -0.0585016   0.0000000), wk =   0.1111111
        k(   17) = (  -0.0867948   0.0399736   0.0000000), wk =   0.0555556
        k(   18) = (  -0.0867948   0.0718261   0.0000000), wk =   0.1111111
        k(   19) = (  -0.0867948   0.1036786   0.0000000), wk =   0.1111111
        k(   20) = (  -0.0867948  -0.0555838   0.0000000), wk =   0.0555556

     Largest allocated arrays     est. size (Mb)     dimensions
     Largest temporary arrays     est. size (Mb)     dimensions

     Check: negative/imaginary core charge=   -0.000001    0.000000

     Initial potential from superposition of free atoms
     Check: negative starting charge=   -0.005741

     starting charge  155.99236, renormalised to  162.00000

     negative rho (up, down):  5.963E-03 0.000E+00

     *
     * You are using vdW-DF for exchange-correlation in this calculation.
     * Please cite the following three references that made this development
     * possible:
     *
     *   M. Dion, H. Rydberg, E. Schroder, D. C. Langreth, and
     *   B. I. Lundqvist, Phys. Rev. Lett. 92, 246401 (2004).
     *
     *   T. Thonhauser, V. R. Cooper, S. Li, A. Puzder, P. Hyldgaard, and
     *   D. C. Langreth, Phys. Rev. B 76, 125112 (2007).
     *
     *   G. Roman-Perez and J. M. Soler, Phys. Rev. Lett. 103, 096102 (2009).
     *
     *
     * If you are using vdW-DF2, please also cite:
     *
     *   K. Lee, E. D. Murray, L. Kong, B. I. Lundqvist, and
     *   D. C. Langreth, Phys. Rev. B 82, 081101(R) (2010).
     *
     *
     * If you are calculating the stress with vdW-DF, please also cite:
     *
     *   R. Sabatini, E. Kucukbenli, B. Kolb, T. Thonhauser, and
     *   S. de Gironcoli, J. Phys.: Condens. Matter 24, 424209 (2012).
     *

     Carrying out vdW-DF run using the following parameters:

     Nqs =      20    Nr_points =    1024   r_max =   100.000
     q_mesh =
               0.00001000     0.04494208     0.09755937     0.15916263
               0.23128650     0.31572767     0.41458969     0.53033537
               0.66584808     0.82450364     1.01025438     1.22772762
               1.48234092     1.78043706     2.12944203     2.53805004
               3.01644009     3.57652955     4.23227104     5.00000000

     Gradients computed in reciprocal space

     Adding external electric field

     Computed dipole along edir(3) :
        Dipole                0.0000 Ry au,          0.0000 Debye
        Dipole field          0.0000 Ry au

        Potential amp.       -0.0000 Ry
        Total length         45.6423 bohr

     Starting wfc are  114 randomized atomic wfcs

     Self-consistent Calculation

     iteration #  1     ecut=    36.75 Ry     beta=0.10
     Davidson diagonalization with overlap
     ethr =  1.00E-02,  avg # of iterations =  6.5

[...]

     total energy              =   -1839.04477599 Ry
     Harris-Foulkes estimate   =   -1840.21869974 Ry
     estimated scf accuracy    <       7.15499213 Ry

[...]

     End of self-consistent calculation

          k = 0.0000 0.0000 0.0000 ( 19013 PWs)   bands (ev):

   -63.2094 -63.2092 -63.2002 -63.2000 -63.0980 -63.0886 -37.1257 -37.1244
   -37.1159 -37.1134 -37.0426 -37.0424 -36.9945 -36.9786 -36.9769 -36.9768
   -36.9699 -36.9660 -36.9551 -36.9359 -36.9357 -36.8877 -36.8758 -36.8442
   -20.7337 -20.6557 -20.6068 -20.5578 -20.5511 -20.5492 -20.5414 -20.5401
   -20.4933 -20.4268 -20.4138 -20.4126 -20.3413 -20.3409 -20.2905 -20.2902
   -20.2368 -20.2357 -20.2225 -20.2153 -20.2092 -20.2056 -20.1932 -20.1881
   -20.1772 -20.1769 -20.1660 -20.1641 -20.0956 -20.0913  -9.4061  -7.8353
    -6.3352  -5.7419  -4.9229  -4.3354  -3.0531  -2.5194  -2.0645  -1.7148
    -1.7137  -1.5047  -1.4253  -0.8436  -0.2952  -0.0916   0.0553   0.0678
     0.2687   0.5537   0.6680   0.7123   0.7273   0.7502   0.9246   0.9359
     1.2712   1.2990   1.3559   1.6076   1.7350   1.7417   1.8048   1.8311
     1.8648   2.0239   2.0815   2.2779   2.3504   2.3782   2.3833   2.5372
     2.5807   2.6208   3.0011   3.3950   3.6473   3.9531   4.3427   4.7068
     4.7921   4.8932   5.2078   5.2675   5.2968   5.6124   5.6615

[...]

          k =-0.0868 0.0400 0.0000 ( 18898 PWs)   bands (ev):

[...]

     the Fermi energy is     1.3033 ev

!    total energy              =   -1838.50308059 Ry
     Harris-Foulkes estimate   =   -1838.50308090 Ry
     estimated scf accuracy    <       0.00000085 Ry

     The total energy is the sum of the following terms:

     one-electron contribution =  -13035.35831486 Ry
     hartree contribution      =    6545.46222728 Ry
     xc contribution           =    -389.75587262 Ry
     ewald contribution        =    5041.26022291 Ry
     electric field correction =       0.00000002 Ry
     smearing contrib. (-TS)   =      -0.11134331 Ry

     convergence has been achieved in  21 iterations

 BEEF-vdW xc energy contributions
           1 :   -340.541055439373
           2 :    310.213694431092
           3 :   -259.279344794808
           4 :    202.555191568874
           5 :   -153.540281515523
           6 :    119.518722167329
           7 :   -100.287517975108
           8 :    90.4472458783815
           9 :   -83.4584886932118
          10 :    75.1083954543937
[...]

   This run was terminated on:  10:11:15  19Dec2018

[...]

     Program PWSCF v.5.1rc2 (svn rev. 11289) starts on 19Dec2018 at 10:11:21

[...]

   This run was terminated on:  10:28: 8  19Dec2018

[...]

     Program PWSCF v.5.1rc2 (svn rev. 11289) starts on 19Dec2018 at 10:34: 4

[...]

     Program PWSCF v.5.1rc2 (svn rev. 11289) starts on 19Dec2018 at 10:46: 2

[...]

   This run was terminated on:  11: 4:17  19Dec2018

[...]

     Program PWSCF v.5.1rc2 (svn rev. 11289) starts on 19Dec2018 at 11: 4:24

[...]

   This run was terminated on:  11:10: 9  19Dec2018

[...]

     Program PWSCF v.5.1rc2 (svn rev. 11289) starts on 19Dec2018 at 11:10:15

     Current dimensions of program PWSCF are:
     Max number of different atomic species (ntypx) = 10
     Max number of k-points (npk) =  40000
     Max angular momentum in pseudopotentials (lmaxx) =  3
     Presently stress not available with electric field

     IMPORTANT: XC functional enforced from input :
     Exchange-correlation      = BEEF-VDW ( 1  4 27 13 2)
     Any further DFT definition will be discarded
     Please, verify this is what you really want

     Subspace diagonalization in iterative solution of the eigenvalue problem:
     a serial algorithm will be used

     bravais-lattice index     =            0
     lattice parameter (alat)  =       1.8897  a.u.
     unit-cell volume          =    5038.9778 (a.u.)^3
     number of atoms/cell      =           12
     number of atomic types    =            2
     number of electrons       =       162.00
     number of Kohn-Sham states=          111
     kinetic-energy cutoff     =      36.7493  Ry
     charge density cutoff     =     367.4932  Ry
     convergence threshold     =      1.0E-06
     mixing beta               =       0.1000
     number of iterations used =           10  plain     mixing
     Exchange-correlation      = BEEF-VDW ( 1  4 27 13 2)
     nstep                     =           50

     celldm(1)=   1.889726  celldm(2)=   0.000000  celldm(3)=   0.000000
     celldm(4)=   0.000000  celldm(5)=   0.000000  celldm(6)=   0.000000

     crystal axes: (cart. coord. in units of alat)
               a(1) = (   5.760715   0.000000   0.000000 )
               a(2) = (   2.409824   5.232455   0.000000 )
               a(3) = (   0.000000   0.000000  24.772167 )

     reciprocal axes: (cart. coord. in units 2 pi/alat)
               b(1) = (  0.173590 -0.079947  0.000000 )
               b(2) = (  0.000000  0.191115  0.000000 )
               b(3) = (  0.000000  0.000000  0.040368 )

     PseudoPot. # 1 for V  read from file:
     /afs/slac.stanford.edu/u/if/mamunm/psp/gbrv1.5pbe/V.UPF
     MD5 check sum: 22b79981416ebb76fdaf5b1b8640f6fb
     Pseudo is Ultrasoft + core correction, Zval = 13.0
     Generated by new atomic code, or converted to UPF format
     Using radial grid of  853 points,  6 beta functions with:
                l(1) =   0
                l(2) =   0
                l(3) =   1
                l(4) =   1
                l(5) =   2
                l(6) =   2
     Q(r) pseudized with  8 coefficients,  rinner =    1.100   1.100   1.100
                                                       1.100   1.100

     PseudoPot. # 2 for Sn read from file:
     /afs/slac.stanford.edu/u/if/mamunm/psp/gbrv1.5pbe/Sn.UPF
     MD5 check sum: 469debedee59599fedebd795477fea03
     Pseudo is Ultrasoft + core correction, Zval = 14.0
     Generated by new atomic code, or converted to UPF format
     Using radial grid of  891 points,  6 beta functions with:
                l(1) =   0
                l(2) =   0
                l(3) =   1
                l(4) =   1
                l(5) =   2
                l(6) =   2
     Q(r) pseudized with  8 coefficients,  rinner =    1.350   1.350   1.350
                                                       1.350   1.350

     vdW kernel table read from file vdW_kernel_table
     MD5 check sum: 095c7af220d748ca6e76c0b4c6cfb241

     atomic species   valence    mass     pseudopotential
        V1            13.00    50.94150     V ( 1.00)
        Sn1           14.00   118.71000     Sn( 1.00)

     No symmetry found

   Cartesian axes

     site n.     atom                  positions (alat units)
         1           V1  tau(   1) = (   0.0000000   0.0000000  10.0000000  )
         2           V1  tau(   2) = (   4.0852695   2.6162273  10.0000000  )
         3           Sn1 tau(   3) = (   2.8803574   0.0000000  10.0000000  )
         4           Sn1 tau(   4) = (   1.2049121   2.6162273  10.0000000  )
         5           V1  tau(   5) = (   5.7607148   3.6891910  12.3860835  )
         6           V1  tau(   6) = (   1.6754453   1.0729637  12.3860835  )
         7           Sn1 tau(   7) = (   2.8803574   3.6891910  12.3860835  )
         8           Sn1 tau(   8) = (   4.5558027   1.0729637  12.3860835  )
         9           V1  tau(   9) = (   2.8064176   1.7972586  14.4698164  )
        10           V1  tau(  10) = (   6.8916774   4.4134675  14.4698791  )
        11           Sn1 tau(  11) = (   5.7869627   1.8616891  15.0659733  )
        12           Sn1 tau(  12) = (   4.1117676   4.4775383  15.0659515  )

     number of k points=    20  Fermi-Dirac smearing, width (Ry)=  0.0110
                       cart. coord. in units 2pi/alat
        k(    1) = (   0.0000000   0.0000000   0.0000000), wk =   0.0555556
        k(    2) = (   0.0000000   0.0318525   0.0000000), wk =   0.1111111
        k(    3) = (   0.0000000   0.0637050   0.0000000), wk =   0.1111111
        k(    4) = (   0.0000000  -0.0955574   0.0000000), wk =   0.0555556
        k(    5) = (   0.0289316  -0.0133245   0.0000000), wk =   0.1111111
        k(    6) = (   0.0289316   0.0185279   0.0000000), wk =   0.1111111
        k(    7) = (   0.0289316   0.0503804   0.0000000), wk =   0.1111111
        k(    8) = (   0.0289316  -0.1088820   0.0000000), wk =   0.1111111
        k(    9) = (   0.0289316  -0.0770295   0.0000000), wk =   0.1111111
        k(   10) = (   0.0289316  -0.0451770   0.0000000), wk =   0.1111111
        k(   11) = (   0.0578632  -0.0266491   0.0000000), wk =   0.1111111
        k(   12) = (   0.0578632   0.0052034   0.0000000), wk =   0.1111111
        k(   13) = (   0.0578632   0.0370559   0.0000000), wk =   0.1111111
        k(   14) = (   0.0578632  -0.1222065   0.0000000), wk =   0.1111111
        k(   15) = (   0.0578632  -0.0903540   0.0000000), wk =   0.1111111
        k(   16) = (   0.0578632  -0.0585016   0.0000000), wk =   0.1111111
        k(   17) = (  -0.0867948   0.0399736   0.0000000), wk =   0.0555556
        k(   18) = (  -0.0867948   0.0718261   0.0000000), wk =   0.1111111
        k(   19) = (  -0.0867948   0.1036786   0.0000000), wk =   0.1111111
        k(   20) = (  -0.0867948  -0.0555838   0.0000000), wk =   0.0555556

     Largest allocated arrays     est. size (Mb)     dimensions
     Largest temporary arrays     est. size (Mb)     dimensions

     Check: negative/imaginary core charge=   -0.000001    0.000000

     Initial potential from superposition of free atoms
     Check: negative starting charge=   -0.006001

     starting charge  155.99236, renormalised to  162.00000

[...]

     *
     * You are using vdW-DF for exchange-correlation in this calculation.
     * Please cite the following three references that made this development
     * possible:
     *
     *   M. Dion, H. Rydberg, E. Schroder, D. C. Langreth, and
     *   B. I. Lundqvist, Phys. Rev. Lett. 92, 246401 (2004).
     *
     *   T. Thonhauser, V. R. Cooper, S. Li, A. Puzder, P. Hyldgaard, and
     *   D. C. Langreth, Phys. Rev. B 76, 125112 (2007).
     *
     *   G. Roman-Perez and J. M. Soler, Phys. Rev. Lett. 103, 096102 (2009).
     *
     *
     * If you are using vdW-DF2, please also cite:
     *
     *   K. Lee, E. D. Murray, L. Kong, B. I. Lundqvist, and
     *   D. C. Langreth, Phys. Rev. B 82, 081101(R) (2010).
     *
     *
     * If you are calculating the stress with vdW-DF, please also cite:
     *
     *   R. Sabatini, E. Kucukbenli, B. Kolb, T. Thonhauser, and
     *   S. de Gironcoli, J. Phys.: Condens. Matter 24, 424209 (2012).
     *

     Carrying out vdW-DF run using the following parameters:

     Nqs =      20    Nr_points =    1024   r_max =   100.000
     q_mesh =
               0.00001000     0.04494208     0.09755937     0.15916263
               0.23128650     0.31572767     0.41458969     0.53033537
               0.66584808     0.82450364     1.01025438     1.22772762
               1.48234092     1.78043706     2.12944203     2.53805004
               3.01644009     3.57652955     4.23227104     5.00000000

     Gradients computed in reciprocal space

[...]

     Starting wfc are  114 randomized atomic wfcs

     Self-consistent Calculation

[...]

     total energy              =   -1838.56977893 Ry
     Harris-Foulkes estimate   =   -1838.56977858 Ry
     estimated scf accuracy    <       0.00000106 Ry

     iteration # 24     ecut=    36.75 Ry     beta=0.10
     Davidson diagonalization with overlap
     ethr =  6.55E-10,  avg # of iterations =  2.0

[...]

     negative rho (up, down):  6.616E-03 0.000E+00

     Adding external electric field

     Computed dipole along edir(3) :
        Dipole                0.0421 Ry au,          0.1069 Debye
        Dipole field          0.0001 Ry au

        Potential amp.       -0.0096 Ry
        Total length         45.6423 bohr

     End of self-consistent calculation

[...]

          k = 0.0579-0.0585 0.0000 ( 18973 PWs)   bands (ev):

[...]

          k =-0.0868-0.0556 0.0000 ( 18930 PWs)   bands (ev):

   -63.1662 -63.1571 -63.0643 -63.0548 -62.9968 -62.9876 -37.0771 -37.0655
   -37.0198 -37.0064 -36.9995 -36.9694 -36.9540 -36.9422 -36.9367 -36.9315
   -36.9091 -36.8997 -36.8923 -36.8742 -36.8238 -36.7689 -36.5747 -36.5660
   -20.7184 -20.6309 -20.5688 -20.5678 -20.5571 -20.5214 -20.5184 -20.5130
   -20.4888 -20.4625 -20.4606 -20.3786 -20.3720 -20.3714 -20.3629 -20.3449
   -20.3218 -20.3062 -20.3046 -20.2957 -20.2680 -20.2330 -20.1962 -20.1912
   -20.1698 -20.1559 -20.1407 -20.1275 -20.1253 -20.0480  -8.3859  -7.5389
    -6.5892  -6.1150  -4.7390  -4.1420  -4.0421  -3.1306  -3.0476  -2.7099
    -2.1719  -2.1430  -1.6326  -0.9903  -0.8011  -0.6884  -0.3813  -0.3548
     0.1796   0.4108   0.4561   0.7333   0.9916   1.2581   1.3078   1.4098
     1.4375   1.4771   1.6292   1.7936   1.9001   1.9277   2.0930   2.1105
     2.1613   2.2288   2.3018   2.4585   2.6276   2.8976   3.0593   3.2369
     3.3362   3.4890   3.5646   4.0849   4.6643   4.6725   4.8406   5.4357
     5.4812   5.7084   5.9592   5.9733   6.0813   6.1061   6.3254

     the Fermi energy is     1.3411 ev

!    total energy              =   -1838.56977911 Ry
     Harris-Foulkes estimate   =   -1838.56977903 Ry
     estimated scf accuracy    <       0.00000068 Ry

     The total energy is the sum of the following terms:

     one-electron contribution =  -13004.15342401 Ry
     hartree contribution      =    6530.00931898 Ry
     xc contribution           =    -389.77472741 Ry
     ewald contribution        =    5025.44827090 Ry
     electric field correction =       0.00000441 Ry
     smearing contrib. (-TS)   =      -0.09922198 Ry

     convergence has been achieved in  24 iterations

 BEEF-vdW xc energy contributions
           1 :   -340.563084977612
           2 :    310.212919942353
           3 :   -259.221005257686
           4 :    202.398430507629
           5 :   -153.264410552216
           6 :    119.141383032410
           7 :   -99.8522848606591
           8 :    89.9955029862872
           9 :   -83.0162290112191
          10 :    74.6912006512126
          11 :   -64.4312225951332
          12 :    54.2677911416984
          13 :   -46.6675754200631
          14 :    42.6913732090856
          15 :   -41.4859720719492
          16 :    41.0991712343389
          17 :   -39.8321695979673
          18 :    37.1776802160551
          19 :   -33.8449108836578
          20 :    31.0288054160358
          21 :   -29.5254921045643
          22 :    29.2714736568186
          23 :   -29.5132514940857
          24 :    29.3803357717622
          25 :   -28.4342684045200
          26 :    26.8600469559398
          27 :   -25.2495982680315
          28 :    24.1757139817107
          29 :   -23.8449680229045
          30 :    24.0181031980450
          31 :   -31.4101846020566
          32 :   -22.8936943193262

     Forces acting on atoms (Ry/au):

     negative rho (up, down):  6.616E-03 0.000E+00
     atom    1 type  1   force =     0.00497951    0.00318935    0.03699931
     atom    2 type  1   force =     0.00498403    0.00319246    0.03701095
     atom    3 type  2   force =    -0.00478520   -0.00306900   -0.04687819
     atom    4 type  2   force =    -0.00479050   -0.00306228   -0.04687676
     atom    5 type  1   force =    -0.00330859   -0.00211895    0.02792466
     atom    6 type  1   force =    -0.00329623   -0.00211060    0.02794711
     atom    7 type  2   force =     0.00352208    0.00237205   -0.01827194
     atom    8 type  2   force =     0.00362863    0.00220568   -0.01827345
     atom    9 type  1   force =    -0.00009225   -0.00005837   -0.00018141
     atom   10 type  1   force =    -0.00004669   -0.00002883   -0.00024203
     atom   11 type  2   force =    -0.00037311   -0.00028985    0.00041891
     atom   12 type  2   force =    -0.00042168   -0.00022166    0.00042286

     Total force =     0.097799     Total SCF correction =     0.001994

     entering subroutine stress ...

     negative rho (up, down):  6.616E-03 0.000E+00
          total   stress  (Ry/bohr**3)                   (kbar)     P=  -13.34
  -0.00014482  -0.00001173  -0.00000064        -21.30     -1.73     -0.09
  -0.00001173  -0.00013402  -0.00000041         -1.73    -19.71     -0.06
  -0.00000064  -0.00000041   0.00000686         -0.09     -0.06      1.01

 !ASE

     Writing output data file calc.save

     General routines

     Parallel routines

   This run was terminated on:  11:15:58  19Dec2018

   JOB DONE.
Job  /afs/slac/g/suncat/bin/suncat-tsmpirun -x LD_LIBRARY_PATH -wdir /scratch/qe530775_4rLhV pw.x -in pw.inp

TID   HOST_NAME   COMMAND_LINE            STATUS            TERMINATION_TIME
00000 suncat2046 pw.x -in pw.inp   Done                     12/19/2018 11:15:58
00001 suncat2046 pw.x -in pw.inp   Done                     12/19/2018 11:15:58
00002 suncat2046 pw.x -in pw.inp   Done                     12/19/2018 11:15:58
00003 suncat2046 pw.x -in pw.inp   Done                     12/19/2018 11:15:58
00004 suncat2046 pw.x -in pw.inp   Done                     12/19/2018 11:15:58
00005 suncat2046 pw.x -in pw.inp   Done                     12/19/2018 11:15:58
00006 suncat2046 pw.x -in pw.inp   Done                     12/19/2018 11:15:58
00007 suncat2046 pw.x -in pw.inp   Done                     12/19/2018 11:15:58
00008 suncat2046 pw.x -in pw.inp   Done                     12/19/2018 11:15:58
00009 suncat2046 pw.x -in pw.inp   Done                     12/19/2018 11:15:58
00010 suncat2046 pw.x -in pw.inp   Done                     12/19/2018 11:15:58
00011 suncat2046 pw.x -in pw.inp   Done                     12/19/2018 11:15:58
00012 suncat2046 pw.x -in pw.inp   Done                     12/19/2018 11:15:58
00013 suncat2046 pw.x -in pw.inp   Done                     12/19/2018 11:15:58
00014 suncat2046 pw.x -in pw.inp   Done                     12/19/2018 11:15:58
00015 suncat2046 pw.x -in pw.inp   Done                     12/19/2018 11:15:58
00016 suncat2045 pw.x -in pw.inp   Done                     12/19/2018 11:15:58
00017 suncat2045 pw.x -in pw.inp   Done                     12/19/2018 11:15:58
00018 suncat2045 pw.x -in pw.inp   Done                     12/19/2018 11:15:58
00019 suncat2045 pw.x -in pw.inp   Done                     12/19/2018 11:15:58
00020 suncat2045 pw.x -in pw.inp   Done                     12/19/2018 11:15:58
00021 suncat2045 pw.x -in pw.inp   Done                     12/19/2018 11:15:58
00022 suncat2045 pw.x -in pw.inp   Done                     12/19/2018 11:15:58
00023 suncat2045 pw.x -in pw.inp   Done                     12/19/2018 11:15:58
00024 suncat2045 pw.x -in pw.inp   Done                     12/19/2018 11:15:58
00025 suncat2045 pw.x -in pw.inp   Done                     12/19/2018 11:15:58
00026 suncat2045 pw.x -in pw.inp   Done                     12/19/2018 11:15:58
00027 suncat2045 pw.x -in pw.inp   Done                     12/19/2018 11:15:58
00028 suncat2045 pw.x -in pw.inp   Done                     12/19/2018 11:15:58
00029 suncat2045 pw.x -in pw.inp   Done                     12/19/2018 11:15:58
00030 suncat2045 pw.x -in pw.inp   Done                     12/19/2018 11:15:58
00031 suncat2045 pw.x -in pw.inp   Done                     12/19/2018 11:15:58