     Program PWSCF v.5.1rc2 (svn rev. 11289) starts on  1Jan2019 at 23:31: 3

     Current dimensions of program PWSCF are:
     Max number of different atomic species (ntypx) = 10
     Max number of k-points (npk) =  40000
     Max angular momentum in pseudopotentials (lmaxx) =  3
     Presently stress not available with electric field

     IMPORTANT: XC functional enforced from input :
     Exchange-correlation      = BEEF-VDW ( 1  4 27 13 2)
     Any further DFT definition will be discarded
     Please, verify this is what you really want

     Subspace diagonalization in iterative solution of the eigenvalue problem:
     a serial algorithm will be used

     bravais-lattice index     =            0
     lattice parameter (alat)  =       1.8897  a.u.
     unit-cell volume          =    4678.1958 (a.u.)^3
     number of atoms/cell      =           12
     number of atomic types    =            2
     number of electrons       =       153.00
     number of Kohn-Sham states=          106
     kinetic-energy cutoff     =      36.7493  Ry
     charge density cutoff     =     367.4932  Ry
     convergence threshold     =      1.0E-06
     mixing beta               =       0.1000
     number of iterations used =           10  plain     mixing
     Exchange-correlation      = BEEF-VDW ( 1  4 27 13 2)
     nstep                     =           50

     celldm(1)=   1.889726  celldm(2)=   0.000000  celldm(3)=   0.000000
     celldm(4)=   0.000000  celldm(5)=   0.000000  celldm(6)=   0.000000

     crystal axes: (cart. coord. in units of alat)
               a(1) = (   5.698282   0.000000   0.000000 )
               a(2) = (  -2.849141   4.934857   0.000000 )
               a(3) = (   0.000000   0.000000  24.652628 )

     reciprocal axes: (cart. coord. in units 2 pi/alat)
               b(1) = (  0.175491  0.101320  0.000000 )
               b(2) = (  0.000000  0.202640  0.000000 )
               b(3) = (  0.000000  0.000000  0.040564 )

     PseudoPot. # 1 for Ti read from file:
     /afs/slac.stanford.edu/u/if/mamunm/psp/gbrv1.5pbe/Ti.UPF
     MD5 check sum: 88a00a6731bd790ddea75d31a80cb452
     Pseudo is Ultrasoft + core correction, Zval = 12.0
     Generated by new atomic code, or converted to UPF format
     Using radial grid of  851 points,  6 beta functions with:
                l(1) =   0
                l(2) =   0
                l(3) =   1
                l(4) =   1
                l(5) =   2
                l(6) =   2
     Q(r) pseudized with  6 coefficients,  rinner =    1.000   1.000   1.000
                                                       1.000   1.000

     PseudoPot. # 2 for Re read from file:
     /afs/slac.stanford.edu/u/if/mamunm/psp/gbrv1.5pbe/Re.UPF
     MD5 check sum: 85f993410f3e006da9d71c142b4ad953
     Pseudo is Ultrasoft + core correction, Zval = 15.0
     Generated by new atomic code, or converted to UPF format
     Using radial grid of  981 points,  8 beta functions with:
                l(1) =   0
                l(2) =   0
                l(3) =   1
                l(4) =   1
                l(5) =   2
                l(6) =   2
                l(7) =   3
                l(8) =   3
     Q(r) pseudized with  8 coefficients,  rinner =    1.150   1.150   1.150
                                                       1.150   1.150   1.150
                                                       1.150

     vdW kernel table read from file vdW_kernel_table
     MD5 check sum: 095c7af220d748ca6e76c0b4c6cfb241

     atomic species   valence    mass     pseudopotential
        Ti1           12.00    47.86700     Ti( 1.00)
        Re1           15.00   186.20700     Re( 1.00)

     No symmetry found

   Cartesian axes

     site n.     atom                  positions (alat units)
         1           Ti1 tau(   1) = (   0.0000000   0.0000000  10.0000000  )
         2           Ti1 tau(   2) = (  -1.4245706   2.4674287  10.0000000  )
         3           Ti1 tau(   3) = (   1.4245706   2.4674287  10.0000000  )
         4           Re1 tau(   4) = (   2.8491412   0.0000000  10.0000000  )
         5           Ti1 tau(   5) = (   2.8491412   1.6449524  12.3263141  )
         6           Ti1 tau(   6) = (   1.4245706   4.1123811  12.3263141  )
         7           Ti1 tau(   7) = (  -1.4245706   4.1123811  12.3263141  )
         8           Re1 tau(   8) = (   0.0000000   1.6449524  12.3263141  )
         9           Ti1 tau(   9) = (  -0.0000000   3.2899049  14.6526281  )
        10           Ti1 tau(  10) = (   1.4245706   0.8224762  14.6526281  )
        11           Ti1 tau(  11) = (   4.2737118   0.8224762  14.6526281  )
        12           Re1 tau(  12) = (   2.8491412   3.2899049  14.6526281  )

     number of k points=    20  Fermi-Dirac smearing, width (Ry)=  0.0110
                       cart. coord. in units 2pi/alat
        k(    1) = (   0.0000000   0.0000000   0.0000000), wk =   0.0555556
        k(    2) = (   0.0000000   0.0337734   0.0000000), wk =   0.1111111
        k(    3) = (   0.0000000   0.0675467   0.0000000), wk =   0.1111111
        k(    4) = (   0.0000000  -0.1013201   0.0000000), wk =   0.0555556
        k(    5) = (   0.0292486   0.0168867   0.0000000), wk =   0.1111111
        k(    6) = (   0.0292486   0.0506600   0.0000000), wk =   0.1111111
        k(    7) = (   0.0292486   0.0844334   0.0000000), wk =   0.1111111
        k(    8) = (   0.0292486  -0.0844334   0.0000000), wk =   0.1111111
        k(    9) = (   0.0292486  -0.0506600   0.0000000), wk =   0.1111111
        k(   10) = (   0.0292486  -0.0168867   0.0000000), wk =   0.1111111
        k(   11) = (   0.0584972   0.0337734   0.0000000), wk =   0.1111111
        k(   12) = (   0.0584972   0.0675467   0.0000000), wk =   0.1111111
        k(   13) = (   0.0584972   0.1013201   0.0000000), wk =   0.1111111
        k(   14) = (   0.0584972  -0.0675467   0.0000000), wk =   0.1111111
        k(   15) = (   0.0584972  -0.0337734   0.0000000), wk =   0.1111111
        k(   16) = (   0.0584972   0.0000000   0.0000000), wk =   0.1111111
        k(   17) = (  -0.0877457  -0.0506600   0.0000000), wk =   0.0555556
        k(   18) = (  -0.0877457  -0.0168867   0.0000000), wk =   0.1111111
        k(   19) = (  -0.0877457   0.0168867   0.0000000), wk =   0.1111111
        k(   20) = (  -0.0877457  -0.1519801   0.0000000), wk =   0.0555556

     Largest allocated arrays     est. size (Mb)     dimensions
     Largest temporary arrays     est. size (Mb)     dimensions

     Check: negative/imaginary core charge=   -0.000005    0.000000

     Initial potential from superposition of free atoms
     Check: negative starting charge=   -0.394274

     starting charge  142.49947, renormalised to  153.00000

     negative rho (up, down):  4.233E-01 0.000E+00

     *
     * You are using vdW-DF for exchange-correlation in this calculation.
     * Please cite the following three references that made this development
     * possible:
     *
     *   M. Dion, H. Rydberg, E. Schroder, D. C. Langreth, and
     *   B. I. Lundqvist, Phys. Rev. Lett. 92, 246401 (2004).
     *
     *   T. Thonhauser, V. R. Cooper, S. Li, A. Puzder, P. Hyldgaard, and
     *   D. C. Langreth, Phys. Rev. B 76, 125112 (2007).
     *
     *   G. Roman-Perez and J. M. Soler, Phys. Rev. Lett. 103, 096102 (2009).
     *
     *
     * If you are using vdW-DF2, please also cite:
     *
     *   K. Lee, E. D. Murray, L. Kong, B. I. Lundqvist, and
     *   D. C. Langreth, Phys. Rev. B 82, 081101(R) (2010).
     *
     *
     * If you are calculating the stress with vdW-DF, please also cite:
     *
     *   R. Sabatini, E. Kucukbenli, B. Kolb, T. Thonhauser, and
     *   S. de Gironcoli, J. Phys.: Condens. Matter 24, 424209 (2012).
     *

     Carrying out vdW-DF run using the following parameters:

     Nqs =      20    Nr_points =    1024   r_max =   100.000
     q_mesh =
               0.00001000     0.04494208     0.09755937     0.15916263
               0.23128650     0.31572767     0.41458969     0.53033537
               0.66584808     0.82450364     1.01025438     1.22772762
               1.48234092     1.78043706     2.12944203     2.53805004
               3.01644009     3.57652955     4.23227104     5.00000000

     Gradients computed in reciprocal space

     Adding external electric field

     Computed dipole along edir(3) :
        Dipole                0.0000 Ry au,          0.0000 Debye
        Dipole field          0.0000 Ry au

        Potential amp.       -0.0000 Ry
        Total length         45.4220 bohr

     Starting wfc are  129 randomized atomic wfcs

     Self-consistent Calculation

     iteration #  1     ecut=    36.75 Ry     beta=0.10
     Davidson diagonalization with overlap
     ethr =  1.00E-02,  avg # of iterations =  3.1

[...]

     total energy              =   -1655.89464694 Ry
     Harris-Foulkes estimate   =   -1658.28092695 Ry
     estimated scf accuracy    <      14.00164638 Ry

[...]

     End of self-consistent calculation

          k = 0.0000 0.0000 0.0000 ( 17663 PWs)   bands (ev):

   -78.7730 -78.5528 -78.5524 -55.8117 -55.8004 -55.7282 -55.7281 -55.7253
   -55.7252 -55.6901 -55.6234 -55.6234 -40.4672 -40.4672 -40.4533 -40.2641
   -40.2602 -40.2499 -40.2499 -40.2489 -40.2489 -32.3308 -32.2753 -32.2142
   -32.1448 -32.1447 -32.1425 -32.1063 -32.1063 -32.0806 -32.0713 -32.0712
   -32.0117 -32.0116 -31.9091 -31.9090 -31.8389 -31.8086 -31.7876 -31.7708
   -31.7708 -31.7290 -31.7290 -31.7236 -31.7236 -31.6860 -31.6528 -31.6528
    -5.0768  -3.6286  -2.6164  -2.1432  -2.1432  -1.8616  -1.8616  -1.8378
    -1.4901  -1.3917  -1.3917  -1.2555  -1.2555  -1.1172  -0.9493  -0.4542
    -0.4542   0.0672   0.4661   0.5347   0.5347   0.8148   1.2348   1.3101
     1.4044   1.6901   1.6901   1.7101   1.7101   1.7673   1.8084   1.8084
     1.8514   1.8515   1.9441   1.9441   2.1070   2.2200   2.3549   2.3549
     2.8967   2.8967   3.0000   3.1270   3.1271   3.1710   3.4188   3.4188
     3.6623   3.6623   3.7135   3.8926   3.8927   4.2665   4.2666   4.3353
     4.4299   4.4299

[...]

          k =-0.0877-0.0507 0.0000 ( 17564 PWs)   bands (ev):

[...]

     the Fermi energy is     1.2740 ev

!    total energy              =   -1655.37531234 Ry
     Harris-Foulkes estimate   =   -1655.37531052 Ry
     estimated scf accuracy    <       0.00000091 Ry

     The total energy is the sum of the following terms:

     one-electron contribution =  -12464.62792000 Ry
     hartree contribution      =    6217.09746977 Ry
     xc contribution           =    -330.72585304 Ry
     ewald contribution        =    4923.00585152 Ry
     electric field correction =       0.00000002 Ry
     smearing contrib. (-TS)   =      -0.12486061 Ry

     convergence has been achieved in  20 iterations

 BEEF-vdW xc energy contributions
           1 :   -288.931871793234
           2 :    263.298215334894
           3 :   -219.617491648231
           4 :    169.403523471490
           5 :   -123.160588303901
           6 :    86.7957668291405
           7 :   -60.9104917477054
           8 :    42.6088777117587
           9 :   -28.2621998676390
          10 :    15.5636822106437
          11 :   -4.07735294887487
[...]
     MD5 check sum: 88a00a6731bd790ddea75d31a80cb452
     Pseudo is Ultrasoft + core correction, Zval = 12.0
     Generated by new atomic code, or converted to UPF format
     Using radial grid of  851 points,  6 beta functions with:
                l(1) =   0
                l(2) =   0
                l(3) =   1
                l(4) =   1
                l(5) =   2
                l(6) =   2
     Q(r) pseudized with  6 coefficients,  rinner =    1.000   1.000   1.000
                                                       1.000   1.000

     PseudoPot. # 2 for Re read from file:
     /afs/slac.stanford.edu/u/if/mamunm/psp/gbrv1.5pbe/Re.UPF
     MD5 check sum: 85f993410f3e006da9d71c142b4ad953
     Pseudo is Ultrasoft + core correction, Zval = 15.0
     Generated by new atomic code, or converted to UPF format
     Using radial grid of  981 points,  8 beta functions with:
                l(1) =   0
                l(2) =   0
                l(3) =   1
                l(4) =   1
                l(5) =   2
                l(6) =   2
                l(7) =   3
                l(8) =   3
     Q(r) pseudized with  8 coefficients,  rinner =    1.150   1.150   1.150
                                                       1.150   1.150   1.150
                                                       1.150

     vdW kernel table read from file vdW_kernel_table
     MD5 check sum: 095c7af220d748ca6e76c0b4c6cfb241

     atomic species   valence    mass     pseudopotential
        Ti1           12.00    47.86700     Ti( 1.00)
        Re1           15.00   186.20700     Re( 1.00)

     No symmetry found

   Cartesian axes

     site n.     atom                  positions (alat units)
         1           Ti1 tau(   1) = (   0.0000000   0.0000000  10.0000000  )
         2           Ti1 tau(   2) = (  -1.4245706   2.4674287  10.0000000  )
         3           Ti1 tau(   3) = (   1.4245706   2.4674287  10.0000000  )
         4           Re1 tau(   4) = (   2.8491412   0.0000000  10.0000000  )
         5           Ti1 tau(   5) = (   2.8491412   1.6449524  12.3263141  )
         6           Ti1 tau(   6) = (   1.4245706   4.1123811  12.3263141  )
         7           Ti1 tau(   7) = (  -1.4245706   4.1123811  12.3263141  )
         8           Re1 tau(   8) = (   0.0000000   1.6449524  12.3263141  )
         9           Ti1 tau(   9) = (  -0.0000045   3.2480780  14.6602596  )
        10           Ti1 tau(  10) = (   1.3883498   0.8433752  14.6602578  )
        11           Ti1 tau(  11) = (   4.3099290   0.8433793  14.6602634  )
        12           Re1 tau(  12) = (   2.8491101   3.2898966  14.3401057  )

     number of k points=    20  Fermi-Dirac smearing, width (Ry)=  0.0110
                       cart. coord. in units 2pi/alat
        k(    1) = (   0.0000000   0.0000000   0.0000000), wk =   0.0555556
        k(    2) = (   0.0000000   0.0337734   0.0000000), wk =   0.1111111
        k(    3) = (   0.0000000   0.0675467   0.0000000), wk =   0.1111111
        k(    4) = (   0.0000000  -0.1013201   0.0000000), wk =   0.0555556
        k(    5) = (   0.0292486   0.0168867   0.0000000), wk =   0.1111111
        k(    6) = (   0.0292486   0.0506600   0.0000000), wk =   0.1111111
        k(    7) = (   0.0292486   0.0844334   0.0000000), wk =   0.1111111
        k(    8) = (   0.0292486  -0.0844334   0.0000000), wk =   0.1111111
        k(    9) = (   0.0292486  -0.0506600   0.0000000), wk =   0.1111111
        k(   10) = (   0.0292486  -0.0168867   0.0000000), wk =   0.1111111
        k(   11) = (   0.0584972   0.0337734   0.0000000), wk =   0.1111111
        k(   12) = (   0.0584972   0.0675467   0.0000000), wk =   0.1111111
        k(   13) = (   0.0584972   0.1013201   0.0000000), wk =   0.1111111
        k(   14) = (   0.0584972  -0.0675467   0.0000000), wk =   0.1111111
        k(   15) = (   0.0584972  -0.0337734   0.0000000), wk =   0.1111111
        k(   16) = (   0.0584972   0.0000000   0.0000000), wk =   0.1111111
        k(   17) = (  -0.0877457  -0.0506600   0.0000000), wk =   0.0555556
        k(   18) = (  -0.0877457  -0.0168867   0.0000000), wk =   0.1111111
        k(   19) = (  -0.0877457   0.0168867   0.0000000), wk =   0.1111111
        k(   20) = (  -0.0877457  -0.1519801   0.0000000), wk =   0.0555556

     Largest allocated arrays     est. size (Mb)     dimensions
     Largest temporary arrays     est. size (Mb)     dimensions

     Check: negative/imaginary core charge=   -0.000005    0.000000

     Initial potential from superposition of free atoms
     Check: negative starting charge=   -0.395108

     starting charge  142.49947, renormalised to  153.00000

[...]

     *
     * You are using vdW-DF for exchange-correlation in this calculation.
     * Please cite the following three references that made this development
     * possible:
     *
     *   M. Dion, H. Rydberg, E. Schroder, D. C. Langreth, and
     *   B. I. Lundqvist, Phys. Rev. Lett. 92, 246401 (2004).
     *
     *   T. Thonhauser, V. R. Cooper, S. Li, A. Puzder, P. Hyldgaard, and
     *   D. C. Langreth, Phys. Rev. B 76, 125112 (2007).
     *
     *   G. Roman-Perez and J. M. Soler, Phys. Rev. Lett. 103, 096102 (2009).
     *
     *
     * If you are using vdW-DF2, please also cite:
     *
     *   K. Lee, E. D. Murray, L. Kong, B. I. Lundqvist, and
     *   D. C. Langreth, Phys. Rev. B 82, 081101(R) (2010).
     *
     *
     * If you are calculating the stress with vdW-DF, please also cite:
     *
     *   R. Sabatini, E. Kucukbenli, B. Kolb, T. Thonhauser, and
     *   S. de Gironcoli, J. Phys.: Condens. Matter 24, 424209 (2012).
     *

     Carrying out vdW-DF run using the following parameters:

     Nqs =      20    Nr_points =    1024   r_max =   100.000
     q_mesh =
               0.00001000     0.04494208     0.09755937     0.15916263
               0.23128650     0.31572767     0.41458969     0.53033537
               0.66584808     0.82450364     1.01025438     1.22772762
               1.48234092     1.78043706     2.12944203     2.53805004
               3.01644009     3.57652955     4.23227104     5.00000000

     Gradients computed in reciprocal space

[...]

     Starting wfc are  129 randomized atomic wfcs

     Self-consistent Calculation

[...]

     total energy              =   -1655.39784731 Ry
     Harris-Foulkes estimate   =   -1655.39784628 Ry
     estimated scf accuracy    <       0.00000167 Ry

     iteration # 20     ecut=    36.75 Ry     beta=0.10
     Davidson diagonalization with overlap
     ethr =  1.09E-09,  avg # of iterations =  2.5

[...]

     negative rho (up, down):  3.965E-01 0.000E+00

     Adding external electric field

     Computed dipole along edir(3) :
        Dipole                0.0794 Ry au,          0.2017 Debye
        Dipole field          0.0002 Ry au

        Potential amp.       -0.0194 Ry
        Total length         45.4220 bohr

     End of self-consistent calculation

[...]

          k = 0.0585 0.0000 0.0000 ( 17617 PWs)   bands (ev):

[...]

          k =-0.0877-0.1520 0.0000 ( 17564 PWs)   bands (ev):

   -78.7373 -78.4426 -78.4249 -55.7294 -55.6969 -55.6813 -55.6727 -55.6553
   -55.6292 -55.5204 -55.4975 -55.4733 -40.4298 -40.4261 -40.4186 -40.1634
   -40.1622 -40.1592 -40.1467 -40.1419 -40.1380 -32.1187 -32.0996 -32.0922
   -32.0553 -32.0196 -32.0112 -31.9738 -31.9631 -31.9553 -31.9394 -31.9086
   -31.8943 -31.8912 -31.8656 -31.8535 -31.8415 -31.8406 -31.7466 -31.6982
   -31.6963 -31.6820 -31.6593 -31.6568 -31.6418 -31.6295 -31.6211 -31.5205
    -3.6117  -3.2425  -2.3450  -1.7909  -1.5372  -1.5330  -1.2025  -1.1834
    -1.0304  -0.8287  -0.7731  -0.5681  -0.5431  -0.4435  -0.3671  -0.1253
    -0.0481  -0.0057   0.1151   0.3276   0.3588   0.4687   0.6565   0.6699
     0.7652   0.8997   1.0769   1.1736   1.2166   1.2293   1.3815   1.4061
     1.5032   1.6641   1.6899   1.7852   1.9763   1.9961   2.2272   2.2840
     2.4237   2.6298   2.7313   2.9008   2.9202   2.9892   3.0245   3.2111
     3.2709   3.3096   3.3293   3.3336   3.4136   3.4952   3.6181   3.6999
     3.9330   4.0163

     the Fermi energy is     1.3620 ev

!    total energy              =   -1655.39784921 Ry
     Harris-Foulkes estimate   =   -1655.39784757 Ry
     estimated scf accuracy    <       0.00000066 Ry

     The total energy is the sum of the following terms:

     one-electron contribution =  -12612.20313208 Ry
     hartree contribution      =    6291.37204902 Ry
     xc contribution           =    -330.89749912 Ry
     ewald contribution        =    4996.45255839 Ry
     electric field correction =       0.00001692 Ry
     smearing contrib. (-TS)   =      -0.12184235 Ry

     convergence has been achieved in  20 iterations

 BEEF-vdW xc energy contributions
           1 :   -289.311787251789
           2 :    263.730069697472
           3 :   -220.112119114255
           4 :    169.913152834055
           5 :   -123.597480779453
           6 :    87.0826921556910
           7 :   -61.0347771631021
           8 :    42.6384532364410
           9 :   -28.3040881592090
          10 :    15.6929182252684
          11 :   -4.29198326184661
          12 :   -5.26357615020368
          13 :    12.2997372318925
          14 :   -16.8289983919863
          15 :    19.5208636542920
          16 :   -21.1485208185238
          17 :    22.0604383825558
          18 :   -22.1128858162227
          19 :    21.0472026640165
          20 :   -18.9325067301289
          21 :    16.2733782173481
          22 :   -13.7078640834737
          23 :    11.5621635583797
          24 :   -9.63554118027298
          25 :    7.38483925592624
          26 :   -4.37250194373786
          27 :   0.646140568460225
          28 :    3.22036805786712
          29 :   -6.45222112381458
          30 :    8.52993118527672
          31 :   -27.3377523419433
          32 :   -19.7932445717020

     Forces acting on atoms (Ry/au):

     negative rho (up, down):  3.965E-01 0.000E+00
     atom    1 type  1   force =    -0.00000044    0.00993281   -0.00217035
     atom    2 type  1   force =     0.00859814   -0.00496370   -0.00217634
     atom    3 type  1   force =    -0.00860073   -0.00496488   -0.00217270
     atom    4 type  2   force =    -0.00000238   -0.00000041    0.04108383
     atom    5 type  1   force =     0.00000397   -0.01488157   -0.01378623
     atom    6 type  1   force =    -0.01289310    0.00744563   -0.01378388
     atom    7 type  1   force =     0.01289017    0.00743745   -0.01378336
     atom    8 type  2   force =     0.00002074   -0.00001365    0.00776115
     atom    9 type  1   force =    -0.00000397    0.00028679   -0.00008225
     atom   10 type  1   force =     0.00024686   -0.00014274   -0.00008195
     atom   11 type  1   force =    -0.00025094   -0.00014022   -0.00008128
     atom   12 type  2   force =    -0.00000832    0.00000450   -0.00072665

     Total force =     0.057390     Total SCF correction =     0.003102

     entering subroutine stress ...

     negative rho (up, down):  3.965E-01 0.000E+00
          total   stress  (Ry/bohr**3)                   (kbar)     P=  -14.57
  -0.00012761   0.00000000   0.00000000        -18.77      0.00      0.00
   0.00000000  -0.00012760  -0.00000000          0.00    -18.77     -0.00
   0.00000000  -0.00000000  -0.00004187          0.00     -0.00     -6.16

 !ASE

     Writing output data file calc.save

     General routines

     Parallel routines

   This run was terminated on:   0:51: 7   2Jan2019

   JOB DONE.
Job  /afs/slac/g/suncat/bin/suncat-tsmpirun -x LD_LIBRARY_PATH -wdir /scratch/qe649219_wG7Wv pw.x -in pw.inp

TID   HOST_NAME   COMMAND_LINE            STATUS            TERMINATION_TIME
00000 suncat0078 pw.x -in pw.inp   Done                     01/02/2019 00:51:07
00001 suncat0078 pw.x -in pw.inp   Done                     01/02/2019 00:51:07
00002 suncat0078 pw.x -in pw.inp   Done                     01/02/2019 00:51:07
00003 suncat0078 pw.x -in pw.inp   Done                     01/02/2019 00:51:07
00004 suncat0078 pw.x -in pw.inp   Done                     01/02/2019 00:51:07
00005 suncat0078 pw.x -in pw.inp   Done                     01/02/2019 00:51:07
00006 suncat0078 pw.x -in pw.inp   Done                     01/02/2019 00:51:07
00007 suncat0078 pw.x -in pw.inp   Done                     01/02/2019 00:51:07
00008 suncat0077 pw.x -in pw.inp   Done                     01/02/2019 00:51:07
00009 suncat0077 pw.x -in pw.inp   Done                     01/02/2019 00:51:07
00010 suncat0077 pw.x -in pw.inp   Done                     01/02/2019 00:51:07
00011 suncat0077 pw.x -in pw.inp   Done                     01/02/2019 00:51:07
00012 suncat0077 pw.x -in pw.inp   Done                     01/02/2019 00:51:07
00013 suncat0077 pw.x -in pw.inp   Done                     01/02/2019 00:51:07
00014 suncat0077 pw.x -in pw.inp   Done                     01/02/2019 00:51:07
00015 suncat0077 pw.x -in pw.inp   Done                     01/02/2019 00:51:07
00016 suncat0076 pw.x -in pw.inp   Done                     01/02/2019 00:51:07
00017 suncat0076 pw.x -in pw.inp   Done                     01/02/2019 00:51:07
00018 suncat0076 pw.x -in pw.inp   Done                     01/02/2019 00:51:07
00019 suncat0076 pw.x -in pw.inp   Done                     01/02/2019 00:51:07
00020 suncat0076 pw.x -in pw.inp   Done                     01/02/2019 00:51:07
00021 suncat0076 pw.x -in pw.inp   Done                     01/02/2019 00:51:07
00022 suncat0076 pw.x -in pw.inp   Done                     01/02/2019 00:51:07
00023 suncat0076 pw.x -in pw.inp   Done                     01/02/2019 00:51:07
00024 suncat0074 pw.x -in pw.inp   Done                     01/02/2019 00:51:07
00025 suncat0074 pw.x -in pw.inp   Done                     01/02/2019 00:51:07
00026 suncat0074 pw.x -in pw.inp   Done                     01/02/2019 00:51:07
00027 suncat0074 pw.x -in pw.inp   Done                     01/02/2019 00:51:07
00028 suncat0074 pw.x -in pw.inp   Done                     01/02/2019 00:51:07
00029 suncat0074 pw.x -in pw.inp   Done                     01/02/2019 00:51:07
00030 suncat0074 pw.x -in pw.inp   Done                     01/02/2019 00:51:07
00031 suncat0074 pw.x -in pw.inp   Done                     01/02/2019 00:51:07
00032 suncat0073 pw.x -in pw.inp   Done                     01/02/2019 00:51:07
00033 suncat0073 pw.x -in pw.inp   Done                     01/02/2019 00:51:07
00034 suncat0073 pw.x -in pw.inp   Done                     01/02/2019 00:51:07
00035 suncat0073 pw.x -in pw.inp   Done                     01/02/2019 00:51:07
00036 suncat0073 pw.x -in pw.inp   Done                     01/02/2019 00:51:07
00037 suncat0073 pw.x -in pw.inp   Done                     01/02/2019 00:51:07
00038 suncat0073 pw.x -in pw.inp   Done                     01/02/2019 00:51:07
00039 suncat0073 pw.x -in pw.inp   Done                     01/02/2019 00:51:07
00040 suncat0069 pw.x -in pw.inp   Done                     01/02/2019 00:51:07
00041 suncat0069 pw.x -in pw.inp   Done                     01/02/2019 00:51:07
00042 suncat0069 pw.x -in pw.inp   Done                     01/02/2019 00:51:07
00043 suncat0069 pw.x -in pw.inp   Done                     01/02/2019 00:51:07
00044 suncat0069 pw.x -in pw.inp   Done                     01/02/2019 00:51:07
00045 suncat0069 pw.x -in pw.inp   Done                     01/02/2019 00:51:07
00046 suncat0069 pw.x -in pw.inp   Done                     01/02/2019 00:51:07
00047 suncat0069 pw.x -in pw.inp   Done                     01/02/2019 00:51:07
00048 suncat0217 pw.x -in pw.inp   Done                     01/02/2019 00:51:07
00049 suncat0217 pw.x -in pw.inp   Done                     01/02/2019 00:51:07
00050 suncat0217 pw.x -in pw.inp   Done                     01/02/2019 00:51:07
00051 suncat0217 pw.x -in pw.inp   Done                     01/02/2019 00:51:07
00052 suncat0217 pw.x -in pw.inp   Done                     01/02/2019 00:51:07
00053 suncat0217 pw.x -in pw.inp   Done                     01/02/2019 00:51:07
00054 suncat0217 pw.x -in pw.inp   Done                     01/02/2019 00:51:07
00055 suncat0217 pw.x -in pw.inp   Done                     01/02/2019 00:51:07
00056 suncat0216 pw.x -in pw.inp   Done                     01/02/2019 00:51:07
00057 suncat0216 pw.x -in pw.inp   Done                     01/02/2019 00:51:07
00058 suncat0216 pw.x -in pw.inp   Done                     01/02/2019 00:51:07
00059 suncat0216 pw.x -in pw.inp   Done                     01/02/2019 00:51:07
00060 suncat0216 pw.x -in pw.inp   Done                     01/02/2019 00:51:07
00061 suncat0216 pw.x -in pw.inp   Done                     01/02/2019 00:51:07
00062 suncat0216 pw.x -in pw.inp   Done                     01/02/2019 00:51:07
00063 suncat0216 pw.x -in pw.inp   Done                     01/02/2019 00:51:07