     Program PWSCF v.5.1rc2 (svn rev. 11289) starts on  3Jan2019 at  0:15:20

     Current dimensions of program PWSCF are:
     Max number of different atomic species (ntypx) = 10
     Max number of k-points (npk) =  40000
     Max angular momentum in pseudopotentials (lmaxx) =  3
     Presently stress not available with electric field

     IMPORTANT: XC functional enforced from input :
     Exchange-correlation      = BEEF-VDW ( 1  4 27 13 2)
     Any further DFT definition will be discarded
     Please, verify this is what you really want

     Subspace diagonalization in iterative solution of the eigenvalue problem:
     a serial algorithm will be used

     Generating pointlists ...
     new r_m :   0.4125 (alat units)  0.7795 (a.u.) for type    1
     new r_m :   0.4125 (alat units)  0.7795 (a.u.) for type    2

     bravais-lattice index     =            0
     lattice parameter (alat)  =       1.8897  a.u.
     unit-cell volume          =    5390.3828 (a.u.)^3
     number of atoms/cell      =           12
     number of atomic types    =            2
     number of electrons       =       159.00
     number of Kohn-Sham states=          109
     kinetic-energy cutoff     =      36.7493  Ry
     charge density cutoff     =     367.4932  Ry
     convergence threshold     =      1.0E-06
     mixing beta               =       0.1000
     number of iterations used =           10  plain     mixing
     Exchange-correlation      = BEEF-VDW ( 1  4 27 13 2)
     nstep                     =           50

     celldm(1)=   1.889726  celldm(2)=   0.000000  celldm(3)=   0.000000
     celldm(4)=   0.000000  celldm(5)=   0.000000  celldm(6)=   0.000000

     crystal axes: (cart. coord. in units of alat)
               a(1) = (   6.078509   0.000000   0.000000 )
               a(2) = (  -3.039255   5.264143   0.000000 )
               a(3) = (   0.000000   0.000000  24.963082 )

     reciprocal axes: (cart. coord. in units 2 pi/alat)
               b(1) = (  0.164514  0.094982  0.000000 )
               b(2) = (  0.000000  0.189964  0.000000 )
               b(3) = (  0.000000  0.000000  0.040059 )

     PseudoPot. # 1 for Hg read from file:
     /afs/slac.stanford.edu/u/if/mamunm/psp/gbrv1.5pbe/Hg.UPF
     MD5 check sum: 8f42caffe07f7fd9c0a564347f8c5498
     Pseudo is Ultrasoft + core correction, Zval = 12.0
     Generated by new atomic code, or converted to UPF format
     Using radial grid of  985 points,  6 beta functions with:
                l(1) =   0
                l(2) =   0
                l(3) =   1
                l(4) =   1
                l(5) =   2
                l(6) =   2
     Q(r) pseudized with  8 coefficients,  rinner =    2.000   2.000   2.000
                                                       2.000   2.000

     PseudoPot. # 2 for Co read from file:
     /afs/slac.stanford.edu/u/if/mamunm/psp/gbrv1.5pbe/Co.UPF
     MD5 check sum: 5f91765df6ddd3222702df6e7b74a16d
     Pseudo is Ultrasoft + core correction, Zval = 17.0
     Generated by new atomic code, or converted to UPF format
     Using radial grid of  863 points,  6 beta functions with:
                l(1) =   0
                l(2) =   0
                l(3) =   1
                l(4) =   1
                l(5) =   2
                l(6) =   2
     Q(r) pseudized with  8 coefficients,  rinner =    1.200   1.200   1.200
                                                       1.200   1.200

     vdW kernel table read from file vdW_kernel_table
     MD5 check sum: 095c7af220d748ca6e76c0b4c6cfb241

     atomic species   valence    mass     pseudopotential
        Hg1           12.00   200.59200     Hg( 1.00)
        Co1           17.00    58.93319     Co( 1.00)

     Starting magnetic structure
     atomic species   magnetization
        Hg1          0.167
        Co1          0.118

     No symmetry found

   Cartesian axes

     site n.     atom                  positions (alat units)
         1           Hg1 tau(   1) = (   0.0000000   0.0000000  10.0000000  )
         2           Hg1 tau(   2) = (  -1.5196273   2.6320717  10.0000000  )
         3           Hg1 tau(   3) = (   1.5196273   2.6320717  10.0000000  )
         4           Co1 tau(   4) = (   3.0392546   0.0000000  10.0000000  )
         5           Hg1 tau(   5) = (   3.0392546   1.7547145  12.4815410  )
         6           Hg1 tau(   6) = (   1.5196273   4.3867862  12.4815410  )
         7           Hg1 tau(   7) = (  -1.5196273   4.3867862  12.4815410  )
         8           Co1 tau(   8) = (   0.0000000   1.7547145  12.4815410  )
         9           Hg1 tau(   9) = (  -0.0000000   3.5094290  14.9630821  )
        10           Hg1 tau(  10) = (   1.5196273   0.8773572  14.9630821  )
        11           Hg1 tau(  11) = (   4.5588820   0.8773572  14.9630821  )
        12           Co1 tau(  12) = (   3.0392546   3.5094290  14.9630821  )

     number of k points=    40  Fermi-Dirac smearing, width (Ry)=  0.0110
                       cart. coord. in units 2pi/alat
        k(    1) = (   0.0000000   0.0000000   0.0000000), wk =   0.0277778
        k(    2) = (   0.0000000   0.0316607   0.0000000), wk =   0.0555556
        k(    3) = (   0.0000000   0.0633215   0.0000000), wk =   0.0555556
        k(    4) = (   0.0000000  -0.0949822   0.0000000), wk =   0.0277778
        k(    5) = (   0.0274190   0.0158304   0.0000000), wk =   0.0555556
        k(    6) = (   0.0274190   0.0474911   0.0000000), wk =   0.0555556
        k(    7) = (   0.0274190   0.0791518   0.0000000), wk =   0.0555556
        k(    8) = (   0.0274190  -0.0791518   0.0000000), wk =   0.0555556
        k(    9) = (   0.0274190  -0.0474911   0.0000000), wk =   0.0555556
        k(   10) = (   0.0274190  -0.0158304   0.0000000), wk =   0.0555556
        k(   11) = (   0.0548380   0.0316607   0.0000000), wk =   0.0555556
        k(   12) = (   0.0548380   0.0633215   0.0000000), wk =   0.0555556
        k(   13) = (   0.0548380   0.0949822   0.0000000), wk =   0.0555556
        k(   14) = (   0.0548380  -0.0633215   0.0000000), wk =   0.0555556
        k(   15) = (   0.0548380  -0.0316607   0.0000000), wk =   0.0555556
        k(   16) = (   0.0548380   0.0000000   0.0000000), wk =   0.0555556
        k(   17) = (  -0.0822570  -0.0474911   0.0000000), wk =   0.0277778
        k(   18) = (  -0.0822570  -0.0158304   0.0000000), wk =   0.0555556
        k(   19) = (  -0.0822570   0.0158304   0.0000000), wk =   0.0555556
        k(   20) = (  -0.0822570  -0.1424733   0.0000000), wk =   0.0277778
        k(   21) = (   0.0000000   0.0000000   0.0000000), wk =   0.0277778
        k(   22) = (   0.0000000   0.0316607   0.0000000), wk =   0.0555556
        k(   23) = (   0.0000000   0.0633215   0.0000000), wk =   0.0555556
        k(   24) = (   0.0000000  -0.0949822   0.0000000), wk =   0.0277778
        k(   25) = (   0.0274190   0.0158304   0.0000000), wk =   0.0555556
        k(   26) = (   0.0274190   0.0474911   0.0000000), wk =   0.0555556
        k(   27) = (   0.0274190   0.0791518   0.0000000), wk =   0.0555556
        k(   28) = (   0.0274190  -0.0791518   0.0000000), wk =   0.0555556
        k(   29) = (   0.0274190  -0.0474911   0.0000000), wk =   0.0555556
        k(   30) = (   0.0274190  -0.0158304   0.0000000), wk =   0.0555556
        k(   31) = (   0.0548380   0.0316607   0.0000000), wk =   0.0555556
        k(   32) = (   0.0548380   0.0633215   0.0000000), wk =   0.0555556
        k(   33) = (   0.0548380   0.0949822   0.0000000), wk =   0.0555556
        k(   34) = (   0.0548380  -0.0633215   0.0000000), wk =   0.0555556
        k(   35) = (   0.0548380  -0.0316607   0.0000000), wk =   0.0555556
        k(   36) = (   0.0548380   0.0000000   0.0000000), wk =   0.0555556
        k(   37) = (  -0.0822570  -0.0474911   0.0000000), wk =   0.0277778
        k(   38) = (  -0.0822570  -0.0158304   0.0000000), wk =   0.0555556
        k(   39) = (  -0.0822570   0.0158304   0.0000000), wk =   0.0555556
        k(   40) = (  -0.0822570  -0.1424733   0.0000000), wk =   0.0277778

     Largest allocated arrays     est. size (Mb)     dimensions
     Largest temporary arrays     est. size (Mb)     dimensions

     Check: negative/imaginary core charge=   -0.000002    0.000000

     Initial potential from superposition of free atoms
     Check: negative starting charge=(component1):   -0.000113

     starting charge  155.99945, renormalised to  159.00000

     negative rho (up, down):  1.151E-04 8.975E-05

     *
     * You are using vdW-DF for exchange-correlation in this calculation.
     * Please cite the following three references that made this development
     * possible:
     *
     *   M. Dion, H. Rydberg, E. Schroder, D. C. Langreth, and
     *   B. I. Lundqvist, Phys. Rev. Lett. 92, 246401 (2004).
     *
     *   T. Thonhauser, V. R. Cooper, S. Li, A. Puzder, P. Hyldgaard, and
     *   D. C. Langreth, Phys. Rev. B 76, 125112 (2007).
     *
     *   G. Roman-Perez and J. M. Soler, Phys. Rev. Lett. 103, 096102 (2009).
     *
     *
     * If you are using vdW-DF2, please also cite:
     *
     *   K. Lee, E. D. Murray, L. Kong, B. I. Lundqvist, and
     *   D. C. Langreth, Phys. Rev. B 82, 081101(R) (2010).
     *
     *
     * If you are calculating the stress with vdW-DF, please also cite:
     *
     *   R. Sabatini, E. Kucukbenli, B. Kolb, T. Thonhauser, and
     *   S. de Gironcoli, J. Phys.: Condens. Matter 24, 424209 (2012).
     *

     Carrying out vdW-DF run using the following parameters:

     Nqs =      20    Nr_points =    1024   r_max =   100.000
     q_mesh =
               0.00001000     0.04494208     0.09755937     0.15916263
               0.23128650     0.31572767     0.41458969     0.53033537
               0.66584808     0.82450364     1.01025438     1.22772762
               1.48234092     1.78043706     2.12944203     2.53805004
               3.01644009     3.57652955     4.23227104     5.00000000

     Gradients computed in reciprocal space

     Adding external electric field

     Computed dipole along edir(3) :
        Dipole                0.0000 Ry au,          0.0000 Debye
        Dipole field          0.0000 Ry au

        Potential amp.       -0.0000 Ry
        Total length         45.9941 bohr

[...]

     Starting wfc are  120 randomized atomic wfcs

     Self-consistent Calculation

     iteration #  1     ecut=    36.75 Ry     beta=0.10
     Davidson diagonalization with overlap
     ethr =  1.00E-02,  avg # of iterations =  8.3

[...]

     Magnetic moment per site:
     atom:    1    charge:    1.9656    magn:    0.2988    constr:    0.0000
     atom:    2    charge:    1.9656    magn:    0.2988    constr:    0.0000
     atom:    3    charge:    1.9656    magn:    0.2988    constr:    0.0000
     atom:    4    charge:    8.4511    magn:    0.9318    constr:    0.0000
     atom:    5    charge:    1.9709    magn:    0.2994    constr:    0.0000
     atom:    6    charge:    1.9709    magn:    0.2994    constr:    0.0000
     atom:    7    charge:    1.9709    magn:    0.2994    constr:    0.0000
     atom:    8    charge:    8.4379    magn:    0.9535    constr:    0.0000
[...]
                       cart. coord. in units 2pi/alat
        k(    1) = (   0.0000000   0.0000000   0.0000000), wk =   0.0277778
        k(    2) = (   0.0000000   0.0316607   0.0000000), wk =   0.0555556
        k(    3) = (   0.0000000   0.0633215   0.0000000), wk =   0.0555556
        k(    4) = (   0.0000000  -0.0949822   0.0000000), wk =   0.0277778
        k(    5) = (   0.0274190   0.0158304   0.0000000), wk =   0.0555556
        k(    6) = (   0.0274190   0.0474911   0.0000000), wk =   0.0555556
        k(    7) = (   0.0274190   0.0791518   0.0000000), wk =   0.0555556
        k(    8) = (   0.0274190  -0.0791518   0.0000000), wk =   0.0555556
        k(    9) = (   0.0274190  -0.0474911   0.0000000), wk =   0.0555556
        k(   10) = (   0.0274190  -0.0158304   0.0000000), wk =   0.0555556
        k(   11) = (   0.0548380   0.0316607   0.0000000), wk =   0.0555556
        k(   12) = (   0.0548380   0.0633215   0.0000000), wk =   0.0555556
        k(   13) = (   0.0548380   0.0949822   0.0000000), wk =   0.0555556
        k(   14) = (   0.0548380  -0.0633215   0.0000000), wk =   0.0555556
        k(   15) = (   0.0548380  -0.0316607   0.0000000), wk =   0.0555556
        k(   16) = (   0.0548380   0.0000000   0.0000000), wk =   0.0555556
        k(   17) = (  -0.0822570  -0.0474911   0.0000000), wk =   0.0277778
        k(   18) = (  -0.0822570  -0.0158304   0.0000000), wk =   0.0555556
        k(   19) = (  -0.0822570   0.0158304   0.0000000), wk =   0.0555556
        k(   20) = (  -0.0822570  -0.1424733   0.0000000), wk =   0.0277778
        k(   21) = (   0.0000000   0.0000000   0.0000000), wk =   0.0277778
        k(   22) = (   0.0000000   0.0316607   0.0000000), wk =   0.0555556
        k(   23) = (   0.0000000   0.0633215   0.0000000), wk =   0.0555556
        k(   24) = (   0.0000000  -0.0949822   0.0000000), wk =   0.0277778
        k(   25) = (   0.0274190   0.0158304   0.0000000), wk =   0.0555556
        k(   26) = (   0.0274190   0.0474911   0.0000000), wk =   0.0555556
        k(   27) = (   0.0274190   0.0791518   0.0000000), wk =   0.0555556
        k(   28) = (   0.0274190  -0.0791518   0.0000000), wk =   0.0555556
        k(   29) = (   0.0274190  -0.0474911   0.0000000), wk =   0.0555556
        k(   30) = (   0.0274190  -0.0158304   0.0000000), wk =   0.0555556
        k(   31) = (   0.0548380   0.0316607   0.0000000), wk =   0.0555556
        k(   32) = (   0.0548380   0.0633215   0.0000000), wk =   0.0555556
        k(   33) = (   0.0548380   0.0949822   0.0000000), wk =   0.0555556
        k(   34) = (   0.0548380  -0.0633215   0.0000000), wk =   0.0555556
        k(   35) = (   0.0548380  -0.0316607   0.0000000), wk =   0.0555556
        k(   36) = (   0.0548380   0.0000000   0.0000000), wk =   0.0555556
        k(   37) = (  -0.0822570  -0.0474911   0.0000000), wk =   0.0277778
        k(   38) = (  -0.0822570  -0.0158304   0.0000000), wk =   0.0555556
        k(   39) = (  -0.0822570   0.0158304   0.0000000), wk =   0.0555556
        k(   40) = (  -0.0822570  -0.1424733   0.0000000), wk =   0.0277778

     Largest allocated arrays     est. size (Mb)     dimensions
     Largest temporary arrays     est. size (Mb)     dimensions

     Check: negative/imaginary core charge=   -0.000001    0.000000

     Initial potential from superposition of free atoms
     Check: negative starting charge=(component1):   -0.000108

     starting charge  155.99945, renormalised to  159.00000

[...]

     *
     * You are using vdW-DF for exchange-correlation in this calculation.
     * Please cite the following three references that made this development
     * possible:
     *
     *   M. Dion, H. Rydberg, E. Schroder, D. C. Langreth, and
     *   B. I. Lundqvist, Phys. Rev. Lett. 92, 246401 (2004).
     *
     *   T. Thonhauser, V. R. Cooper, S. Li, A. Puzder, P. Hyldgaard, and
     *   D. C. Langreth, Phys. Rev. B 76, 125112 (2007).
     *
     *   G. Roman-Perez and J. M. Soler, Phys. Rev. Lett. 103, 096102 (2009).
     *
     *
     * If you are using vdW-DF2, please also cite:
     *
     *   K. Lee, E. D. Murray, L. Kong, B. I. Lundqvist, and
     *   D. C. Langreth, Phys. Rev. B 82, 081101(R) (2010).
     *
     *
     * If you are calculating the stress with vdW-DF, please also cite:
     *
     *   R. Sabatini, E. Kucukbenli, B. Kolb, T. Thonhauser, and
     *   S. de Gironcoli, J. Phys.: Condens. Matter 24, 424209 (2012).
     *

     Carrying out vdW-DF run using the following parameters:

     Nqs =      20    Nr_points =    1024   r_max =   100.000
     q_mesh =
               0.00001000     0.04494208     0.09755937     0.15916263
               0.23128650     0.31572767     0.41458969     0.53033537
               0.66584808     0.82450364     1.01025438     1.22772762
               1.48234092     1.78043706     2.12944203     2.53805004
               3.01644009     3.57652955     4.23227104     5.00000000

     Gradients computed in reciprocal space

[...]

     Starting wfc are  120 randomized atomic wfcs

     Self-consistent Calculation

[...]

     total energy              =   -1880.12183674 Ry
     Harris-Foulkes estimate   =   -1880.12184682 Ry
     estimated scf accuracy    <       0.00000280 Ry

[...]

     iteration # 37     ecut=    36.75 Ry     beta=0.10
     Davidson diagonalization with overlap
     ethr =  1.65E-09,  avg # of iterations =  2.6

[...]

     negative rho (up, down):  3.173E-04 2.849E-04

[...]

     Adding external electric field

     Computed dipole along edir(3) :
        Dipole               -0.0026 Ry au,         -0.0065 Debye
        Dipole field         -0.0000 Ry au

        Potential amp.        0.0005 Ry
        Total length         45.9941 bohr

     Magnetic moment per site:
     atom:    1    charge:    1.9857    magn:   -0.0006    constr:    0.0000
     atom:    2    charge:    1.9857    magn:   -0.0006    constr:    0.0000
     atom:    3    charge:    1.9857    magn:   -0.0006    constr:    0.0000
     atom:    4    charge:    8.3105    magn:    0.9383    constr:    0.0000
     atom:    5    charge:    1.9946    magn:   -0.0006    constr:    0.0000
     atom:    6    charge:    1.9946    magn:   -0.0006    constr:    0.0000
     atom:    7    charge:    1.9946    magn:   -0.0006    constr:    0.0000
     atom:    8    charge:    8.3235    magn:    0.9227    constr:    0.0000
     atom:    9    charge:    1.9850    magn:   -0.0010    constr:    0.0000
     atom:   10    charge:    1.9850    magn:   -0.0010    constr:    0.0000
     atom:   11    charge:    1.9850    magn:   -0.0010    constr:    0.0000
     atom:   12    charge:    8.3037    magn:    0.9019    constr:    0.0000

     End of self-consistent calculation

 ------ SPIN UP ------------

[...]

 ------ SPIN DOWN ----------

[...]

          k = 0.0548 0.0000 0.0000 ( 20299 PWs)   bands (ev):

[...]

          k =-0.0823-0.1425 0.0000 ( 20300 PWs)   bands (ev):

   -92.8219 -92.8179 -92.7900 -56.2270 -56.2266 -56.2266 -56.1949 -56.1949
   -56.1924 -56.1840 -56.1683 -56.1683  -7.7589  -7.5068  -7.4084  -7.2801
    -7.2072  -7.1684  -7.1091  -7.0493  -7.0459  -7.0347  -6.9276  -6.9040
    -6.8915  -6.7464  -6.7186  -6.6745  -6.6371  -6.5964  -6.5539  -6.4896
    -6.4336  -6.4209  -6.3243  -6.3102  -6.2978  -6.2740  -6.2715  -6.2486
    -6.2454  -6.2082  -6.1826  -6.1460  -6.1447  -6.1022  -6.0863  -6.0860
    -6.0421  -5.9548  -5.9307  -5.9206  -5.8228  -5.7582  -5.7193  -5.6879
    -5.6626  -5.4815  -5.3697  -4.4734  -4.2922  -3.1872  -2.4697  -2.4135
    -1.3591  -1.2722  -0.6095  -0.2125  -0.0518   0.1471   0.2143   0.2353
     0.3277   0.3586   0.3930   0.4706   0.5796   0.7275   0.8498   0.9555
     1.1205   1.2206   1.4230   2.0135   2.1897   2.5000   3.8981   4.1458
     4.2983   4.3763   4.5785   4.8283   4.8766   5.3920   5.6370   5.6859
     5.7263   5.9085   6.1264   6.1553   6.6139   6.8981   6.9596   7.0215
     7.0986   7.1042   7.1667   7.4333   7.7000

     the Fermi energy is     0.6800 ev

!    total energy              =   -1880.12185489 Ry
     Harris-Foulkes estimate   =   -1880.12185200 Ry
     estimated scf accuracy    <       0.00000092 Ry

     The total energy is the sum of the following terms:

     one-electron contribution =  -11598.88186573 Ry
     hartree contribution      =    5870.26727259 Ry
     xc contribution           =    -465.31883148 Ry
     ewald contribution        =    4313.87850558 Ry
     electric field correction =       0.00000002 Ry
     smearing contrib. (-TS)   =      -0.06693586 Ry

     total magnetization       =     5.21 Bohr mag/cell
     absolute magnetization    =     6.10 Bohr mag/cell

     convergence has been achieved in  37 iterations

 BEEF-vdW xc energy contributions
           1 :   -408.352752985739
           2 :    374.396602549468
           3 :   -315.834072033236
           4 :    247.210496504452
           5 :   -182.568476230969
           6 :    130.979522574619
           7 :   -94.9432796808366
           8 :    71.6723903116586
           9 :   -56.0522249926835
          10 :    43.5602274276633
          11 :   -31.8788746177705
          12 :    20.8755021496110
          13 :   -11.5333387814562
          14 :    4.74378930281262
          15 :  -0.637747670572139
          16 :   -1.40859360149727
          17 :    2.34797951401276
          18 :   -2.99242595794846
          19 :    3.73545311401722
          20 :   -4.53961907880574
          21 :    5.12080606600750
          22 :   -5.21320467700775
          23 :    4.77911535789190
          24 :   -4.07419536975613
          25 :    3.53383993837423
          26 :   -3.54272443053156
          27 :    4.20434594557173
          28 :   -5.25081261078185
          29 :    6.15831972209367
          30 :   -6.42575502274445
          31 :   -37.1765255900527
          32 :   -27.0054452261072

     Forces acting on atoms (Ry/au):

     negative rho (up, down):  3.173E-04 2.849E-04
     atom    1 type  1   force =     0.00000001    0.01025359   -0.02911197
     atom    2 type  1   force =     0.00887998   -0.00512718   -0.02911221
     atom    3 type  1   force =    -0.00887984   -0.00512683   -0.02911217
     atom    4 type  2   force =     0.00000035    0.00000049    0.02972747
     atom    5 type  1   force =     0.00000047   -0.01836097    0.01682158
     atom    6 type  1   force =    -0.01590068    0.00918043    0.01682169
     atom    7 type  1   force =     0.01590077    0.00918021    0.01682124
     atom    8 type  2   force =    -0.00000058    0.00000078    0.00088173
     atom    9 type  1   force =    -0.00000002    0.00022872    0.00147364
     atom   10 type  1   force =     0.00019811   -0.00011437    0.00147343
     atom   11 type  1   force =    -0.00019814   -0.00011490    0.00147363
     atom   12 type  2   force =    -0.00000043    0.00000001    0.00184195

     Total force =     0.074918     Total SCF correction =     0.002712

     entering subroutine stress ...

     negative rho (up, down):  3.173E-04 2.849E-04
          total   stress  (Ry/bohr**3)                   (kbar)     P=   -0.31
  -0.00002640   0.00000000  -0.00000000         -3.88      0.00     -0.00
   0.00000000  -0.00002640  -0.00000000          0.00     -3.88     -0.00
  -0.00000000  -0.00000000   0.00004654         -0.00     -0.00      6.85

 !ASE

     Writing output data file calc.save

     General routines

     Parallel routines

   This run was terminated on:   5:23:43   3Jan2019

   JOB DONE.
Job  /afs/slac/g/suncat/bin/suncat-tsmpirun -x LD_LIBRARY_PATH -wdir /scratch/qe888980_zc4rp pw.x -in pw.inp

TID   HOST_NAME   COMMAND_LINE            STATUS            TERMINATION_TIME
00000 suncat0077 pw.x -in pw.inp   Done                     01/03/2019 05:23:43
00001 suncat0077 pw.x -in pw.inp   Done                     01/03/2019 05:23:43
00002 suncat0077 pw.x -in pw.inp   Done                     01/03/2019 05:23:43
00003 suncat0077 pw.x -in pw.inp   Done                     01/03/2019 05:23:43
00004 suncat0077 pw.x -in pw.inp   Done                     01/03/2019 05:23:43
00005 suncat0077 pw.x -in pw.inp   Done                     01/03/2019 05:23:43
00006 suncat0077 pw.x -in pw.inp   Done                     01/03/2019 05:23:43
00007 suncat0077 pw.x -in pw.inp   Done                     01/03/2019 05:23:43
00008 suncat0068 pw.x -in pw.inp   Done                     01/03/2019 05:23:43
00009 suncat0068 pw.x -in pw.inp   Done                     01/03/2019 05:23:43
00010 suncat0068 pw.x -in pw.inp   Done                     01/03/2019 05:23:43
00011 suncat0068 pw.x -in pw.inp   Done                     01/03/2019 05:23:43
00012 suncat0068 pw.x -in pw.inp   Done                     01/03/2019 05:23:43
00013 suncat0068 pw.x -in pw.inp   Done                     01/03/2019 05:23:43
00014 suncat0068 pw.x -in pw.inp   Done                     01/03/2019 05:23:43
00015 suncat0068 pw.x -in pw.inp   Done                     01/03/2019 05:23:43
00016 suncat0065 pw.x -in pw.inp   Done                     01/03/2019 05:23:43
00017 suncat0065 pw.x -in pw.inp   Done                     01/03/2019 05:23:43
00018 suncat0065 pw.x -in pw.inp   Done                     01/03/2019 05:23:43
00019 suncat0065 pw.x -in pw.inp   Done                     01/03/2019 05:23:43
00020 suncat0065 pw.x -in pw.inp   Done                     01/03/2019 05:23:43
00021 suncat0065 pw.x -in pw.inp   Done                     01/03/2019 05:23:43
00022 suncat0065 pw.x -in pw.inp   Done                     01/03/2019 05:23:43
00023 suncat0065 pw.x -in pw.inp   Done                     01/03/2019 05:23:43
00024 suncat0064 pw.x -in pw.inp   Done                     01/03/2019 05:23:43
00025 suncat0064 pw.x -in pw.inp   Done                     01/03/2019 05:23:43
00026 suncat0064 pw.x -in pw.inp   Done                     01/03/2019 05:23:43
00027 suncat0064 pw.x -in pw.inp   Done                     01/03/2019 05:23:43
00028 suncat0064 pw.x -in pw.inp   Done                     01/03/2019 05:23:43
00029 suncat0064 pw.x -in pw.inp   Done                     01/03/2019 05:23:43
00030 suncat0064 pw.x -in pw.inp   Done                     01/03/2019 05:23:43
00031 suncat0064 pw.x -in pw.inp   Done                     01/03/2019 05:23:43
00032 suncat0029 pw.x -in pw.inp   Done                     01/03/2019 05:23:43
00033 suncat0029 pw.x -in pw.inp   Done                     01/03/2019 05:23:43
00034 suncat0029 pw.x -in pw.inp   Done                     01/03/2019 05:23:43
00035 suncat0029 pw.x -in pw.inp   Done                     01/03/2019 05:23:43
00036 suncat0029 pw.x -in pw.inp   Done                     01/03/2019 05:23:43
00037 suncat0029 pw.x -in pw.inp   Done                     01/03/2019 05:23:43
00038 suncat0029 pw.x -in pw.inp   Done                     01/03/2019 05:23:43
00039 suncat0029 pw.x -in pw.inp   Done                     01/03/2019 05:23:43
00040 suncat0019 pw.x -in pw.inp   Done                     01/03/2019 05:23:43
00041 suncat0019 pw.x -in pw.inp   Done                     01/03/2019 05:23:43
00042 suncat0019 pw.x -in pw.inp   Done                     01/03/2019 05:23:43
00043 suncat0019 pw.x -in pw.inp   Done                     01/03/2019 05:23:43
00044 suncat0019 pw.x -in pw.inp   Done                     01/03/2019 05:23:43
00045 suncat0019 pw.x -in pw.inp   Done                     01/03/2019 05:23:43
00046 suncat0019 pw.x -in pw.inp   Done                     01/03/2019 05:23:43
00047 suncat0019 pw.x -in pw.inp   Done                     01/03/2019 05:23:43
00048 suncat0018 pw.x -in pw.inp   Done                     01/03/2019 05:23:43
00049 suncat0018 pw.x -in pw.inp   Done                     01/03/2019 05:23:43
00050 suncat0018 pw.x -in pw.inp   Done                     01/03/2019 05:23:43
00051 suncat0018 pw.x -in pw.inp   Done                     01/03/2019 05:23:43
00052 suncat0018 pw.x -in pw.inp   Done                     01/03/2019 05:23:43
00053 suncat0018 pw.x -in pw.inp   Done                     01/03/2019 05:23:43
00054 suncat0018 pw.x -in pw.inp   Done                     01/03/2019 05:23:43
00055 suncat0018 pw.x -in pw.inp   Done                     01/03/2019 05:23:43
00056 suncat0001 pw.x -in pw.inp   Done                     01/03/2019 05:23:43
00057 suncat0001 pw.x -in pw.inp   Done                     01/03/2019 05:23:43
00058 suncat0001 pw.x -in pw.inp   Done                     01/03/2019 05:23:43
00059 suncat0001 pw.x -in pw.inp   Done                     01/03/2019 05:23:43
00060 suncat0001 pw.x -in pw.inp   Done                     01/03/2019 05:23:43
00061 suncat0001 pw.x -in pw.inp   Done                     01/03/2019 05:23:43
00062 suncat0001 pw.x -in pw.inp   Done                     01/03/2019 05:23:43
00063 suncat0001 pw.x -in pw.inp   Done                     01/03/2019 05:23:43