     Program PWSCF v.5.1rc2 (svn rev. 11289) starts on 30Dec2018 at 21:18:55

     Current dimensions of program PWSCF are:
     Max number of different atomic species (ntypx) = 10
     Max number of k-points (npk) =  40000
     Max angular momentum in pseudopotentials (lmaxx) =  3
     Presently stress not available with electric field

     IMPORTANT: XC functional enforced from input :
     Exchange-correlation      = BEEF-VDW ( 1  4 27 13 2)
     Any further DFT definition will be discarded
     Please, verify this is what you really want

     Subspace diagonalization in iterative solution of the eigenvalue problem:
     a serial algorithm will be used

     bravais-lattice index     =            0
     lattice parameter (alat)  =       1.8897  a.u.
     unit-cell volume          =    5155.7097 (a.u.)^3
     number of atoms/cell      =           12
     number of atomic types    =            2
     number of electrons       =       153.00
     number of Kohn-Sham states=          106
     kinetic-energy cutoff     =      36.7493  Ry
     charge density cutoff     =     367.4932  Ry
     convergence threshold     =      1.0E-06
     mixing beta               =       0.1000
     number of iterations used =           10  plain     mixing
     Exchange-correlation      = BEEF-VDW ( 1  4 27 13 2)
     nstep                     =           50

     celldm(1)=   1.889726  celldm(2)=   0.000000  celldm(3)=   0.000000
     celldm(4)=   0.000000  celldm(5)=   0.000000  celldm(6)=   0.000000

     crystal axes: (cart. coord. in units of alat)
               a(1) = (   5.956608   0.000000   0.000000 )
               a(2) = (  -2.978304   5.158574   0.000000 )
               a(3) = (   0.000000   0.000000  24.863550 )

     reciprocal axes: (cart. coord. in units 2 pi/alat)
               b(1) = (  0.167881  0.096926  0.000000 )
               b(2) = (  0.000000  0.193852  0.000000 )
               b(3) = (  0.000000  0.000000  0.040220 )

     PseudoPot. # 1 for Nb read from file:
     /afs/slac.stanford.edu/u/if/mamunm/psp/gbrv1.5pbe/Nb.UPF
     MD5 check sum: 573aab8a2fa660278ed4a62cd769473f
     Pseudo is Ultrasoft + core correction, Zval = 13.0
     Generated by new atomic code, or converted to UPF format
     Using radial grid of  887 points,  6 beta functions with:
                l(1) =   0
                l(2) =   0
                l(3) =   1
                l(4) =   1
                l(5) =   2
                l(6) =   2
     Q(r) pseudized with  6 coefficients,  rinner =    1.000   1.000   1.000
                                                       1.000   1.000

     PseudoPot. # 2 for Hg read from file:
     /afs/slac.stanford.edu/u/if/mamunm/psp/gbrv1.5pbe/Hg.UPF
     MD5 check sum: 8f42caffe07f7fd9c0a564347f8c5498
     Pseudo is Ultrasoft + core correction, Zval = 12.0
     Generated by new atomic code, or converted to UPF format
     Using radial grid of  985 points,  6 beta functions with:
                l(1) =   0
                l(2) =   0
                l(3) =   1
                l(4) =   1
                l(5) =   2
                l(6) =   2
     Q(r) pseudized with  8 coefficients,  rinner =    2.000   2.000   2.000
                                                       2.000   2.000

     vdW kernel table read from file vdW_kernel_table
     MD5 check sum: 095c7af220d748ca6e76c0b4c6cfb241

     atomic species   valence    mass     pseudopotential
        Nb1           13.00    92.90637     Nb( 1.00)
        Hg1           12.00   200.59200     Hg( 1.00)

     No symmetry found

   Cartesian axes

     site n.     atom                  positions (alat units)
         1           Nb1 tau(   1) = (   0.0000000   0.0000000  10.0000000  )
         2           Nb1 tau(   2) = (  -1.4891521   2.5792870  10.0000000  )
         3           Nb1 tau(   3) = (   1.4891521   2.5792870  10.0000000  )
         4           Hg1 tau(   4) = (   2.9783041   0.0000000  10.0000000  )
         5           Nb1 tau(   5) = (   2.9783041   1.7195247  12.4317751  )
         6           Nb1 tau(   6) = (   1.4891521   4.2988117  12.4317751  )
         7           Nb1 tau(   7) = (  -1.4891521   4.2988117  12.4317751  )
         8           Hg1 tau(   8) = (   0.0000000   1.7195247  12.4317751  )
         9           Nb1 tau(   9) = (  -0.0000000   3.4390494  14.8635503  )
        10           Nb1 tau(  10) = (   1.4891521   0.8597623  14.8635503  )
        11           Nb1 tau(  11) = (   4.4674562   0.8597623  14.8635503  )
        12           Hg1 tau(  12) = (   2.9783041   3.4390494  14.8635503  )

     number of k points=    20  Fermi-Dirac smearing, width (Ry)=  0.0110
                       cart. coord. in units 2pi/alat
        k(    1) = (   0.0000000   0.0000000   0.0000000), wk =   0.0555556
        k(    2) = (   0.0000000   0.0323087   0.0000000), wk =   0.1111111
        k(    3) = (   0.0000000   0.0646173   0.0000000), wk =   0.1111111
        k(    4) = (   0.0000000  -0.0969260   0.0000000), wk =   0.0555556
        k(    5) = (   0.0279801   0.0161543   0.0000000), wk =   0.1111111
        k(    6) = (   0.0279801   0.0484630   0.0000000), wk =   0.1111111
        k(    7) = (   0.0279801   0.0807717   0.0000000), wk =   0.1111111
        k(    8) = (   0.0279801  -0.0807717   0.0000000), wk =   0.1111111
        k(    9) = (   0.0279801  -0.0484630   0.0000000), wk =   0.1111111
        k(   10) = (   0.0279801  -0.0161543   0.0000000), wk =   0.1111111
        k(   11) = (   0.0559603   0.0323087   0.0000000), wk =   0.1111111
        k(   12) = (   0.0559603   0.0646173   0.0000000), wk =   0.1111111
        k(   13) = (   0.0559603   0.0969260   0.0000000), wk =   0.1111111
        k(   14) = (   0.0559603  -0.0646173   0.0000000), wk =   0.1111111
        k(   15) = (   0.0559603  -0.0323087   0.0000000), wk =   0.1111111
        k(   16) = (   0.0559603   0.0000000   0.0000000), wk =   0.1111111
        k(   17) = (  -0.0839404  -0.0484630   0.0000000), wk =   0.0555556
        k(   18) = (  -0.0839404  -0.0161543   0.0000000), wk =   0.1111111
        k(   19) = (  -0.0839404   0.0161543   0.0000000), wk =   0.1111111
        k(   20) = (  -0.0839404  -0.1453890   0.0000000), wk =   0.0555556

     Largest allocated arrays     est. size (Mb)     dimensions
     Largest temporary arrays     est. size (Mb)     dimensions

     Initial potential from superposition of free atoms
     Check: negative starting charge=   -0.004739

     starting charge  152.97523, renormalised to  153.00000

     negative rho (up, down):  4.740E-03 0.000E+00

     *
     * You are using vdW-DF for exchange-correlation in this calculation.
     * Please cite the following three references that made this development
     * possible:
     *
     *   M. Dion, H. Rydberg, E. Schroder, D. C. Langreth, and
     *   B. I. Lundqvist, Phys. Rev. Lett. 92, 246401 (2004).
     *
     *   T. Thonhauser, V. R. Cooper, S. Li, A. Puzder, P. Hyldgaard, and
     *   D. C. Langreth, Phys. Rev. B 76, 125112 (2007).
     *
     *   G. Roman-Perez and J. M. Soler, Phys. Rev. Lett. 103, 096102 (2009).
     *
     *
     * If you are using vdW-DF2, please also cite:
     *
     *   K. Lee, E. D. Murray, L. Kong, B. I. Lundqvist, and
     *   D. C. Langreth, Phys. Rev. B 82, 081101(R) (2010).
     *
     *
     * If you are calculating the stress with vdW-DF, please also cite:
     *
     *   R. Sabatini, E. Kucukbenli, B. Kolb, T. Thonhauser, and
     *   S. de Gironcoli, J. Phys.: Condens. Matter 24, 424209 (2012).
     *

     Carrying out vdW-DF run using the following parameters:

     Nqs =      20    Nr_points =    1024   r_max =   100.000
     q_mesh =
               0.00001000     0.04494208     0.09755937     0.15916263
               0.23128650     0.31572767     0.41458969     0.53033537
               0.66584808     0.82450364     1.01025438     1.22772762
               1.48234092     1.78043706     2.12944203     2.53805004
               3.01644009     3.57652955     4.23227104     5.00000000

     Gradients computed in reciprocal space

     Adding external electric field

     Computed dipole along edir(3) :
        Dipole               -0.0000 Ry au,         -0.0000 Debye
        Dipole field         -0.0000 Ry au

        Potential amp.        0.0000 Ry
        Total length         45.8107 bohr

     Starting wfc are  144 randomized atomic wfcs

     Self-consistent Calculation

     iteration #  1     ecut=    36.75 Ry     beta=0.10
     Davidson diagonalization with overlap
     ethr =  1.00E-02,  avg # of iterations =  2.2

[...]

     total energy              =   -1393.65174167 Ry
     Harris-Foulkes estimate   =   -1394.09157657 Ry
     estimated scf accuracy    <       2.76002194 Ry

[...]

     End of self-consistent calculation

          k = 0.0000 0.0000 0.0000 ( 19387 PWs)   bands (ev):

   -53.4157 -53.4058 -53.3145 -53.3145 -53.3122 -53.3122 -53.2051 -53.1170
   -53.1170 -29.7967 -29.7372 -29.6800 -29.6330 -29.6270 -29.6270 -29.5900
   -29.5900 -29.5566 -29.5566 -29.5044 -29.4065 -29.4065 -29.2826 -29.2826
   -29.2130 -29.1741 -29.0386 -29.0386 -29.0232 -28.9614 -28.9523 -28.9523
   -28.9439 -28.9439 -28.8162 -28.8162  -6.0113  -6.0113  -5.9465  -5.9248
    -5.9248  -5.8181  -5.8123  -5.8123  -5.7915  -5.7915  -5.7256  -5.5290
    -5.4911  -5.4911  -5.4539  -5.4539  -4.1407  -4.1189  -1.9794  -1.4912
    -0.9742  -0.1991  -0.1335  -0.0527  -0.0527   0.2212   0.2212   0.3582
     0.3582   0.4598   0.4599   0.9548   0.9548   1.1407   1.2372   1.4445
     1.4445   1.9055   1.9055   2.0845   2.1623   2.2156   2.3147   2.3147
     2.4920   2.9421   2.9421   3.5672   3.8061   3.8339   3.8339   4.0594
     4.0595   4.1481   4.1481   4.2522   4.2522   4.5234   4.5234   4.7312
     4.8748   4.8748   5.1005   5.1005   5.3820   5.4104   5.4324   5.4932
     5.4932   5.6441

[...]

          k =-0.0839-0.0485 0.0000 ( 19412 PWs)   bands (ev):

[...]

     the Fermi energy is     1.8135 ev

!    total energy              =   -1393.78407442 Ry
     Harris-Foulkes estimate   =   -1393.78407369 Ry
     estimated scf accuracy    <       0.00000089 Ry

     The total energy is the sum of the following terms:

     one-electron contribution =  -10956.64330701 Ry
     hartree contribution      =    5495.63819067 Ry
     xc contribution           =    -292.56456312 Ry
     ewald contribution        =    4359.88437200 Ry
     electric field correction =       0.00000000 Ry
     smearing contrib. (-TS)   =      -0.09876695 Ry

     convergence has been achieved in  16 iterations

 BEEF-vdW xc energy contributions
           1 :   -253.247562415889
           2 :    231.827442297487
           3 :   -194.815297787845
           4 :    151.421049510069
           5 :   -110.819694893170
           6 :    79.2176172535723
           7 :   -58.5350313376187
           8 :    46.8891867292422
           9 :   -40.3431626503651
          10 :    34.9496587815100
          11 :   -28.2498699851855
          12 :    19.7677033249178
          13 :   -10.5633033092557
          14 :    2.25129159011237
          15 :    3.95816627133274
          16 :   -7.78271048381328
          17 :    9.80643326230728
[...]
               b(3) = (  0.000000  0.000000  0.040220 )

     PseudoPot. # 1 for Nb read from file:
     /afs/slac.stanford.edu/u/if/mamunm/psp/gbrv1.5pbe/Nb.UPF
     MD5 check sum: 573aab8a2fa660278ed4a62cd769473f
     Pseudo is Ultrasoft + core correction, Zval = 13.0
     Generated by new atomic code, or converted to UPF format
     Using radial grid of  887 points,  6 beta functions with:
                l(1) =   0
                l(2) =   0
                l(3) =   1
                l(4) =   1
                l(5) =   2
                l(6) =   2
     Q(r) pseudized with  6 coefficients,  rinner =    1.000   1.000   1.000
                                                       1.000   1.000

     PseudoPot. # 2 for Hg read from file:
     /afs/slac.stanford.edu/u/if/mamunm/psp/gbrv1.5pbe/Hg.UPF
     MD5 check sum: 8f42caffe07f7fd9c0a564347f8c5498
     Pseudo is Ultrasoft + core correction, Zval = 12.0
     Generated by new atomic code, or converted to UPF format
     Using radial grid of  985 points,  6 beta functions with:
                l(1) =   0
                l(2) =   0
                l(3) =   1
                l(4) =   1
                l(5) =   2
                l(6) =   2
     Q(r) pseudized with  8 coefficients,  rinner =    2.000   2.000   2.000
                                                       2.000   2.000

     vdW kernel table read from file vdW_kernel_table
     MD5 check sum: 095c7af220d748ca6e76c0b4c6cfb241

     atomic species   valence    mass     pseudopotential
        Nb1           13.00    92.90637     Nb( 1.00)
        Hg1           12.00   200.59200     Hg( 1.00)

     No symmetry found

   Cartesian axes

     site n.     atom                  positions (alat units)
         1           Nb1 tau(   1) = (   0.0000000   0.0000000  10.0000000  )
         2           Nb1 tau(   2) = (  -1.4891521   2.5792870  10.0000000  )
         3           Nb1 tau(   3) = (   1.4891521   2.5792870  10.0000000  )
         4           Hg1 tau(   4) = (   2.9783041   0.0000000  10.0000000  )
         5           Nb1 tau(   5) = (   2.9783041   1.7195247  12.4317751  )
         6           Nb1 tau(   6) = (   1.4891521   4.2988117  12.4317751  )
         7           Nb1 tau(   7) = (  -1.4891521   4.2988117  12.4317751  )
         8           Hg1 tau(   8) = (   0.0000000   1.7195247  12.4317751  )
         9           Nb1 tau(   9) = (   0.0000037   3.4791778  14.7204328  )
        10           Nb1 tau(  10) = (   1.5238971   0.8397185  14.7204425  )
        11           Nb1 tau(  11) = (   4.4327102   0.8397156  14.7204432  )
        12           Hg1 tau(  12) = (   2.9783051   3.4390640  15.1904301  )

     number of k points=    20  Fermi-Dirac smearing, width (Ry)=  0.0110
                       cart. coord. in units 2pi/alat
        k(    1) = (   0.0000000   0.0000000   0.0000000), wk =   0.0555556
        k(    2) = (   0.0000000   0.0323087   0.0000000), wk =   0.1111111
        k(    3) = (   0.0000000   0.0646173   0.0000000), wk =   0.1111111
        k(    4) = (   0.0000000  -0.0969260   0.0000000), wk =   0.0555556
        k(    5) = (   0.0279801   0.0161543   0.0000000), wk =   0.1111111
        k(    6) = (   0.0279801   0.0484630   0.0000000), wk =   0.1111111
        k(    7) = (   0.0279801   0.0807717   0.0000000), wk =   0.1111111
        k(    8) = (   0.0279801  -0.0807717   0.0000000), wk =   0.1111111
        k(    9) = (   0.0279801  -0.0484630   0.0000000), wk =   0.1111111
        k(   10) = (   0.0279801  -0.0161543   0.0000000), wk =   0.1111111
        k(   11) = (   0.0559603   0.0323087   0.0000000), wk =   0.1111111
        k(   12) = (   0.0559603   0.0646173   0.0000000), wk =   0.1111111
        k(   13) = (   0.0559603   0.0969260   0.0000000), wk =   0.1111111
        k(   14) = (   0.0559603  -0.0646173   0.0000000), wk =   0.1111111
        k(   15) = (   0.0559603  -0.0323087   0.0000000), wk =   0.1111111
        k(   16) = (   0.0559603   0.0000000   0.0000000), wk =   0.1111111
        k(   17) = (  -0.0839404  -0.0484630   0.0000000), wk =   0.0555556
        k(   18) = (  -0.0839404  -0.0161543   0.0000000), wk =   0.1111111
        k(   19) = (  -0.0839404   0.0161543   0.0000000), wk =   0.1111111
        k(   20) = (  -0.0839404  -0.1453890   0.0000000), wk =   0.0555556

     Largest allocated arrays     est. size (Mb)     dimensions
     Largest temporary arrays     est. size (Mb)     dimensions

     Initial potential from superposition of free atoms
     Check: negative starting charge=   -0.004786

     starting charge  152.97523, renormalised to  153.00000

[...]

     *
     * You are using vdW-DF for exchange-correlation in this calculation.
     * Please cite the following three references that made this development
     * possible:
     *
     *   M. Dion, H. Rydberg, E. Schroder, D. C. Langreth, and
     *   B. I. Lundqvist, Phys. Rev. Lett. 92, 246401 (2004).
     *
     *   T. Thonhauser, V. R. Cooper, S. Li, A. Puzder, P. Hyldgaard, and
     *   D. C. Langreth, Phys. Rev. B 76, 125112 (2007).
     *
     *   G. Roman-Perez and J. M. Soler, Phys. Rev. Lett. 103, 096102 (2009).
     *
     *
     * If you are using vdW-DF2, please also cite:
     *
     *   K. Lee, E. D. Murray, L. Kong, B. I. Lundqvist, and
     *   D. C. Langreth, Phys. Rev. B 82, 081101(R) (2010).
     *
     *
     * If you are calculating the stress with vdW-DF, please also cite:
     *
     *   R. Sabatini, E. Kucukbenli, B. Kolb, T. Thonhauser, and
     *   S. de Gironcoli, J. Phys.: Condens. Matter 24, 424209 (2012).
     *

     Carrying out vdW-DF run using the following parameters:

     Nqs =      20    Nr_points =    1024   r_max =   100.000
     q_mesh =
               0.00001000     0.04494208     0.09755937     0.15916263
               0.23128650     0.31572767     0.41458969     0.53033537
               0.66584808     0.82450364     1.01025438     1.22772762
               1.48234092     1.78043706     2.12944203     2.53805004
               3.01644009     3.57652955     4.23227104     5.00000000

     Gradients computed in reciprocal space

[...]

     Starting wfc are  144 randomized atomic wfcs

     Self-consistent Calculation

[...]

     total energy              =   -1393.80954418 Ry
     Harris-Foulkes estimate   =   -1393.80954365 Ry
     estimated scf accuracy    <       0.00000158 Ry

     iteration # 17     ecut=    36.75 Ry     beta=0.10
     Davidson diagonalization with overlap
     ethr =  1.03E-09,  avg # of iterations =  2.0

[...]

     negative rho (up, down):  4.342E-03 0.000E+00

     Adding external electric field

     Computed dipole along edir(3) :
        Dipole               -0.0474 Ry au,         -0.1205 Debye
        Dipole field         -0.0001 Ry au

        Potential amp.        0.0106 Ry
        Total length         45.8107 bohr

     End of self-consistent calculation

[...]

          k = 0.0560 0.0000 0.0000 ( 19389 PWs)   bands (ev):

[...]

          k =-0.0839-0.1454 0.0000 ( 19412 PWs)   bands (ev):

   -53.4670 -53.4355 -53.4027 -53.3629 -53.3135 -53.2828 -53.1941 -53.1697
   -53.1416 -29.7635 -29.7479 -29.6945 -29.6285 -29.6053 -29.5878 -29.5537
   -29.5106 -29.5052 -29.4836 -29.4570 -29.4326 -29.4261 -29.4092 -29.3646
   -29.3235 -29.2784 -29.2421 -29.1456 -29.1432 -29.1425 -29.0644 -28.9934
   -28.9706 -28.9658 -28.9346 -28.8546  -6.0597  -5.9869  -5.9487  -5.8997
    -5.8863  -5.8393  -5.6858  -5.6191  -5.5990  -5.5678  -5.4382  -5.3248
    -5.2224  -5.1923  -5.1636  -4.4123  -3.9191  -3.2838  -1.9487  -1.3935
    -1.2631  -0.8991  -0.6931  -0.1891  -0.0995   0.0934   0.2321   0.2362
     0.2695   0.4334   0.4700   0.6962   0.7983   0.8174   1.0341   1.0813
     1.2267   1.2454   1.3289   1.4335   1.6708   1.6768   1.9506   2.0341
     2.0875   2.2684   2.3077   2.3767   2.8916   3.2231   3.2835   3.3393
     3.6081   3.6342   3.6407   3.7081   3.8325   3.9011   4.0120   4.1336
     4.4625   4.5009   4.7136   4.8072   4.9987   5.2032   5.4674   5.8509
     6.0824   6.4938

     the Fermi energy is     1.7366 ev

!    total energy              =   -1393.80954516 Ry
     Harris-Foulkes estimate   =   -1393.80954426 Ry
     estimated scf accuracy    <       0.00000059 Ry

     The total energy is the sum of the following terms:

     one-electron contribution =  -10999.83402484 Ry
     hartree contribution      =    5517.11169965 Ry
     xc contribution           =    -292.68420262 Ry
     ewald contribution        =    4381.69219934 Ry
     electric field correction =       0.00000548 Ry
     smearing contrib. (-TS)   =      -0.09522218 Ry

     convergence has been achieved in  17 iterations

 BEEF-vdW xc energy contributions
           1 :   -253.461469769288
           2 :    232.046056415484
           3 :   -195.041839324472
           4 :    151.648807537632
           5 :   -111.026923003248
           6 :    79.3762522904781
           7 :   -58.6264749921283
           8 :    46.9142672529754
           9 :   -40.3212497056247
          10 :    34.9104564452375
          11 :   -28.2221012484071
          12 :    19.7674421368708
          13 :   -10.5865437573852
          14 :    2.27683557190824
          15 :    3.95502665524742
          16 :   -7.81258162131388
          17 :    9.85666045202782
          18 :   -11.0428627446357
          19 :    12.1629205664413
          20 :   -13.4991484740573
          21 :    14.8179715442786
          22 :   -15.6356648071427
          23 :    15.5546488620604
          24 :   -14.4864985531427
          25 :    12.6744434630006
          26 :   -10.5536630008522
          27 :    8.54979466227314
          28 :   -6.92437984045029
          29 :    5.72343677338341
          30 :   -4.83162277335521
          31 :   -26.8093555971114
          32 :   -20.1472410193801

     Forces acting on atoms (Ry/au):

     negative rho (up, down):  4.342E-03 0.000E+00
     atom    1 type  1   force =    -0.00000010   -0.00179015    0.02214829
     atom    2 type  1   force =    -0.00155174    0.00089565    0.02214915
     atom    3 type  1   force =     0.00155164    0.00089591    0.02214900
     atom    4 type  2   force =    -0.00000100    0.00000024   -0.03950397
     atom    5 type  1   force =     0.00000008    0.01603180    0.00038440
     atom    6 type  1   force =     0.01388301   -0.00801530    0.00038543
     atom    7 type  1   force =    -0.01388275   -0.00801525    0.00038592
     atom    8 type  2   force =     0.00000103   -0.00000475   -0.02869874
     atom    9 type  1   force =    -0.00000049   -0.00077182   -0.00005022
     atom   10 type  1   force =    -0.00066923    0.00038590   -0.00005070
     atom   11 type  1   force =     0.00066925    0.00038666   -0.00005070
     atom   12 type  2   force =     0.00000032    0.00000113    0.00075214

     Total force =     0.068112     Total SCF correction =     0.001723

     entering subroutine stress ...

     negative rho (up, down):  4.342E-03 0.000E+00
          total   stress  (Ry/bohr**3)                   (kbar)     P=  -11.07
  -0.00010168   0.00000000  -0.00000000        -14.96      0.00     -0.00
   0.00000000  -0.00010168  -0.00000000          0.00    -14.96     -0.00
  -0.00000000  -0.00000000  -0.00002243         -0.00     -0.00     -3.30

 !ASE

     Writing output data file calc.save

     General routines

     Parallel routines

   This run was terminated on:  23: 9:58  30Dec2018

   JOB DONE.
Job  /afs/slac/g/suncat/bin/suncat-tsmpirun -x LD_LIBRARY_PATH -wdir /scratch/qe648634_TpQDA pw.x -in pw.inp

TID   HOST_NAME   COMMAND_LINE            STATUS            TERMINATION_TIME
00000 suncat0259 pw.x -in pw.inp   Done                     12/30/2018 23:09:58
00001 suncat0259 pw.x -in pw.inp   Done                     12/30/2018 23:09:58
00002 suncat0259 pw.x -in pw.inp   Done                     12/30/2018 23:09:58
00003 suncat0259 pw.x -in pw.inp   Done                     12/30/2018 23:09:58
00004 suncat0259 pw.x -in pw.inp   Done                     12/30/2018 23:09:58
00005 suncat0259 pw.x -in pw.inp   Done                     12/30/2018 23:09:58
00006 suncat0259 pw.x -in pw.inp   Done                     12/30/2018 23:09:58
00007 suncat0259 pw.x -in pw.inp   Done                     12/30/2018 23:09:58
00008 suncat0256 pw.x -in pw.inp   Done                     12/30/2018 23:09:58
00009 suncat0256 pw.x -in pw.inp   Done                     12/30/2018 23:09:58
00010 suncat0256 pw.x -in pw.inp   Done                     12/30/2018 23:09:58
00011 suncat0256 pw.x -in pw.inp   Done                     12/30/2018 23:09:58
00012 suncat0256 pw.x -in pw.inp   Done                     12/30/2018 23:09:58
00013 suncat0256 pw.x -in pw.inp   Done                     12/30/2018 23:09:58
00014 suncat0256 pw.x -in pw.inp   Done                     12/30/2018 23:09:58
00015 suncat0256 pw.x -in pw.inp   Done                     12/30/2018 23:09:58
00016 suncat0255 pw.x -in pw.inp   Done                     12/30/2018 23:09:58
00017 suncat0255 pw.x -in pw.inp   Done                     12/30/2018 23:09:58
00018 suncat0255 pw.x -in pw.inp   Done                     12/30/2018 23:09:58
00019 suncat0255 pw.x -in pw.inp   Done                     12/30/2018 23:09:58
00020 suncat0255 pw.x -in pw.inp   Done                     12/30/2018 23:09:58
00021 suncat0255 pw.x -in pw.inp   Done                     12/30/2018 23:09:58
00022 suncat0255 pw.x -in pw.inp   Done                     12/30/2018 23:09:58
00023 suncat0255 pw.x -in pw.inp   Done                     12/30/2018 23:09:58
00024 suncat0232 pw.x -in pw.inp   Done                     12/30/2018 23:09:58
00025 suncat0232 pw.x -in pw.inp   Done                     12/30/2018 23:09:58
00026 suncat0232 pw.x -in pw.inp   Done                     12/30/2018 23:09:58
00027 suncat0232 pw.x -in pw.inp   Done                     12/30/2018 23:09:58
00028 suncat0232 pw.x -in pw.inp   Done                     12/30/2018 23:09:58
00029 suncat0232 pw.x -in pw.inp   Done                     12/30/2018 23:09:58
00030 suncat0232 pw.x -in pw.inp   Done                     12/30/2018 23:09:58
00031 suncat0232 pw.x -in pw.inp   Done                     12/30/2018 23:09:58
00032 suncat0220 pw.x -in pw.inp   Done                     12/30/2018 23:09:58
00033 suncat0220 pw.x -in pw.inp   Done                     12/30/2018 23:09:58
00034 suncat0220 pw.x -in pw.inp   Done                     12/30/2018 23:09:58
00035 suncat0220 pw.x -in pw.inp   Done                     12/30/2018 23:09:58
00036 suncat0220 pw.x -in pw.inp   Done                     12/30/2018 23:09:58
00037 suncat0220 pw.x -in pw.inp   Done                     12/30/2018 23:09:58
00038 suncat0220 pw.x -in pw.inp   Done                     12/30/2018 23:09:58
00039 suncat0220 pw.x -in pw.inp   Done                     12/30/2018 23:09:58
00040 suncat0219 pw.x -in pw.inp   Done                     12/30/2018 23:09:58
00041 suncat0219 pw.x -in pw.inp   Done                     12/30/2018 23:09:58
00042 suncat0219 pw.x -in pw.inp   Done                     12/30/2018 23:09:58
00043 suncat0219 pw.x -in pw.inp   Done                     12/30/2018 23:09:58
00044 suncat0219 pw.x -in pw.inp   Done                     12/30/2018 23:09:58
00045 suncat0219 pw.x -in pw.inp   Done                     12/30/2018 23:09:58
00046 suncat0219 pw.x -in pw.inp   Done                     12/30/2018 23:09:58
00047 suncat0219 pw.x -in pw.inp   Done                     12/30/2018 23:09:58
00048 suncat0201 pw.x -in pw.inp   Done                     12/30/2018 23:09:58
00049 suncat0201 pw.x -in pw.inp   Done                     12/30/2018 23:09:58
00050 suncat0201 pw.x -in pw.inp   Done                     12/30/2018 23:09:58
00051 suncat0201 pw.x -in pw.inp   Done                     12/30/2018 23:09:58
00052 suncat0201 pw.x -in pw.inp   Done                     12/30/2018 23:09:58
00053 suncat0201 pw.x -in pw.inp   Done                     12/30/2018 23:09:58
00054 suncat0201 pw.x -in pw.inp   Done                     12/30/2018 23:09:58
00055 suncat0201 pw.x -in pw.inp   Done                     12/30/2018 23:09:58
00056 suncat0200 pw.x -in pw.inp   Done                     12/30/2018 23:09:58
00057 suncat0200 pw.x -in pw.inp   Done                     12/30/2018 23:09:58
00058 suncat0200 pw.x -in pw.inp   Done                     12/30/2018 23:09:58
00059 suncat0200 pw.x -in pw.inp   Done                     12/30/2018 23:09:58
00060 suncat0200 pw.x -in pw.inp   Done                     12/30/2018 23:09:58
00061 suncat0200 pw.x -in pw.inp   Done                     12/30/2018 23:09:58
00062 suncat0200 pw.x -in pw.inp   Done                     12/30/2018 23:09:58
00063 suncat0200 pw.x -in pw.inp   Done                     12/30/2018 23:09:58