     Program PWSCF v.5.1rc2 (svn rev. 11289) starts on 19Dec2018 at 19: 5: 7

     Current dimensions of program PWSCF are:
     Max number of different atomic species (ntypx) = 10
     Max number of k-points (npk) =  40000
     Max angular momentum in pseudopotentials (lmaxx) =  3
     Presently stress not available with electric field

     IMPORTANT: XC functional enforced from input :
     Exchange-correlation      = BEEF-VDW ( 1  4 27 13 2)
     Any further DFT definition will be discarded
     Please, verify this is what you really want

     Subspace diagonalization in iterative solution of the eigenvalue problem:
     a serial algorithm will be used

     Generating pointlists ...
     new r_m :   0.4125 (alat units)  0.7795 (a.u.) for type    1
     new r_m :   0.4125 (alat units)  0.7795 (a.u.) for type    2

     bravais-lattice index     =            0
     lattice parameter (alat)  =       1.8897  a.u.
     unit-cell volume          =    5012.8301 (a.u.)^3
     number of atoms/cell      =           12
     number of atomic types    =            2
     number of electrons       =       144.00
     number of Kohn-Sham states=          102
     kinetic-energy cutoff     =      36.7493  Ry
     charge density cutoff     =     367.4932  Ry
     convergence threshold     =      1.0E-06
     mixing beta               =       0.1000
     number of iterations used =           10  plain     mixing
     Exchange-correlation      = BEEF-VDW ( 1  4 27 13 2)
     nstep                     =           50

     celldm(1)=   1.889726  celldm(2)=   0.000000  celldm(3)=   0.000000
     celldm(4)=   0.000000  celldm(5)=   0.000000  celldm(6)=   0.000000

     crystal axes: (cart. coord. in units of alat)
               a(1) = (   5.880814   0.000000   0.000000 )
               a(2) = (  -2.940407   5.092935   0.000000 )
               a(3) = (   0.000000   0.000000  24.801665 )

     reciprocal axes: (cart. coord. in units 2 pi/alat)
               b(1) = (  0.170044  0.098175  0.000000 )
               b(2) = (  0.000000  0.196350  0.000000 )
               b(3) = (  0.000000  0.000000  0.040320 )

     PseudoPot. # 1 for Au read from file:
     /afs/slac.stanford.edu/u/if/mamunm/psp/gbrv1.5pbe/Au.UPF
     MD5 check sum: 9d7f43293ad2c663164586bc4b293ffc
     Pseudo is Ultrasoft + core correction, Zval = 11.0
     Generated by new atomic code, or converted to UPF format
     Using radial grid of  985 points,  7 beta functions with:
                l(1) =   0
                l(2) =   0
                l(3) =   1
                l(4) =   1
                l(5) =   2
                l(6) =   2
                l(7) =   3
     Q(r) pseudized with  6 coefficients,  rinner =    1.900   1.900   1.900
                                                       1.900   1.900   1.900
                                                       1.900

     PseudoPot. # 2 for Mn read from file:
     /afs/slac.stanford.edu/u/if/mamunm/psp/gbrv1.5pbe/Mn.UPF
     MD5 check sum: 82ef2b46521d7a7d9e736dc3972e4928
     Pseudo is Ultrasoft + core correction, Zval = 15.0
     Generated by new atomic code, or converted to UPF format
     Using radial grid of  859 points,  6 beta functions with:
                l(1) =   0
                l(2) =   0
                l(3) =   1
                l(4) =   1
                l(5) =   2
                l(6) =   2
     Q(r) pseudized with  8 coefficients,  rinner =    0.950   0.950   0.950
                                                       0.950   0.950

     vdW kernel table read from file vdW_kernel_table
     MD5 check sum: 095c7af220d748ca6e76c0b4c6cfb241

     atomic species   valence    mass     pseudopotential
        Au1           11.00   196.96657     Au( 1.00)
        Mn1           15.00    54.93804     Mn( 1.00)

     Starting magnetic structure
     atomic species   magnetization
        Au1          0.182
        Mn1          0.133

     No symmetry found

   Cartesian axes

     site n.     atom                  positions (alat units)
         1           Au1 tau(   1) = (   0.0000000   0.0000000  10.0000000  )
         2           Au1 tau(   2) = (  -1.4702036   2.5464673  10.0000000  )
         3           Au1 tau(   3) = (   1.4702036   2.5464673  10.0000000  )
         4           Mn1 tau(   4) = (   2.9404071   0.0000000  10.0000000  )
         5           Au1 tau(   5) = (   2.9404071   1.6976448  12.4008324  )
         6           Au1 tau(   6) = (   1.4702036   4.2441121  12.4008324  )
         7           Au1 tau(   7) = (  -1.4702036   4.2441121  12.4008324  )
         8           Mn1 tau(   8) = (   0.0000000   1.6976448  12.4008324  )
         9           Au1 tau(   9) = (  -0.0000000   3.3952897  14.8016647  )
        10           Au1 tau(  10) = (   1.4702036   0.8488224  14.8016647  )
        11           Au1 tau(  11) = (   4.4106107   0.8488224  14.8016647  )
        12           Mn1 tau(  12) = (   2.9404071   3.3952897  14.8016647  )

     number of k points=    40  Fermi-Dirac smearing, width (Ry)=  0.0110
                       cart. coord. in units 2pi/alat
        k(    1) = (   0.0000000   0.0000000   0.0000000), wk =   0.0277778
        k(    2) = (   0.0000000   0.0327251   0.0000000), wk =   0.0555556
        k(    3) = (   0.0000000   0.0654502   0.0000000), wk =   0.0555556
        k(    4) = (   0.0000000  -0.0981752   0.0000000), wk =   0.0277778
        k(    5) = (   0.0283407   0.0163625   0.0000000), wk =   0.0555556
        k(    6) = (   0.0283407   0.0490876   0.0000000), wk =   0.0555556
        k(    7) = (   0.0283407   0.0818127   0.0000000), wk =   0.0555556
        k(    8) = (   0.0283407  -0.0818127   0.0000000), wk =   0.0555556
        k(    9) = (   0.0283407  -0.0490876   0.0000000), wk =   0.0555556
        k(   10) = (   0.0283407  -0.0163625   0.0000000), wk =   0.0555556
        k(   11) = (   0.0566815   0.0327251   0.0000000), wk =   0.0555556
        k(   12) = (   0.0566815   0.0654502   0.0000000), wk =   0.0555556
        k(   13) = (   0.0566815   0.0981752   0.0000000), wk =   0.0555556
        k(   14) = (   0.0566815  -0.0654502   0.0000000), wk =   0.0555556
        k(   15) = (   0.0566815  -0.0327251   0.0000000), wk =   0.0555556
        k(   16) = (   0.0566815   0.0000000   0.0000000), wk =   0.0555556
        k(   17) = (  -0.0850222  -0.0490876   0.0000000), wk =   0.0277778
        k(   18) = (  -0.0850222  -0.0163625   0.0000000), wk =   0.0555556
        k(   19) = (  -0.0850222   0.0163625   0.0000000), wk =   0.0555556
        k(   20) = (  -0.0850222  -0.1472628   0.0000000), wk =   0.0277778
        k(   21) = (   0.0000000   0.0000000   0.0000000), wk =   0.0277778
        k(   22) = (   0.0000000   0.0327251   0.0000000), wk =   0.0555556
        k(   23) = (   0.0000000   0.0654502   0.0000000), wk =   0.0555556
        k(   24) = (   0.0000000  -0.0981752   0.0000000), wk =   0.0277778
        k(   25) = (   0.0283407   0.0163625   0.0000000), wk =   0.0555556
        k(   26) = (   0.0283407   0.0490876   0.0000000), wk =   0.0555556
        k(   27) = (   0.0283407   0.0818127   0.0000000), wk =   0.0555556
        k(   28) = (   0.0283407  -0.0818127   0.0000000), wk =   0.0555556
        k(   29) = (   0.0283407  -0.0490876   0.0000000), wk =   0.0555556
        k(   30) = (   0.0283407  -0.0163625   0.0000000), wk =   0.0555556
        k(   31) = (   0.0566815   0.0327251   0.0000000), wk =   0.0555556
        k(   32) = (   0.0566815   0.0654502   0.0000000), wk =   0.0555556
        k(   33) = (   0.0566815   0.0981752   0.0000000), wk =   0.0555556
        k(   34) = (   0.0566815  -0.0654502   0.0000000), wk =   0.0555556
        k(   35) = (   0.0566815  -0.0327251   0.0000000), wk =   0.0555556
        k(   36) = (   0.0566815   0.0000000   0.0000000), wk =   0.0555556
        k(   37) = (  -0.0850222  -0.0490876   0.0000000), wk =   0.0277778
        k(   38) = (  -0.0850222  -0.0163625   0.0000000), wk =   0.0555556
        k(   39) = (  -0.0850222   0.0163625   0.0000000), wk =   0.0555556
        k(   40) = (  -0.0850222  -0.1472628   0.0000000), wk =   0.0277778

     Largest allocated arrays     est. size (Mb)     dimensions
     Largest temporary arrays     est. size (Mb)     dimensions

     Check: negative/imaginary core charge=   -0.000003    0.000000

     Initial potential from superposition of free atoms
     Check: negative starting charge=(component1):   -0.000877
     Check: negative starting charge=(component2):   -0.000674

     starting charge  142.49864, renormalised to  144.00000

     negative rho (up, down):  8.862E-04 6.812E-04

     *
     * You are using vdW-DF for exchange-correlation in this calculation.
     * Please cite the following three references that made this development
     * possible:
     *
     *   M. Dion, H. Rydberg, E. Schroder, D. C. Langreth, and
     *   B. I. Lundqvist, Phys. Rev. Lett. 92, 246401 (2004).
     *
     *   T. Thonhauser, V. R. Cooper, S. Li, A. Puzder, P. Hyldgaard, and
     *   D. C. Langreth, Phys. Rev. B 76, 125112 (2007).
     *
     *   G. Roman-Perez and J. M. Soler, Phys. Rev. Lett. 103, 096102 (2009).
     *
     *
     * If you are using vdW-DF2, please also cite:
     *
     *   K. Lee, E. D. Murray, L. Kong, B. I. Lundqvist, and
     *   D. C. Langreth, Phys. Rev. B 82, 081101(R) (2010).
     *
     *
     * If you are calculating the stress with vdW-DF, please also cite:
     *
     *   R. Sabatini, E. Kucukbenli, B. Kolb, T. Thonhauser, and
     *   S. de Gironcoli, J. Phys.: Condens. Matter 24, 424209 (2012).
     *

     Carrying out vdW-DF run using the following parameters:

     Nqs =      20    Nr_points =    1024   r_max =   100.000
     q_mesh =
               0.00001000     0.04494208     0.09755937     0.15916263
               0.23128650     0.31572767     0.41458969     0.53033537
               0.66584808     0.82450364     1.01025438     1.22772762
               1.48234092     1.78043706     2.12944203     2.53805004
               3.01644009     3.57652955     4.23227104     5.00000000

     Gradients computed in reciprocal space

     Adding external electric field

     Computed dipole along edir(3) :
        Dipole               -0.0000 Ry au,         -0.0000 Debye
        Dipole field         -0.0000 Ry au

        Potential amp.        0.0000 Ry
        Total length         45.6966 bohr

[...]

     Starting wfc are  120 randomized atomic wfcs

     Self-consistent Calculation

     iteration #  1     ecut=    36.75 Ry     beta=0.10
     Davidson diagonalization with overlap
     ethr =  1.00E-02,  avg # of iterations =  8.4

[...]

     Magnetic moment per site:
     atom:    1    charge:    1.4415    magn:    0.2459    constr:    0.0000
     atom:    2    charge:    1.4415    magn:    0.2459    constr:    0.0000
     atom:    3    charge:    1.4415    magn:    0.2459    constr:    0.0000
     atom:    4    charge:    6.0931    magn:    0.8070    constr:    0.0000
     atom:    5    charge:    1.4404    magn:    0.2471    constr:    0.0000
     atom:    6    charge:    1.4404    magn:    0.2471    constr:    0.0000
[...]
                       cart. coord. in units 2pi/alat
        k(    1) = (   0.0000000   0.0000000   0.0000000), wk =   0.0277778
        k(    2) = (   0.0000000   0.0327251   0.0000000), wk =   0.0555556
        k(    3) = (   0.0000000   0.0654502   0.0000000), wk =   0.0555556
        k(    4) = (   0.0000000  -0.0981752   0.0000000), wk =   0.0277778
        k(    5) = (   0.0283407   0.0163625   0.0000000), wk =   0.0555556
        k(    6) = (   0.0283407   0.0490876   0.0000000), wk =   0.0555556
        k(    7) = (   0.0283407   0.0818127   0.0000000), wk =   0.0555556
        k(    8) = (   0.0283407  -0.0818127   0.0000000), wk =   0.0555556
        k(    9) = (   0.0283407  -0.0490876   0.0000000), wk =   0.0555556
        k(   10) = (   0.0283407  -0.0163625   0.0000000), wk =   0.0555556
        k(   11) = (   0.0566815   0.0327251   0.0000000), wk =   0.0555556
        k(   12) = (   0.0566815   0.0654502   0.0000000), wk =   0.0555556
        k(   13) = (   0.0566815   0.0981752   0.0000000), wk =   0.0555556
        k(   14) = (   0.0566815  -0.0654502   0.0000000), wk =   0.0555556
        k(   15) = (   0.0566815  -0.0327251   0.0000000), wk =   0.0555556
        k(   16) = (   0.0566815   0.0000000   0.0000000), wk =   0.0555556
        k(   17) = (  -0.0850222  -0.0490876   0.0000000), wk =   0.0277778
        k(   18) = (  -0.0850222  -0.0163625   0.0000000), wk =   0.0555556
        k(   19) = (  -0.0850222   0.0163625   0.0000000), wk =   0.0555556
        k(   20) = (  -0.0850222  -0.1472628   0.0000000), wk =   0.0277778
        k(   21) = (   0.0000000   0.0000000   0.0000000), wk =   0.0277778
        k(   22) = (   0.0000000   0.0327251   0.0000000), wk =   0.0555556
        k(   23) = (   0.0000000   0.0654502   0.0000000), wk =   0.0555556
        k(   24) = (   0.0000000  -0.0981752   0.0000000), wk =   0.0277778
        k(   25) = (   0.0283407   0.0163625   0.0000000), wk =   0.0555556
        k(   26) = (   0.0283407   0.0490876   0.0000000), wk =   0.0555556
        k(   27) = (   0.0283407   0.0818127   0.0000000), wk =   0.0555556
        k(   28) = (   0.0283407  -0.0818127   0.0000000), wk =   0.0555556
        k(   29) = (   0.0283407  -0.0490876   0.0000000), wk =   0.0555556
        k(   30) = (   0.0283407  -0.0163625   0.0000000), wk =   0.0555556
        k(   31) = (   0.0566815   0.0327251   0.0000000), wk =   0.0555556
        k(   32) = (   0.0566815   0.0654502   0.0000000), wk =   0.0555556
        k(   33) = (   0.0566815   0.0981752   0.0000000), wk =   0.0555556
        k(   34) = (   0.0566815  -0.0654502   0.0000000), wk =   0.0555556
        k(   35) = (   0.0566815  -0.0327251   0.0000000), wk =   0.0555556
        k(   36) = (   0.0566815   0.0000000   0.0000000), wk =   0.0555556
        k(   37) = (  -0.0850222  -0.0490876   0.0000000), wk =   0.0277778
        k(   38) = (  -0.0850222  -0.0163625   0.0000000), wk =   0.0555556
        k(   39) = (  -0.0850222   0.0163625   0.0000000), wk =   0.0555556
        k(   40) = (  -0.0850222  -0.1472628   0.0000000), wk =   0.0277778

     Largest allocated arrays     est. size (Mb)     dimensions
     Largest temporary arrays     est. size (Mb)     dimensions

     Check: negative/imaginary core charge=   -0.000003    0.000000

     Initial potential from superposition of free atoms
     Check: negative starting charge=(component1):   -0.000871
     Check: negative starting charge=(component2):   -0.000669

     starting charge  142.49864, renormalised to  144.00000

[...]

     *
     * You are using vdW-DF for exchange-correlation in this calculation.
     * Please cite the following three references that made this development
     * possible:
     *
     *   M. Dion, H. Rydberg, E. Schroder, D. C. Langreth, and
     *   B. I. Lundqvist, Phys. Rev. Lett. 92, 246401 (2004).
     *
     *   T. Thonhauser, V. R. Cooper, S. Li, A. Puzder, P. Hyldgaard, and
     *   D. C. Langreth, Phys. Rev. B 76, 125112 (2007).
     *
     *   G. Roman-Perez and J. M. Soler, Phys. Rev. Lett. 103, 096102 (2009).
     *
     *
     * If you are using vdW-DF2, please also cite:
     *
     *   K. Lee, E. D. Murray, L. Kong, B. I. Lundqvist, and
     *   D. C. Langreth, Phys. Rev. B 82, 081101(R) (2010).
     *
     *
     * If you are calculating the stress with vdW-DF, please also cite:
     *
     *   R. Sabatini, E. Kucukbenli, B. Kolb, T. Thonhauser, and
     *   S. de Gironcoli, J. Phys.: Condens. Matter 24, 424209 (2012).
     *

     Carrying out vdW-DF run using the following parameters:

     Nqs =      20    Nr_points =    1024   r_max =   100.000
     q_mesh =
               0.00001000     0.04494208     0.09755937     0.15916263
               0.23128650     0.31572767     0.41458969     0.53033537
               0.66584808     0.82450364     1.01025438     1.22772762
               1.48234092     1.78043706     2.12944203     2.53805004
               3.01644009     3.57652955     4.23227104     5.00000000

     Gradients computed in reciprocal space

[...]

     Starting wfc are  120 randomized atomic wfcs

     Self-consistent Calculation

[...]

     total energy              =   -1686.79366273 Ry
     Harris-Foulkes estimate   =   -1686.79366261 Ry
     estimated scf accuracy    <       0.00000124 Ry

[...]

     iteration # 20     ecut=    36.75 Ry     beta=0.10
     Davidson diagonalization with overlap
     ethr =  8.64E-10,  avg # of iterations =  1.1

[...]

     negative rho (up, down):  1.117E-03 1.778E-03

[...]

     Adding external electric field

     Computed dipole along edir(3) :
        Dipole               -0.0177 Ry au,         -0.0451 Debye
        Dipole field         -0.0000 Ry au

        Potential amp.        0.0041 Ry
        Total length         45.6966 bohr

     Magnetic moment per site:
     atom:    1    charge:    1.4489    magn:    0.0128    constr:    0.0000
     atom:    2    charge:    1.4489    magn:    0.0128    constr:    0.0000
     atom:    3    charge:    1.4489    magn:    0.0128    constr:    0.0000
     atom:    4    charge:    6.0149    magn:    1.7086    constr:    0.0000
     atom:    5    charge:    1.4512    magn:    0.0150    constr:    0.0000
     atom:    6    charge:    1.4512    magn:    0.0150    constr:    0.0000
     atom:    7    charge:    1.4512    magn:    0.0150    constr:    0.0000
     atom:    8    charge:    6.0144    magn:    1.7043    constr:    0.0000
     atom:    9    charge:    1.4505    magn:    0.0128    constr:    0.0000
     atom:   10    charge:    1.4505    magn:    0.0128    constr:    0.0000
     atom:   11    charge:    1.4505    magn:    0.0128    constr:    0.0000
     atom:   12    charge:    6.0158    magn:    1.7043    constr:    0.0000

     End of self-consistent calculation

 ------ SPIN UP ------------

[...]

 ------ SPIN DOWN ----------

[...]

          k = 0.0567 0.0000 0.0000 ( 18869 PWs)   bands (ev):

[...]

          k =-0.0850-0.1473 0.0000 ( 18860 PWs)   bands (ev):

   -77.1017 -77.0883 -77.0762 -45.9112 -45.8944 -45.8727 -45.8726 -45.8640
   -45.8638 -45.8608 -45.8606 -45.8483  -6.3543  -6.0053  -5.3051  -5.0894
    -5.0322  -5.0210  -4.8953  -4.8327  -4.7596  -4.6480  -4.5903  -4.5643
    -4.3411  -4.3306  -4.3076  -4.2695  -4.2186  -4.2131  -3.9756  -3.8276
    -3.6133  -3.5899  -3.5779  -3.5772  -3.5681  -3.4798  -3.4467  -3.4031
    -3.3543  -3.3384  -3.3099  -3.2638  -3.1906  -3.1561  -3.0970  -3.0806
    -3.0438  -2.9436  -2.8962  -2.8595  -2.7727  -2.7013  -2.6182  -2.5638
    -2.3210  -2.1799  -1.9186  -1.8897  -1.6476  -1.3060  -0.2134  -0.0721
     0.1519   0.1950   0.7838   0.8751   1.1279   1.1596   1.1884   1.2379
     1.2434   1.4228   1.4633   1.5545   1.7729   1.7943   2.0344   2.0863
     2.5339   2.8453   3.4890   3.6760   3.7962   4.1475   5.5893   5.6188
     5.7912   6.2605   6.2813   6.3306   6.4435   6.4519   6.6030   6.6264
     6.8379   7.0474   7.5557   7.5892   7.6490   7.8080

     the Fermi energy is     0.4888 ev

!    total energy              =   -1686.79366380 Ry
     Harris-Foulkes estimate   =   -1686.79366289 Ry
     estimated scf accuracy    <       0.00000052 Ry

     The total energy is the sum of the following terms:

     one-electron contribution =  -10153.65006511 Ry
     hartree contribution      =    5145.29462175 Ry
     xc contribution           =    -659.05232538 Ry
     ewald contribution        =    3980.64473586 Ry
     electric field correction =       0.00000079 Ry
     smearing contrib. (-TS)   =      -0.03063170 Ry

     total magnetization       =    13.90 Bohr mag/cell
     absolute magnetization    =    14.34 Bohr mag/cell

     convergence has been achieved in  20 iterations

 BEEF-vdW xc energy contributions
           1 :   -587.546464586063
           2 :    544.125130281911
           3 :   -467.606989156955
           4 :    374.175254143571
           5 :   -280.094944685561
           6 :    197.465705113735
           7 :   -132.595162900678
           8 :    86.4072368645062
           9 :   -56.0154684312918
          10 :    36.7676866525176
          11 :   -24.2281341907967
          12 :    15.4639979342699
          13 :   -9.25453589223775
          14 :    5.33988480340122
          15 :   -3.41419242938002
          16 :    2.58941135079499
          17 :   -1.60790456525956
          18 :  -0.551719431437732
          19 :    4.18182312862041
          20 :   -8.75586453905726
          21 :    13.1798330372521
          22 :   -16.2387101855948
          23 :    17.0724930923764
          24 :   -15.5380238602746
          25 :    12.2781834766907
          26 :   -8.44962940843016
          27 :    5.22668955522192
          28 :   -3.35182071312681
          29 :    2.93361301212690
          30 :   -3.55024437058250
          31 :   -47.0414032213660
          32 :   -34.0902969233641

     Forces acting on atoms (Ry/au):

     negative rho (up, down):  1.117E-03 1.778E-03
     atom    1 type  1   force =    -0.00000029    0.00902247   -0.00691936
     atom    2 type  1   force =     0.00781410   -0.00451102   -0.00692001
     atom    3 type  1   force =    -0.00781289   -0.00451146   -0.00692039
     atom    4 type  2   force =    -0.00000021    0.00000003    0.00672663
     atom    5 type  1   force =     0.00000093   -0.00413384    0.00376481
     atom    6 type  1   force =    -0.00358043    0.00206669    0.00376373
     atom    7 type  1   force =     0.00357960    0.00206690    0.00376615
     atom    8 type  2   force =     0.00000009    0.00000003    0.00282732
     atom    9 type  1   force =    -0.00000053    0.00124540    0.00010668
     atom   10 type  1   force =     0.00107743   -0.00062273    0.00010775
     atom   11 type  1   force =    -0.00107798   -0.00062297    0.00010723
     atom   12 type  2   force =     0.00000018    0.00000051   -0.00041053

     Total force =     0.023232     Total SCF correction =     0.001678

     entering subroutine stress ...

     negative rho (up, down):  1.117E-03 1.778E-03
          total   stress  (Ry/bohr**3)                   (kbar)     P=  -10.52
  -0.00011090  -0.00000000   0.00000000        -16.31     -0.00      0.00
  -0.00000000  -0.00011090  -0.00000000         -0.00    -16.31     -0.00
   0.00000000  -0.00000000   0.00000721          0.00     -0.00      1.06

 !ASE

     Writing output data file calc.save

     General routines

     Parallel routines

   This run was terminated on:  21:25:41  19Dec2018

   JOB DONE.
Job  /afs/slac/g/suncat/bin/suncat-tsmpirun -x LD_LIBRARY_PATH -wdir /scratch/qe773362_ebdQ7 pw.x -in pw.inp

TID   HOST_NAME   COMMAND_LINE            STATUS            TERMINATION_TIME
00000 suncat0156 pw.x -in pw.inp   Done                     12/19/2018 21:25:41
00001 suncat0156 pw.x -in pw.inp   Done                     12/19/2018 21:25:41
00002 suncat0156 pw.x -in pw.inp   Done                     12/19/2018 21:25:41
00003 suncat0156 pw.x -in pw.inp   Done                     12/19/2018 21:25:41
00004 suncat0156 pw.x -in pw.inp   Done                     12/19/2018 21:25:41
00005 suncat0156 pw.x -in pw.inp   Done                     12/19/2018 21:25:41
00006 suncat0156 pw.x -in pw.inp   Done                     12/19/2018 21:25:41
00007 suncat0156 pw.x -in pw.inp   Done                     12/19/2018 21:25:41
00008 suncat0153 pw.x -in pw.inp   Done                     12/19/2018 21:25:41
00009 suncat0153 pw.x -in pw.inp   Done                     12/19/2018 21:25:41
00010 suncat0153 pw.x -in pw.inp   Done                     12/19/2018 21:25:41
00011 suncat0153 pw.x -in pw.inp   Done                     12/19/2018 21:25:41
00012 suncat0153 pw.x -in pw.inp   Done                     12/19/2018 21:25:41
00013 suncat0153 pw.x -in pw.inp   Done                     12/19/2018 21:25:41
00014 suncat0153 pw.x -in pw.inp   Done                     12/19/2018 21:25:41
00015 suncat0153 pw.x -in pw.inp   Done                     12/19/2018 21:25:41
00016 suncat0152 pw.x -in pw.inp   Done                     12/19/2018 21:25:41
00017 suncat0152 pw.x -in pw.inp   Done                     12/19/2018 21:25:41
00018 suncat0152 pw.x -in pw.inp   Done                     12/19/2018 21:25:41
00019 suncat0152 pw.x -in pw.inp   Done                     12/19/2018 21:25:41
00020 suncat0152 pw.x -in pw.inp   Done                     12/19/2018 21:25:41
00021 suncat0152 pw.x -in pw.inp   Done                     12/19/2018 21:25:41
00022 suncat0152 pw.x -in pw.inp   Done                     12/19/2018 21:25:41
00023 suncat0152 pw.x -in pw.inp   Done                     12/19/2018 21:25:41
00024 suncat0150 pw.x -in pw.inp   Done                     12/19/2018 21:25:41
00025 suncat0150 pw.x -in pw.inp   Done                     12/19/2018 21:25:41
00026 suncat0150 pw.x -in pw.inp   Done                     12/19/2018 21:25:41
00027 suncat0150 pw.x -in pw.inp   Done                     12/19/2018 21:25:41
00028 suncat0150 pw.x -in pw.inp   Done                     12/19/2018 21:25:41
00029 suncat0150 pw.x -in pw.inp   Done                     12/19/2018 21:25:41
00030 suncat0150 pw.x -in pw.inp   Done                     12/19/2018 21:25:41
00031 suncat0150 pw.x -in pw.inp   Done                     12/19/2018 21:25:41
00032 suncat0149 pw.x -in pw.inp   Done                     12/19/2018 21:25:41
00033 suncat0149 pw.x -in pw.inp   Done                     12/19/2018 21:25:41
00034 suncat0149 pw.x -in pw.inp   Done                     12/19/2018 21:25:41
00035 suncat0149 pw.x -in pw.inp   Done                     12/19/2018 21:25:41
00036 suncat0149 pw.x -in pw.inp   Done                     12/19/2018 21:25:41
00037 suncat0149 pw.x -in pw.inp   Done                     12/19/2018 21:25:41
00038 suncat0149 pw.x -in pw.inp   Done                     12/19/2018 21:25:41
00039 suncat0149 pw.x -in pw.inp   Done                     12/19/2018 21:25:41
00040 suncat0148 pw.x -in pw.inp   Done                     12/19/2018 21:25:41
00041 suncat0148 pw.x -in pw.inp   Done                     12/19/2018 21:25:41
00042 suncat0148 pw.x -in pw.inp   Done                     12/19/2018 21:25:41
00043 suncat0148 pw.x -in pw.inp   Done                     12/19/2018 21:25:41
00044 suncat0148 pw.x -in pw.inp   Done                     12/19/2018 21:25:41
00045 suncat0148 pw.x -in pw.inp   Done                     12/19/2018 21:25:41
00046 suncat0148 pw.x -in pw.inp   Done                     12/19/2018 21:25:41
00047 suncat0148 pw.x -in pw.inp   Done                     12/19/2018 21:25:41
00048 suncat0147 pw.x -in pw.inp   Done                     12/19/2018 21:25:41
00049 suncat0147 pw.x -in pw.inp   Done                     12/19/2018 21:25:41
00050 suncat0147 pw.x -in pw.inp   Done                     12/19/2018 21:25:41
00051 suncat0147 pw.x -in pw.inp   Done                     12/19/2018 21:25:41
00052 suncat0147 pw.x -in pw.inp   Done                     12/19/2018 21:25:41
00053 suncat0147 pw.x -in pw.inp   Done                     12/19/2018 21:25:41
00054 suncat0147 pw.x -in pw.inp   Done                     12/19/2018 21:25:41
00055 suncat0147 pw.x -in pw.inp   Done                     12/19/2018 21:25:41
00056 suncat0146 pw.x -in pw.inp   Done                     12/19/2018 21:25:41
00057 suncat0146 pw.x -in pw.inp   Done                     12/19/2018 21:25:41
00058 suncat0146 pw.x -in pw.inp   Done                     12/19/2018 21:25:41
00059 suncat0146 pw.x -in pw.inp   Done                     12/19/2018 21:25:41
00060 suncat0146 pw.x -in pw.inp   Done                     12/19/2018 21:25:41
00061 suncat0146 pw.x -in pw.inp   Done                     12/19/2018 21:25:41
00062 suncat0146 pw.x -in pw.inp   Done                     12/19/2018 21:25:41
00063 suncat0146 pw.x -in pw.inp   Done                     12/19/2018 21:25:41