     Program PWSCF v.5.1rc2 (svn rev. 11289) starts on 26Dec2018 at 22:25:52

     Current dimensions of program PWSCF are:
     Max number of different atomic species (ntypx) = 10
     Max number of k-points (npk) =  40000
     Max angular momentum in pseudopotentials (lmaxx) =  3
     Presently stress not available with electric field

     IMPORTANT: XC functional enforced from input :
     Exchange-correlation      = BEEF-VDW ( 1  4 27 13 2)
     Any further DFT definition will be discarded
     Please, verify this is what you really want

     Subspace diagonalization in iterative solution of the eigenvalue problem:
     a serial algorithm will be used

     Generating pointlists ...
     new r_m :   0.4125 (alat units)  0.7795 (a.u.) for type    1
     new r_m :   0.4125 (alat units)  0.7795 (a.u.) for type    2

     bravais-lattice index     =            0
     lattice parameter (alat)  =       1.8897  a.u.
     unit-cell volume          =    4391.9432 (a.u.)^3
     number of atoms/cell      =           12
     number of atomic types    =            2
     number of electrons       =       177.00
     number of Kohn-Sham states=          118
     kinetic-energy cutoff     =      36.7493  Ry
     charge density cutoff     =     367.4932  Ry
     convergence threshold     =      1.0E-06
     mixing beta               =       0.1000
     number of iterations used =           10  plain     mixing
     Exchange-correlation      = BEEF-VDW ( 1  4 27 13 2)
     nstep                     =           50

     celldm(1)=   1.889726  celldm(2)=   0.000000  celldm(3)=   0.000000
     celldm(4)=   0.000000  celldm(5)=   0.000000  celldm(6)=   0.000000

     crystal axes: (cart. coord. in units of alat)
               a(1) = (   5.536085   0.000000   0.000000 )
               a(2) = (  -2.768043   4.794391   0.000000 )
               a(3) = (   0.000000   0.000000  24.520195 )

     reciprocal axes: (cart. coord. in units 2 pi/alat)
               b(1) = (  0.180633  0.104289  0.000000 )
               b(2) = (  0.000000  0.208577  0.000000 )
               b(3) = (  0.000000  0.000000  0.040783 )

     PseudoPot. # 1 for Mn read from file:
     /afs/slac.stanford.edu/u/if/mamunm/psp/gbrv1.5pbe/Mn.UPF
     MD5 check sum: 82ef2b46521d7a7d9e736dc3972e4928
     Pseudo is Ultrasoft + core correction, Zval = 15.0
     Generated by new atomic code, or converted to UPF format
     Using radial grid of  859 points,  6 beta functions with:
                l(1) =   0
                l(2) =   0
                l(3) =   1
                l(4) =   1
                l(5) =   2
                l(6) =   2
     Q(r) pseudized with  8 coefficients,  rinner =    0.950   0.950   0.950
                                                       0.950   0.950

     PseudoPot. # 2 for Sn read from file:
     /afs/slac.stanford.edu/u/if/mamunm/psp/gbrv1.5pbe/Sn.UPF
     MD5 check sum: 469debedee59599fedebd795477fea03
     Pseudo is Ultrasoft + core correction, Zval = 14.0
     Generated by new atomic code, or converted to UPF format
     Using radial grid of  891 points,  6 beta functions with:
                l(1) =   0
                l(2) =   0
                l(3) =   1
                l(4) =   1
                l(5) =   2
                l(6) =   2
     Q(r) pseudized with  8 coefficients,  rinner =    1.350   1.350   1.350
                                                       1.350   1.350

     vdW kernel table read from file vdW_kernel_table
     MD5 check sum: 095c7af220d748ca6e76c0b4c6cfb241

     atomic species   valence    mass     pseudopotential
        Mn1           15.00    54.93804     Mn( 1.00)
        Sn1           14.00   118.71000     Sn( 1.00)

     Starting magnetic structure
     atomic species   magnetization
        Mn1          0.133
        Sn1          0.143

     No symmetry found

   Cartesian axes

     site n.     atom                  positions (alat units)
         1           Mn1 tau(   1) = (   0.0000000   0.0000000  10.0000000  )
         2           Mn1 tau(   2) = (  -1.3840214   2.3971953  10.0000000  )
         3           Mn1 tau(   3) = (   1.3840214   2.3971953  10.0000000  )
         4           Sn1 tau(   4) = (   2.7680427   0.0000000  10.0000000  )
         5           Mn1 tau(   5) = (   2.7680427   1.5981302  12.2600974  )
         6           Mn1 tau(   6) = (   1.3840214   3.9953255  12.2600974  )
         7           Mn1 tau(   7) = (  -1.3840214   3.9953255  12.2600974  )
         8           Sn1 tau(   8) = (   0.0000000   1.5981302  12.2600974  )
         9           Mn1 tau(   9) = (  -0.0000000   3.1962604  14.5201948  )
        10           Mn1 tau(  10) = (   1.3840214   0.7990651  14.5201948  )
        11           Mn1 tau(  11) = (   4.1520641   0.7990651  14.5201948  )
        12           Sn1 tau(  12) = (   2.7680427   3.1962604  14.5201948  )

     number of k points=    40  Fermi-Dirac smearing, width (Ry)=  0.0110
                       cart. coord. in units 2pi/alat
        k(    1) = (   0.0000000   0.0000000   0.0000000), wk =   0.0277778
        k(    2) = (   0.0000000   0.0347628   0.0000000), wk =   0.0555556
        k(    3) = (   0.0000000   0.0695257   0.0000000), wk =   0.0555556
        k(    4) = (   0.0000000  -0.1042885   0.0000000), wk =   0.0277778
        k(    5) = (   0.0301055   0.0173814   0.0000000), wk =   0.0555556
        k(    6) = (   0.0301055   0.0521443   0.0000000), wk =   0.0555556
        k(    7) = (   0.0301055   0.0869071   0.0000000), wk =   0.0555556
        k(    8) = (   0.0301055  -0.0869071   0.0000000), wk =   0.0555556
        k(    9) = (   0.0301055  -0.0521443   0.0000000), wk =   0.0555556
        k(   10) = (   0.0301055  -0.0173814   0.0000000), wk =   0.0555556
        k(   11) = (   0.0602110   0.0347628   0.0000000), wk =   0.0555556
        k(   12) = (   0.0602110   0.0695257   0.0000000), wk =   0.0555556
        k(   13) = (   0.0602110   0.1042885   0.0000000), wk =   0.0555556
        k(   14) = (   0.0602110  -0.0695257   0.0000000), wk =   0.0555556
        k(   15) = (   0.0602110  -0.0347628   0.0000000), wk =   0.0555556
        k(   16) = (   0.0602110   0.0000000   0.0000000), wk =   0.0555556
        k(   17) = (  -0.0903165  -0.0521443   0.0000000), wk =   0.0277778
        k(   18) = (  -0.0903165  -0.0173814   0.0000000), wk =   0.0555556
        k(   19) = (  -0.0903165   0.0173814   0.0000000), wk =   0.0555556
        k(   20) = (  -0.0903165  -0.1564328   0.0000000), wk =   0.0277778
        k(   21) = (   0.0000000   0.0000000   0.0000000), wk =   0.0277778
        k(   22) = (   0.0000000   0.0347628   0.0000000), wk =   0.0555556
        k(   23) = (   0.0000000   0.0695257   0.0000000), wk =   0.0555556
        k(   24) = (   0.0000000  -0.1042885   0.0000000), wk =   0.0277778
        k(   25) = (   0.0301055   0.0173814   0.0000000), wk =   0.0555556
        k(   26) = (   0.0301055   0.0521443   0.0000000), wk =   0.0555556
        k(   27) = (   0.0301055   0.0869071   0.0000000), wk =   0.0555556
        k(   28) = (   0.0301055  -0.0869071   0.0000000), wk =   0.0555556
        k(   29) = (   0.0301055  -0.0521443   0.0000000), wk =   0.0555556
        k(   30) = (   0.0301055  -0.0173814   0.0000000), wk =   0.0555556
        k(   31) = (   0.0602110   0.0347628   0.0000000), wk =   0.0555556
        k(   32) = (   0.0602110   0.0695257   0.0000000), wk =   0.0555556
        k(   33) = (   0.0602110   0.1042885   0.0000000), wk =   0.0555556
        k(   34) = (   0.0602110  -0.0695257   0.0000000), wk =   0.0555556
        k(   35) = (   0.0602110  -0.0347628   0.0000000), wk =   0.0555556
        k(   36) = (   0.0602110   0.0000000   0.0000000), wk =   0.0555556
        k(   37) = (  -0.0903165  -0.0521443   0.0000000), wk =   0.0277778
        k(   38) = (  -0.0903165  -0.0173814   0.0000000), wk =   0.0555556
        k(   39) = (  -0.0903165   0.0173814   0.0000000), wk =   0.0555556
        k(   40) = (  -0.0903165  -0.1564328   0.0000000), wk =   0.0277778

     Largest allocated arrays     est. size (Mb)     dimensions
     Largest temporary arrays     est. size (Mb)     dimensions

     Check: negative/imaginary core charge=   -0.000007    0.000000

     Initial potential from superposition of free atoms
     Check: negative starting charge=(component1):   -0.001542
     Check: negative starting charge=(component2):   -0.001178

     starting charge  169.49910, renormalised to  177.00000

     negative rho (up, down):  1.611E-03 1.230E-03

     *
     * You are using vdW-DF for exchange-correlation in this calculation.
     * Please cite the following three references that made this development
     * possible:
     *
     *   M. Dion, H. Rydberg, E. Schroder, D. C. Langreth, and
     *   B. I. Lundqvist, Phys. Rev. Lett. 92, 246401 (2004).
     *
     *   T. Thonhauser, V. R. Cooper, S. Li, A. Puzder, P. Hyldgaard, and
     *   D. C. Langreth, Phys. Rev. B 76, 125112 (2007).
     *
     *   G. Roman-Perez and J. M. Soler, Phys. Rev. Lett. 103, 096102 (2009).
     *
     *
     * If you are using vdW-DF2, please also cite:
     *
     *   K. Lee, E. D. Murray, L. Kong, B. I. Lundqvist, and
     *   D. C. Langreth, Phys. Rev. B 82, 081101(R) (2010).
     *
     *
     * If you are calculating the stress with vdW-DF, please also cite:
     *
     *   R. Sabatini, E. Kucukbenli, B. Kolb, T. Thonhauser, and
     *   S. de Gironcoli, J. Phys.: Condens. Matter 24, 424209 (2012).
     *

     Carrying out vdW-DF run using the following parameters:

     Nqs =      20    Nr_points =    1024   r_max =   100.000
     q_mesh =
               0.00001000     0.04494208     0.09755937     0.15916263
               0.23128650     0.31572767     0.41458969     0.53033537
               0.66584808     0.82450364     1.01025438     1.22772762
               1.48234092     1.78043706     2.12944203     2.53805004
               3.01644009     3.57652955     4.23227104     5.00000000

     Gradients computed in reciprocal space

     Adding external electric field

     Computed dipole along edir(3) :
        Dipole                0.0000 Ry au,          0.0000 Debye
        Dipole field          0.0000 Ry au

        Potential amp.       -0.0000 Ry
        Total length         45.1780 bohr

[...]

     Starting wfc are  144 randomized atomic wfcs

     Self-consistent Calculation

     iteration #  1     ecut=    36.75 Ry     beta=0.10
     Davidson diagonalization with overlap
     ethr =  1.00E-02,  avg # of iterations =  7.9

[...]

     Magnetic moment per site:
     atom:    1    charge:    6.1046    magn:    0.7883    constr:    0.0000
     atom:    2    charge:    6.1046    magn:    0.7883    constr:    0.0000
     atom:    3    charge:    6.1046    magn:    0.7883    constr:    0.0000
     atom:    4    charge:    3.6171    magn:    0.4703    constr:    0.0000
     atom:    5    charge:    6.1188    magn:    0.7942    constr:    0.0000
     atom:    6    charge:    6.1188    magn:    0.7942    constr:    0.0000
     atom:    7    charge:    6.1188    magn:    0.7941    constr:    0.0000
     atom:    8    charge:    3.6207    magn:    0.4709    constr:    0.0000
[...]
        k(    3) = (   0.0000000   0.0695257   0.0000000), wk =   0.0555556
        k(    4) = (   0.0000000  -0.1042885   0.0000000), wk =   0.0277778
        k(    5) = (   0.0301055   0.0173814   0.0000000), wk =   0.0555556
        k(    6) = (   0.0301055   0.0521443   0.0000000), wk =   0.0555556
        k(    7) = (   0.0301055   0.0869071   0.0000000), wk =   0.0555556
        k(    8) = (   0.0301055  -0.0869071   0.0000000), wk =   0.0555556
        k(    9) = (   0.0301055  -0.0521443   0.0000000), wk =   0.0555556
        k(   10) = (   0.0301055  -0.0173814   0.0000000), wk =   0.0555556
        k(   11) = (   0.0602110   0.0347628   0.0000000), wk =   0.0555556
        k(   12) = (   0.0602110   0.0695257   0.0000000), wk =   0.0555556
        k(   13) = (   0.0602110   0.1042885   0.0000000), wk =   0.0555556
        k(   14) = (   0.0602110  -0.0695257   0.0000000), wk =   0.0555556
        k(   15) = (   0.0602110  -0.0347628   0.0000000), wk =   0.0555556
        k(   16) = (   0.0602110   0.0000000   0.0000000), wk =   0.0555556
        k(   17) = (  -0.0903165  -0.0521443   0.0000000), wk =   0.0277778
        k(   18) = (  -0.0903165  -0.0173814   0.0000000), wk =   0.0555556
        k(   19) = (  -0.0903165   0.0173814   0.0000000), wk =   0.0555556
        k(   20) = (  -0.0903165  -0.1564328   0.0000000), wk =   0.0277778
        k(   21) = (   0.0000000   0.0000000   0.0000000), wk =   0.0277778
        k(   22) = (   0.0000000   0.0347628   0.0000000), wk =   0.0555556
        k(   23) = (   0.0000000   0.0695257   0.0000000), wk =   0.0555556
        k(   24) = (   0.0000000  -0.1042885   0.0000000), wk =   0.0277778
        k(   25) = (   0.0301055   0.0173814   0.0000000), wk =   0.0555556
        k(   26) = (   0.0301055   0.0521443   0.0000000), wk =   0.0555556
        k(   27) = (   0.0301055   0.0869071   0.0000000), wk =   0.0555556
        k(   28) = (   0.0301055  -0.0869071   0.0000000), wk =   0.0555556
        k(   29) = (   0.0301055  -0.0521443   0.0000000), wk =   0.0555556
        k(   30) = (   0.0301055  -0.0173814   0.0000000), wk =   0.0555556
        k(   31) = (   0.0602110   0.0347628   0.0000000), wk =   0.0555556
        k(   32) = (   0.0602110   0.0695257   0.0000000), wk =   0.0555556
        k(   33) = (   0.0602110   0.1042885   0.0000000), wk =   0.0555556
        k(   34) = (   0.0602110  -0.0695257   0.0000000), wk =   0.0555556
        k(   35) = (   0.0602110  -0.0347628   0.0000000), wk =   0.0555556
        k(   36) = (   0.0602110   0.0000000   0.0000000), wk =   0.0555556
        k(   37) = (  -0.0903165  -0.0521443   0.0000000), wk =   0.0277778
        k(   38) = (  -0.0903165  -0.0173814   0.0000000), wk =   0.0555556
        k(   39) = (  -0.0903165   0.0173814   0.0000000), wk =   0.0555556
        k(   40) = (  -0.0903165  -0.1564328   0.0000000), wk =   0.0277778

     Largest allocated arrays     est. size (Mb)     dimensions
     Largest temporary arrays     est. size (Mb)     dimensions

     Check: negative/imaginary core charge=   -0.000007    0.000000

     Initial potential from superposition of free atoms
     Check: negative starting charge=(component1):   -0.001519
     Check: negative starting charge=(component2):   -0.001161

     starting charge  169.49910, renormalised to  177.00000

[...]

     *
     * You are using vdW-DF for exchange-correlation in this calculation.
     * Please cite the following three references that made this development
     * possible:
     *
     *   M. Dion, H. Rydberg, E. Schroder, D. C. Langreth, and
     *   B. I. Lundqvist, Phys. Rev. Lett. 92, 246401 (2004).
     *
     *   T. Thonhauser, V. R. Cooper, S. Li, A. Puzder, P. Hyldgaard, and
     *   D. C. Langreth, Phys. Rev. B 76, 125112 (2007).
     *
     *   G. Roman-Perez and J. M. Soler, Phys. Rev. Lett. 103, 096102 (2009).
     *
     *
     * If you are using vdW-DF2, please also cite:
     *
     *   K. Lee, E. D. Murray, L. Kong, B. I. Lundqvist, and
     *   D. C. Langreth, Phys. Rev. B 82, 081101(R) (2010).
     *
     *
     * If you are calculating the stress with vdW-DF, please also cite:
     *
     *   R. Sabatini, E. Kucukbenli, B. Kolb, T. Thonhauser, and
     *   S. de Gironcoli, J. Phys.: Condens. Matter 24, 424209 (2012).
     *

     Carrying out vdW-DF run using the following parameters:

     Nqs =      20    Nr_points =    1024   r_max =   100.000
     q_mesh =
               0.00001000     0.04494208     0.09755937     0.15916263
               0.23128650     0.31572767     0.41458969     0.53033537
               0.66584808     0.82450364     1.01025438     1.22772762
               1.48234092     1.78043706     2.12944203     2.53805004
               3.01644009     3.57652955     4.23227104     5.00000000

     Gradients computed in reciprocal space

[...]

     Starting wfc are  144 randomized atomic wfcs

     Self-consistent Calculation

[...]

     total energy              =   -2391.06420737 Ry
     Harris-Foulkes estimate   =   -2391.06420595 Ry
     estimated scf accuracy    <       0.00000129 Ry

[...]

     iteration # 34     ecut=    36.75 Ry     beta=0.10
     Davidson diagonalization with overlap
     ethr =  7.30E-10,  avg # of iterations =  2.4

[...]

     negative rho (up, down):  1.748E-03 1.437E-03

[...]

     Adding external electric field

     Computed dipole along edir(3) :
        Dipole               -0.0106 Ry au,         -0.0270 Debye
        Dipole field         -0.0000 Ry au

        Potential amp.        0.0027 Ry
        Total length         45.1780 bohr

     Magnetic moment per site:
     atom:    1    charge:    6.0016    magn:    1.3956    constr:    0.0000
     atom:    2    charge:    6.0016    magn:    1.3956    constr:    0.0000
     atom:    3    charge:    6.0016    magn:    1.3956    constr:    0.0000
     atom:    4    charge:    3.5112    magn:   -0.0056    constr:    0.0000
     atom:    5    charge:    5.9925    magn:    1.1833    constr:    0.0000
     atom:    6    charge:    5.9926    magn:    1.1833    constr:    0.0000
     atom:    7    charge:    5.9926    magn:    1.1833    constr:    0.0000
     atom:    8    charge:    3.5166    magn:   -0.0065    constr:    0.0000
     atom:    9    charge:    6.0130    magn:    1.3821    constr:    0.0000
     atom:   10    charge:    6.0129    magn:    1.3821    constr:    0.0000
     atom:   11    charge:    6.0129    magn:    1.3821    constr:    0.0000
     atom:   12    charge:    3.5189    magn:   -0.0064    constr:    0.0000

     End of self-consistent calculation

 ------ SPIN UP ------------

[...]

 ------ SPIN DOWN ----------

[...]

          k = 0.0602 0.0000 0.0000 ( 16498 PWs)   bands (ev):

[...]

          k =-0.0903-0.1564 0.0000 ( 16528 PWs)   bands (ev):

   -75.8582 -75.8512 -75.8438 -75.7705 -75.7638 -75.7569 -75.7510 -75.7422
   -75.7360 -44.7558 -44.7103 -44.7086 -44.6976 -44.6963 -44.6752 -44.6690
   -44.6574 -44.6362 -44.6180 -44.6158 -44.6155 -44.6083 -44.5905 -44.5902
   -44.5740 -44.5722 -44.5507 -44.5424 -44.5295 -44.5002 -44.4994 -44.4867
   -44.4703 -44.4563 -44.4448 -44.4286 -20.4126 -20.4075 -20.4075 -20.3905
   -20.3886 -20.2436 -20.2293 -20.2218 -20.2215 -20.2132 -20.2081 -20.1959
   -20.1955 -20.1709 -20.1664  -7.5421  -6.8958  -6.3616  -3.9555  -2.8598
    -2.8344  -2.6647  -1.4346  -1.1659  -1.0316  -0.6029  -0.4551  -0.3263
    -0.1944   0.5484   0.7112   0.7476   0.8453   0.9755   1.0788   1.1111
     1.2732   1.2779   1.3082   1.3715   1.5938   1.6149   1.8253   1.8833
     1.9615   2.0350   2.1633   2.2278   2.5056   2.5818   2.7151   2.8102
     2.8182   2.8447   2.9350   2.9359   2.9774   3.0376   3.1072   3.1450
     3.2954   3.3511   3.3638   3.3865   3.7150   3.7330   3.8535   3.9935
     4.0285   4.4475   4.5523   4.6252   4.6291   4.9393   5.8216   5.9414
     6.2841   6.5321   6.5689   6.7940   7.0362   7.0715

     the Fermi energy is     1.2749 ev

!    total energy              =   -2391.06421202 Ry
     Harris-Foulkes estimate   =   -2391.06420796 Ry
     estimated scf accuracy    <       0.00000052 Ry

     The total energy is the sum of the following terms:

     one-electron contribution =  -18199.71441615 Ry
     hartree contribution      =    9115.64144644 Ry
     xc contribution           =    -382.88099275 Ry
     ewald contribution        =    7075.95961706 Ry
     electric field correction =       0.00000032 Ry
     smearing contrib. (-TS)   =      -0.06986694 Ry

     total magnetization       =    30.07 Bohr mag/cell
     absolute magnetization    =    31.77 Bohr mag/cell

     convergence has been achieved in  34 iterations

 BEEF-vdW xc energy contributions
           1 :   -335.106940394273
           2 :    304.203624735429
           3 :   -252.635281028463
           4 :    195.585249852419
           5 :   -146.268241122475
           6 :    111.330825553221
           7 :   -90.3031427611114
           8 :    78.2414301239649
           9 :   -69.4332854152681
          10 :    60.1793628305425
          11 :   -49.6724138872561
          12 :    39.1657560033831
          13 :   -30.4321274226582
          14 :    24.5284062011089
          15 :   -21.3410519384148
          16 :    19.8233395261099
          17 :   -18.6219782967679
          18 :    16.7665032391930
          19 :   -14.1155434158734
          20 :    11.3277052711447
          21 :   -9.36801566584887
          22 :    8.83644773581699
          23 :   -9.53902575567867
          24 :    10.5810467062289
          25 :   -10.9370607093272
          26 :    10.1174882784870
          27 :   -8.47283221162172
          28 :    6.91983860404821
          29 :   -6.29479956341396
          30 :    6.79461998970697
          31 :   -29.8706194615166
          32 :   -21.3937332439013

     Forces acting on atoms (Ry/au):

     negative rho (up, down):  1.748E-03 1.437E-03
     atom    1 type  1   force =    -0.00000361   -0.01031442    0.00058456
     atom    2 type  1   force =    -0.00894344    0.00515597    0.00059561
     atom    3 type  1   force =     0.00893705    0.00515562    0.00060307
     atom    4 type  2   force =     0.00001401    0.00006152   -0.03582265
     atom    5 type  1   force =    -0.00000589    0.00704435    0.00937582
     atom    6 type  1   force =     0.00610647   -0.00351951    0.00939215
     atom    7 type  1   force =    -0.00611576   -0.00351837    0.00940009
     atom    8 type  2   force =     0.00000949   -0.00005233    0.00525304
     atom    9 type  1   force =     0.00000834   -0.00011851   -0.00029916
     atom   10 type  1   force =    -0.00015757    0.00002418   -0.00030953
     atom   11 type  1   force =     0.00015595    0.00001277   -0.00031677
     atom   12 type  2   force =    -0.00000504    0.00006871    0.00154378

     Total force =     0.045251     Total SCF correction =     0.002709

     entering subroutine stress ...

     negative rho (up, down):  1.748E-03 1.437E-03
          total   stress  (Ry/bohr**3)                   (kbar)     P=    1.52
   0.00000473  -0.00000000   0.00000001          0.70     -0.00      0.00
  -0.00000000   0.00000472   0.00000002         -0.00      0.69      0.00
   0.00000001   0.00000002   0.00002161          0.00      0.00      3.18

 !ASE

     Writing output data file calc.save

     General routines

     Parallel routines

   This run was terminated on:   3:16: 9  27Dec2018

   JOB DONE.
Job  /afs/slac/g/suncat/bin/suncat-tsmpirun -x LD_LIBRARY_PATH -wdir /scratch/qe110089_0LPqi pw.x -in pw.inp

TID   HOST_NAME   COMMAND_LINE            STATUS            TERMINATION_TIME
00000 suncat0093 pw.x -in pw.inp   Done                     12/27/2018 03:16:09
00001 suncat0093 pw.x -in pw.inp   Done                     12/27/2018 03:16:09
00002 suncat0093 pw.x -in pw.inp   Done                     12/27/2018 03:16:09
00003 suncat0093 pw.x -in pw.inp   Done                     12/27/2018 03:16:09
00004 suncat0093 pw.x -in pw.inp   Done                     12/27/2018 03:16:09
00005 suncat0093 pw.x -in pw.inp   Done                     12/27/2018 03:16:09
00006 suncat0093 pw.x -in pw.inp   Done                     12/27/2018 03:16:09
00007 suncat0093 pw.x -in pw.inp   Done                     12/27/2018 03:16:09
00008 suncat0089 pw.x -in pw.inp   Done                     12/27/2018 03:16:09
00009 suncat0089 pw.x -in pw.inp   Done                     12/27/2018 03:16:09
00010 suncat0089 pw.x -in pw.inp   Done                     12/27/2018 03:16:09
00011 suncat0089 pw.x -in pw.inp   Done                     12/27/2018 03:16:09
00012 suncat0089 pw.x -in pw.inp   Done                     12/27/2018 03:16:09
00013 suncat0089 pw.x -in pw.inp   Done                     12/27/2018 03:16:09
00014 suncat0089 pw.x -in pw.inp   Done                     12/27/2018 03:16:09
00015 suncat0089 pw.x -in pw.inp   Done                     12/27/2018 03:16:09
00016 suncat0088 pw.x -in pw.inp   Done                     12/27/2018 03:16:09
00017 suncat0088 pw.x -in pw.inp   Done                     12/27/2018 03:16:09
00018 suncat0088 pw.x -in pw.inp   Done                     12/27/2018 03:16:09
00019 suncat0088 pw.x -in pw.inp   Done                     12/27/2018 03:16:09
00020 suncat0088 pw.x -in pw.inp   Done                     12/27/2018 03:16:09
00021 suncat0088 pw.x -in pw.inp   Done                     12/27/2018 03:16:09
00022 suncat0088 pw.x -in pw.inp   Done                     12/27/2018 03:16:09
00023 suncat0088 pw.x -in pw.inp   Done                     12/27/2018 03:16:09
00024 suncat0079 pw.x -in pw.inp   Done                     12/27/2018 03:16:09
00025 suncat0079 pw.x -in pw.inp   Done                     12/27/2018 03:16:09
00026 suncat0079 pw.x -in pw.inp   Done                     12/27/2018 03:16:09
00027 suncat0079 pw.x -in pw.inp   Done                     12/27/2018 03:16:09
00028 suncat0079 pw.x -in pw.inp   Done                     12/27/2018 03:16:09
00029 suncat0079 pw.x -in pw.inp   Done                     12/27/2018 03:16:09
00030 suncat0079 pw.x -in pw.inp   Done                     12/27/2018 03:16:09
00031 suncat0079 pw.x -in pw.inp   Done                     12/27/2018 03:16:09
00032 suncat0064 pw.x -in pw.inp   Done                     12/27/2018 03:16:09
00033 suncat0064 pw.x -in pw.inp   Done                     12/27/2018 03:16:09
00034 suncat0064 pw.x -in pw.inp   Done                     12/27/2018 03:16:09
00035 suncat0064 pw.x -in pw.inp   Done                     12/27/2018 03:16:09
00036 suncat0064 pw.x -in pw.inp   Done                     12/27/2018 03:16:09
00037 suncat0064 pw.x -in pw.inp   Done                     12/27/2018 03:16:09
00038 suncat0064 pw.x -in pw.inp   Done                     12/27/2018 03:16:09
00039 suncat0064 pw.x -in pw.inp   Done                     12/27/2018 03:16:09
00040 suncat0129 pw.x -in pw.inp   Done                     12/27/2018 03:16:09
00041 suncat0129 pw.x -in pw.inp   Done                     12/27/2018 03:16:09
00042 suncat0129 pw.x -in pw.inp   Done                     12/27/2018 03:16:09
00043 suncat0129 pw.x -in pw.inp   Done                     12/27/2018 03:16:09
00044 suncat0129 pw.x -in pw.inp   Done                     12/27/2018 03:16:09
00045 suncat0129 pw.x -in pw.inp   Done                     12/27/2018 03:16:09
00046 suncat0129 pw.x -in pw.inp   Done                     12/27/2018 03:16:09
00047 suncat0129 pw.x -in pw.inp   Done                     12/27/2018 03:16:09
00048 suncat0254 pw.x -in pw.inp   Done                     12/27/2018 03:16:09
00049 suncat0254 pw.x -in pw.inp   Done                     12/27/2018 03:16:09
00050 suncat0254 pw.x -in pw.inp   Done                     12/27/2018 03:16:09
00051 suncat0254 pw.x -in pw.inp   Done                     12/27/2018 03:16:09
00052 suncat0254 pw.x -in pw.inp   Done                     12/27/2018 03:16:09
00053 suncat0254 pw.x -in pw.inp   Done                     12/27/2018 03:16:09
00054 suncat0254 pw.x -in pw.inp   Done                     12/27/2018 03:16:09
00055 suncat0254 pw.x -in pw.inp   Done                     12/27/2018 03:16:09
00056 suncat0253 pw.x -in pw.inp   Done                     12/27/2018 03:16:09
00057 suncat0253 pw.x -in pw.inp   Done                     12/27/2018 03:16:09
00058 suncat0253 pw.x -in pw.inp   Done                     12/27/2018 03:16:09
00059 suncat0253 pw.x -in pw.inp   Done                     12/27/2018 03:16:09
00060 suncat0253 pw.x -in pw.inp   Done                     12/27/2018 03:16:09
00061 suncat0253 pw.x -in pw.inp   Done                     12/27/2018 03:16:09
00062 suncat0253 pw.x -in pw.inp   Done                     12/27/2018 03:16:09
00063 suncat0253 pw.x -in pw.inp   Done                     12/27/2018 03:16:09