     Program PWSCF v.5.1rc2 (svn rev. 11289) starts on 26Dec2018 at  8:48:13

     Current dimensions of program PWSCF are:
     Max number of different atomic species (ntypx) = 10
     Max number of k-points (npk) =  40000
     Max angular momentum in pseudopotentials (lmaxx) =  3
     Presently stress not available with electric field

     IMPORTANT: XC functional enforced from input :
     Exchange-correlation      = BEEF-VDW ( 1  4 27 13 2)
     Any further DFT definition will be discarded
     Please, verify this is what you really want

     Subspace diagonalization in iterative solution of the eigenvalue problem:
     a serial algorithm will be used

     bravais-lattice index     =            0
     lattice parameter (alat)  =       1.8897  a.u.
     unit-cell volume          =    5944.2086 (a.u.)^3
     number of atoms/cell      =           12
     number of atomic types    =            2
     number of electrons       =       144.00
     number of Kohn-Sham states=          102
     kinetic-energy cutoff     =      36.7493  Ry
     charge density cutoff     =     367.4932  Ry
     convergence threshold     =      1.0E-06
     mixing beta               =       0.1000
     number of iterations used =           10  plain     mixing
     Exchange-correlation      = BEEF-VDW ( 1  4 27 13 2)
     nstep                     =           50

     celldm(1)=   1.889726  celldm(2)=   0.000000  celldm(3)=   0.000000
     celldm(4)=   0.000000  celldm(5)=   0.000000  celldm(6)=   0.000000

     crystal axes: (cart. coord. in units of alat)
               a(1) = (   6.354520   0.000000   0.000000 )
               a(2) = (  -3.177260   5.503176   0.000000 )
               a(3) = (   0.000000   0.000000  25.188444 )

     reciprocal axes: (cart. coord. in units 2 pi/alat)
               b(1) = (  0.157368  0.090857  0.000000 )
               b(2) = (  0.000000  0.181713  0.000000 )
               b(3) = (  0.000000  0.000000  0.039701 )

     PseudoPot. # 1 for Hf read from file:
     /afs/slac.stanford.edu/u/if/mamunm/psp/gbrv1.5pbe/Hf.UPF
     MD5 check sum: 8ee9378dfe14276e333edf04c5e4aa26
     Pseudo is Ultrasoft + core correction, Zval = 12.0
     Generated by new atomic code, or converted to UPF format
     Using radial grid of  921 points,  8 beta functions with:
                l(1) =   0
                l(2) =   0
                l(3) =   0
                l(4) =   1
                l(5) =   1
                l(6) =   2
                l(7) =   2
                l(8) =   3
     Q(r) pseudized with  6 coefficients,  rinner =    1.200   1.200   1.200
                                                       1.200   1.200   1.200
                                                       1.200

     PseudoPot. # 2 for Zr read from file:
     /afs/slac.stanford.edu/u/if/mamunm/psp/gbrv1.5pbe/Zr.UPF
     MD5 check sum: 5db81b1e868ab7776c4564c113de050b
     Pseudo is Ultrasoft + core correction, Zval = 12.0
     Generated by new atomic code, or converted to UPF format
     Using radial grid of  887 points,  6 beta functions with:
                l(1) =   0
                l(2) =   0
                l(3) =   1
                l(4) =   1
                l(5) =   2
                l(6) =   2
     Q(r) pseudized with  6 coefficients,  rinner =    1.200   1.200   1.200
                                                       1.200   1.200

     vdW kernel table read from file vdW_kernel_table
     MD5 check sum: 095c7af220d748ca6e76c0b4c6cfb241

     atomic species   valence    mass     pseudopotential
        Hf1           12.00   178.49000     Hf( 1.00)
        Zr1           12.00    91.22400     Zr( 1.00)

     No symmetry found

   Cartesian axes

     site n.     atom                  positions (alat units)
         1           Hf1 tau(   1) = (   0.0000000   0.0000000  10.0000000  )
         2           Hf1 tau(   2) = (  -1.5886300   2.7515878  10.0000000  )
         3           Hf1 tau(   3) = (   1.5886300   2.7515878  10.0000000  )
         4           Zr1 tau(   4) = (   3.1772599   0.0000000  10.0000000  )
         5           Hf1 tau(   5) = (   3.1772599   1.8343919  12.5942219  )
         6           Hf1 tau(   6) = (   1.5886300   4.5859797  12.5942219  )
         7           Hf1 tau(   7) = (  -1.5886300   4.5859797  12.5942219  )
         8           Zr1 tau(   8) = (   0.0000000   1.8343919  12.5942219  )
         9           Hf1 tau(   9) = (  -0.0000000   3.6687837  15.1884437  )
        10           Hf1 tau(  10) = (   1.5886300   0.9171959  15.1884437  )
        11           Hf1 tau(  11) = (   4.7658899   0.9171959  15.1884437  )
        12           Zr1 tau(  12) = (   3.1772599   3.6687837  15.1884437  )

     number of k points=    20  Fermi-Dirac smearing, width (Ry)=  0.0110
                       cart. coord. in units 2pi/alat
        k(    1) = (   0.0000000   0.0000000   0.0000000), wk =   0.0555556
        k(    2) = (   0.0000000   0.0302855   0.0000000), wk =   0.1111111
        k(    3) = (   0.0000000   0.0605711   0.0000000), wk =   0.1111111
        k(    4) = (   0.0000000  -0.0908566   0.0000000), wk =   0.0555556
        k(    5) = (   0.0262281   0.0151428   0.0000000), wk =   0.1111111
        k(    6) = (   0.0262281   0.0454283   0.0000000), wk =   0.1111111
        k(    7) = (   0.0262281   0.0757139   0.0000000), wk =   0.1111111
        k(    8) = (   0.0262281  -0.0757139   0.0000000), wk =   0.1111111
        k(    9) = (   0.0262281  -0.0454283   0.0000000), wk =   0.1111111
        k(   10) = (   0.0262281  -0.0151428   0.0000000), wk =   0.1111111
        k(   11) = (   0.0524561   0.0302855   0.0000000), wk =   0.1111111
        k(   12) = (   0.0524561   0.0605711   0.0000000), wk =   0.1111111
        k(   13) = (   0.0524561   0.0908566   0.0000000), wk =   0.1111111
        k(   14) = (   0.0524561  -0.0605711   0.0000000), wk =   0.1111111
        k(   15) = (   0.0524561  -0.0302855   0.0000000), wk =   0.1111111
        k(   16) = (   0.0524561   0.0000000   0.0000000), wk =   0.1111111
        k(   17) = (  -0.0786842  -0.0454283   0.0000000), wk =   0.0555556
        k(   18) = (  -0.0786842  -0.0151428   0.0000000), wk =   0.1111111
        k(   19) = (  -0.0786842   0.0151428   0.0000000), wk =   0.1111111
        k(   20) = (  -0.0786842  -0.1362849   0.0000000), wk =   0.0555556

     Largest allocated arrays     est. size (Mb)     dimensions
     Largest temporary arrays     est. size (Mb)     dimensions

     Check: negative/imaginary core charge=   -0.000003    0.000000

     Initial potential from superposition of free atoms
     Check: negative starting charge=   -1.154259

     starting charge  125.99353, renormalised to  144.00000

     negative rho (up, down):  1.319E+00 0.000E+00

     *
     * You are using vdW-DF for exchange-correlation in this calculation.
     * Please cite the following three references that made this development
     * possible:
     *
     *   M. Dion, H. Rydberg, E. Schroder, D. C. Langreth, and
     *   B. I. Lundqvist, Phys. Rev. Lett. 92, 246401 (2004).
     *
     *   T. Thonhauser, V. R. Cooper, S. Li, A. Puzder, P. Hyldgaard, and
     *   D. C. Langreth, Phys. Rev. B 76, 125112 (2007).
     *
     *   G. Roman-Perez and J. M. Soler, Phys. Rev. Lett. 103, 096102 (2009).
     *
     *
     * If you are using vdW-DF2, please also cite:
     *
     *   K. Lee, E. D. Murray, L. Kong, B. I. Lundqvist, and
     *   D. C. Langreth, Phys. Rev. B 82, 081101(R) (2010).
     *
     *
     * If you are calculating the stress with vdW-DF, please also cite:
     *
     *   R. Sabatini, E. Kucukbenli, B. Kolb, T. Thonhauser, and
     *   S. de Gironcoli, J. Phys.: Condens. Matter 24, 424209 (2012).
     *

     Carrying out vdW-DF run using the following parameters:

     Nqs =      20    Nr_points =    1024   r_max =   100.000
     q_mesh =
               0.00001000     0.04494208     0.09755937     0.15916263
               0.23128650     0.31572767     0.41458969     0.53033537
               0.66584808     0.82450364     1.01025438     1.22772762
               1.48234092     1.78043706     2.12944203     2.53805004
               3.01644009     3.57652955     4.23227104     5.00000000

     Gradients computed in reciprocal space

     Adding external electric field

     Computed dipole along edir(3) :
        Dipole                0.0000 Ry au,          0.0000 Debye
        Dipole field          0.0000 Ry au

        Potential amp.       -0.0000 Ry
        Total length         46.4093 bohr

     Starting wfc are  156 randomized atomic wfcs

     Self-consistent Calculation

     iteration #  1     ecut=    36.75 Ry     beta=0.10
     Davidson diagonalization with overlap
     ethr =  1.00E-02,  avg # of iterations =  8.7

[...]

     total energy              =   -1745.29978379 Ry
     Harris-Foulkes estimate   =   -1753.27350194 Ry
     estimated scf accuracy    <      48.74168383 Ry

[...]

     iteration # 15     ecut=    36.75 Ry     beta=0.10
     Davidson diagonalization with overlap
     c_bands:  1 eigenvalues not converged
     ethr =  5.00E-07,  avg # of iterations =  9.0

[...]

     End of self-consistent calculation

          k = 0.0000 0.0000 0.0000 ( 22405 PWs)   bands (ev):

   -61.1906 -61.1902 -61.1627 -61.1627 -61.1625 -61.1625 -60.7648 -60.7375
   -60.7366 -47.6654 -47.6652 -47.3663 -29.9710 -29.9545 -29.8441 -29.8326
   -29.8325 -29.8065 -29.8065 -29.7686 -29.7601 -29.7600 -29.7073 -29.7073
   -29.5590 -29.5506 -29.5422 -29.4593 -29.4592 -29.4478 -29.4478 -29.3707
   -29.3704 -29.2602 -29.2247 -29.2242 -29.1429 -29.0552 -29.0548 -25.6684
   -25.6497 -25.6159 -25.6159 -25.6113 -25.6113 -25.3540 -25.3305 -25.3305
    -4.8206  -3.5696  -2.4160  -1.6920  -1.6919  -1.4450  -1.4449  -1.2169
    -1.0848  -1.0172  -1.0172  -0.6581  -0.3947  -0.3947  -0.3613   0.4108
     0.4108   0.4565   1.3694   1.3718   1.7079   1.7079   1.7313   1.8675
     1.9449   1.9725   1.9726   2.1974   2.4887   2.5749   2.5749   2.6385
     2.6385   2.8644   2.8644   2.8867   2.8996   2.8996   2.9183   2.9184
     3.0039   3.0039   3.0220   4.1922   4.1922   4.3396   4.5990   4.5990
     4.7416   4.9291   5.0616   5.0616   5.1140   5.2216

[...]

          k =-0.0787-0.0454 0.0000 ( 22364 PWs)   bands (ev):

[...]

     the Fermi energy is     1.4059 ev

!    total energy              =   -1744.14902835 Ry
     Harris-Foulkes estimate   =   -1744.14902790 Ry
     estimated scf accuracy    <       0.00000051 Ry

     The total energy is the sum of the following terms:

     one-electron contribution =   -8390.13374917 Ry
     hartree contribution      =    4180.03544851 Ry
     xc contribution           =    -751.01169122 Ry
     ewald contribution        =    3217.08043536 Ry
     electric field correction =       0.00000000 Ry
     smearing contrib. (-TS)   =      -0.11947183 Ry

     convergence has been achieved in  21 iterations

 BEEF-vdW xc energy contributions
           1 :   -676.340243020403
           2 :    627.664157757054
           3 :   -541.648728959865
           4 :    436.506656323526
           5 :   -330.971664165437
           6 :    238.863870890724
           7 :   -166.745445823823
[...]
     MD5 check sum: 8ee9378dfe14276e333edf04c5e4aa26
     Pseudo is Ultrasoft + core correction, Zval = 12.0
     Generated by new atomic code, or converted to UPF format
     Using radial grid of  921 points,  8 beta functions with:
                l(1) =   0
                l(2) =   0
                l(3) =   0
                l(4) =   1
                l(5) =   1
                l(6) =   2
                l(7) =   2
                l(8) =   3
     Q(r) pseudized with  6 coefficients,  rinner =    1.200   1.200   1.200
                                                       1.200   1.200   1.200
                                                       1.200

     PseudoPot. # 2 for Zr read from file:
     /afs/slac.stanford.edu/u/if/mamunm/psp/gbrv1.5pbe/Zr.UPF
     MD5 check sum: 5db81b1e868ab7776c4564c113de050b
     Pseudo is Ultrasoft + core correction, Zval = 12.0
     Generated by new atomic code, or converted to UPF format
     Using radial grid of  887 points,  6 beta functions with:
                l(1) =   0
                l(2) =   0
                l(3) =   1
                l(4) =   1
                l(5) =   2
                l(6) =   2
     Q(r) pseudized with  6 coefficients,  rinner =    1.200   1.200   1.200
                                                       1.200   1.200

     vdW kernel table read from file vdW_kernel_table
     MD5 check sum: 095c7af220d748ca6e76c0b4c6cfb241

     atomic species   valence    mass     pseudopotential
        Hf1           12.00   178.49000     Hf( 1.00)
        Zr1           12.00    91.22400     Zr( 1.00)

     No symmetry found

   Cartesian axes

     site n.     atom                  positions (alat units)
         1           Hf1 tau(   1) = (   0.0000000   0.0000000  10.0000000  )
         2           Hf1 tau(   2) = (  -1.5886300   2.7515878  10.0000000  )
         3           Hf1 tau(   3) = (   1.5886300   2.7515878  10.0000000  )
         4           Zr1 tau(   4) = (   3.1772599   0.0000000  10.0000000  )
         5           Hf1 tau(   5) = (   3.1772599   1.8343919  12.5942219  )
         6           Hf1 tau(   6) = (   1.5886300   4.5859797  12.5942219  )
         7           Hf1 tau(   7) = (  -1.5886300   4.5859797  12.5942219  )
         8           Zr1 tau(   8) = (   0.0000000   1.8343919  12.5942219  )
         9           Hf1 tau(   9) = (  -0.0000089   3.6886571  15.0451352  )
        10           Hf1 tau(  10) = (   1.6060157   0.9068958  15.0451289  )
        11           Hf1 tau(  11) = (   4.7485093   0.9069041  15.0451308  )
        12           Zr1 tau(  12) = (   3.1772656   3.6689359  15.0661968  )

     number of k points=    20  Fermi-Dirac smearing, width (Ry)=  0.0110
                       cart. coord. in units 2pi/alat
        k(    1) = (   0.0000000   0.0000000   0.0000000), wk =   0.0555556
        k(    2) = (   0.0000000   0.0302855   0.0000000), wk =   0.1111111
        k(    3) = (   0.0000000   0.0605711   0.0000000), wk =   0.1111111
        k(    4) = (   0.0000000  -0.0908566   0.0000000), wk =   0.0555556
        k(    5) = (   0.0262281   0.0151428   0.0000000), wk =   0.1111111
        k(    6) = (   0.0262281   0.0454283   0.0000000), wk =   0.1111111
        k(    7) = (   0.0262281   0.0757139   0.0000000), wk =   0.1111111
        k(    8) = (   0.0262281  -0.0757139   0.0000000), wk =   0.1111111
        k(    9) = (   0.0262281  -0.0454283   0.0000000), wk =   0.1111111
        k(   10) = (   0.0262281  -0.0151428   0.0000000), wk =   0.1111111
        k(   11) = (   0.0524561   0.0302855   0.0000000), wk =   0.1111111
        k(   12) = (   0.0524561   0.0605711   0.0000000), wk =   0.1111111
        k(   13) = (   0.0524561   0.0908566   0.0000000), wk =   0.1111111
        k(   14) = (   0.0524561  -0.0605711   0.0000000), wk =   0.1111111
        k(   15) = (   0.0524561  -0.0302855   0.0000000), wk =   0.1111111
        k(   16) = (   0.0524561   0.0000000   0.0000000), wk =   0.1111111
        k(   17) = (  -0.0786842  -0.0454283   0.0000000), wk =   0.0555556
        k(   18) = (  -0.0786842  -0.0151428   0.0000000), wk =   0.1111111
        k(   19) = (  -0.0786842   0.0151428   0.0000000), wk =   0.1111111
        k(   20) = (  -0.0786842  -0.1362849   0.0000000), wk =   0.0555556

     Largest allocated arrays     est. size (Mb)     dimensions
     Largest temporary arrays     est. size (Mb)     dimensions

     Check: negative/imaginary core charge=   -0.000003    0.000000

     Initial potential from superposition of free atoms
     Check: negative starting charge=   -1.153918

     starting charge  125.99353, renormalised to  144.00000

[...]

     *
     * You are using vdW-DF for exchange-correlation in this calculation.
     * Please cite the following three references that made this development
     * possible:
     *
     *   M. Dion, H. Rydberg, E. Schroder, D. C. Langreth, and
     *   B. I. Lundqvist, Phys. Rev. Lett. 92, 246401 (2004).
     *
     *   T. Thonhauser, V. R. Cooper, S. Li, A. Puzder, P. Hyldgaard, and
     *   D. C. Langreth, Phys. Rev. B 76, 125112 (2007).
     *
     *   G. Roman-Perez and J. M. Soler, Phys. Rev. Lett. 103, 096102 (2009).
     *
     *
     * If you are using vdW-DF2, please also cite:
     *
     *   K. Lee, E. D. Murray, L. Kong, B. I. Lundqvist, and
     *   D. C. Langreth, Phys. Rev. B 82, 081101(R) (2010).
     *
     *
     * If you are calculating the stress with vdW-DF, please also cite:
     *
     *   R. Sabatini, E. Kucukbenli, B. Kolb, T. Thonhauser, and
     *   S. de Gironcoli, J. Phys.: Condens. Matter 24, 424209 (2012).
     *

     Carrying out vdW-DF run using the following parameters:

     Nqs =      20    Nr_points =    1024   r_max =   100.000
     q_mesh =
               0.00001000     0.04494208     0.09755937     0.15916263
               0.23128650     0.31572767     0.41458969     0.53033537
               0.66584808     0.82450364     1.01025438     1.22772762
               1.48234092     1.78043706     2.12944203     2.53805004
               3.01644009     3.57652955     4.23227104     5.00000000

     Gradients computed in reciprocal space

[...]

     Starting wfc are  156 randomized atomic wfcs

     Self-consistent Calculation

[...]

     total energy              =   -1744.17027581 Ry
     Harris-Foulkes estimate   =   -1744.17027576 Ry
     estimated scf accuracy    <       0.00000127 Ry

     iteration # 21     ecut=    36.75 Ry     beta=0.10
     Davidson diagonalization with overlap
     ethr =  8.84E-10,  avg # of iterations =  1.8

[...]

     negative rho (up, down):  1.215E+00 0.000E+00

     Adding external electric field

     Computed dipole along edir(3) :
        Dipole                0.0006 Ry au,          0.0015 Debye
        Dipole field          0.0000 Ry au

        Potential amp.       -0.0001 Ry
        Total length         46.4093 bohr

     End of self-consistent calculation

[...]

          k = 0.0525 0.0000 0.0000 ( 22359 PWs)   bands (ev):

[...]

          k =-0.0787-0.1363 0.0000 ( 22364 PWs)   bands (ev):

   -61.1877 -61.1784 -61.1691 -61.1009 -61.0904 -61.0813 -60.6627 -60.6534
   -60.6442 -47.6686 -47.6335 -47.3109 -29.8718 -29.8222 -29.8028 -29.7763
   -29.7437 -29.7418 -29.7098 -29.7058 -29.6962 -29.6889 -29.6658 -29.6552
   -29.6535 -29.6465 -29.5950 -29.5934 -29.4731 -29.4080 -29.3693 -29.2026
   -29.1972 -29.1794 -29.1658 -29.1535 -29.1368 -29.1269 -28.9926 -25.6687
   -25.6460 -25.6319 -25.6252 -25.6184 -25.6007 -25.3195 -25.3097 -25.2909
    -3.3491  -3.2239  -2.1333  -2.0066  -1.2257  -1.1685  -0.9424  -0.7305
    -0.5898  -0.5079   0.0916   0.2983   0.3019   0.3376   0.4397   0.4606
     0.6067   0.7310   0.7991   0.8521   0.8616   0.9658   1.1248   1.1409
     1.1866   1.2495   1.3498   1.4441   1.4929   1.5848   1.7184   1.7694
     2.2188   2.2333   2.3261   2.3952   2.6164   2.6371   3.1925   3.2147
     3.3714   3.4561   3.8290   3.8825   3.9405   3.9934   4.0306   4.0797
     4.2711   4.3006   4.3848   4.5418   4.6484   4.6623

     the Fermi energy is     1.3932 ev

!    total energy              =   -1744.17027676 Ry
     Harris-Foulkes estimate   =   -1744.17027592 Ry
     estimated scf accuracy    <       0.00000035 Ry

     The total energy is the sum of the following terms:

     one-electron contribution =   -8557.56070465 Ry
     hartree contribution      =    4263.96346982 Ry
     xc contribution           =    -751.26017447 Ry
     ewald contribution        =    3300.80151558 Ry
     electric field correction =       0.00000000 Ry
     smearing contrib. (-TS)   =      -0.11438304 Ry

     convergence has been achieved in  21 iterations

 BEEF-vdW xc energy contributions
           1 :   -676.908482543983
           2 :    628.304824426735
           3 :   -542.355621522981
           4 :    437.181894401641
           5 :   -331.491803630729
           6 :    239.171108136651
           7 :   -166.893612328231
           8 :    114.957060389078
           9 :   -80.0442170643862
          10 :    57.9695760272979
          11 :   -45.1517978945616
          12 :    38.6615262510003
          13 :   -35.6470439668219
          14 :    33.0579462301953
          15 :   -28.1177564789668
          16 :    19.2597421908043
          17 :   -6.85993538878540
          18 :   -6.82233636880903
          19 :    18.5750486415932
          20 :   -25.6088314578427
          21 :    26.6855101663309
          22 :   -22.4865259752875
          23 :    15.1328338431683
          24 :   -7.22169000201075
          25 :   0.911480267403704
          26 :    2.55330374868493
          27 :   -2.83403366828827
          28 :   0.235144218247001
          29 :    4.52472724794848
          30 :   -10.3926985619657
          31 :   -50.6025108156036
          32 :   -36.5697195001870

     Forces acting on atoms (Ry/au):

     negative rho (up, down):  1.215E+00 0.000E+00
     atom    1 type  1   force =    -0.00000343   -0.00225561    0.01428218
     atom    2 type  1   force =    -0.00195262    0.00114371    0.01424027
     atom    3 type  1   force =     0.00195249    0.00114746    0.01424055
     atom    4 type  2   force =     0.00000296    0.00003515    0.01083538
     atom    5 type  1   force =    -0.00000083    0.00102308   -0.01447721
     atom    6 type  1   force =     0.00084838   -0.00047994   -0.01452785
     atom    7 type  1   force =    -0.00084858   -0.00047797   -0.01452669
     atom    8 type  2   force =     0.00000157    0.00001730   -0.01155967
     atom    9 type  1   force =     0.00000074   -0.00033158    0.00076632
     atom   10 type  1   force =    -0.00024398    0.00009458    0.00071805
     atom   11 type  1   force =     0.00024356    0.00009423    0.00072056
     atom   12 type  2   force =    -0.00000026   -0.00001041   -0.00071189

     Total force =     0.038896     Total SCF correction =     0.001037

     entering subroutine stress ...

     negative rho (up, down):  1.215E+00 0.000E+00
          total   stress  (Ry/bohr**3)                   (kbar)     P=  -10.66
  -0.00007720  -0.00000000   0.00000000        -11.36     -0.00      0.00
  -0.00000000  -0.00007708   0.00000003         -0.00    -11.34      0.00
   0.00000000   0.00000003  -0.00006305          0.00      0.00     -9.27

 !ASE

     Writing output data file calc.save

     General routines

     Parallel routines

   This run was terminated on:  10:56:39  26Dec2018

   JOB DONE.
Job  /afs/slac/g/suncat/bin/suncat-tsmpirun -x LD_LIBRARY_PATH -wdir /scratch/qe109785_41QkA pw.x -in pw.inp

TID   HOST_NAME   COMMAND_LINE            STATUS            TERMINATION_TIME
00000 suncat0040 pw.x -in pw.inp   Done                     12/26/2018 10:56:39
00001 suncat0040 pw.x -in pw.inp   Done                     12/26/2018 10:56:39
00002 suncat0040 pw.x -in pw.inp   Done                     12/26/2018 10:56:39
00003 suncat0040 pw.x -in pw.inp   Done                     12/26/2018 10:56:39
00004 suncat0040 pw.x -in pw.inp   Done                     12/26/2018 10:56:39
00005 suncat0040 pw.x -in pw.inp   Done                     12/26/2018 10:56:39
00006 suncat0040 pw.x -in pw.inp   Done                     12/26/2018 10:56:39
00007 suncat0040 pw.x -in pw.inp   Done                     12/26/2018 10:56:39
00008 suncat0179 pw.x -in pw.inp   Done                     12/26/2018 10:56:39
00009 suncat0179 pw.x -in pw.inp   Done                     12/26/2018 10:56:39
00010 suncat0179 pw.x -in pw.inp   Done                     12/26/2018 10:56:39
00011 suncat0179 pw.x -in pw.inp   Done                     12/26/2018 10:56:39
00012 suncat0179 pw.x -in pw.inp   Done                     12/26/2018 10:56:39
00013 suncat0179 pw.x -in pw.inp   Done                     12/26/2018 10:56:39
00014 suncat0179 pw.x -in pw.inp   Done                     12/26/2018 10:56:39
00015 suncat0179 pw.x -in pw.inp   Done                     12/26/2018 10:56:39
00016 suncat0147 pw.x -in pw.inp   Done                     12/26/2018 10:56:39
00017 suncat0147 pw.x -in pw.inp   Done                     12/26/2018 10:56:39
00018 suncat0147 pw.x -in pw.inp   Done                     12/26/2018 10:56:39
00019 suncat0147 pw.x -in pw.inp   Done                     12/26/2018 10:56:39
00020 suncat0147 pw.x -in pw.inp   Done                     12/26/2018 10:56:39
00021 suncat0147 pw.x -in pw.inp   Done                     12/26/2018 10:56:39
00022 suncat0147 pw.x -in pw.inp   Done                     12/26/2018 10:56:39
00023 suncat0147 pw.x -in pw.inp   Done                     12/26/2018 10:56:39
00024 suncat0146 pw.x -in pw.inp   Done                     12/26/2018 10:56:39
00025 suncat0146 pw.x -in pw.inp   Done                     12/26/2018 10:56:39
00026 suncat0146 pw.x -in pw.inp   Done                     12/26/2018 10:56:39
00027 suncat0146 pw.x -in pw.inp   Done                     12/26/2018 10:56:39
00028 suncat0146 pw.x -in pw.inp   Done                     12/26/2018 10:56:39
00029 suncat0146 pw.x -in pw.inp   Done                     12/26/2018 10:56:39
00030 suncat0146 pw.x -in pw.inp   Done                     12/26/2018 10:56:39
00031 suncat0146 pw.x -in pw.inp   Done                     12/26/2018 10:56:39
00032 suncat0272 pw.x -in pw.inp   Done                     12/26/2018 10:56:39
00033 suncat0272 pw.x -in pw.inp   Done                     12/26/2018 10:56:39
00034 suncat0272 pw.x -in pw.inp   Done                     12/26/2018 10:56:39
00035 suncat0272 pw.x -in pw.inp   Done                     12/26/2018 10:56:39
00036 suncat0272 pw.x -in pw.inp   Done                     12/26/2018 10:56:39
00037 suncat0272 pw.x -in pw.inp   Done                     12/26/2018 10:56:39
00038 suncat0272 pw.x -in pw.inp   Done                     12/26/2018 10:56:39
00039 suncat0272 pw.x -in pw.inp   Done                     12/26/2018 10:56:39
00040 suncat0271 pw.x -in pw.inp   Done                     12/26/2018 10:56:39
00041 suncat0271 pw.x -in pw.inp   Done                     12/26/2018 10:56:39
00042 suncat0271 pw.x -in pw.inp   Done                     12/26/2018 10:56:39
00043 suncat0271 pw.x -in pw.inp   Done                     12/26/2018 10:56:39
00044 suncat0271 pw.x -in pw.inp   Done                     12/26/2018 10:56:39
00045 suncat0271 pw.x -in pw.inp   Done                     12/26/2018 10:56:39
00046 suncat0271 pw.x -in pw.inp   Done                     12/26/2018 10:56:39
00047 suncat0271 pw.x -in pw.inp   Done                     12/26/2018 10:56:39
00048 suncat0260 pw.x -in pw.inp   Done                     12/26/2018 10:56:39
00049 suncat0260 pw.x -in pw.inp   Done                     12/26/2018 10:56:39
00050 suncat0260 pw.x -in pw.inp   Done                     12/26/2018 10:56:39
00051 suncat0260 pw.x -in pw.inp   Done                     12/26/2018 10:56:39
00052 suncat0260 pw.x -in pw.inp   Done                     12/26/2018 10:56:39
00053 suncat0260 pw.x -in pw.inp   Done                     12/26/2018 10:56:39
00054 suncat0260 pw.x -in pw.inp   Done                     12/26/2018 10:56:39
00055 suncat0260 pw.x -in pw.inp   Done                     12/26/2018 10:56:39
00056 suncat0259 pw.x -in pw.inp   Done                     12/26/2018 10:56:39
00057 suncat0259 pw.x -in pw.inp   Done                     12/26/2018 10:56:39
00058 suncat0259 pw.x -in pw.inp   Done                     12/26/2018 10:56:39
00059 suncat0259 pw.x -in pw.inp   Done                     12/26/2018 10:56:39
00060 suncat0259 pw.x -in pw.inp   Done                     12/26/2018 10:56:39
00061 suncat0259 pw.x -in pw.inp   Done                     12/26/2018 10:56:39
00062 suncat0259 pw.x -in pw.inp   Done                     12/26/2018 10:56:39
00063 suncat0259 pw.x -in pw.inp   Done                     12/26/2018 10:56:39