     Program PWSCF v.5.1rc2 (svn rev. 11289) starts on 19Dec2018 at 16: 4:49

     Current dimensions of program PWSCF are:
     Max number of different atomic species (ntypx) = 10
     Max number of k-points (npk) =  40000
     Max angular momentum in pseudopotentials (lmaxx) =  3
     Presently stress not available with electric field

     IMPORTANT: XC functional enforced from input :
     Exchange-correlation      = BEEF-VDW ( 1  4 27 13 2)
     Any further DFT definition will be discarded
     Please, verify this is what you really want

     Subspace diagonalization in iterative solution of the eigenvalue problem:
     a serial algorithm will be used

     bravais-lattice index     =            0
     lattice parameter (alat)  =       1.8897  a.u.
     unit-cell volume          =    5355.7689 (a.u.)^3
     number of atoms/cell      =           12
     number of atomic types    =            2
     number of electrons       =       204.00
     number of Kohn-Sham states=          132
     kinetic-energy cutoff     =      36.7493  Ry
     charge density cutoff     =     367.4932  Ry
     convergence threshold     =      1.0E-06
     mixing beta               =       0.1000
     number of iterations used =           10  plain     mixing
     Exchange-correlation      = BEEF-VDW ( 1  4 27 13 2)
     nstep                     =           50

     celldm(1)=   1.889726  celldm(2)=   0.000000  celldm(3)=   0.000000
     celldm(4)=   0.000000  celldm(5)=   0.000000  celldm(6)=   0.000000

     crystal axes: (cart. coord. in units of alat)
               a(1) = (   6.060725   0.000000   0.000000 )
               a(2) = (  -3.030362   5.248741   0.000000 )
               a(3) = (   0.000000   0.000000  24.948561 )

     reciprocal axes: (cart. coord. in units 2 pi/alat)
               b(1) = (  0.164997  0.095261  0.000000 )
               b(2) = (  0.000000  0.190522  0.000000 )
               b(3) = (  0.000000  0.000000  0.040082 )

     PseudoPot. # 1 for Ag read from file:
     /afs/slac.stanford.edu/u/if/mamunm/psp/gbrv1.5pbe/Ag.UPF
     MD5 check sum: d66d668201baa78d5eb5b04ef7011058
     Pseudo is Ultrasoft + core correction, Zval = 19.0
     Generated by new atomic code, or converted to UPF format
     Using radial grid of  887 points,  6 beta functions with:
                l(1) =   0
                l(2) =   0
                l(3) =   1
                l(4) =   1
                l(5) =   2
                l(6) =   2
     Q(r) pseudized with  6 coefficients,  rinner =    1.300   1.300   1.300
                                                       1.300   1.300

     PseudoPot. # 2 for Sc read from file:
     /afs/slac.stanford.edu/u/if/mamunm/psp/gbrv1.5pbe/Sc.UPF
     MD5 check sum: db30a2753ba66ef00f23801d899b7e7f
     Pseudo is Ultrasoft + core correction, Zval = 11.0
     Generated by new atomic code, or converted to UPF format
     Using radial grid of  849 points,  6 beta functions with:
                l(1) =   0
                l(2) =   0
                l(3) =   1
                l(4) =   1
                l(5) =   2
                l(6) =   2
     Q(r) pseudized with  6 coefficients,  rinner =    1.200   1.200   1.200
                                                       1.200   1.200

     vdW kernel table read from file vdW_kernel_table
     MD5 check sum: 095c7af220d748ca6e76c0b4c6cfb241

     atomic species   valence    mass     pseudopotential
        Ag1           19.00   107.86820     Ag( 1.00)
        Sc1           11.00    44.95591     Sc( 1.00)

     No symmetry found

   Cartesian axes

     site n.     atom                  positions (alat units)
         1           Ag1 tau(   1) = (   0.0000000   0.0000000  10.0000000  )
         2           Ag1 tau(   2) = (  -1.5151811   2.6243707  10.0000000  )
         3           Ag1 tau(   3) = (   1.5151811   2.6243707  10.0000000  )
         4           Sc1 tau(   4) = (   3.0303623   0.0000000  10.0000000  )
         5           Ag1 tau(   5) = (   3.0303623   1.7495805  12.4742804  )
         6           Ag1 tau(   6) = (   1.5151811   4.3739512  12.4742804  )
         7           Ag1 tau(   7) = (  -1.5151811   4.3739512  12.4742804  )
         8           Sc1 tau(   8) = (   0.0000000   1.7495805  12.4742804  )
         9           Ag1 tau(   9) = (  -0.0000000   3.4991610  14.9485609  )
        10           Ag1 tau(  10) = (   1.5151811   0.8747902  14.9485609  )
        11           Ag1 tau(  11) = (   4.5455434   0.8747902  14.9485609  )
        12           Sc1 tau(  12) = (   3.0303623   3.4991610  14.9485609  )

     number of k points=    20  Fermi-Dirac smearing, width (Ry)=  0.0110
                       cart. coord. in units 2pi/alat
        k(    1) = (   0.0000000   0.0000000   0.0000000), wk =   0.0555556
        k(    2) = (   0.0000000   0.0317536   0.0000000), wk =   0.1111111
        k(    3) = (   0.0000000   0.0635073   0.0000000), wk =   0.1111111
        k(    4) = (   0.0000000  -0.0952609   0.0000000), wk =   0.0555556
        k(    5) = (   0.0274995   0.0158768   0.0000000), wk =   0.1111111
        k(    6) = (   0.0274995   0.0476305   0.0000000), wk =   0.1111111
        k(    7) = (   0.0274995   0.0793841   0.0000000), wk =   0.1111111
        k(    8) = (   0.0274995  -0.0793841   0.0000000), wk =   0.1111111
        k(    9) = (   0.0274995  -0.0476305   0.0000000), wk =   0.1111111
        k(   10) = (   0.0274995  -0.0158768   0.0000000), wk =   0.1111111
        k(   11) = (   0.0549989   0.0317536   0.0000000), wk =   0.1111111
        k(   12) = (   0.0549989   0.0635073   0.0000000), wk =   0.1111111
        k(   13) = (   0.0549989   0.0952609   0.0000000), wk =   0.1111111
        k(   14) = (   0.0549989  -0.0635073   0.0000000), wk =   0.1111111
        k(   15) = (   0.0549989  -0.0317536   0.0000000), wk =   0.1111111
        k(   16) = (   0.0549989   0.0000000   0.0000000), wk =   0.1111111
        k(   17) = (  -0.0824984  -0.0476305   0.0000000), wk =   0.0555556
        k(   18) = (  -0.0824984  -0.0158768   0.0000000), wk =   0.1111111
        k(   19) = (  -0.0824984   0.0158768   0.0000000), wk =   0.1111111
        k(   20) = (  -0.0824984  -0.1428914   0.0000000), wk =   0.0555556

     Largest allocated arrays     est. size (Mb)     dimensions
     Largest temporary arrays     est. size (Mb)     dimensions

     Initial potential from superposition of free atoms
     Check: negative starting charge=   -0.001885

     starting charge  199.49237, renormalised to  204.00000

     negative rho (up, down):  1.927E-03 0.000E+00

     *
     * You are using vdW-DF for exchange-correlation in this calculation.
     * Please cite the following three references that made this development
     * possible:
     *
     *   M. Dion, H. Rydberg, E. Schroder, D. C. Langreth, and
     *   B. I. Lundqvist, Phys. Rev. Lett. 92, 246401 (2004).
     *
     *   T. Thonhauser, V. R. Cooper, S. Li, A. Puzder, P. Hyldgaard, and
     *   D. C. Langreth, Phys. Rev. B 76, 125112 (2007).
     *
     *   G. Roman-Perez and J. M. Soler, Phys. Rev. Lett. 103, 096102 (2009).
     *
     *
     * If you are using vdW-DF2, please also cite:
     *
     *   K. Lee, E. D. Murray, L. Kong, B. I. Lundqvist, and
     *   D. C. Langreth, Phys. Rev. B 82, 081101(R) (2010).
     *
     *
     * If you are calculating the stress with vdW-DF, please also cite:
     *
     *   R. Sabatini, E. Kucukbenli, B. Kolb, T. Thonhauser, and
     *   S. de Gironcoli, J. Phys.: Condens. Matter 24, 424209 (2012).
     *

     Carrying out vdW-DF run using the following parameters:

     Nqs =      20    Nr_points =    1024   r_max =   100.000
     q_mesh =
               0.00001000     0.04494208     0.09755937     0.15916263
               0.23128650     0.31572767     0.41458969     0.53033537
               0.66584808     0.82450364     1.01025438     1.22772762
               1.48234092     1.78043706     2.12944203     2.53805004
               3.01644009     3.57652955     4.23227104     5.00000000

     Gradients computed in reciprocal space

     Adding external electric field

     Computed dipole along edir(3) :
        Dipole                0.0000 Ry au,          0.0000 Debye
        Dipole field          0.0000 Ry au

        Potential amp.       -0.0000 Ry
        Total length         45.9673 bohr

     Starting wfc are  156 randomized atomic wfcs

     Self-consistent Calculation

     iteration #  1     ecut=    36.75 Ry     beta=0.10
     Davidson diagonalization with overlap
     ethr =  1.00E-02,  avg # of iterations =  7.5

[...]

     total energy              =   -2954.58579422 Ry
     Harris-Foulkes estimate   =   -2956.83533467 Ry
     estimated scf accuracy    <      13.40890327 Ry

[...]

     End of self-consistent calculation

          k = 0.0000 0.0000 0.0000 ( 20059 PWs)   bands (ev):

   -91.0215 -91.0174 -91.0174 -90.8503 -90.8503 -90.8462 -90.8462 -90.8461
   -90.8461 -54.5546 -54.5480 -54.5480 -54.5290 -54.5290 -54.5204 -54.4576
   -54.4236 -54.4236 -54.4127 -54.4127 -54.4057 -54.4056 -54.3891 -54.3886
   -54.3462 -54.3460 -54.3161 -54.3161 -54.3152 -54.3152 -54.2825 -54.2795
   -54.2523 -54.2523 -54.2515 -54.2515 -49.6188 -49.6186 -49.3893 -28.2546
   -28.2531 -28.1378 -28.1378 -28.1375 -28.1375 -27.9508 -27.9508 -27.9329
    -4.9948  -4.4202  -4.3949  -4.3016  -4.2707  -4.2707  -4.1906  -4.1271
    -4.1217  -4.1217  -4.0970  -4.0970  -4.0770  -3.9415  -3.9415  -3.5953
    -3.5507  -3.5507  -3.4459  -3.4459  -3.3655  -3.2634  -3.1700  -3.1373
    -3.1373  -3.0004  -3.0004  -2.9793  -2.9793  -2.8811  -2.8810  -2.7798
    -2.6878  -2.6878  -2.6877  -2.5539  -2.5539  -2.5126  -2.5126  -2.3965
    -2.3965  -2.3502  -2.1340  -2.1340  -2.1335  -2.0045  -1.9768  -0.5093
     0.9245   1.1199   1.1199   1.1950   1.1950   1.4335   1.5450   1.7311
     1.7311   1.8982   1.8982   2.3245   2.3739   2.4301   2.4301   2.4430
     2.4430   2.7858   2.7858   3.5149   3.5149   3.6476   3.6477   3.6756
     3.8443   4.6310   4.8585   5.2899   5.6309   5.6309   5.7914   5.7914
     6.1957   6.1963   6.4913   6.6005

[...]

          k =-0.0825-0.0476 0.0000 ( 20164 PWs)   bands (ev):

[...]

     the Fermi energy is     1.3656 ev

!    total energy              =   -2954.35639394 Ry
     Harris-Foulkes estimate   =   -2954.35639881 Ry
     estimated scf accuracy    <       0.00000059 Ry

     The total energy is the sum of the following terms:

     one-electron contribution =  -19951.84514010 Ry
     hartree contribution      =    9962.92393858 Ry
     xc contribution           =    -312.00283492 Ry
     ewald contribution        =    7346.62616704 Ry
     electric field correction =       0.00000000 Ry
     smearing contrib. (-TS)   =      -0.05852454 Ry

     convergence has been achieved in  16 iterations

 BEEF-vdW xc energy contributions
           1 :   -269.625822499354
           2 :    243.326244989443
           3 :   -199.817343744072
           4 :    152.677100766420
           5 :   -113.811724601994
           6 :    89.1171917765783
           7 :   -77.7387939364372
           8 :    74.4392463194944
           9 :   -73.2034427642582
          10 :    70.0797412583266
[...]
     Using radial grid of  887 points,  6 beta functions with:
                l(1) =   0
                l(2) =   0
                l(3) =   1
                l(4) =   1
                l(5) =   2
                l(6) =   2
     Q(r) pseudized with  6 coefficients,  rinner =    1.300   1.300   1.300
                                                       1.300   1.300

     PseudoPot. # 2 for Sc read from file:
     /afs/slac.stanford.edu/u/if/mamunm/psp/gbrv1.5pbe/Sc.UPF
     MD5 check sum: db30a2753ba66ef00f23801d899b7e7f
     Pseudo is Ultrasoft + core correction, Zval = 11.0
     Generated by new atomic code, or converted to UPF format
     Using radial grid of  849 points,  6 beta functions with:
                l(1) =   0
                l(2) =   0
                l(3) =   1
                l(4) =   1
                l(5) =   2
                l(6) =   2
     Q(r) pseudized with  6 coefficients,  rinner =    1.200   1.200   1.200
                                                       1.200   1.200

     vdW kernel table read from file vdW_kernel_table
     MD5 check sum: 095c7af220d748ca6e76c0b4c6cfb241

     atomic species   valence    mass     pseudopotential
        Ag1           19.00   107.86820     Ag( 1.00)
        Sc1           11.00    44.95591     Sc( 1.00)

     No symmetry found

   Cartesian axes

     site n.     atom                  positions (alat units)
         1           Ag1 tau(   1) = (   0.0000000   0.0000000  10.0000000  )
         2           Ag1 tau(   2) = (  -1.5151811   2.6243707  10.0000000  )
         3           Ag1 tau(   3) = (   1.5151811   2.6243707  10.0000000  )
         4           Sc1 tau(   4) = (   3.0303623   0.0000000  10.0000000  )
         5           Ag1 tau(   5) = (   3.0303623   1.7495805  12.4742804  )
         6           Ag1 tau(   6) = (   1.5151811   4.3739512  12.4742804  )
         7           Ag1 tau(   7) = (  -1.5151811   4.3739512  12.4742804  )
         8           Sc1 tau(   8) = (   0.0000000   1.7495805  12.4742804  )
         9           Ag1 tau(   9) = (  -0.0000190   3.4974068  14.9227498  )
        10           Ag1 tau(  10) = (   1.5136517   0.8756531  14.9227542  )
        11           Ag1 tau(  11) = (   4.5470752   0.8756748  14.9227597  )
        12           Sc1 tau(  12) = (   3.0303780   3.4991755  14.8612294  )

     number of k points=    20  Fermi-Dirac smearing, width (Ry)=  0.0110
                       cart. coord. in units 2pi/alat
        k(    1) = (   0.0000000   0.0000000   0.0000000), wk =   0.0555556
        k(    2) = (   0.0000000   0.0317536   0.0000000), wk =   0.1111111
        k(    3) = (   0.0000000   0.0635073   0.0000000), wk =   0.1111111
        k(    4) = (   0.0000000  -0.0952609   0.0000000), wk =   0.0555556
        k(    5) = (   0.0274995   0.0158768   0.0000000), wk =   0.1111111
        k(    6) = (   0.0274995   0.0476305   0.0000000), wk =   0.1111111
        k(    7) = (   0.0274995   0.0793841   0.0000000), wk =   0.1111111
        k(    8) = (   0.0274995  -0.0793841   0.0000000), wk =   0.1111111
        k(    9) = (   0.0274995  -0.0476305   0.0000000), wk =   0.1111111
        k(   10) = (   0.0274995  -0.0158768   0.0000000), wk =   0.1111111
        k(   11) = (   0.0549989   0.0317536   0.0000000), wk =   0.1111111
        k(   12) = (   0.0549989   0.0635073   0.0000000), wk =   0.1111111
        k(   13) = (   0.0549989   0.0952609   0.0000000), wk =   0.1111111
        k(   14) = (   0.0549989  -0.0635073   0.0000000), wk =   0.1111111
        k(   15) = (   0.0549989  -0.0317536   0.0000000), wk =   0.1111111
        k(   16) = (   0.0549989   0.0000000   0.0000000), wk =   0.1111111
        k(   17) = (  -0.0824984  -0.0476305   0.0000000), wk =   0.0555556
        k(   18) = (  -0.0824984  -0.0158768   0.0000000), wk =   0.1111111
        k(   19) = (  -0.0824984   0.0158768   0.0000000), wk =   0.1111111
        k(   20) = (  -0.0824984  -0.1428914   0.0000000), wk =   0.0555556

     Largest allocated arrays     est. size (Mb)     dimensions
     Largest temporary arrays     est. size (Mb)     dimensions

     Initial potential from superposition of free atoms
     Check: negative starting charge=   -0.001896

     starting charge  199.49237, renormalised to  204.00000

[...]

     *
     * You are using vdW-DF for exchange-correlation in this calculation.
     * Please cite the following three references that made this development
     * possible:
     *
     *   M. Dion, H. Rydberg, E. Schroder, D. C. Langreth, and
     *   B. I. Lundqvist, Phys. Rev. Lett. 92, 246401 (2004).
     *
     *   T. Thonhauser, V. R. Cooper, S. Li, A. Puzder, P. Hyldgaard, and
     *   D. C. Langreth, Phys. Rev. B 76, 125112 (2007).
     *
     *   G. Roman-Perez and J. M. Soler, Phys. Rev. Lett. 103, 096102 (2009).
     *
     *
     * If you are using vdW-DF2, please also cite:
     *
     *   K. Lee, E. D. Murray, L. Kong, B. I. Lundqvist, and
     *   D. C. Langreth, Phys. Rev. B 82, 081101(R) (2010).
     *
     *
     * If you are calculating the stress with vdW-DF, please also cite:
     *
     *   R. Sabatini, E. Kucukbenli, B. Kolb, T. Thonhauser, and
     *   S. de Gironcoli, J. Phys.: Condens. Matter 24, 424209 (2012).
     *

     Carrying out vdW-DF run using the following parameters:

     Nqs =      20    Nr_points =    1024   r_max =   100.000
     q_mesh =
               0.00001000     0.04494208     0.09755937     0.15916263
               0.23128650     0.31572767     0.41458969     0.53033537
               0.66584808     0.82450364     1.01025438     1.22772762
               1.48234092     1.78043706     2.12944203     2.53805004
               3.01644009     3.57652955     4.23227104     5.00000000

     Gradients computed in reciprocal space

[...]

     Starting wfc are  156 randomized atomic wfcs

     Self-consistent Calculation

[...]

     total energy              =   -2954.35798065 Ry
     Harris-Foulkes estimate   =   -2954.35798115 Ry
     estimated scf accuracy    <       0.00000170 Ry

     iteration # 17     ecut=    36.75 Ry     beta=0.10
     Davidson diagonalization with overlap
     ethr =  8.34E-10,  avg # of iterations =  2.0

[...]

     negative rho (up, down):  1.876E-03 0.000E+00

     Adding external electric field

     Computed dipole along edir(3) :
        Dipole               -0.0109 Ry au,         -0.0278 Debye
        Dipole field         -0.0000 Ry au

        Potential amp.        0.0024 Ry
        Total length         45.9673 bohr

     End of self-consistent calculation

[...]

          k = 0.0550 0.0000 0.0000 ( 20157 PWs)   bands (ev):

[...]

          k =-0.0825-0.1429 0.0000 ( 20164 PWs)   bands (ev):

   -91.0720 -91.0707 -91.0693 -90.8766 -90.8752 -90.8739 -90.8616 -90.8602
   -90.8588 -54.6085 -54.5996 -54.5941 -54.5873 -54.5807 -54.5730 -54.4939
   -54.4825 -54.4686 -54.4372 -54.4294 -54.4241 -54.4233 -54.4161 -54.4100
   -54.3641 -54.3549 -54.3467 -54.3460 -54.3367 -54.3285 -54.3009 -54.2918
   -54.2864 -54.2799 -54.2773 -54.2655 -49.6365 -49.5943 -49.3837 -28.2745
   -28.2311 -28.1571 -28.1555 -28.1207 -28.1191 -27.9485 -27.9469 -27.9312
    -4.2778  -4.1590  -4.1477  -4.0374  -3.9752  -3.9695  -3.9083  -3.8986
    -3.8712  -3.8624  -3.8463  -3.7638  -3.7200  -3.6405  -3.6151  -3.6030
    -3.5391  -3.5340  -3.4719  -3.2926  -3.2830  -3.2346  -3.2127  -3.1915
    -3.1653  -3.1520  -3.1045  -3.0760  -3.0578  -3.0433  -2.9966  -2.9922
    -2.9336  -2.9190  -2.9145  -2.8971  -2.7887  -2.7829  -2.7372  -2.7150
    -2.7023  -2.6870  -2.6438  -2.5079  -2.4161  -2.2351  -2.1021  -1.7322
    -1.2151  -0.4715   0.5214   0.5642   0.7084   0.8908   1.2629   1.6432
     1.8332   1.8552   1.9074   1.9754   2.0337   2.1824   2.2782   2.4737
     2.5222   2.7443   3.1189   3.3415   3.8695   4.0004   4.3184   4.4811
     4.7388   5.0788   5.7854   5.8250   6.3340   6.3406   6.5687   6.5824
     6.8057   6.9280   7.0843   7.4065

     the Fermi energy is     1.3502 ev

!    total energy              =   -2954.35797771 Ry
     Harris-Foulkes estimate   =   -2954.35798083 Ry
     estimated scf accuracy    <       0.00000029 Ry

     The total energy is the sum of the following terms:

     one-electron contribution =  -20048.11431962 Ry
     hartree contribution      =   10010.85090375 Ry
     xc contribution           =    -312.03073783 Ry
     ewald contribution        =    7394.99386219 Ry
     electric field correction =       0.00000028 Ry
     smearing contrib. (-TS)   =      -0.05768649 Ry

     convergence has been achieved in  17 iterations

 BEEF-vdW xc energy contributions
           1 :   -269.686807749901
           2 :    243.409987197515
           3 :   -199.924572170940
           4 :    152.783477312599
           5 :   -113.886019274087
           6 :    89.1445849596107
           7 :   -77.7310918523506
           8 :    74.4266458830757
           9 :   -73.2151983096799
          10 :    70.1271948741478
          11 :   -64.2280234455177
          12 :    56.8344729624280
          13 :   -49.9182178500556
          14 :    44.7729350407240
          15 :   -41.5311896242392
          16 :    39.4622460903665
          17 :   -37.6248760487463
          18 :    35.4316052080956
          19 :   -32.8697984614037
          20 :    30.3424708061258
          21 :   -28.2914787305664
          22 :    26.8572597421802
          23 :   -25.7880082038230
          24 :    24.6404824090125
          25 :   -23.1266628408588
          26 :    21.3514730786658
          27 :   -19.7573536625455
          28 :    18.8005137590953
          29 :   -18.5993238933625
          30 :    18.8260716520157
          31 :   -27.4988469305690
          32 :   -19.9634454697007

     Forces acting on atoms (Ry/au):

     negative rho (up, down):  1.876E-03 0.000E+00
     atom    1 type  1   force =     0.00000019   -0.00023020    0.00167720
     atom    2 type  1   force =    -0.00019933    0.00011511    0.00167754
     atom    3 type  1   force =     0.00019912    0.00011490    0.00167701
     atom    4 type  2   force =    -0.00000004    0.00000012    0.00559145
     atom    5 type  1   force =    -0.00000030   -0.00157073   -0.00377582
     atom    6 type  1   force =    -0.00136055    0.00078539   -0.00377630
     atom    7 type  1   force =     0.00136037    0.00078540   -0.00377824
     atom    8 type  2   force =     0.00000000   -0.00000014   -0.00182184
     atom    9 type  1   force =     0.00000385    0.00021709    0.00029191
     atom   10 type  1   force =     0.00019030   -0.00010483    0.00029129
     atom   11 type  1   force =    -0.00018978   -0.00010912    0.00029113
     atom   12 type  2   force =    -0.00000384   -0.00000298    0.00165466

     Total force =     0.009824     Total SCF correction =     0.002001
     SCF correction compared to forces is large: reduce conv_thr to get better values

     entering subroutine stress ...

     negative rho (up, down):  1.876E-03 0.000E+00
          total   stress  (Ry/bohr**3)                   (kbar)     P=   -6.64
  -0.00005776  -0.00000000   0.00000000         -8.50     -0.00      0.00
  -0.00000000  -0.00005776   0.00000000         -0.00     -8.50      0.00
   0.00000000   0.00000000  -0.00001983          0.00      0.00     -2.92

 !ASE

     Writing output data file calc.save

     General routines

     Parallel routines

   This run was terminated on:  17: 8:35  19Dec2018

   JOB DONE.
Job  /afs/slac/g/suncat/bin/suncat-tsmpirun -x LD_LIBRARY_PATH -wdir /scratch/qe773196_9KEdc pw.x -in pw.inp

TID   HOST_NAME   COMMAND_LINE            STATUS            TERMINATION_TIME
00000 suncat0254 pw.x -in pw.inp   Done                     12/19/2018 17:08:35
00001 suncat0254 pw.x -in pw.inp   Done                     12/19/2018 17:08:35
00002 suncat0254 pw.x -in pw.inp   Done                     12/19/2018 17:08:35
00003 suncat0254 pw.x -in pw.inp   Done                     12/19/2018 17:08:35
00004 suncat0254 pw.x -in pw.inp   Done                     12/19/2018 17:08:35
00005 suncat0254 pw.x -in pw.inp   Done                     12/19/2018 17:08:35
00006 suncat0254 pw.x -in pw.inp   Done                     12/19/2018 17:08:35
00007 suncat0254 pw.x -in pw.inp   Done                     12/19/2018 17:08:35
00008 suncat0253 pw.x -in pw.inp   Done                     12/19/2018 17:08:35
00009 suncat0253 pw.x -in pw.inp   Done                     12/19/2018 17:08:35
00010 suncat0253 pw.x -in pw.inp   Done                     12/19/2018 17:08:35
00011 suncat0253 pw.x -in pw.inp   Done                     12/19/2018 17:08:35
00012 suncat0253 pw.x -in pw.inp   Done                     12/19/2018 17:08:35
00013 suncat0253 pw.x -in pw.inp   Done                     12/19/2018 17:08:35
00014 suncat0253 pw.x -in pw.inp   Done                     12/19/2018 17:08:35
00015 suncat0253 pw.x -in pw.inp   Done                     12/19/2018 17:08:35
00016 suncat0244 pw.x -in pw.inp   Done                     12/19/2018 17:08:35
00017 suncat0244 pw.x -in pw.inp   Done                     12/19/2018 17:08:35
00018 suncat0244 pw.x -in pw.inp   Done                     12/19/2018 17:08:35
00019 suncat0244 pw.x -in pw.inp   Done                     12/19/2018 17:08:35
00020 suncat0244 pw.x -in pw.inp   Done                     12/19/2018 17:08:35
00021 suncat0244 pw.x -in pw.inp   Done                     12/19/2018 17:08:35
00022 suncat0244 pw.x -in pw.inp   Done                     12/19/2018 17:08:35
00023 suncat0244 pw.x -in pw.inp   Done                     12/19/2018 17:08:35
00024 suncat0243 pw.x -in pw.inp   Done                     12/19/2018 17:08:35
00025 suncat0243 pw.x -in pw.inp   Done                     12/19/2018 17:08:35
00026 suncat0243 pw.x -in pw.inp   Done                     12/19/2018 17:08:35
00027 suncat0243 pw.x -in pw.inp   Done                     12/19/2018 17:08:35
00028 suncat0243 pw.x -in pw.inp   Done                     12/19/2018 17:08:35
00029 suncat0243 pw.x -in pw.inp   Done                     12/19/2018 17:08:35
00030 suncat0243 pw.x -in pw.inp   Done                     12/19/2018 17:08:35
00031 suncat0243 pw.x -in pw.inp   Done                     12/19/2018 17:08:35
00032 suncat0214 pw.x -in pw.inp   Done                     12/19/2018 17:08:35
00033 suncat0214 pw.x -in pw.inp   Done                     12/19/2018 17:08:35
00034 suncat0214 pw.x -in pw.inp   Done                     12/19/2018 17:08:35
00035 suncat0214 pw.x -in pw.inp   Done                     12/19/2018 17:08:35
00036 suncat0214 pw.x -in pw.inp   Done                     12/19/2018 17:08:35
00037 suncat0214 pw.x -in pw.inp   Done                     12/19/2018 17:08:35
00038 suncat0214 pw.x -in pw.inp   Done                     12/19/2018 17:08:35
00039 suncat0214 pw.x -in pw.inp   Done                     12/19/2018 17:08:35
00040 suncat0213 pw.x -in pw.inp   Done                     12/19/2018 17:08:35
00041 suncat0213 pw.x -in pw.inp   Done                     12/19/2018 17:08:35
00042 suncat0213 pw.x -in pw.inp   Done                     12/19/2018 17:08:35
00043 suncat0213 pw.x -in pw.inp   Done                     12/19/2018 17:08:35
00044 suncat0213 pw.x -in pw.inp   Done                     12/19/2018 17:08:35
00045 suncat0213 pw.x -in pw.inp   Done                     12/19/2018 17:08:35
00046 suncat0213 pw.x -in pw.inp   Done                     12/19/2018 17:08:35
00047 suncat0213 pw.x -in pw.inp   Done                     12/19/2018 17:08:35
00048 suncat0209 pw.x -in pw.inp   Done                     12/19/2018 17:08:35
00049 suncat0209 pw.x -in pw.inp   Done                     12/19/2018 17:08:35
00050 suncat0209 pw.x -in pw.inp   Done                     12/19/2018 17:08:35
00051 suncat0209 pw.x -in pw.inp   Done                     12/19/2018 17:08:35
00052 suncat0209 pw.x -in pw.inp   Done                     12/19/2018 17:08:35
00053 suncat0209 pw.x -in pw.inp   Done                     12/19/2018 17:08:35
00054 suncat0209 pw.x -in pw.inp   Done                     12/19/2018 17:08:35
00055 suncat0209 pw.x -in pw.inp   Done                     12/19/2018 17:08:35
00056 suncat0203 pw.x -in pw.inp   Done                     12/19/2018 17:08:35
00057 suncat0203 pw.x -in pw.inp   Done                     12/19/2018 17:08:35
00058 suncat0203 pw.x -in pw.inp   Done                     12/19/2018 17:08:35
00059 suncat0203 pw.x -in pw.inp   Done                     12/19/2018 17:08:35
00060 suncat0203 pw.x -in pw.inp   Done                     12/19/2018 17:08:35
00061 suncat0203 pw.x -in pw.inp   Done                     12/19/2018 17:08:35
00062 suncat0203 pw.x -in pw.inp   Done                     12/19/2018 17:08:35
00063 suncat0203 pw.x -in pw.inp   Done                     12/19/2018 17:08:35