     Program PWSCF v.5.1rc2 (svn rev. 11289) starts on 19Dec2018 at 21: 5:46

     Current dimensions of program PWSCF are:
     Max number of different atomic species (ntypx) = 10
     Max number of k-points (npk) =  40000
     Max angular momentum in pseudopotentials (lmaxx) =  3
     Presently stress not available with electric field

     IMPORTANT: XC functional enforced from input :
     Exchange-correlation      = BEEF-VDW ( 1  4 27 13 2)
     Any further DFT definition will be discarded
     Please, verify this is what you really want

     Subspace diagonalization in iterative solution of the eigenvalue problem:
     a serial algorithm will be used

     Generating pointlists ...
     new r_m :   0.4125 (alat units)  0.7795 (a.u.) for type    1
     new r_m :   0.4125 (alat units)  0.7795 (a.u.) for type    2

     bravais-lattice index     =            0
     lattice parameter (alat)  =       1.8897  a.u.
     unit-cell volume          =    5174.9033 (a.u.)^3
     number of atoms/cell      =           12
     number of atomic types    =            2
     number of electrons       =       162.00
     number of Kohn-Sham states=          111
     kinetic-energy cutoff     =      36.7493  Ry
     charge density cutoff     =     367.4932  Ry
     convergence threshold     =      1.0E-06
     mixing beta               =       0.1000
     number of iterations used =           10  plain     mixing
     Exchange-correlation      = BEEF-VDW ( 1  4 27 13 2)
     nstep                     =           50

     celldm(1)=   1.889726  celldm(2)=   0.000000  celldm(3)=   0.000000
     celldm(4)=   0.000000  celldm(5)=   0.000000  celldm(6)=   0.000000

     crystal axes: (cart. coord. in units of alat)
               a(1) = (   5.966697   0.000000   0.000000 )
               a(2) = (  -2.983349   5.167311   0.000000 )
               a(3) = (   0.000000   0.000000  24.871788 )

     reciprocal axes: (cart. coord. in units 2 pi/alat)
               b(1) = (  0.167597  0.096762  0.000000 )
               b(2) = (  0.000000  0.193524  0.000000 )
               b(3) = (  0.000000  0.000000  0.040206 )

     PseudoPot. # 1 for Cd read from file:
     /afs/slac.stanford.edu/u/if/mamunm/psp/gbrv1.5pbe/Cd.UPF
     MD5 check sum: 17164a7926edb8e0dc231208abae86a6
     Pseudo is Ultrasoft + core correction, Zval = 12.0
     Generated by new atomic code, or converted to UPF format
     Using radial grid of  889 points,  6 beta functions with:
                l(1) =   0
                l(2) =   0
                l(3) =   1
                l(4) =   1
                l(5) =   2
                l(6) =   2
     Q(r) pseudized with  6 coefficients,  rinner =    1.000   1.000   1.000
                                                       1.000   1.000

     PseudoPot. # 2 for Ni read from file:
     /afs/slac.stanford.edu/u/if/mamunm/psp/gbrv1.5pbe/Ni.UPF
     MD5 check sum: 1ee80287db30b12d2bc1f57a5b5d6409
     Pseudo is Ultrasoft + core correction, Zval = 18.0
     Generated by new atomic code, or converted to UPF format
     Using radial grid of  865 points,  6 beta functions with:
                l(1) =   0
                l(2) =   0
                l(3) =   1
                l(4) =   1
                l(5) =   2
                l(6) =   2
     Q(r) pseudized with 10 coefficients,  rinner =    0.980   0.980   0.980
                                                       0.980   0.980

     vdW kernel table read from file vdW_kernel_table
     MD5 check sum: 095c7af220d748ca6e76c0b4c6cfb241

     atomic species   valence    mass     pseudopotential
        Cd1           12.00   112.41400     Cd( 1.00)
        Ni1           18.00    58.69340     Ni( 1.00)

     Starting magnetic structure
     atomic species   magnetization
        Cd1          0.167
        Ni1          0.111

     No symmetry found

   Cartesian axes

     site n.     atom                  positions (alat units)
         1           Cd1 tau(   1) = (   0.0000000   0.0000000  10.0000000  )
         2           Cd1 tau(   2) = (  -1.4916743   2.5836557  10.0000000  )
         3           Cd1 tau(   3) = (   1.4916743   2.5836557  10.0000000  )
         4           Ni1 tau(   4) = (   2.9833486   0.0000000  10.0000000  )
         5           Cd1 tau(   5) = (   2.9833486   1.7224371  12.4358939  )
         6           Cd1 tau(   6) = (   1.4916743   4.3060928  12.4358939  )
         7           Cd1 tau(   7) = (  -1.4916743   4.3060928  12.4358939  )
         8           Ni1 tau(   8) = (   0.0000000   1.7224371  12.4358939  )
         9           Cd1 tau(   9) = (  -0.0000000   3.4448743  14.8717879  )
        10           Cd1 tau(  10) = (   1.4916743   0.8612186  14.8717879  )
        11           Cd1 tau(  11) = (   4.4750229   0.8612186  14.8717879  )
        12           Ni1 tau(  12) = (   2.9833486   3.4448743  14.8717879  )

     number of k points=    40  Fermi-Dirac smearing, width (Ry)=  0.0110
                       cart. coord. in units 2pi/alat
        k(    1) = (   0.0000000   0.0000000   0.0000000), wk =   0.0277778
        k(    2) = (   0.0000000   0.0322540   0.0000000), wk =   0.0555556
        k(    3) = (   0.0000000   0.0645081   0.0000000), wk =   0.0555556
        k(    4) = (   0.0000000  -0.0967621   0.0000000), wk =   0.0277778
        k(    5) = (   0.0279328   0.0161270   0.0000000), wk =   0.0555556
        k(    6) = (   0.0279328   0.0483811   0.0000000), wk =   0.0555556
        k(    7) = (   0.0279328   0.0806351   0.0000000), wk =   0.0555556
        k(    8) = (   0.0279328  -0.0806351   0.0000000), wk =   0.0555556
        k(    9) = (   0.0279328  -0.0483811   0.0000000), wk =   0.0555556
        k(   10) = (   0.0279328  -0.0161270   0.0000000), wk =   0.0555556
        k(   11) = (   0.0558656   0.0322540   0.0000000), wk =   0.0555556
        k(   12) = (   0.0558656   0.0645081   0.0000000), wk =   0.0555556
        k(   13) = (   0.0558656   0.0967621   0.0000000), wk =   0.0555556
        k(   14) = (   0.0558656  -0.0645081   0.0000000), wk =   0.0555556
        k(   15) = (   0.0558656  -0.0322540   0.0000000), wk =   0.0555556
        k(   16) = (   0.0558656   0.0000000   0.0000000), wk =   0.0555556
        k(   17) = (  -0.0837985  -0.0483811   0.0000000), wk =   0.0277778
        k(   18) = (  -0.0837985  -0.0161270   0.0000000), wk =   0.0555556
        k(   19) = (  -0.0837985   0.0161270   0.0000000), wk =   0.0555556
        k(   20) = (  -0.0837985  -0.1451432   0.0000000), wk =   0.0277778
        k(   21) = (   0.0000000   0.0000000   0.0000000), wk =   0.0277778
        k(   22) = (   0.0000000   0.0322540   0.0000000), wk =   0.0555556
        k(   23) = (   0.0000000   0.0645081   0.0000000), wk =   0.0555556
        k(   24) = (   0.0000000  -0.0967621   0.0000000), wk =   0.0277778
        k(   25) = (   0.0279328   0.0161270   0.0000000), wk =   0.0555556
        k(   26) = (   0.0279328   0.0483811   0.0000000), wk =   0.0555556
        k(   27) = (   0.0279328   0.0806351   0.0000000), wk =   0.0555556
        k(   28) = (   0.0279328  -0.0806351   0.0000000), wk =   0.0555556
        k(   29) = (   0.0279328  -0.0483811   0.0000000), wk =   0.0555556
        k(   30) = (   0.0279328  -0.0161270   0.0000000), wk =   0.0555556
        k(   31) = (   0.0558656   0.0322540   0.0000000), wk =   0.0555556
        k(   32) = (   0.0558656   0.0645081   0.0000000), wk =   0.0555556
        k(   33) = (   0.0558656   0.0967621   0.0000000), wk =   0.0555556
        k(   34) = (   0.0558656  -0.0645081   0.0000000), wk =   0.0555556
        k(   35) = (   0.0558656  -0.0322540   0.0000000), wk =   0.0555556
        k(   36) = (   0.0558656   0.0000000   0.0000000), wk =   0.0555556
        k(   37) = (  -0.0837985  -0.0483811   0.0000000), wk =   0.0277778
        k(   38) = (  -0.0837985  -0.0161270   0.0000000), wk =   0.0555556
        k(   39) = (  -0.0837985   0.0161270   0.0000000), wk =   0.0555556
        k(   40) = (  -0.0837985  -0.1451432   0.0000000), wk =   0.0277778

     Largest allocated arrays     est. size (Mb)     dimensions
     Largest temporary arrays     est. size (Mb)     dimensions

     Initial potential from superposition of free atoms
     Check: negative starting charge=(component1):   -0.115373
     Check: negative starting charge=(component2):   -0.082422

     starting charge  151.49963, renormalised to  162.00000

     negative rho (up, down):  1.234E-01 8.813E-02

     *
     * You are using vdW-DF for exchange-correlation in this calculation.
     * Please cite the following three references that made this development
     * possible:
     *
     *   M. Dion, H. Rydberg, E. Schroder, D. C. Langreth, and
     *   B. I. Lundqvist, Phys. Rev. Lett. 92, 246401 (2004).
     *
     *   T. Thonhauser, V. R. Cooper, S. Li, A. Puzder, P. Hyldgaard, and
     *   D. C. Langreth, Phys. Rev. B 76, 125112 (2007).
     *
     *   G. Roman-Perez and J. M. Soler, Phys. Rev. Lett. 103, 096102 (2009).
     *
     *
     * If you are using vdW-DF2, please also cite:
     *
     *   K. Lee, E. D. Murray, L. Kong, B. I. Lundqvist, and
     *   D. C. Langreth, Phys. Rev. B 82, 081101(R) (2010).
     *
     *
     * If you are calculating the stress with vdW-DF, please also cite:
     *
     *   R. Sabatini, E. Kucukbenli, B. Kolb, T. Thonhauser, and
     *   S. de Gironcoli, J. Phys.: Condens. Matter 24, 424209 (2012).
     *

     Carrying out vdW-DF run using the following parameters:

     Nqs =      20    Nr_points =    1024   r_max =   100.000
     q_mesh =
               0.00001000     0.04494208     0.09755937     0.15916263
               0.23128650     0.31572767     0.41458969     0.53033537
               0.66584808     0.82450364     1.01025438     1.22772762
               1.48234092     1.78043706     2.12944203     2.53805004
               3.01644009     3.57652955     4.23227104     5.00000000

     Gradients computed in reciprocal space

     Adding external electric field

     Computed dipole along edir(3) :
        Dipole               -0.0000 Ry au,         -0.0000 Debye
        Dipole field         -0.0000 Ry au

        Potential amp.        0.0000 Ry
        Total length         45.8258 bohr

[...]

     Starting wfc are  120 randomized atomic wfcs

     Self-consistent Calculation

     iteration #  1     ecut=    36.75 Ry     beta=0.10
     Davidson diagonalization with overlap
     ethr =  1.00E-02,  avg # of iterations =  7.0

[...]

     Magnetic moment per site:
     atom:    1    charge:    2.3836    magn:    0.3646    constr:    0.0000
     atom:    2    charge:    2.3836    magn:    0.3646    constr:    0.0000
     atom:    3    charge:    2.3836    magn:    0.3646    constr:    0.0000
     atom:    4    charge:    9.5213    magn:    1.0089    constr:    0.0000
     atom:    5    charge:    2.3834    magn:    0.3646    constr:    0.0000
     atom:    6    charge:    2.3834    magn:    0.3646    constr:    0.0000
     atom:    7    charge:    2.3834    magn:    0.3646    constr:    0.0000
     atom:    8    charge:    9.5161    magn:    1.0076    constr:    0.0000
[...]
        k(    1) = (   0.0000000   0.0000000   0.0000000), wk =   0.0277778
        k(    2) = (   0.0000000   0.0322540   0.0000000), wk =   0.0555556
        k(    3) = (   0.0000000   0.0645081   0.0000000), wk =   0.0555556
        k(    4) = (   0.0000000  -0.0967621   0.0000000), wk =   0.0277778
        k(    5) = (   0.0279328   0.0161270   0.0000000), wk =   0.0555556
        k(    6) = (   0.0279328   0.0483811   0.0000000), wk =   0.0555556
        k(    7) = (   0.0279328   0.0806351   0.0000000), wk =   0.0555556
        k(    8) = (   0.0279328  -0.0806351   0.0000000), wk =   0.0555556
        k(    9) = (   0.0279328  -0.0483811   0.0000000), wk =   0.0555556
        k(   10) = (   0.0279328  -0.0161270   0.0000000), wk =   0.0555556
        k(   11) = (   0.0558656   0.0322540   0.0000000), wk =   0.0555556
        k(   12) = (   0.0558656   0.0645081   0.0000000), wk =   0.0555556
        k(   13) = (   0.0558656   0.0967621   0.0000000), wk =   0.0555556
        k(   14) = (   0.0558656  -0.0645081   0.0000000), wk =   0.0555556
        k(   15) = (   0.0558656  -0.0322540   0.0000000), wk =   0.0555556
        k(   16) = (   0.0558656   0.0000000   0.0000000), wk =   0.0555556
        k(   17) = (  -0.0837985  -0.0483811   0.0000000), wk =   0.0277778
        k(   18) = (  -0.0837985  -0.0161270   0.0000000), wk =   0.0555556
        k(   19) = (  -0.0837985   0.0161270   0.0000000), wk =   0.0555556
        k(   20) = (  -0.0837985  -0.1451432   0.0000000), wk =   0.0277778
        k(   21) = (   0.0000000   0.0000000   0.0000000), wk =   0.0277778
        k(   22) = (   0.0000000   0.0322540   0.0000000), wk =   0.0555556
        k(   23) = (   0.0000000   0.0645081   0.0000000), wk =   0.0555556
        k(   24) = (   0.0000000  -0.0967621   0.0000000), wk =   0.0277778
        k(   25) = (   0.0279328   0.0161270   0.0000000), wk =   0.0555556
        k(   26) = (   0.0279328   0.0483811   0.0000000), wk =   0.0555556
        k(   27) = (   0.0279328   0.0806351   0.0000000), wk =   0.0555556
        k(   28) = (   0.0279328  -0.0806351   0.0000000), wk =   0.0555556
        k(   29) = (   0.0279328  -0.0483811   0.0000000), wk =   0.0555556
        k(   30) = (   0.0279328  -0.0161270   0.0000000), wk =   0.0555556
        k(   31) = (   0.0558656   0.0322540   0.0000000), wk =   0.0555556
        k(   32) = (   0.0558656   0.0645081   0.0000000), wk =   0.0555556
        k(   33) = (   0.0558656   0.0967621   0.0000000), wk =   0.0555556
        k(   34) = (   0.0558656  -0.0645081   0.0000000), wk =   0.0555556
        k(   35) = (   0.0558656  -0.0322540   0.0000000), wk =   0.0555556
        k(   36) = (   0.0558656   0.0000000   0.0000000), wk =   0.0555556
        k(   37) = (  -0.0837985  -0.0483811   0.0000000), wk =   0.0277778
        k(   38) = (  -0.0837985  -0.0161270   0.0000000), wk =   0.0555556
        k(   39) = (  -0.0837985   0.0161270   0.0000000), wk =   0.0555556
        k(   40) = (  -0.0837985  -0.1451432   0.0000000), wk =   0.0277778

     Largest allocated arrays     est. size (Mb)     dimensions
     Largest temporary arrays     est. size (Mb)     dimensions

     Initial potential from superposition of free atoms
     Check: negative starting charge=(component1):   -0.114122
     Check: negative starting charge=(component2):   -0.081527

     starting charge  151.49963, renormalised to  162.00000

[...]

     *
     * You are using vdW-DF for exchange-correlation in this calculation.
     * Please cite the following three references that made this development
     * possible:
     *
     *   M. Dion, H. Rydberg, E. Schroder, D. C. Langreth, and
     *   B. I. Lundqvist, Phys. Rev. Lett. 92, 246401 (2004).
     *
     *   T. Thonhauser, V. R. Cooper, S. Li, A. Puzder, P. Hyldgaard, and
     *   D. C. Langreth, Phys. Rev. B 76, 125112 (2007).
     *
     *   G. Roman-Perez and J. M. Soler, Phys. Rev. Lett. 103, 096102 (2009).
     *
     *
     * If you are using vdW-DF2, please also cite:
     *
     *   K. Lee, E. D. Murray, L. Kong, B. I. Lundqvist, and
     *   D. C. Langreth, Phys. Rev. B 82, 081101(R) (2010).
     *
     *
     * If you are calculating the stress with vdW-DF, please also cite:
     *
     *   R. Sabatini, E. Kucukbenli, B. Kolb, T. Thonhauser, and
     *   S. de Gironcoli, J. Phys.: Condens. Matter 24, 424209 (2012).
     *

     Carrying out vdW-DF run using the following parameters:

     Nqs =      20    Nr_points =    1024   r_max =   100.000
     q_mesh =
               0.00001000     0.04494208     0.09755937     0.15916263
               0.23128650     0.31572767     0.41458969     0.53033537
               0.66584808     0.82450364     1.01025438     1.22772762
               1.48234092     1.78043706     2.12944203     2.53805004
               3.01644009     3.57652955     4.23227104     5.00000000

     Gradients computed in reciprocal space

[...]

     Starting wfc are  120 randomized atomic wfcs

     Self-consistent Calculation

[...]

     total energy              =   -2077.94648836 Ry
     Harris-Foulkes estimate   =   -2077.94648935 Ry
     estimated scf accuracy    <       0.00000176 Ry

[...]

     iteration # 35     ecut=    36.75 Ry     beta=0.10
     Davidson diagonalization with overlap
     ethr =  1.09E-09,  avg # of iterations =  3.0

[...]

     negative rho (up, down):  1.015E-01 1.015E-01

[...]

     Adding external electric field

     Computed dipole along edir(3) :
        Dipole                0.0359 Ry au,          0.0913 Debye
        Dipole field          0.0001 Ry au

        Potential amp.       -0.0080 Ry
        Total length         45.8258 bohr

     Magnetic moment per site:
     atom:    1    charge:    2.2927    magn:   -0.0000    constr:    0.0000
     atom:    2    charge:    2.2927    magn:   -0.0000    constr:    0.0000
     atom:    3    charge:    2.2927    magn:   -0.0000    constr:    0.0000
     atom:    4    charge:    9.3661    magn:    0.0006    constr:    0.0000
     atom:    5    charge:    2.2930    magn:   -0.0000    constr:    0.0000
     atom:    6    charge:    2.2930    magn:   -0.0000    constr:    0.0000
     atom:    7    charge:    2.2930    magn:   -0.0000    constr:    0.0000
     atom:    8    charge:    9.3646    magn:   -0.0043    constr:    0.0000
     atom:    9    charge:    2.2900    magn:   -0.0000    constr:    0.0000
     atom:   10    charge:    2.2900    magn:   -0.0000    constr:    0.0000
     atom:   11    charge:    2.2900    magn:   -0.0000    constr:    0.0000
     atom:   12    charge:    9.3619    magn:   -0.0022    constr:    0.0000

     End of self-consistent calculation

 ------ SPIN UP ------------

[...]

 ------ SPIN DOWN ----------

[...]

          k = 0.0559 0.0000 0.0000 ( 19457 PWs)   bands (ev):

[...]

          k =-0.0838-0.1451 0.0000 ( 19500 PWs)   bands (ev):

  -102.0088-101.9819-101.9085 -62.4316 -62.4316 -62.4195 -62.4195 -62.3932
   -62.3489 -62.3489 -62.3460 -62.2585  -9.1908  -9.0635  -9.0180  -8.9549
    -8.9004  -8.8568  -8.8165  -8.7751  -8.7657  -8.7359  -8.7242  -8.7167
    -8.6244  -8.5966  -8.5662  -8.5435  -8.4806  -8.4355  -8.4152  -8.3720
    -8.3645  -8.3585  -8.3305  -8.3173  -8.3078  -8.2875  -8.2784  -8.2543
    -8.2465  -8.2272  -8.2201  -8.2034  -8.1988  -8.1725  -8.1568  -8.1555
    -8.1426  -8.0687  -8.0333  -7.9940  -7.9771  -7.9670  -7.8755  -7.7511
    -7.6841  -5.9979  -5.7542  -4.2390  -4.1270  -2.9327  -2.4438  -1.9245
    -1.7354  -1.2767  -1.2162  -0.7684  -0.7617  -0.6685  -0.6105  -0.5929
    -0.5562  -0.5463  -0.4229  -0.3641  -0.3510  -0.1303  -0.0787   0.0324
     0.1054   0.3445   1.6026   1.7116   1.8316   2.0548   4.1222   4.1494
     4.2304   4.2799   4.4056   4.4948   4.5603   5.1009   5.4328   5.4551
     5.7939   5.8080   5.9679   5.9893   6.1244   6.1588   6.7731   6.9099
     6.9615   6.9917   6.9944   7.2781   7.3667   7.4200   7.9384

     the Fermi energy is     0.4803 ev

!    total energy              =   -2077.94649381 Ry
     Harris-Foulkes estimate   =   -2077.94649054 Ry
     estimated scf accuracy    <       0.00000100 Ry

     The total energy is the sum of the following terms:

     one-electron contribution =  -12979.45103877 Ry
     hartree contribution      =    6563.37542607 Ry
     xc contribution           =    -477.65613064 Ry
     ewald contribution        =    4815.82795051 Ry
     electric field correction =       0.00000313 Ry
     smearing contrib. (-TS)   =      -0.04270412 Ry

     total magnetization       =    -0.00 Bohr mag/cell
     absolute magnetization    =     0.02 Bohr mag/cell

     convergence has been achieved in  35 iterations

 BEEF-vdW xc energy contributions
           1 :   -419.115468116689
           2 :    382.544938073159
           3 :   -320.939697182265
           4 :    251.981425169991
           5 :   -191.904421810275
           6 :    149.597101895465
           7 :   -124.965653689746
           8 :    111.637792760244
           9 :   -101.888998861195
          10 :    90.8562009742877
          11 :   -78.0289885372250
          12 :    65.8818692930791
          13 :   -57.1529724152965
          14 :    52.7153381945791
          15 :   -51.2043454773963
          16 :    50.2204169157164
          17 :   -47.9864056842982
          18 :    44.2834875794666
          19 :   -40.2051637620144
          20 :    37.1203640429043
          21 :   -35.6779265895769
          22 :    35.4859452612704
          23 :   -35.5384806521852
          24 :    34.9558096810686
          25 :   -33.4984317082821
          26 :    31.5717359015024
          27 :   -29.8309801692374
          28 :    28.7215205853086
          29 :   -28.2578983229918
          30 :    28.1182615282424
          31 :   -36.9943407248265
          32 :   -26.7420462776168

     Forces acting on atoms (Ry/au):

     negative rho (up, down):  1.015E-01 1.015E-01
     atom    1 type  1   force =     0.00000016    0.01136285   -0.01862786
     atom    2 type  1   force =     0.00984057   -0.00568082   -0.01862855
     atom    3 type  1   force =    -0.00984051   -0.00568152   -0.01862697
     atom    4 type  2   force =     0.00000060    0.00000030    0.03199050
     atom    5 type  1   force =     0.00000032   -0.01165816    0.00614405
     atom    6 type  1   force =    -0.01009627    0.00582942    0.00614454
     atom    7 type  1   force =     0.01009670    0.00582936    0.00614479
     atom    8 type  2   force =    -0.00000099   -0.00000100    0.00124663
     atom    9 type  1   force =     0.00000022    0.00046413    0.00081719
     atom   10 type  1   force =     0.00040211   -0.00023156    0.00081715
     atom   11 type  1   force =    -0.00040218   -0.00023211    0.00081610
     atom   12 type  2   force =    -0.00000074   -0.00000088    0.00176243

     Total force =     0.054590     Total SCF correction =     0.002133

     entering subroutine stress ...

     negative rho (up, down):  1.015E-01 1.015E-01
          total   stress  (Ry/bohr**3)                   (kbar)     P=  -20.17
  -0.00016687  -0.00000000   0.00000000        -24.55     -0.00      0.00
  -0.00000000  -0.00016687   0.00000000         -0.00    -24.55      0.00
   0.00000000   0.00000000  -0.00007768          0.00      0.00    -11.43

 !ASE

     Writing output data file calc.save

     General routines

     Parallel routines

   This run was terminated on:   0:21:11  20Dec2018

   JOB DONE.
Job  /afs/slac/g/suncat/bin/suncat-tsmpirun -x LD_LIBRARY_PATH -wdir /scratch/qe773443_K13Mt pw.x -in pw.inp

TID   HOST_NAME   COMMAND_LINE            STATUS            TERMINATION_TIME
00000 suncat0226 pw.x -in pw.inp   Done                     12/20/2018 00:21:11
00001 suncat0226 pw.x -in pw.inp   Done                     12/20/2018 00:21:11
00002 suncat0226 pw.x -in pw.inp   Done                     12/20/2018 00:21:11
00003 suncat0226 pw.x -in pw.inp   Done                     12/20/2018 00:21:11
00004 suncat0226 pw.x -in pw.inp   Done                     12/20/2018 00:21:11
00005 suncat0226 pw.x -in pw.inp   Done                     12/20/2018 00:21:11
00006 suncat0226 pw.x -in pw.inp   Done                     12/20/2018 00:21:11
00007 suncat0226 pw.x -in pw.inp   Done                     12/20/2018 00:21:11
00008 suncat0225 pw.x -in pw.inp   Done                     12/20/2018 00:21:11
00009 suncat0225 pw.x -in pw.inp   Done                     12/20/2018 00:21:11
00010 suncat0225 pw.x -in pw.inp   Done                     12/20/2018 00:21:11
00011 suncat0225 pw.x -in pw.inp   Done                     12/20/2018 00:21:11
00012 suncat0225 pw.x -in pw.inp   Done                     12/20/2018 00:21:11
00013 suncat0225 pw.x -in pw.inp   Done                     12/20/2018 00:21:11
00014 suncat0225 pw.x -in pw.inp   Done                     12/20/2018 00:21:11
00015 suncat0225 pw.x -in pw.inp   Done                     12/20/2018 00:21:11
00016 suncat0224 pw.x -in pw.inp   Done                     12/20/2018 00:21:11
00017 suncat0224 pw.x -in pw.inp   Done                     12/20/2018 00:21:11
00018 suncat0224 pw.x -in pw.inp   Done                     12/20/2018 00:21:11
00019 suncat0224 pw.x -in pw.inp   Done                     12/20/2018 00:21:11
00020 suncat0224 pw.x -in pw.inp   Done                     12/20/2018 00:21:11
00021 suncat0224 pw.x -in pw.inp   Done                     12/20/2018 00:21:11
00022 suncat0224 pw.x -in pw.inp   Done                     12/20/2018 00:21:11
00023 suncat0224 pw.x -in pw.inp   Done                     12/20/2018 00:21:11
00024 suncat0223 pw.x -in pw.inp   Done                     12/20/2018 00:21:11
00025 suncat0223 pw.x -in pw.inp   Done                     12/20/2018 00:21:11
00026 suncat0223 pw.x -in pw.inp   Done                     12/20/2018 00:21:11
00027 suncat0223 pw.x -in pw.inp   Done                     12/20/2018 00:21:11
00028 suncat0223 pw.x -in pw.inp   Done                     12/20/2018 00:21:11
00029 suncat0223 pw.x -in pw.inp   Done                     12/20/2018 00:21:11
00030 suncat0223 pw.x -in pw.inp   Done                     12/20/2018 00:21:11
00031 suncat0223 pw.x -in pw.inp   Done                     12/20/2018 00:21:11
00032 suncat0222 pw.x -in pw.inp   Done                     12/20/2018 00:21:11
00033 suncat0222 pw.x -in pw.inp   Done                     12/20/2018 00:21:11
00034 suncat0222 pw.x -in pw.inp   Done                     12/20/2018 00:21:11
00035 suncat0222 pw.x -in pw.inp   Done                     12/20/2018 00:21:11
00036 suncat0222 pw.x -in pw.inp   Done                     12/20/2018 00:21:11
00037 suncat0222 pw.x -in pw.inp   Done                     12/20/2018 00:21:11
00038 suncat0222 pw.x -in pw.inp   Done                     12/20/2018 00:21:11
00039 suncat0222 pw.x -in pw.inp   Done                     12/20/2018 00:21:11
00040 suncat0221 pw.x -in pw.inp   Done                     12/20/2018 00:21:11
00041 suncat0221 pw.x -in pw.inp   Done                     12/20/2018 00:21:11
00042 suncat0221 pw.x -in pw.inp   Done                     12/20/2018 00:21:11
00043 suncat0221 pw.x -in pw.inp   Done                     12/20/2018 00:21:11
00044 suncat0221 pw.x -in pw.inp   Done                     12/20/2018 00:21:11
00045 suncat0221 pw.x -in pw.inp   Done                     12/20/2018 00:21:11
00046 suncat0221 pw.x -in pw.inp   Done                     12/20/2018 00:21:11
00047 suncat0221 pw.x -in pw.inp   Done                     12/20/2018 00:21:11
00048 suncat0220 pw.x -in pw.inp   Done                     12/20/2018 00:21:11
00049 suncat0220 pw.x -in pw.inp   Done                     12/20/2018 00:21:11
00050 suncat0220 pw.x -in pw.inp   Done                     12/20/2018 00:21:11
00051 suncat0220 pw.x -in pw.inp   Done                     12/20/2018 00:21:11
00052 suncat0220 pw.x -in pw.inp   Done                     12/20/2018 00:21:11
00053 suncat0220 pw.x -in pw.inp   Done                     12/20/2018 00:21:11
00054 suncat0220 pw.x -in pw.inp   Done                     12/20/2018 00:21:11
00055 suncat0220 pw.x -in pw.inp   Done                     12/20/2018 00:21:11
00056 suncat0219 pw.x -in pw.inp   Done                     12/20/2018 00:21:11
00057 suncat0219 pw.x -in pw.inp   Done                     12/20/2018 00:21:11
00058 suncat0219 pw.x -in pw.inp   Done                     12/20/2018 00:21:11
00059 suncat0219 pw.x -in pw.inp   Done                     12/20/2018 00:21:11
00060 suncat0219 pw.x -in pw.inp   Done                     12/20/2018 00:21:11
00061 suncat0219 pw.x -in pw.inp   Done                     12/20/2018 00:21:11
00062 suncat0219 pw.x -in pw.inp   Done                     12/20/2018 00:21:11
00063 suncat0219 pw.x -in pw.inp   Done                     12/20/2018 00:21:11