     Program PWSCF v.5.1rc2 (svn rev. 11289) starts on  3Jan2019 at  4:16:45

     Current dimensions of program PWSCF are:
     Max number of different atomic species (ntypx) = 10
     Max number of k-points (npk) =  40000
     Max angular momentum in pseudopotentials (lmaxx) =  3
     Presently stress not available with electric field

     IMPORTANT: XC functional enforced from input :
     Exchange-correlation      = BEEF-VDW ( 1  4 27 13 2)
     Any further DFT definition will be discarded
     Please, verify this is what you really want

     Subspace diagonalization in iterative solution of the eigenvalue problem:
     a serial algorithm will be used

     Generating pointlists ...
     new r_m :   0.4125 (alat units)  0.7795 (a.u.) for type    1
     new r_m :   0.4125 (alat units)  0.7795 (a.u.) for type    2

     bravais-lattice index     =            0
     lattice parameter (alat)  =       1.8897  a.u.
     unit-cell volume          =    4286.0639 (a.u.)^3
     number of atoms/cell      =           12
     number of atomic types    =            2
     number of electrons       =       195.00
     number of Kohn-Sham states=          127
     kinetic-energy cutoff     =      36.7493  Ry
     charge density cutoff     =     367.4932  Ry
     convergence threshold     =      1.0E-06
     mixing beta               =       0.1000
     number of iterations used =           10  plain     mixing
     Exchange-correlation      = BEEF-VDW ( 1  4 27 13 2)
     nstep                     =           50

     celldm(1)=   1.889726  celldm(2)=   0.000000  celldm(3)=   0.000000
     celldm(4)=   0.000000  celldm(5)=   0.000000  celldm(6)=   0.000000

     crystal axes: (cart. coord. in units of alat)
               a(1) = (   5.474558   0.000000   0.000000 )
               a(2) = (  -2.737279   4.741107   0.000000 )
               a(3) = (   0.000000   0.000000  24.469958 )

     reciprocal axes: (cart. coord. in units 2 pi/alat)
               b(1) = (  0.182663  0.105461  0.000000 )
               b(2) = (  0.000000  0.210921  0.000000 )
               b(3) = (  0.000000  0.000000  0.040866 )

     PseudoPot. # 1 for Pd read from file:
     /afs/slac.stanford.edu/u/if/mamunm/psp/gbrv1.5pbe/Pd.UPF
     MD5 check sum: 2d733d2bc2cbfd217af676df1668a4bc
     Pseudo is Ultrasoft + core correction, Zval = 16.0
     Generated by new atomic code, or converted to UPF format
     Using radial grid of  887 points,  6 beta functions with:
                l(1) =   0
                l(2) =   0
                l(3) =   1
                l(4) =   1
                l(5) =   2
                l(6) =   2
     Q(r) pseudized with  8 coefficients,  rinner =    1.130   1.130   1.130
                                                       1.130   1.130

     PseudoPot. # 2 for Co read from file:
     /afs/slac.stanford.edu/u/if/mamunm/psp/gbrv1.5pbe/Co.UPF
     MD5 check sum: 5f91765df6ddd3222702df6e7b74a16d
     Pseudo is Ultrasoft + core correction, Zval = 17.0
     Generated by new atomic code, or converted to UPF format
     Using radial grid of  863 points,  6 beta functions with:
                l(1) =   0
                l(2) =   0
                l(3) =   1
                l(4) =   1
                l(5) =   2
                l(6) =   2
     Q(r) pseudized with  8 coefficients,  rinner =    1.200   1.200   1.200
                                                       1.200   1.200

     vdW kernel table read from file vdW_kernel_table
     MD5 check sum: 095c7af220d748ca6e76c0b4c6cfb241

     atomic species   valence    mass     pseudopotential
        Pd1           16.00   106.42000     Pd( 1.00)
        Co1           17.00    58.93319     Co( 1.00)

     Starting magnetic structure
     atomic species   magnetization
        Pd1          0.125
        Co1          0.118

     No symmetry found

   Cartesian axes

     site n.     atom                  positions (alat units)
         1           Pd1 tau(   1) = (   0.0000000   0.0000000  10.0000000  )
         2           Pd1 tau(   2) = (  -1.3686396   2.3705533  10.0000000  )
         3           Pd1 tau(   3) = (   1.3686396   2.3705533  10.0000000  )
         4           Co1 tau(   4) = (   2.7372792   0.0000000  10.0000000  )
         5           Pd1 tau(   5) = (   2.7372792   1.5803689  12.2349791  )
         6           Pd1 tau(   6) = (   1.3686396   3.9509222  12.2349791  )
         7           Pd1 tau(   7) = (  -1.3686396   3.9509222  12.2349791  )
         8           Co1 tau(   8) = (   0.0000000   1.5803689  12.2349791  )
         9           Pd1 tau(   9) = (  -0.0000000   3.1607378  14.4699582  )
        10           Pd1 tau(  10) = (   1.3686396   0.7901844  14.4699582  )
        11           Pd1 tau(  11) = (   4.1059188   0.7901844  14.4699582  )
        12           Co1 tau(  12) = (   2.7372792   3.1607378  14.4699582  )

     number of k points=    40  Fermi-Dirac smearing, width (Ry)=  0.0110
                       cart. coord. in units 2pi/alat
        k(    1) = (   0.0000000   0.0000000   0.0000000), wk =   0.0277778
        k(    2) = (   0.0000000   0.0351535   0.0000000), wk =   0.0555556
        k(    3) = (   0.0000000   0.0703071   0.0000000), wk =   0.0555556
        k(    4) = (   0.0000000  -0.1054606   0.0000000), wk =   0.0277778
        k(    5) = (   0.0304439   0.0175768   0.0000000), wk =   0.0555556
        k(    6) = (   0.0304439   0.0527303   0.0000000), wk =   0.0555556
        k(    7) = (   0.0304439   0.0878838   0.0000000), wk =   0.0555556
        k(    8) = (   0.0304439  -0.0878838   0.0000000), wk =   0.0555556
        k(    9) = (   0.0304439  -0.0527303   0.0000000), wk =   0.0555556
        k(   10) = (   0.0304439  -0.0175768   0.0000000), wk =   0.0555556
        k(   11) = (   0.0608877   0.0351535   0.0000000), wk =   0.0555556
        k(   12) = (   0.0608877   0.0703071   0.0000000), wk =   0.0555556
        k(   13) = (   0.0608877   0.1054606   0.0000000), wk =   0.0555556
        k(   14) = (   0.0608877  -0.0703071   0.0000000), wk =   0.0555556
        k(   15) = (   0.0608877  -0.0351535   0.0000000), wk =   0.0555556
        k(   16) = (   0.0608877  -0.0000000   0.0000000), wk =   0.0555556
        k(   17) = (  -0.0913316  -0.0527303   0.0000000), wk =   0.0277778
        k(   18) = (  -0.0913316  -0.0175768   0.0000000), wk =   0.0555556
        k(   19) = (  -0.0913316   0.0175768   0.0000000), wk =   0.0555556
        k(   20) = (  -0.0913316  -0.1581909   0.0000000), wk =   0.0277778
        k(   21) = (   0.0000000   0.0000000   0.0000000), wk =   0.0277778
        k(   22) = (   0.0000000   0.0351535   0.0000000), wk =   0.0555556
        k(   23) = (   0.0000000   0.0703071   0.0000000), wk =   0.0555556
        k(   24) = (   0.0000000  -0.1054606   0.0000000), wk =   0.0277778
        k(   25) = (   0.0304439   0.0175768   0.0000000), wk =   0.0555556
        k(   26) = (   0.0304439   0.0527303   0.0000000), wk =   0.0555556
        k(   27) = (   0.0304439   0.0878838   0.0000000), wk =   0.0555556
        k(   28) = (   0.0304439  -0.0878838   0.0000000), wk =   0.0555556
        k(   29) = (   0.0304439  -0.0527303   0.0000000), wk =   0.0555556
        k(   30) = (   0.0304439  -0.0175768   0.0000000), wk =   0.0555556
        k(   31) = (   0.0608877   0.0351535   0.0000000), wk =   0.0555556
        k(   32) = (   0.0608877   0.0703071   0.0000000), wk =   0.0555556
        k(   33) = (   0.0608877   0.1054606   0.0000000), wk =   0.0555556
        k(   34) = (   0.0608877  -0.0703071   0.0000000), wk =   0.0555556
        k(   35) = (   0.0608877  -0.0351535   0.0000000), wk =   0.0555556
        k(   36) = (   0.0608877  -0.0000000   0.0000000), wk =   0.0555556
        k(   37) = (  -0.0913316  -0.0527303   0.0000000), wk =   0.0277778
        k(   38) = (  -0.0913316  -0.0175768   0.0000000), wk =   0.0555556
        k(   39) = (  -0.0913316   0.0175768   0.0000000), wk =   0.0555556
        k(   40) = (  -0.0913316  -0.1581909   0.0000000), wk =   0.0277778

     Largest allocated arrays     est. size (Mb)     dimensions
     Largest temporary arrays     est. size (Mb)     dimensions

     Check: negative/imaginary core charge=   -0.000002    0.000000

     Initial potential from superposition of free atoms
     Check: negative starting charge=(component1):   -0.382272
     Check: negative starting charge=(component2):   -0.297320

     starting charge  187.49992, renormalised to  195.00000

     negative rho (up, down):  3.976E-01 3.092E-01

     *
     * You are using vdW-DF for exchange-correlation in this calculation.
     * Please cite the following three references that made this development
     * possible:
     *
     *   M. Dion, H. Rydberg, E. Schroder, D. C. Langreth, and
     *   B. I. Lundqvist, Phys. Rev. Lett. 92, 246401 (2004).
     *
     *   T. Thonhauser, V. R. Cooper, S. Li, A. Puzder, P. Hyldgaard, and
     *   D. C. Langreth, Phys. Rev. B 76, 125112 (2007).
     *
     *   G. Roman-Perez and J. M. Soler, Phys. Rev. Lett. 103, 096102 (2009).
     *
     *
     * If you are using vdW-DF2, please also cite:
     *
     *   K. Lee, E. D. Murray, L. Kong, B. I. Lundqvist, and
     *   D. C. Langreth, Phys. Rev. B 82, 081101(R) (2010).
     *
     *
     * If you are calculating the stress with vdW-DF, please also cite:
     *
     *   R. Sabatini, E. Kucukbenli, B. Kolb, T. Thonhauser, and
     *   S. de Gironcoli, J. Phys.: Condens. Matter 24, 424209 (2012).
     *

     Carrying out vdW-DF run using the following parameters:

     Nqs =      20    Nr_points =    1024   r_max =   100.000
     q_mesh =
               0.00001000     0.04494208     0.09755937     0.15916263
               0.23128650     0.31572767     0.41458969     0.53033537
               0.66584808     0.82450364     1.01025438     1.22772762
               1.48234092     1.78043706     2.12944203     2.53805004
               3.01644009     3.57652955     4.23227104     5.00000000

     Gradients computed in reciprocal space

     Adding external electric field

     Computed dipole along edir(3) :
        Dipole               -0.0000 Ry au,         -0.0000 Debye
        Dipole field         -0.0000 Ry au

        Potential amp.        0.0000 Ry
        Total length         45.0855 bohr

[...]

     Starting wfc are  147 randomized atomic wfcs

     Self-consistent Calculation

     iteration #  1     ecut=    36.75 Ry     beta=0.10
     Davidson diagonalization with overlap
     ethr =  1.00E-02,  avg # of iterations =  7.2

[...]

     Magnetic moment per site:
     atom:    1    charge:    3.3589    magn:    0.4019    constr:    0.0000
     atom:    2    charge:    3.3589    magn:    0.4019    constr:    0.0000
     atom:    3    charge:    3.3589    magn:    0.4019    constr:    0.0000
     atom:    4    charge:    8.4645    magn:    0.9980    constr:    0.0000
     atom:    5    charge:    3.3498    magn:    0.4009    constr:    0.0000
     atom:    6    charge:    3.3498    magn:    0.4009    constr:    0.0000
     atom:    7    charge:    3.3498    magn:    0.4009    constr:    0.0000
     atom:    8    charge:    8.4407    magn:    1.0010    constr:    0.0000
[...]
        k(    4) = (   0.0000000  -0.1054606   0.0000000), wk =   0.0277778
        k(    5) = (   0.0304439   0.0175768   0.0000000), wk =   0.0555556
        k(    6) = (   0.0304439   0.0527303   0.0000000), wk =   0.0555556
        k(    7) = (   0.0304439   0.0878838   0.0000000), wk =   0.0555556
        k(    8) = (   0.0304439  -0.0878838   0.0000000), wk =   0.0555556
        k(    9) = (   0.0304439  -0.0527303   0.0000000), wk =   0.0555556
        k(   10) = (   0.0304439  -0.0175768   0.0000000), wk =   0.0555556
        k(   11) = (   0.0608877   0.0351535   0.0000000), wk =   0.0555556
        k(   12) = (   0.0608877   0.0703071   0.0000000), wk =   0.0555556
        k(   13) = (   0.0608877   0.1054606   0.0000000), wk =   0.0555556
        k(   14) = (   0.0608877  -0.0703071   0.0000000), wk =   0.0555556
        k(   15) = (   0.0608877  -0.0351535   0.0000000), wk =   0.0555556
        k(   16) = (   0.0608877  -0.0000000   0.0000000), wk =   0.0555556
        k(   17) = (  -0.0913316  -0.0527303   0.0000000), wk =   0.0277778
        k(   18) = (  -0.0913316  -0.0175768   0.0000000), wk =   0.0555556
        k(   19) = (  -0.0913316   0.0175768   0.0000000), wk =   0.0555556
        k(   20) = (  -0.0913316  -0.1581909   0.0000000), wk =   0.0277778
        k(   21) = (   0.0000000   0.0000000   0.0000000), wk =   0.0277778
        k(   22) = (   0.0000000   0.0351535   0.0000000), wk =   0.0555556
        k(   23) = (   0.0000000   0.0703071   0.0000000), wk =   0.0555556
        k(   24) = (   0.0000000  -0.1054606   0.0000000), wk =   0.0277778
        k(   25) = (   0.0304439   0.0175768   0.0000000), wk =   0.0555556
        k(   26) = (   0.0304439   0.0527303   0.0000000), wk =   0.0555556
        k(   27) = (   0.0304439   0.0878838   0.0000000), wk =   0.0555556
        k(   28) = (   0.0304439  -0.0878838   0.0000000), wk =   0.0555556
        k(   29) = (   0.0304439  -0.0527303   0.0000000), wk =   0.0555556
        k(   30) = (   0.0304439  -0.0175768   0.0000000), wk =   0.0555556
        k(   31) = (   0.0608877   0.0351535   0.0000000), wk =   0.0555556
        k(   32) = (   0.0608877   0.0703071   0.0000000), wk =   0.0555556
        k(   33) = (   0.0608877   0.1054606   0.0000000), wk =   0.0555556
        k(   34) = (   0.0608877  -0.0703071   0.0000000), wk =   0.0555556
        k(   35) = (   0.0608877  -0.0351535   0.0000000), wk =   0.0555556
        k(   36) = (   0.0608877  -0.0000000   0.0000000), wk =   0.0555556
        k(   37) = (  -0.0913316  -0.0527303   0.0000000), wk =   0.0277778
        k(   38) = (  -0.0913316  -0.0175768   0.0000000), wk =   0.0555556
        k(   39) = (  -0.0913316   0.0175768   0.0000000), wk =   0.0555556
        k(   40) = (  -0.0913316  -0.1581909   0.0000000), wk =   0.0277778

     Largest allocated arrays     est. size (Mb)     dimensions
     Largest temporary arrays     est. size (Mb)     dimensions

     Check: negative/imaginary core charge=   -0.000002    0.000000

     Initial potential from superposition of free atoms
     Check: negative starting charge=(component1):   -0.381806
     Check: negative starting charge=(component2):   -0.296958

     starting charge  187.49992, renormalised to  195.00000

[...]

     *
     * You are using vdW-DF for exchange-correlation in this calculation.
     * Please cite the following three references that made this development
     * possible:
     *
     *   M. Dion, H. Rydberg, E. Schroder, D. C. Langreth, and
     *   B. I. Lundqvist, Phys. Rev. Lett. 92, 246401 (2004).
     *
     *   T. Thonhauser, V. R. Cooper, S. Li, A. Puzder, P. Hyldgaard, and
     *   D. C. Langreth, Phys. Rev. B 76, 125112 (2007).
     *
     *   G. Roman-Perez and J. M. Soler, Phys. Rev. Lett. 103, 096102 (2009).
     *
     *
     * If you are using vdW-DF2, please also cite:
     *
     *   K. Lee, E. D. Murray, L. Kong, B. I. Lundqvist, and
     *   D. C. Langreth, Phys. Rev. B 82, 081101(R) (2010).
     *
     *
     * If you are calculating the stress with vdW-DF, please also cite:
     *
     *   R. Sabatini, E. Kucukbenli, B. Kolb, T. Thonhauser, and
     *   S. de Gironcoli, J. Phys.: Condens. Matter 24, 424209 (2012).
     *

     Carrying out vdW-DF run using the following parameters:

     Nqs =      20    Nr_points =    1024   r_max =   100.000
     q_mesh =
               0.00001000     0.04494208     0.09755937     0.15916263
               0.23128650     0.31572767     0.41458969     0.53033537
               0.66584808     0.82450364     1.01025438     1.22772762
               1.48234092     1.78043706     2.12944203     2.53805004
               3.01644009     3.57652955     4.23227104     5.00000000

     Gradients computed in reciprocal space

[...]

     Starting wfc are  147 randomized atomic wfcs

     Self-consistent Calculation

[...]

     total energy              =   -2696.58074565 Ry
     Harris-Foulkes estimate   =   -2696.58074499 Ry
     estimated scf accuracy    <       0.00000143 Ry

[...]

     iteration # 30     ecut=    36.75 Ry     beta=0.10
     Davidson diagonalization with overlap
     ethr =  7.35E-10,  avg # of iterations =  1.5

[...]

     negative rho (up, down):  3.566E-01 3.526E-01

[...]

     Adding external electric field

     Computed dipole along edir(3) :
        Dipole               -0.0085 Ry au,         -0.0216 Debye
        Dipole field         -0.0000 Ry au

        Potential amp.        0.0022 Ry
        Total length         45.0855 bohr

     Magnetic moment per site:
     atom:    1    charge:    3.3069    magn:    0.0523    constr:    0.0000
     atom:    2    charge:    3.3069    magn:    0.0523    constr:    0.0000
     atom:    3    charge:    3.3069    magn:    0.0523    constr:    0.0000
     atom:    4    charge:    8.2973    magn:    1.1372    constr:    0.0000
     atom:    5    charge:    3.3014    magn:    0.0676    constr:    0.0000
     atom:    6    charge:    3.3014    magn:    0.0676    constr:    0.0000
     atom:    7    charge:    3.3014    magn:    0.0676    constr:    0.0000
     atom:    8    charge:    8.2848    magn:    1.1683    constr:    0.0000
     atom:    9    charge:    3.3043    magn:    0.0506    constr:    0.0000
     atom:   10    charge:    3.3043    magn:    0.0506    constr:    0.0000
     atom:   11    charge:    3.3043    magn:    0.0506    constr:    0.0000
     atom:   12    charge:    8.2865    magn:    1.1411    constr:    0.0000

     End of self-consistent calculation

 ------ SPIN UP ------------

[...]

 ------ SPIN DOWN ----------

[...]

          k = 0.0609-0.0000 0.0000 ( 16152 PWs)   bands (ev):

[...]

          k =-0.0913-0.1582 0.0000 ( 16164 PWs)   bands (ev):

   -92.8904 -92.7714 -92.7342 -56.2516 -56.2439 -56.2435 -56.1326 -56.1319
   -56.1316 -56.1016 -56.1013 -56.0831 -49.0492 -48.9550 -48.9477 -48.9288
   -48.9288 -48.9201 -48.9184 -48.9060 -48.8155 -48.7666 -48.7278 -48.6788
   -48.6725 -48.6588 -48.6555 -48.6454 -48.6361 -48.6114 -48.6063 -48.5486
   -48.5059 -48.5050 -48.4967 -48.4874 -48.4489 -48.4365 -48.4291  -4.0121
    -3.9403  -3.2501  -3.1103  -3.0661  -2.9444  -2.8920  -2.7758  -2.6799
    -2.5213  -2.5211  -2.4787  -2.3569  -2.2073  -2.1588  -2.1310  -2.0745
    -2.0000  -1.8525  -1.7207  -1.4543  -1.4206  -1.3243  -1.2522  -1.2376
    -1.1966  -1.1371  -1.0921  -1.0369  -0.9915  -0.9803  -0.9212  -0.9082
    -0.8774  -0.7536  -0.7215  -0.5651  -0.4990  -0.4515  -0.3669  -0.3054
    -0.1457  -0.0433  -0.0317   0.0214   0.2405   0.3148   0.4273   0.4899
     0.5452   0.6707   0.7555   0.8269   0.8957   0.9671   1.0175   1.0746
     1.0911   1.1297   1.2873   1.3828   1.4499   1.4842   1.6364   3.0697
     3.1476   3.3352   3.5161   4.3065   4.4098   5.2828   5.3396   6.3549
     6.4056   6.9902   6.9946   7.5485   7.5604   7.6732   7.6774   8.7688
     8.7761   8.7979   8.8472   9.3008   9.3281   9.8334   9.8643

     the Fermi energy is     1.0530 ev

!    total energy              =   -2696.58074700 Ry
     Harris-Foulkes estimate   =   -2696.58074581 Ry
     estimated scf accuracy    <       0.00000098 Ry

     The total energy is the sum of the following terms:

     one-electron contribution =  -22504.73982631 Ry
     hartree contribution      =   11290.14863839 Ry
     xc contribution           =    -394.02139862 Ry
     ewald contribution        =    8912.13144255 Ry
     electric field correction =       0.00000021 Ry
     smearing contrib. (-TS)   =      -0.09960322 Ry

     total magnetization       =     8.77 Bohr mag/cell
     absolute magnetization    =     9.62 Bohr mag/cell

     convergence has been achieved in  30 iterations

 BEEF-vdW xc energy contributions
           1 :   -344.183079937405
           2 :    313.922424134643
           3 :   -262.364134687309
           4 :    203.406092825170
           5 :   -150.264509851050
           6 :    111.000553653379
           7 :   -86.9574222146131
           8 :    74.2142912111938
           9 :   -66.8187288662042
          10 :    59.9626809544078
          11 :   -51.6931485868621
          12 :    42.7347017013225
          13 :   -35.0416582575559
          14 :    30.1624274720748
          15 :   -28.3285758064771
          16 :    28.5361567565648
          17 :   -29.2952109311196
          18 :    29.4457900822877
          19 :   -28.5918293348310
          20 :    27.0298899347430
          21 :   -25.3660396999437
          22 :    24.1012438080143
          23 :   -23.4001567160116
          24 :    23.0876436623837
          25 :   -22.8095354556041
          26 :    22.2379304605385
          27 :   -21.2311390706980
          28 :    19.8839979438772
          29 :   -18.4636725197153
          30 :    17.2614746908494
          31 :   -32.2878112770178
          32 :   -23.5140937435747

     Forces acting on atoms (Ry/au):

     negative rho (up, down):  3.566E-01 3.526E-01
     atom    1 type  1   force =    -0.00000004    0.01453138   -0.01081546
     atom    2 type  1   force =     0.01258449   -0.00726566   -0.01081539
     atom    3 type  1   force =    -0.01258461   -0.00726573   -0.01081538
     atom    4 type  2   force =     0.00000017    0.00000005    0.01744394
     atom    5 type  1   force =     0.00000000   -0.00695642    0.00423875
     atom    6 type  1   force =    -0.00602448    0.00347823    0.00423866
     atom    7 type  1   force =     0.00602441    0.00347817    0.00423872
     atom    8 type  2   force =    -0.00000001   -0.00000004    0.00420984
     atom    9 type  1   force =    -0.00000015   -0.00011865   -0.00070835
     atom   10 type  1   force =    -0.00010267    0.00005927   -0.00070838
     atom   11 type  1   force =     0.00010266    0.00005940   -0.00070841
     atom   12 type  2   force =     0.00000022    0.00000001    0.00020145

     Total force =     0.038821     Total SCF correction =     0.002272

     entering subroutine stress ...

     negative rho (up, down):  3.566E-01 3.526E-01
          total   stress  (Ry/bohr**3)                   (kbar)     P=   -5.89
  -0.00005505  -0.00000000  -0.00000000         -8.10     -0.00     -0.00
  -0.00000000  -0.00005505  -0.00000000         -0.00     -8.10     -0.00
  -0.00000000  -0.00000000  -0.00000998         -0.00     -0.00     -1.47

 !ASE

     Writing output data file calc.save

     General routines

     Parallel routines

   This run was terminated on:   7:12:37   3Jan2019

   JOB DONE.
Job  /afs/slac/g/suncat/bin/suncat-tsmpirun -x LD_LIBRARY_PATH -wdir /scratch/qe888996_UAyQP pw.x -in pw.inp

TID   HOST_NAME   COMMAND_LINE            STATUS            TERMINATION_TIME
00000 suncat0159 pw.x -in pw.inp   Done                     01/03/2019 07:12:37
00001 suncat0159 pw.x -in pw.inp   Done                     01/03/2019 07:12:37
00002 suncat0159 pw.x -in pw.inp   Done                     01/03/2019 07:12:37
00003 suncat0159 pw.x -in pw.inp   Done                     01/03/2019 07:12:37
00004 suncat0159 pw.x -in pw.inp   Done                     01/03/2019 07:12:37
00005 suncat0159 pw.x -in pw.inp   Done                     01/03/2019 07:12:37
00006 suncat0159 pw.x -in pw.inp   Done                     01/03/2019 07:12:37
00007 suncat0159 pw.x -in pw.inp   Done                     01/03/2019 07:12:37
00008 suncat0155 pw.x -in pw.inp   Done                     01/03/2019 07:12:37
00009 suncat0155 pw.x -in pw.inp   Done                     01/03/2019 07:12:37
00010 suncat0155 pw.x -in pw.inp   Done                     01/03/2019 07:12:37
00011 suncat0155 pw.x -in pw.inp   Done                     01/03/2019 07:12:37
00012 suncat0155 pw.x -in pw.inp   Done                     01/03/2019 07:12:37
00013 suncat0155 pw.x -in pw.inp   Done                     01/03/2019 07:12:37
00014 suncat0155 pw.x -in pw.inp   Done                     01/03/2019 07:12:37
00015 suncat0155 pw.x -in pw.inp   Done                     01/03/2019 07:12:37
00016 suncat0106 pw.x -in pw.inp   Done                     01/03/2019 07:12:37
00017 suncat0106 pw.x -in pw.inp   Done                     01/03/2019 07:12:37
00018 suncat0106 pw.x -in pw.inp   Done                     01/03/2019 07:12:37
00019 suncat0106 pw.x -in pw.inp   Done                     01/03/2019 07:12:37
00020 suncat0106 pw.x -in pw.inp   Done                     01/03/2019 07:12:37
00021 suncat0106 pw.x -in pw.inp   Done                     01/03/2019 07:12:37
00022 suncat0106 pw.x -in pw.inp   Done                     01/03/2019 07:12:37
00023 suncat0106 pw.x -in pw.inp   Done                     01/03/2019 07:12:37
00024 suncat0105 pw.x -in pw.inp   Done                     01/03/2019 07:12:37
00025 suncat0105 pw.x -in pw.inp   Done                     01/03/2019 07:12:37
00026 suncat0105 pw.x -in pw.inp   Done                     01/03/2019 07:12:37
00027 suncat0105 pw.x -in pw.inp   Done                     01/03/2019 07:12:37
00028 suncat0105 pw.x -in pw.inp   Done                     01/03/2019 07:12:37
00029 suncat0105 pw.x -in pw.inp   Done                     01/03/2019 07:12:37
00030 suncat0105 pw.x -in pw.inp   Done                     01/03/2019 07:12:37
00031 suncat0105 pw.x -in pw.inp   Done                     01/03/2019 07:12:37
00032 suncat0277 pw.x -in pw.inp   Done                     01/03/2019 07:12:37
00033 suncat0277 pw.x -in pw.inp   Done                     01/03/2019 07:12:37
00034 suncat0277 pw.x -in pw.inp   Done                     01/03/2019 07:12:37
00035 suncat0277 pw.x -in pw.inp   Done                     01/03/2019 07:12:37
00036 suncat0277 pw.x -in pw.inp   Done                     01/03/2019 07:12:37
00037 suncat0277 pw.x -in pw.inp   Done                     01/03/2019 07:12:37
00038 suncat0277 pw.x -in pw.inp   Done                     01/03/2019 07:12:37
00039 suncat0277 pw.x -in pw.inp   Done                     01/03/2019 07:12:37
00040 suncat0276 pw.x -in pw.inp   Done                     01/03/2019 07:12:37
00041 suncat0276 pw.x -in pw.inp   Done                     01/03/2019 07:12:37
00042 suncat0276 pw.x -in pw.inp   Done                     01/03/2019 07:12:37
00043 suncat0276 pw.x -in pw.inp   Done                     01/03/2019 07:12:37
00044 suncat0276 pw.x -in pw.inp   Done                     01/03/2019 07:12:37
00045 suncat0276 pw.x -in pw.inp   Done                     01/03/2019 07:12:37
00046 suncat0276 pw.x -in pw.inp   Done                     01/03/2019 07:12:37
00047 suncat0276 pw.x -in pw.inp   Done                     01/03/2019 07:12:37
00048 suncat0217 pw.x -in pw.inp   Done                     01/03/2019 07:12:37
00049 suncat0217 pw.x -in pw.inp   Done                     01/03/2019 07:12:37
00050 suncat0217 pw.x -in pw.inp   Done                     01/03/2019 07:12:37
00051 suncat0217 pw.x -in pw.inp   Done                     01/03/2019 07:12:37
00052 suncat0217 pw.x -in pw.inp   Done                     01/03/2019 07:12:37
00053 suncat0217 pw.x -in pw.inp   Done                     01/03/2019 07:12:37
00054 suncat0217 pw.x -in pw.inp   Done                     01/03/2019 07:12:37
00055 suncat0217 pw.x -in pw.inp   Done                     01/03/2019 07:12:37
00056 suncat0216 pw.x -in pw.inp   Done                     01/03/2019 07:12:37
00057 suncat0216 pw.x -in pw.inp   Done                     01/03/2019 07:12:37
00058 suncat0216 pw.x -in pw.inp   Done                     01/03/2019 07:12:37
00059 suncat0216 pw.x -in pw.inp   Done                     01/03/2019 07:12:37
00060 suncat0216 pw.x -in pw.inp   Done                     01/03/2019 07:12:37
00061 suncat0216 pw.x -in pw.inp   Done                     01/03/2019 07:12:37
00062 suncat0216 pw.x -in pw.inp   Done                     01/03/2019 07:12:37
00063 suncat0216 pw.x -in pw.inp   Done                     01/03/2019 07:12:37