     Program PWSCF v.5.1rc2 (svn rev. 11289) starts on 26Dec2018 at 17:57:24

     Current dimensions of program PWSCF are:
     Max number of different atomic species (ntypx) = 10
     Max number of k-points (npk) =  40000
     Max angular momentum in pseudopotentials (lmaxx) =  3
     Presently stress not available with electric field

     IMPORTANT: XC functional enforced from input :
     Exchange-correlation      = BEEF-VDW ( 1  4 27 13 2)
     Any further DFT definition will be discarded
     Please, verify this is what you really want

     Subspace diagonalization in iterative solution of the eigenvalue problem:
     a serial algorithm will be used

     bravais-lattice index     =            0
     lattice parameter (alat)  =       1.8897  a.u.
     unit-cell volume          =    7954.7172 (a.u.)^3
     number of atoms/cell      =           12
     number of atomic types    =            2
     number of electrons       =       138.00
     number of Kohn-Sham states=           99
     kinetic-energy cutoff     =      36.7493  Ry
     charge density cutoff     =     367.4932  Ry
     convergence threshold     =      1.0E-06
     mixing beta               =       0.1000
     number of iterations used =           10  plain     mixing
     Exchange-correlation      = BEEF-VDW ( 1  4 27 13 2)
     nstep                     =           50

     celldm(1)=   1.889726  celldm(2)=   0.000000  celldm(3)=   0.000000
     celldm(4)=   0.000000  celldm(5)=   0.000000  celldm(6)=   0.000000

     crystal axes: (cart. coord. in units of alat)
               a(1) = (   7.246953   0.000000   0.000000 )
               a(2) = (  -3.623477   6.276045   0.000000 )
               a(3) = (   0.000000   0.000000  25.917112 )

     reciprocal axes: (cart. coord. in units 2 pi/alat)
               b(1) = (  0.137989  0.079668  0.000000 )
               b(2) = (  0.000000  0.159336  0.000000 )
               b(3) = (  0.000000  0.000000  0.038585 )

     PseudoPot. # 1 for La read from file:
     /afs/slac.stanford.edu/u/if/mamunm/psp/gbrv1.5pbe/La.UPF
     MD5 check sum: 5937b0c7494ba0601a847275249473aa
     Pseudo is Ultrasoft + core correction, Zval = 11.0
     Generated by new atomic code, or converted to UPF format
     Using radial grid of  995 points,  8 beta functions with:
                l(1) =   0
                l(2) =   0
                l(3) =   1
                l(4) =   1
                l(5) =   2
                l(6) =   2
                l(7) =   3
                l(8) =   3
     Q(r) pseudized with  8 coefficients,  rinner =    1.700   1.700   1.700
                                                       1.700   1.700   1.700
                                                       1.700

     PseudoPot. # 2 for Tl read from file:
     /afs/slac.stanford.edu/u/if/mamunm/psp/gbrv1.5pbe/Tl.UPF
     MD5 check sum: b76cf1f7e72655a2b2c53cf6385d7059
     Pseudo is Ultrasoft + core correction, Zval = 13.0
     Generated by new atomic code, or converted to UPF format
     Using radial grid of  899 points,  6 beta functions with:
                l(1) =   0
                l(2) =   0
                l(3) =   1
                l(4) =   1
                l(5) =   2
                l(6) =   2
     Q(r) pseudized with  6 coefficients,  rinner =    1.100   1.100   1.100
                                                       1.100   1.100

     vdW kernel table read from file vdW_kernel_table
     MD5 check sum: 095c7af220d748ca6e76c0b4c6cfb241

     atomic species   valence    mass     pseudopotential
        La1           11.00   138.90547     La( 1.00)
        Tl1           13.00   204.38000     Tl( 1.00)

     No symmetry found

   Cartesian axes

     site n.     atom                  positions (alat units)
         1           La1 tau(   1) = (   0.0000000   0.0000000  10.0000000  )
         2           La1 tau(   2) = (  -1.8117383   3.1380227  10.0000000  )
         3           La1 tau(   3) = (   1.8117383   3.1380227  10.0000000  )
         4           Tl1 tau(   4) = (   3.6234765   0.0000000  10.0000000  )
         5           La1 tau(   5) = (   3.6234765   2.0920152  12.9585562  )
         6           La1 tau(   6) = (   1.8117383   5.2300379  12.9585562  )
         7           La1 tau(   7) = (  -1.8117383   5.2300379  12.9585562  )
         8           Tl1 tau(   8) = (   0.0000000   2.0920152  12.9585562  )
         9           La1 tau(   9) = (  -0.0000000   4.1840303  15.9171124  )
        10           La1 tau(  10) = (   1.8117383   1.0460076  15.9171124  )
        11           La1 tau(  11) = (   5.4352148   1.0460076  15.9171124  )
        12           Tl1 tau(  12) = (   3.6234765   4.1840303  15.9171124  )

     number of k points=    20  Fermi-Dirac smearing, width (Ry)=  0.0110
                       cart. coord. in units 2pi/alat
        k(    1) = (   0.0000000   0.0000000   0.0000000), wk =   0.0555556
        k(    2) = (   0.0000000   0.0265560   0.0000000), wk =   0.1111111
        k(    3) = (   0.0000000   0.0531120   0.0000000), wk =   0.1111111
        k(    4) = (   0.0000000  -0.0796680   0.0000000), wk =   0.0555556
        k(    5) = (   0.0229982   0.0132780   0.0000000), wk =   0.1111111
        k(    6) = (   0.0229982   0.0398340   0.0000000), wk =   0.1111111
        k(    7) = (   0.0229982   0.0663900   0.0000000), wk =   0.1111111
        k(    8) = (   0.0229982  -0.0663900   0.0000000), wk =   0.1111111
        k(    9) = (   0.0229982  -0.0398340   0.0000000), wk =   0.1111111
        k(   10) = (   0.0229982  -0.0132780   0.0000000), wk =   0.1111111
        k(   11) = (   0.0459963   0.0265560   0.0000000), wk =   0.1111111
        k(   12) = (   0.0459963   0.0531120   0.0000000), wk =   0.1111111
        k(   13) = (   0.0459963   0.0796680   0.0000000), wk =   0.1111111
        k(   14) = (   0.0459963  -0.0531120   0.0000000), wk =   0.1111111
        k(   15) = (   0.0459963  -0.0265560   0.0000000), wk =   0.1111111
        k(   16) = (   0.0459963   0.0000000   0.0000000), wk =   0.1111111
        k(   17) = (  -0.0689945  -0.0398340   0.0000000), wk =   0.0555556
        k(   18) = (  -0.0689945  -0.0132780   0.0000000), wk =   0.1111111
        k(   19) = (  -0.0689945   0.0132780   0.0000000), wk =   0.1111111
        k(   20) = (  -0.0689945  -0.1195020   0.0000000), wk =   0.0555556

     Largest allocated arrays     est. size (Mb)     dimensions
     Largest temporary arrays     est. size (Mb)     dimensions

     Check: negative/imaginary core charge=   -0.000001    0.000000

     Initial potential from superposition of free atoms
     Check: negative starting charge=   -0.782504

     starting charge  137.69679, renormalised to  138.00000

     negative rho (up, down):  7.842E-01 0.000E+00

     *
     * You are using vdW-DF for exchange-correlation in this calculation.
     * Please cite the following three references that made this development
     * possible:
     *
     *   M. Dion, H. Rydberg, E. Schroder, D. C. Langreth, and
     *   B. I. Lundqvist, Phys. Rev. Lett. 92, 246401 (2004).
     *
     *   T. Thonhauser, V. R. Cooper, S. Li, A. Puzder, P. Hyldgaard, and
     *   D. C. Langreth, Phys. Rev. B 76, 125112 (2007).
     *
     *   G. Roman-Perez and J. M. Soler, Phys. Rev. Lett. 103, 096102 (2009).
     *
     *
     * If you are using vdW-DF2, please also cite:
     *
     *   K. Lee, E. D. Murray, L. Kong, B. I. Lundqvist, and
     *   D. C. Langreth, Phys. Rev. B 82, 081101(R) (2010).
     *
     *
     * If you are calculating the stress with vdW-DF, please also cite:
     *
     *   R. Sabatini, E. Kucukbenli, B. Kolb, T. Thonhauser, and
     *   S. de Gironcoli, J. Phys.: Condens. Matter 24, 424209 (2012).
     *

     Carrying out vdW-DF run using the following parameters:

     Nqs =      20    Nr_points =    1024   r_max =   100.000
     q_mesh =
               0.00001000     0.04494208     0.09755937     0.15916263
               0.23128650     0.31572767     0.41458969     0.53033537
               0.66584808     0.82450364     1.01025438     1.22772762
               1.48234092     1.78043706     2.12944203     2.53805004
               3.01644009     3.57652955     4.23227104     5.00000000

     Gradients computed in reciprocal space

     Adding external electric field

     Computed dipole along edir(3) :
        Dipole                0.0000 Ry au,          0.0000 Debye
        Dipole field          0.0000 Ry au

        Potential amp.       -0.0000 Ry
        Total length         47.7518 bohr

     Starting wfc are  207 randomized atomic wfcs

     Self-consistent Calculation

     iteration #  1     ecut=    36.75 Ry     beta=0.10
     Davidson diagonalization with overlap
     ethr =  1.00E-02,  avg # of iterations =  1.3

[...]

     total energy              =   -1376.11820703 Ry
     Harris-Foulkes estimate   =   -1377.33033280 Ry
     estimated scf accuracy    <       6.76004552 Ry

[...]

     iteration # 10     ecut=    36.75 Ry     beta=0.10
     Davidson diagonalization with overlap
     c_bands:  1 eigenvalues not converged
     c_bands:  1 eigenvalues not converged
     c_bands:  1 eigenvalues not converged
     ethr =  3.21E-06,  avg # of iterations = 13.9

[...]

     End of self-consistent calculation

          k = 0.0000 0.0000 0.0000 ( 29933 PWs)   bands (ev):

   -31.6023 -31.5933 -31.4615 -31.4614 -31.4594 -31.4594 -31.1726 -31.0430
   -31.0428 -15.8531 -15.7790 -15.5666 -15.4819 -15.4818 -15.3838 -15.3837
   -15.3588 -15.3588 -15.3561 -15.2853 -15.1138 -15.1137 -14.8478 -14.8477
   -14.8131 -14.7711 -14.5767 -14.5767 -14.5744 -14.5634 -14.5633 -14.5146
   -14.5144 -14.3500 -14.2165 -14.2164  -9.4584  -9.4584  -9.4575  -9.4538
    -9.4538  -9.4468  -9.4361  -9.4361  -9.4212  -9.4212  -9.3174  -9.3165
    -9.3165  -9.2909  -9.2909  -4.6028  -4.2656  -4.2170  -0.3474  -0.0552
     0.3758   0.8353   0.8709   1.0885   1.0886   1.2086   1.2087   1.3515
     1.3515   1.4238   1.4238   1.7658   1.8547   1.8827   1.8828   2.3555
     2.3555   2.4111   2.4120   2.4164   2.4165   2.7609   2.7610   2.7721
     2.8143   2.8144   2.9221   2.9984   3.0470   3.1167   3.1356   3.1356
     3.1371   3.1655   3.2295   3.2297   3.2577   3.2580   3.2611   3.3101
     3.3103   3.3750   3.3752

[...]

          k =-0.0690-0.0398 0.0000 ( 29944 PWs)   bands (ev):

[...]

     the Fermi energy is     1.8606 ev

!    total energy              =   -1376.64698098 Ry
     Harris-Foulkes estimate   =   -1376.64702791 Ry
     estimated scf accuracy    <       0.00000085 Ry

     The total energy is the sum of the following terms:

     one-electron contribution =   -5513.51752997 Ry
     hartree contribution      =    2787.27003941 Ry
     xc contribution           =    -648.58334599 Ry
     ewald contribution        =    1998.28990695 Ry
     electric field correction =       0.00000000 Ry
     smearing contrib. (-TS)   =      -0.10605139 Ry

     convergence has been achieved in  18 iterations

 BEEF-vdW xc energy contributions
           1 :   -575.315600455732
           2 :    530.945674203170
           3 :   -452.405534439725
           4 :    356.364737577546
           5 :   -260.520841625338
[...]
                l(4) =   1
                l(5) =   2
                l(6) =   2
                l(7) =   3
                l(8) =   3
     Q(r) pseudized with  8 coefficients,  rinner =    1.700   1.700   1.700
                                                       1.700   1.700   1.700
                                                       1.700

     PseudoPot. # 2 for Tl read from file:
     /afs/slac.stanford.edu/u/if/mamunm/psp/gbrv1.5pbe/Tl.UPF
     MD5 check sum: b76cf1f7e72655a2b2c53cf6385d7059
     Pseudo is Ultrasoft + core correction, Zval = 13.0
     Generated by new atomic code, or converted to UPF format
     Using radial grid of  899 points,  6 beta functions with:
                l(1) =   0
                l(2) =   0
                l(3) =   1
                l(4) =   1
                l(5) =   2
                l(6) =   2
     Q(r) pseudized with  6 coefficients,  rinner =    1.100   1.100   1.100
                                                       1.100   1.100

     vdW kernel table read from file vdW_kernel_table
     MD5 check sum: 095c7af220d748ca6e76c0b4c6cfb241

     atomic species   valence    mass     pseudopotential
        La1           11.00   138.90547     La( 1.00)
        Tl1           13.00   204.38000     Tl( 1.00)

     No symmetry found

   Cartesian axes

     site n.     atom                  positions (alat units)
         1           La1 tau(   1) = (   0.0000000   0.0000000  10.0000000  )
         2           La1 tau(   2) = (  -1.8117383   3.1380227  10.0000000  )
         3           La1 tau(   3) = (   1.8117383   3.1380227  10.0000000  )
         4           Tl1 tau(   4) = (   3.6234765   0.0000000  10.0000000  )
         5           La1 tau(   5) = (   3.6234765   2.0920152  12.9585562  )
         6           La1 tau(   6) = (   1.8117383   5.2300379  12.9585562  )
         7           La1 tau(   7) = (  -1.8117383   5.2300379  12.9585562  )
         8           Tl1 tau(   8) = (   0.0000000   2.0920152  12.9585562  )
         9           La1 tau(   9) = (   0.0000219   4.0940191  15.9194747  )
        10           La1 tau(  10) = (   1.7338316   1.0911161  15.9193703  )
        11           La1 tau(  11) = (   5.5131262   1.0911147  15.9192931  )
        12           Tl1 tau(  12) = (   3.6234957   4.1842534  15.8191379  )

     number of k points=    20  Fermi-Dirac smearing, width (Ry)=  0.0110
                       cart. coord. in units 2pi/alat
        k(    1) = (   0.0000000   0.0000000   0.0000000), wk =   0.0555556
        k(    2) = (   0.0000000   0.0265560   0.0000000), wk =   0.1111111
        k(    3) = (   0.0000000   0.0531120   0.0000000), wk =   0.1111111
        k(    4) = (   0.0000000  -0.0796680   0.0000000), wk =   0.0555556
        k(    5) = (   0.0229982   0.0132780   0.0000000), wk =   0.1111111
        k(    6) = (   0.0229982   0.0398340   0.0000000), wk =   0.1111111
        k(    7) = (   0.0229982   0.0663900   0.0000000), wk =   0.1111111
        k(    8) = (   0.0229982  -0.0663900   0.0000000), wk =   0.1111111
        k(    9) = (   0.0229982  -0.0398340   0.0000000), wk =   0.1111111
        k(   10) = (   0.0229982  -0.0132780   0.0000000), wk =   0.1111111
        k(   11) = (   0.0459963   0.0265560   0.0000000), wk =   0.1111111
        k(   12) = (   0.0459963   0.0531120   0.0000000), wk =   0.1111111
        k(   13) = (   0.0459963   0.0796680   0.0000000), wk =   0.1111111
        k(   14) = (   0.0459963  -0.0531120   0.0000000), wk =   0.1111111
        k(   15) = (   0.0459963  -0.0265560   0.0000000), wk =   0.1111111
        k(   16) = (   0.0459963   0.0000000   0.0000000), wk =   0.1111111
        k(   17) = (  -0.0689945  -0.0398340   0.0000000), wk =   0.0555556
        k(   18) = (  -0.0689945  -0.0132780   0.0000000), wk =   0.1111111
        k(   19) = (  -0.0689945   0.0132780   0.0000000), wk =   0.1111111
        k(   20) = (  -0.0689945  -0.1195020   0.0000000), wk =   0.0555556

     Largest allocated arrays     est. size (Mb)     dimensions
     Largest temporary arrays     est. size (Mb)     dimensions

     Initial potential from superposition of free atoms
     Check: negative starting charge=   -0.782475

     starting charge  137.69679, renormalised to  138.00000

[...]

     *
     * You are using vdW-DF for exchange-correlation in this calculation.
     * Please cite the following three references that made this development
     * possible:
     *
     *   M. Dion, H. Rydberg, E. Schroder, D. C. Langreth, and
     *   B. I. Lundqvist, Phys. Rev. Lett. 92, 246401 (2004).
     *
     *   T. Thonhauser, V. R. Cooper, S. Li, A. Puzder, P. Hyldgaard, and
     *   D. C. Langreth, Phys. Rev. B 76, 125112 (2007).
     *
     *   G. Roman-Perez and J. M. Soler, Phys. Rev. Lett. 103, 096102 (2009).
     *
     *
     * If you are using vdW-DF2, please also cite:
     *
     *   K. Lee, E. D. Murray, L. Kong, B. I. Lundqvist, and
     *   D. C. Langreth, Phys. Rev. B 82, 081101(R) (2010).
     *
     *
     * If you are calculating the stress with vdW-DF, please also cite:
     *
     *   R. Sabatini, E. Kucukbenli, B. Kolb, T. Thonhauser, and
     *   S. de Gironcoli, J. Phys.: Condens. Matter 24, 424209 (2012).
     *

     Carrying out vdW-DF run using the following parameters:

     Nqs =      20    Nr_points =    1024   r_max =   100.000
     q_mesh =
               0.00001000     0.04494208     0.09755937     0.15916263
               0.23128650     0.31572767     0.41458969     0.53033537
               0.66584808     0.82450364     1.01025438     1.22772762
               1.48234092     1.78043706     2.12944203     2.53805004
               3.01644009     3.57652955     4.23227104     5.00000000

     Gradients computed in reciprocal space

[...]

     Starting wfc are  207 randomized atomic wfcs

     Self-consistent Calculation

[...]

     iteration # 10     ecut=    36.75 Ry     beta=0.10
     Davidson diagonalization with overlap
     c_bands:  1 eigenvalues not converged
     c_bands:  2 eigenvalues not converged
     c_bands:  1 eigenvalues not converged
     c_bands:  1 eigenvalues not converged
     c_bands:  1 eigenvalues not converged
     ethr =  9.80E-06,  avg # of iterations = 16.8

[...]

     total energy              =   -1376.66781732 Ry
     Harris-Foulkes estimate   =   -1376.66782056 Ry
     estimated scf accuracy    <       0.00000340 Ry

     iteration # 19     ecut=    36.75 Ry     beta=0.10
     Davidson diagonalization with overlap
     ethr =  1.46E-09,  avg # of iterations =  6.3

[...]

     negative rho (up, down):  5.862E-01 0.000E+00

     Adding external electric field

     Computed dipole along edir(3) :
        Dipole                0.0133 Ry au,          0.0339 Debye
        Dipole field          0.0000 Ry au

        Potential amp.       -0.0020 Ry
        Total length         47.7518 bohr

     End of self-consistent calculation

[...]

          k = 0.0460 0.0000 0.0000 ( 29895 PWs)   bands (ev):

[...]

          k =-0.0690-0.1195 0.0000 ( 29944 PWs)   bands (ev):

   -31.5531 -31.5454 -31.5007 -31.4751 -31.4538 -31.4372 -31.1242 -31.0822
   -31.0376 -15.6271 -15.5651 -15.4708 -15.3725 -15.3375 -15.2705 -15.2632
   -15.2083 -15.1807 -15.1782 -15.1495 -15.1210 -15.1061 -15.0709 -15.0488
   -14.9809 -14.9709 -14.7575 -14.6854 -14.6743 -14.6244 -14.6000 -14.5378
   -14.5309 -14.5018 -14.4683 -14.2478  -9.4596  -9.4463  -9.4453  -9.4387
    -9.4324  -9.4239  -9.4178  -9.4157  -9.4126  -9.4100  -9.2939  -9.2784
    -9.2774  -9.2634  -9.2548  -4.0813  -4.0589  -3.9354  -0.2265   0.0680
     0.2698   0.7140   0.7318   0.9152   0.9990   1.1030   1.2451   1.3228
     1.3796   1.4282   1.5435   1.6852   1.9848   2.1278   2.1888   2.2134
     2.2899   2.3169   2.3433   2.4716   2.5581   2.5675   2.7835   2.8317
     2.8473   2.8618   2.9386   3.0496   3.0825   3.0917   3.1104   3.1398
     3.1623   3.1822   3.1849   3.2043   3.2220   3.2373   3.2615   3.3083
     3.3178   3.3452   3.3550

     the Fermi energy is     1.8693 ev

!    total energy              =   -1376.66778002 Ry
     Harris-Foulkes estimate   =   -1376.66781788 Ry
     estimated scf accuracy    <       0.00000073 Ry

     The total energy is the sum of the following terms:

     one-electron contribution =   -5535.49227971 Ry
     hartree contribution      =    2798.31917898 Ry
     xc contribution           =    -648.62191639 Ry
     ewald contribution        =    2009.23200096 Ry
     electric field correction =       0.00000028 Ry
     smearing contrib. (-TS)   =      -0.10476414 Ry

     convergence has been achieved in  19 iterations

 BEEF-vdW xc energy contributions
           1 :   -575.853518164584
           2 :    531.495738343116
           3 :   -452.969479032838
           4 :    356.930267305558
           5 :   -261.067587681540
           6 :    179.232588272423
           7 :   -118.737868808780
           8 :    80.1702556043240
           9 :   -59.1631376776817
          10 :    49.0877052571170
          11 :   -43.6010568585179
          12 :    38.2521748072442
          13 :   -30.9147716402053
          14 :    21.3468927385379
          15 :   -10.4394143012172
          16 :  -0.435055092158791
          17 :    9.84367876130796
          18 :   -16.5697539553291
          19 :    19.8416627686613
          20 :   -19.5427852583168
          21 :    16.3273387220557
          22 :   -11.5356711820700
          23 :    6.84768754041852
          24 :   -3.75596447876228
          25 :    3.06107316186865
          26 :   -4.61867177323825
          27 :    7.45328461671534
          28 :   -10.1916524807018
          29 :    11.6281842926683
          30 :   -11.1921653902079
          31 :   -48.0278439464904
          32 :   -34.6986757531296

     Forces acting on atoms (Ry/au):

     negative rho (up, down):  5.862E-01 0.000E+00
     atom    1 type  1   force =     0.00000105    0.01287307   -0.00106701
     atom    2 type  1   force =     0.01115125   -0.00644030   -0.00106946
     atom    3 type  1   force =    -0.01114658   -0.00644023   -0.00107184
     atom    4 type  2   force =     0.00000069   -0.00000350    0.00811420
     atom    5 type  1   force =    -0.00000311   -0.00085228    0.00036502
     atom    6 type  1   force =    -0.00073756    0.00042214    0.00036370
     atom    7 type  1   force =     0.00074102    0.00043186    0.00036633
     atom    8 type  2   force =    -0.00001433    0.00001521   -0.00137740
     atom    9 type  1   force =     0.00000114    0.00134773   -0.00093038
     atom   10 type  1   force =     0.00116482   -0.00067399   -0.00092958
     atom   11 type  1   force =    -0.00116149   -0.00067503   -0.00092248
     atom   12 type  2   force =     0.00000310   -0.00000469   -0.00184109

     Total force =     0.024133     Total SCF correction =     0.003278
     SCF correction compared to forces is large: reduce conv_thr to get better values

     entering subroutine stress ...

     negative rho (up, down):  5.862E-01 0.000E+00
          total   stress  (Ry/bohr**3)                   (kbar)     P=   -4.19
  -0.00003648   0.00000000  -0.00000000         -5.37      0.00     -0.00
   0.00000000  -0.00003648  -0.00000001          0.00     -5.37     -0.00
  -0.00000000  -0.00000001  -0.00001253         -0.00     -0.00     -1.84

 !ASE

     Writing output data file calc.save

     General routines

     Parallel routines

   This run was terminated on:  12:35:55  27Dec2018

   JOB DONE.
Job  /afs/slac/g/suncat/bin/suncat-tsmpirun -x LD_LIBRARY_PATH -wdir /scratch/qe110036_K0lSR pw.x -in pw.inp

TID   HOST_NAME   COMMAND_LINE            STATUS            TERMINATION_TIME
00000 suncat0040 pw.x -in pw.inp   Done                     12/27/2018 12:35:56
00001 suncat0040 pw.x -in pw.inp   Done                     12/27/2018 12:35:56
00002 suncat0040 pw.x -in pw.inp   Done                     12/27/2018 12:35:56
00003 suncat0040 pw.x -in pw.inp   Done                     12/27/2018 12:35:56
00004 suncat0040 pw.x -in pw.inp   Done                     12/27/2018 12:35:56
00005 suncat0040 pw.x -in pw.inp   Done                     12/27/2018 12:35:56
00006 suncat0040 pw.x -in pw.inp   Done                     12/27/2018 12:35:56
00007 suncat0040 pw.x -in pw.inp   Done                     12/27/2018 12:35:56
00008 suncat0179 pw.x -in pw.inp   Done                     12/27/2018 12:35:55
00009 suncat0179 pw.x -in pw.inp   Done                     12/27/2018 12:35:56
00010 suncat0179 pw.x -in pw.inp   Done                     12/27/2018 12:35:56
00011 suncat0179 pw.x -in pw.inp   Done                     12/27/2018 12:35:56
00012 suncat0179 pw.x -in pw.inp   Done                     12/27/2018 12:35:56
00013 suncat0179 pw.x -in pw.inp   Done                     12/27/2018 12:35:56
00014 suncat0179 pw.x -in pw.inp   Done                     12/27/2018 12:35:56
00015 suncat0179 pw.x -in pw.inp   Done                     12/27/2018 12:35:56
00016 suncat0147 pw.x -in pw.inp   Done                     12/27/2018 12:35:56
00017 suncat0147 pw.x -in pw.inp   Done                     12/27/2018 12:35:56
00018 suncat0147 pw.x -in pw.inp   Done                     12/27/2018 12:35:56
00019 suncat0147 pw.x -in pw.inp   Done                     12/27/2018 12:35:56
00020 suncat0147 pw.x -in pw.inp   Done                     12/27/2018 12:35:56
00021 suncat0147 pw.x -in pw.inp   Done                     12/27/2018 12:35:56
00022 suncat0147 pw.x -in pw.inp   Done                     12/27/2018 12:35:56
00023 suncat0147 pw.x -in pw.inp   Done                     12/27/2018 12:35:56
00024 suncat0146 pw.x -in pw.inp   Done                     12/27/2018 12:35:56
00025 suncat0146 pw.x -in pw.inp   Done                     12/27/2018 12:35:56
00026 suncat0146 pw.x -in pw.inp   Done                     12/27/2018 12:35:56
00027 suncat0146 pw.x -in pw.inp   Done                     12/27/2018 12:35:56
00028 suncat0146 pw.x -in pw.inp   Done                     12/27/2018 12:35:56
00029 suncat0146 pw.x -in pw.inp   Done                     12/27/2018 12:35:56
00030 suncat0146 pw.x -in pw.inp   Done                     12/27/2018 12:35:56
00031 suncat0146 pw.x -in pw.inp   Done                     12/27/2018 12:35:56
00032 suncat0272 pw.x -in pw.inp   Done                     12/27/2018 12:35:56
00033 suncat0272 pw.x -in pw.inp   Done                     12/27/2018 12:35:56
00034 suncat0272 pw.x -in pw.inp   Done                     12/27/2018 12:35:56
00035 suncat0272 pw.x -in pw.inp   Done                     12/27/2018 12:35:56
00036 suncat0272 pw.x -in pw.inp   Done                     12/27/2018 12:35:56
00037 suncat0272 pw.x -in pw.inp   Done                     12/27/2018 12:35:56
00038 suncat0272 pw.x -in pw.inp   Done                     12/27/2018 12:35:56
00039 suncat0272 pw.x -in pw.inp   Done                     12/27/2018 12:35:56
00040 suncat0271 pw.x -in pw.inp   Done                     12/27/2018 12:35:56
00041 suncat0271 pw.x -in pw.inp   Done                     12/27/2018 12:35:56
00042 suncat0271 pw.x -in pw.inp   Done                     12/27/2018 12:35:56
00043 suncat0271 pw.x -in pw.inp   Done                     12/27/2018 12:35:56
00044 suncat0271 pw.x -in pw.inp   Done                     12/27/2018 12:35:56
00045 suncat0271 pw.x -in pw.inp   Done                     12/27/2018 12:35:56
00046 suncat0271 pw.x -in pw.inp   Done                     12/27/2018 12:35:56
00047 suncat0271 pw.x -in pw.inp   Done                     12/27/2018 12:35:56
00048 suncat0260 pw.x -in pw.inp   Done                     12/27/2018 12:35:56
00049 suncat0260 pw.x -in pw.inp   Done                     12/27/2018 12:35:56
00050 suncat0260 pw.x -in pw.inp   Done                     12/27/2018 12:35:56
00051 suncat0260 pw.x -in pw.inp   Done                     12/27/2018 12:35:56
00052 suncat0260 pw.x -in pw.inp   Done                     12/27/2018 12:35:56
00053 suncat0260 pw.x -in pw.inp   Done                     12/27/2018 12:35:56
00054 suncat0260 pw.x -in pw.inp   Done                     12/27/2018 12:35:56
00055 suncat0260 pw.x -in pw.inp   Done                     12/27/2018 12:35:56
00056 suncat0259 pw.x -in pw.inp   Done                     12/27/2018 12:35:56
00057 suncat0259 pw.x -in pw.inp   Done                     12/27/2018 12:35:56
00058 suncat0259 pw.x -in pw.inp   Done                     12/27/2018 12:35:56
00059 suncat0259 pw.x -in pw.inp   Done                     12/27/2018 12:35:56
00060 suncat0259 pw.x -in pw.inp   Done                     12/27/2018 12:35:56
00061 suncat0259 pw.x -in pw.inp   Done                     12/27/2018 12:35:56
00062 suncat0259 pw.x -in pw.inp   Done                     12/27/2018 12:35:56
00063 suncat0259 pw.x -in pw.inp   Done                     12/27/2018 12:35:56