     Program PWSCF v.5.1rc2 (svn rev. 11289) starts on 19Dec2018 at  9:17:38

     Current dimensions of program PWSCF are:
     Max number of different atomic species (ntypx) = 10
     Max number of k-points (npk) =  40000
     Max angular momentum in pseudopotentials (lmaxx) =  3
     Presently stress not available with electric field

     IMPORTANT: XC functional enforced from input :
     Exchange-correlation      = BEEF-VDW ( 1  4 27 13 2)
     Any further DFT definition will be discarded
     Please, verify this is what you really want

     Subspace diagonalization in iterative solution of the eigenvalue problem:
     a serial algorithm will be used

     Found symmetry operation: I + ( -0.5000  0.0000  0.0000)
     This is a supercell, fractional translations are disabled

     bravais-lattice index     =            0
     lattice parameter (alat)  =       1.8897  a.u.
     unit-cell volume          =    4917.0690 (a.u.)^3
     number of atoms/cell      =           12
     number of atomic types    =            2
     number of electrons       =       150.00
     number of Kohn-Sham states=          105
     kinetic-energy cutoff     =      36.7493  Ry
     charge density cutoff     =     367.4932  Ry
     convergence threshold     =      1.0E-06
     mixing beta               =       0.1000
     number of iterations used =           10  plain     mixing
     Exchange-correlation      = BEEF-VDW ( 1  4 27 13 2)
     nstep                     =           50

     celldm(1)=   1.889726  celldm(2)=   0.000000  celldm(3)=   0.000000
     celldm(4)=   0.000000  celldm(5)=   0.000000  celldm(6)=   0.000000

     crystal axes: (cart. coord. in units of alat)
               a(1) = (   5.817500   0.000000   0.000000 )
               a(2) = (  -2.908750   5.058600   0.000000 )
               a(3) = (   0.000000   0.000000  24.759563 )

     reciprocal axes: (cart. coord. in units 2 pi/alat)
               b(1) = (  0.171895  0.098842  0.000000 )
               b(2) = (  0.000000  0.197683  0.000000 )
               b(3) = (  0.000000  0.000000  0.040388 )

     PseudoPot. # 1 for V  read from file:
     /afs/slac.stanford.edu/u/if/mamunm/psp/gbrv1.5pbe/V.UPF
     MD5 check sum: 22b79981416ebb76fdaf5b1b8640f6fb
     Pseudo is Ultrasoft + core correction, Zval = 13.0
     Generated by new atomic code, or converted to UPF format
     Using radial grid of  853 points,  6 beta functions with:
                l(1) =   0
                l(2) =   0
                l(3) =   1
                l(4) =   1
                l(5) =   2
                l(6) =   2
     Q(r) pseudized with  8 coefficients,  rinner =    1.100   1.100   1.100
                                                       1.100   1.100

     PseudoPot. # 2 for Hg read from file:
     /afs/slac.stanford.edu/u/if/mamunm/psp/gbrv1.5pbe/Hg.UPF
     MD5 check sum: 8f42caffe07f7fd9c0a564347f8c5498
     Pseudo is Ultrasoft + core correction, Zval = 12.0
     Generated by new atomic code, or converted to UPF format
     Using radial grid of  985 points,  6 beta functions with:
                l(1) =   0
                l(2) =   0
                l(3) =   1
                l(4) =   1
                l(5) =   2
                l(6) =   2
     Q(r) pseudized with  8 coefficients,  rinner =    2.000   2.000   2.000
                                                       2.000   2.000

     vdW kernel table read from file vdW_kernel_table
     MD5 check sum: 095c7af220d748ca6e76c0b4c6cfb241

     atomic species   valence    mass     pseudopotential
        V1            13.00    50.94150     V ( 1.00)
        Hg1           12.00   200.59200     Hg( 1.00)

     No symmetry found

   Cartesian axes

     site n.     atom                  positions (alat units)
         1           V1  tau(   1) = (   0.0000000   0.0000000  10.0000000  )
         2           V1  tau(   2) = (   2.9087499   0.0000000  10.0000000  )
         3           Hg1 tau(   3) = (   1.4543749   2.5293001  10.0000000  )
         4           Hg1 tau(   4) = (  -1.4543749   2.5293001  10.0000000  )
         5           V1  tau(   5) = (   2.9087499   1.6725627  12.3797815  )
         6           V1  tau(   6) = (  -0.0000000   1.6725627  12.3797815  )
         7           Hg1 tau(   7) = (  -1.4543749   4.2018628  12.3797815  )
         8           Hg1 tau(   8) = (   1.4543749   4.2018628  12.3797815  )
         9           V1  tau(   9) = (  -0.0000000   3.3451254  14.7595630  )
        10           V1  tau(  10) = (   2.9087499   3.3451254  14.7595630  )
        11           Hg1 tau(  11) = (   4.3631248   0.8158253  14.7595630  )
        12           Hg1 tau(  12) = (   1.4543749   0.8158253  14.7595630  )

     number of k points=    20  Fermi-Dirac smearing, width (Ry)=  0.0110
                       cart. coord. in units 2pi/alat
        k(    1) = (   0.0000000   0.0000000   0.0000000), wk =   0.0555556
        k(    2) = (   0.0000000   0.0329472   0.0000000), wk =   0.1111111
        k(    3) = (   0.0000000   0.0658944   0.0000000), wk =   0.1111111
        k(    4) = (   0.0000000  -0.0988416   0.0000000), wk =   0.0555556
        k(    5) = (   0.0286492   0.0164736   0.0000000), wk =   0.1111111
        k(    6) = (   0.0286492   0.0494208   0.0000000), wk =   0.1111111
        k(    7) = (   0.0286492   0.0823680   0.0000000), wk =   0.1111111
        k(    8) = (   0.0286492  -0.0823680   0.0000000), wk =   0.1111111
        k(    9) = (   0.0286492  -0.0494208   0.0000000), wk =   0.1111111
        k(   10) = (   0.0286492  -0.0164736   0.0000000), wk =   0.1111111
        k(   11) = (   0.0572984   0.0329472   0.0000000), wk =   0.1111111
        k(   12) = (   0.0572984   0.0658944   0.0000000), wk =   0.1111111
        k(   13) = (   0.0572984   0.0988416   0.0000000), wk =   0.1111111
        k(   14) = (   0.0572984  -0.0658944   0.0000000), wk =   0.1111111
        k(   15) = (   0.0572984  -0.0329472   0.0000000), wk =   0.1111111
        k(   16) = (   0.0572984   0.0000000   0.0000000), wk =   0.1111111
        k(   17) = (  -0.0859476  -0.0494208   0.0000000), wk =   0.0555556
        k(   18) = (  -0.0859476  -0.0164736   0.0000000), wk =   0.1111111
        k(   19) = (  -0.0859476   0.0164736   0.0000000), wk =   0.1111111
        k(   20) = (  -0.0859476  -0.1482624   0.0000000), wk =   0.0555556

     Largest allocated arrays     est. size (Mb)     dimensions
     Largest temporary arrays     est. size (Mb)     dimensions

     Initial potential from superposition of free atoms
     Check: negative starting charge=   -0.004951

     starting charge  149.99229, renormalised to  150.00000

     negative rho (up, down):  4.951E-03 0.000E+00

     *
     * You are using vdW-DF for exchange-correlation in this calculation.
     * Please cite the following three references that made this development
     * possible:
     *
     *   M. Dion, H. Rydberg, E. Schroder, D. C. Langreth, and
     *   B. I. Lundqvist, Phys. Rev. Lett. 92, 246401 (2004).
     *
     *   T. Thonhauser, V. R. Cooper, S. Li, A. Puzder, P. Hyldgaard, and
     *   D. C. Langreth, Phys. Rev. B 76, 125112 (2007).
     *
     *   G. Roman-Perez and J. M. Soler, Phys. Rev. Lett. 103, 096102 (2009).
     *
     *
     * If you are using vdW-DF2, please also cite:
     *
     *   K. Lee, E. D. Murray, L. Kong, B. I. Lundqvist, and
     *   D. C. Langreth, Phys. Rev. B 82, 081101(R) (2010).
     *
     *
     * If you are calculating the stress with vdW-DF, please also cite:
     *
     *   R. Sabatini, E. Kucukbenli, B. Kolb, T. Thonhauser, and
     *   S. de Gironcoli, J. Phys.: Condens. Matter 24, 424209 (2012).
     *

     Carrying out vdW-DF run using the following parameters:

     Nqs =      20    Nr_points =    1024   r_max =   100.000
     q_mesh =
               0.00001000     0.04494208     0.09755937     0.15916263
               0.23128650     0.31572767     0.41458969     0.53033537
               0.66584808     0.82450364     1.01025438     1.22772762
               1.48234092     1.78043706     2.12944203     2.53805004
               3.01644009     3.57652955     4.23227104     5.00000000

     Gradients computed in reciprocal space

     Adding external electric field

     Computed dipole along edir(3) :
        Dipole                0.0000 Ry au,          0.0000 Debye
        Dipole field          0.0000 Ry au

        Potential amp.       -0.0000 Ry
        Total length         45.6191 bohr

     Starting wfc are  114 randomized atomic wfcs

     Self-consistent Calculation

     iteration #  1     ecut=    36.75 Ry     beta=0.10
     Davidson diagonalization with overlap
     ethr =  1.00E-02,  avg # of iterations =  5.3

[...]

     total energy              =   -1528.37315521 Ry
     Harris-Foulkes estimate   =   -1529.12460725 Ry
     estimated scf accuracy    <       4.22282927 Ry

[...]

     End of self-consistent calculation

          k = 0.0000 0.0000 0.0000 ( 18519 PWs)   bands (ev):

   -63.5018 -63.5007 -63.4809 -63.4798 -63.4497 -63.4286 -37.4503 -37.4441
   -37.4297 -37.4230 -37.3611 -37.3388 -37.3345 -37.3121 -37.2992 -37.2966
   -37.2800 -37.2785 -37.2753 -37.1900 -37.1709 -37.0909 -37.0785 -37.0753
    -8.1126  -7.6394  -7.6237  -7.5422  -7.4618  -7.3664  -7.2191  -7.1600
    -7.0166  -6.9439  -6.9373  -6.8874  -6.7281  -6.5654  -6.3875  -6.3232
    -6.3197  -6.2387  -6.1678  -6.0954  -6.0448  -6.0154  -5.9711  -5.9592
    -5.8025  -5.7302  -5.7019  -5.6017  -5.5831  -5.5027  -5.4456  -4.8978
    -3.2759  -2.0661  -1.4522  -1.0106  -0.6166  -0.6161  -0.3758  -0.0018
     0.0256   0.0619   0.1648   0.2561   0.3562   0.6236   0.6761   0.9573
     0.9981   1.0221   1.0455   1.3727   1.3846   1.4027   1.4818   1.6115
     1.8101   1.8166   2.0175   2.0328   2.0711   2.1646   2.1647   2.2626
     2.3381   2.4186   2.5714   2.5840   2.5848   2.6322   2.7605   3.1272
     3.3522   3.7357   4.0910   4.2026   4.6331   5.0045   5.0092   5.4053
     5.4932

[...]

          k =-0.0859-0.0494 0.0000 ( 18472 PWs)   bands (ev):

[...]

     the Fermi energy is     1.0368 ev

!    total energy              =   -1528.60795659 Ry
     Harris-Foulkes estimate   =   -1528.60795695 Ry
     estimated scf accuracy    <       0.00000049 Ry

     The total energy is the sum of the following terms:

     one-electron contribution =  -11304.18226225 Ry
     hartree contribution      =    5691.06266750 Ry
     xc contribution           =    -364.71834275 Ry
     ewald contribution        =    4449.34170467 Ry
     electric field correction =       0.00000000 Ry
     smearing contrib. (-TS)   =      -0.11172377 Ry

     convergence has been achieved in  22 iterations

 BEEF-vdW xc energy contributions
           1 :   -318.046887964715
           2 :    290.588626880025
           3 :   -243.696711587436
           4 :    189.709820452222
           5 :   -140.219355994579
           6 :    102.263251783047
           7 :   -77.2526985315210
           8 :    62.4032993966280
           9 :   -53.3340333368378
          10 :    46.3310577256555
          11 :   -39.4188708513904
          12 :    32.2233139491695
          13 :   -25.2098987144543
[...]
00031 suncat2070 pw.x -in pw.inp   Done                     12/19/2018 09:33:28

[...]

   This run was terminated on:  10: 5:36  19Dec2018

[...]

     Program PWSCF v.5.1rc2 (svn rev. 11289) starts on 19Dec2018 at 10: 5:42

[...]

   This run was terminated on:  11: 8:38  19Dec2018

[...]

     Program PWSCF v.5.1rc2 (svn rev. 11289) starts on 19Dec2018 at 11: 8:43

[...]

     Program PWSCF v.5.1rc2 (svn rev. 11289) starts on 19Dec2018 at 11:55: 3

[...]

   This run was terminated on:  12:41: 4  19Dec2018

[...]

   This run was terminated on:  13:28: 9  19Dec2018

[...]

     Program PWSCF v.5.1rc2 (svn rev. 11289) starts on 19Dec2018 at 13:43: 0

[...]

     Program PWSCF v.5.1rc2 (svn rev. 11289) starts on 19Dec2018 at 13:58:53

     Current dimensions of program PWSCF are:
     Max number of different atomic species (ntypx) = 10
     Max number of k-points (npk) =  40000
     Max angular momentum in pseudopotentials (lmaxx) =  3
     Presently stress not available with electric field

     IMPORTANT: XC functional enforced from input :
     Exchange-correlation      = BEEF-VDW ( 1  4 27 13 2)
     Any further DFT definition will be discarded
     Please, verify this is what you really want

     Subspace diagonalization in iterative solution of the eigenvalue problem:
     a serial algorithm will be used

     bravais-lattice index     =            0
     lattice parameter (alat)  =       1.8897  a.u.
     unit-cell volume          =    4917.0690 (a.u.)^3
     number of atoms/cell      =           12
     number of atomic types    =            2
     number of electrons       =       150.00
     number of Kohn-Sham states=          105
     kinetic-energy cutoff     =      36.7493  Ry
     charge density cutoff     =     367.4932  Ry
     convergence threshold     =      1.0E-06
     mixing beta               =       0.1000
     number of iterations used =           10  plain     mixing
     Exchange-correlation      = BEEF-VDW ( 1  4 27 13 2)
     nstep                     =           50

     celldm(1)=   1.889726  celldm(2)=   0.000000  celldm(3)=   0.000000
     celldm(4)=   0.000000  celldm(5)=   0.000000  celldm(6)=   0.000000

     crystal axes: (cart. coord. in units of alat)
               a(1) = (   5.817500   0.000000   0.000000 )
               a(2) = (  -2.908750   5.058600   0.000000 )
               a(3) = (   0.000000   0.000000  24.759563 )

     reciprocal axes: (cart. coord. in units 2 pi/alat)
               b(1) = (  0.171895  0.098842  0.000000 )
               b(2) = (  0.000000  0.197683  0.000000 )
               b(3) = (  0.000000  0.000000  0.040388 )

     PseudoPot. # 1 for V  read from file:
     /afs/slac.stanford.edu/u/if/mamunm/psp/gbrv1.5pbe/V.UPF
     MD5 check sum: 22b79981416ebb76fdaf5b1b8640f6fb
     Pseudo is Ultrasoft + core correction, Zval = 13.0
     Generated by new atomic code, or converted to UPF format
     Using radial grid of  853 points,  6 beta functions with:
                l(1) =   0
                l(2) =   0
                l(3) =   1
                l(4) =   1
                l(5) =   2
                l(6) =   2
     Q(r) pseudized with  8 coefficients,  rinner =    1.100   1.100   1.100
                                                       1.100   1.100

     PseudoPot. # 2 for Hg read from file:
     /afs/slac.stanford.edu/u/if/mamunm/psp/gbrv1.5pbe/Hg.UPF
     MD5 check sum: 8f42caffe07f7fd9c0a564347f8c5498
     Pseudo is Ultrasoft + core correction, Zval = 12.0
     Generated by new atomic code, or converted to UPF format
     Using radial grid of  985 points,  6 beta functions with:
                l(1) =   0
                l(2) =   0
                l(3) =   1
                l(4) =   1
                l(5) =   2
                l(6) =   2
     Q(r) pseudized with  8 coefficients,  rinner =    2.000   2.000   2.000
                                                       2.000   2.000

     vdW kernel table read from file vdW_kernel_table
     MD5 check sum: 095c7af220d748ca6e76c0b4c6cfb241

     atomic species   valence    mass     pseudopotential
        V1            13.00    50.94150     V ( 1.00)
        Hg1           12.00   200.59200     Hg( 1.00)

     No symmetry found

   Cartesian axes

     site n.     atom                  positions (alat units)
         1           V1  tau(   1) = (   0.0000000   0.0000000  10.0000000  )
         2           V1  tau(   2) = (   2.9087499   0.0000000  10.0000000  )
         3           Hg1 tau(   3) = (   1.4543749   2.5293001  10.0000000  )
         4           Hg1 tau(   4) = (  -1.4543749   2.5293001  10.0000000  )
         5           V1  tau(   5) = (   2.9087499   1.6725627  12.3797815  )
         6           V1  tau(   6) = (  -0.0000000   1.6725627  12.3797815  )
         7           Hg1 tau(   7) = (  -1.4543749   4.2018628  12.3797815  )
         8           Hg1 tau(   8) = (   1.4543749   4.2018628  12.3797815  )
         9           V1  tau(   9) = (   0.0000116   2.2195034  14.1284308  )
        10           V1  tau(  10) = (   2.9087609   2.2195613  14.1283886  )
        11           Hg1 tau(  11) = (   1.4546255   4.9516979  15.3689109  )
        12           Hg1 tau(  12) = (  -1.4546217   4.9516931  15.3689172  )

     number of k points=    20  Fermi-Dirac smearing, width (Ry)=  0.0110
                       cart. coord. in units 2pi/alat
        k(    1) = (   0.0000000   0.0000000   0.0000000), wk =   0.0555556
        k(    2) = (   0.0000000   0.0329472   0.0000000), wk =   0.1111111
        k(    3) = (   0.0000000   0.0658944   0.0000000), wk =   0.1111111
        k(    4) = (   0.0000000  -0.0988416   0.0000000), wk =   0.0555556
        k(    5) = (   0.0286492   0.0164736   0.0000000), wk =   0.1111111
        k(    6) = (   0.0286492   0.0494208   0.0000000), wk =   0.1111111
        k(    7) = (   0.0286492   0.0823680   0.0000000), wk =   0.1111111
        k(    8) = (   0.0286492  -0.0823680   0.0000000), wk =   0.1111111
        k(    9) = (   0.0286492  -0.0494208   0.0000000), wk =   0.1111111
        k(   10) = (   0.0286492  -0.0164736   0.0000000), wk =   0.1111111
        k(   11) = (   0.0572984   0.0329472   0.0000000), wk =   0.1111111
        k(   12) = (   0.0572984   0.0658944   0.0000000), wk =   0.1111111
        k(   13) = (   0.0572984   0.0988416   0.0000000), wk =   0.1111111
        k(   14) = (   0.0572984  -0.0658944   0.0000000), wk =   0.1111111
        k(   15) = (   0.0572984  -0.0329472   0.0000000), wk =   0.1111111
        k(   16) = (   0.0572984   0.0000000   0.0000000), wk =   0.1111111
        k(   17) = (  -0.0859476  -0.0494208   0.0000000), wk =   0.0555556
        k(   18) = (  -0.0859476  -0.0164736   0.0000000), wk =   0.1111111
        k(   19) = (  -0.0859476   0.0164736   0.0000000), wk =   0.1111111
        k(   20) = (  -0.0859476  -0.1482624   0.0000000), wk =   0.0555556

     Largest allocated arrays     est. size (Mb)     dimensions
     Largest temporary arrays     est. size (Mb)     dimensions

     Initial potential from superposition of free atoms
     Check: negative starting charge=   -0.004788

     starting charge  149.99229, renormalised to  150.00000

[...]

     *
     * You are using vdW-DF for exchange-correlation in this calculation.
     * Please cite the following three references that made this development
     * possible:
     *
     *   M. Dion, H. Rydberg, E. Schroder, D. C. Langreth, and
     *   B. I. Lundqvist, Phys. Rev. Lett. 92, 246401 (2004).
     *
     *   T. Thonhauser, V. R. Cooper, S. Li, A. Puzder, P. Hyldgaard, and
     *   D. C. Langreth, Phys. Rev. B 76, 125112 (2007).
     *
     *   G. Roman-Perez and J. M. Soler, Phys. Rev. Lett. 103, 096102 (2009).
     *
     *
     * If you are using vdW-DF2, please also cite:
     *
     *   K. Lee, E. D. Murray, L. Kong, B. I. Lundqvist, and
     *   D. C. Langreth, Phys. Rev. B 82, 081101(R) (2010).
     *
     *
     * If you are calculating the stress with vdW-DF, please also cite:
     *
     *   R. Sabatini, E. Kucukbenli, B. Kolb, T. Thonhauser, and
     *   S. de Gironcoli, J. Phys.: Condens. Matter 24, 424209 (2012).
     *

     Carrying out vdW-DF run using the following parameters:

     Nqs =      20    Nr_points =    1024   r_max =   100.000
     q_mesh =
               0.00001000     0.04494208     0.09755937     0.15916263
               0.23128650     0.31572767     0.41458969     0.53033537
               0.66584808     0.82450364     1.01025438     1.22772762
               1.48234092     1.78043706     2.12944203     2.53805004
               3.01644009     3.57652955     4.23227104     5.00000000

     Gradients computed in reciprocal space

[...]

     Starting wfc are  114 randomized atomic wfcs

     Self-consistent Calculation

[...]

     total energy              =   -1528.70597906 Ry
     Harris-Foulkes estimate   =   -1528.70597894 Ry
     estimated scf accuracy    <       0.00000177 Ry

     iteration # 20     ecut=    36.75 Ry     beta=0.10
     Davidson diagonalization with overlap
     ethr =  1.18E-09,  avg # of iterations =  1.1

[...]

     negative rho (up, down):  5.078E-03 0.000E+00

     Adding external electric field

     Computed dipole along edir(3) :
        Dipole               -0.0022 Ry au,         -0.0056 Debye
        Dipole field         -0.0000 Ry au

        Potential amp.        0.0005 Ry
        Total length         45.6191 bohr

     End of self-consistent calculation

[...]

          k = 0.0573 0.0000 0.0000 ( 18489 PWs)   bands (ev):

[...]

          k =-0.0859-0.1483 0.0000 ( 18472 PWs)   bands (ev):

   -63.5369 -63.5367 -63.4301 -63.4300 -62.3024 -62.3023 -38.4259 -38.4258
   -37.4975 -37.4974 -37.3464 -37.3463 -37.2040 -37.2038 -37.1098 -37.1098
   -37.0835 -37.0835 -36.4669 -36.4668 -36.4364 -36.4364 -34.7114 -34.7113
    -7.1677  -7.1677  -6.9743  -6.9742  -6.8902  -6.8902  -6.7949  -6.7949
    -6.7142  -6.7142  -6.4502  -6.4502  -6.3784  -6.3783  -6.2635  -6.2634
    -6.1779  -6.1777  -6.1486  -6.1485  -6.0900  -6.0884  -6.0216  -6.0206
    -5.9135  -5.9134  -5.8345  -5.8337  -5.7970  -5.7968  -5.4903  -5.4899
    -4.1274  -4.1266  -2.6765  -2.6759  -1.3232  -1.3232  -0.7170  -0.7170
    -0.2783  -0.2783   0.0545   0.0546   0.2925   0.2926   0.5414   0.5415
     0.8425   0.8425   1.0476   1.0477   1.1430   1.1430   1.4107   1.4108
     1.8080   1.8081   2.1099   2.1100   2.3381   2.3382   2.7789   2.7789
     3.0889   3.0891   3.7317   3.7317   4.2705   4.2707   4.4300   4.4301
     4.9013   4.9015   5.5939   5.5941   6.2418   6.2419   6.4049   6.4052
     6.5201

     the Fermi energy is     1.0387 ev

!    total energy              =   -1528.70598014 Ry
     Harris-Foulkes estimate   =   -1528.70597914 Ry
     estimated scf accuracy    <       0.00000096 Ry

     The total energy is the sum of the following terms:

     one-electron contribution =  -11313.61594057 Ry
     hartree contribution      =    5696.93484085 Ry
     xc contribution           =    -365.54243370 Ry
     ewald contribution        =    4453.60199841 Ry
     electric field correction =       0.00000001 Ry
     smearing contrib. (-TS)   =      -0.08444513 Ry

     convergence has been achieved in  20 iterations

 BEEF-vdW xc energy contributions
           1 :   -318.833439804324
           2 :    291.313007496575
           3 :   -244.283972635377
           4 :    190.065294655244
           5 :   -140.260078492163
           6 :    101.973892307045
           7 :   -76.7038549501444
           8 :    61.7197192918538
           9 :   -52.6484807188026
          10 :    45.7485372758171
          11 :   -38.9905764889895
          12 :    31.9385182082904
          13 :   -25.0252459930451
          14 :    18.8599116803447
          15 :   -13.8809557562303
          16 :    10.2905647130046
          17 :   -8.06813233859640
          18 :    6.95548015889494
          19 :   -6.47531114228173
          20 :    6.07125265394575
          21 :   -5.34668429174008
          22 :    4.24887120021458
          23 :   -3.05474950201761
          24 :    2.15102400836327
          25 :   -1.76065438144872
          26 :    1.80291774309899
          27 :   -1.97296096063496
          28 :    1.96434782935103
          29 :   -1.67053362142406
          30 :    1.23136987810938
          31 :   -30.6874537193978
          32 :   -22.4689921103308

     Forces acting on atoms (Ry/au):

     negative rho (up, down):  5.078E-03 0.000E+00
     atom    1 type  1   force =    -0.00000002    0.01425793    0.03166036
     atom    2 type  1   force =     0.00000023    0.01425607    0.03165318
     atom    3 type  2   force =    -0.00000025   -0.01009263   -0.04611072
     atom    4 type  2   force =    -0.00000007   -0.01009160   -0.04611013
     atom    5 type  1   force =    -0.00000180   -0.01696021    0.00128156
     atom    6 type  1   force =    -0.00000202   -0.01695560    0.00128131
     atom    7 type  2   force =     0.00003865    0.01275372    0.01415526
     atom    8 type  2   force =    -0.00003861    0.01275249    0.01415656
     atom    9 type  1   force =     0.00000148    0.00072695   -0.00103596
     atom   10 type  1   force =     0.00000200    0.00069848   -0.00102345
     atom   11 type  2   force =    -0.00010531   -0.00067329    0.00004617
     atom   12 type  2   force =     0.00010573   -0.00067230    0.00004588

     Total force =     0.090418     Total SCF correction =     0.002833

     entering subroutine stress ...

     negative rho (up, down):  5.078E-03 0.000E+00
          total   stress  (Ry/bohr**3)                   (kbar)     P=    2.23
   0.00006479   0.00000000   0.00000000          9.53      0.00      0.00
   0.00000000  -0.00004338  -0.00000866          0.00     -6.38     -1.27
   0.00000000  -0.00000866   0.00002397          0.00     -1.27      3.53

 !ASE

     Writing output data file calc.save

     General routines

     Parallel routines

   This run was terminated on:  14:13:25  19Dec2018

   JOB DONE.
Job  /afs/slac/g/suncat/bin/suncat-tsmpirun -x LD_LIBRARY_PATH -wdir /scratch/qe530753_Ss1gj pw.x -in pw.inp

TID   HOST_NAME   COMMAND_LINE            STATUS            TERMINATION_TIME
00000 suncat2071 pw.x -in pw.inp   Done                     12/19/2018 14:13:25
00001 suncat2071 pw.x -in pw.inp   Done                     12/19/2018 14:13:25
00002 suncat2071 pw.x -in pw.inp   Done                     12/19/2018 14:13:25
00003 suncat2071 pw.x -in pw.inp   Done                     12/19/2018 14:13:25
00004 suncat2071 pw.x -in pw.inp   Done                     12/19/2018 14:13:25
00005 suncat2071 pw.x -in pw.inp   Done                     12/19/2018 14:13:25
00006 suncat2071 pw.x -in pw.inp   Done                     12/19/2018 14:13:25
00007 suncat2071 pw.x -in pw.inp   Done                     12/19/2018 14:13:25
00008 suncat2071 pw.x -in pw.inp   Done                     12/19/2018 14:13:25
00009 suncat2071 pw.x -in pw.inp   Done                     12/19/2018 14:13:25
00010 suncat2071 pw.x -in pw.inp   Done                     12/19/2018 14:13:25
00011 suncat2071 pw.x -in pw.inp   Done                     12/19/2018 14:13:25
00012 suncat2071 pw.x -in pw.inp   Done                     12/19/2018 14:13:25
00013 suncat2071 pw.x -in pw.inp   Done                     12/19/2018 14:13:25
00014 suncat2071 pw.x -in pw.inp   Done                     12/19/2018 14:13:25
00015 suncat2071 pw.x -in pw.inp   Done                     12/19/2018 14:13:25
00016 suncat2070 pw.x -in pw.inp   Done                     12/19/2018 14:13:25
00017 suncat2070 pw.x -in pw.inp   Done                     12/19/2018 14:13:25
00018 suncat2070 pw.x -in pw.inp   Done                     12/19/2018 14:13:25
00019 suncat2070 pw.x -in pw.inp   Done                     12/19/2018 14:13:25
00020 suncat2070 pw.x -in pw.inp   Done                     12/19/2018 14:13:25
00021 suncat2070 pw.x -in pw.inp   Done                     12/19/2018 14:13:25
00022 suncat2070 pw.x -in pw.inp   Done                     12/19/2018 14:13:25
00023 suncat2070 pw.x -in pw.inp   Done                     12/19/2018 14:13:25
00024 suncat2070 pw.x -in pw.inp   Done                     12/19/2018 14:13:25
00025 suncat2070 pw.x -in pw.inp   Done                     12/19/2018 14:13:25
00026 suncat2070 pw.x -in pw.inp   Done                     12/19/2018 14:13:25
00027 suncat2070 pw.x -in pw.inp   Done                     12/19/2018 14:13:25
00028 suncat2070 pw.x -in pw.inp   Done                     12/19/2018 14:13:25
00029 suncat2070 pw.x -in pw.inp   Done                     12/19/2018 14:13:25
00030 suncat2070 pw.x -in pw.inp   Done                     12/19/2018 14:13:25
00031 suncat2070 pw.x -in pw.inp   Done                     12/19/2018 14:13:25