     Program PWSCF v.5.1rc2 (svn rev. 11289) starts on 20Dec2018 at  3:21:45

     Current dimensions of program PWSCF are:
     Max number of different atomic species (ntypx) = 10
     Max number of k-points (npk) =  40000
     Max angular momentum in pseudopotentials (lmaxx) =  3
     Presently stress not available with electric field

     IMPORTANT: XC functional enforced from input :
     Exchange-correlation      = BEEF-VDW ( 1  4 27 13 2)
     Any further DFT definition will be discarded
     Please, verify this is what you really want

     Subspace diagonalization in iterative solution of the eigenvalue problem:
     a serial algorithm will be used

     Generating pointlists ...
     new r_m :   0.4125 (alat units)  0.7795 (a.u.) for type    1
     new r_m :   0.4125 (alat units)  0.7795 (a.u.) for type    2

     bravais-lattice index     =            0
     lattice parameter (alat)  =       1.8897  a.u.
     unit-cell volume          =    3480.2779 (a.u.)^3
     number of atoms/cell      =           12
     number of atomic types    =            2
     number of electrons       =       210.00
     number of Kohn-Sham states=          135
     kinetic-energy cutoff     =      36.7493  Ry
     charge density cutoff     =     367.4932  Ry
     convergence threshold     =      1.0E-06
     mixing beta               =       0.1000
     number of iterations used =           10  plain     mixing
     Exchange-correlation      = BEEF-VDW ( 1  4 27 13 2)
     nstep                     =           50

     celldm(1)=   1.889726  celldm(2)=   0.000000  celldm(3)=   0.000000
     celldm(4)=   0.000000  celldm(5)=   0.000000  celldm(6)=   0.000000

     crystal axes: (cart. coord. in units of alat)
               a(1) = (   4.974829   0.000000   0.000000 )
               a(2) = (  -2.487414   4.308328   0.000000 )
               a(3) = (   0.000000   0.000000  24.061930 )

     reciprocal axes: (cart. coord. in units 2 pi/alat)
               b(1) = (  0.201012  0.116054  0.000000 )
               b(2) = (  0.000000  0.232109  0.000000 )
               b(3) = (  0.000000  0.000000  0.041559 )

     PseudoPot. # 1 for Co read from file:
     /afs/slac.stanford.edu/u/if/mamunm/psp/gbrv1.5pbe/Co.UPF
     MD5 check sum: 5f91765df6ddd3222702df6e7b74a16d
     Pseudo is Ultrasoft + core correction, Zval = 17.0
     Generated by new atomic code, or converted to UPF format
     Using radial grid of  863 points,  6 beta functions with:
                l(1) =   0
                l(2) =   0
                l(3) =   1
                l(4) =   1
                l(5) =   2
                l(6) =   2
     Q(r) pseudized with  8 coefficients,  rinner =    1.200   1.200   1.200
                                                       1.200   1.200

     PseudoPot. # 2 for Cu read from file:
     /afs/slac.stanford.edu/u/if/mamunm/psp/gbrv1.5pbe/Cu.UPF
     MD5 check sum: 6e991ff952a84172a2a52a1c1e996048
     Pseudo is Ultrasoft + core correction, Zval = 19.0
     Generated by new atomic code, or converted to UPF format
     Using radial grid of  867 points,  6 beta functions with:
                l(1) =   0
                l(2) =   0
                l(3) =   1
                l(4) =   1
                l(5) =   2
                l(6) =   2
     Q(r) pseudized with  8 coefficients,  rinner =    1.150   1.150   1.150
                                                       1.150   1.150

     vdW kernel table read from file vdW_kernel_table
     MD5 check sum: 095c7af220d748ca6e76c0b4c6cfb241

     atomic species   valence    mass     pseudopotential
        Co1           17.00    58.93319     Co( 1.00)
        Cu1           19.00    63.54600     Cu( 1.00)

     Starting magnetic structure
     atomic species   magnetization
        Co1          0.118
        Cu1          0.105

     No symmetry found

   Cartesian axes

     site n.     atom                  positions (alat units)
         1           Co1 tau(   1) = (   0.0000000   0.0000000  10.0000000  )
         2           Co1 tau(   2) = (  -1.2437071   2.1541639  10.0000000  )
         3           Co1 tau(   3) = (   1.2437071   2.1541639  10.0000000  )
         4           Cu1 tau(   4) = (   2.4874143   0.0000000  10.0000000  )
         5           Co1 tau(   5) = (   2.4874143   1.4361093  12.0309652  )
         6           Co1 tau(   6) = (   1.2437071   3.5902732  12.0309652  )
         7           Co1 tau(   7) = (  -1.2437071   3.5902732  12.0309652  )
         8           Cu1 tau(   8) = (   0.0000000   1.4361093  12.0309652  )
         9           Co1 tau(   9) = (  -0.0000000   2.8722186  14.0619305  )
        10           Co1 tau(  10) = (   1.2437071   0.7180546  14.0619305  )
        11           Co1 tau(  11) = (   3.7311214   0.7180546  14.0619305  )
        12           Cu1 tau(  12) = (   2.4874143   2.8722186  14.0619305  )

     number of k points=    40  Fermi-Dirac smearing, width (Ry)=  0.0110
                       cart. coord. in units 2pi/alat
        k(    1) = (   0.0000000   0.0000000   0.0000000), wk =   0.0277778
        k(    2) = (   0.0000000   0.0386848   0.0000000), wk =   0.0555556
        k(    3) = (   0.0000000   0.0773695   0.0000000), wk =   0.0555556
        k(    4) = (   0.0000000  -0.1160543   0.0000000), wk =   0.0277778
        k(    5) = (   0.0335020   0.0193424   0.0000000), wk =   0.0555556
        k(    6) = (   0.0335020   0.0580272   0.0000000), wk =   0.0555556
        k(    7) = (   0.0335020   0.0967119   0.0000000), wk =   0.0555556
        k(    8) = (   0.0335020  -0.0967119   0.0000000), wk =   0.0555556
        k(    9) = (   0.0335020  -0.0580272   0.0000000), wk =   0.0555556
        k(   10) = (   0.0335020  -0.0193424   0.0000000), wk =   0.0555556
        k(   11) = (   0.0670040   0.0386848   0.0000000), wk =   0.0555556
        k(   12) = (   0.0670040   0.0773695   0.0000000), wk =   0.0555556
        k(   13) = (   0.0670040   0.1160543   0.0000000), wk =   0.0555556
        k(   14) = (   0.0670040  -0.0773695   0.0000000), wk =   0.0555556
        k(   15) = (   0.0670040  -0.0386848   0.0000000), wk =   0.0555556
        k(   16) = (   0.0670040   0.0000000   0.0000000), wk =   0.0555556
        k(   17) = (  -0.1005060  -0.0580272   0.0000000), wk =   0.0277778
        k(   18) = (  -0.1005060  -0.0193424   0.0000000), wk =   0.0555556
        k(   19) = (  -0.1005060   0.0193424   0.0000000), wk =   0.0555556
        k(   20) = (  -0.1005060  -0.1740815   0.0000000), wk =   0.0277778
        k(   21) = (   0.0000000   0.0000000   0.0000000), wk =   0.0277778
        k(   22) = (   0.0000000   0.0386848   0.0000000), wk =   0.0555556
        k(   23) = (   0.0000000   0.0773695   0.0000000), wk =   0.0555556
        k(   24) = (   0.0000000  -0.1160543   0.0000000), wk =   0.0277778
        k(   25) = (   0.0335020   0.0193424   0.0000000), wk =   0.0555556
        k(   26) = (   0.0335020   0.0580272   0.0000000), wk =   0.0555556
        k(   27) = (   0.0335020   0.0967119   0.0000000), wk =   0.0555556
        k(   28) = (   0.0335020  -0.0967119   0.0000000), wk =   0.0555556
        k(   29) = (   0.0335020  -0.0580272   0.0000000), wk =   0.0555556
        k(   30) = (   0.0335020  -0.0193424   0.0000000), wk =   0.0555556
        k(   31) = (   0.0670040   0.0386848   0.0000000), wk =   0.0555556
        k(   32) = (   0.0670040   0.0773695   0.0000000), wk =   0.0555556
        k(   33) = (   0.0670040   0.1160543   0.0000000), wk =   0.0555556
        k(   34) = (   0.0670040  -0.0773695   0.0000000), wk =   0.0555556
        k(   35) = (   0.0670040  -0.0386848   0.0000000), wk =   0.0555556
        k(   36) = (   0.0670040   0.0000000   0.0000000), wk =   0.0555556
        k(   37) = (  -0.1005060  -0.0580272   0.0000000), wk =   0.0277778
        k(   38) = (  -0.1005060  -0.0193424   0.0000000), wk =   0.0555556
        k(   39) = (  -0.1005060   0.0193424   0.0000000), wk =   0.0555556
        k(   40) = (  -0.1005060  -0.1740815   0.0000000), wk =   0.0277778

     Largest allocated arrays     est. size (Mb)     dimensions
     Largest temporary arrays     est. size (Mb)     dimensions

     Check: negative/imaginary core charge=   -0.000006    0.000000

     Initial potential from superposition of free atoms
     Check: negative starting charge=(component1):   -0.000169
     Check: negative starting charge=(component2):   -0.000134

     starting charge  197.99993, renormalised to  210.00000

     negative rho (up, down):  1.798E-04 1.420E-04

     *
     * You are using vdW-DF for exchange-correlation in this calculation.
     * Please cite the following three references that made this development
     * possible:
     *
     *   M. Dion, H. Rydberg, E. Schroder, D. C. Langreth, and
     *   B. I. Lundqvist, Phys. Rev. Lett. 92, 246401 (2004).
     *
     *   T. Thonhauser, V. R. Cooper, S. Li, A. Puzder, P. Hyldgaard, and
     *   D. C. Langreth, Phys. Rev. B 76, 125112 (2007).
     *
     *   G. Roman-Perez and J. M. Soler, Phys. Rev. Lett. 103, 096102 (2009).
     *
     *
     * If you are using vdW-DF2, please also cite:
     *
     *   K. Lee, E. D. Murray, L. Kong, B. I. Lundqvist, and
     *   D. C. Langreth, Phys. Rev. B 82, 081101(R) (2010).
     *
     *
     * If you are calculating the stress with vdW-DF, please also cite:
     *
     *   R. Sabatini, E. Kucukbenli, B. Kolb, T. Thonhauser, and
     *   S. de Gironcoli, J. Phys.: Condens. Matter 24, 424209 (2012).
     *

     Carrying out vdW-DF run using the following parameters:

     Nqs =      20    Nr_points =    1024   r_max =   100.000
     q_mesh =
               0.00001000     0.04494208     0.09755937     0.15916263
               0.23128650     0.31572767     0.41458969     0.53033537
               0.66584808     0.82450364     1.01025438     1.22772762
               1.48234092     1.78043706     2.12944203     2.53805004
               3.01644009     3.57652955     4.23227104     5.00000000

     Gradients computed in reciprocal space

     Adding external electric field

     Computed dipole along edir(3) :
        Dipole                0.0000 Ry au,          0.0000 Debye
        Dipole field          0.0000 Ry au

        Potential amp.       -0.0000 Ry
        Total length         44.3337 bohr

[...]

     Starting wfc are  156 randomized atomic wfcs

     Self-consistent Calculation

     iteration #  1     ecut=    36.75 Ry     beta=0.10
     Davidson diagonalization with overlap
     ethr =  1.00E-02,  avg # of iterations =  6.9

[...]

     Magnetic moment per site:
     atom:    1    charge:    8.4677    magn:    0.9596    constr:    0.0000
     atom:    2    charge:    8.4678    magn:    0.9596    constr:    0.0000
     atom:    3    charge:    8.4678    magn:    0.9596    constr:    0.0000
     atom:    4    charge:   10.8170    magn:    1.1017    constr:    0.0000
     atom:    5    charge:    8.4711    magn:    0.9550    constr:    0.0000
     atom:    6    charge:    8.4711    magn:    0.9550    constr:    0.0000
     atom:    7    charge:    8.4711    magn:    0.9550    constr:    0.0000
     atom:    8    charge:   10.8159    magn:    1.0952    constr:    0.0000
[...]
        k(    6) = (   0.0335020   0.0580272   0.0000000), wk =   0.0555556
        k(    7) = (   0.0335020   0.0967119   0.0000000), wk =   0.0555556
        k(    8) = (   0.0335020  -0.0967119   0.0000000), wk =   0.0555556
        k(    9) = (   0.0335020  -0.0580272   0.0000000), wk =   0.0555556
        k(   10) = (   0.0335020  -0.0193424   0.0000000), wk =   0.0555556
        k(   11) = (   0.0670040   0.0386848   0.0000000), wk =   0.0555556
        k(   12) = (   0.0670040   0.0773695   0.0000000), wk =   0.0555556
        k(   13) = (   0.0670040   0.1160543   0.0000000), wk =   0.0555556
        k(   14) = (   0.0670040  -0.0773695   0.0000000), wk =   0.0555556
        k(   15) = (   0.0670040  -0.0386848   0.0000000), wk =   0.0555556
        k(   16) = (   0.0670040   0.0000000   0.0000000), wk =   0.0555556
        k(   17) = (  -0.1005060  -0.0580272   0.0000000), wk =   0.0277778
        k(   18) = (  -0.1005060  -0.0193424   0.0000000), wk =   0.0555556
        k(   19) = (  -0.1005060   0.0193424   0.0000000), wk =   0.0555556
        k(   20) = (  -0.1005060  -0.1740815   0.0000000), wk =   0.0277778
        k(   21) = (   0.0000000   0.0000000   0.0000000), wk =   0.0277778
        k(   22) = (   0.0000000   0.0386848   0.0000000), wk =   0.0555556
        k(   23) = (   0.0000000   0.0773695   0.0000000), wk =   0.0555556
        k(   24) = (   0.0000000  -0.1160543   0.0000000), wk =   0.0277778
        k(   25) = (   0.0335020   0.0193424   0.0000000), wk =   0.0555556
        k(   26) = (   0.0335020   0.0580272   0.0000000), wk =   0.0555556
        k(   27) = (   0.0335020   0.0967119   0.0000000), wk =   0.0555556
        k(   28) = (   0.0335020  -0.0967119   0.0000000), wk =   0.0555556
        k(   29) = (   0.0335020  -0.0580272   0.0000000), wk =   0.0555556
        k(   30) = (   0.0335020  -0.0193424   0.0000000), wk =   0.0555556
        k(   31) = (   0.0670040   0.0386848   0.0000000), wk =   0.0555556
        k(   32) = (   0.0670040   0.0773695   0.0000000), wk =   0.0555556
        k(   33) = (   0.0670040   0.1160543   0.0000000), wk =   0.0555556
        k(   34) = (   0.0670040  -0.0773695   0.0000000), wk =   0.0555556
        k(   35) = (   0.0670040  -0.0386848   0.0000000), wk =   0.0555556
        k(   36) = (   0.0670040   0.0000000   0.0000000), wk =   0.0555556
        k(   37) = (  -0.1005060  -0.0580272   0.0000000), wk =   0.0277778
        k(   38) = (  -0.1005060  -0.0193424   0.0000000), wk =   0.0555556
        k(   39) = (  -0.1005060   0.0193424   0.0000000), wk =   0.0555556
        k(   40) = (  -0.1005060  -0.1740815   0.0000000), wk =   0.0277778

     Largest allocated arrays     est. size (Mb)     dimensions
     Largest temporary arrays     est. size (Mb)     dimensions

     Check: negative/imaginary core charge=   -0.000006    0.000000

     Initial potential from superposition of free atoms
     Check: negative starting charge=(component1):   -0.000172
     Check: negative starting charge=(component2):   -0.000136

     starting charge  197.99993, renormalised to  210.00000

[...]

     *
     * You are using vdW-DF for exchange-correlation in this calculation.
     * Please cite the following three references that made this development
     * possible:
     *
     *   M. Dion, H. Rydberg, E. Schroder, D. C. Langreth, and
     *   B. I. Lundqvist, Phys. Rev. Lett. 92, 246401 (2004).
     *
     *   T. Thonhauser, V. R. Cooper, S. Li, A. Puzder, P. Hyldgaard, and
     *   D. C. Langreth, Phys. Rev. B 76, 125112 (2007).
     *
     *   G. Roman-Perez and J. M. Soler, Phys. Rev. Lett. 103, 096102 (2009).
     *
     *
     * If you are using vdW-DF2, please also cite:
     *
     *   K. Lee, E. D. Murray, L. Kong, B. I. Lundqvist, and
     *   D. C. Langreth, Phys. Rev. B 82, 081101(R) (2010).
     *
     *
     * If you are calculating the stress with vdW-DF, please also cite:
     *
     *   R. Sabatini, E. Kucukbenli, B. Kolb, T. Thonhauser, and
     *   S. de Gironcoli, J. Phys.: Condens. Matter 24, 424209 (2012).
     *

     Carrying out vdW-DF run using the following parameters:

     Nqs =      20    Nr_points =    1024   r_max =   100.000
     q_mesh =
               0.00001000     0.04494208     0.09755937     0.15916263
               0.23128650     0.31572767     0.41458969     0.53033537
               0.66584808     0.82450364     1.01025438     1.22772762
               1.48234092     1.78043706     2.12944203     2.53805004
               3.01644009     3.57652955     4.23227104     5.00000000

     Gradients computed in reciprocal space

[...]

     Starting wfc are  156 randomized atomic wfcs

     Self-consistent Calculation

[...]

     total energy              =   -3910.43759626 Ry
     Harris-Foulkes estimate   =   -3910.43759598 Ry
     estimated scf accuracy    <       0.00000118 Ry

[...]

     iteration # 33     ecut=    36.75 Ry     beta=0.10
     Davidson diagonalization with overlap
     ethr =  5.64E-10,  avg # of iterations =  1.0

[...]

     negative rho (up, down):  6.020E-04 4.277E-04

[...]

     Adding external electric field

     Computed dipole along edir(3) :
        Dipole               -0.0077 Ry au,         -0.0196 Debye
        Dipole field         -0.0000 Ry au

        Potential amp.        0.0025 Ry
        Total length         44.3337 bohr

     Magnetic moment per site:
     atom:    1    charge:    8.2834    magn:    0.9712    constr:    0.0000
     atom:    2    charge:    8.2834    magn:    0.9712    constr:    0.0000
     atom:    3    charge:    8.2833    magn:    0.9713    constr:    0.0000
     atom:    4    charge:   10.5854    magn:    0.1058    constr:    0.0000
     atom:    5    charge:    8.2811    magn:    0.9942    constr:    0.0000
     atom:    6    charge:    8.2810    magn:    0.9942    constr:    0.0000
     atom:    7    charge:    8.2810    magn:    0.9943    constr:    0.0000
     atom:    8    charge:   10.5840    magn:    0.1225    constr:    0.0000
     atom:    9    charge:    8.2869    magn:    0.9723    constr:    0.0000
     atom:   10    charge:    8.2870    magn:    0.9723    constr:    0.0000
     atom:   11    charge:    8.2869    magn:    0.9723    constr:    0.0000
     atom:   12    charge:   10.5889    magn:    0.0953    constr:    0.0000

     End of self-consistent calculation

 ------ SPIN UP ------------

[...]

 ------ SPIN DOWN ----------

[...]

          k = 0.0670 0.0000 0.0000 ( 13071 PWs)   bands (ev):

[...]

          k =-0.1005-0.1741 0.0000 ( 13066 PWs)   bands (ev):

  -112.2286-111.9079-111.7649 -93.3417 -93.3319 -93.3220 -93.0931 -93.0874
   -93.0820 -93.0780 -93.0729 -93.0683 -69.6240 -69.6238 -69.6086 -69.3315
   -69.3313 -69.2337 -69.1996 -69.1994 -69.0714 -56.7813 -56.7221 -56.7192
   -56.7019 -56.7002 -56.6989 -56.6825 -56.6747 -56.5907 -56.5446 -56.5341
   -56.4716 -56.4578 -56.4566 -56.4507 -56.4444 -56.4414 -56.4378 -56.4368
   -56.4044 -56.4026 -56.3968 -56.3903 -56.3837 -56.3833 -56.3616 -56.3589
    -5.8446  -5.6847  -4.1328  -3.9233  -3.4523  -3.3123  -3.2050  -3.0035
    -2.9609  -2.8706  -2.6955  -2.6010  -2.5869  -2.5355  -2.3420  -2.2986
    -2.2344  -2.1466  -2.0668  -2.0057  -1.9355  -1.8084  -1.7433  -1.4711
    -1.3249  -1.1081  -1.0433  -0.9748  -0.9171  -0.8467  -0.8058  -0.6059
    -0.5841  -0.5369  -0.4763  -0.4573  -0.4484  -0.3476  -0.1615  -0.1613
    -0.0721  -0.0473   0.0898   0.2596   0.2938   0.3206   0.4109   0.5491
     0.6983   0.7061   0.7274   0.9273   0.9880   1.0350   1.1020   1.1477
     1.1720   1.2094   1.2772   1.3465   1.3666   1.5530   1.6962   1.9050
     2.4585   2.5194   2.6752   3.2925   3.4622   3.8894   4.5245   4.6947
     5.7054   5.7544   6.8559   6.8666   7.3612   7.3786   7.6378   7.6446
     8.5193   8.6070   8.6537   8.6709   9.1590   9.1874   9.7005

     the Fermi energy is     0.8094 ev

!    total energy              =   -3910.43759728 Ry
     Harris-Foulkes estimate   =   -3910.43759625 Ry
     estimated scf accuracy    <       0.00000077 Ry

     The total energy is the sum of the following terms:

     one-electron contribution =  -33528.78131166 Ry
     hartree contribution      =   16772.07486752 Ry
     xc contribution           =    -424.09589597 Ry
     ewald contribution        =   13270.43748662 Ry
     electric field correction =       0.00000021 Ry
     smearing contrib. (-TS)   =      -0.07274401 Ry

     total magnetization       =    15.51 Bohr mag/cell
     absolute magnetization    =    17.88 Bohr mag/cell

     convergence has been achieved in  33 iterations

 BEEF-vdW xc energy contributions
           1 :   -374.317208007642
           2 :    339.515235894036
           3 :   -280.277666843315
           4 :    212.546586810997
           5 :   -151.093202836929
           6 :    104.241719712362
           7 :   -72.4199401383688
           8 :    50.5915030488093
           9 :   -32.6570630379741
          10 :    15.1534929069815
          11 :    1.54977722591013
          12 :   -14.6790335767091
          13 :    21.6965723662197
          14 :   -22.3207125420718
          15 :    18.7703657531916
          16 :   -14.3741666123703
          17 :    11.6440044967964
          18 :   -11.0993885178477
          19 :    11.4640734803248
          20 :   -10.9354273926887
          21 :    8.57512516111223
          22 :   -4.92656844222802
          23 :    1.55098433042673
          24 :   8.083736708420020E-002
          25 :   0.447665157936285
          26 :   -2.30198485568053
          27 :    4.01602821683991
          28 :   -4.45963199874501
          29 :    3.49599977571188
          30 :   -1.94488054895930
          31 :   -31.0692056441073
          32 :   -21.4764215938699

     Forces acting on atoms (Ry/au):

     negative rho (up, down):  6.020E-04 4.277E-04
     atom    1 type  1   force =     0.00001254   -0.01051569    0.00089474
     atom    2 type  1   force =    -0.00908599    0.00526812    0.00087929
     atom    3 type  1   force =     0.00909207    0.00525707    0.00086862
     atom    4 type  2   force =    -0.00002420   -0.00002356   -0.02440618
     atom    5 type  1   force =     0.00000082    0.00608694    0.00631169
     atom    6 type  1   force =     0.00527747   -0.00303488    0.00633733
     atom    7 type  1   force =    -0.00528414   -0.00304047    0.00632450
     atom    8 type  2   force =    -0.00000156   -0.00000294    0.00279822
     atom    9 type  1   force =     0.00003834   -0.00026195    0.00031926
     atom   10 type  1   force =    -0.00018879    0.00017267    0.00029599
     atom   11 type  1   force =     0.00020435    0.00013805    0.00031640
     atom   12 type  2   force =    -0.00004093   -0.00004337   -0.00093985

     Total force =     0.034200     Total SCF correction =     0.003479
     SCF correction compared to forces is large: reduce conv_thr to get better values

     entering subroutine stress ...

     negative rho (up, down):  6.020E-04 4.277E-04
          total   stress  (Ry/bohr**3)                   (kbar)     P=   -6.87
  -0.00005539  -0.00000000  -0.00000000         -8.15     -0.00     -0.00
  -0.00000000  -0.00005539  -0.00000001         -0.00     -8.15     -0.00
  -0.00000000  -0.00000001  -0.00002941         -0.00     -0.00     -4.33

 !ASE

     Writing output data file calc.save

     General routines

     Parallel routines

   This run was terminated on:   6:29:48  20Dec2018

   JOB DONE.
Job  /afs/slac/g/suncat/bin/suncat-tsmpirun -x LD_LIBRARY_PATH -wdir /scratch/qe773502_SPwkS pw.x -in pw.inp

TID   HOST_NAME   COMMAND_LINE            STATUS            TERMINATION_TIME
00000 suncat0087 pw.x -in pw.inp   Done                     12/20/2018 06:29:48
00001 suncat0087 pw.x -in pw.inp   Done                     12/20/2018 06:29:48
00002 suncat0087 pw.x -in pw.inp   Done                     12/20/2018 06:29:48
00003 suncat0087 pw.x -in pw.inp   Done                     12/20/2018 06:29:48
00004 suncat0087 pw.x -in pw.inp   Done                     12/20/2018 06:29:48
00005 suncat0087 pw.x -in pw.inp   Done                     12/20/2018 06:29:48
00006 suncat0087 pw.x -in pw.inp   Done                     12/20/2018 06:29:48
00007 suncat0087 pw.x -in pw.inp   Done                     12/20/2018 06:29:48
00008 suncat0079 pw.x -in pw.inp   Done                     12/20/2018 06:29:48
00009 suncat0079 pw.x -in pw.inp   Done                     12/20/2018 06:29:48
00010 suncat0079 pw.x -in pw.inp   Done                     12/20/2018 06:29:48
00011 suncat0079 pw.x -in pw.inp   Done                     12/20/2018 06:29:48
00012 suncat0079 pw.x -in pw.inp   Done                     12/20/2018 06:29:48
00013 suncat0079 pw.x -in pw.inp   Done                     12/20/2018 06:29:48
00014 suncat0079 pw.x -in pw.inp   Done                     12/20/2018 06:29:48
00015 suncat0079 pw.x -in pw.inp   Done                     12/20/2018 06:29:48
00016 suncat0025 pw.x -in pw.inp   Done                     12/20/2018 06:29:48
00017 suncat0025 pw.x -in pw.inp   Done                     12/20/2018 06:29:48
00018 suncat0025 pw.x -in pw.inp   Done                     12/20/2018 06:29:48
00019 suncat0025 pw.x -in pw.inp   Done                     12/20/2018 06:29:48
00020 suncat0025 pw.x -in pw.inp   Done                     12/20/2018 06:29:48
00021 suncat0025 pw.x -in pw.inp   Done                     12/20/2018 06:29:48
00022 suncat0025 pw.x -in pw.inp   Done                     12/20/2018 06:29:48
00023 suncat0025 pw.x -in pw.inp   Done                     12/20/2018 06:29:48
00024 suncat0024 pw.x -in pw.inp   Done                     12/20/2018 06:29:48
00025 suncat0024 pw.x -in pw.inp   Done                     12/20/2018 06:29:48
00026 suncat0024 pw.x -in pw.inp   Done                     12/20/2018 06:29:48
00027 suncat0024 pw.x -in pw.inp   Done                     12/20/2018 06:29:48
00028 suncat0024 pw.x -in pw.inp   Done                     12/20/2018 06:29:48
00029 suncat0024 pw.x -in pw.inp   Done                     12/20/2018 06:29:48
00030 suncat0024 pw.x -in pw.inp   Done                     12/20/2018 06:29:48
00031 suncat0024 pw.x -in pw.inp   Done                     12/20/2018 06:29:48
00032 suncat0191 pw.x -in pw.inp   Done                     12/20/2018 06:29:48
00033 suncat0191 pw.x -in pw.inp   Done                     12/20/2018 06:29:48
00034 suncat0191 pw.x -in pw.inp   Done                     12/20/2018 06:29:48
00035 suncat0191 pw.x -in pw.inp   Done                     12/20/2018 06:29:48
00036 suncat0191 pw.x -in pw.inp   Done                     12/20/2018 06:29:48
00037 suncat0191 pw.x -in pw.inp   Done                     12/20/2018 06:29:48
00038 suncat0191 pw.x -in pw.inp   Done                     12/20/2018 06:29:48
00039 suncat0191 pw.x -in pw.inp   Done                     12/20/2018 06:29:48
00040 suncat0190 pw.x -in pw.inp   Done                     12/20/2018 06:29:48
00041 suncat0190 pw.x -in pw.inp   Done                     12/20/2018 06:29:48
00042 suncat0190 pw.x -in pw.inp   Done                     12/20/2018 06:29:48
00043 suncat0190 pw.x -in pw.inp   Done                     12/20/2018 06:29:48
00044 suncat0190 pw.x -in pw.inp   Done                     12/20/2018 06:29:48
00045 suncat0190 pw.x -in pw.inp   Done                     12/20/2018 06:29:48
00046 suncat0190 pw.x -in pw.inp   Done                     12/20/2018 06:29:48
00047 suncat0190 pw.x -in pw.inp   Done                     12/20/2018 06:29:48
00048 suncat0009 pw.x -in pw.inp   Done                     12/20/2018 06:29:48
00049 suncat0009 pw.x -in pw.inp   Done                     12/20/2018 06:29:48
00050 suncat0009 pw.x -in pw.inp   Done                     12/20/2018 06:29:48
00051 suncat0009 pw.x -in pw.inp   Done                     12/20/2018 06:29:48
00052 suncat0009 pw.x -in pw.inp   Done                     12/20/2018 06:29:48
00053 suncat0009 pw.x -in pw.inp   Done                     12/20/2018 06:29:48
00054 suncat0009 pw.x -in pw.inp   Done                     12/20/2018 06:29:48
00055 suncat0009 pw.x -in pw.inp   Done                     12/20/2018 06:29:48
00056 suncat0008 pw.x -in pw.inp   Done                     12/20/2018 06:29:48
00057 suncat0008 pw.x -in pw.inp   Done                     12/20/2018 06:29:48
00058 suncat0008 pw.x -in pw.inp   Done                     12/20/2018 06:29:48
00059 suncat0008 pw.x -in pw.inp   Done                     12/20/2018 06:29:48
00060 suncat0008 pw.x -in pw.inp   Done                     12/20/2018 06:29:48
00061 suncat0008 pw.x -in pw.inp   Done                     12/20/2018 06:29:48
00062 suncat0008 pw.x -in pw.inp   Done                     12/20/2018 06:29:48
00063 suncat0008 pw.x -in pw.inp   Done                     12/20/2018 06:29:48