     Program PWSCF v.5.1rc2 (svn rev. 11289) starts on 26Dec2018 at 12:31:31

     Current dimensions of program PWSCF are:
     Max number of different atomic species (ntypx) = 10
     Max number of k-points (npk) =  40000
     Max angular momentum in pseudopotentials (lmaxx) =  3
     Presently stress not available with electric field

     IMPORTANT: XC functional enforced from input :
     Exchange-correlation      = BEEF-VDW ( 1  4 27 13 2)
     Any further DFT definition will be discarded
     Please, verify this is what you really want

     Subspace diagonalization in iterative solution of the eigenvalue problem:
     a serial algorithm will be used

     bravais-lattice index     =            0
     lattice parameter (alat)  =       1.8897  a.u.
     unit-cell volume          =    5827.3093 (a.u.)^3
     number of atoms/cell      =           12
     number of atomic types    =            2
     number of electrons       =       156.00
     number of Kohn-Sham states=          108
     kinetic-energy cutoff     =      36.7493  Ry
     charge density cutoff     =     367.4932  Ry
     convergence threshold     =      1.0E-06
     mixing beta               =       0.1000
     number of iterations used =           10  plain     mixing
     Exchange-correlation      = BEEF-VDW ( 1  4 27 13 2)
     nstep                     =           50

     celldm(1)=   1.889726  celldm(2)=   0.000000  celldm(3)=   0.000000
     celldm(4)=   0.000000  celldm(5)=   0.000000  celldm(6)=   0.000000

     crystal axes: (cart. coord. in units of alat)
               a(1) = (   6.297543   0.000000   0.000000 )
               a(2) = (  -3.148772   5.453833   0.000000 )
               a(3) = (   0.000000   0.000000  25.141923 )

     reciprocal axes: (cart. coord. in units 2 pi/alat)
               b(1) = (  0.158792  0.091679  0.000000 )
               b(2) = (  0.000000  0.183357  0.000000 )
               b(3) = (  0.000000  0.000000  0.039774 )

     PseudoPot. # 1 for In read from file:
     /afs/slac.stanford.edu/u/if/mamunm/psp/gbrv1.5pbe/In.UPF
     MD5 check sum: 90777abd96fbb83f2e67db2a40c566b9
     Pseudo is Ultrasoft + core correction, Zval = 13.0
     Generated by new atomic code, or converted to UPF format
     Using radial grid of  889 points,  6 beta functions with:
                l(1) =   0
                l(2) =   0
                l(3) =   1
                l(4) =   1
                l(5) =   2
                l(6) =   2
     Q(r) pseudized with  6 coefficients,  rinner =    1.400   1.400   1.400
                                                       1.400   1.400

     PseudoPot. # 2 for Nb read from file:
     /afs/slac.stanford.edu/u/if/mamunm/psp/gbrv1.5pbe/Nb.UPF
     MD5 check sum: 573aab8a2fa660278ed4a62cd769473f
     Pseudo is Ultrasoft + core correction, Zval = 13.0
     Generated by new atomic code, or converted to UPF format
     Using radial grid of  887 points,  6 beta functions with:
                l(1) =   0
                l(2) =   0
                l(3) =   1
                l(4) =   1
                l(5) =   2
                l(6) =   2
     Q(r) pseudized with  6 coefficients,  rinner =    1.000   1.000   1.000
                                                       1.000   1.000

     vdW kernel table read from file vdW_kernel_table
     MD5 check sum: 095c7af220d748ca6e76c0b4c6cfb241

     atomic species   valence    mass     pseudopotential
        In1           13.00   114.81800     In( 1.00)
        Nb1           13.00    92.90637     Nb( 1.00)

     No symmetry found

   Cartesian axes

     site n.     atom                  positions (alat units)
         1           In1 tau(   1) = (   0.0000000   0.0000000  10.0000000  )
         2           In1 tau(   2) = (  -1.5743859   2.7269163  10.0000000  )
         3           In1 tau(   3) = (   1.5743859   2.7269163  10.0000000  )
         4           Nb1 tau(   4) = (   3.1487717   0.0000000  10.0000000  )
         5           In1 tau(   5) = (   3.1487717   1.8179442  12.5709614  )
         6           In1 tau(   6) = (   1.5743859   4.5448605  12.5709614  )
         7           In1 tau(   7) = (  -1.5743859   4.5448605  12.5709614  )
         8           Nb1 tau(   8) = (   0.0000000   1.8179442  12.5709614  )
         9           In1 tau(   9) = (  -0.0000000   3.6358884  15.1419227  )
        10           In1 tau(  10) = (   1.5743859   0.9089721  15.1419227  )
        11           In1 tau(  11) = (   4.7231576   0.9089721  15.1419227  )
        12           Nb1 tau(  12) = (   3.1487717   3.6358884  15.1419227  )

     number of k points=    20  Fermi-Dirac smearing, width (Ry)=  0.0110
                       cart. coord. in units 2pi/alat
        k(    1) = (   0.0000000   0.0000000   0.0000000), wk =   0.0555556
        k(    2) = (   0.0000000   0.0305595   0.0000000), wk =   0.1111111
        k(    3) = (   0.0000000   0.0611191   0.0000000), wk =   0.1111111
        k(    4) = (   0.0000000  -0.0916786   0.0000000), wk =   0.0555556
        k(    5) = (   0.0264653   0.0152798   0.0000000), wk =   0.1111111
        k(    6) = (   0.0264653   0.0458393   0.0000000), wk =   0.1111111
        k(    7) = (   0.0264653   0.0763989   0.0000000), wk =   0.1111111
        k(    8) = (   0.0264653  -0.0763989   0.0000000), wk =   0.1111111
        k(    9) = (   0.0264653  -0.0458393   0.0000000), wk =   0.1111111
        k(   10) = (   0.0264653  -0.0152798   0.0000000), wk =   0.1111111
        k(   11) = (   0.0529307   0.0305595   0.0000000), wk =   0.1111111
        k(   12) = (   0.0529307   0.0611191   0.0000000), wk =   0.1111111
        k(   13) = (   0.0529307   0.0916786   0.0000000), wk =   0.1111111
        k(   14) = (   0.0529307  -0.0611191   0.0000000), wk =   0.1111111
        k(   15) = (   0.0529307  -0.0305595   0.0000000), wk =   0.1111111
        k(   16) = (   0.0529307   0.0000000   0.0000000), wk =   0.1111111
        k(   17) = (  -0.0793960  -0.0458393   0.0000000), wk =   0.0555556
        k(   18) = (  -0.0793960  -0.0152798   0.0000000), wk =   0.1111111
        k(   19) = (  -0.0793960   0.0152798   0.0000000), wk =   0.1111111
        k(   20) = (  -0.0793960  -0.1375180   0.0000000), wk =   0.0555556

     Largest allocated arrays     est. size (Mb)     dimensions
     Largest temporary arrays     est. size (Mb)     dimensions

     Initial potential from superposition of free atoms
     Check: negative starting charge=   -0.003099

     starting charge  142.49180, renormalised to  156.00000

     negative rho (up, down):  3.393E-03 0.000E+00

     *
     * You are using vdW-DF for exchange-correlation in this calculation.
     * Please cite the following three references that made this development
     * possible:
     *
     *   M. Dion, H. Rydberg, E. Schroder, D. C. Langreth, and
     *   B. I. Lundqvist, Phys. Rev. Lett. 92, 246401 (2004).
     *
     *   T. Thonhauser, V. R. Cooper, S. Li, A. Puzder, P. Hyldgaard, and
     *   D. C. Langreth, Phys. Rev. B 76, 125112 (2007).
     *
     *   G. Roman-Perez and J. M. Soler, Phys. Rev. Lett. 103, 096102 (2009).
     *
     *
     * If you are using vdW-DF2, please also cite:
     *
     *   K. Lee, E. D. Murray, L. Kong, B. I. Lundqvist, and
     *   D. C. Langreth, Phys. Rev. B 82, 081101(R) (2010).
     *
     *
     * If you are calculating the stress with vdW-DF, please also cite:
     *
     *   R. Sabatini, E. Kucukbenli, B. Kolb, T. Thonhauser, and
     *   S. de Gironcoli, J. Phys.: Condens. Matter 24, 424209 (2012).
     *

     Carrying out vdW-DF run using the following parameters:

     Nqs =      20    Nr_points =    1024   r_max =   100.000
     q_mesh =
               0.00001000     0.04494208     0.09755937     0.15916263
               0.23128650     0.31572767     0.41458969     0.53033537
               0.66584808     0.82450364     1.01025438     1.22772762
               1.48234092     1.78043706     2.12944203     2.53805004
               3.01644009     3.57652955     4.23227104     5.00000000

     Gradients computed in reciprocal space

     Adding external electric field

     Computed dipole along edir(3) :
        Dipole                0.0000 Ry au,          0.0000 Debye
        Dipole field          0.0000 Ry au

        Potential amp.       -0.0000 Ry
        Total length         46.3236 bohr

     Starting wfc are  120 randomized atomic wfcs

     Self-consistent Calculation

     iteration #  1     ecut=    36.75 Ry     beta=0.10
     Davidson diagonalization with overlap
     ethr =  1.00E-02,  avg # of iterations =  7.8

[...]

     total energy              =   -1570.92077629 Ry
     Harris-Foulkes estimate   =   -1577.67753899 Ry
     estimated scf accuracy    <      39.96535342 Ry

[...]

     End of self-consistent calculation

          k = 0.0000 0.0000 0.0000 ( 21955 PWs)   bands (ev):

   -54.7537 -54.7535 -54.5482 -30.8308 -30.8299 -30.7137 -30.7137 -30.7135
   -30.7135 -30.5953 -30.5953 -30.5393 -14.3876 -14.3229 -14.3226 -14.3080
   -14.1482 -14.1420 -14.1420 -14.1302 -14.1145 -14.0924 -14.0922 -14.0264
   -14.0132 -14.0131 -13.9673 -13.9670 -13.9668 -13.9322 -13.9320 -13.9243
   -13.9239 -13.8876 -13.8424 -13.8278 -13.8277 -13.8104 -13.7287 -13.7286
   -13.7099 -13.7099 -13.7002 -13.6802 -13.6802 -13.6801 -13.6801 -13.6786
   -13.6390 -13.6389 -13.6301 -13.6301 -13.5867 -13.5683 -13.5683 -13.4423
   -13.4417  -8.4369  -6.8690  -4.9204  -3.8801  -3.8801  -3.1721  -3.1721
    -2.6084  -2.2367  -2.2367  -1.8062  -1.3981  -1.2263  -1.2263  -0.7610
     0.2789   0.2789   0.3977   0.3977   0.4002   0.9049   0.9049   0.9486
     0.9486   1.3680   1.5549   1.7316   1.7316   2.5903   2.5903   2.6121
     2.6121   2.6500   3.1268   3.1268   3.2520   3.5983   3.9736   4.5579
     4.8677   5.1068   5.1069   5.4508   5.5192   5.5192   5.7125   5.9243
     6.0924   6.1859   7.2154   7.2154

[...]

          k =-0.0794-0.0458 0.0000 ( 21884 PWs)   bands (ev):

[...]

     the Fermi energy is     0.9838 ev

!    total energy              =   -1568.37280100 Ry
     Harris-Foulkes estimate   =   -1568.37279624 Ry
     estimated scf accuracy    <       0.00000025 Ry

     The total energy is the sum of the following terms:

     one-electron contribution =  -10180.84621263 Ry
     hartree contribution      =    5147.64832409 Ry
     xc contribution           =    -409.36071989 Ry
     ewald contribution        =    3874.24031320 Ry
     electric field correction =       0.00000000 Ry
     smearing contrib. (-TS)   =      -0.05450578 Ry

     convergence has been achieved in  20 iterations

 BEEF-vdW xc energy contributions
           1 :   -357.626104221913
           2 :    326.988659803304
           3 :   -275.069994557530
           4 :    216.260904213990
           5 :   -163.913985967637
           6 :    125.502471003534
           7 :   -101.120137882099
           8 :    85.5186604748525
           9 :   -72.1509558517443
          10 :    56.8667669261513
          11 :   -39.4603052406767
          12 :    22.6796969034563
          13 :   -9.77370172957535
          14 :    2.25727023449519
          15 :   0.839234837396305
          16 :   -2.07603894977717
[...]
               b(3) = (  0.000000  0.000000  0.039774 )

     PseudoPot. # 1 for In read from file:
     /afs/slac.stanford.edu/u/if/mamunm/psp/gbrv1.5pbe/In.UPF
     MD5 check sum: 90777abd96fbb83f2e67db2a40c566b9
     Pseudo is Ultrasoft + core correction, Zval = 13.0
     Generated by new atomic code, or converted to UPF format
     Using radial grid of  889 points,  6 beta functions with:
                l(1) =   0
                l(2) =   0
                l(3) =   1
                l(4) =   1
                l(5) =   2
                l(6) =   2
     Q(r) pseudized with  6 coefficients,  rinner =    1.400   1.400   1.400
                                                       1.400   1.400

     PseudoPot. # 2 for Nb read from file:
     /afs/slac.stanford.edu/u/if/mamunm/psp/gbrv1.5pbe/Nb.UPF
     MD5 check sum: 573aab8a2fa660278ed4a62cd769473f
     Pseudo is Ultrasoft + core correction, Zval = 13.0
     Generated by new atomic code, or converted to UPF format
     Using radial grid of  887 points,  6 beta functions with:
                l(1) =   0
                l(2) =   0
                l(3) =   1
                l(4) =   1
                l(5) =   2
                l(6) =   2
     Q(r) pseudized with  6 coefficients,  rinner =    1.000   1.000   1.000
                                                       1.000   1.000

     vdW kernel table read from file vdW_kernel_table
     MD5 check sum: 095c7af220d748ca6e76c0b4c6cfb241

     atomic species   valence    mass     pseudopotential
        In1           13.00   114.81800     In( 1.00)
        Nb1           13.00    92.90637     Nb( 1.00)

     No symmetry found

   Cartesian axes

     site n.     atom                  positions (alat units)
         1           In1 tau(   1) = (   0.0000000   0.0000000  10.0000000  )
         2           In1 tau(   2) = (  -1.5743859   2.7269163  10.0000000  )
         3           In1 tau(   3) = (   1.5743859   2.7269163  10.0000000  )
         4           Nb1 tau(   4) = (   3.1487717   0.0000000  10.0000000  )
         5           In1 tau(   5) = (   3.1487717   1.8179442  12.5709614  )
         6           In1 tau(   6) = (   1.5743859   4.5448605  12.5709614  )
         7           In1 tau(   7) = (  -1.5743859   4.5448605  12.5709614  )
         8           Nb1 tau(   8) = (   0.0000000   1.8179442  12.5709614  )
         9           In1 tau(   9) = (  -0.0000043   3.6172522  15.3728470  )
        10           In1 tau(  10) = (   1.5580129   0.9185482  15.3728276  )
        11           In1 tau(  11) = (   4.7395279   0.9185538  15.3728274  )
        12           Nb1 tau(  12) = (   3.1487686   3.6358767  14.8528963  )

     number of k points=    20  Fermi-Dirac smearing, width (Ry)=  0.0110
                       cart. coord. in units 2pi/alat
        k(    1) = (   0.0000000   0.0000000   0.0000000), wk =   0.0555556
        k(    2) = (   0.0000000   0.0305595   0.0000000), wk =   0.1111111
        k(    3) = (   0.0000000   0.0611191   0.0000000), wk =   0.1111111
        k(    4) = (   0.0000000  -0.0916786   0.0000000), wk =   0.0555556
        k(    5) = (   0.0264653   0.0152798   0.0000000), wk =   0.1111111
        k(    6) = (   0.0264653   0.0458393   0.0000000), wk =   0.1111111
        k(    7) = (   0.0264653   0.0763989   0.0000000), wk =   0.1111111
        k(    8) = (   0.0264653  -0.0763989   0.0000000), wk =   0.1111111
        k(    9) = (   0.0264653  -0.0458393   0.0000000), wk =   0.1111111
        k(   10) = (   0.0264653  -0.0152798   0.0000000), wk =   0.1111111
        k(   11) = (   0.0529307   0.0305595   0.0000000), wk =   0.1111111
        k(   12) = (   0.0529307   0.0611191   0.0000000), wk =   0.1111111
        k(   13) = (   0.0529307   0.0916786   0.0000000), wk =   0.1111111
        k(   14) = (   0.0529307  -0.0611191   0.0000000), wk =   0.1111111
        k(   15) = (   0.0529307  -0.0305595   0.0000000), wk =   0.1111111
        k(   16) = (   0.0529307   0.0000000   0.0000000), wk =   0.1111111
        k(   17) = (  -0.0793960  -0.0458393   0.0000000), wk =   0.0555556
        k(   18) = (  -0.0793960  -0.0152798   0.0000000), wk =   0.1111111
        k(   19) = (  -0.0793960   0.0152798   0.0000000), wk =   0.1111111
        k(   20) = (  -0.0793960  -0.1375180   0.0000000), wk =   0.0555556

     Largest allocated arrays     est. size (Mb)     dimensions
     Largest temporary arrays     est. size (Mb)     dimensions

     Initial potential from superposition of free atoms
     Check: negative starting charge=   -0.003106

     starting charge  142.49180, renormalised to  156.00000

[...]

     *
     * You are using vdW-DF for exchange-correlation in this calculation.
     * Please cite the following three references that made this development
     * possible:
     *
     *   M. Dion, H. Rydberg, E. Schroder, D. C. Langreth, and
     *   B. I. Lundqvist, Phys. Rev. Lett. 92, 246401 (2004).
     *
     *   T. Thonhauser, V. R. Cooper, S. Li, A. Puzder, P. Hyldgaard, and
     *   D. C. Langreth, Phys. Rev. B 76, 125112 (2007).
     *
     *   G. Roman-Perez and J. M. Soler, Phys. Rev. Lett. 103, 096102 (2009).
     *
     *
     * If you are using vdW-DF2, please also cite:
     *
     *   K. Lee, E. D. Murray, L. Kong, B. I. Lundqvist, and
     *   D. C. Langreth, Phys. Rev. B 82, 081101(R) (2010).
     *
     *
     * If you are calculating the stress with vdW-DF, please also cite:
     *
     *   R. Sabatini, E. Kucukbenli, B. Kolb, T. Thonhauser, and
     *   S. de Gironcoli, J. Phys.: Condens. Matter 24, 424209 (2012).
     *

     Carrying out vdW-DF run using the following parameters:

     Nqs =      20    Nr_points =    1024   r_max =   100.000
     q_mesh =
               0.00001000     0.04494208     0.09755937     0.15916263
               0.23128650     0.31572767     0.41458969     0.53033537
               0.66584808     0.82450364     1.01025438     1.22772762
               1.48234092     1.78043706     2.12944203     2.53805004
               3.01644009     3.57652955     4.23227104     5.00000000

     Gradients computed in reciprocal space

[...]

     Starting wfc are  120 randomized atomic wfcs

     Self-consistent Calculation

[...]

     total energy              =   -1568.42035546 Ry
     Harris-Foulkes estimate   =   -1568.42035329 Ry
     estimated scf accuracy    <       0.00000160 Ry

     iteration # 20     ecut=    36.75 Ry     beta=0.10
     Davidson diagonalization with overlap
     ethr =  1.03E-09,  avg # of iterations =  2.0

[...]

     negative rho (up, down):  2.697E-03 0.000E+00

     Adding external electric field

     Computed dipole along edir(3) :
        Dipole                0.0399 Ry au,          0.1014 Debye
        Dipole field          0.0001 Ry au

        Potential amp.       -0.0080 Ry
        Total length         46.3236 bohr

     End of self-consistent calculation

[...]

          k = 0.0529 0.0000 0.0000 ( 21963 PWs)   bands (ev):

[...]

          k =-0.0794-0.1375 0.0000 ( 21884 PWs)   bands (ev):

   -54.7289 -54.6246 -54.5382 -30.8221 -30.6779 -30.6771 -30.6399 -30.6394
   -30.6390 -30.5745 -30.5736 -30.5255 -14.1996 -14.1084 -14.0825 -14.0703
   -14.0558 -14.0181 -14.0006 -13.9898 -13.9890 -13.9770 -13.9478 -13.9279
   -13.9167 -13.9102 -13.8904 -13.8872 -13.8600 -13.8566 -13.8469 -13.8296
   -13.8150 -13.8131 -13.8008 -13.7882 -13.7868 -13.7808 -13.7756 -13.7709
   -13.7666 -13.7440 -13.7397 -13.7221 -13.7127 -13.6969 -13.6956 -13.6877
   -13.6813 -13.6757 -13.6521 -13.6517 -13.6049 -13.6010 -13.5823 -13.5593
   -13.4803  -7.0601  -6.7005  -5.4470  -5.3748  -4.4493  -4.2050  -3.7105
    -2.9527  -2.4256  -1.8037  -1.4230  -1.0729  -0.6527  -0.4456  -0.3297
    -0.1878  -0.1094   0.2785   0.5130   0.9051   1.1136   1.3935   1.6083
     1.6558   1.7818   1.9460   2.0425   2.0986   2.4451   2.4820   3.2382
     3.2840   3.5045   3.6602   3.7798   4.0073   4.2240   4.3477   4.4443
     4.6144   4.9693   5.3279   5.4547   5.4806   5.6888   5.9107   5.9116
     6.0772   6.4572   6.4692   6.4868

     the Fermi energy is     1.0214 ev

!    total energy              =   -1568.42035996 Ry
     Harris-Foulkes estimate   =   -1568.42035593 Ry
     estimated scf accuracy    <       0.00000055 Ry

     The total energy is the sum of the following terms:

     one-electron contribution =  -10027.81897921 Ry
     hartree contribution      =    5071.37204193 Ry
     xc contribution           =    -409.29483358 Ry
     ewald contribution        =    3797.36825284 Ry
     electric field correction =       0.00000344 Ry
     smearing contrib. (-TS)   =      -0.04684537 Ry

     convergence has been achieved in  20 iterations

 BEEF-vdW xc energy contributions
           1 :   -357.608231334663
           2 :    326.921952846226
           3 :   -274.944332490164
           4 :    216.114441612038
           5 :   -163.804438995159
           6 :    125.464287854472
           7 :   -101.138553699943
           8 :    85.5402180520393
           9 :   -72.1240352702052
          10 :    56.7824939826067
          11 :   -39.3608777025358
          12 :    22.6258873720689
          13 :   -9.79466242421984
          14 :    2.32383489161350
          15 :   0.793525563230901
          16 :   -2.10041809799407
          17 :    3.97725246977097
          18 :   -7.34456840200005
          19 :    11.4748546517619
          20 :   -14.8277718492491
          21 :    16.2104709753149
          22 :   -15.5008975996174
          23 :    13.5739136782859
          24 :   -11.6328978491099
          25 :    10.4726291173678
          26 :   -10.1416978799601
          27 :    10.1239279790436
          28 :   -9.81320569126149
          29 :    8.92039409560311
          30 :   -7.58109723643963
          31 :   -33.6013938749884
          32 :   -24.6411208207780

     Forces acting on atoms (Ry/au):

     negative rho (up, down):  2.697E-03 0.000E+00
     atom    1 type  1   force =     0.00000022    0.00874589   -0.03180692
     atom    2 type  1   force =     0.00758009   -0.00438190   -0.03180325
     atom    3 type  1   force =    -0.00758002   -0.00438181   -0.03180325
     atom    4 type  2   force =     0.00000022    0.00000514    0.08747559
     atom    5 type  1   force =    -0.00000017   -0.01475299   -0.00138897
     atom    6 type  1   force =    -0.01277164    0.00736553   -0.00138261
     atom    7 type  1   force =     0.01277141    0.00736570   -0.00138257
     atom    8 type  2   force =    -0.00000020    0.00000635    0.01239978
     atom    9 type  1   force =     0.00000059    0.00005939    0.00050953
     atom   10 type  1   force =     0.00004506   -0.00001948    0.00050695
     atom   11 type  1   force =    -0.00004562   -0.00002086    0.00050822
     atom   12 type  2   force =     0.00000005    0.00000905   -0.00183250

     Total force =     0.108316     Total SCF correction =     0.002142

     entering subroutine stress ...

     negative rho (up, down):  2.697E-03 0.000E+00
          total   stress  (Ry/bohr**3)                   (kbar)     P=  -14.49
  -0.00014881  -0.00000000   0.00000000        -21.89     -0.00      0.00
  -0.00000000  -0.00014876  -0.00000001         -0.00    -21.88     -0.00
   0.00000000  -0.00000001   0.00000202          0.00     -0.00      0.30

 !ASE

     Writing output data file calc.save

     General routines

     Parallel routines

   This run was terminated on:  15: 9:53  26Dec2018

   JOB DONE.
Job  /afs/slac/g/suncat/bin/suncat-tsmpirun -x LD_LIBRARY_PATH -wdir /scratch/qe109880_matbw pw.x -in pw.inp

TID   HOST_NAME   COMMAND_LINE            STATUS            TERMINATION_TIME
00000 suncat0027 pw.x -in pw.inp   Done                     12/26/2018 15:09:53
00001 suncat0027 pw.x -in pw.inp   Done                     12/26/2018 15:09:53
00002 suncat0027 pw.x -in pw.inp   Done                     12/26/2018 15:09:53
00003 suncat0027 pw.x -in pw.inp   Done                     12/26/2018 15:09:53
00004 suncat0027 pw.x -in pw.inp   Done                     12/26/2018 15:09:53
00005 suncat0027 pw.x -in pw.inp   Done                     12/26/2018 15:09:53
00006 suncat0027 pw.x -in pw.inp   Done                     12/26/2018 15:09:53
00007 suncat0027 pw.x -in pw.inp   Done                     12/26/2018 15:09:53
00008 suncat0026 pw.x -in pw.inp   Done                     12/26/2018 15:09:53
00009 suncat0026 pw.x -in pw.inp   Done                     12/26/2018 15:09:53
00010 suncat0026 pw.x -in pw.inp   Done                     12/26/2018 15:09:53
00011 suncat0026 pw.x -in pw.inp   Done                     12/26/2018 15:09:53
00012 suncat0026 pw.x -in pw.inp   Done                     12/26/2018 15:09:53
00013 suncat0026 pw.x -in pw.inp   Done                     12/26/2018 15:09:53
00014 suncat0026 pw.x -in pw.inp   Done                     12/26/2018 15:09:53
00015 suncat0026 pw.x -in pw.inp   Done                     12/26/2018 15:09:53
00016 suncat0021 pw.x -in pw.inp   Done                     12/26/2018 15:09:53
00017 suncat0021 pw.x -in pw.inp   Done                     12/26/2018 15:09:53
00018 suncat0021 pw.x -in pw.inp   Done                     12/26/2018 15:09:53
00019 suncat0021 pw.x -in pw.inp   Done                     12/26/2018 15:09:53
00020 suncat0021 pw.x -in pw.inp   Done                     12/26/2018 15:09:53
00021 suncat0021 pw.x -in pw.inp   Done                     12/26/2018 15:09:53
00022 suncat0021 pw.x -in pw.inp   Done                     12/26/2018 15:09:53
00023 suncat0021 pw.x -in pw.inp   Done                     12/26/2018 15:09:53
00024 suncat0191 pw.x -in pw.inp   Done                     12/26/2018 15:09:53
00025 suncat0191 pw.x -in pw.inp   Done                     12/26/2018 15:09:53
00026 suncat0191 pw.x -in pw.inp   Done                     12/26/2018 15:09:53
00027 suncat0191 pw.x -in pw.inp   Done                     12/26/2018 15:09:53
00028 suncat0191 pw.x -in pw.inp   Done                     12/26/2018 15:09:53
00029 suncat0191 pw.x -in pw.inp   Done                     12/26/2018 15:09:53
00030 suncat0191 pw.x -in pw.inp   Done                     12/26/2018 15:09:53
00031 suncat0191 pw.x -in pw.inp   Done                     12/26/2018 15:09:53
00032 suncat0007 pw.x -in pw.inp   Done                     12/26/2018 15:09:53
00033 suncat0007 pw.x -in pw.inp   Done                     12/26/2018 15:09:53
00034 suncat0007 pw.x -in pw.inp   Done                     12/26/2018 15:09:53
00035 suncat0007 pw.x -in pw.inp   Done                     12/26/2018 15:09:53
00036 suncat0007 pw.x -in pw.inp   Done                     12/26/2018 15:09:53
00037 suncat0007 pw.x -in pw.inp   Done                     12/26/2018 15:09:53
00038 suncat0007 pw.x -in pw.inp   Done                     12/26/2018 15:09:53
00039 suncat0007 pw.x -in pw.inp   Done                     12/26/2018 15:09:53
00040 suncat0006 pw.x -in pw.inp   Done                     12/26/2018 15:09:53
00041 suncat0006 pw.x -in pw.inp   Done                     12/26/2018 15:09:53
00042 suncat0006 pw.x -in pw.inp   Done                     12/26/2018 15:09:53
00043 suncat0006 pw.x -in pw.inp   Done                     12/26/2018 15:09:53
00044 suncat0006 pw.x -in pw.inp   Done                     12/26/2018 15:09:53
00045 suncat0006 pw.x -in pw.inp   Done                     12/26/2018 15:09:53
00046 suncat0006 pw.x -in pw.inp   Done                     12/26/2018 15:09:53
00047 suncat0006 pw.x -in pw.inp   Done                     12/26/2018 15:09:53
00048 suncat0005 pw.x -in pw.inp   Done                     12/26/2018 15:09:53
00049 suncat0005 pw.x -in pw.inp   Done                     12/26/2018 15:09:53
00050 suncat0005 pw.x -in pw.inp   Done                     12/26/2018 15:09:53
00051 suncat0005 pw.x -in pw.inp   Done                     12/26/2018 15:09:53
00052 suncat0005 pw.x -in pw.inp   Done                     12/26/2018 15:09:53
00053 suncat0005 pw.x -in pw.inp   Done                     12/26/2018 15:09:53
00054 suncat0005 pw.x -in pw.inp   Done                     12/26/2018 15:09:53
00055 suncat0005 pw.x -in pw.inp   Done                     12/26/2018 15:09:53
00056 suncat0143 pw.x -in pw.inp   Done                     12/26/2018 15:09:53
00057 suncat0143 pw.x -in pw.inp   Done                     12/26/2018 15:09:53
00058 suncat0143 pw.x -in pw.inp   Done                     12/26/2018 15:09:53
00059 suncat0143 pw.x -in pw.inp   Done                     12/26/2018 15:09:53
00060 suncat0143 pw.x -in pw.inp   Done                     12/26/2018 15:09:53
00061 suncat0143 pw.x -in pw.inp   Done                     12/26/2018 15:09:53
00062 suncat0143 pw.x -in pw.inp   Done                     12/26/2018 15:09:53
00063 suncat0143 pw.x -in pw.inp   Done                     12/26/2018 15:09:53