     Program PWSCF v.5.1rc2 (svn rev. 11289) starts on 25Dec2018 at 11: 5:12

     Current dimensions of program PWSCF are:
     Max number of different atomic species (ntypx) = 10
     Max number of k-points (npk) =  40000
     Max angular momentum in pseudopotentials (lmaxx) =  3
     Presently stress not available with electric field

     IMPORTANT: XC functional enforced from input :
     Exchange-correlation      = BEEF-VDW ( 1  4 27 13 2)
     Any further DFT definition will be discarded
     Please, verify this is what you really want

     Subspace diagonalization in iterative solution of the eigenvalue problem:
     a serial algorithm will be used

     Generating pointlists ...
     new r_m :   0.4125 (alat units)  0.7795 (a.u.) for type    1
     new r_m :   0.4125 (alat units)  0.7795 (a.u.) for type    2

     bravais-lattice index     =            0
     lattice parameter (alat)  =       1.8897  a.u.
     unit-cell volume          =    3648.8924 (a.u.)^3
     number of atoms/cell      =           12
     number of atomic types    =            2
     number of electrons       =       171.00
     number of Kohn-Sham states=          115
     kinetic-energy cutoff     =      36.7493  Ry
     charge density cutoff     =     367.4932  Ry
     convergence threshold     =      1.0E-06
     mixing beta               =       0.1000
     number of iterations used =           10  plain     mixing
     Exchange-correlation      = BEEF-VDW ( 1  4 27 13 2)
     nstep                     =           50

     celldm(1)=   1.889726  celldm(2)=   0.000000  celldm(3)=   0.000000
     celldm(4)=   0.000000  celldm(5)=   0.000000  celldm(6)=   0.000000

     crystal axes: (cart. coord. in units of alat)
               a(1) = (   5.084466   0.000000   0.000000 )
               a(2) = (  -2.542233   4.403276   0.000000 )
               a(3) = (   0.000000   0.000000  24.151449 )

     reciprocal axes: (cart. coord. in units 2 pi/alat)
               b(1) = (  0.196678  0.113552  0.000000 )
               b(2) = (  0.000000  0.227104  0.000000 )
               b(3) = (  0.000000  0.000000  0.041405 )

     PseudoPot. # 1 for Cr read from file:
     /afs/slac.stanford.edu/u/if/mamunm/psp/gbrv1.5pbe/Cr.UPF
     MD5 check sum: 0d52af634a40206e4dee301ad30da4bf
     Pseudo is Ultrasoft + core correction, Zval = 14.0
     Generated by new atomic code, or converted to UPF format
     Using radial grid of  857 points,  6 beta functions with:
                l(1) =   0
                l(2) =   0
                l(3) =   1
                l(4) =   1
                l(5) =   2
                l(6) =   2
     Q(r) pseudized with  8 coefficients,  rinner =    0.950   0.950   0.950
                                                       0.950   0.950

     PseudoPot. # 2 for Mn read from file:
     /afs/slac.stanford.edu/u/if/mamunm/psp/gbrv1.5pbe/Mn.UPF
     MD5 check sum: 82ef2b46521d7a7d9e736dc3972e4928
     Pseudo is Ultrasoft + core correction, Zval = 15.0
     Generated by new atomic code, or converted to UPF format
     Using radial grid of  859 points,  6 beta functions with:
                l(1) =   0
                l(2) =   0
                l(3) =   1
                l(4) =   1
                l(5) =   2
                l(6) =   2
     Q(r) pseudized with  8 coefficients,  rinner =    0.950   0.950   0.950
                                                       0.950   0.950

     vdW kernel table read from file vdW_kernel_table
     MD5 check sum: 095c7af220d748ca6e76c0b4c6cfb241

     atomic species   valence    mass     pseudopotential
        Cr1           14.00    51.99610     Cr( 1.00)
        Mn1           15.00    54.93804     Mn( 1.00)

     Starting magnetic structure
     atomic species   magnetization
        Cr1          0.143
        Mn1          0.133

     No symmetry found

   Cartesian axes

     site n.     atom                  positions (alat units)
         1           Cr1 tau(   1) = (   0.0000000   0.0000000  10.0000000  )
         2           Cr1 tau(   2) = (  -1.2711164   2.2016382  10.0000000  )
         3           Cr1 tau(   3) = (   1.2711164   2.2016382  10.0000000  )
         4           Mn1 tau(   4) = (   2.5422328   0.0000000  10.0000000  )
         5           Cr1 tau(   5) = (   2.5422328   1.4677588  12.0757244  )
         6           Cr1 tau(   6) = (   1.2711164   3.6693970  12.0757244  )
         7           Cr1 tau(   7) = (  -1.2711164   3.6693970  12.0757244  )
         8           Mn1 tau(   8) = (   0.0000000   1.4677588  12.0757244  )
         9           Cr1 tau(   9) = (  -0.0000000   2.9355176  14.1514488  )
        10           Cr1 tau(  10) = (   1.2711164   0.7338794  14.1514488  )
        11           Cr1 tau(  11) = (   3.8133492   0.7338794  14.1514488  )
        12           Mn1 tau(  12) = (   2.5422328   2.9355176  14.1514488  )

     number of k points=    40  Fermi-Dirac smearing, width (Ry)=  0.0110
                       cart. coord. in units 2pi/alat
        k(    1) = (   0.0000000   0.0000000   0.0000000), wk =   0.0277778
        k(    2) = (   0.0000000   0.0378506   0.0000000), wk =   0.0555556
        k(    3) = (   0.0000000   0.0757012   0.0000000), wk =   0.0555556
        k(    4) = (   0.0000000  -0.1135518   0.0000000), wk =   0.0277778
        k(    5) = (   0.0327796   0.0189253   0.0000000), wk =   0.0555556
        k(    6) = (   0.0327796   0.0567759   0.0000000), wk =   0.0555556
        k(    7) = (   0.0327796   0.0946265   0.0000000), wk =   0.0555556
        k(    8) = (   0.0327796  -0.0946265   0.0000000), wk =   0.0555556
        k(    9) = (   0.0327796  -0.0567759   0.0000000), wk =   0.0555556
        k(   10) = (   0.0327796  -0.0189253   0.0000000), wk =   0.0555556
        k(   11) = (   0.0655592   0.0378506   0.0000000), wk =   0.0555556
        k(   12) = (   0.0655592   0.0757012   0.0000000), wk =   0.0555556
        k(   13) = (   0.0655592   0.1135518   0.0000000), wk =   0.0555556
        k(   14) = (   0.0655592  -0.0757012   0.0000000), wk =   0.0555556
        k(   15) = (   0.0655592  -0.0378506   0.0000000), wk =   0.0555556
        k(   16) = (   0.0655592   0.0000000   0.0000000), wk =   0.0555556
        k(   17) = (  -0.0983388  -0.0567759   0.0000000), wk =   0.0277778
        k(   18) = (  -0.0983388  -0.0189253   0.0000000), wk =   0.0555556
        k(   19) = (  -0.0983388   0.0189253   0.0000000), wk =   0.0555556
        k(   20) = (  -0.0983388  -0.1703277   0.0000000), wk =   0.0277778
        k(   21) = (   0.0000000   0.0000000   0.0000000), wk =   0.0277778
        k(   22) = (   0.0000000   0.0378506   0.0000000), wk =   0.0555556
        k(   23) = (   0.0000000   0.0757012   0.0000000), wk =   0.0555556
        k(   24) = (   0.0000000  -0.1135518   0.0000000), wk =   0.0277778
        k(   25) = (   0.0327796   0.0189253   0.0000000), wk =   0.0555556
        k(   26) = (   0.0327796   0.0567759   0.0000000), wk =   0.0555556
        k(   27) = (   0.0327796   0.0946265   0.0000000), wk =   0.0555556
        k(   28) = (   0.0327796  -0.0946265   0.0000000), wk =   0.0555556
        k(   29) = (   0.0327796  -0.0567759   0.0000000), wk =   0.0555556
        k(   30) = (   0.0327796  -0.0189253   0.0000000), wk =   0.0555556
        k(   31) = (   0.0655592   0.0378506   0.0000000), wk =   0.0555556
        k(   32) = (   0.0655592   0.0757012   0.0000000), wk =   0.0555556
        k(   33) = (   0.0655592   0.1135518   0.0000000), wk =   0.0555556
        k(   34) = (   0.0655592  -0.0757012   0.0000000), wk =   0.0555556
        k(   35) = (   0.0655592  -0.0378506   0.0000000), wk =   0.0555556
        k(   36) = (   0.0655592   0.0000000   0.0000000), wk =   0.0555556
        k(   37) = (  -0.0983388  -0.0567759   0.0000000), wk =   0.0277778
        k(   38) = (  -0.0983388  -0.0189253   0.0000000), wk =   0.0555556
        k(   39) = (  -0.0983388   0.0189253   0.0000000), wk =   0.0555556
        k(   40) = (  -0.0983388  -0.1703277   0.0000000), wk =   0.0277778

     Largest allocated arrays     est. size (Mb)     dimensions
     Largest temporary arrays     est. size (Mb)     dimensions

     Check: negative/imaginary core charge=   -0.000006    0.000000

     Initial potential from superposition of free atoms
     Check: negative starting charge=(component1):   -0.006324
     Check: negative starting charge=(component2):   -0.004752

     starting charge  160.49961, renormalised to  171.00000

     negative rho (up, down):  6.737E-03 5.062E-03

     *
     * You are using vdW-DF for exchange-correlation in this calculation.
     * Please cite the following three references that made this development
     * possible:
     *
     *   M. Dion, H. Rydberg, E. Schroder, D. C. Langreth, and
     *   B. I. Lundqvist, Phys. Rev. Lett. 92, 246401 (2004).
     *
     *   T. Thonhauser, V. R. Cooper, S. Li, A. Puzder, P. Hyldgaard, and
     *   D. C. Langreth, Phys. Rev. B 76, 125112 (2007).
     *
     *   G. Roman-Perez and J. M. Soler, Phys. Rev. Lett. 103, 096102 (2009).
     *
     *
     * If you are using vdW-DF2, please also cite:
     *
     *   K. Lee, E. D. Murray, L. Kong, B. I. Lundqvist, and
     *   D. C. Langreth, Phys. Rev. B 82, 081101(R) (2010).
     *
     *
     * If you are calculating the stress with vdW-DF, please also cite:
     *
     *   R. Sabatini, E. Kucukbenli, B. Kolb, T. Thonhauser, and
     *   S. de Gironcoli, J. Phys.: Condens. Matter 24, 424209 (2012).
     *

     Carrying out vdW-DF run using the following parameters:

     Nqs =      20    Nr_points =    1024   r_max =   100.000
     q_mesh =
               0.00001000     0.04494208     0.09755937     0.15916263
               0.23128650     0.31572767     0.41458969     0.53033537
               0.66584808     0.82450364     1.01025438     1.22772762
               1.48234092     1.78043706     2.12944203     2.53805004
               3.01644009     3.57652955     4.23227104     5.00000000

     Gradients computed in reciprocal space

     Adding external electric field

     Computed dipole along edir(3) :
        Dipole                0.0000 Ry au,          0.0000 Debye
        Dipole field          0.0000 Ry au

        Potential amp.       -0.0000 Ry
        Total length         44.4986 bohr

[...]

     Starting wfc are  129 randomized atomic wfcs

     Self-consistent Calculation

     iteration #  1     ecut=    36.75 Ry     beta=0.10
     Davidson diagonalization with overlap
     ethr =  1.00E-02,  avg # of iterations =  6.6

[...]

     Magnetic moment per site:
     atom:    1    charge:    5.1726    magn:    0.7027    constr:    0.0000
     atom:    2    charge:    5.1726    magn:    0.7027    constr:    0.0000
     atom:    3    charge:    5.1726    magn:    0.7027    constr:    0.0000
     atom:    4    charge:    6.1494    magn:    0.7736    constr:    0.0000
     atom:    5    charge:    5.1825    magn:    0.7071    constr:    0.0000
     atom:    6    charge:    5.1825    magn:    0.7071    constr:    0.0000
     atom:    7    charge:    5.1825    magn:    0.7071    constr:    0.0000
     atom:    8    charge:    6.1609    magn:    0.7756    constr:    0.0000
[...]
        k(    2) = (   0.0000000   0.0378506   0.0000000), wk =   0.0555556
        k(    3) = (   0.0000000   0.0757012   0.0000000), wk =   0.0555556
        k(    4) = (   0.0000000  -0.1135518   0.0000000), wk =   0.0277778
        k(    5) = (   0.0327796   0.0189253   0.0000000), wk =   0.0555556
        k(    6) = (   0.0327796   0.0567759   0.0000000), wk =   0.0555556
        k(    7) = (   0.0327796   0.0946265   0.0000000), wk =   0.0555556
        k(    8) = (   0.0327796  -0.0946265   0.0000000), wk =   0.0555556
        k(    9) = (   0.0327796  -0.0567759   0.0000000), wk =   0.0555556
        k(   10) = (   0.0327796  -0.0189253   0.0000000), wk =   0.0555556
        k(   11) = (   0.0655592   0.0378506   0.0000000), wk =   0.0555556
        k(   12) = (   0.0655592   0.0757012   0.0000000), wk =   0.0555556
        k(   13) = (   0.0655592   0.1135518   0.0000000), wk =   0.0555556
        k(   14) = (   0.0655592  -0.0757012   0.0000000), wk =   0.0555556
        k(   15) = (   0.0655592  -0.0378506   0.0000000), wk =   0.0555556
        k(   16) = (   0.0655592   0.0000000   0.0000000), wk =   0.0555556
        k(   17) = (  -0.0983388  -0.0567759   0.0000000), wk =   0.0277778
        k(   18) = (  -0.0983388  -0.0189253   0.0000000), wk =   0.0555556
        k(   19) = (  -0.0983388   0.0189253   0.0000000), wk =   0.0555556
        k(   20) = (  -0.0983388  -0.1703277   0.0000000), wk =   0.0277778
        k(   21) = (   0.0000000   0.0000000   0.0000000), wk =   0.0277778
        k(   22) = (   0.0000000   0.0378506   0.0000000), wk =   0.0555556
        k(   23) = (   0.0000000   0.0757012   0.0000000), wk =   0.0555556
        k(   24) = (   0.0000000  -0.1135518   0.0000000), wk =   0.0277778
        k(   25) = (   0.0327796   0.0189253   0.0000000), wk =   0.0555556
        k(   26) = (   0.0327796   0.0567759   0.0000000), wk =   0.0555556
        k(   27) = (   0.0327796   0.0946265   0.0000000), wk =   0.0555556
        k(   28) = (   0.0327796  -0.0946265   0.0000000), wk =   0.0555556
        k(   29) = (   0.0327796  -0.0567759   0.0000000), wk =   0.0555556
        k(   30) = (   0.0327796  -0.0189253   0.0000000), wk =   0.0555556
        k(   31) = (   0.0655592   0.0378506   0.0000000), wk =   0.0555556
        k(   32) = (   0.0655592   0.0757012   0.0000000), wk =   0.0555556
        k(   33) = (   0.0655592   0.1135518   0.0000000), wk =   0.0555556
        k(   34) = (   0.0655592  -0.0757012   0.0000000), wk =   0.0555556
        k(   35) = (   0.0655592  -0.0378506   0.0000000), wk =   0.0555556
        k(   36) = (   0.0655592   0.0000000   0.0000000), wk =   0.0555556
        k(   37) = (  -0.0983388  -0.0567759   0.0000000), wk =   0.0277778
        k(   38) = (  -0.0983388  -0.0189253   0.0000000), wk =   0.0555556
        k(   39) = (  -0.0983388   0.0189253   0.0000000), wk =   0.0555556
        k(   40) = (  -0.0983388  -0.1703277   0.0000000), wk =   0.0277778

     Largest allocated arrays     est. size (Mb)     dimensions
     Largest temporary arrays     est. size (Mb)     dimensions

     Check: negative/imaginary core charge=   -0.000006    0.000000

     Initial potential from superposition of free atoms
     Check: negative starting charge=(component1):   -0.006603
     Check: negative starting charge=(component2):   -0.004961

     starting charge  160.49961, renormalised to  171.00000

[...]

     *
     * You are using vdW-DF for exchange-correlation in this calculation.
     * Please cite the following three references that made this development
     * possible:
     *
     *   M. Dion, H. Rydberg, E. Schroder, D. C. Langreth, and
     *   B. I. Lundqvist, Phys. Rev. Lett. 92, 246401 (2004).
     *
     *   T. Thonhauser, V. R. Cooper, S. Li, A. Puzder, P. Hyldgaard, and
     *   D. C. Langreth, Phys. Rev. B 76, 125112 (2007).
     *
     *   G. Roman-Perez and J. M. Soler, Phys. Rev. Lett. 103, 096102 (2009).
     *
     *
     * If you are using vdW-DF2, please also cite:
     *
     *   K. Lee, E. D. Murray, L. Kong, B. I. Lundqvist, and
     *   D. C. Langreth, Phys. Rev. B 82, 081101(R) (2010).
     *
     *
     * If you are calculating the stress with vdW-DF, please also cite:
     *
     *   R. Sabatini, E. Kucukbenli, B. Kolb, T. Thonhauser, and
     *   S. de Gironcoli, J. Phys.: Condens. Matter 24, 424209 (2012).
     *

     Carrying out vdW-DF run using the following parameters:

     Nqs =      20    Nr_points =    1024   r_max =   100.000
     q_mesh =
               0.00001000     0.04494208     0.09755937     0.15916263
               0.23128650     0.31572767     0.41458969     0.53033537
               0.66584808     0.82450364     1.01025438     1.22772762
               1.48234092     1.78043706     2.12944203     2.53805004
               3.01644009     3.57652955     4.23227104     5.00000000

     Gradients computed in reciprocal space

[...]

     Starting wfc are  129 randomized atomic wfcs

     Self-consistent Calculation

[...]

     total energy              =   -2222.48363243 Ry
     Harris-Foulkes estimate   =   -2222.48364957 Ry
     estimated scf accuracy    <       0.00000108 Ry

[...]

     iteration #138     ecut=    36.75 Ry     beta=0.10
     Davidson diagonalization with overlap
     ethr =  6.14E-10,  avg # of iterations =  4.0

[...]

     negative rho (up, down):  8.074E-03 4.341E-03

[...]

     Adding external electric field

     Computed dipole along edir(3) :
        Dipole                0.0092 Ry au,          0.0235 Debye
        Dipole field          0.0000 Ry au

        Potential amp.       -0.0028 Ry
        Total length         44.4986 bohr

     Magnetic moment per site:
     atom:    1    charge:    4.9514    magn:   -0.3554    constr:    0.0000
     atom:    2    charge:    4.9514    magn:   -0.3569    constr:    0.0000
     atom:    3    charge:    4.9514    magn:   -0.3562    constr:    0.0000
     atom:    4    charge:    5.9882    magn:    0.9828    constr:    0.0000
     atom:    5    charge:    4.9466    magn:    0.0799    constr:    0.0000
     atom:    6    charge:    4.9466    magn:    0.0800    constr:    0.0000
     atom:    7    charge:    4.9466    magn:    0.0799    constr:    0.0000
     atom:    8    charge:    5.9730    magn:    0.0745    constr:    0.0000
     atom:    9    charge:    4.9532    magn:   -0.3457    constr:    0.0000
     atom:   10    charge:    4.9531    magn:   -0.3437    constr:    0.0000
     atom:   11    charge:    4.9531    magn:   -0.3455    constr:    0.0000
     atom:   12    charge:    5.9953    magn:    1.1413    constr:    0.0000

     End of self-consistent calculation

 ------ SPIN UP ------------

[...]

 ------ SPIN DOWN ----------

[...]

          k = 0.0656 0.0000 0.0000 ( 13743 PWs)   bands (ev):

[...]

          k =-0.0983-0.1703 0.0000 ( 13722 PWs)   bands (ev):

   -77.8440 -76.4508 -76.2367 -70.8460 -70.8166 -70.8073 -70.7840 -70.7733
   -70.7445 -70.2799 -70.2500 -70.2199 -46.5896 -46.5808 -46.5748 -45.2505
   -45.2401 -45.2016 -45.0577 -45.0479 -44.9476 -42.3161 -42.2860 -42.2753
   -42.2534 -42.2263 -42.2200 -42.1884 -42.1771 -42.1260 -42.1174 -42.0918
   -42.0911 -42.0835 -42.0592 -42.0239 -41.9964 -41.8254 -41.8061 -41.7821
   -41.6425 -41.5545 -41.5536 -41.4996 -41.4720 -41.4550 -41.4495 -41.3344
    -3.8434  -3.7993  -2.5068  -2.4897  -1.9316  -1.8554  -1.7397  -1.7221
    -1.6770  -1.4903  -1.1515  -1.1096  -1.0196  -0.9259  -0.8664  -0.7897
    -0.6229  -0.5812  -0.4879  -0.3219  -0.2198  -0.1912  -0.1750  -0.0138
     0.0373   0.1489   0.1513   0.2270   0.2349   0.3730   0.4438   0.5804
     0.5892   0.5963   0.6410   0.9225   0.9737   1.0584   1.4482   1.4610
     1.5405   1.5666   1.6136   1.7165   1.8059   1.9708   1.9982   2.0887
     2.1691   2.1854   2.3744   2.4299   2.5104   2.6087   2.6640   2.7290
     2.7784   2.8685   2.8943   3.2308   3.3073   3.4639   3.4889   3.6659
     4.1450   4.2117   5.2523

     the Fermi energy is     1.2384 ev

!    total energy              =   -2222.48364479 Ry
     Harris-Foulkes estimate   =   -2222.48364403 Ry
     estimated scf accuracy    <       0.00000097 Ry

     The total energy is the sum of the following terms:

     one-electron contribution =  -20543.45234070 Ry
     hartree contribution      =   10264.45577235 Ry
     xc contribution           =    -292.29758935 Ry
     ewald contribution        =    8348.92905350 Ry
     electric field correction =       0.00000029 Ry
     smearing contrib. (-TS)   =      -0.11854088 Ry

     total magnetization       =    -0.40 Bohr mag/cell
     absolute magnetization    =    13.41 Bohr mag/cell

     convergence has been achieved in 138 iterations

 BEEF-vdW xc energy contributions
           1 :   -253.730146382009
           2 :    228.851934933571
           3 :   -187.232936099803
           4 :    141.246756030197
           5 :   -102.113500130999
           6 :    75.8473840703889
           7 :   -62.2314535726592
           8 :    56.6867515695697
           9 :   -53.5592113706967
          10 :    48.9906819587198
          11 :   -42.1401490693863
          12 :    34.5580388957009
          13 :   -28.4763351129657
          14 :    25.1762167648016
          15 :   -24.3259925466110
          16 :    24.4484815374306
          17 :   -23.9992082337932
          18 :    22.2804164256385
          19 :   -19.6768832539244
          20 :    17.1975307559952
          21 :   -15.7255541565183
          22 :    15.4734520598839
          23 :   -15.9365454946744
          24 :    16.2911669862055
          25 :   -15.9329834767432
          26 :    14.8080029573526
          27 :   -13.3666886416606
          28 :    12.2175611971159
          29 :   -11.7319436401481
          30 :    11.8440681011509
          31 :   -24.4650682899466
          32 :   -17.5540341587322

     Forces acting on atoms (Ry/au):

     negative rho (up, down):  8.074E-03 4.341E-03
     atom    1 type  1   force =     0.00000106    0.00568851    0.00922703
     atom    2 type  1   force =     0.00492172   -0.00284293    0.00918389
     atom    3 type  1   force =    -0.00492345   -0.00284505    0.00919615
     atom    4 type  2   force =     0.00000123   -0.00000340   -0.02916668
     atom    5 type  1   force =     0.00000957    0.01375371    0.00696273
     atom    6 type  1   force =     0.01190931   -0.00686713    0.00697591
     atom    7 type  1   force =    -0.01191122   -0.00687918    0.00694958
     atom    8 type  2   force =    -0.00001063   -0.00000091   -0.01616516
     atom    9 type  1   force =     0.00000179   -0.00014006   -0.00095949
     atom   10 type  1   force =    -0.00012088    0.00007233   -0.00101055
     atom   11 type  1   force =     0.00011856    0.00006881   -0.00097576
     atom   12 type  2   force =     0.00000293   -0.00000468   -0.00021765

     Total force =     0.046678     Total SCF correction =     0.000851

     entering subroutine stress ...

     negative rho (up, down):  8.074E-03 4.341E-03
          total   stress  (Ry/bohr**3)                   (kbar)     P=   -8.33
  -0.00007891   0.00000002   0.00000000        -11.61      0.00      0.00
   0.00000002  -0.00007893  -0.00000000          0.00    -11.61     -0.00
   0.00000000  -0.00000000  -0.00001206          0.00     -0.00     -1.77

 !ASE

     Writing output data file calc.save

     General routines

     Parallel routines

   This run was terminated on:   8:57: 2  26Dec2018

   JOB DONE.
Job  /afs/slac/g/suncat/bin/suncat-tsmpirun -x LD_LIBRARY_PATH -wdir /scratch/qe109515_pyTjh pw.x -in pw.inp

TID   HOST_NAME   COMMAND_LINE            STATUS            TERMINATION_TIME
00000 suncat0079 pw.x -in pw.inp   Done                     12/26/2018 08:57:02
00001 suncat0079 pw.x -in pw.inp   Done                     12/26/2018 08:57:02
00002 suncat0079 pw.x -in pw.inp   Done                     12/26/2018 08:57:02
00003 suncat0079 pw.x -in pw.inp   Done                     12/26/2018 08:57:02
00004 suncat0079 pw.x -in pw.inp   Done                     12/26/2018 08:57:02
00005 suncat0079 pw.x -in pw.inp   Done                     12/26/2018 08:57:02
00006 suncat0079 pw.x -in pw.inp   Done                     12/26/2018 08:57:02
00007 suncat0079 pw.x -in pw.inp   Done                     12/26/2018 08:57:02
00008 suncat0054 pw.x -in pw.inp   Done                     12/26/2018 08:57:02
00009 suncat0054 pw.x -in pw.inp   Done                     12/26/2018 08:57:02
00010 suncat0054 pw.x -in pw.inp   Done                     12/26/2018 08:57:02
00011 suncat0054 pw.x -in pw.inp   Done                     12/26/2018 08:57:02
00012 suncat0054 pw.x -in pw.inp   Done                     12/26/2018 08:57:02
00013 suncat0054 pw.x -in pw.inp   Done                     12/26/2018 08:57:02
00014 suncat0054 pw.x -in pw.inp   Done                     12/26/2018 08:57:02
00015 suncat0054 pw.x -in pw.inp   Done                     12/26/2018 08:57:02
00016 suncat0007 pw.x -in pw.inp   Done                     12/26/2018 08:57:02
00017 suncat0007 pw.x -in pw.inp   Done                     12/26/2018 08:57:02
00018 suncat0007 pw.x -in pw.inp   Done                     12/26/2018 08:57:02
00019 suncat0007 pw.x -in pw.inp   Done                     12/26/2018 08:57:02
00020 suncat0007 pw.x -in pw.inp   Done                     12/26/2018 08:57:02
00021 suncat0007 pw.x -in pw.inp   Done                     12/26/2018 08:57:02
00022 suncat0007 pw.x -in pw.inp   Done                     12/26/2018 08:57:02
00023 suncat0007 pw.x -in pw.inp   Done                     12/26/2018 08:57:02
00024 suncat0006 pw.x -in pw.inp   Done                     12/26/2018 08:57:02
00025 suncat0006 pw.x -in pw.inp   Done                     12/26/2018 08:57:02
00026 suncat0006 pw.x -in pw.inp   Done                     12/26/2018 08:57:02
00027 suncat0006 pw.x -in pw.inp   Done                     12/26/2018 08:57:02
00028 suncat0006 pw.x -in pw.inp   Done                     12/26/2018 08:57:02
00029 suncat0006 pw.x -in pw.inp   Done                     12/26/2018 08:57:02
00030 suncat0006 pw.x -in pw.inp   Done                     12/26/2018 08:57:02
00031 suncat0006 pw.x -in pw.inp   Done                     12/26/2018 08:57:02
00032 suncat0005 pw.x -in pw.inp   Done                     12/26/2018 08:57:02
00033 suncat0005 pw.x -in pw.inp   Done                     12/26/2018 08:57:02
00034 suncat0005 pw.x -in pw.inp   Done                     12/26/2018 08:57:02
00035 suncat0005 pw.x -in pw.inp   Done                     12/26/2018 08:57:02
00036 suncat0005 pw.x -in pw.inp   Done                     12/26/2018 08:57:02
00037 suncat0005 pw.x -in pw.inp   Done                     12/26/2018 08:57:02
00038 suncat0005 pw.x -in pw.inp   Done                     12/26/2018 08:57:02
00039 suncat0005 pw.x -in pw.inp   Done                     12/26/2018 08:57:02
00040 suncat0262 pw.x -in pw.inp   Done                     12/26/2018 08:57:02
00041 suncat0262 pw.x -in pw.inp   Done                     12/26/2018 08:57:02
00042 suncat0262 pw.x -in pw.inp   Done                     12/26/2018 08:57:02
00043 suncat0262 pw.x -in pw.inp   Done                     12/26/2018 08:57:02
00044 suncat0262 pw.x -in pw.inp   Done                     12/26/2018 08:57:02
00045 suncat0262 pw.x -in pw.inp   Done                     12/26/2018 08:57:02
00046 suncat0262 pw.x -in pw.inp   Done                     12/26/2018 08:57:02
00047 suncat0262 pw.x -in pw.inp   Done                     12/26/2018 08:57:02
00048 suncat0258 pw.x -in pw.inp   Done                     12/26/2018 08:57:02
00049 suncat0258 pw.x -in pw.inp   Done                     12/26/2018 08:57:02
00050 suncat0258 pw.x -in pw.inp   Done                     12/26/2018 08:57:02
00051 suncat0258 pw.x -in pw.inp   Done                     12/26/2018 08:57:02
00052 suncat0258 pw.x -in pw.inp   Done                     12/26/2018 08:57:02
00053 suncat0258 pw.x -in pw.inp   Done                     12/26/2018 08:57:02
00054 suncat0258 pw.x -in pw.inp   Done                     12/26/2018 08:57:02
00055 suncat0258 pw.x -in pw.inp   Done                     12/26/2018 08:57:02
00056 suncat0257 pw.x -in pw.inp   Done                     12/26/2018 08:57:02
00057 suncat0257 pw.x -in pw.inp   Done                     12/26/2018 08:57:02
00058 suncat0257 pw.x -in pw.inp   Done                     12/26/2018 08:57:02
00059 suncat0257 pw.x -in pw.inp   Done                     12/26/2018 08:57:02
00060 suncat0257 pw.x -in pw.inp   Done                     12/26/2018 08:57:02
00061 suncat0257 pw.x -in pw.inp   Done                     12/26/2018 08:57:02
00062 suncat0257 pw.x -in pw.inp   Done                     12/26/2018 08:57:02
00063 suncat0257 pw.x -in pw.inp   Done                     12/26/2018 08:57:02