     Program PWSCF v.5.1rc2 (svn rev. 11289) starts on  1Jan2019 at 23:40:37

     Current dimensions of program PWSCF are:
     Max number of different atomic species (ntypx) = 10
     Max number of k-points (npk) =  40000
     Max angular momentum in pseudopotentials (lmaxx) =  3
     Presently stress not available with electric field

     IMPORTANT: XC functional enforced from input :
     Exchange-correlation      = BEEF-VDW ( 1  4 27 13 2)
     Any further DFT definition will be discarded
     Please, verify this is what you really want

     Subspace diagonalization in iterative solution of the eigenvalue problem:
     a serial algorithm will be used

     bravais-lattice index     =            0
     lattice parameter (alat)  =       1.8897  a.u.
     unit-cell volume          =    5046.1875 (a.u.)^3
     number of atoms/cell      =           12
     number of atomic types    =            2
     number of electrons       =       150.00
     number of Kohn-Sham states=          105
     kinetic-energy cutoff     =      36.7493  Ry
     charge density cutoff     =     367.4932  Ry
     convergence threshold     =      1.0E-06
     mixing beta               =       0.1000
     number of iterations used =           10  plain     mixing
     Exchange-correlation      = BEEF-VDW ( 1  4 27 13 2)
     nstep                     =           50

     celldm(1)=   1.889726  celldm(2)=   0.000000  celldm(3)=   0.000000
     celldm(4)=   0.000000  celldm(5)=   0.000000  celldm(6)=   0.000000

     crystal axes: (cart. coord. in units of alat)
               a(1) = (   5.898620   0.000000   0.000000 )
               a(2) = (  -2.949310   5.108355   0.000000 )
               a(3) = (   0.000000   0.000000  24.816203 )

     reciprocal axes: (cart. coord. in units 2 pi/alat)
               b(1) = (  0.169531  0.097879  0.000000 )
               b(2) = (  0.000000  0.195758  0.000000 )
               b(3) = (  0.000000  0.000000  0.040296 )

     PseudoPot. # 1 for Ti read from file:
     /afs/slac.stanford.edu/u/if/mamunm/psp/gbrv1.5pbe/Ti.UPF
     MD5 check sum: 88a00a6731bd790ddea75d31a80cb452
     Pseudo is Ultrasoft + core correction, Zval = 12.0
     Generated by new atomic code, or converted to UPF format
     Using radial grid of  851 points,  6 beta functions with:
                l(1) =   0
                l(2) =   0
                l(3) =   1
                l(4) =   1
                l(5) =   2
                l(6) =   2
     Q(r) pseudized with  6 coefficients,  rinner =    1.000   1.000   1.000
                                                       1.000   1.000

     PseudoPot. # 2 for Sn read from file:
     /afs/slac.stanford.edu/u/if/mamunm/psp/gbrv1.5pbe/Sn.UPF
     MD5 check sum: 469debedee59599fedebd795477fea03
     Pseudo is Ultrasoft + core correction, Zval = 14.0
     Generated by new atomic code, or converted to UPF format
     Using radial grid of  891 points,  6 beta functions with:
                l(1) =   0
                l(2) =   0
                l(3) =   1
                l(4) =   1
                l(5) =   2
                l(6) =   2
     Q(r) pseudized with  8 coefficients,  rinner =    1.350   1.350   1.350
                                                       1.350   1.350

     vdW kernel table read from file vdW_kernel_table
     MD5 check sum: 095c7af220d748ca6e76c0b4c6cfb241

     atomic species   valence    mass     pseudopotential
        Ti1           12.00    47.86700     Ti( 1.00)
        Sn1           14.00   118.71000     Sn( 1.00)

     No symmetry found

   Cartesian axes

     site n.     atom                  positions (alat units)
         1           Ti1 tau(   1) = (   0.0000000   0.0000000  10.0000000  )
         2           Ti1 tau(   2) = (  -1.4746550   2.5541773  10.0000000  )
         3           Ti1 tau(   3) = (   1.4746550   2.5541773  10.0000000  )
         4           Sn1 tau(   4) = (   2.9493099   0.0000000  10.0000000  )
         5           Ti1 tau(   5) = (   2.9493099   1.7027849  12.4081015  )
         6           Ti1 tau(   6) = (   1.4746550   4.2569622  12.4081015  )
         7           Ti1 tau(   7) = (  -1.4746550   4.2569622  12.4081015  )
         8           Sn1 tau(   8) = (   0.0000000   1.7027849  12.4081015  )
         9           Ti1 tau(   9) = (  -0.0000000   3.4055698  14.8162030  )
        10           Ti1 tau(  10) = (   1.4746550   0.8513924  14.8162030  )
        11           Ti1 tau(  11) = (   4.4239649   0.8513924  14.8162030  )
        12           Sn1 tau(  12) = (   2.9493099   3.4055698  14.8162030  )

     number of k points=    20  Fermi-Dirac smearing, width (Ry)=  0.0110
                       cart. coord. in units 2pi/alat
        k(    1) = (   0.0000000   0.0000000   0.0000000), wk =   0.0555556
        k(    2) = (   0.0000000   0.0326263   0.0000000), wk =   0.1111111
        k(    3) = (   0.0000000   0.0652526   0.0000000), wk =   0.1111111
        k(    4) = (   0.0000000  -0.0978789   0.0000000), wk =   0.0555556
        k(    5) = (   0.0282552   0.0163131   0.0000000), wk =   0.1111111
        k(    6) = (   0.0282552   0.0489394   0.0000000), wk =   0.1111111
        k(    7) = (   0.0282552   0.0815657   0.0000000), wk =   0.1111111
        k(    8) = (   0.0282552  -0.0815657   0.0000000), wk =   0.1111111
        k(    9) = (   0.0282552  -0.0489394   0.0000000), wk =   0.1111111
        k(   10) = (   0.0282552  -0.0163131   0.0000000), wk =   0.1111111
        k(   11) = (   0.0565104   0.0326263   0.0000000), wk =   0.1111111
        k(   12) = (   0.0565104   0.0652526   0.0000000), wk =   0.1111111
        k(   13) = (   0.0565104   0.0978789   0.0000000), wk =   0.1111111
        k(   14) = (   0.0565104  -0.0652526   0.0000000), wk =   0.1111111
        k(   15) = (   0.0565104  -0.0326263   0.0000000), wk =   0.1111111
        k(   16) = (   0.0565104   0.0000000   0.0000000), wk =   0.1111111
        k(   17) = (  -0.0847656  -0.0489394   0.0000000), wk =   0.0555556
        k(   18) = (  -0.0847656  -0.0163131   0.0000000), wk =   0.1111111
        k(   19) = (  -0.0847656   0.0163131   0.0000000), wk =   0.1111111
        k(   20) = (  -0.0847656  -0.1468183   0.0000000), wk =   0.0555556

     Largest allocated arrays     est. size (Mb)     dimensions
     Largest temporary arrays     est. size (Mb)     dimensions

     Check: negative/imaginary core charge=   -0.000005    0.000000

     Initial potential from superposition of free atoms
     Check: negative starting charge=   -0.008251

     starting charge  137.99947, renormalised to  150.00000

     negative rho (up, down):  8.968E-03 0.000E+00

     *
     * You are using vdW-DF for exchange-correlation in this calculation.
     * Please cite the following three references that made this development
     * possible:
     *
     *   M. Dion, H. Rydberg, E. Schroder, D. C. Langreth, and
     *   B. I. Lundqvist, Phys. Rev. Lett. 92, 246401 (2004).
     *
     *   T. Thonhauser, V. R. Cooper, S. Li, A. Puzder, P. Hyldgaard, and
     *   D. C. Langreth, Phys. Rev. B 76, 125112 (2007).
     *
     *   G. Roman-Perez and J. M. Soler, Phys. Rev. Lett. 103, 096102 (2009).
     *
     *
     * If you are using vdW-DF2, please also cite:
     *
     *   K. Lee, E. D. Murray, L. Kong, B. I. Lundqvist, and
     *   D. C. Langreth, Phys. Rev. B 82, 081101(R) (2010).
     *
     *
     * If you are calculating the stress with vdW-DF, please also cite:
     *
     *   R. Sabatini, E. Kucukbenli, B. Kolb, T. Thonhauser, and
     *   S. de Gironcoli, J. Phys.: Condens. Matter 24, 424209 (2012).
     *

     Carrying out vdW-DF run using the following parameters:

     Nqs =      20    Nr_points =    1024   r_max =   100.000
     q_mesh =
               0.00001000     0.04494208     0.09755937     0.15916263
               0.23128650     0.31572767     0.41458969     0.53033537
               0.66584808     0.82450364     1.01025438     1.22772762
               1.48234092     1.78043706     2.12944203     2.53805004
               3.01644009     3.57652955     4.23227104     5.00000000

     Gradients computed in reciprocal space

     Adding external electric field

     Computed dipole along edir(3) :
        Dipole                0.0000 Ry au,          0.0000 Debye
        Dipole field          0.0000 Ry au

        Potential amp.       -0.0000 Ry
        Total length         45.7234 bohr

     Starting wfc are  117 randomized atomic wfcs

     Self-consistent Calculation

     iteration #  1     ecut=    36.75 Ry     beta=0.10
     Davidson diagonalization with overlap
     ethr =  1.00E-02,  avg # of iterations =  5.1

[...]

     total energy              =   -1563.18505714 Ry
     Harris-Foulkes estimate   =   -1564.81358242 Ry
     estimated scf accuracy    <       9.72416062 Ry

[...]

     End of self-consistent calculation

          k = 0.0000 0.0000 0.0000 ( 19015 PWs)   bands (ev):

   -56.0747 -56.0725 -56.0235 -56.0234 -56.0230 -56.0229 -55.8194 -55.7707
   -55.7706 -32.4687 -32.4515 -32.4078 -32.4078 -32.3804 -32.3804 -32.3786
   -32.3786 -32.3723 -32.3475 -32.3475 -32.3324 -32.2566 -32.1887 -32.1789
   -32.1558 -32.1558 -32.0174 -32.0174 -31.9906 -31.9905 -31.9777 -31.9777
   -31.9736 -31.9326 -31.7621 -31.7620 -20.2966 -20.2923 -20.2923 -20.2767
   -20.2767 -20.0608 -20.0572 -20.0334 -20.0334 -20.0289 -20.0289 -20.0116
   -20.0116 -20.0110 -20.0110  -7.8028  -6.6234  -6.1388  -2.0691  -1.7991
    -1.5258  -1.4343  -1.4343  -1.2269  -1.2269  -0.6782  -0.2926  -0.2926
    -0.1952   0.1139   0.1139   0.1362   0.1362   0.2821   0.5891   0.6201
     0.6201   0.7809   0.8324   0.8325   1.2638   1.2638   1.4658   1.4658
     1.4871   1.7103   1.8859   2.1455   2.3468   2.6223   2.6223   2.6767
     2.7411   2.7411   2.7622   2.7623   3.0228   3.0228   3.0343   3.0344
     3.1553   3.5115   3.5115   3.5346   3.5347   3.6087   3.6087   3.7771
     3.7785

[...]

          k =-0.0848-0.0489 0.0000 ( 18988 PWs)   bands (ev):

[...]

     the Fermi energy is     1.0874 ev

!    total energy              =   -1561.19567405 Ry
     Harris-Foulkes estimate   =   -1561.19706738 Ry
     estimated scf accuracy    <       0.00000090 Ry

     The total energy is the sum of the following terms:

     one-electron contribution =  -11139.74219156 Ry
     hartree contribution      =    5576.76930860 Ry
     xc contribution           =    -302.45935238 Ry
     ewald contribution        =    4304.35602612 Ry
     electric field correction =       0.00000001 Ry
     smearing contrib. (-TS)   =      -0.11946484 Ry

     convergence has been achieved in  19 iterations

 BEEF-vdW xc energy contributions
           1 :   -262.532414424067
           2 :    237.423678077371
           3 :   -195.679372259781
           4 :    149.870661471899
           5 :   -110.835883778850
           6 :    83.6449367471538
           7 :   -67.1649863438274
           8 :    56.6523839634168
           9 :   -47.3244587796836
          10 :    36.8105036320200
          11 :   -25.5305212647575
          12 :    15.3808150071405
          13 :   -7.95186546512980
          14 :    3.46197179777971
          15 :  -0.897467304751956
[...]

     PseudoPot. # 1 for Ti read from file:
     /afs/slac.stanford.edu/u/if/mamunm/psp/gbrv1.5pbe/Ti.UPF
     MD5 check sum: 88a00a6731bd790ddea75d31a80cb452
     Pseudo is Ultrasoft + core correction, Zval = 12.0
     Generated by new atomic code, or converted to UPF format
     Using radial grid of  851 points,  6 beta functions with:
                l(1) =   0
                l(2) =   0
                l(3) =   1
                l(4) =   1
                l(5) =   2
                l(6) =   2
     Q(r) pseudized with  6 coefficients,  rinner =    1.000   1.000   1.000
                                                       1.000   1.000

     PseudoPot. # 2 for Sn read from file:
     /afs/slac.stanford.edu/u/if/mamunm/psp/gbrv1.5pbe/Sn.UPF
     MD5 check sum: 469debedee59599fedebd795477fea03
     Pseudo is Ultrasoft + core correction, Zval = 14.0
     Generated by new atomic code, or converted to UPF format
     Using radial grid of  891 points,  6 beta functions with:
                l(1) =   0
                l(2) =   0
                l(3) =   1
                l(4) =   1
                l(5) =   2
                l(6) =   2
     Q(r) pseudized with  8 coefficients,  rinner =    1.350   1.350   1.350
                                                       1.350   1.350

     vdW kernel table read from file vdW_kernel_table
     MD5 check sum: 095c7af220d748ca6e76c0b4c6cfb241

     atomic species   valence    mass     pseudopotential
        Ti1           12.00    47.86700     Ti( 1.00)
        Sn1           14.00   118.71000     Sn( 1.00)

     No symmetry found

   Cartesian axes

     site n.     atom                  positions (alat units)
         1           Ti1 tau(   1) = (   0.0000000   0.0000000  10.0000000  )
         2           Ti1 tau(   2) = (  -1.4746550   2.5541773  10.0000000  )
         3           Ti1 tau(   3) = (   1.4746550   2.5541773  10.0000000  )
         4           Sn1 tau(   4) = (   2.9493099   0.0000000  10.0000000  )
         5           Ti1 tau(   5) = (   2.9493099   1.7027849  12.4081015  )
         6           Ti1 tau(   6) = (   1.4746550   4.2569622  12.4081015  )
         7           Ti1 tau(   7) = (  -1.4746550   4.2569622  12.4081015  )
         8           Sn1 tau(   8) = (   0.0000000   1.7027849  12.4081015  )
         9           Ti1 tau(   9) = (   0.0000204   3.4361046  14.6851117  )
        10           Ti1 tau(  10) = (   1.5010809   0.8361283  14.6852314  )
        11           Ti1 tau(  11) = (   4.3975419   0.8361062  14.6851115  )
        12           Sn1 tau(  12) = (   2.9491772   3.4057562  15.0675682  )

     number of k points=    20  Fermi-Dirac smearing, width (Ry)=  0.0110
                       cart. coord. in units 2pi/alat
        k(    1) = (   0.0000000   0.0000000   0.0000000), wk =   0.0555556
        k(    2) = (   0.0000000   0.0326263   0.0000000), wk =   0.1111111
        k(    3) = (   0.0000000   0.0652526   0.0000000), wk =   0.1111111
        k(    4) = (   0.0000000  -0.0978789   0.0000000), wk =   0.0555556
        k(    5) = (   0.0282552   0.0163131   0.0000000), wk =   0.1111111
        k(    6) = (   0.0282552   0.0489394   0.0000000), wk =   0.1111111
        k(    7) = (   0.0282552   0.0815657   0.0000000), wk =   0.1111111
        k(    8) = (   0.0282552  -0.0815657   0.0000000), wk =   0.1111111
        k(    9) = (   0.0282552  -0.0489394   0.0000000), wk =   0.1111111
        k(   10) = (   0.0282552  -0.0163131   0.0000000), wk =   0.1111111
        k(   11) = (   0.0565104   0.0326263   0.0000000), wk =   0.1111111
        k(   12) = (   0.0565104   0.0652526   0.0000000), wk =   0.1111111
        k(   13) = (   0.0565104   0.0978789   0.0000000), wk =   0.1111111
        k(   14) = (   0.0565104  -0.0652526   0.0000000), wk =   0.1111111
        k(   15) = (   0.0565104  -0.0326263   0.0000000), wk =   0.1111111
        k(   16) = (   0.0565104   0.0000000   0.0000000), wk =   0.1111111
        k(   17) = (  -0.0847656  -0.0489394   0.0000000), wk =   0.0555556
        k(   18) = (  -0.0847656  -0.0163131   0.0000000), wk =   0.1111111
        k(   19) = (  -0.0847656   0.0163131   0.0000000), wk =   0.1111111
        k(   20) = (  -0.0847656  -0.1468183   0.0000000), wk =   0.0555556

     Largest allocated arrays     est. size (Mb)     dimensions
     Largest temporary arrays     est. size (Mb)     dimensions

     Check: negative/imaginary core charge=   -0.000005    0.000000

     Initial potential from superposition of free atoms
     Check: negative starting charge=   -0.010471

     starting charge  137.99947, renormalised to  150.00000

[...]

     *
     * You are using vdW-DF for exchange-correlation in this calculation.
     * Please cite the following three references that made this development
     * possible:
     *
     *   M. Dion, H. Rydberg, E. Schroder, D. C. Langreth, and
     *   B. I. Lundqvist, Phys. Rev. Lett. 92, 246401 (2004).
     *
     *   T. Thonhauser, V. R. Cooper, S. Li, A. Puzder, P. Hyldgaard, and
     *   D. C. Langreth, Phys. Rev. B 76, 125112 (2007).
     *
     *   G. Roman-Perez and J. M. Soler, Phys. Rev. Lett. 103, 096102 (2009).
     *
     *
     * If you are using vdW-DF2, please also cite:
     *
     *   K. Lee, E. D. Murray, L. Kong, B. I. Lundqvist, and
     *   D. C. Langreth, Phys. Rev. B 82, 081101(R) (2010).
     *
     *
     * If you are calculating the stress with vdW-DF, please also cite:
     *
     *   R. Sabatini, E. Kucukbenli, B. Kolb, T. Thonhauser, and
     *   S. de Gironcoli, J. Phys.: Condens. Matter 24, 424209 (2012).
     *

     Carrying out vdW-DF run using the following parameters:

     Nqs =      20    Nr_points =    1024   r_max =   100.000
     q_mesh =
               0.00001000     0.04494208     0.09755937     0.15916263
               0.23128650     0.31572767     0.41458969     0.53033537
               0.66584808     0.82450364     1.01025438     1.22772762
               1.48234092     1.78043706     2.12944203     2.53805004
               3.01644009     3.57652955     4.23227104     5.00000000

     Gradients computed in reciprocal space

[...]

     Starting wfc are  117 randomized atomic wfcs

     Self-consistent Calculation

[...]

     total energy              =   -1561.21686800 Ry
     Harris-Foulkes estimate   =   -1561.21686724 Ry
     estimated scf accuracy    <       0.00000102 Ry

     iteration # 21     ecut=    36.75 Ry     beta=0.10
     Davidson diagonalization with overlap
     ethr =  6.82E-10,  avg # of iterations =  2.0

[...]

     negative rho (up, down):  5.994E-03 0.000E+00

     Adding external electric field

     Computed dipole along edir(3) :
        Dipole               -0.0540 Ry au,         -0.1374 Debye
        Dipole field         -0.0001 Ry au

        Potential amp.        0.0123 Ry
        Total length         45.7234 bohr

     End of self-consistent calculation

[...]

          k = 0.0565 0.0000 0.0000 ( 18983 PWs)   bands (ev):

[...]

          k =-0.0848-0.1468 0.0000 ( 18988 PWs)   bands (ev):

   -56.1330 -56.1164 -56.0995 -56.0276 -56.0065 -55.9902 -55.8140 -55.7984
   -55.7825 -32.5072 -32.4881 -32.4619 -32.4473 -32.4095 -32.3873 -32.3733
   -32.3620 -32.3510 -32.3221 -32.3029 -32.2749 -32.2449 -32.2202 -32.2199
   -32.1948 -32.1384 -32.0979 -32.0964 -32.0705 -32.0674 -32.0639 -32.0031
   -31.9774 -31.8866 -31.8571 -31.7856 -20.3581 -20.3536 -20.3526 -20.3380
   -20.3363 -20.1219 -20.0974 -20.0972 -20.0800 -20.0737 -20.0687 -20.0466
   -20.0463 -20.0117 -20.0076  -7.0660  -6.4243  -6.0430  -3.3941  -2.5939
    -2.4678  -2.3698  -1.2520  -1.1475  -1.0075  -0.7637  -0.7194  -0.6814
    -0.3194   0.2569   0.3642   0.4262   0.5261   0.6224   0.7122   0.7843
     0.8169   0.8305   0.8946   0.9387   1.1101   1.1791   1.4570   1.4856
     1.5182   1.6373   1.7229   1.7785   2.1378   2.3186   2.3959   2.5600
     2.5768   2.5843   2.6925   2.7152   2.8052   2.8766   2.9281   2.9485
     2.9724   2.9927   3.0922   3.2539   3.5658   3.6285   3.7033   3.8308
     4.2164

     the Fermi energy is     1.0159 ev

!    total energy              =   -1561.21686950 Ry
     Harris-Foulkes estimate   =   -1561.21686812 Ry
     estimated scf accuracy    <       0.00000021 Ry

     The total energy is the sum of the following terms:

     one-electron contribution =  -11171.22663787 Ry
     hartree contribution      =    5592.36560158 Ry
     xc contribution           =    -302.51373900 Ry
     ewald contribution        =    4320.27156793 Ry
     electric field correction =       0.00000727 Ry
     smearing contrib. (-TS)   =      -0.11366941 Ry

     convergence has been achieved in  21 iterations

 BEEF-vdW xc energy contributions
           1 :   -262.715484334349
           2 :    237.612997941043
           3 :   -195.865655505545
           4 :    150.032590191304
           5 :   -110.962161716883
           6 :    83.7533208567122
           7 :   -67.2942502706389
           8 :    56.8337273877788
           9 :   -47.5566487470894
          10 :    37.0591017729060
          11 :   -25.7501059221350
          12 :    15.5434779029218
          13 :   -8.06497078906546
          14 :    3.56421995421152
          15 :   -1.03376981344553
          16 :  -0.846412303359045
          17 :    2.76865096830267
          18 :   -4.51424817749080
          19 :    5.37169062638338
          20 :   -4.80870421748580
          21 :    2.87253414465357
          22 :  -0.113970549830299
          23 :   -2.80164027665552
          24 :    5.46310602578495
          25 :   -7.83294387833558
          26 :    10.1034344593923
          27 :   -12.4509343179213
          28 :    14.8701452019902
          29 :   -17.1717094278064
          30 :    19.0933098214825
          31 :   -25.6381318055668
          32 :   -18.4946669157630

     Forces acting on atoms (Ry/au):

     negative rho (up, down):  5.994E-03 0.000E+00
     atom    1 type  1   force =    -0.00000115   -0.00463253    0.01794637
     atom    2 type  1   force =    -0.00401491    0.00231705    0.01794764
     atom    3 type  1   force =     0.00401129    0.00231616    0.01794509
     atom    4 type  2   force =     0.00000762    0.00000280   -0.03980670
     atom    5 type  1   force =    -0.00000354    0.00820002    0.00247741
     atom    6 type  1   force =     0.00709725   -0.00409634    0.00246183
     atom    7 type  1   force =    -0.00710109   -0.00409466    0.00247560
     atom    8 type  2   force =     0.00001520   -0.00001105   -0.02105363
     atom    9 type  1   force =    -0.00002083   -0.00144739    0.00026380
     atom   10 type  1   force =    -0.00125806    0.00074106    0.00024242
     atom   11 type  1   force =     0.00123861    0.00075408    0.00026590
     atom   12 type  2   force =     0.00002961   -0.00004919   -0.00116574

     Total force =     0.057326     Total SCF correction =     0.001222

     entering subroutine stress ...

     negative rho (up, down):  5.994E-03 0.000E+00
          total   stress  (Ry/bohr**3)                   (kbar)     P=   -9.44
  -0.00008839  -0.00000000   0.00000001        -13.00     -0.00      0.00
  -0.00000000  -0.00008839  -0.00000001         -0.00    -13.00     -0.00
   0.00000001  -0.00000001  -0.00001579          0.00     -0.00     -2.32

 !ASE

     Writing output data file calc.save

     General routines

     Parallel routines

   This run was terminated on:   0:35:44   2Jan2019

   JOB DONE.
Job  /afs/slac/g/suncat/bin/suncat-tsmpirun -x LD_LIBRARY_PATH -wdir /scratch/qe649227_tph36 pw.x -in pw.inp

TID   HOST_NAME   COMMAND_LINE            STATUS            TERMINATION_TIME
00000 suncat0188 pw.x -in pw.inp   Done                     01/02/2019 00:35:44
00001 suncat0188 pw.x -in pw.inp   Done                     01/02/2019 00:35:44
00002 suncat0188 pw.x -in pw.inp   Done                     01/02/2019 00:35:44
00003 suncat0188 pw.x -in pw.inp   Done                     01/02/2019 00:35:44
00004 suncat0188 pw.x -in pw.inp   Done                     01/02/2019 00:35:44
00005 suncat0188 pw.x -in pw.inp   Done                     01/02/2019 00:35:44
00006 suncat0188 pw.x -in pw.inp   Done                     01/02/2019 00:35:44
00007 suncat0188 pw.x -in pw.inp   Done                     01/02/2019 00:35:44
00008 suncat0129 pw.x -in pw.inp   Done                     01/02/2019 00:35:44
00009 suncat0129 pw.x -in pw.inp   Done                     01/02/2019 00:35:44
00010 suncat0129 pw.x -in pw.inp   Done                     01/02/2019 00:35:44
00011 suncat0129 pw.x -in pw.inp   Done                     01/02/2019 00:35:44
00012 suncat0129 pw.x -in pw.inp   Done                     01/02/2019 00:35:44
00013 suncat0129 pw.x -in pw.inp   Done                     01/02/2019 00:35:44
00014 suncat0129 pw.x -in pw.inp   Done                     01/02/2019 00:35:44
00015 suncat0129 pw.x -in pw.inp   Done                     01/02/2019 00:35:44
00016 suncat0116 pw.x -in pw.inp   Done                     01/02/2019 00:35:44
00017 suncat0116 pw.x -in pw.inp   Done                     01/02/2019 00:35:44
00018 suncat0116 pw.x -in pw.inp   Done                     01/02/2019 00:35:44
00019 suncat0116 pw.x -in pw.inp   Done                     01/02/2019 00:35:44
00020 suncat0116 pw.x -in pw.inp   Done                     01/02/2019 00:35:44
00021 suncat0116 pw.x -in pw.inp   Done                     01/02/2019 00:35:44
00022 suncat0116 pw.x -in pw.inp   Done                     01/02/2019 00:35:44
00023 suncat0116 pw.x -in pw.inp   Done                     01/02/2019 00:35:44
00024 suncat0114 pw.x -in pw.inp   Done                     01/02/2019 00:35:44
00025 suncat0114 pw.x -in pw.inp   Done                     01/02/2019 00:35:44
00026 suncat0114 pw.x -in pw.inp   Done                     01/02/2019 00:35:44
00027 suncat0114 pw.x -in pw.inp   Done                     01/02/2019 00:35:44
00028 suncat0114 pw.x -in pw.inp   Done                     01/02/2019 00:35:44
00029 suncat0114 pw.x -in pw.inp   Done                     01/02/2019 00:35:44
00030 suncat0114 pw.x -in pw.inp   Done                     01/02/2019 00:35:44
00031 suncat0114 pw.x -in pw.inp   Done                     01/02/2019 00:35:44
00032 suncat0264 pw.x -in pw.inp   Done                     01/02/2019 00:35:44
00033 suncat0264 pw.x -in pw.inp   Done                     01/02/2019 00:35:44
00034 suncat0264 pw.x -in pw.inp   Done                     01/02/2019 00:35:44
00035 suncat0264 pw.x -in pw.inp   Done                     01/02/2019 00:35:44
00036 suncat0264 pw.x -in pw.inp   Done                     01/02/2019 00:35:44
00037 suncat0264 pw.x -in pw.inp   Done                     01/02/2019 00:35:44
00038 suncat0264 pw.x -in pw.inp   Done                     01/02/2019 00:35:44
00039 suncat0264 pw.x -in pw.inp   Done                     01/02/2019 00:35:44
00040 suncat0260 pw.x -in pw.inp   Done                     01/02/2019 00:35:44
00041 suncat0260 pw.x -in pw.inp   Done                     01/02/2019 00:35:44
00042 suncat0260 pw.x -in pw.inp   Done                     01/02/2019 00:35:44
00043 suncat0260 pw.x -in pw.inp   Done                     01/02/2019 00:35:44
00044 suncat0260 pw.x -in pw.inp   Done                     01/02/2019 00:35:44
00045 suncat0260 pw.x -in pw.inp   Done                     01/02/2019 00:35:44
00046 suncat0260 pw.x -in pw.inp   Done                     01/02/2019 00:35:44
00047 suncat0260 pw.x -in pw.inp   Done                     01/02/2019 00:35:44
00048 suncat0249 pw.x -in pw.inp   Done                     01/02/2019 00:35:44
00049 suncat0249 pw.x -in pw.inp   Done                     01/02/2019 00:35:44
00050 suncat0249 pw.x -in pw.inp   Done                     01/02/2019 00:35:44
00051 suncat0249 pw.x -in pw.inp   Done                     01/02/2019 00:35:44
00052 suncat0249 pw.x -in pw.inp   Done                     01/02/2019 00:35:44
00053 suncat0249 pw.x -in pw.inp   Done                     01/02/2019 00:35:44
00054 suncat0249 pw.x -in pw.inp   Done                     01/02/2019 00:35:44
00055 suncat0249 pw.x -in pw.inp   Done                     01/02/2019 00:35:44
00056 suncat0231 pw.x -in pw.inp   Done                     01/02/2019 00:35:44
00057 suncat0231 pw.x -in pw.inp   Done                     01/02/2019 00:35:44
00058 suncat0231 pw.x -in pw.inp   Done                     01/02/2019 00:35:44
00059 suncat0231 pw.x -in pw.inp   Done                     01/02/2019 00:35:44
00060 suncat0231 pw.x -in pw.inp   Done                     01/02/2019 00:35:44
00061 suncat0231 pw.x -in pw.inp   Done                     01/02/2019 00:35:44
00062 suncat0231 pw.x -in pw.inp   Done                     01/02/2019 00:35:44
00063 suncat0231 pw.x -in pw.inp   Done                     01/02/2019 00:35:44