     Program PWSCF v.5.1rc2 (svn rev. 11289) starts on  1Jan2019 at  4:16:58

     Current dimensions of program PWSCF are:
     Max number of different atomic species (ntypx) = 10
     Max number of k-points (npk) =  40000
     Max angular momentum in pseudopotentials (lmaxx) =  3
     Presently stress not available with electric field

     IMPORTANT: XC functional enforced from input :
     Exchange-correlation      = BEEF-VDW ( 1  4 27 13 2)
     Any further DFT definition will be discarded
     Please, verify this is what you really want

     Subspace diagonalization in iterative solution of the eigenvalue problem:
     a serial algorithm will be used

     bravais-lattice index     =            0
     lattice parameter (alat)  =       1.8897  a.u.
     unit-cell volume          =    4242.1915 (a.u.)^3
     number of atoms/cell      =           12
     number of atomic types    =            2
     number of electrons       =       192.00
     number of Kohn-Sham states=          126
     kinetic-energy cutoff     =      36.7493  Ry
     charge density cutoff     =     367.4932  Ry
     convergence threshold     =      1.0E-06
     mixing beta               =       0.1000
     number of iterations used =           10  plain     mixing
     Exchange-correlation      = BEEF-VDW ( 1  4 27 13 2)
     nstep                     =           50

     celldm(1)=   1.889726  celldm(2)=   0.000000  celldm(3)=   0.000000
     celldm(4)=   0.000000  celldm(5)=   0.000000  celldm(6)=   0.000000

     crystal axes: (cart. coord. in units of alat)
               a(1) = (   5.448809   0.000000   0.000000 )
               a(2) = (  -2.724404   4.718807   0.000000 )
               a(3) = (   0.000000   0.000000  24.448934 )

     reciprocal axes: (cart. coord. in units 2 pi/alat)
               b(1) = (  0.183526  0.105959  0.000000 )
               b(2) = (  0.000000  0.211918  0.000000 )
               b(3) = (  0.000000  0.000000  0.040902 )

     PseudoPot. # 1 for Ru read from file:
     /afs/slac.stanford.edu/u/if/mamunm/psp/gbrv1.5pbe/Ru.UPF
     MD5 check sum: 7158a806dd851261a58e6920c40ebe78
     Pseudo is Ultrasoft + core correction, Zval = 16.0
     Generated by new atomic code, or converted to UPF format
     Using radial grid of  967 points,  6 beta functions with:
                l(1) =   0
                l(2) =   0
                l(3) =   1
                l(4) =   1
                l(5) =   2
                l(6) =   2
     Q(r) pseudized with  8 coefficients,  rinner =    1.300   1.300   1.300
                                                       1.300   1.300

     PseudoPot. # 2 for Pd read from file:
     /afs/slac.stanford.edu/u/if/mamunm/psp/gbrv1.5pbe/Pd.UPF
     MD5 check sum: 2d733d2bc2cbfd217af676df1668a4bc
     Pseudo is Ultrasoft + core correction, Zval = 16.0
     Generated by new atomic code, or converted to UPF format
     Using radial grid of  887 points,  6 beta functions with:
                l(1) =   0
                l(2) =   0
                l(3) =   1
                l(4) =   1
                l(5) =   2
                l(6) =   2
     Q(r) pseudized with  8 coefficients,  rinner =    1.130   1.130   1.130
                                                       1.130   1.130

     vdW kernel table read from file vdW_kernel_table
     MD5 check sum: 095c7af220d748ca6e76c0b4c6cfb241

     atomic species   valence    mass     pseudopotential
        Ru1           16.00   101.07000     Ru( 1.00)
        Pd1           16.00   106.42000     Pd( 1.00)

     No symmetry found

   Cartesian axes

     site n.     atom                  positions (alat units)
         1           Ru1 tau(   1) = (   0.0000000   0.0000000  10.0000000  )
         2           Ru1 tau(   2) = (  -1.3622022   2.3594034  10.0000000  )
         3           Ru1 tau(   3) = (   1.3622022   2.3594034  10.0000000  )
         4           Pd1 tau(   4) = (   2.7244043   0.0000000  10.0000000  )
         5           Ru1 tau(   5) = (   2.7244043   1.5729356  12.2244668  )
         6           Ru1 tau(   6) = (   1.3622022   3.9323389  12.2244668  )
         7           Ru1 tau(   7) = (  -1.3622022   3.9323389  12.2244668  )
         8           Pd1 tau(   8) = (  -0.0000000   1.5729356  12.2244668  )
         9           Ru1 tau(   9) = (  -0.0000000   3.1458711  14.4489336  )
        10           Ru1 tau(  10) = (   1.3622022   0.7864678  14.4489336  )
        11           Ru1 tau(  11) = (   4.0866065   0.7864678  14.4489336  )
        12           Pd1 tau(  12) = (   2.7244043   3.1458711  14.4489336  )

     number of k points=    20  Fermi-Dirac smearing, width (Ry)=  0.0110
                       cart. coord. in units 2pi/alat
        k(    1) = (   0.0000000   0.0000000   0.0000000), wk =   0.0555556
        k(    2) = (   0.0000000   0.0353197   0.0000000), wk =   0.1111111
        k(    3) = (   0.0000000   0.0706393   0.0000000), wk =   0.1111111
        k(    4) = (   0.0000000  -0.1059590   0.0000000), wk =   0.0555556
        k(    5) = (   0.0305877   0.0176598   0.0000000), wk =   0.1111111
        k(    6) = (   0.0305877   0.0529795   0.0000000), wk =   0.1111111
        k(    7) = (   0.0305877   0.0882992   0.0000000), wk =   0.1111111
        k(    8) = (   0.0305877  -0.0882992   0.0000000), wk =   0.1111111
        k(    9) = (   0.0305877  -0.0529795   0.0000000), wk =   0.1111111
        k(   10) = (   0.0305877  -0.0176598   0.0000000), wk =   0.1111111
        k(   11) = (   0.0611755   0.0353197   0.0000000), wk =   0.1111111
        k(   12) = (   0.0611755   0.0706393   0.0000000), wk =   0.1111111
        k(   13) = (   0.0611755   0.1059590   0.0000000), wk =   0.1111111
        k(   14) = (   0.0611755  -0.0706393   0.0000000), wk =   0.1111111
        k(   15) = (   0.0611755  -0.0353197   0.0000000), wk =   0.1111111
        k(   16) = (   0.0611755   0.0000000   0.0000000), wk =   0.1111111
        k(   17) = (  -0.0917632  -0.0529795   0.0000000), wk =   0.0555556
        k(   18) = (  -0.0917632  -0.0176598   0.0000000), wk =   0.1111111
        k(   19) = (  -0.0917632   0.0176598   0.0000000), wk =   0.1111111
        k(   20) = (  -0.0917632  -0.1589385   0.0000000), wk =   0.0555556

     Largest allocated arrays     est. size (Mb)     dimensions
     Largest temporary arrays     est. size (Mb)     dimensions

     Initial potential from superposition of free atoms
     Check: negative starting charge=   -0.882369

     starting charge  181.49984, renormalised to  192.00000

     negative rho (up, down):  9.334E-01 0.000E+00

     *
     * You are using vdW-DF for exchange-correlation in this calculation.
     * Please cite the following three references that made this development
     * possible:
     *
     *   M. Dion, H. Rydberg, E. Schroder, D. C. Langreth, and
     *   B. I. Lundqvist, Phys. Rev. Lett. 92, 246401 (2004).
     *
     *   T. Thonhauser, V. R. Cooper, S. Li, A. Puzder, P. Hyldgaard, and
     *   D. C. Langreth, Phys. Rev. B 76, 125112 (2007).
     *
     *   G. Roman-Perez and J. M. Soler, Phys. Rev. Lett. 103, 096102 (2009).
     *
     *
     * If you are using vdW-DF2, please also cite:
     *
     *   K. Lee, E. D. Murray, L. Kong, B. I. Lundqvist, and
     *   D. C. Langreth, Phys. Rev. B 82, 081101(R) (2010).
     *
     *
     * If you are calculating the stress with vdW-DF, please also cite:
     *
     *   R. Sabatini, E. Kucukbenli, B. Kolb, T. Thonhauser, and
     *   S. de Gironcoli, J. Phys.: Condens. Matter 24, 424209 (2012).
     *

     Carrying out vdW-DF run using the following parameters:

     Nqs =      20    Nr_points =    1024   r_max =   100.000
     q_mesh =
               0.00001000     0.04494208     0.09755937     0.15916263
               0.23128650     0.31572767     0.41458969     0.53033537
               0.66584808     0.82450364     1.01025438     1.22772762
               1.48234092     1.78043706     2.12944203     2.53805004
               3.01644009     3.57652955     4.23227104     5.00000000

     Gradients computed in reciprocal space

     Adding external electric field

     Computed dipole along edir(3) :
        Dipole               -0.0000 Ry au,         -0.0000 Debye
        Dipole field         -0.0000 Ry au

        Potential amp.        0.0000 Ry
        Total length         45.0467 bohr

     Starting wfc are  153 randomized atomic wfcs

     Self-consistent Calculation

     iteration #  1     ecut=    36.75 Ry     beta=0.10
     Davidson diagonalization with overlap
     ethr =  1.00E-02,  avg # of iterations =  8.1

[...]

     total energy              =   -2350.66970128 Ry
     Harris-Foulkes estimate   =   -2363.64052791 Ry
     estimated scf accuracy    <      73.48637070 Ry

[...]

     End of self-consistent calculation

          k = 0.0000 0.0000 0.0000 ( 15869 PWs)   bands (ev):

   -71.1502 -71.0778 -71.0778 -70.6966 -70.6940 -70.6257 -70.6257 -70.6251
   -70.6251 -49.0282 -49.0282 -48.9931 -48.6246 -48.6246 -48.6239 -48.6239
   -48.4487 -48.4460 -41.4104 -41.2071 -41.2071 -41.2024 -41.1056 -41.1056
   -41.0164 -40.9780 -40.8939 -40.7906 -40.7906 -40.7575 -40.7575 -40.6985
   -40.6985 -40.5925 -40.5217 -40.5217 -40.5082 -40.4752 -40.4752 -40.4504
   -40.4388 -40.3950 -40.3950 -40.3919 -40.3919  -4.7308  -3.5677  -3.5677
    -3.4564  -3.4012  -3.3057  -3.2555  -3.2555  -3.0895  -2.9779  -2.9779
    -2.9529  -2.7135  -2.7135  -2.4857  -1.6779  -1.6779  -1.3118  -1.3118
    -1.2853  -1.0648  -0.8159  -0.6325  -0.6305  -0.6305  -0.3344  -0.3344
    -0.2792  -0.2792  -0.0900  -0.0900   0.1817   0.2955   0.7724   0.7724
     0.9962   0.9962   1.0888   1.0888   1.2237   1.6358   1.6358   1.7857
     1.8053   2.1059   2.2658   2.2658   2.5189   2.5189   2.5876   2.5877
     2.8768   2.8768   2.9465   2.9465   3.0992   3.1151   3.1472   3.1472
     3.3793   3.3793   3.6027   3.9826   4.0384   4.2187   4.2187   4.2694
     6.0259   6.1119   6.2353   6.2353   6.2583   6.2583   6.5290   6.7387
     7.2611   8.1730   9.1234   9.5702   9.5815   9.8777

[...]

          k =-0.0918-0.0530 0.0000 ( 15984 PWs)   bands (ev):

[...]

     the Fermi energy is     2.0694 ev

!    total energy              =   -2355.11259863 Ry
     Harris-Foulkes estimate   =   -2355.11260015 Ry
     estimated scf accuracy    <       0.00000048 Ry

     The total energy is the sum of the following terms:

     one-electron contribution =  -21583.65457452 Ry
     hartree contribution      =   10802.40834789 Ry
     xc contribution           =    -338.73026551 Ry
     ewald contribution        =    8764.96413377 Ry
     electric field correction =       0.00000002 Ry
     smearing contrib. (-TS)   =      -0.10024028 Ry

     convergence has been achieved in  19 iterations

 BEEF-vdW xc energy contributions
           1 :   -294.183878405695
           2 :    269.831091340110
           3 :   -227.756479286017
           4 :    178.558099082286
           5 :   -132.966741821466
           6 :    98.4825180578253
           7 :   -77.6348757536342
           8 :    68.2585743768086
           9 :   -65.3775194389263
          10 :    63.7166761365141
          11 :   -59.7663508726585
[...]
     MD5 check sum: 7158a806dd851261a58e6920c40ebe78
     Pseudo is Ultrasoft + core correction, Zval = 16.0
     Generated by new atomic code, or converted to UPF format
     Using radial grid of  967 points,  6 beta functions with:
                l(1) =   0
                l(2) =   0
                l(3) =   1
                l(4) =   1
                l(5) =   2
                l(6) =   2
     Q(r) pseudized with  8 coefficients,  rinner =    1.300   1.300   1.300
                                                       1.300   1.300

     PseudoPot. # 2 for Pd read from file:
     /afs/slac.stanford.edu/u/if/mamunm/psp/gbrv1.5pbe/Pd.UPF
     MD5 check sum: 2d733d2bc2cbfd217af676df1668a4bc
     Pseudo is Ultrasoft + core correction, Zval = 16.0
     Generated by new atomic code, or converted to UPF format
     Using radial grid of  887 points,  6 beta functions with:
                l(1) =   0
                l(2) =   0
                l(3) =   1
                l(4) =   1
                l(5) =   2
                l(6) =   2
     Q(r) pseudized with  8 coefficients,  rinner =    1.130   1.130   1.130
                                                       1.130   1.130

     vdW kernel table read from file vdW_kernel_table
     MD5 check sum: 095c7af220d748ca6e76c0b4c6cfb241

     atomic species   valence    mass     pseudopotential
        Ru1           16.00   101.07000     Ru( 1.00)
        Pd1           16.00   106.42000     Pd( 1.00)

     No symmetry found

   Cartesian axes

     site n.     atom                  positions (alat units)
         1           Ru1 tau(   1) = (   0.0000000   0.0000000  10.0000000  )
         2           Ru1 tau(   2) = (  -1.3622022   2.3594034  10.0000000  )
         3           Ru1 tau(   3) = (   1.3622022   2.3594034  10.0000000  )
         4           Pd1 tau(   4) = (   2.7244043   0.0000000  10.0000000  )
         5           Ru1 tau(   5) = (   2.7244043   1.5729356  12.2244668  )
         6           Ru1 tau(   6) = (   1.3622022   3.9323389  12.2244668  )
         7           Ru1 tau(   7) = (  -1.3622022   3.9323389  12.2244668  )
         8           Pd1 tau(   8) = (  -0.0000000   1.5729356  12.2244668  )
         9           Ru1 tau(   9) = (  -0.0000137   3.2306420  14.3644712  )
        10           Ru1 tau(  10) = (   1.4356298   0.7440636  14.3644555  )
        11           Ru1 tau(  11) = (   4.0132402   0.7441151  14.3645363  )
        12           Pd1 tau(  12) = (   2.7243934   3.1458663  14.4539719  )

     number of k points=    20  Fermi-Dirac smearing, width (Ry)=  0.0110
                       cart. coord. in units 2pi/alat
        k(    1) = (   0.0000000   0.0000000   0.0000000), wk =   0.0555556
        k(    2) = (   0.0000000   0.0353197   0.0000000), wk =   0.1111111
        k(    3) = (   0.0000000   0.0706393   0.0000000), wk =   0.1111111
        k(    4) = (   0.0000000  -0.1059590   0.0000000), wk =   0.0555556
        k(    5) = (   0.0305877   0.0176598   0.0000000), wk =   0.1111111
        k(    6) = (   0.0305877   0.0529795   0.0000000), wk =   0.1111111
        k(    7) = (   0.0305877   0.0882992   0.0000000), wk =   0.1111111
        k(    8) = (   0.0305877  -0.0882992   0.0000000), wk =   0.1111111
        k(    9) = (   0.0305877  -0.0529795   0.0000000), wk =   0.1111111
        k(   10) = (   0.0305877  -0.0176598   0.0000000), wk =   0.1111111
        k(   11) = (   0.0611755   0.0353197   0.0000000), wk =   0.1111111
        k(   12) = (   0.0611755   0.0706393   0.0000000), wk =   0.1111111
        k(   13) = (   0.0611755   0.1059590   0.0000000), wk =   0.1111111
        k(   14) = (   0.0611755  -0.0706393   0.0000000), wk =   0.1111111
        k(   15) = (   0.0611755  -0.0353197   0.0000000), wk =   0.1111111
        k(   16) = (   0.0611755   0.0000000   0.0000000), wk =   0.1111111
        k(   17) = (  -0.0917632  -0.0529795   0.0000000), wk =   0.0555556
        k(   18) = (  -0.0917632  -0.0176598   0.0000000), wk =   0.1111111
        k(   19) = (  -0.0917632   0.0176598   0.0000000), wk =   0.1111111
        k(   20) = (  -0.0917632  -0.1589385   0.0000000), wk =   0.0555556

     Largest allocated arrays     est. size (Mb)     dimensions
     Largest temporary arrays     est. size (Mb)     dimensions

     Initial potential from superposition of free atoms
     Check: negative starting charge=   -0.880055

     starting charge  181.49984, renormalised to  192.00000

[...]

     *
     * You are using vdW-DF for exchange-correlation in this calculation.
     * Please cite the following three references that made this development
     * possible:
     *
     *   M. Dion, H. Rydberg, E. Schroder, D. C. Langreth, and
     *   B. I. Lundqvist, Phys. Rev. Lett. 92, 246401 (2004).
     *
     *   T. Thonhauser, V. R. Cooper, S. Li, A. Puzder, P. Hyldgaard, and
     *   D. C. Langreth, Phys. Rev. B 76, 125112 (2007).
     *
     *   G. Roman-Perez and J. M. Soler, Phys. Rev. Lett. 103, 096102 (2009).
     *
     *
     * If you are using vdW-DF2, please also cite:
     *
     *   K. Lee, E. D. Murray, L. Kong, B. I. Lundqvist, and
     *   D. C. Langreth, Phys. Rev. B 82, 081101(R) (2010).
     *
     *
     * If you are calculating the stress with vdW-DF, please also cite:
     *
     *   R. Sabatini, E. Kucukbenli, B. Kolb, T. Thonhauser, and
     *   S. de Gironcoli, J. Phys.: Condens. Matter 24, 424209 (2012).
     *

     Carrying out vdW-DF run using the following parameters:

     Nqs =      20    Nr_points =    1024   r_max =   100.000
     q_mesh =
               0.00001000     0.04494208     0.09755937     0.15916263
               0.23128650     0.31572767     0.41458969     0.53033537
               0.66584808     0.82450364     1.01025438     1.22772762
               1.48234092     1.78043706     2.12944203     2.53805004
               3.01644009     3.57652955     4.23227104     5.00000000

     Gradients computed in reciprocal space

[...]

     Starting wfc are  153 randomized atomic wfcs

     Self-consistent Calculation

[...]

     total energy              =   -2355.12621666 Ry
     Harris-Foulkes estimate   =   -2355.12621684 Ry
     estimated scf accuracy    <       0.00000194 Ry

     iteration # 18     ecut=    36.75 Ry     beta=0.10
     Davidson diagonalization with overlap
     ethr =  1.01E-09,  avg # of iterations =  1.2

[...]

     negative rho (up, down):  9.183E-01 0.000E+00

     Adding external electric field

     Computed dipole along edir(3) :
        Dipole                0.0157 Ry au,          0.0399 Debye
        Dipole field          0.0000 Ry au

        Potential amp.       -0.0042 Ry
        Total length         45.0467 bohr

     End of self-consistent calculation

[...]

          k = 0.0612 0.0000 0.0000 ( 15958 PWs)   bands (ev):

[...]

          k =-0.0918-0.1589 0.0000 ( 15984 PWs)   bands (ev):

   -71.1645 -71.1400 -71.1151 -70.7827 -70.7285 -70.7131 -70.6266 -70.6030
   -70.5797 -49.0361 -49.0337 -49.0123 -48.6014 -48.5991 -48.5956 -48.5933
   -48.4222 -48.4104 -41.3625 -41.2660 -41.2249 -41.1985 -41.1173 -41.0989
   -41.0624 -41.0587 -41.0145 -40.8423 -40.8397 -40.8003 -40.7462 -40.6342
   -40.6195 -40.6162 -40.6024 -40.5911 -40.5801 -40.5621 -40.5471 -40.5283
   -40.4799 -40.4745 -40.4538 -40.4421 -40.3698  -3.3597  -3.2707  -2.8160
    -2.8084  -2.7539  -2.6578  -2.5045  -2.4674  -2.4328  -2.4115  -2.1708
    -2.1018  -2.0615  -1.9020  -1.8666  -1.6618  -1.6150  -1.4931  -1.4212
    -1.3073  -1.0465  -0.9595  -0.8896  -0.8618  -0.7453  -0.6682  -0.5549
    -0.4373  -0.4323  -0.3199  -0.1102  -0.1029   0.0071   0.1804   0.2095
     0.2428   0.2995   0.3208   0.4456   0.5202   0.6185   0.8574   0.8890
     0.9309   1.0719   1.1559   1.3166   1.3516   1.4675   1.5531   1.6128
     1.7860   1.9498   2.0686   2.1715   2.2309   2.3265   2.4798   2.5808
     2.6822   2.6953   2.9766   3.2108   3.6573   4.6939   4.7921   5.2239
     6.0311   6.2053   6.6017   6.7674   7.0028   8.1429   8.1804   8.2154
     8.2505   8.7641   8.8256   8.9004   8.9119  10.0060

     the Fermi energy is     2.0908 ev

!    total energy              =   -2355.12621486 Ry
     Harris-Foulkes estimate   =   -2355.12621663 Ry
     estimated scf accuracy    <       0.00000094 Ry

     The total energy is the sum of the following terms:

     one-electron contribution =  -21776.60422422 Ry
     hartree contribution      =   10898.74792171 Ry
     xc contribution           =    -338.88131908 Ry
     ewald contribution        =    8861.70843077 Ry
     electric field correction =       0.00000073 Ry
     smearing contrib. (-TS)   =      -0.09702477 Ry

     convergence has been achieved in  18 iterations

 BEEF-vdW xc energy contributions
           1 :   -294.342334888129
           2 :    270.056752155037
           3 :   -228.073459136229
           4 :    178.926545226621
           5 :   -133.296597276692
           6 :    98.6765227381937
           7 :   -77.6392538214752
           8 :    68.0949925070287
           9 :   -65.1387974875425
          10 :    63.5267645837021
          11 :   -59.7232330996807
          12 :    52.8016460775245
          13 :   -44.0761751100283
          14 :    35.8811651197073
          15 :   -30.1899353935218
          16 :    27.6936966408653
          17 :   -27.6514246723708
          18 :    28.4355434298517
          19 :   -28.4129041294457
          20 :    26.7034023280950
          21 :   -23.4781953691254
          22 :    19.7163717654478
          23 :   -16.6075938545619
          24 :    14.9314682431275
          25 :   -14.7154058797939
          26 :    15.3031802801409
          27 :   -15.7558119995448
          28 :    15.3498377828437
          29 :   -13.9129126946377
          30 :    11.8442961128485
          31 :   -29.9578276163295
          32 :   -22.5911650388669

     Forces acting on atoms (Ry/au):

     negative rho (up, down):  9.183E-01 0.000E+00
     atom    1 type  1   force =    -0.00000945   -0.02580131    0.01960890
     atom    2 type  1   force =    -0.02234501    0.01289643    0.01962763
     atom    3 type  1   force =     0.02234167    0.01290485    0.01962795
     atom    4 type  2   force =    -0.00001037   -0.00000004   -0.00576075
     atom    5 type  1   force =     0.00000680    0.00481470   -0.01388430
     atom    6 type  1   force =     0.00416817   -0.00240057   -0.01387883
     atom    7 type  1   force =    -0.00417532   -0.00241274   -0.01389429
     atom    8 type  2   force =     0.00000600    0.00000382   -0.00586591
     atom    9 type  1   force =     0.00000960   -0.00114936   -0.00145967
     atom   10 type  1   force =    -0.00098747    0.00057658   -0.00145058
     atom   11 type  1   force =     0.00098909    0.00056612   -0.00147759
     atom   12 type  2   force =     0.00000630    0.00000153   -0.00119255

     Total force =     0.062285     Total SCF correction =     0.005236

     entering subroutine stress ...

     negative rho (up, down):  9.183E-01 0.000E+00
          total   stress  (Ry/bohr**3)                   (kbar)     P=  -16.05
  -0.00013100  -0.00000001  -0.00000000        -19.27     -0.00     -0.00
  -0.00000001  -0.00013100  -0.00000000         -0.00    -19.27     -0.00
  -0.00000000  -0.00000000  -0.00006541         -0.00     -0.00     -9.62

 !ASE

     Writing output data file calc.save

     General routines

     Parallel routines

   This run was terminated on:   5: 7:35   1Jan2019

   JOB DONE.
Job  /afs/slac/g/suncat/bin/suncat-tsmpirun -x LD_LIBRARY_PATH -wdir /scratch/qe648941_U90jI pw.x -in pw.inp

TID   HOST_NAME   COMMAND_LINE            STATUS            TERMINATION_TIME
00000 suncat0048 pw.x -in pw.inp   Done                     01/01/2019 05:07:35
00001 suncat0048 pw.x -in pw.inp   Done                     01/01/2019 05:07:35
00002 suncat0048 pw.x -in pw.inp   Done                     01/01/2019 05:07:35
00003 suncat0048 pw.x -in pw.inp   Done                     01/01/2019 05:07:35
00004 suncat0048 pw.x -in pw.inp   Done                     01/01/2019 05:07:35
00005 suncat0048 pw.x -in pw.inp   Done                     01/01/2019 05:07:35
00006 suncat0048 pw.x -in pw.inp   Done                     01/01/2019 05:07:35
00007 suncat0048 pw.x -in pw.inp   Done                     01/01/2019 05:07:35
00008 suncat0047 pw.x -in pw.inp   Done                     01/01/2019 05:07:35
00009 suncat0047 pw.x -in pw.inp   Done                     01/01/2019 05:07:35
00010 suncat0047 pw.x -in pw.inp   Done                     01/01/2019 05:07:35
00011 suncat0047 pw.x -in pw.inp   Done                     01/01/2019 05:07:35
00012 suncat0047 pw.x -in pw.inp   Done                     01/01/2019 05:07:35
00013 suncat0047 pw.x -in pw.inp   Done                     01/01/2019 05:07:35
00014 suncat0047 pw.x -in pw.inp   Done                     01/01/2019 05:07:35
00015 suncat0047 pw.x -in pw.inp   Done                     01/01/2019 05:07:35
00016 suncat0031 pw.x -in pw.inp   Done                     01/01/2019 05:07:35
00017 suncat0031 pw.x -in pw.inp   Done                     01/01/2019 05:07:35
00018 suncat0031 pw.x -in pw.inp   Done                     01/01/2019 05:07:35
00019 suncat0031 pw.x -in pw.inp   Done                     01/01/2019 05:07:35
00020 suncat0031 pw.x -in pw.inp   Done                     01/01/2019 05:07:35
00021 suncat0031 pw.x -in pw.inp   Done                     01/01/2019 05:07:35
00022 suncat0031 pw.x -in pw.inp   Done                     01/01/2019 05:07:35
00023 suncat0031 pw.x -in pw.inp   Done                     01/01/2019 05:07:35
00024 suncat0030 pw.x -in pw.inp   Done                     01/01/2019 05:07:35
00025 suncat0030 pw.x -in pw.inp   Done                     01/01/2019 05:07:35
00026 suncat0030 pw.x -in pw.inp   Done                     01/01/2019 05:07:35
00027 suncat0030 pw.x -in pw.inp   Done                     01/01/2019 05:07:35
00028 suncat0030 pw.x -in pw.inp   Done                     01/01/2019 05:07:35
00029 suncat0030 pw.x -in pw.inp   Done                     01/01/2019 05:07:35
00030 suncat0030 pw.x -in pw.inp   Done                     01/01/2019 05:07:35
00031 suncat0030 pw.x -in pw.inp   Done                     01/01/2019 05:07:35
00032 suncat0280 pw.x -in pw.inp   Done                     01/01/2019 05:07:35
00033 suncat0280 pw.x -in pw.inp   Done                     01/01/2019 05:07:35
00034 suncat0280 pw.x -in pw.inp   Done                     01/01/2019 05:07:35
00035 suncat0280 pw.x -in pw.inp   Done                     01/01/2019 05:07:35
00036 suncat0280 pw.x -in pw.inp   Done                     01/01/2019 05:07:35
00037 suncat0280 pw.x -in pw.inp   Done                     01/01/2019 05:07:35
00038 suncat0280 pw.x -in pw.inp   Done                     01/01/2019 05:07:35
00039 suncat0280 pw.x -in pw.inp   Done                     01/01/2019 05:07:35
00040 suncat0279 pw.x -in pw.inp   Done                     01/01/2019 05:07:35
00041 suncat0279 pw.x -in pw.inp   Done                     01/01/2019 05:07:35
00042 suncat0279 pw.x -in pw.inp   Done                     01/01/2019 05:07:35
00043 suncat0279 pw.x -in pw.inp   Done                     01/01/2019 05:07:35
00044 suncat0279 pw.x -in pw.inp   Done                     01/01/2019 05:07:35
00045 suncat0279 pw.x -in pw.inp   Done                     01/01/2019 05:07:35
00046 suncat0279 pw.x -in pw.inp   Done                     01/01/2019 05:07:35
00047 suncat0279 pw.x -in pw.inp   Done                     01/01/2019 05:07:35
00048 suncat0278 pw.x -in pw.inp   Done                     01/01/2019 05:07:35
00049 suncat0278 pw.x -in pw.inp   Done                     01/01/2019 05:07:35
00050 suncat0278 pw.x -in pw.inp   Done                     01/01/2019 05:07:35
00051 suncat0278 pw.x -in pw.inp   Done                     01/01/2019 05:07:35
00052 suncat0278 pw.x -in pw.inp   Done                     01/01/2019 05:07:35
00053 suncat0278 pw.x -in pw.inp   Done                     01/01/2019 05:07:35
00054 suncat0278 pw.x -in pw.inp   Done                     01/01/2019 05:07:35
00055 suncat0278 pw.x -in pw.inp   Done                     01/01/2019 05:07:35
00056 suncat0099 pw.x -in pw.inp   Done                     01/01/2019 05:07:35
00057 suncat0099 pw.x -in pw.inp   Done                     01/01/2019 05:07:35
00058 suncat0099 pw.x -in pw.inp   Done                     01/01/2019 05:07:35
00059 suncat0099 pw.x -in pw.inp   Done                     01/01/2019 05:07:35
00060 suncat0099 pw.x -in pw.inp   Done                     01/01/2019 05:07:35
00061 suncat0099 pw.x -in pw.inp   Done                     01/01/2019 05:07:35
00062 suncat0099 pw.x -in pw.inp   Done                     01/01/2019 05:07:35
00063 suncat0099 pw.x -in pw.inp   Done                     01/01/2019 05:07:35