     Program PWSCF v.5.1rc2 (svn rev. 11289) starts on 26Dec2018 at 15:26:17

     Current dimensions of program PWSCF are:
     Max number of different atomic species (ntypx) = 10
     Max number of k-points (npk) =  40000
     Max angular momentum in pseudopotentials (lmaxx) =  3
     Presently stress not available with electric field

     IMPORTANT: XC functional enforced from input :
     Exchange-correlation      = BEEF-VDW ( 1  4 27 13 2)
     Any further DFT definition will be discarded
     Please, verify this is what you really want

     Subspace diagonalization in iterative solution of the eigenvalue problem:
     a serial algorithm will be used

     Generating pointlists ...
     new r_m :   0.4125 (alat units)  0.7795 (a.u.) for type    1
     new r_m :   0.4125 (alat units)  0.7795 (a.u.) for type    2

     bravais-lattice index     =            0
     lattice parameter (alat)  =       1.8897  a.u.
     unit-cell volume          =    4164.0761 (a.u.)^3
     number of atoms/cell      =           12
     number of atomic types    =            2
     number of electrons       =       189.00
     number of Kohn-Sham states=          124
     kinetic-energy cutoff     =      36.7493  Ry
     charge density cutoff     =     367.4932  Ry
     convergence threshold     =      1.0E-06
     mixing beta               =       0.1000
     number of iterations used =           10  plain     mixing
     Exchange-correlation      = BEEF-VDW ( 1  4 27 13 2)
     nstep                     =           50

     celldm(1)=   1.889726  celldm(2)=   0.000000  celldm(3)=   0.000000
     celldm(4)=   0.000000  celldm(5)=   0.000000  celldm(6)=   0.000000

     crystal axes: (cart. coord. in units of alat)
               a(1) = (   5.402581   0.000000   0.000000 )
               a(2) = (  -2.701290   4.678772   0.000000 )
               a(3) = (   0.000000   0.000000  24.411189 )

     reciprocal axes: (cart. coord. in units 2 pi/alat)
               b(1) = (  0.185097  0.106866  0.000000 )
               b(2) = (  0.000000  0.213731  0.000000 )
               b(3) = (  0.000000  0.000000  0.040965 )

     PseudoPot. # 1 for Ir read from file:
     /afs/slac.stanford.edu/u/if/mamunm/psp/gbrv1.5pbe/Ir.UPF
     MD5 check sum: 8836f839c3459d2b385c504ce6d91f2c
     Pseudo is Ultrasoft + core correction, Zval = 15.0
     Generated by new atomic code, or converted to UPF format
     Using radial grid of  983 points,  7 beta functions with:
                l(1) =   0
                l(2) =   0
                l(3) =   1
                l(4) =   1
                l(5) =   1
                l(6) =   2
                l(7) =   2
     Q(r) pseudized with  8 coefficients,  rinner =    1.400   1.400   1.400
                                                       1.400   1.400

     PseudoPot. # 2 for Ni read from file:
     /afs/slac.stanford.edu/u/if/mamunm/psp/gbrv1.5pbe/Ni.UPF
     MD5 check sum: 1ee80287db30b12d2bc1f57a5b5d6409
     Pseudo is Ultrasoft + core correction, Zval = 18.0
     Generated by new atomic code, or converted to UPF format
     Using radial grid of  865 points,  6 beta functions with:
                l(1) =   0
                l(2) =   0
                l(3) =   1
                l(4) =   1
                l(5) =   2
                l(6) =   2
     Q(r) pseudized with 10 coefficients,  rinner =    0.980   0.980   0.980
                                                       0.980   0.980

     vdW kernel table read from file vdW_kernel_table
     MD5 check sum: 095c7af220d748ca6e76c0b4c6cfb241

     atomic species   valence    mass     pseudopotential
        Ir1           15.00   192.21700     Ir( 1.00)
        Ni1           18.00    58.69340     Ni( 1.00)

     Starting magnetic structure
     atomic species   magnetization
        Ir1          0.133
        Ni1          0.111

     No symmetry found

   Cartesian axes

     site n.     atom                  positions (alat units)
         1           Ir1 tau(   1) = (   0.0000000   0.0000000  10.0000000  )
         2           Ir1 tau(   2) = (  -1.3506451   2.3393860  10.0000000  )
         3           Ir1 tau(   3) = (   1.3506451   2.3393860  10.0000000  )
         4           Ni1 tau(   4) = (   2.7012903   0.0000000  10.0000000  )
         5           Ir1 tau(   5) = (   2.7012903   1.5595907  12.2055943  )
         6           Ir1 tau(   6) = (   1.3506451   3.8989767  12.2055943  )
         7           Ir1 tau(   7) = (  -1.3506451   3.8989767  12.2055943  )
         8           Ni1 tau(   8) = (   0.0000000   1.5595907  12.2055943  )
         9           Ir1 tau(   9) = (  -0.0000000   3.1191813  14.4111886  )
        10           Ir1 tau(  10) = (   1.3506451   0.7797953  14.4111886  )
        11           Ir1 tau(  11) = (   4.0519354   0.7797953  14.4111886  )
        12           Ni1 tau(  12) = (   2.7012903   3.1191813  14.4111886  )

     number of k points=    40  Fermi-Dirac smearing, width (Ry)=  0.0110
                       cart. coord. in units 2pi/alat
        k(    1) = (   0.0000000   0.0000000   0.0000000), wk =   0.0277778
        k(    2) = (   0.0000000   0.0356219   0.0000000), wk =   0.0555556
        k(    3) = (   0.0000000   0.0712438   0.0000000), wk =   0.0555556
        k(    4) = (   0.0000000  -0.1068656   0.0000000), wk =   0.0277778
        k(    5) = (   0.0308495   0.0178109   0.0000000), wk =   0.0555556
        k(    6) = (   0.0308495   0.0534328   0.0000000), wk =   0.0555556
        k(    7) = (   0.0308495   0.0890547   0.0000000), wk =   0.0555556
        k(    8) = (   0.0308495  -0.0890547   0.0000000), wk =   0.0555556
        k(    9) = (   0.0308495  -0.0534328   0.0000000), wk =   0.0555556
        k(   10) = (   0.0308495  -0.0178109   0.0000000), wk =   0.0555556
        k(   11) = (   0.0616989   0.0356219   0.0000000), wk =   0.0555556
        k(   12) = (   0.0616989   0.0712438   0.0000000), wk =   0.0555556
        k(   13) = (   0.0616989   0.1068656   0.0000000), wk =   0.0555556
        k(   14) = (   0.0616989  -0.0712438   0.0000000), wk =   0.0555556
        k(   15) = (   0.0616989  -0.0356219   0.0000000), wk =   0.0555556
        k(   16) = (   0.0616989   0.0000000   0.0000000), wk =   0.0555556
        k(   17) = (  -0.0925484  -0.0534328   0.0000000), wk =   0.0277778
        k(   18) = (  -0.0925484  -0.0178109   0.0000000), wk =   0.0555556
        k(   19) = (  -0.0925484   0.0178109   0.0000000), wk =   0.0555556
        k(   20) = (  -0.0925484  -0.1602985   0.0000000), wk =   0.0277778
        k(   21) = (   0.0000000   0.0000000   0.0000000), wk =   0.0277778
        k(   22) = (   0.0000000   0.0356219   0.0000000), wk =   0.0555556
        k(   23) = (   0.0000000   0.0712438   0.0000000), wk =   0.0555556
        k(   24) = (   0.0000000  -0.1068656   0.0000000), wk =   0.0277778
        k(   25) = (   0.0308495   0.0178109   0.0000000), wk =   0.0555556
        k(   26) = (   0.0308495   0.0534328   0.0000000), wk =   0.0555556
        k(   27) = (   0.0308495   0.0890547   0.0000000), wk =   0.0555556
        k(   28) = (   0.0308495  -0.0890547   0.0000000), wk =   0.0555556
        k(   29) = (   0.0308495  -0.0534328   0.0000000), wk =   0.0555556
        k(   30) = (   0.0308495  -0.0178109   0.0000000), wk =   0.0555556
        k(   31) = (   0.0616989   0.0356219   0.0000000), wk =   0.0555556
        k(   32) = (   0.0616989   0.0712438   0.0000000), wk =   0.0555556
        k(   33) = (   0.0616989   0.1068656   0.0000000), wk =   0.0555556
        k(   34) = (   0.0616989  -0.0712438   0.0000000), wk =   0.0555556
        k(   35) = (   0.0616989  -0.0356219   0.0000000), wk =   0.0555556
        k(   36) = (   0.0616989   0.0000000   0.0000000), wk =   0.0555556
        k(   37) = (  -0.0925484  -0.0534328   0.0000000), wk =   0.0277778
        k(   38) = (  -0.0925484  -0.0178109   0.0000000), wk =   0.0555556
        k(   39) = (  -0.0925484   0.0178109   0.0000000), wk =   0.0555556
        k(   40) = (  -0.0925484  -0.1602985   0.0000000), wk =   0.0277778

     Largest allocated arrays     est. size (Mb)     dimensions
     Largest temporary arrays     est. size (Mb)     dimensions

     Initial potential from superposition of free atoms
     Check: negative starting charge=(component1):   -1.857974
     Check: negative starting charge=(component2):   -1.420804

     starting charge  178.49972, renormalised to  189.00000

     negative rho (up, down):  1.967E+00 1.504E+00

     *
     * You are using vdW-DF for exchange-correlation in this calculation.
     * Please cite the following three references that made this development
     * possible:
     *
     *   M. Dion, H. Rydberg, E. Schroder, D. C. Langreth, and
     *   B. I. Lundqvist, Phys. Rev. Lett. 92, 246401 (2004).
     *
     *   T. Thonhauser, V. R. Cooper, S. Li, A. Puzder, P. Hyldgaard, and
     *   D. C. Langreth, Phys. Rev. B 76, 125112 (2007).
     *
     *   G. Roman-Perez and J. M. Soler, Phys. Rev. Lett. 103, 096102 (2009).
     *
     *
     * If you are using vdW-DF2, please also cite:
     *
     *   K. Lee, E. D. Murray, L. Kong, B. I. Lundqvist, and
     *   D. C. Langreth, Phys. Rev. B 82, 081101(R) (2010).
     *
     *
     * If you are calculating the stress with vdW-DF, please also cite:
     *
     *   R. Sabatini, E. Kucukbenli, B. Kolb, T. Thonhauser, and
     *   S. de Gironcoli, J. Phys.: Condens. Matter 24, 424209 (2012).
     *

     Carrying out vdW-DF run using the following parameters:

     Nqs =      20    Nr_points =    1024   r_max =   100.000
     q_mesh =
               0.00001000     0.04494208     0.09755937     0.15916263
               0.23128650     0.31572767     0.41458969     0.53033537
               0.66584808     0.82450364     1.01025438     1.22772762
               1.48234092     1.78043706     2.12944203     2.53805004
               3.01644009     3.57652955     4.23227104     5.00000000

     Gradients computed in reciprocal space

     Adding external electric field

     Computed dipole along edir(3) :
        Dipole               -0.0000 Ry au,         -0.0000 Debye
        Dipole field         -0.0000 Ry au

        Potential amp.        0.0000 Ry
        Total length         44.9772 bohr

[...]

     Starting wfc are  147 randomized atomic wfcs

     Self-consistent Calculation

     iteration #  1     ecut=    36.75 Ry     beta=0.10
     Davidson diagonalization with overlap
     ethr =  1.00E-02,  avg # of iterations =  7.3

[...]

     Magnetic moment per site:
     atom:    1    charge:    1.6271    magn:    0.1995    constr:    0.0000
     atom:    2    charge:    1.6271    magn:    0.1995    constr:    0.0000
     atom:    3    charge:    1.6271    magn:    0.1995    constr:    0.0000
     atom:    4    charge:    9.5357    magn:    1.0359    constr:    0.0000
     atom:    5    charge:    1.6176    magn:    0.1975    constr:    0.0000
     atom:    6    charge:    1.6176    magn:    0.1975    constr:    0.0000
     atom:    7    charge:    1.6176    magn:    0.1975    constr:    0.0000
     atom:    8    charge:    9.5009    magn:    1.0201    constr:    0.0000
[...]
        k(    2) = (   0.0000000   0.0356219   0.0000000), wk =   0.0555556
        k(    3) = (   0.0000000   0.0712438   0.0000000), wk =   0.0555556
        k(    4) = (   0.0000000  -0.1068656   0.0000000), wk =   0.0277778
        k(    5) = (   0.0308495   0.0178109   0.0000000), wk =   0.0555556
        k(    6) = (   0.0308495   0.0534328   0.0000000), wk =   0.0555556
        k(    7) = (   0.0308495   0.0890547   0.0000000), wk =   0.0555556
        k(    8) = (   0.0308495  -0.0890547   0.0000000), wk =   0.0555556
        k(    9) = (   0.0308495  -0.0534328   0.0000000), wk =   0.0555556
        k(   10) = (   0.0308495  -0.0178109   0.0000000), wk =   0.0555556
        k(   11) = (   0.0616989   0.0356219   0.0000000), wk =   0.0555556
        k(   12) = (   0.0616989   0.0712438   0.0000000), wk =   0.0555556
        k(   13) = (   0.0616989   0.1068656   0.0000000), wk =   0.0555556
        k(   14) = (   0.0616989  -0.0712438   0.0000000), wk =   0.0555556
        k(   15) = (   0.0616989  -0.0356219   0.0000000), wk =   0.0555556
        k(   16) = (   0.0616989   0.0000000   0.0000000), wk =   0.0555556
        k(   17) = (  -0.0925484  -0.0534328   0.0000000), wk =   0.0277778
        k(   18) = (  -0.0925484  -0.0178109   0.0000000), wk =   0.0555556
        k(   19) = (  -0.0925484   0.0178109   0.0000000), wk =   0.0555556
        k(   20) = (  -0.0925484  -0.1602985   0.0000000), wk =   0.0277778
        k(   21) = (   0.0000000   0.0000000   0.0000000), wk =   0.0277778
        k(   22) = (   0.0000000   0.0356219   0.0000000), wk =   0.0555556
        k(   23) = (   0.0000000   0.0712438   0.0000000), wk =   0.0555556
        k(   24) = (   0.0000000  -0.1068656   0.0000000), wk =   0.0277778
        k(   25) = (   0.0308495   0.0178109   0.0000000), wk =   0.0555556
        k(   26) = (   0.0308495   0.0534328   0.0000000), wk =   0.0555556
        k(   27) = (   0.0308495   0.0890547   0.0000000), wk =   0.0555556
        k(   28) = (   0.0308495  -0.0890547   0.0000000), wk =   0.0555556
        k(   29) = (   0.0308495  -0.0534328   0.0000000), wk =   0.0555556
        k(   30) = (   0.0308495  -0.0178109   0.0000000), wk =   0.0555556
        k(   31) = (   0.0616989   0.0356219   0.0000000), wk =   0.0555556
        k(   32) = (   0.0616989   0.0712438   0.0000000), wk =   0.0555556
        k(   33) = (   0.0616989   0.1068656   0.0000000), wk =   0.0555556
        k(   34) = (   0.0616989  -0.0712438   0.0000000), wk =   0.0555556
        k(   35) = (   0.0616989  -0.0356219   0.0000000), wk =   0.0555556
        k(   36) = (   0.0616989   0.0000000   0.0000000), wk =   0.0555556
        k(   37) = (  -0.0925484  -0.0534328   0.0000000), wk =   0.0277778
        k(   38) = (  -0.0925484  -0.0178109   0.0000000), wk =   0.0555556
        k(   39) = (  -0.0925484   0.0178109   0.0000000), wk =   0.0555556
        k(   40) = (  -0.0925484  -0.1602985   0.0000000), wk =   0.0277778

     Largest allocated arrays     est. size (Mb)     dimensions
     Largest temporary arrays     est. size (Mb)     dimensions

     Initial potential from superposition of free atoms
     Check: negative starting charge=(component1):   -1.857989
     Check: negative starting charge=(component2):   -1.420815

     starting charge  178.49972, renormalised to  189.00000

[...]

     *
     * You are using vdW-DF for exchange-correlation in this calculation.
     * Please cite the following three references that made this development
     * possible:
     *
     *   M. Dion, H. Rydberg, E. Schroder, D. C. Langreth, and
     *   B. I. Lundqvist, Phys. Rev. Lett. 92, 246401 (2004).
     *
     *   T. Thonhauser, V. R. Cooper, S. Li, A. Puzder, P. Hyldgaard, and
     *   D. C. Langreth, Phys. Rev. B 76, 125112 (2007).
     *
     *   G. Roman-Perez and J. M. Soler, Phys. Rev. Lett. 103, 096102 (2009).
     *
     *
     * If you are using vdW-DF2, please also cite:
     *
     *   K. Lee, E. D. Murray, L. Kong, B. I. Lundqvist, and
     *   D. C. Langreth, Phys. Rev. B 82, 081101(R) (2010).
     *
     *
     * If you are calculating the stress with vdW-DF, please also cite:
     *
     *   R. Sabatini, E. Kucukbenli, B. Kolb, T. Thonhauser, and
     *   S. de Gironcoli, J. Phys.: Condens. Matter 24, 424209 (2012).
     *

     Carrying out vdW-DF run using the following parameters:

     Nqs =      20    Nr_points =    1024   r_max =   100.000
     q_mesh =
               0.00001000     0.04494208     0.09755937     0.15916263
               0.23128650     0.31572767     0.41458969     0.53033537
               0.66584808     0.82450364     1.01025438     1.22772762
               1.48234092     1.78043706     2.12944203     2.53805004
               3.01644009     3.57652955     4.23227104     5.00000000

     Gradients computed in reciprocal space

[...]

     Starting wfc are  147 randomized atomic wfcs

     Self-consistent Calculation

[...]

     total energy              =   -2683.03483095 Ry
     Harris-Foulkes estimate   =   -2683.03483133 Ry
     estimated scf accuracy    <       0.00000260 Ry

[...]

     iteration # 32     ecut=    36.75 Ry     beta=0.10
     Davidson diagonalization with overlap
     ethr =  1.37E-09,  avg # of iterations =  2.1

[...]

     negative rho (up, down):  1.512E+00 1.405E+00

[...]

     Adding external electric field

     Computed dipole along edir(3) :
        Dipole                0.0016 Ry au,          0.0040 Debye
        Dipole field          0.0000 Ry au

        Potential amp.       -0.0004 Ry
        Total length         44.9772 bohr

     Magnetic moment per site:
     atom:    1    charge:    1.6127    magn:    0.0134    constr:    0.0000
     atom:    2    charge:    1.6127    magn:    0.0134    constr:    0.0000
     atom:    3    charge:    1.6127    magn:    0.0134    constr:    0.0000
     atom:    4    charge:    9.3493    magn:    0.3429    constr:    0.0000
     atom:    5    charge:    1.6087    magn:    0.0137    constr:    0.0000
     atom:    6    charge:    1.6087    magn:    0.0137    constr:    0.0000
     atom:    7    charge:    1.6087    magn:    0.0137    constr:    0.0000
     atom:    8    charge:    9.3370    magn:    0.4394    constr:    0.0000
     atom:    9    charge:    1.6104    magn:    0.0130    constr:    0.0000
     atom:   10    charge:    1.6104    magn:    0.0130    constr:    0.0000
     atom:   11    charge:    1.6104    magn:    0.0130    constr:    0.0000
     atom:   12    charge:    9.3480    magn:    0.3396    constr:    0.0000

     End of self-consistent calculation

 ------ SPIN UP ------------

[...]

 ------ SPIN DOWN ----------

[...]

          k = 0.0617 0.0000 0.0000 ( 15636 PWs)   bands (ev):

[...]

          k =-0.0925-0.1603 0.0000 ( 15704 PWs)   bands (ev):

  -101.1654-101.0309-100.9705 -61.5732 -61.5590 -61.5588 -61.4958 -61.4956
   -61.4442 -61.4440 -61.2753 -61.1950 -47.8394 -47.7359 -47.6713 -47.6680
   -47.5808 -47.5755 -47.5369 -47.5110 -47.3881 -47.3315 -47.3304 -47.2139
   -47.1597 -47.1320 -47.1295 -47.0943 -47.0852 -47.0657 -47.0353 -47.0262
   -47.0103 -47.0090 -46.9560 -46.9440 -46.9356 -46.9327 -46.8813  -5.5258
    -5.1662  -3.9670  -3.8075  -3.7291  -3.4173  -3.3895  -3.2635  -3.0250
    -2.9123  -2.8591  -2.7679  -2.4486  -2.2980  -2.2531  -2.1607  -2.0894
    -1.9219  -1.6634  -1.6211  -1.1559  -1.1535  -1.0087  -0.9654  -0.8973
    -0.8697  -0.8084  -0.7135  -0.6588  -0.5792  -0.5168  -0.3852  -0.3522
    -0.3164  -0.0179  -0.0033  -0.0026   0.0817   0.1841   0.2545   0.4852
     0.5803   0.7460   0.7558   0.7772   0.8878   0.9721   1.0207   1.0609
     1.1884   1.3394   1.3956   1.4129   1.5512   1.7046   1.7669   1.8734
     2.0151   2.1195   2.2442   2.2669   2.5717   2.8558   3.4401   3.5922
     4.1476   4.2320   5.0090   5.4890   6.0278   6.4091   6.7241   7.3655
     7.5768   8.0970   8.1023   8.7068   8.7383   8.8740   8.8757   9.9238
     9.9306   9.9482  10.1350  10.1488

     the Fermi energy is     1.8922 ev

!    total energy              =   -2683.03484067 Ry
     Harris-Foulkes estimate   =   -2683.03483636 Ry
     estimated scf accuracy    <       0.00000096 Ry

     The total energy is the sum of the following terms:

     one-electron contribution =  -21813.13828306 Ry
     hartree contribution      =   10931.77978446 Ry
     xc contribution           =    -578.00264116 Ry
     ewald contribution        =    8776.43132635 Ry
     electric field correction =       0.00000001 Ry
     smearing contrib. (-TS)   =      -0.10502726 Ry

     total magnetization       =     4.50 Bohr mag/cell
     absolute magnetization    =     5.06 Bohr mag/cell

     convergence has been achieved in  32 iterations

 BEEF-vdW xc energy contributions
           1 :   -511.521425050263
           2 :    473.561230572073
           3 :   -406.648274067452
           4 :    325.374196591032
           5 :   -244.957652466345
           6 :    176.841022019655
           7 :   -126.341056173073
           8 :    92.8010096346135
           9 :   -71.6736666724057
          10 :    57.2963389460189
          11 :   -45.1471493260387
          12 :    32.8992690072600
          13 :   -20.3083347548795
          14 :    8.41674985300779
          15 :    1.35712217448804
          16 :   -7.90963506983530
          17 :    10.8298367591162
          18 :   -10.5177938810398
          19 :    8.08746586349969
          20 :   -5.07503956679000
          21 :    2.97408028381278
          22 :   -2.71919900920193
          23 :    4.32579891770229
          24 :   -6.90002206786505
          25 :    9.06844820319805
          26 :   -9.65505321743990
          27 :    8.26421496132946
          28 :   -5.46615206834861
          29 :    2.48234791501204
          30 :  -0.550312992484805
          31 :   -43.4873930091424
          32 :   -32.1804053143151

     Forces acting on atoms (Ry/au):

     negative rho (up, down):  1.512E+00 1.405E+00
     atom    1 type  1   force =     0.00000008    0.00476569    0.01452985
     atom    2 type  1   force =     0.00412733   -0.00238283    0.01452998
     atom    3 type  1   force =    -0.00412732   -0.00238288    0.01452989
     atom    4 type  2   force =    -0.00000076   -0.00000040    0.01040535
     atom    5 type  1   force =     0.00000003    0.00249281   -0.01539693
     atom    6 type  1   force =     0.00215861   -0.00124624   -0.01539684
     atom    7 type  1   force =    -0.00215873   -0.00124627   -0.01539681
     atom    8 type  2   force =    -0.00000027    0.00000065   -0.01151549
     atom    9 type  1   force =     0.00000006    0.00100419    0.00095683
     atom   10 type  1   force =     0.00086947   -0.00050222    0.00095681
     atom   11 type  1   force =    -0.00086945   -0.00050211    0.00095684
     atom   12 type  2   force =     0.00000095   -0.00000039    0.00084052

     Total force =     0.040972     Total SCF correction =     0.001089

     entering subroutine stress ...

     negative rho (up, down):  1.512E+00 1.405E+00
          total   stress  (Ry/bohr**3)                   (kbar)     P=  -41.75
  -0.00033244  -0.00000000   0.00000000        -48.90     -0.00      0.00
  -0.00000000  -0.00033244  -0.00000000         -0.00    -48.90     -0.00
   0.00000000  -0.00000000  -0.00018665          0.00     -0.00    -27.46

 !ASE

     Writing output data file calc.save

     General routines

     Parallel routines

   This run was terminated on:  18:46:14  26Dec2018

   JOB DONE.
Job  /afs/slac/g/suncat/bin/suncat-tsmpirun -x LD_LIBRARY_PATH -wdir /scratch/qe109948_ufcZM pw.x -in pw.inp

TID   HOST_NAME   COMMAND_LINE            STATUS            TERMINATION_TIME
00000 suncat0057 pw.x -in pw.inp   Done                     12/26/2018 18:46:14
00001 suncat0057 pw.x -in pw.inp   Done                     12/26/2018 18:46:14
00002 suncat0057 pw.x -in pw.inp   Done                     12/26/2018 18:46:14
00003 suncat0057 pw.x -in pw.inp   Done                     12/26/2018 18:46:14
00004 suncat0057 pw.x -in pw.inp   Done                     12/26/2018 18:46:14
00005 suncat0057 pw.x -in pw.inp   Done                     12/26/2018 18:46:14
00006 suncat0057 pw.x -in pw.inp   Done                     12/26/2018 18:46:14
00007 suncat0057 pw.x -in pw.inp   Done                     12/26/2018 18:46:14
00008 suncat0056 pw.x -in pw.inp   Done                     12/26/2018 18:46:14
00009 suncat0056 pw.x -in pw.inp   Done                     12/26/2018 18:46:14
00010 suncat0056 pw.x -in pw.inp   Done                     12/26/2018 18:46:14
00011 suncat0056 pw.x -in pw.inp   Done                     12/26/2018 18:46:14
00012 suncat0056 pw.x -in pw.inp   Done                     12/26/2018 18:46:14
00013 suncat0056 pw.x -in pw.inp   Done                     12/26/2018 18:46:14
00014 suncat0056 pw.x -in pw.inp   Done                     12/26/2018 18:46:14
00015 suncat0056 pw.x -in pw.inp   Done                     12/26/2018 18:46:14
00016 suncat0055 pw.x -in pw.inp   Done                     12/26/2018 18:46:14
00017 suncat0055 pw.x -in pw.inp   Done                     12/26/2018 18:46:14
00018 suncat0055 pw.x -in pw.inp   Done                     12/26/2018 18:46:14
00019 suncat0055 pw.x -in pw.inp   Done                     12/26/2018 18:46:14
00020 suncat0055 pw.x -in pw.inp   Done                     12/26/2018 18:46:14
00021 suncat0055 pw.x -in pw.inp   Done                     12/26/2018 18:46:14
00022 suncat0055 pw.x -in pw.inp   Done                     12/26/2018 18:46:14
00023 suncat0055 pw.x -in pw.inp   Done                     12/26/2018 18:46:14
00024 suncat0051 pw.x -in pw.inp   Done                     12/26/2018 18:46:14
00025 suncat0051 pw.x -in pw.inp   Done                     12/26/2018 18:46:14
00026 suncat0051 pw.x -in pw.inp   Done                     12/26/2018 18:46:14
00027 suncat0051 pw.x -in pw.inp   Done                     12/26/2018 18:46:14
00028 suncat0051 pw.x -in pw.inp   Done                     12/26/2018 18:46:14
00029 suncat0051 pw.x -in pw.inp   Done                     12/26/2018 18:46:14
00030 suncat0051 pw.x -in pw.inp   Done                     12/26/2018 18:46:14
00031 suncat0051 pw.x -in pw.inp   Done                     12/26/2018 18:46:14
00032 suncat0217 pw.x -in pw.inp   Done                     12/26/2018 18:46:14
00033 suncat0217 pw.x -in pw.inp   Done                     12/26/2018 18:46:14
00034 suncat0217 pw.x -in pw.inp   Done                     12/26/2018 18:46:14
00035 suncat0217 pw.x -in pw.inp   Done                     12/26/2018 18:46:14
00036 suncat0217 pw.x -in pw.inp   Done                     12/26/2018 18:46:14
00037 suncat0217 pw.x -in pw.inp   Done                     12/26/2018 18:46:14
00038 suncat0217 pw.x -in pw.inp   Done                     12/26/2018 18:46:14
00039 suncat0217 pw.x -in pw.inp   Done                     12/26/2018 18:46:14
00040 suncat0216 pw.x -in pw.inp   Done                     12/26/2018 18:46:14
00041 suncat0216 pw.x -in pw.inp   Done                     12/26/2018 18:46:14
00042 suncat0216 pw.x -in pw.inp   Done                     12/26/2018 18:46:14
00043 suncat0216 pw.x -in pw.inp   Done                     12/26/2018 18:46:14
00044 suncat0216 pw.x -in pw.inp   Done                     12/26/2018 18:46:14
00045 suncat0216 pw.x -in pw.inp   Done                     12/26/2018 18:46:14
00046 suncat0216 pw.x -in pw.inp   Done                     12/26/2018 18:46:14
00047 suncat0216 pw.x -in pw.inp   Done                     12/26/2018 18:46:14
00048 suncat0215 pw.x -in pw.inp   Done                     12/26/2018 18:46:14
00049 suncat0215 pw.x -in pw.inp   Done                     12/26/2018 18:46:14
00050 suncat0215 pw.x -in pw.inp   Done                     12/26/2018 18:46:14
00051 suncat0215 pw.x -in pw.inp   Done                     12/26/2018 18:46:14
00052 suncat0215 pw.x -in pw.inp   Done                     12/26/2018 18:46:14
00053 suncat0215 pw.x -in pw.inp   Done                     12/26/2018 18:46:14
00054 suncat0215 pw.x -in pw.inp   Done                     12/26/2018 18:46:14
00055 suncat0215 pw.x -in pw.inp   Done                     12/26/2018 18:46:14
00056 suncat0210 pw.x -in pw.inp   Done                     12/26/2018 18:46:14
00057 suncat0210 pw.x -in pw.inp   Done                     12/26/2018 18:46:14
00058 suncat0210 pw.x -in pw.inp   Done                     12/26/2018 18:46:14
00059 suncat0210 pw.x -in pw.inp   Done                     12/26/2018 18:46:14
00060 suncat0210 pw.x -in pw.inp   Done                     12/26/2018 18:46:14
00061 suncat0210 pw.x -in pw.inp   Done                     12/26/2018 18:46:14
00062 suncat0210 pw.x -in pw.inp   Done                     12/26/2018 18:46:14
00063 suncat0210 pw.x -in pw.inp   Done                     12/26/2018 18:46:14