     Program PWSCF v.5.1rc2 (svn rev. 11289) starts on 27Dec2018 at  7: 0:27

     Current dimensions of program PWSCF are:
     Max number of different atomic species (ntypx) = 10
     Max number of k-points (npk) =  40000
     Max angular momentum in pseudopotentials (lmaxx) =  3
     Presently stress not available with electric field

     IMPORTANT: XC functional enforced from input :
     Exchange-correlation      = BEEF-VDW ( 1  4 27 13 2)
     Any further DFT definition will be discarded
     Please, verify this is what you really want

     Subspace diagonalization in iterative solution of the eigenvalue problem:
     a serial algorithm will be used

     bravais-lattice index     =            0
     lattice parameter (alat)  =       1.8897  a.u.
     unit-cell volume          =    5205.8951 (a.u.)^3
     number of atoms/cell      =           12
     number of atomic types    =            2
     number of electrons       =       156.00
     number of Kohn-Sham states=          108
     kinetic-energy cutoff     =      36.7493  Ry
     charge density cutoff     =     367.4932  Ry
     convergence threshold     =      1.0E-06
     mixing beta               =       0.1000
     number of iterations used =           10  plain     mixing
     Exchange-correlation      = BEEF-VDW ( 1  4 27 13 2)
     nstep                     =           50

     celldm(1)=   1.889726  celldm(2)=   0.000000  celldm(3)=   0.000000
     celldm(4)=   0.000000  celldm(5)=   0.000000  celldm(6)=   0.000000

     crystal axes: (cart. coord. in units of alat)
               a(1) = (   5.982942   0.000000   0.000000 )
               a(2) = (  -2.991471   5.181380   0.000000 )
               a(3) = (   0.000000   0.000000  24.885052 )

     reciprocal axes: (cart. coord. in units 2 pi/alat)
               b(1) = (  0.167142  0.096499  0.000000 )
               b(2) = (  0.000000  0.192999  0.000000 )
               b(3) = (  0.000000  0.000000  0.040185 )

     PseudoPot. # 1 for Nb read from file:
     /afs/slac.stanford.edu/u/if/mamunm/psp/gbrv1.5pbe/Nb.UPF
     MD5 check sum: 573aab8a2fa660278ed4a62cd769473f
     Pseudo is Ultrasoft + core correction, Zval = 13.0
     Generated by new atomic code, or converted to UPF format
     Using radial grid of  887 points,  6 beta functions with:
                l(1) =   0
                l(2) =   0
                l(3) =   1
                l(4) =   1
                l(5) =   2
                l(6) =   2
     Q(r) pseudized with  6 coefficients,  rinner =    1.000   1.000   1.000
                                                       1.000   1.000

     PseudoPot. # 2 for Ta read from file:
     /afs/slac.stanford.edu/u/if/mamunm/psp/gbrv1.5pbe/Ta.UPF
     MD5 check sum: f8bbe9446314a3b8ea5d9f3e3836c939
     Pseudo is Ultrasoft + core correction, Zval = 13.0
     Generated by new atomic code, or converted to UPF format
     Using radial grid of  921 points,  7 beta functions with:
                l(1) =   0
                l(2) =   0
                l(3) =   1
                l(4) =   1
                l(5) =   2
                l(6) =   2
                l(7) =   3
     Q(r) pseudized with  6 coefficients,  rinner =    1.300   1.300   1.300
                                                       1.300   1.300   1.300
                                                       1.300

     vdW kernel table read from file vdW_kernel_table
     MD5 check sum: 095c7af220d748ca6e76c0b4c6cfb241

     atomic species   valence    mass     pseudopotential
        Nb1           13.00    92.90637     Nb( 1.00)
        Ta1           13.00   180.94788     Ta( 1.00)

     No symmetry found

   Cartesian axes

     site n.     atom                  positions (alat units)
         1           Nb1 tau(   1) = (   0.0000000   0.0000000  10.0000000  )
         2           Nb1 tau(   2) = (  -1.4957356   2.5906900  10.0000000  )
         3           Nb1 tau(   3) = (   1.4957356   2.5906900  10.0000000  )
         4           Ta1 tau(   4) = (   2.9914711   0.0000000  10.0000000  )
         5           Nb1 tau(   5) = (   2.9914711   1.7271267  12.4425260  )
         6           Nb1 tau(   6) = (   1.4957356   4.3178167  12.4425260  )
         7           Nb1 tau(   7) = (  -1.4957356   4.3178167  12.4425260  )
         8           Ta1 tau(   8) = (   0.0000000   1.7271267  12.4425260  )
         9           Nb1 tau(   9) = (  -0.0000000   3.4542533  14.8850519  )
        10           Nb1 tau(  10) = (   1.4957356   0.8635633  14.8850519  )
        11           Nb1 tau(  11) = (   4.4872067   0.8635633  14.8850519  )
        12           Ta1 tau(  12) = (   2.9914711   3.4542533  14.8850519  )

     number of k points=    20  Fermi-Dirac smearing, width (Ry)=  0.0110
                       cart. coord. in units 2pi/alat
        k(    1) = (   0.0000000   0.0000000   0.0000000), wk =   0.0555556
        k(    2) = (   0.0000000   0.0321665   0.0000000), wk =   0.1111111
        k(    3) = (   0.0000000   0.0643329   0.0000000), wk =   0.1111111
        k(    4) = (   0.0000000  -0.0964994   0.0000000), wk =   0.0555556
        k(    5) = (   0.0278570   0.0160832   0.0000000), wk =   0.1111111
        k(    6) = (   0.0278570   0.0482497   0.0000000), wk =   0.1111111
        k(    7) = (   0.0278570   0.0804162   0.0000000), wk =   0.1111111
        k(    8) = (   0.0278570  -0.0804162   0.0000000), wk =   0.1111111
        k(    9) = (   0.0278570  -0.0482497   0.0000000), wk =   0.1111111
        k(   10) = (   0.0278570  -0.0160832   0.0000000), wk =   0.1111111
        k(   11) = (   0.0557139   0.0321665   0.0000000), wk =   0.1111111
        k(   12) = (   0.0557139   0.0643329   0.0000000), wk =   0.1111111
        k(   13) = (   0.0557139   0.0964994   0.0000000), wk =   0.1111111
        k(   14) = (   0.0557139  -0.0643329   0.0000000), wk =   0.1111111
        k(   15) = (   0.0557139  -0.0321665   0.0000000), wk =   0.1111111
        k(   16) = (   0.0557139   0.0000000   0.0000000), wk =   0.1111111
        k(   17) = (  -0.0835709  -0.0482497   0.0000000), wk =   0.0555556
        k(   18) = (  -0.0835709  -0.0160832   0.0000000), wk =   0.1111111
        k(   19) = (  -0.0835709   0.0160832   0.0000000), wk =   0.1111111
        k(   20) = (  -0.0835709  -0.1447491   0.0000000), wk =   0.0555556

     Largest allocated arrays     est. size (Mb)     dimensions
     Largest temporary arrays     est. size (Mb)     dimensions

     Initial potential from superposition of free atoms
     Check: negative starting charge=   -0.284471

     starting charge  155.97206, renormalised to  156.00000

     negative rho (up, down):  2.845E-01 0.000E+00

     *
     * You are using vdW-DF for exchange-correlation in this calculation.
     * Please cite the following three references that made this development
     * possible:
     *
     *   M. Dion, H. Rydberg, E. Schroder, D. C. Langreth, and
     *   B. I. Lundqvist, Phys. Rev. Lett. 92, 246401 (2004).
     *
     *   T. Thonhauser, V. R. Cooper, S. Li, A. Puzder, P. Hyldgaard, and
     *   D. C. Langreth, Phys. Rev. B 76, 125112 (2007).
     *
     *   G. Roman-Perez and J. M. Soler, Phys. Rev. Lett. 103, 096102 (2009).
     *
     *
     * If you are using vdW-DF2, please also cite:
     *
     *   K. Lee, E. D. Murray, L. Kong, B. I. Lundqvist, and
     *   D. C. Langreth, Phys. Rev. B 82, 081101(R) (2010).
     *
     *
     * If you are calculating the stress with vdW-DF, please also cite:
     *
     *   R. Sabatini, E. Kucukbenli, B. Kolb, T. Thonhauser, and
     *   S. de Gironcoli, J. Phys.: Condens. Matter 24, 424209 (2012).
     *

     Carrying out vdW-DF run using the following parameters:

     Nqs =      20    Nr_points =    1024   r_max =   100.000
     q_mesh =
               0.00001000     0.04494208     0.09755937     0.15916263
               0.23128650     0.31572767     0.41458969     0.53033537
               0.66584808     0.82450364     1.01025438     1.22772762
               1.48234092     1.78043706     2.12944203     2.53805004
               3.01644009     3.57652955     4.23227104     5.00000000

     Gradients computed in reciprocal space

     Adding external electric field

     Computed dipole along edir(3) :
        Dipole               -0.0000 Ry au,         -0.0000 Debye
        Dipole field         -0.0000 Ry au

        Potential amp.        0.0000 Ry
        Total length         45.8503 bohr

     Starting wfc are  156 randomized atomic wfcs

     Self-consistent Calculation

     iteration #  1     ecut=    36.75 Ry     beta=0.10
     Davidson diagonalization with overlap
     ethr =  1.00E-02,  avg # of iterations =  2.0

[...]

     total energy              =   -1495.55538869 Ry
     Harris-Foulkes estimate   =   -1496.71572334 Ry
     estimated scf accuracy    <       6.74575444 Ry

[...]

     End of self-consistent calculation

          k = 0.0000 0.0000 0.0000 ( 19507 PWs)   bands (ev):

   -66.4894 -66.4893 -66.3785 -53.2238 -53.1905 -53.1363 -53.1135 -53.1135
   -53.1009 -53.1009 -53.0669 -53.0669 -32.9039 -32.8875 -32.7981 -32.7981
   -32.7920 -32.7920 -32.7423 -32.7423 -32.7211 -29.6987 -29.5748 -29.5264
   -29.4278 -29.4278 -29.4129 -29.3571 -29.3571 -29.2757 -29.2757 -29.2748
   -29.1783 -29.1783 -29.1176 -29.1176 -29.0153 -28.9367 -28.9264 -28.9264
   -28.9191 -28.8374 -28.8122 -28.8122 -28.7989 -28.7989 -28.7852 -28.7852
    -4.1874  -2.8396  -2.3348  -1.7893  -1.7087  -1.7087  -1.6241  -1.3748
    -1.3748  -1.0558  -0.9872  -0.9811  -0.9811  -0.8858  -0.8858   0.1975
     0.2153   0.2153   1.1691   1.3011   1.3110   1.3110   1.6253   1.7902
     2.0362   2.0362   2.1505   2.1559   2.1559   2.2873   2.2873   2.3148
     2.4047   2.4047   2.4503   2.4503   2.6604   3.0017   3.0017   3.1560
     3.7667   3.8932   3.8932   3.9382   3.9382   4.1247   4.4474   4.4474
     4.8343   4.8343   4.8355   4.8355   4.8470   5.5598   5.6598   5.8572
     5.8707   5.8707   5.9685   5.9685

[...]

          k =-0.0836-0.0482 0.0000 ( 19588 PWs)   bands (ev):

[...]

     the Fermi energy is     1.8769 ev

!    total energy              =   -1496.11816592 Ry
     Harris-Foulkes estimate   =   -1496.11816605 Ry
     estimated scf accuracy    <       0.00000012 Ry

     The total energy is the sum of the following terms:

     one-electron contribution =  -11322.10039500 Ry
     hartree contribution      =    5650.05917126 Ry
     xc contribution           =    -301.66466557 Ry
     ewald contribution        =    4477.70777038 Ry
     electric field correction =       0.00000001 Ry
     smearing contrib. (-TS)   =      -0.12004700 Ry

     convergence has been achieved in  19 iterations

 BEEF-vdW xc energy contributions
           1 :   -261.594884800272
           2 :    239.497769778884
           3 :   -201.433750313908
           4 :    157.038380768271
           5 :   -115.773818154895
           6 :    83.8057132958967
           7 :   -62.6988389442367
           8 :    50.1293202448587
           9 :   -41.9474932839998
          10 :    34.4209018478259
          11 :   -25.6800421401591
          12 :    15.9259651529105
          13 :   -6.62935925463728
          14 :  -0.672941067456691
[...]
                l(2) =   0
                l(3) =   1
                l(4) =   1
                l(5) =   2
                l(6) =   2
     Q(r) pseudized with  6 coefficients,  rinner =    1.000   1.000   1.000
                                                       1.000   1.000

     PseudoPot. # 2 for Ta read from file:
     /afs/slac.stanford.edu/u/if/mamunm/psp/gbrv1.5pbe/Ta.UPF
     MD5 check sum: f8bbe9446314a3b8ea5d9f3e3836c939
     Pseudo is Ultrasoft + core correction, Zval = 13.0
     Generated by new atomic code, or converted to UPF format
     Using radial grid of  921 points,  7 beta functions with:
                l(1) =   0
                l(2) =   0
                l(3) =   1
                l(4) =   1
                l(5) =   2
                l(6) =   2
                l(7) =   3
     Q(r) pseudized with  6 coefficients,  rinner =    1.300   1.300   1.300
                                                       1.300   1.300   1.300
                                                       1.300

     vdW kernel table read from file vdW_kernel_table
     MD5 check sum: 095c7af220d748ca6e76c0b4c6cfb241

     atomic species   valence    mass     pseudopotential
        Nb1           13.00    92.90637     Nb( 1.00)
        Ta1           13.00   180.94788     Ta( 1.00)

     No symmetry found

   Cartesian axes

     site n.     atom                  positions (alat units)
         1           Nb1 tau(   1) = (   0.0000000   0.0000000  10.0000000  )
         2           Nb1 tau(   2) = (  -1.4957356   2.5906900  10.0000000  )
         3           Nb1 tau(   3) = (   1.4957356   2.5906900  10.0000000  )
         4           Ta1 tau(   4) = (   2.9914711   0.0000000  10.0000000  )
         5           Nb1 tau(   5) = (   2.9914711   1.7271267  12.4425260  )
         6           Nb1 tau(   6) = (   1.4957356   4.3178167  12.4425260  )
         7           Nb1 tau(   7) = (  -1.4957356   4.3178167  12.4425260  )
         8           Ta1 tau(   8) = (   0.0000000   1.7271267  12.4425260  )
         9           Nb1 tau(   9) = (   0.0000001   3.4226308  14.9152000  )
        10           Nb1 tau(  10) = (   1.4683504   0.8793745  14.9152019  )
        11           Nb1 tau(  11) = (   4.5145935   0.8793738  14.9152009  )
        12           Ta1 tau(  12) = (   2.9914686   3.4542511  14.8122697  )

     number of k points=    20  Fermi-Dirac smearing, width (Ry)=  0.0110
                       cart. coord. in units 2pi/alat
        k(    1) = (   0.0000000   0.0000000   0.0000000), wk =   0.0555556
        k(    2) = (   0.0000000   0.0321665   0.0000000), wk =   0.1111111
        k(    3) = (   0.0000000   0.0643329   0.0000000), wk =   0.1111111
        k(    4) = (   0.0000000  -0.0964994   0.0000000), wk =   0.0555556
        k(    5) = (   0.0278570   0.0160832   0.0000000), wk =   0.1111111
        k(    6) = (   0.0278570   0.0482497   0.0000000), wk =   0.1111111
        k(    7) = (   0.0278570   0.0804162   0.0000000), wk =   0.1111111
        k(    8) = (   0.0278570  -0.0804162   0.0000000), wk =   0.1111111
        k(    9) = (   0.0278570  -0.0482497   0.0000000), wk =   0.1111111
        k(   10) = (   0.0278570  -0.0160832   0.0000000), wk =   0.1111111
        k(   11) = (   0.0557139   0.0321665   0.0000000), wk =   0.1111111
        k(   12) = (   0.0557139   0.0643329   0.0000000), wk =   0.1111111
        k(   13) = (   0.0557139   0.0964994   0.0000000), wk =   0.1111111
        k(   14) = (   0.0557139  -0.0643329   0.0000000), wk =   0.1111111
        k(   15) = (   0.0557139  -0.0321665   0.0000000), wk =   0.1111111
        k(   16) = (   0.0557139   0.0000000   0.0000000), wk =   0.1111111
        k(   17) = (  -0.0835709  -0.0482497   0.0000000), wk =   0.0555556
        k(   18) = (  -0.0835709  -0.0160832   0.0000000), wk =   0.1111111
        k(   19) = (  -0.0835709   0.0160832   0.0000000), wk =   0.1111111
        k(   20) = (  -0.0835709  -0.1447491   0.0000000), wk =   0.0555556

     Largest allocated arrays     est. size (Mb)     dimensions
     Largest temporary arrays     est. size (Mb)     dimensions

     Initial potential from superposition of free atoms
     Check: negative starting charge=   -0.283860

     starting charge  155.97206, renormalised to  156.00000

[...]

     *
     * You are using vdW-DF for exchange-correlation in this calculation.
     * Please cite the following three references that made this development
     * possible:
     *
     *   M. Dion, H. Rydberg, E. Schroder, D. C. Langreth, and
     *   B. I. Lundqvist, Phys. Rev. Lett. 92, 246401 (2004).
     *
     *   T. Thonhauser, V. R. Cooper, S. Li, A. Puzder, P. Hyldgaard, and
     *   D. C. Langreth, Phys. Rev. B 76, 125112 (2007).
     *
     *   G. Roman-Perez and J. M. Soler, Phys. Rev. Lett. 103, 096102 (2009).
     *
     *
     * If you are using vdW-DF2, please also cite:
     *
     *   K. Lee, E. D. Murray, L. Kong, B. I. Lundqvist, and
     *   D. C. Langreth, Phys. Rev. B 82, 081101(R) (2010).
     *
     *
     * If you are calculating the stress with vdW-DF, please also cite:
     *
     *   R. Sabatini, E. Kucukbenli, B. Kolb, T. Thonhauser, and
     *   S. de Gironcoli, J. Phys.: Condens. Matter 24, 424209 (2012).
     *

     Carrying out vdW-DF run using the following parameters:

     Nqs =      20    Nr_points =    1024   r_max =   100.000
     q_mesh =
               0.00001000     0.04494208     0.09755937     0.15916263
               0.23128650     0.31572767     0.41458969     0.53033537
               0.66584808     0.82450364     1.01025438     1.22772762
               1.48234092     1.78043706     2.12944203     2.53805004
               3.01644009     3.57652955     4.23227104     5.00000000

     Gradients computed in reciprocal space

[...]

     Starting wfc are  156 randomized atomic wfcs

     Self-consistent Calculation

[...]

     iteration # 10     ecut=    36.75 Ry     beta=0.10
     Davidson diagonalization with overlap
     c_bands:  1 eigenvalues not converged
     c_bands:  1 eigenvalues not converged
     ethr =  2.82E-06,  avg # of iterations =  7.0

[...]

     total energy              =   -1496.12343093 Ry
     Harris-Foulkes estimate   =   -1496.12343028 Ry
     estimated scf accuracy    <       0.00000157 Ry

     iteration # 17     ecut=    36.75 Ry     beta=0.10
     Davidson diagonalization with overlap
     ethr =  1.01E-09,  avg # of iterations =  2.6

[...]

     negative rho (up, down):  2.961E-01 0.000E+00

     Adding external electric field

     Computed dipole along edir(3) :
        Dipole                0.0130 Ry au,          0.0329 Debye
        Dipole field          0.0000 Ry au

        Potential amp.       -0.0029 Ry
        Total length         45.8503 bohr

     End of self-consistent calculation

[...]

          k = 0.0557 0.0000 0.0000 ( 19585 PWs)   bands (ev):

[...]

          k =-0.0836-0.1447 0.0000 ( 19588 PWs)   bands (ev):

   -66.4847 -66.4238 -66.3713 -53.1828 -53.1714 -53.1532 -53.1313 -53.1174
   -53.0991 -53.0970 -53.0877 -53.0587 -32.8904 -32.8211 -32.7813 -32.7651
   -32.7427 -32.7266 -32.7234 -32.7105 -32.7086 -29.5179 -29.4903 -29.4242
   -29.3873 -29.3245 -29.3215 -29.2904 -29.2650 -29.2090 -29.2048 -29.2010
   -29.1791 -29.1381 -29.1342 -29.1205 -29.1050 -29.0976 -29.0850 -29.0391
   -29.0138 -29.0088 -28.9314 -28.8941 -28.8897 -28.8424 -28.8135 -28.8031
    -2.6871  -2.4860  -1.5453  -1.3408  -0.9536  -0.7872  -0.7610  -0.6910
    -0.6046  -0.5957  -0.1150   0.0273   0.1175   0.1258   0.1785   0.2140
     0.5922   0.6430   0.6913   0.7195   0.7420   0.8803   1.1245   1.2168
     1.3337   1.3547   1.4516   1.4526   1.5326   1.5585   1.6354   1.6974
     1.9104   1.9872   2.0618   2.0926   2.1346   2.1826   2.7975   2.8583
     3.0526   3.1916   3.3448   3.4571   3.4955   3.6797   3.7727   3.8445
     3.9443   4.0045   4.0176   4.1754   4.2792   4.3490   4.4156   4.5443
     4.8916   5.0896   5.1644   5.2000

     the Fermi energy is     1.8835 ev

!    total energy              =   -1496.12343098 Ry
     Harris-Foulkes estimate   =   -1496.12343104 Ry
     estimated scf accuracy    <       0.00000092 Ry

     The total energy is the sum of the following terms:

     one-electron contribution =  -11314.84512893 Ry
     hartree contribution      =    5646.49377987 Ry
     xc contribution           =    -301.67000597 Ry
     ewald contribution        =    4474.01712844 Ry
     electric field correction =       0.00000041 Ry
     smearing contrib. (-TS)   =      -0.11920479 Ry

     convergence has been achieved in  17 iterations

 BEEF-vdW xc energy contributions
           1 :   -261.726929961565
           2 :    239.627967973268
           3 :   -201.562065382340
           4 :    157.166639964203
           5 :   -115.903553159520
           6 :    83.9359594339108
           7 :   -62.8262227965016
           8 :    50.2505659919119
           9 :   -42.0613636549579
          10 :    34.5286341252460
          11 :   -25.7847335945283
          12 :    16.0312268021608
          13 :   -6.73745291804295
          14 :  -0.562219809803366
          15 :    5.19855693229835
          16 :   -7.63194173746086
          17 :    9.04094496212184
          18 :   -10.5778816303359
          19 :    12.7395294294573
          20 :   -15.1902816959547
          21 :    17.0757455922213
          22 :   -17.5978927780220
          23 :    16.4959160399925
          24 :   -14.1811893356371
          25 :    11.4884509465770
          26 :   -9.22853140188113
          27 :    7.80644121363537
          28 :   -7.10330067097624
          29 :    6.64788792483449
          30 :   -5.95028376819857
          31 :   -27.1400729672662
          32 :   -20.3723135686086

     Forces acting on atoms (Ry/au):

     negative rho (up, down):  2.961E-01 0.000E+00
     atom    1 type  1   force =     0.00000020    0.00329170   -0.00275624
     atom    2 type  1   force =     0.00285106   -0.00164532   -0.00275688
     atom    3 type  1   force =    -0.00285096   -0.00164554   -0.00275696
     atom    4 type  2   force =    -0.00000042   -0.00000113    0.00661217
     atom    5 type  1   force =     0.00000026   -0.00811031    0.00047752
     atom    6 type  1   force =    -0.00702322    0.00405569    0.00047694
     atom    7 type  1   force =     0.00702336    0.00405542    0.00047726
     atom    8 type  2   force =    -0.00000030   -0.00000110    0.00205959
     atom    9 type  1   force =    -0.00000039    0.00083258   -0.00010356
     atom   10 type  1   force =     0.00072053   -0.00041706   -0.00010374
     atom   11 type  1   force =    -0.00072039   -0.00041659   -0.00010378
     atom   12 type  2   force =     0.00000028    0.00000166   -0.00152234

     Total force =     0.017484     Total SCF correction =     0.005703
     SCF correction compared to forces is large: reduce conv_thr to get better values

     entering subroutine stress ...

     negative rho (up, down):  2.961E-01 0.000E+00
          total   stress  (Ry/bohr**3)                   (kbar)     P=  -27.08
  -0.00027024   0.00000000   0.00000000        -39.75      0.00      0.00
   0.00000000  -0.00027024   0.00000000          0.00    -39.75      0.00
   0.00000000   0.00000000  -0.00001174          0.00      0.00     -1.73

 !ASE

     Writing output data file calc.save

     General routines

     Parallel routines

   This run was terminated on:   7:43:30  27Dec2018

   JOB DONE.
Job  /afs/slac/g/suncat/bin/suncat-tsmpirun -x LD_LIBRARY_PATH -wdir /scratch/qe110215_oDe8k pw.x -in pw.inp

TID   HOST_NAME   COMMAND_LINE            STATUS            TERMINATION_TIME
00000 suncat0163 pw.x -in pw.inp   Done                     12/27/2018 07:43:30
00001 suncat0163 pw.x -in pw.inp   Done                     12/27/2018 07:43:30
00002 suncat0163 pw.x -in pw.inp   Done                     12/27/2018 07:43:30
00003 suncat0163 pw.x -in pw.inp   Done                     12/27/2018 07:43:30
00004 suncat0163 pw.x -in pw.inp   Done                     12/27/2018 07:43:30
00005 suncat0163 pw.x -in pw.inp   Done                     12/27/2018 07:43:30
00006 suncat0163 pw.x -in pw.inp   Done                     12/27/2018 07:43:30
00007 suncat0163 pw.x -in pw.inp   Done                     12/27/2018 07:43:30
00008 suncat0162 pw.x -in pw.inp   Done                     12/27/2018 07:43:30
00009 suncat0162 pw.x -in pw.inp   Done                     12/27/2018 07:43:30
00010 suncat0162 pw.x -in pw.inp   Done                     12/27/2018 07:43:30
00011 suncat0162 pw.x -in pw.inp   Done                     12/27/2018 07:43:30
00012 suncat0162 pw.x -in pw.inp   Done                     12/27/2018 07:43:30
00013 suncat0162 pw.x -in pw.inp   Done                     12/27/2018 07:43:30
00014 suncat0162 pw.x -in pw.inp   Done                     12/27/2018 07:43:30
00015 suncat0162 pw.x -in pw.inp   Done                     12/27/2018 07:43:30
00016 suncat0145 pw.x -in pw.inp   Done                     12/27/2018 07:43:30
00017 suncat0145 pw.x -in pw.inp   Done                     12/27/2018 07:43:30
00018 suncat0145 pw.x -in pw.inp   Done                     12/27/2018 07:43:30
00019 suncat0145 pw.x -in pw.inp   Done                     12/27/2018 07:43:30
00020 suncat0145 pw.x -in pw.inp   Done                     12/27/2018 07:43:30
00021 suncat0145 pw.x -in pw.inp   Done                     12/27/2018 07:43:30
00022 suncat0145 pw.x -in pw.inp   Done                     12/27/2018 07:43:30
00023 suncat0145 pw.x -in pw.inp   Done                     12/27/2018 07:43:30
00024 suncat0144 pw.x -in pw.inp   Done                     12/27/2018 07:43:30
00025 suncat0144 pw.x -in pw.inp   Done                     12/27/2018 07:43:30
00026 suncat0144 pw.x -in pw.inp   Done                     12/27/2018 07:43:30
00027 suncat0144 pw.x -in pw.inp   Done                     12/27/2018 07:43:30
00028 suncat0144 pw.x -in pw.inp   Done                     12/27/2018 07:43:30
00029 suncat0144 pw.x -in pw.inp   Done                     12/27/2018 07:43:30
00030 suncat0144 pw.x -in pw.inp   Done                     12/27/2018 07:43:30
00031 suncat0144 pw.x -in pw.inp   Done                     12/27/2018 07:43:30
00032 suncat0133 pw.x -in pw.inp   Done                     12/27/2018 07:43:30
00033 suncat0133 pw.x -in pw.inp   Done                     12/27/2018 07:43:30
00034 suncat0133 pw.x -in pw.inp   Done                     12/27/2018 07:43:30
00035 suncat0133 pw.x -in pw.inp   Done                     12/27/2018 07:43:30
00036 suncat0133 pw.x -in pw.inp   Done                     12/27/2018 07:43:30
00037 suncat0133 pw.x -in pw.inp   Done                     12/27/2018 07:43:30
00038 suncat0133 pw.x -in pw.inp   Done                     12/27/2018 07:43:30
00039 suncat0133 pw.x -in pw.inp   Done                     12/27/2018 07:43:30
00040 suncat0132 pw.x -in pw.inp   Done                     12/27/2018 07:43:30
00041 suncat0132 pw.x -in pw.inp   Done                     12/27/2018 07:43:30
00042 suncat0132 pw.x -in pw.inp   Done                     12/27/2018 07:43:30
00043 suncat0132 pw.x -in pw.inp   Done                     12/27/2018 07:43:30
00044 suncat0132 pw.x -in pw.inp   Done                     12/27/2018 07:43:30
00045 suncat0132 pw.x -in pw.inp   Done                     12/27/2018 07:43:30
00046 suncat0132 pw.x -in pw.inp   Done                     12/27/2018 07:43:30
00047 suncat0132 pw.x -in pw.inp   Done                     12/27/2018 07:43:30
00048 suncat0131 pw.x -in pw.inp   Done                     12/27/2018 07:43:30
00049 suncat0131 pw.x -in pw.inp   Done                     12/27/2018 07:43:30
00050 suncat0131 pw.x -in pw.inp   Done                     12/27/2018 07:43:30
00051 suncat0131 pw.x -in pw.inp   Done                     12/27/2018 07:43:30
00052 suncat0131 pw.x -in pw.inp   Done                     12/27/2018 07:43:30
00053 suncat0131 pw.x -in pw.inp   Done                     12/27/2018 07:43:30
00054 suncat0131 pw.x -in pw.inp   Done                     12/27/2018 07:43:30
00055 suncat0131 pw.x -in pw.inp   Done                     12/27/2018 07:43:30
00056 suncat0130 pw.x -in pw.inp   Done                     12/27/2018 07:43:30
00057 suncat0130 pw.x -in pw.inp   Done                     12/27/2018 07:43:30
00058 suncat0130 pw.x -in pw.inp   Done                     12/27/2018 07:43:30
00059 suncat0130 pw.x -in pw.inp   Done                     12/27/2018 07:43:30
00060 suncat0130 pw.x -in pw.inp   Done                     12/27/2018 07:43:30
00061 suncat0130 pw.x -in pw.inp   Done                     12/27/2018 07:43:30
00062 suncat0130 pw.x -in pw.inp   Done                     12/27/2018 07:43:30
00063 suncat0130 pw.x -in pw.inp   Done                     12/27/2018 07:43:30