     Program PWSCF v.5.1rc2 (svn rev. 11289) starts on 27Dec2018 at 19:33:30

     Current dimensions of program PWSCF are:
     Max number of different atomic species (ntypx) = 10
     Max number of k-points (npk) =  40000
     Max angular momentum in pseudopotentials (lmaxx) =  3
     Presently stress not available with electric field

     IMPORTANT: XC functional enforced from input :
     Exchange-correlation      = BEEF-VDW ( 1  4 27 13 2)
     Any further DFT definition will be discarded
     Please, verify this is what you really want

     Subspace diagonalization in iterative solution of the eigenvalue problem:
     a serial algorithm will be used

     bravais-lattice index     =            0
     lattice parameter (alat)  =       1.8897  a.u.
     unit-cell volume          =    4331.4839 (a.u.)^3
     number of atoms/cell      =           12
     number of atomic types    =            2
     number of electrons       =       180.00
     number of Kohn-Sham states=          120
     kinetic-energy cutoff     =      36.7493  Ry
     charge density cutoff     =     367.4932  Ry
     convergence threshold     =      1.0E-06
     mixing beta               =       0.1000
     number of iterations used =           10  plain     mixing
     Exchange-correlation      = BEEF-VDW ( 1  4 27 13 2)
     nstep                     =           50

     celldm(1)=   1.889726  celldm(2)=   0.000000  celldm(3)=   0.000000
     celldm(4)=   0.000000  celldm(5)=   0.000000  celldm(6)=   0.000000

     crystal axes: (cart. coord. in units of alat)
               a(1) = (   5.501058   0.000000   0.000000 )
               a(2) = (  -2.750529   4.764056   0.000000 )
               a(3) = (   0.000000   0.000000  24.491595 )

     reciprocal axes: (cart. coord. in units 2 pi/alat)
               b(1) = (  0.181783  0.104953  0.000000 )
               b(2) = (  0.000000  0.209905  0.000000 )
               b(3) = (  0.000000  0.000000  0.040830 )

     PseudoPot. # 1 for Re read from file:
     /afs/slac.stanford.edu/u/if/mamunm/psp/gbrv1.5pbe/Re.UPF
     MD5 check sum: 85f993410f3e006da9d71c142b4ad953
     Pseudo is Ultrasoft + core correction, Zval = 15.0
     Generated by new atomic code, or converted to UPF format
     Using radial grid of  981 points,  8 beta functions with:
                l(1) =   0
                l(2) =   0
                l(3) =   1
                l(4) =   1
                l(5) =   2
                l(6) =   2
                l(7) =   3
                l(8) =   3
     Q(r) pseudized with  8 coefficients,  rinner =    1.150   1.150   1.150
                                                       1.150   1.150   1.150
                                                       1.150

     PseudoPot. # 2 for Rh read from file:
     /afs/slac.stanford.edu/u/if/mamunm/psp/gbrv1.5pbe/Rh.UPF
     MD5 check sum: 761627e959a2e3a1f56b0b5fe687810e
     Pseudo is Ultrasoft + core correction, Zval = 15.0
     Generated by new atomic code, or converted to UPF format
     Using radial grid of  969 points,  7 beta functions with:
                l(1) =   0
                l(2) =   0
                l(3) =   1
                l(4) =   1
                l(5) =   2
                l(6) =   2
                l(7) =   2
     Q(r) pseudized with  8 coefficients,  rinner =    1.200   1.200   1.200
                                                       1.200   1.200

     vdW kernel table read from file vdW_kernel_table
     MD5 check sum: 095c7af220d748ca6e76c0b4c6cfb241

     atomic species   valence    mass     pseudopotential
        Re1           15.00   186.20700     Re( 1.00)
        Rh1           15.00   102.90550     Rh( 1.00)

     No symmetry found

   Cartesian axes

     site n.     atom                  positions (alat units)
         1           Re1 tau(   1) = (   0.0000000   0.0000000  10.0000000  )
         2           Re1 tau(   2) = (  -1.3752644   2.3820279  10.0000000  )
         3           Re1 tau(   3) = (   1.3752644   2.3820279  10.0000000  )
         4           Rh1 tau(   4) = (   2.7505289   0.0000000  10.0000000  )
         5           Re1 tau(   5) = (   2.7505289   1.5880186  12.2457974  )
         6           Re1 tau(   6) = (   1.3752644   3.9700464  12.2457974  )
         7           Re1 tau(   7) = (  -1.3752644   3.9700464  12.2457974  )
         8           Rh1 tau(   8) = (   0.0000000   1.5880186  12.2457974  )
         9           Re1 tau(   9) = (  -0.0000000   3.1760372  14.4915948  )
        10           Re1 tau(  10) = (   1.3752644   0.7940093  14.4915948  )
        11           Re1 tau(  11) = (   4.1257933   0.7940093  14.4915948  )
        12           Rh1 tau(  12) = (   2.7505289   3.1760372  14.4915948  )

     number of k points=    20  Fermi-Dirac smearing, width (Ry)=  0.0110
                       cart. coord. in units 2pi/alat
        k(    1) = (   0.0000000   0.0000000   0.0000000), wk =   0.0555556
        k(    2) = (   0.0000000   0.0349842   0.0000000), wk =   0.1111111
        k(    3) = (   0.0000000   0.0699684   0.0000000), wk =   0.1111111
        k(    4) = (   0.0000000  -0.1049526   0.0000000), wk =   0.0555556
        k(    5) = (   0.0302972   0.0174921   0.0000000), wk =   0.1111111
        k(    6) = (   0.0302972   0.0524763   0.0000000), wk =   0.1111111
        k(    7) = (   0.0302972   0.0874605   0.0000000), wk =   0.1111111
        k(    8) = (   0.0302972  -0.0874605   0.0000000), wk =   0.1111111
        k(    9) = (   0.0302972  -0.0524763   0.0000000), wk =   0.1111111
        k(   10) = (   0.0302972  -0.0174921   0.0000000), wk =   0.1111111
        k(   11) = (   0.0605944   0.0349842   0.0000000), wk =   0.1111111
        k(   12) = (   0.0605944   0.0699684   0.0000000), wk =   0.1111111
        k(   13) = (   0.0605944   0.1049526   0.0000000), wk =   0.1111111
        k(   14) = (   0.0605944  -0.0699684   0.0000000), wk =   0.1111111
        k(   15) = (   0.0605944  -0.0349842   0.0000000), wk =   0.1111111
        k(   16) = (   0.0605944   0.0000000   0.0000000), wk =   0.1111111
        k(   17) = (  -0.0908916  -0.0524763   0.0000000), wk =   0.0555556
        k(   18) = (  -0.0908916  -0.0174921   0.0000000), wk =   0.1111111
        k(   19) = (  -0.0908916   0.0174921   0.0000000), wk =   0.1111111
        k(   20) = (  -0.0908916  -0.1574289   0.0000000), wk =   0.0555556

     Largest allocated arrays     est. size (Mb)     dimensions
     Largest temporary arrays     est. size (Mb)     dimensions

     Initial potential from superposition of free atoms
     Check: negative starting charge=   -1.318679

     starting charge  173.99930, renormalised to  180.00000

     negative rho (up, down):  1.364E+00 0.000E+00

     *
     * You are using vdW-DF for exchange-correlation in this calculation.
     * Please cite the following three references that made this development
     * possible:
     *
     *   M. Dion, H. Rydberg, E. Schroder, D. C. Langreth, and
     *   B. I. Lundqvist, Phys. Rev. Lett. 92, 246401 (2004).
     *
     *   T. Thonhauser, V. R. Cooper, S. Li, A. Puzder, P. Hyldgaard, and
     *   D. C. Langreth, Phys. Rev. B 76, 125112 (2007).
     *
     *   G. Roman-Perez and J. M. Soler, Phys. Rev. Lett. 103, 096102 (2009).
     *
     *
     * If you are using vdW-DF2, please also cite:
     *
     *   K. Lee, E. D. Murray, L. Kong, B. I. Lundqvist, and
     *   D. C. Langreth, Phys. Rev. B 82, 081101(R) (2010).
     *
     *
     * If you are calculating the stress with vdW-DF, please also cite:
     *
     *   R. Sabatini, E. Kucukbenli, B. Kolb, T. Thonhauser, and
     *   S. de Gironcoli, J. Phys.: Condens. Matter 24, 424209 (2012).
     *

     Carrying out vdW-DF run using the following parameters:

     Nqs =      20    Nr_points =    1024   r_max =   100.000
     q_mesh =
               0.00001000     0.04494208     0.09755937     0.15916263
               0.23128650     0.31572767     0.41458969     0.53033537
               0.66584808     0.82450364     1.01025438     1.22772762
               1.48234092     1.78043706     2.12944203     2.53805004
               3.01644009     3.57652955     4.23227104     5.00000000

     Gradients computed in reciprocal space

     Adding external electric field

     Computed dipole along edir(3) :
        Dipole                0.0000 Ry au,          0.0000 Debye
        Dipole field          0.0000 Ry au

        Potential amp.       -0.0000 Ry
        Total length         45.1253 bohr

     Starting wfc are  153 randomized atomic wfcs

     Self-consistent Calculation

     iteration #  1     ecut=    36.75 Ry     beta=0.10
     Davidson diagonalization with overlap
     ethr =  1.00E-02,  avg # of iterations =  5.6

[...]

     total energy              =   -2246.11180755 Ry
     Harris-Foulkes estimate   =   -2247.18273231 Ry
     estimated scf accuracy    <       6.50572346 Ry

[...]

     End of self-consistent calculation

          k = 0.0000 0.0000 0.0000 ( 16211 PWs)   bands (ev):

   -78.3345 -78.2768 -78.2768 -78.0467 -78.0443 -77.9917 -77.9916 -77.9910
   -77.9910 -44.5878 -44.5878 -44.5666 -44.0809 -44.0809 -44.0783 -44.0783
   -44.0149 -44.0054 -40.4971 -40.2366 -40.2366 -40.2144 -40.0829 -40.0741
   -40.0740 -40.0443 -39.8360 -39.8360 -39.8152 -39.8132 -39.7709 -39.7709
   -39.7214 -39.7213 -39.6315 -39.6315 -39.5903 -39.5838 -39.5837 -39.4665
   -39.4407 -39.2865 -39.2865 -39.2817 -39.2816  -6.1899  -4.3175  -3.9302
    -3.6212  -3.6212  -3.5005  -3.3184  -3.3184  -3.0150  -2.7173  -2.7173
    -2.7128  -2.4942  -2.4942  -2.2908  -1.1013  -1.1013  -1.0044  -0.4253
    -0.4253  -0.3336  -0.0196  -0.0145   0.2393   0.2393   0.5722   0.5722
     0.6948   0.6948   0.8539   0.9432   0.9432   1.1665   1.2003   1.2004
     1.7754   2.1612   2.1612   2.2935   2.4021   2.4021   2.7358   2.7359
     3.0336   3.1879   3.5429   3.9742   3.9742   4.1764   4.2267   4.2268
     4.3215   4.3215   4.5154   4.5154   4.8312   4.8312   5.0224   5.0224
     5.2739   5.2739   5.3335   5.5308   5.5308   6.2564   6.3366   6.7058
     6.7364   6.7364   6.7563   6.8145   7.0528   7.1940   7.7237   7.7237

[...]

          k =-0.0909-0.0525 0.0000 ( 16280 PWs)   bands (ev):

[...]

     the Fermi energy is     2.4757 ev

!    total energy              =   -2245.95222404 Ry
     Harris-Foulkes estimate   =   -2245.95222487 Ry
     estimated scf accuracy    <       0.00000082 Ry

     The total energy is the sum of the following terms:

     one-electron contribution =  -18342.19899945 Ry
     hartree contribution      =    9168.11404854 Ry
     xc contribution           =    -579.58270815 Ry
     ewald contribution        =    7507.79358172 Ry
     electric field correction =       0.00000000 Ry
     smearing contrib. (-TS)   =      -0.07814670 Ry

     convergence has been achieved in  15 iterations

 BEEF-vdW xc energy contributions
           1 :   -513.747154405904
           2 :    476.786835649073
           3 :   -410.791236691113
           4 :    328.904704040679
           5 :   -245.452045842696
           6 :    172.095127217695
           7 :   -115.372632926906
           8 :    76.2146043514751
           9 :   -51.2798480251333
[...]
     Generated by new atomic code, or converted to UPF format
     Using radial grid of  981 points,  8 beta functions with:
                l(1) =   0
                l(2) =   0
                l(3) =   1
                l(4) =   1
                l(5) =   2
                l(6) =   2
                l(7) =   3
                l(8) =   3
     Q(r) pseudized with  8 coefficients,  rinner =    1.150   1.150   1.150
                                                       1.150   1.150   1.150
                                                       1.150

     PseudoPot. # 2 for Rh read from file:
     /afs/slac.stanford.edu/u/if/mamunm/psp/gbrv1.5pbe/Rh.UPF
     MD5 check sum: 761627e959a2e3a1f56b0b5fe687810e
     Pseudo is Ultrasoft + core correction, Zval = 15.0
     Generated by new atomic code, or converted to UPF format
     Using radial grid of  969 points,  7 beta functions with:
                l(1) =   0
                l(2) =   0
                l(3) =   1
                l(4) =   1
                l(5) =   2
                l(6) =   2
                l(7) =   2
     Q(r) pseudized with  8 coefficients,  rinner =    1.200   1.200   1.200
                                                       1.200   1.200

     vdW kernel table read from file vdW_kernel_table
     MD5 check sum: 095c7af220d748ca6e76c0b4c6cfb241

     atomic species   valence    mass     pseudopotential
        Re1           15.00   186.20700     Re( 1.00)
        Rh1           15.00   102.90550     Rh( 1.00)

     No symmetry found

   Cartesian axes

     site n.     atom                  positions (alat units)
         1           Re1 tau(   1) = (   0.0000000   0.0000000  10.0000000  )
         2           Re1 tau(   2) = (  -1.3752644   2.3820279  10.0000000  )
         3           Re1 tau(   3) = (   1.3752644   2.3820279  10.0000000  )
         4           Rh1 tau(   4) = (   2.7505289   0.0000000  10.0000000  )
         5           Re1 tau(   5) = (   2.7505289   1.5880186  12.2457974  )
         6           Re1 tau(   6) = (   1.3752644   3.9700464  12.2457974  )
         7           Re1 tau(   7) = (  -1.3752644   3.9700464  12.2457974  )
         8           Rh1 tau(   8) = (   0.0000000   1.5880186  12.2457974  )
         9           Re1 tau(   9) = (   0.0000028   3.2197014  14.3780676  )
        10           Re1 tau(  10) = (   1.4130769   0.7721752  14.3780661  )
        11           Re1 tau(  11) = (   4.0879819   0.7721741  14.3780643  )
        12           Rh1 tau(  12) = (   2.7505264   3.1760452  14.4429589  )

     number of k points=    20  Fermi-Dirac smearing, width (Ry)=  0.0110
                       cart. coord. in units 2pi/alat
        k(    1) = (   0.0000000   0.0000000   0.0000000), wk =   0.0555556
        k(    2) = (   0.0000000   0.0349842   0.0000000), wk =   0.1111111
        k(    3) = (   0.0000000   0.0699684   0.0000000), wk =   0.1111111
        k(    4) = (   0.0000000  -0.1049526   0.0000000), wk =   0.0555556
        k(    5) = (   0.0302972   0.0174921   0.0000000), wk =   0.1111111
        k(    6) = (   0.0302972   0.0524763   0.0000000), wk =   0.1111111
        k(    7) = (   0.0302972   0.0874605   0.0000000), wk =   0.1111111
        k(    8) = (   0.0302972  -0.0874605   0.0000000), wk =   0.1111111
        k(    9) = (   0.0302972  -0.0524763   0.0000000), wk =   0.1111111
        k(   10) = (   0.0302972  -0.0174921   0.0000000), wk =   0.1111111
        k(   11) = (   0.0605944   0.0349842   0.0000000), wk =   0.1111111
        k(   12) = (   0.0605944   0.0699684   0.0000000), wk =   0.1111111
        k(   13) = (   0.0605944   0.1049526   0.0000000), wk =   0.1111111
        k(   14) = (   0.0605944  -0.0699684   0.0000000), wk =   0.1111111
        k(   15) = (   0.0605944  -0.0349842   0.0000000), wk =   0.1111111
        k(   16) = (   0.0605944   0.0000000   0.0000000), wk =   0.1111111
        k(   17) = (  -0.0908916  -0.0524763   0.0000000), wk =   0.0555556
        k(   18) = (  -0.0908916  -0.0174921   0.0000000), wk =   0.1111111
        k(   19) = (  -0.0908916   0.0174921   0.0000000), wk =   0.1111111
        k(   20) = (  -0.0908916  -0.1574289   0.0000000), wk =   0.0555556

     Largest allocated arrays     est. size (Mb)     dimensions
     Largest temporary arrays     est. size (Mb)     dimensions

     Initial potential from superposition of free atoms
     Check: negative starting charge=   -1.319991

     starting charge  173.99930, renormalised to  180.00000

[...]

     *
     * You are using vdW-DF for exchange-correlation in this calculation.
     * Please cite the following three references that made this development
     * possible:
     *
     *   M. Dion, H. Rydberg, E. Schroder, D. C. Langreth, and
     *   B. I. Lundqvist, Phys. Rev. Lett. 92, 246401 (2004).
     *
     *   T. Thonhauser, V. R. Cooper, S. Li, A. Puzder, P. Hyldgaard, and
     *   D. C. Langreth, Phys. Rev. B 76, 125112 (2007).
     *
     *   G. Roman-Perez and J. M. Soler, Phys. Rev. Lett. 103, 096102 (2009).
     *
     *
     * If you are using vdW-DF2, please also cite:
     *
     *   K. Lee, E. D. Murray, L. Kong, B. I. Lundqvist, and
     *   D. C. Langreth, Phys. Rev. B 82, 081101(R) (2010).
     *
     *
     * If you are calculating the stress with vdW-DF, please also cite:
     *
     *   R. Sabatini, E. Kucukbenli, B. Kolb, T. Thonhauser, and
     *   S. de Gironcoli, J. Phys.: Condens. Matter 24, 424209 (2012).
     *

     Carrying out vdW-DF run using the following parameters:

     Nqs =      20    Nr_points =    1024   r_max =   100.000
     q_mesh =
               0.00001000     0.04494208     0.09755937     0.15916263
               0.23128650     0.31572767     0.41458969     0.53033537
               0.66584808     0.82450364     1.01025438     1.22772762
               1.48234092     1.78043706     2.12944203     2.53805004
               3.01644009     3.57652955     4.23227104     5.00000000

     Gradients computed in reciprocal space

[...]

     Starting wfc are  153 randomized atomic wfcs

     Self-consistent Calculation

[...]

     total energy              =   -2245.96917766 Ry
     Harris-Foulkes estimate   =   -2245.96917757 Ry
     estimated scf accuracy    <       0.00000123 Ry

     iteration # 16     ecut=    36.75 Ry     beta=0.10
     Davidson diagonalization with overlap
     ethr =  6.83E-10,  avg # of iterations =  2.0

[...]

     negative rho (up, down):  1.387E+00 0.000E+00

     Adding external electric field

     Computed dipole along edir(3) :
        Dipole                0.0234 Ry au,          0.0595 Debye
        Dipole field          0.0001 Ry au

        Potential amp.       -0.0061 Ry
        Total length         45.1253 bohr

     End of self-consistent calculation

[...]

          k = 0.0606 0.0000 0.0000 ( 16322 PWs)   bands (ev):

[...]

          k =-0.0909-0.1574 0.0000 ( 16280 PWs)   bands (ev):

   -78.2906 -78.2710 -78.2510 -78.0208 -78.0028 -77.9847 -77.9628 -77.9372
   -77.9215 -44.6245 -44.6169 -44.5984 -44.0545 -44.0493 -44.0465 -44.0420
   -43.9916 -43.9813 -40.3710 -40.2226 -40.1803 -40.1165 -40.0835 -40.0636
   -40.0012 -39.9772 -39.9171 -39.8667 -39.7395 -39.7362 -39.7013 -39.6839
   -39.6791 -39.6520 -39.6273 -39.6269 -39.6049 -39.5791 -39.5152 -39.5093
   -39.5029 -39.4618 -39.4528 -39.3020 -39.2594  -4.5273  -4.2439  -2.9291
    -2.8854  -2.6080  -2.5622  -2.5586  -2.4919  -2.4264  -2.2145  -2.0041
    -1.7854  -1.5555  -1.4511  -1.3927  -1.3569  -1.1662  -0.9449  -0.9345
    -0.9109  -0.6912  -0.3160  -0.1162   0.0663   0.0793   0.1430   0.2118
     0.3150   0.4357   0.5232   0.6289   0.6672   0.7314   0.7666   0.8148
     0.8901   0.9188   0.9821   1.1173   1.1769   1.5975   1.8699   1.9836
     2.1902   2.2019   2.4918   2.5447   2.7503   2.7527   2.8191   2.9734
     3.2155   3.4628   3.5579   3.6135   3.7940   3.9533   4.2426   4.3191
     4.4493   4.6652   5.1565   5.3904   5.5740   5.8598   6.1917   6.5250
     7.1939   7.6408   8.0377   8.1048   8.2316   8.6363   8.6942   9.0065

     the Fermi energy is     2.4890 ev

!    total energy              =   -2245.96917869 Ry
     Harris-Foulkes estimate   =   -2245.96917805 Ry
     estimated scf accuracy    <       0.00000039 Ry

     The total energy is the sum of the following terms:

     one-electron contribution =  -18599.89163624 Ry
     hartree contribution      =    9297.07483133 Ry
     xc contribution           =    -579.87911294 Ry
     ewald contribution        =    7636.80295139 Ry
     electric field correction =       0.00000159 Ry
     smearing contrib. (-TS)   =      -0.07621381 Ry

     convergence has been achieved in  16 iterations

 BEEF-vdW xc energy contributions
           1 :   -514.045089752036
           2 :    477.178446975784
           3 :   -411.313254386321
           4 :    329.508480725102
           5 :   -246.019056554201
           6 :    172.490893609729
           7 :   -115.514035054616
           8 :    76.1159865903314
           9 :   -51.0529636595998
          10 :    35.1300844894121
          11 :   -23.5358302937424
          12 :    13.3539756533062
          13 :   -3.90094103134697
          14 :   -3.94119814371379
          15 :    8.87444930001175
          16 :   -10.2295647040113
          17 :    8.48330817068324
          18 :   -5.12132098906818
          19 :    2.00629194720671
          20 :  -0.601350691098219
          21 :    1.41895002685385
          22 :   -3.92479068384694
          23 :    6.89546892009309
          24 :   -9.02936354566293
          25 :    9.51976542029183
          26 :   -8.34650989257341
          27 :    6.18714983432835
          28 :   -4.02823348446179
          29 :    2.68560380019824
          30 :   -2.46550323509689
          31 :   -43.9265251841009
          32 :   -32.6812031816751

     Forces acting on atoms (Ry/au):

     negative rho (up, down):  1.387E+00 0.000E+00
     atom    1 type  1   force =    -0.00000001   -0.01899658    0.02651912
     atom    2 type  1   force =    -0.01645082    0.00949775    0.02651730
     atom    3 type  1   force =     0.01645080    0.00949745    0.02651732
     atom    4 type  2   force =    -0.00000062    0.00000006    0.00892661
     atom    5 type  1   force =     0.00000045   -0.00161894   -0.02171609
     atom    6 type  1   force =    -0.00140341    0.00081065   -0.02171658
     atom    7 type  1   force =     0.00140361    0.00080890   -0.02171630
     atom    8 type  2   force =    -0.00000010   -0.00000014   -0.02528314
     atom    9 type  1   force =    -0.00000159   -0.00006519    0.00057552
     atom   10 type  1   force =    -0.00005371    0.00003435    0.00057573
     atom   11 type  1   force =     0.00005434    0.00003592    0.00057765
     atom   12 type  2   force =     0.00000107   -0.00000422    0.00022286

     Total force =     0.073040     Total SCF correction =     0.003103

     entering subroutine stress ...

     negative rho (up, down):  1.387E+00 0.000E+00
          total   stress  (Ry/bohr**3)                   (kbar)     P=  -33.40
  -0.00026694   0.00000000   0.00000000        -39.27      0.00      0.00
   0.00000000  -0.00026694   0.00000000          0.00    -39.27      0.00
   0.00000000   0.00000000  -0.00014721          0.00      0.00    -21.66

 !ASE

     Writing output data file calc.save

     General routines

     Parallel routines

   This run was terminated on:  20:20:25  27Dec2018

   JOB DONE.
Job  /afs/slac/g/suncat/bin/suncat-tsmpirun -x LD_LIBRARY_PATH -wdir /scratch/qe110635_A8agx pw.x -in pw.inp

TID   HOST_NAME   COMMAND_LINE            STATUS            TERMINATION_TIME
00000 suncat0266 pw.x -in pw.inp   Done                     12/27/2018 20:20:25
00001 suncat0266 pw.x -in pw.inp   Done                     12/27/2018 20:20:25
00002 suncat0266 pw.x -in pw.inp   Done                     12/27/2018 20:20:25
00003 suncat0266 pw.x -in pw.inp   Done                     12/27/2018 20:20:25
00004 suncat0266 pw.x -in pw.inp   Done                     12/27/2018 20:20:25
00005 suncat0266 pw.x -in pw.inp   Done                     12/27/2018 20:20:25
00006 suncat0266 pw.x -in pw.inp   Done                     12/27/2018 20:20:25
00007 suncat0266 pw.x -in pw.inp   Done                     12/27/2018 20:20:25
00008 suncat0264 pw.x -in pw.inp   Done                     12/27/2018 20:20:25
00009 suncat0264 pw.x -in pw.inp   Done                     12/27/2018 20:20:25
00010 suncat0264 pw.x -in pw.inp   Done                     12/27/2018 20:20:25
00011 suncat0264 pw.x -in pw.inp   Done                     12/27/2018 20:20:25
00012 suncat0264 pw.x -in pw.inp   Done                     12/27/2018 20:20:25
00013 suncat0264 pw.x -in pw.inp   Done                     12/27/2018 20:20:25
00014 suncat0264 pw.x -in pw.inp   Done                     12/27/2018 20:20:25
00015 suncat0264 pw.x -in pw.inp   Done                     12/27/2018 20:20:25
00016 suncat0256 pw.x -in pw.inp   Done                     12/27/2018 20:20:25
00017 suncat0256 pw.x -in pw.inp   Done                     12/27/2018 20:20:25
00018 suncat0256 pw.x -in pw.inp   Done                     12/27/2018 20:20:25
00019 suncat0256 pw.x -in pw.inp   Done                     12/27/2018 20:20:25
00020 suncat0256 pw.x -in pw.inp   Done                     12/27/2018 20:20:25
00021 suncat0256 pw.x -in pw.inp   Done                     12/27/2018 20:20:25
00022 suncat0256 pw.x -in pw.inp   Done                     12/27/2018 20:20:25
00023 suncat0256 pw.x -in pw.inp   Done                     12/27/2018 20:20:25
00024 suncat0255 pw.x -in pw.inp   Done                     12/27/2018 20:20:25
00025 suncat0255 pw.x -in pw.inp   Done                     12/27/2018 20:20:25
00026 suncat0255 pw.x -in pw.inp   Done                     12/27/2018 20:20:25
00027 suncat0255 pw.x -in pw.inp   Done                     12/27/2018 20:20:25
00028 suncat0255 pw.x -in pw.inp   Done                     12/27/2018 20:20:25
00029 suncat0255 pw.x -in pw.inp   Done                     12/27/2018 20:20:25
00030 suncat0255 pw.x -in pw.inp   Done                     12/27/2018 20:20:25
00031 suncat0255 pw.x -in pw.inp   Done                     12/27/2018 20:20:25
00032 suncat0234 pw.x -in pw.inp   Done                     12/27/2018 20:20:25
00033 suncat0234 pw.x -in pw.inp   Done                     12/27/2018 20:20:25
00034 suncat0234 pw.x -in pw.inp   Done                     12/27/2018 20:20:25
00035 suncat0234 pw.x -in pw.inp   Done                     12/27/2018 20:20:25
00036 suncat0234 pw.x -in pw.inp   Done                     12/27/2018 20:20:25
00037 suncat0234 pw.x -in pw.inp   Done                     12/27/2018 20:20:25
00038 suncat0234 pw.x -in pw.inp   Done                     12/27/2018 20:20:25
00039 suncat0234 pw.x -in pw.inp   Done                     12/27/2018 20:20:25
00040 suncat0233 pw.x -in pw.inp   Done                     12/27/2018 20:20:25
00041 suncat0233 pw.x -in pw.inp   Done                     12/27/2018 20:20:25
00042 suncat0233 pw.x -in pw.inp   Done                     12/27/2018 20:20:25
00043 suncat0233 pw.x -in pw.inp   Done                     12/27/2018 20:20:25
00044 suncat0233 pw.x -in pw.inp   Done                     12/27/2018 20:20:25
00045 suncat0233 pw.x -in pw.inp   Done                     12/27/2018 20:20:25
00046 suncat0233 pw.x -in pw.inp   Done                     12/27/2018 20:20:25
00047 suncat0233 pw.x -in pw.inp   Done                     12/27/2018 20:20:25
00048 suncat0222 pw.x -in pw.inp   Done                     12/27/2018 20:20:25
00049 suncat0222 pw.x -in pw.inp   Done                     12/27/2018 20:20:25
00050 suncat0222 pw.x -in pw.inp   Done                     12/27/2018 20:20:25
00051 suncat0222 pw.x -in pw.inp   Done                     12/27/2018 20:20:25
00052 suncat0222 pw.x -in pw.inp   Done                     12/27/2018 20:20:25
00053 suncat0222 pw.x -in pw.inp   Done                     12/27/2018 20:20:25
00054 suncat0222 pw.x -in pw.inp   Done                     12/27/2018 20:20:25
00055 suncat0222 pw.x -in pw.inp   Done                     12/27/2018 20:20:25
00056 suncat0221 pw.x -in pw.inp   Done                     12/27/2018 20:20:25
00057 suncat0221 pw.x -in pw.inp   Done                     12/27/2018 20:20:25
00058 suncat0221 pw.x -in pw.inp   Done                     12/27/2018 20:20:25
00059 suncat0221 pw.x -in pw.inp   Done                     12/27/2018 20:20:25
00060 suncat0221 pw.x -in pw.inp   Done                     12/27/2018 20:20:25
00061 suncat0221 pw.x -in pw.inp   Done                     12/27/2018 20:20:25
00062 suncat0221 pw.x -in pw.inp   Done                     12/27/2018 20:20:25
00063 suncat0221 pw.x -in pw.inp   Done                     12/27/2018 20:20:25