     Program PWSCF v.5.1rc2 (svn rev. 11289) starts on  2Jan2019 at  1:30: 5

     Current dimensions of program PWSCF are:
     Max number of different atomic species (ntypx) = 10
     Max number of k-points (npk) =  40000
     Max angular momentum in pseudopotentials (lmaxx) =  3
     Presently stress not available with electric field

     IMPORTANT: XC functional enforced from input :
     Exchange-correlation      = BEEF-VDW ( 1  4 27 13 2)
     Any further DFT definition will be discarded
     Please, verify this is what you really want

     Subspace diagonalization in iterative solution of the eigenvalue problem:
     a serial algorithm will be used

     bravais-lattice index     =            0
     lattice parameter (alat)  =       1.8897  a.u.
     unit-cell volume          =    6216.7562 (a.u.)^3
     number of atoms/cell      =           12
     number of atomic types    =            2
     number of electrons       =       159.00
     number of Kohn-Sham states=          109
     kinetic-energy cutoff     =      36.7493  Ry
     charge density cutoff     =     367.4932  Ry
     convergence threshold     =      1.0E-06
     mixing beta               =       0.1000
     number of iterations used =           10  plain     mixing
     Exchange-correlation      = BEEF-VDW ( 1  4 27 13 2)
     nstep                     =           50

     celldm(1)=   1.889726  celldm(2)=   0.000000  celldm(3)=   0.000000
     celldm(4)=   0.000000  celldm(5)=   0.000000  celldm(6)=   0.000000

     crystal axes: (cart. coord. in units of alat)
               a(1) = (   6.484880   0.000000   0.000000 )
               a(2) = (  -3.242440   5.616071   0.000000 )
               a(3) = (   0.000000   0.000000  25.294883 )

     reciprocal axes: (cart. coord. in units 2 pi/alat)
               b(1) = (  0.154205  0.089030  0.000000 )
               b(2) = (  0.000000  0.178060  0.000000 )
               b(3) = (  0.000000  0.000000  0.039534 )

     PseudoPot. # 1 for Tl read from file:
     /afs/slac.stanford.edu/u/if/mamunm/psp/gbrv1.5pbe/Tl.UPF
     MD5 check sum: b76cf1f7e72655a2b2c53cf6385d7059
     Pseudo is Ultrasoft + core correction, Zval = 13.0
     Generated by new atomic code, or converted to UPF format
     Using radial grid of  899 points,  6 beta functions with:
                l(1) =   0
                l(2) =   0
                l(3) =   1
                l(4) =   1
                l(5) =   2
                l(6) =   2
     Q(r) pseudized with  6 coefficients,  rinner =    1.100   1.100   1.100
                                                       1.100   1.100

     PseudoPot. # 2 for Mo read from file:
     /afs/slac.stanford.edu/u/if/mamunm/psp/gbrv1.5pbe/Mo.UPF
     MD5 check sum: 30c4dcd161f5d35cd49bb5239c51a633
     Pseudo is Ultrasoft + core correction, Zval = 14.0
     Generated by new atomic code, or converted to UPF format
     Using radial grid of  889 points,  6 beta functions with:
                l(1) =   0
                l(2) =   0
                l(3) =   1
                l(4) =   1
                l(5) =   2
                l(6) =   2
     Q(r) pseudized with  6 coefficients,  rinner =    1.000   1.000   1.000
                                                       1.000   1.000

     vdW kernel table read from file vdW_kernel_table
     MD5 check sum: 095c7af220d748ca6e76c0b4c6cfb241

     atomic species   valence    mass     pseudopotential
        Tl1           13.00   204.38000     Tl( 1.00)
        Mo1           14.00    95.95000     Mo( 1.00)

     No symmetry found

   Cartesian axes

     site n.     atom                  positions (alat units)
         1           Tl1 tau(   1) = (   0.0000000   0.0000000  10.0000000  )
         2           Tl1 tau(   2) = (  -1.6212201   2.8080356  10.0000000  )
         3           Tl1 tau(   3) = (   1.6212201   2.8080356  10.0000000  )
         4           Mo1 tau(   4) = (   3.2424402   0.0000000  10.0000000  )
         5           Tl1 tau(   5) = (   3.2424402   1.8720237  12.6474413  )
         6           Tl1 tau(   6) = (   1.6212201   4.6800593  12.6474413  )
         7           Tl1 tau(   7) = (  -1.6212201   4.6800593  12.6474413  )
         8           Mo1 tau(   8) = (   0.0000000   1.8720237  12.6474413  )
         9           Tl1 tau(   9) = (  -0.0000000   3.7440474  15.2948826  )
        10           Tl1 tau(  10) = (   1.6212201   0.9360119  15.2948826  )
        11           Tl1 tau(  11) = (   4.8636602   0.9360119  15.2948826  )
        12           Mo1 tau(  12) = (   3.2424402   3.7440474  15.2948826  )

     number of k points=    20  Fermi-Dirac smearing, width (Ry)=  0.0110
                       cart. coord. in units 2pi/alat
        k(    1) = (   0.0000000   0.0000000   0.0000000), wk =   0.0555556
        k(    2) = (   0.0000000   0.0296767   0.0000000), wk =   0.1111111
        k(    3) = (   0.0000000   0.0593535   0.0000000), wk =   0.1111111
        k(    4) = (   0.0000000  -0.0890302   0.0000000), wk =   0.0555556
        k(    5) = (   0.0257008   0.0148384   0.0000000), wk =   0.1111111
        k(    6) = (   0.0257008   0.0445151   0.0000000), wk =   0.1111111
        k(    7) = (   0.0257008   0.0741918   0.0000000), wk =   0.1111111
        k(    8) = (   0.0257008  -0.0741918   0.0000000), wk =   0.1111111
        k(    9) = (   0.0257008  -0.0445151   0.0000000), wk =   0.1111111
        k(   10) = (   0.0257008  -0.0148384   0.0000000), wk =   0.1111111
        k(   11) = (   0.0514016   0.0296767   0.0000000), wk =   0.1111111
        k(   12) = (   0.0514016   0.0593535   0.0000000), wk =   0.1111111
        k(   13) = (   0.0514016   0.0890302   0.0000000), wk =   0.1111111
        k(   14) = (   0.0514016  -0.0593535   0.0000000), wk =   0.1111111
        k(   15) = (   0.0514016  -0.0296767   0.0000000), wk =   0.1111111
        k(   16) = (   0.0514016   0.0000000   0.0000000), wk =   0.1111111
        k(   17) = (  -0.0771024  -0.0445151   0.0000000), wk =   0.0555556
        k(   18) = (  -0.0771024  -0.0148384   0.0000000), wk =   0.1111111
        k(   19) = (  -0.0771024   0.0148384   0.0000000), wk =   0.1111111
        k(   20) = (  -0.0771024  -0.1335453   0.0000000), wk =   0.0555556

     Largest allocated arrays     est. size (Mb)     dimensions
     Largest temporary arrays     est. size (Mb)     dimensions

     Check: negative/imaginary core charge=   -0.000001    0.000000

     Initial potential from superposition of free atoms
     Check: negative starting charge=   -0.456938

     starting charge  158.95302, renormalised to  159.00000

     negative rho (up, down):  4.571E-01 0.000E+00

     *
     * You are using vdW-DF for exchange-correlation in this calculation.
     * Please cite the following three references that made this development
     * possible:
     *
     *   M. Dion, H. Rydberg, E. Schroder, D. C. Langreth, and
     *   B. I. Lundqvist, Phys. Rev. Lett. 92, 246401 (2004).
     *
     *   T. Thonhauser, V. R. Cooper, S. Li, A. Puzder, P. Hyldgaard, and
     *   D. C. Langreth, Phys. Rev. B 76, 125112 (2007).
     *
     *   G. Roman-Perez and J. M. Soler, Phys. Rev. Lett. 103, 096102 (2009).
     *
     *
     * If you are using vdW-DF2, please also cite:
     *
     *   K. Lee, E. D. Murray, L. Kong, B. I. Lundqvist, and
     *   D. C. Langreth, Phys. Rev. B 82, 081101(R) (2010).
     *
     *
     * If you are calculating the stress with vdW-DF, please also cite:
     *
     *   R. Sabatini, E. Kucukbenli, B. Kolb, T. Thonhauser, and
     *   S. de Gironcoli, J. Phys.: Condens. Matter 24, 424209 (2012).
     *

     Carrying out vdW-DF run using the following parameters:

     Nqs =      20    Nr_points =    1024   r_max =   100.000
     q_mesh =
               0.00001000     0.04494208     0.09755937     0.15916263
               0.23128650     0.31572767     0.41458969     0.53033537
               0.66584808     0.82450364     1.01025438     1.22772762
               1.48234092     1.78043706     2.12944203     2.53805004
               3.01644009     3.57652955     4.23227104     5.00000000

     Gradients computed in reciprocal space

     Adding external electric field

     Computed dipole along edir(3) :
        Dipole                0.0000 Ry au,          0.0000 Debye
        Dipole field          0.0000 Ry au

        Potential amp.       -0.0000 Ry
        Total length         46.6054 bohr

     Starting wfc are  120 randomized atomic wfcs

     Self-consistent Calculation

     iteration #  1     ecut=    36.75 Ry     beta=0.10
     Davidson diagonalization with overlap
     ethr =  1.00E-02,  avg # of iterations =  5.2

[...]

     total energy              =   -1739.84419612 Ry
     Harris-Foulkes estimate   =   -1740.73891437 Ry
     estimated scf accuracy    <       5.06595072 Ry

[...]

     End of self-consistent calculation

          k = 0.0000 0.0000 0.0000 ( 23391 PWs)   bands (ev):

   -60.0255 -60.0254 -59.8738 -34.0823 -34.0823 -34.0822 -34.0822 -34.0414
   -34.0411 -33.9680 -33.9680 -33.8390 -11.3090 -11.2011 -11.1899 -11.1897
   -11.1116 -11.0993 -11.0054 -11.0053 -10.9532 -10.9284 -10.9284 -10.8983
   -10.8981 -10.8140 -10.7969 -10.7969 -10.7546 -10.6668 -10.6255 -10.6146
   -10.6146 -10.5736 -10.5734 -10.5619 -10.5522 -10.5520 -10.4330 -10.4330
   -10.3926 -10.3925 -10.3823 -10.3823 -10.3809 -10.3632 -10.3632 -10.3078
   -10.3078 -10.2271 -10.2270 -10.1832 -10.1723 -10.1462 -10.1462 -10.0264
   -10.0240  -8.6487  -7.2234  -5.3844  -4.3498  -4.3497  -3.7200  -3.7200
    -2.8339  -2.8338  -1.8823  -1.2084  -0.8845  -0.7062  -0.7062  -0.2561
     0.4423   0.4423   0.6614   0.6614   0.7260   0.9271   0.9271   0.9641
     0.9641   1.3242   1.4617   1.4902   1.4902   1.6679   1.6680   1.6920
     1.6920   2.2322   2.2322   2.3730   3.1637   3.5940   4.0219   4.6168
     4.8094   5.2374   5.2374   5.3703   5.3703   5.6537   5.7651   6.0838
     6.5076   6.5350   7.3868   7.3869   7.4251

[...]

          k =-0.0771-0.0445 0.0000 ( 23400 PWs)   bands (ev):

[...]

     the Fermi energy is     1.1116 ev

!    total energy              =   -1740.35172783 Ry
     Harris-Foulkes estimate   =   -1740.35172119 Ry
     estimated scf accuracy    <       0.00000056 Ry

     The total energy is the sum of the following terms:

     one-electron contribution =   -9723.73311738 Ry
     hartree contribution      =    4920.85044595 Ry
     xc contribution           =    -635.96677167 Ry
     ewald contribution        =    3698.58960830 Ry
     electric field correction =       0.00000000 Ry
     smearing contrib. (-TS)   =      -0.09189303 Ry

     convergence has been achieved in  15 iterations

 BEEF-vdW xc energy contributions
           1 :   -564.645800899168
           2 :    523.468867362614
           3 :   -451.205947937188
           4 :    364.038554427093
           5 :   -278.507220116831
           6 :    206.452938554631
           7 :   -152.529489607233
           8 :    114.789638736504
           9 :   -87.6010327316271
          10 :    65.2383554594707
          11 :   -44.4958109472576
          12 :    25.3432344037826
          13 :   -9.76831446511710
          14 :  -0.218844564929213
[...]

     PseudoPot. # 1 for Tl read from file:
     /afs/slac.stanford.edu/u/if/mamunm/psp/gbrv1.5pbe/Tl.UPF
     MD5 check sum: b76cf1f7e72655a2b2c53cf6385d7059
     Pseudo is Ultrasoft + core correction, Zval = 13.0
     Generated by new atomic code, or converted to UPF format
     Using radial grid of  899 points,  6 beta functions with:
                l(1) =   0
                l(2) =   0
                l(3) =   1
                l(4) =   1
                l(5) =   2
                l(6) =   2
     Q(r) pseudized with  6 coefficients,  rinner =    1.100   1.100   1.100
                                                       1.100   1.100

     PseudoPot. # 2 for Mo read from file:
     /afs/slac.stanford.edu/u/if/mamunm/psp/gbrv1.5pbe/Mo.UPF
     MD5 check sum: 30c4dcd161f5d35cd49bb5239c51a633
     Pseudo is Ultrasoft + core correction, Zval = 14.0
     Generated by new atomic code, or converted to UPF format
     Using radial grid of  889 points,  6 beta functions with:
                l(1) =   0
                l(2) =   0
                l(3) =   1
                l(4) =   1
                l(5) =   2
                l(6) =   2
     Q(r) pseudized with  6 coefficients,  rinner =    1.000   1.000   1.000
                                                       1.000   1.000

     vdW kernel table read from file vdW_kernel_table
     MD5 check sum: 095c7af220d748ca6e76c0b4c6cfb241

     atomic species   valence    mass     pseudopotential
        Tl1           13.00   204.38000     Tl( 1.00)
        Mo1           14.00    95.95000     Mo( 1.00)

     No symmetry found

   Cartesian axes

     site n.     atom                  positions (alat units)
         1           Tl1 tau(   1) = (   0.0000000   0.0000000  10.0000000  )
         2           Tl1 tau(   2) = (  -1.6212201   2.8080356  10.0000000  )
         3           Tl1 tau(   3) = (   1.6212201   2.8080356  10.0000000  )
         4           Mo1 tau(   4) = (   3.2424402   0.0000000  10.0000000  )
         5           Tl1 tau(   5) = (   3.2424402   1.8720237  12.6474413  )
         6           Tl1 tau(   6) = (   1.6212201   4.6800593  12.6474413  )
         7           Tl1 tau(   7) = (  -1.6212201   4.6800593  12.6474413  )
         8           Mo1 tau(   8) = (   0.0000000   1.8720237  12.6474413  )
         9           Tl1 tau(   9) = (   0.0000242   3.7226583  15.5660350  )
        10           Tl1 tau(  10) = (   1.6022143   0.9472945  15.5649243  )
        11           Tl1 tau(  11) = (   4.8826227   0.9472998  15.5649379  )
        12           Mo1 tau(  12) = (   3.2424348   3.7439010  14.8286510  )

     number of k points=    20  Fermi-Dirac smearing, width (Ry)=  0.0110
                       cart. coord. in units 2pi/alat
        k(    1) = (   0.0000000   0.0000000   0.0000000), wk =   0.0555556
        k(    2) = (   0.0000000   0.0296767   0.0000000), wk =   0.1111111
        k(    3) = (   0.0000000   0.0593535   0.0000000), wk =   0.1111111
        k(    4) = (   0.0000000  -0.0890302   0.0000000), wk =   0.0555556
        k(    5) = (   0.0257008   0.0148384   0.0000000), wk =   0.1111111
        k(    6) = (   0.0257008   0.0445151   0.0000000), wk =   0.1111111
        k(    7) = (   0.0257008   0.0741918   0.0000000), wk =   0.1111111
        k(    8) = (   0.0257008  -0.0741918   0.0000000), wk =   0.1111111
        k(    9) = (   0.0257008  -0.0445151   0.0000000), wk =   0.1111111
        k(   10) = (   0.0257008  -0.0148384   0.0000000), wk =   0.1111111
        k(   11) = (   0.0514016   0.0296767   0.0000000), wk =   0.1111111
        k(   12) = (   0.0514016   0.0593535   0.0000000), wk =   0.1111111
        k(   13) = (   0.0514016   0.0890302   0.0000000), wk =   0.1111111
        k(   14) = (   0.0514016  -0.0593535   0.0000000), wk =   0.1111111
        k(   15) = (   0.0514016  -0.0296767   0.0000000), wk =   0.1111111
        k(   16) = (   0.0514016   0.0000000   0.0000000), wk =   0.1111111
        k(   17) = (  -0.0771024  -0.0445151   0.0000000), wk =   0.0555556
        k(   18) = (  -0.0771024  -0.0148384   0.0000000), wk =   0.1111111
        k(   19) = (  -0.0771024   0.0148384   0.0000000), wk =   0.1111111
        k(   20) = (  -0.0771024  -0.1335453   0.0000000), wk =   0.0555556

     Largest allocated arrays     est. size (Mb)     dimensions
     Largest temporary arrays     est. size (Mb)     dimensions

     Check: negative/imaginary core charge=   -0.000001    0.000000

     Initial potential from superposition of free atoms
     Check: negative starting charge=   -0.457818

     starting charge  158.95302, renormalised to  159.00000

[...]

     *
     * You are using vdW-DF for exchange-correlation in this calculation.
     * Please cite the following three references that made this development
     * possible:
     *
     *   M. Dion, H. Rydberg, E. Schroder, D. C. Langreth, and
     *   B. I. Lundqvist, Phys. Rev. Lett. 92, 246401 (2004).
     *
     *   T. Thonhauser, V. R. Cooper, S. Li, A. Puzder, P. Hyldgaard, and
     *   D. C. Langreth, Phys. Rev. B 76, 125112 (2007).
     *
     *   G. Roman-Perez and J. M. Soler, Phys. Rev. Lett. 103, 096102 (2009).
     *
     *
     * If you are using vdW-DF2, please also cite:
     *
     *   K. Lee, E. D. Murray, L. Kong, B. I. Lundqvist, and
     *   D. C. Langreth, Phys. Rev. B 82, 081101(R) (2010).
     *
     *
     * If you are calculating the stress with vdW-DF, please also cite:
     *
     *   R. Sabatini, E. Kucukbenli, B. Kolb, T. Thonhauser, and
     *   S. de Gironcoli, J. Phys.: Condens. Matter 24, 424209 (2012).
     *

     Carrying out vdW-DF run using the following parameters:

     Nqs =      20    Nr_points =    1024   r_max =   100.000
     q_mesh =
               0.00001000     0.04494208     0.09755937     0.15916263
               0.23128650     0.31572767     0.41458969     0.53033537
               0.66584808     0.82450364     1.01025438     1.22772762
               1.48234092     1.78043706     2.12944203     2.53805004
               3.01644009     3.57652955     4.23227104     5.00000000

     Gradients computed in reciprocal space

[...]

     Starting wfc are  120 randomized atomic wfcs

     Self-consistent Calculation

[...]

     total energy              =   -1740.40843267 Ry
     Harris-Foulkes estimate   =   -1740.40842993 Ry
     estimated scf accuracy    <       0.00000192 Ry

     iteration # 18     ecut=    36.75 Ry     beta=0.10
     Davidson diagonalization with overlap
     ethr =  9.83E-10,  avg # of iterations =  2.0

[...]

     negative rho (up, down):  4.883E-01 0.000E+00

     Adding external electric field

     Computed dipole along edir(3) :
        Dipole                0.0983 Ry au,          0.2498 Debye
        Dipole field          0.0002 Ry au

        Potential amp.       -0.0185 Ry
        Total length         46.6054 bohr

     End of self-consistent calculation

[...]

          k = 0.0514 0.0000 0.0000 ( 23350 PWs)   bands (ev):

[...]

          k =-0.0771-0.1335 0.0000 ( 23400 PWs)   bands (ev):

   -59.9689 -59.9292 -59.7812 -34.0133 -34.0130 -34.0058 -34.0056 -34.0013
   -33.9487 -33.8700 -33.8697 -33.7507 -11.0672 -10.9461 -10.9169 -10.8874
   -10.8731 -10.8206 -10.7893 -10.7594 -10.7493 -10.7280 -10.7071 -10.6933
   -10.6437 -10.6434 -10.6154 -10.6091 -10.5756 -10.5365 -10.5271 -10.5053
   -10.4996 -10.4951 -10.4799 -10.4658 -10.4491 -10.4477 -10.4324 -10.4238
   -10.4151 -10.4078 -10.4057 -10.3952 -10.3859 -10.3817 -10.3584 -10.3495
   -10.3170 -10.3113 -10.2975 -10.2791 -10.2577 -10.2121 -10.1660 -10.0965
   -10.0505  -7.3525  -6.9353  -5.9058  -5.6535  -4.9097  -4.6726  -4.3489
    -3.5675  -2.5487  -1.8582  -1.2349  -0.5802  -0.1736  -0.0516   0.0642
     0.1245   0.1499   0.4707   0.6784   0.9414   1.0848   1.3313   1.3318
     1.4730   1.4974   1.6672   1.8149   2.0766   2.1739   2.6076   3.0032
     3.0911   3.1784   3.6444   3.7387   3.7968   4.2150   4.3211   4.4152
     4.7743   5.1859   5.4305   5.5021   5.6453   5.6936   5.7173   5.8502
     5.9637   6.4065   6.4789   6.4980   6.7257

     the Fermi energy is     1.2004 ev

!    total energy              =   -1740.40843458 Ry
     Harris-Foulkes estimate   =   -1740.40843225 Ry
     estimated scf accuracy    <       0.00000023 Ry

     The total energy is the sum of the following terms:

     one-electron contribution =   -9601.60813271 Ry
     hartree contribution      =    4860.23984197 Ry
     xc contribution           =    -635.94463569 Ry
     ewald contribution        =    3636.98920860 Ry
     electric field correction =       0.00001953 Ry
     smearing contrib. (-TS)   =      -0.08473628 Ry

     convergence has been achieved in  18 iterations

 BEEF-vdW xc energy contributions
           1 :   -564.769304197013
           2 :    523.547498022010
           3 :   -451.241872338817
           4 :    364.082256462590
           5 :   -278.613794298224
           6 :    206.631747943571
           7 :   -152.727184986325
           8 :    114.921030581951
           9 :   -87.6087142216423
          10 :    65.1409766093279
          11 :   -44.3898614103833
          12 :    25.3505901600670
          13 :   -9.95973383594310
          14 :   0.124903677224893
          15 :    3.81488283316548
          16 :   -3.45904999273739
          17 :    1.53941623955211
          18 :  -0.567218829076637
          19 :    1.73126136245355
          20 :   -4.60771554102007
          21 :    7.72780660539445
          22 :   -9.60171530952925
          23 :    9.58911444587613
          24 :   -8.16729488855447
          25 :    6.52087115021686
          26 :   -5.77122993911553
          27 :    6.32413392346007
          28 :   -7.70191538060919
          29 :    8.90868969209782
          30 :   -9.07349418380329
          31 :   -47.0126760712409
          32 :   -34.5737185224267

     Forces acting on atoms (Ry/au):

     negative rho (up, down):  4.883E-01 0.000E+00
     atom    1 type  1   force =     0.00000016    0.01399249   -0.02725286
     atom    2 type  1   force =     0.01215262   -0.00704953   -0.02718743
     atom    3 type  1   force =    -0.01215393   -0.00704874   -0.02718808
     atom    4 type  2   force =     0.00000015    0.00000770    0.07806850
     atom    5 type  1   force =    -0.00000075   -0.02104335   -0.00035514
     atom    6 type  1   force =    -0.01824905    0.01052558   -0.00029781
     atom    7 type  1   force =     0.01825063    0.01052320   -0.00029576
     atom    8 type  2   force =    -0.00000018    0.00000867    0.00330455
     atom    9 type  1   force =     0.00000080   -0.00111463    0.00023908
     atom   10 type  1   force =    -0.00097692    0.00058096    0.00022409
     atom   11 type  1   force =     0.00097655    0.00058259    0.00022434
     atom   12 type  2   force =    -0.00000009    0.00003507    0.00051651

     Total force =     0.101253     Total SCF correction =     0.002000

     entering subroutine stress ...

     negative rho (up, down):  4.883E-01 0.000E+00
          total   stress  (Ry/bohr**3)                   (kbar)     P=  -13.00
  -0.00011517  -0.00000000  -0.00000000        -16.94     -0.00     -0.00
  -0.00000000  -0.00011520   0.00000001         -0.00    -16.95      0.00
  -0.00000000   0.00000001  -0.00003484         -0.00      0.00     -5.13

 !ASE

     Writing output data file calc.save

     General routines

     Parallel routines

   This run was terminated on:   3:49:14   2Jan2019

   JOB DONE.
Job  /afs/slac/g/suncat/bin/suncat-tsmpirun -x LD_LIBRARY_PATH -wdir /scratch/qe649260_FbjPa pw.x -in pw.inp

TID   HOST_NAME   COMMAND_LINE            STATUS            TERMINATION_TIME
00000 suncat0058 pw.x -in pw.inp   Done                     01/02/2019 03:49:14
00001 suncat0058 pw.x -in pw.inp   Done                     01/02/2019 03:49:14
00002 suncat0058 pw.x -in pw.inp   Done                     01/02/2019 03:49:14
00003 suncat0058 pw.x -in pw.inp   Done                     01/02/2019 03:49:14
00004 suncat0058 pw.x -in pw.inp   Done                     01/02/2019 03:49:14
00005 suncat0058 pw.x -in pw.inp   Done                     01/02/2019 03:49:14
00006 suncat0058 pw.x -in pw.inp   Done                     01/02/2019 03:49:14
00007 suncat0058 pw.x -in pw.inp   Done                     01/02/2019 03:49:14
00008 suncat0056 pw.x -in pw.inp   Done                     01/02/2019 03:49:14
00009 suncat0056 pw.x -in pw.inp   Done                     01/02/2019 03:49:14
00010 suncat0056 pw.x -in pw.inp   Done                     01/02/2019 03:49:14
00011 suncat0056 pw.x -in pw.inp   Done                     01/02/2019 03:49:14
00012 suncat0056 pw.x -in pw.inp   Done                     01/02/2019 03:49:14
00013 suncat0056 pw.x -in pw.inp   Done                     01/02/2019 03:49:14
00014 suncat0056 pw.x -in pw.inp   Done                     01/02/2019 03:49:14
00015 suncat0056 pw.x -in pw.inp   Done                     01/02/2019 03:49:14
00016 suncat0054 pw.x -in pw.inp   Done                     01/02/2019 03:49:14
00017 suncat0054 pw.x -in pw.inp   Done                     01/02/2019 03:49:14
00018 suncat0054 pw.x -in pw.inp   Done                     01/02/2019 03:49:14
00019 suncat0054 pw.x -in pw.inp   Done                     01/02/2019 03:49:14
00020 suncat0054 pw.x -in pw.inp   Done                     01/02/2019 03:49:14
00021 suncat0054 pw.x -in pw.inp   Done                     01/02/2019 03:49:14
00022 suncat0054 pw.x -in pw.inp   Done                     01/02/2019 03:49:14
00023 suncat0054 pw.x -in pw.inp   Done                     01/02/2019 03:49:14
00024 suncat0052 pw.x -in pw.inp   Done                     01/02/2019 03:49:14
00025 suncat0052 pw.x -in pw.inp   Done                     01/02/2019 03:49:14
00026 suncat0052 pw.x -in pw.inp   Done                     01/02/2019 03:49:14
00027 suncat0052 pw.x -in pw.inp   Done                     01/02/2019 03:49:14
00028 suncat0052 pw.x -in pw.inp   Done                     01/02/2019 03:49:14
00029 suncat0052 pw.x -in pw.inp   Done                     01/02/2019 03:49:14
00030 suncat0052 pw.x -in pw.inp   Done                     01/02/2019 03:49:14
00031 suncat0052 pw.x -in pw.inp   Done                     01/02/2019 03:49:14
00032 suncat0048 pw.x -in pw.inp   Done                     01/02/2019 03:49:14
00033 suncat0048 pw.x -in pw.inp   Done                     01/02/2019 03:49:14
00034 suncat0048 pw.x -in pw.inp   Done                     01/02/2019 03:49:14
00035 suncat0048 pw.x -in pw.inp   Done                     01/02/2019 03:49:14
00036 suncat0048 pw.x -in pw.inp   Done                     01/02/2019 03:49:14
00037 suncat0048 pw.x -in pw.inp   Done                     01/02/2019 03:49:14
00038 suncat0048 pw.x -in pw.inp   Done                     01/02/2019 03:49:14
00039 suncat0048 pw.x -in pw.inp   Done                     01/02/2019 03:49:14
00040 suncat0047 pw.x -in pw.inp   Done                     01/02/2019 03:49:14
00041 suncat0047 pw.x -in pw.inp   Done                     01/02/2019 03:49:14
00042 suncat0047 pw.x -in pw.inp   Done                     01/02/2019 03:49:14
00043 suncat0047 pw.x -in pw.inp   Done                     01/02/2019 03:49:14
00044 suncat0047 pw.x -in pw.inp   Done                     01/02/2019 03:49:14
00045 suncat0047 pw.x -in pw.inp   Done                     01/02/2019 03:49:14
00046 suncat0047 pw.x -in pw.inp   Done                     01/02/2019 03:49:14
00047 suncat0047 pw.x -in pw.inp   Done                     01/02/2019 03:49:14
00048 suncat0121 pw.x -in pw.inp   Done                     01/02/2019 03:49:14
00049 suncat0121 pw.x -in pw.inp   Done                     01/02/2019 03:49:14
00050 suncat0121 pw.x -in pw.inp   Done                     01/02/2019 03:49:14
00051 suncat0121 pw.x -in pw.inp   Done                     01/02/2019 03:49:14
00052 suncat0121 pw.x -in pw.inp   Done                     01/02/2019 03:49:14
00053 suncat0121 pw.x -in pw.inp   Done                     01/02/2019 03:49:14
00054 suncat0121 pw.x -in pw.inp   Done                     01/02/2019 03:49:14
00055 suncat0121 pw.x -in pw.inp   Done                     01/02/2019 03:49:14
00056 suncat0115 pw.x -in pw.inp   Done                     01/02/2019 03:49:14
00057 suncat0115 pw.x -in pw.inp   Done                     01/02/2019 03:49:14
00058 suncat0115 pw.x -in pw.inp   Done                     01/02/2019 03:49:14
00059 suncat0115 pw.x -in pw.inp   Done                     01/02/2019 03:49:14
00060 suncat0115 pw.x -in pw.inp   Done                     01/02/2019 03:49:14
00061 suncat0115 pw.x -in pw.inp   Done                     01/02/2019 03:49:14
00062 suncat0115 pw.x -in pw.inp   Done                     01/02/2019 03:49:14
00063 suncat0115 pw.x -in pw.inp   Done                     01/02/2019 03:49:14