     Program PWSCF v.5.1rc2 (svn rev. 11289) starts on 27Dec2018 at 14:15:14

     Current dimensions of program PWSCF are:
     Max number of different atomic species (ntypx) = 10
     Max number of k-points (npk) =  40000
     Max angular momentum in pseudopotentials (lmaxx) =  3
     Presently stress not available with electric field

     IMPORTANT: XC functional enforced from input :
     Exchange-correlation      = BEEF-VDW ( 1  4 27 13 2)
     Any further DFT definition will be discarded
     Please, verify this is what you really want

     Subspace diagonalization in iterative solution of the eigenvalue problem:
     a serial algorithm will be used

     bravais-lattice index     =            0
     lattice parameter (alat)  =       1.8897  a.u.
     unit-cell volume          =    4440.9974 (a.u.)^3
     number of atoms/cell      =           12
     number of atomic types    =            2
     number of electrons       =       183.00
     number of Kohn-Sham states=          121
     kinetic-energy cutoff     =      36.7493  Ry
     charge density cutoff     =     367.4932  Ry
     convergence threshold     =      1.0E-06
     mixing beta               =       0.1000
     number of iterations used =           10  plain     mixing
     Exchange-correlation      = BEEF-VDW ( 1  4 27 13 2)
     nstep                     =           50

     celldm(1)=   1.889726  celldm(2)=   0.000000  celldm(3)=   0.000000
     celldm(4)=   0.000000  celldm(5)=   0.000000  celldm(6)=   0.000000

     crystal axes: (cart. coord. in units of alat)
               a(1) = (   5.564303   0.000000   0.000000 )
               a(2) = (  -2.782151   4.818828   0.000000 )
               a(3) = (   0.000000   0.000000  24.543234 )

     reciprocal axes: (cart. coord. in units 2 pi/alat)
               b(1) = (  0.179717  0.103760  0.000000 )
               b(2) = (  0.000000  0.207519  0.000000 )
               b(3) = (  0.000000  0.000000  0.040744 )

     PseudoPot. # 1 for Os read from file:
     /afs/slac.stanford.edu/u/if/mamunm/psp/gbrv1.5pbe/Os.UPF
     MD5 check sum: a3fb40a04f0c37c25c34bbc47164c9a8
     Pseudo is Ultrasoft + core correction, Zval = 16.0
     Generated by new atomic code, or converted to UPF format
     Using radial grid of  983 points,  8 beta functions with:
                l(1) =   0
                l(2) =   0
                l(3) =   1
                l(4) =   1
                l(5) =   2
                l(6) =   2
                l(7) =   3
                l(8) =   3
     Q(r) pseudized with  8 coefficients,  rinner =    1.150   1.150   1.150
                                                       1.150   1.150   1.150
                                                       1.150

     PseudoPot. # 2 for Ta read from file:
     /afs/slac.stanford.edu/u/if/mamunm/psp/gbrv1.5pbe/Ta.UPF
     MD5 check sum: f8bbe9446314a3b8ea5d9f3e3836c939
     Pseudo is Ultrasoft + core correction, Zval = 13.0
     Generated by new atomic code, or converted to UPF format
     Using radial grid of  921 points,  7 beta functions with:
                l(1) =   0
                l(2) =   0
                l(3) =   1
                l(4) =   1
                l(5) =   2
                l(6) =   2
                l(7) =   3
     Q(r) pseudized with  6 coefficients,  rinner =    1.300   1.300   1.300
                                                       1.300   1.300   1.300
                                                       1.300

     vdW kernel table read from file vdW_kernel_table
     MD5 check sum: 095c7af220d748ca6e76c0b4c6cfb241

     atomic species   valence    mass     pseudopotential
        Os1           16.00   190.23000     Os( 1.00)
        Ta1           13.00   180.94788     Ta( 1.00)

     No symmetry found

   Cartesian axes

     site n.     atom                  positions (alat units)
         1           Os1 tau(   1) = (   0.0000000   0.0000000  10.0000000  )
         2           Os1 tau(   2) = (  -1.3910757   2.4094138  10.0000000  )
         3           Os1 tau(   3) = (   1.3910757   2.4094138  10.0000000  )
         4           Ta1 tau(   4) = (   2.7821514   0.0000000  10.0000000  )
         5           Os1 tau(   5) = (   2.7821514   1.6062758  12.2716171  )
         6           Os1 tau(   6) = (   1.3910757   4.0156896  12.2716171  )
         7           Os1 tau(   7) = (  -1.3910757   4.0156896  12.2716171  )
         8           Ta1 tau(   8) = (   0.0000000   1.6062758  12.2716171  )
         9           Os1 tau(   9) = (  -0.0000000   3.2125517  14.5432341  )
        10           Os1 tau(  10) = (   1.3910757   0.8031379  14.5432341  )
        11           Os1 tau(  11) = (   4.1732270   0.8031379  14.5432341  )
        12           Ta1 tau(  12) = (   2.7821514   3.2125517  14.5432341  )

     number of k points=    20  Fermi-Dirac smearing, width (Ry)=  0.0110
                       cart. coord. in units 2pi/alat
        k(    1) = (   0.0000000   0.0000000   0.0000000), wk =   0.0555556
        k(    2) = (   0.0000000   0.0345866   0.0000000), wk =   0.1111111
        k(    3) = (   0.0000000   0.0691731   0.0000000), wk =   0.1111111
        k(    4) = (   0.0000000  -0.1037597   0.0000000), wk =   0.0555556
        k(    5) = (   0.0299528   0.0172933   0.0000000), wk =   0.1111111
        k(    6) = (   0.0299528   0.0518798   0.0000000), wk =   0.1111111
        k(    7) = (   0.0299528   0.0864664   0.0000000), wk =   0.1111111
        k(    8) = (   0.0299528  -0.0864664   0.0000000), wk =   0.1111111
        k(    9) = (   0.0299528  -0.0518798   0.0000000), wk =   0.1111111
        k(   10) = (   0.0299528  -0.0172933   0.0000000), wk =   0.1111111
        k(   11) = (   0.0599057   0.0345866   0.0000000), wk =   0.1111111
        k(   12) = (   0.0599057   0.0691731   0.0000000), wk =   0.1111111
        k(   13) = (   0.0599057   0.1037597   0.0000000), wk =   0.1111111
        k(   14) = (   0.0599057  -0.0691731   0.0000000), wk =   0.1111111
        k(   15) = (   0.0599057  -0.0345866   0.0000000), wk =   0.1111111
        k(   16) = (   0.0599057   0.0000000   0.0000000), wk =   0.1111111
        k(   17) = (  -0.0898585  -0.0518798   0.0000000), wk =   0.0555556
        k(   18) = (  -0.0898585  -0.0172933   0.0000000), wk =   0.1111111
        k(   19) = (  -0.0898585   0.0172933   0.0000000), wk =   0.1111111
        k(   20) = (  -0.0898585  -0.1556395   0.0000000), wk =   0.0555556

     Largest allocated arrays     est. size (Mb)     dimensions
     Largest temporary arrays     est. size (Mb)     dimensions

     Initial potential from superposition of free atoms
     Check: negative starting charge=   -1.389473

     starting charge  178.49634, renormalised to  183.00000

     negative rho (up, down):  1.425E+00 0.000E+00

     *
     * You are using vdW-DF for exchange-correlation in this calculation.
     * Please cite the following three references that made this development
     * possible:
     *
     *   M. Dion, H. Rydberg, E. Schroder, D. C. Langreth, and
     *   B. I. Lundqvist, Phys. Rev. Lett. 92, 246401 (2004).
     *
     *   T. Thonhauser, V. R. Cooper, S. Li, A. Puzder, P. Hyldgaard, and
     *   D. C. Langreth, Phys. Rev. B 76, 125112 (2007).
     *
     *   G. Roman-Perez and J. M. Soler, Phys. Rev. Lett. 103, 096102 (2009).
     *
     *
     * If you are using vdW-DF2, please also cite:
     *
     *   K. Lee, E. D. Murray, L. Kong, B. I. Lundqvist, and
     *   D. C. Langreth, Phys. Rev. B 82, 081101(R) (2010).
     *
     *
     * If you are calculating the stress with vdW-DF, please also cite:
     *
     *   R. Sabatini, E. Kucukbenli, B. Kolb, T. Thonhauser, and
     *   S. de Gironcoli, J. Phys.: Condens. Matter 24, 424209 (2012).
     *

     Carrying out vdW-DF run using the following parameters:

     Nqs =      20    Nr_points =    1024   r_max =   100.000
     q_mesh =
               0.00001000     0.04494208     0.09755937     0.15916263
               0.23128650     0.31572767     0.41458969     0.53033537
               0.66584808     0.82450364     1.01025438     1.22772762
               1.48234092     1.78043706     2.12944203     2.53805004
               3.01644009     3.57652955     4.23227104     5.00000000

     Gradients computed in reciprocal space

     Adding external electric field

     Computed dipole along edir(3) :
        Dipole                0.0000 Ry au,          0.0000 Debye
        Dipole field          0.0000 Ry au

        Potential amp.       -0.0000 Ry
        Total length         45.2205 bohr

     Starting wfc are  156 randomized atomic wfcs

     Self-consistent Calculation

     iteration #  1     ecut=    36.75 Ry     beta=0.10
     Davidson diagonalization with overlap
     ethr =  1.00E-02,  avg # of iterations =  3.0

     Threshold (ethr) on eigenvalues was too large:
     Diagonalizing with lowered threshold

     Davidson diagonalization with overlap
     ethr =  9.08E-04,  avg # of iterations =  3.5

[...]

     total energy              =   -2228.04156761 Ry
     Harris-Foulkes estimate   =   -2228.29028666 Ry
     estimated scf accuracy    <       1.71415675 Ry

[...]

     End of self-consistent calculation

          k = 0.0000 0.0000 0.0000 ( 16703 PWs)   bands (ev):

   -83.8043 -83.7707 -83.7704 -83.4849 -83.4841 -83.4520 -83.4520 -83.4518
   -83.4518 -65.8021 -65.8019 -65.6003 -43.4145 -43.2355 -43.2354 -43.2140
   -43.1261 -43.1260 -43.0870 -43.0392 -42.9197 -42.8313 -42.8313 -42.8210
   -42.8208 -42.7959 -42.7700 -42.7699 -42.7417 -42.7417 -42.7136 -42.6934
   -42.6934 -42.5213 -42.5105 -42.5077 -42.5077 -42.5034 -42.5034 -32.2897
   -32.2699 -32.0294 -32.0294 -32.0249 -32.0249 -31.9834 -31.9834 -31.9018
    -6.1036  -4.2383  -3.6642  -3.2286  -3.2286  -3.2032  -2.9475  -2.9474
    -2.8984  -2.3165  -2.3165  -2.3095  -2.1625  -2.1162  -2.1162  -0.8296
    -0.6056  -0.6056   0.0486   0.0486   0.2189   0.3376   0.5216   0.8068
     0.8864   0.8865   1.1520   1.1520   1.1854   1.1855   1.5384   1.5384
     1.6133   1.6133   1.9393   2.1179   2.6314   2.7688   2.7688   3.0439
     3.0439   3.1961   3.3005   3.3177   3.3177   4.1198   4.1198   4.4082
     4.4193   4.4685   4.4685   5.1017   5.1017   5.1662   5.5487   5.5712
     5.6466   5.8066   5.8066   6.3414   6.3414   6.5885   6.5885   6.6425
     6.6426   7.0325   7.0781   7.2692   7.2692   7.2993   7.2993   7.3118
     7.7599

[...]

          k =-0.0899-0.0519 0.0000 ( 16708 PWs)   bands (ev):

[...]

     the Fermi energy is     2.7499 ev

!    total energy              =   -2227.75401371 Ry
     Harris-Foulkes estimate   =   -2227.75400355 Ry
     estimated scf accuracy    <       0.00000041 Ry

     The total energy is the sum of the following terms:

     one-electron contribution =  -18499.47049725 Ry
     hartree contribution      =    9233.03305825 Ry
     xc contribution           =    -478.95413606 Ry
     ewald contribution        =    7517.71071802 Ry
     electric field correction =       0.00000000 Ry
     smearing contrib. (-TS)   =      -0.07315667 Ry

     convergence has been achieved in  16 iterations

 BEEF-vdW xc energy contributions
           1 :   -420.126626364667
[...]
                l(6) =   2
                l(7) =   3
                l(8) =   3
     Q(r) pseudized with  8 coefficients,  rinner =    1.150   1.150   1.150
                                                       1.150   1.150   1.150
                                                       1.150

     PseudoPot. # 2 for Ta read from file:
     /afs/slac.stanford.edu/u/if/mamunm/psp/gbrv1.5pbe/Ta.UPF
     MD5 check sum: f8bbe9446314a3b8ea5d9f3e3836c939
     Pseudo is Ultrasoft + core correction, Zval = 13.0
     Generated by new atomic code, or converted to UPF format
     Using radial grid of  921 points,  7 beta functions with:
                l(1) =   0
                l(2) =   0
                l(3) =   1
                l(4) =   1
                l(5) =   2
                l(6) =   2
                l(7) =   3
     Q(r) pseudized with  6 coefficients,  rinner =    1.300   1.300   1.300
                                                       1.300   1.300   1.300
                                                       1.300

     vdW kernel table read from file vdW_kernel_table
     MD5 check sum: 095c7af220d748ca6e76c0b4c6cfb241

     atomic species   valence    mass     pseudopotential
        Os1           16.00   190.23000     Os( 1.00)
        Ta1           13.00   180.94788     Ta( 1.00)

     No symmetry found

   Cartesian axes

     site n.     atom                  positions (alat units)
         1           Os1 tau(   1) = (   0.0000000   0.0000000  10.0000000  )
         2           Os1 tau(   2) = (  -1.3910757   2.4094138  10.0000000  )
         3           Os1 tau(   3) = (   1.3910757   2.4094138  10.0000000  )
         4           Ta1 tau(   4) = (   2.7821514   0.0000000  10.0000000  )
         5           Os1 tau(   5) = (   2.7821514   1.6062758  12.2716171  )
         6           Os1 tau(   6) = (   1.3910757   4.0156896  12.2716171  )
         7           Os1 tau(   7) = (  -1.3910757   4.0156896  12.2716171  )
         8           Ta1 tau(   8) = (   0.0000000   1.6062758  12.2716171  )
         9           Os1 tau(   9) = (  -0.0000643   3.2223002  14.4503680  )
        10           Os1 tau(  10) = (   1.3995235   0.7982613  14.4503372  )
        11           Os1 tau(  11) = (   4.1647535   0.7983180  14.4503701  )
        12           Ta1 tau(  12) = (   2.7822567   3.2124909  14.4277901  )

     number of k points=    20  Fermi-Dirac smearing, width (Ry)=  0.0110
                       cart. coord. in units 2pi/alat
        k(    1) = (   0.0000000   0.0000000   0.0000000), wk =   0.0555556
        k(    2) = (   0.0000000   0.0345866   0.0000000), wk =   0.1111111
        k(    3) = (   0.0000000   0.0691731   0.0000000), wk =   0.1111111
        k(    4) = (   0.0000000  -0.1037597   0.0000000), wk =   0.0555556
        k(    5) = (   0.0299528   0.0172933   0.0000000), wk =   0.1111111
        k(    6) = (   0.0299528   0.0518798   0.0000000), wk =   0.1111111
        k(    7) = (   0.0299528   0.0864664   0.0000000), wk =   0.1111111
        k(    8) = (   0.0299528  -0.0864664   0.0000000), wk =   0.1111111
        k(    9) = (   0.0299528  -0.0518798   0.0000000), wk =   0.1111111
        k(   10) = (   0.0299528  -0.0172933   0.0000000), wk =   0.1111111
        k(   11) = (   0.0599057   0.0345866   0.0000000), wk =   0.1111111
        k(   12) = (   0.0599057   0.0691731   0.0000000), wk =   0.1111111
        k(   13) = (   0.0599057   0.1037597   0.0000000), wk =   0.1111111
        k(   14) = (   0.0599057  -0.0691731   0.0000000), wk =   0.1111111
        k(   15) = (   0.0599057  -0.0345866   0.0000000), wk =   0.1111111
        k(   16) = (   0.0599057   0.0000000   0.0000000), wk =   0.1111111
        k(   17) = (  -0.0898585  -0.0518798   0.0000000), wk =   0.0555556
        k(   18) = (  -0.0898585  -0.0172933   0.0000000), wk =   0.1111111
        k(   19) = (  -0.0898585   0.0172933   0.0000000), wk =   0.1111111
        k(   20) = (  -0.0898585  -0.1556395   0.0000000), wk =   0.0555556

     Largest allocated arrays     est. size (Mb)     dimensions
     Largest temporary arrays     est. size (Mb)     dimensions

     Initial potential from superposition of free atoms
     Check: negative starting charge=   -1.392699

     starting charge  178.49634, renormalised to  183.00000

[...]

     *
     * You are using vdW-DF for exchange-correlation in this calculation.
     * Please cite the following three references that made this development
     * possible:
     *
     *   M. Dion, H. Rydberg, E. Schroder, D. C. Langreth, and
     *   B. I. Lundqvist, Phys. Rev. Lett. 92, 246401 (2004).
     *
     *   T. Thonhauser, V. R. Cooper, S. Li, A. Puzder, P. Hyldgaard, and
     *   D. C. Langreth, Phys. Rev. B 76, 125112 (2007).
     *
     *   G. Roman-Perez and J. M. Soler, Phys. Rev. Lett. 103, 096102 (2009).
     *
     *
     * If you are using vdW-DF2, please also cite:
     *
     *   K. Lee, E. D. Murray, L. Kong, B. I. Lundqvist, and
     *   D. C. Langreth, Phys. Rev. B 82, 081101(R) (2010).
     *
     *
     * If you are calculating the stress with vdW-DF, please also cite:
     *
     *   R. Sabatini, E. Kucukbenli, B. Kolb, T. Thonhauser, and
     *   S. de Gironcoli, J. Phys.: Condens. Matter 24, 424209 (2012).
     *

     Carrying out vdW-DF run using the following parameters:

     Nqs =      20    Nr_points =    1024   r_max =   100.000
     q_mesh =
               0.00001000     0.04494208     0.09755937     0.15916263
               0.23128650     0.31572767     0.41458969     0.53033537
               0.66584808     0.82450364     1.01025438     1.22772762
               1.48234092     1.78043706     2.12944203     2.53805004
               3.01644009     3.57652955     4.23227104     5.00000000

     Gradients computed in reciprocal space

[...]

     Starting wfc are  156 randomized atomic wfcs

     Self-consistent Calculation

[...]

     Threshold (ethr) on eigenvalues was too large:
     Diagonalizing with lowered threshold

     Davidson diagonalization with overlap
     ethr =  9.19E-04,  avg # of iterations =  2.4

[...]

     total energy              =   -2227.77201758 Ry
     Harris-Foulkes estimate   =   -2227.77201658 Ry
     estimated scf accuracy    <       0.00000205 Ry

     iteration # 17     ecut=    36.75 Ry     beta=0.10
     Davidson diagonalization with overlap
     ethr =  7.09E-10,  avg # of iterations =  2.0

[...]

     negative rho (up, down):  1.414E+00 0.000E+00

     Adding external electric field

     Computed dipole along edir(3) :
        Dipole                0.0266 Ry au,          0.0677 Debye
        Dipole field          0.0001 Ry au

        Potential amp.       -0.0068 Ry
        Total length         45.2205 bohr

     End of self-consistent calculation

[...]

          k = 0.0599 0.0000 0.0000 ( 16666 PWs)   bands (ev):

[...]

          k =-0.0899-0.1556 0.0000 ( 16708 PWs)   bands (ev):

   -83.7990 -83.7876 -83.7762 -83.4510 -83.4400 -83.4389 -83.4292 -83.4281
   -83.4171 -65.8262 -65.6188 -65.5068 -43.3425 -43.2429 -43.1968 -43.1740
   -43.1161 -43.1075 -43.0587 -43.0560 -42.9334 -42.8950 -42.8618 -42.7901
   -42.7440 -42.7282 -42.7159 -42.7059 -42.6992 -42.6849 -42.6709 -42.6457
   -42.6407 -42.6383 -42.6316 -42.6263 -42.5991 -42.4948 -42.4769 -32.3146
   -32.1109 -32.0719 -32.0534 -31.9444 -31.9252 -31.9143 -31.8929 -31.8205
    -4.3183  -4.1536  -2.7033  -2.6819  -2.2892  -2.2705  -2.2064  -2.0989
    -2.0485  -1.9464  -1.5661  -1.3346  -1.3264  -1.0373  -0.9806  -0.8259
    -0.8096  -0.6502  -0.5121  -0.2617  -0.2171   0.0555   0.3549   0.4587
     0.5308   0.5585   0.6441   0.7016   0.7134   0.7665   0.8597   1.0250
     1.0387   1.0875   1.3983   1.4155   1.4353   1.6819   1.7752   1.9493
     2.0299   2.1217   2.2058   2.5645   2.8779   2.9009   2.9413   2.9844
     3.4756   3.6432   3.6637   3.9606   4.0464   4.5048   4.5476   4.7959
     4.8672   5.1438   5.2378   5.2740   5.5070   6.1883   6.2620   6.3945
     6.4087   7.0844   7.1698   7.6486   7.9229   8.2782   8.6675   8.7182
     8.9602

     the Fermi energy is     2.7704 ev

!    total energy              =   -2227.77202080 Ry
     Harris-Foulkes estimate   =   -2227.77201765 Ry
     estimated scf accuracy    <       0.00000039 Ry

     The total energy is the sum of the following terms:

     one-electron contribution =  -18759.65612438 Ry
     hartree contribution      =    9363.25971446 Ry
     xc contribution           =    -479.23347639 Ry
     ewald contribution        =    7647.92841267 Ry
     electric field correction =       0.00000201 Ry
     smearing contrib. (-TS)   =      -0.07054917 Ry

     convergence has been achieved in  17 iterations

 BEEF-vdW xc energy contributions
           1 :   -420.554665398386
           2 :    389.478701311436
           3 :   -334.668157818489
           4 :    268.142184101835
           5 :   -202.691474312312
           6 :    148.249181152010
           7 :   -109.720796469166
           8 :    86.7461057640468
           9 :   -75.1541314738835
          10 :    69.2968806064894
          11 :   -64.2857620265295
          12 :    57.3687594298434
          13 :   -48.1781289237443
          14 :    38.0451004125157
          15 :   -28.8817165731857
          16 :    22.1576209289781
          17 :   -18.3394248209642
          18 :    16.8877383335128
          19 :   -16.6724550683182
          20 :    16.5296019494887
          21 :   -15.6998551367512
          22 :    13.9986041518878
          23 :   -11.7220217097633
          24 :    9.39457328541255
          25 :   -7.49753576007987
          26 :    6.28173656158964
          27 :   -5.71294753234912
          28 :    5.53831242479572
          29 :   -5.42544386504363
          30 :    5.10766695249850
          31 :   -39.1554803363654
          32 :   -29.6853776777428

     Forces acting on atoms (Ry/au):

     negative rho (up, down):  1.414E+00 0.000E+00
     atom    1 type  1   force =    -0.00000120   -0.00301655    0.01997146
     atom    2 type  1   force =    -0.00261089    0.00150727    0.01997291
     atom    3 type  1   force =     0.00261183    0.00150930    0.01997123
     atom    4 type  2   force =     0.00000243   -0.00000125    0.03082084
     atom    5 type  1   force =     0.00000111    0.00213637   -0.02538939
     atom    6 type  1   force =     0.00184896   -0.00106696   -0.02537581
     atom    7 type  1   force =    -0.00185013   -0.00106937   -0.02538991
     atom    8 type  2   force =    -0.00000431    0.00000221   -0.01930448
     atom    9 type  1   force =     0.00005756    0.00000833    0.00131317
     atom   10 type  1   force =    -0.00000703    0.00000379    0.00133265
     atom   11 type  1   force =     0.00002152   -0.00005347    0.00131243
     atom   12 type  2   force =    -0.00006985    0.00004033    0.00076489

     Total force =     0.067076     Total SCF correction =     0.003865

     entering subroutine stress ...

     negative rho (up, down):  1.414E+00 0.000E+00
          total   stress  (Ry/bohr**3)                   (kbar)     P=  -28.58
  -0.00023706   0.00000000   0.00000000        -34.87      0.00      0.00
   0.00000000  -0.00023706  -0.00000000          0.00    -34.87     -0.00
   0.00000000  -0.00000000  -0.00010879          0.00     -0.00    -16.00

 !ASE

     Writing output data file calc.save

     General routines

     Parallel routines

   This run was terminated on:  14:54:18  27Dec2018

   JOB DONE.
Job  /afs/slac/g/suncat/bin/suncat-tsmpirun -x LD_LIBRARY_PATH -wdir /scratch/qe110354_wr86a pw.x -in pw.inp

TID   HOST_NAME   COMMAND_LINE            STATUS            TERMINATION_TIME
00000 suncat0075 pw.x -in pw.inp   Done                     12/27/2018 14:54:18
00001 suncat0075 pw.x -in pw.inp   Done                     12/27/2018 14:54:18
00002 suncat0075 pw.x -in pw.inp   Done                     12/27/2018 14:54:18
00003 suncat0075 pw.x -in pw.inp   Done                     12/27/2018 14:54:18
00004 suncat0075 pw.x -in pw.inp   Done                     12/27/2018 14:54:18
00005 suncat0075 pw.x -in pw.inp   Done                     12/27/2018 14:54:18
00006 suncat0075 pw.x -in pw.inp   Done                     12/27/2018 14:54:18
00007 suncat0075 pw.x -in pw.inp   Done                     12/27/2018 14:54:18
00008 suncat0074 pw.x -in pw.inp   Done                     12/27/2018 14:54:18
00009 suncat0074 pw.x -in pw.inp   Done                     12/27/2018 14:54:18
00010 suncat0074 pw.x -in pw.inp   Done                     12/27/2018 14:54:18
00011 suncat0074 pw.x -in pw.inp   Done                     12/27/2018 14:54:18
00012 suncat0074 pw.x -in pw.inp   Done                     12/27/2018 14:54:18
00013 suncat0074 pw.x -in pw.inp   Done                     12/27/2018 14:54:18
00014 suncat0074 pw.x -in pw.inp   Done                     12/27/2018 14:54:18
00015 suncat0074 pw.x -in pw.inp   Done                     12/27/2018 14:54:18
00016 suncat0065 pw.x -in pw.inp   Done                     12/27/2018 14:54:18
00017 suncat0065 pw.x -in pw.inp   Done                     12/27/2018 14:54:18
00018 suncat0065 pw.x -in pw.inp   Done                     12/27/2018 14:54:18
00019 suncat0065 pw.x -in pw.inp   Done                     12/27/2018 14:54:18
00020 suncat0065 pw.x -in pw.inp   Done                     12/27/2018 14:54:18
00021 suncat0065 pw.x -in pw.inp   Done                     12/27/2018 14:54:18
00022 suncat0065 pw.x -in pw.inp   Done                     12/27/2018 14:54:18
00023 suncat0065 pw.x -in pw.inp   Done                     12/27/2018 14:54:18
00024 suncat0195 pw.x -in pw.inp   Done                     12/27/2018 14:54:18
00025 suncat0195 pw.x -in pw.inp   Done                     12/27/2018 14:54:18
00026 suncat0195 pw.x -in pw.inp   Done                     12/27/2018 14:54:18
00027 suncat0195 pw.x -in pw.inp   Done                     12/27/2018 14:54:18
00028 suncat0195 pw.x -in pw.inp   Done                     12/27/2018 14:54:18
00029 suncat0195 pw.x -in pw.inp   Done                     12/27/2018 14:54:18
00030 suncat0195 pw.x -in pw.inp   Done                     12/27/2018 14:54:18
00031 suncat0195 pw.x -in pw.inp   Done                     12/27/2018 14:54:18
00032 suncat0003 pw.x -in pw.inp   Done                     12/27/2018 14:54:18
00033 suncat0003 pw.x -in pw.inp   Done                     12/27/2018 14:54:18
00034 suncat0003 pw.x -in pw.inp   Done                     12/27/2018 14:54:18
00035 suncat0003 pw.x -in pw.inp   Done                     12/27/2018 14:54:18
00036 suncat0003 pw.x -in pw.inp   Done                     12/27/2018 14:54:18
00037 suncat0003 pw.x -in pw.inp   Done                     12/27/2018 14:54:18
00038 suncat0003 pw.x -in pw.inp   Done                     12/27/2018 14:54:18
00039 suncat0003 pw.x -in pw.inp   Done                     12/27/2018 14:54:18
00040 suncat0002 pw.x -in pw.inp   Done                     12/27/2018 14:54:18
00041 suncat0002 pw.x -in pw.inp   Done                     12/27/2018 14:54:18
00042 suncat0002 pw.x -in pw.inp   Done                     12/27/2018 14:54:18
00043 suncat0002 pw.x -in pw.inp   Done                     12/27/2018 14:54:18
00044 suncat0002 pw.x -in pw.inp   Done                     12/27/2018 14:54:18
00045 suncat0002 pw.x -in pw.inp   Done                     12/27/2018 14:54:18
00046 suncat0002 pw.x -in pw.inp   Done                     12/27/2018 14:54:18
00047 suncat0002 pw.x -in pw.inp   Done                     12/27/2018 14:54:18
00048 suncat0283 pw.x -in pw.inp   Done                     12/27/2018 14:54:18
00049 suncat0283 pw.x -in pw.inp   Done                     12/27/2018 14:54:18
00050 suncat0283 pw.x -in pw.inp   Done                     12/27/2018 14:54:18
00051 suncat0283 pw.x -in pw.inp   Done                     12/27/2018 14:54:18
00052 suncat0283 pw.x -in pw.inp   Done                     12/27/2018 14:54:18
00053 suncat0283 pw.x -in pw.inp   Done                     12/27/2018 14:54:18
00054 suncat0283 pw.x -in pw.inp   Done                     12/27/2018 14:54:18
00055 suncat0283 pw.x -in pw.inp   Done                     12/27/2018 14:54:18
00056 suncat0282 pw.x -in pw.inp   Done                     12/27/2018 14:54:18
00057 suncat0282 pw.x -in pw.inp   Done                     12/27/2018 14:54:18
00058 suncat0282 pw.x -in pw.inp   Done                     12/27/2018 14:54:18
00059 suncat0282 pw.x -in pw.inp   Done                     12/27/2018 14:54:18
00060 suncat0282 pw.x -in pw.inp   Done                     12/27/2018 14:54:18
00061 suncat0282 pw.x -in pw.inp   Done                     12/27/2018 14:54:18
00062 suncat0282 pw.x -in pw.inp   Done                     12/27/2018 14:54:18
00063 suncat0282 pw.x -in pw.inp   Done                     12/27/2018 14:54:18