     Program PWSCF v.5.1rc2 (svn rev. 11289) starts on 27Dec2018 at 17: 5:22

     Current dimensions of program PWSCF are:
     Max number of different atomic species (ntypx) = 10
     Max number of k-points (npk) =  40000
     Max angular momentum in pseudopotentials (lmaxx) =  3
     Presently stress not available with electric field

     IMPORTANT: XC functional enforced from input :
     Exchange-correlation      = BEEF-VDW ( 1  4 27 13 2)
     Any further DFT definition will be discarded
     Please, verify this is what you really want

     Subspace diagonalization in iterative solution of the eigenvalue problem:
     a serial algorithm will be used

     bravais-lattice index     =            0
     lattice parameter (alat)  =       1.8897  a.u.
     unit-cell volume          =    6970.0326 (a.u.)^3
     number of atoms/cell      =           12
     number of atomic types    =            2
     number of electrons       =       162.00
     number of Kohn-Sham states=          111
     kinetic-energy cutoff     =      36.7493  Ry
     charge density cutoff     =     367.4932  Ry
     convergence threshold     =      1.0E-06
     mixing beta               =       0.1000
     number of iterations used =           10  plain     mixing
     Exchange-correlation      = BEEF-VDW ( 1  4 27 13 2)
     nstep                     =           50

     celldm(1)=   1.889726  celldm(2)=   0.000000  celldm(3)=   0.000000
     celldm(4)=   0.000000  celldm(5)=   0.000000  celldm(6)=   0.000000

     crystal axes: (cart. coord. in units of alat)
               a(1) = (   6.828739   0.000000   0.000000 )
               a(2) = (  -3.414370   5.913861   0.000000 )
               a(3) = (   0.000000   0.000000  25.575642 )

     reciprocal axes: (cart. coord. in units 2 pi/alat)
               b(1) = (  0.146440  0.084547  0.000000 )
               b(2) = (  0.000000  0.169094  0.000000 )
               b(3) = (  0.000000  0.000000  0.039100 )

     PseudoPot. # 1 for Pb read from file:
     /afs/slac.stanford.edu/u/if/mamunm/psp/gbrv1.5pbe/Pb.UPF
     MD5 check sum: 3d1c1779aa92214d1e8f3a7db79003e2
     Pseudo is Ultrasoft + core correction, Zval = 14.0
     Generated by new atomic code, or converted to UPF format
     Using radial grid of  899 points,  6 beta functions with:
                l(1) =   0
                l(2) =   0
                l(3) =   1
                l(4) =   1
                l(5) =   2
                l(6) =   2
     Q(r) pseudized with  6 coefficients,  rinner =    1.000   1.000   1.000
                                                       1.000   1.000

     PseudoPot. # 2 for Zr read from file:
     /afs/slac.stanford.edu/u/if/mamunm/psp/gbrv1.5pbe/Zr.UPF
     MD5 check sum: 5db81b1e868ab7776c4564c113de050b
     Pseudo is Ultrasoft + core correction, Zval = 12.0
     Generated by new atomic code, or converted to UPF format
     Using radial grid of  887 points,  6 beta functions with:
                l(1) =   0
                l(2) =   0
                l(3) =   1
                l(4) =   1
                l(5) =   2
                l(6) =   2
     Q(r) pseudized with  6 coefficients,  rinner =    1.200   1.200   1.200
                                                       1.200   1.200

     vdW kernel table read from file vdW_kernel_table
     MD5 check sum: 095c7af220d748ca6e76c0b4c6cfb241

     atomic species   valence    mass     pseudopotential
        Pb1           14.00   207.20000     Pb( 1.00)
        Zr1           12.00    91.22400     Zr( 1.00)

     No symmetry found

   Cartesian axes

     site n.     atom                  positions (alat units)
         1           Pb1 tau(   1) = (   0.0000000   0.0000000  10.0000000  )
         2           Pb1 tau(   2) = (  -1.7071848   2.9569307  10.0000000  )
         3           Pb1 tau(   3) = (   1.7071848   2.9569307  10.0000000  )
         4           Zr1 tau(   4) = (   3.4143695   0.0000000  10.0000000  )
         5           Pb1 tau(   5) = (   3.4143695   1.9712872  12.7878210  )
         6           Pb1 tau(   6) = (   1.7071848   4.9282179  12.7878210  )
         7           Pb1 tau(   7) = (  -1.7071848   4.9282179  12.7878210  )
         8           Zr1 tau(   8) = (   0.0000000   1.9712872  12.7878210  )
         9           Pb1 tau(   9) = (  -0.0000000   3.9425743  15.5756421  )
        10           Pb1 tau(  10) = (   1.7071848   0.9856436  15.5756421  )
        11           Pb1 tau(  11) = (   5.1215543   0.9856436  15.5756421  )
        12           Zr1 tau(  12) = (   3.4143695   3.9425743  15.5756421  )

     number of k points=    20  Fermi-Dirac smearing, width (Ry)=  0.0110
                       cart. coord. in units 2pi/alat
        k(    1) = (   0.0000000   0.0000000   0.0000000), wk =   0.0555556
        k(    2) = (   0.0000000   0.0281824   0.0000000), wk =   0.1111111
        k(    3) = (   0.0000000   0.0563648   0.0000000), wk =   0.1111111
        k(    4) = (   0.0000000  -0.0845471   0.0000000), wk =   0.0555556
        k(    5) = (   0.0244067   0.0140912   0.0000000), wk =   0.1111111
        k(    6) = (   0.0244067   0.0422736   0.0000000), wk =   0.1111111
        k(    7) = (   0.0244067   0.0704559   0.0000000), wk =   0.1111111
        k(    8) = (   0.0244067  -0.0704559   0.0000000), wk =   0.1111111
        k(    9) = (   0.0244067  -0.0422736   0.0000000), wk =   0.1111111
        k(   10) = (   0.0244067  -0.0140912   0.0000000), wk =   0.1111111
        k(   11) = (   0.0488133   0.0281824   0.0000000), wk =   0.1111111
        k(   12) = (   0.0488133   0.0563648   0.0000000), wk =   0.1111111
        k(   13) = (   0.0488133   0.0845471   0.0000000), wk =   0.1111111
        k(   14) = (   0.0488133  -0.0563648   0.0000000), wk =   0.1111111
        k(   15) = (   0.0488133  -0.0281824   0.0000000), wk =   0.1111111
        k(   16) = (   0.0488133   0.0000000   0.0000000), wk =   0.1111111
        k(   17) = (  -0.0732200  -0.0422736   0.0000000), wk =   0.0555556
        k(   18) = (  -0.0732200  -0.0140912   0.0000000), wk =   0.1111111
        k(   19) = (  -0.0732200   0.0140912   0.0000000), wk =   0.1111111
        k(   20) = (  -0.0732200  -0.1268207   0.0000000), wk =   0.0555556

     Largest allocated arrays     est. size (Mb)     dimensions
     Largest temporary arrays     est. size (Mb)     dimensions

     Check: negative/imaginary core charge=   -0.000001    0.000000

     Initial potential from superposition of free atoms
     Check: negative starting charge=   -0.331740

     starting charge  161.97239, renormalised to  162.00000

     negative rho (up, down):  3.318E-01 0.000E+00

     *
     * You are using vdW-DF for exchange-correlation in this calculation.
     * Please cite the following three references that made this development
     * possible:
     *
     *   M. Dion, H. Rydberg, E. Schroder, D. C. Langreth, and
     *   B. I. Lundqvist, Phys. Rev. Lett. 92, 246401 (2004).
     *
     *   T. Thonhauser, V. R. Cooper, S. Li, A. Puzder, P. Hyldgaard, and
     *   D. C. Langreth, Phys. Rev. B 76, 125112 (2007).
     *
     *   G. Roman-Perez and J. M. Soler, Phys. Rev. Lett. 103, 096102 (2009).
     *
     *
     * If you are using vdW-DF2, please also cite:
     *
     *   K. Lee, E. D. Murray, L. Kong, B. I. Lundqvist, and
     *   D. C. Langreth, Phys. Rev. B 82, 081101(R) (2010).
     *
     *
     * If you are calculating the stress with vdW-DF, please also cite:
     *
     *   R. Sabatini, E. Kucukbenli, B. Kolb, T. Thonhauser, and
     *   S. de Gironcoli, J. Phys.: Condens. Matter 24, 424209 (2012).
     *

     Carrying out vdW-DF run using the following parameters:

     Nqs =      20    Nr_points =    1024   r_max =   100.000
     q_mesh =
               0.00001000     0.04494208     0.09755937     0.15916263
               0.23128650     0.31572767     0.41458969     0.53033537
               0.66584808     0.82450364     1.01025438     1.22772762
               1.48234092     1.78043706     2.12944203     2.53805004
               3.01644009     3.57652955     4.23227104     5.00000000

     Gradients computed in reciprocal space

     Adding external electric field

     Computed dipole along edir(3) :
        Dipole               -0.0000 Ry au,         -0.0000 Debye
        Dipole field         -0.0000 Ry au

        Potential amp.        0.0000 Ry
        Total length         47.1227 bohr

     Starting wfc are  120 randomized atomic wfcs

     Self-consistent Calculation

     iteration #  1     ecut=    36.75 Ry     beta=0.10
     Davidson diagonalization with overlap
     ethr =  1.00E-02,  avg # of iterations =  3.0

     Threshold (ethr) on eigenvalues was too large:
     Diagonalizing with lowered threshold

     Davidson diagonalization with overlap
     ethr =  4.19E-04,  avg # of iterations =  4.7

[...]

     total energy              =   -1793.23196809 Ry
     Harris-Foulkes estimate   =   -1793.35126920 Ry
     estimated scf accuracy    <       0.71676057 Ry

[...]

     End of self-consistent calculation

          k = 0.0000 0.0000 0.0000 ( 26229 PWs)   bands (ev):

   -49.1362 -49.1362 -48.8122 -27.1418 -27.1410 -27.0154 -27.0154 -27.0152
   -27.0152 -26.7791 -26.7791 -26.6767 -16.1587 -16.1213 -16.1213 -16.1129
   -16.0684 -16.0578 -16.0133 -16.0133 -15.9990 -15.9990 -15.9931 -15.9931
   -15.9847 -15.9616 -15.9412 -15.9297 -15.9297 -15.8902 -15.8767 -15.8767
   -15.8748 -15.8743 -15.8743 -15.8589 -15.8589 -15.8485 -15.8123 -15.8123
   -15.8059 -15.8059 -15.7858 -15.7858 -15.7841 -15.7809 -15.7809 -15.7484
   -15.7484 -15.7245 -15.7245 -15.7107 -15.6993 -15.6993 -15.6979 -15.6318
   -15.6310  -9.7123  -8.6346  -7.4429  -6.7462  -6.7462  -6.1355  -6.1355
    -5.5368  -5.5368  -2.6581  -2.0141  -1.7881  -1.5689  -1.5689  -1.2183
    -0.5773  -0.5773  -0.3922  -0.3922   0.0421   1.0165   1.0165   1.0983
     1.0983   1.7151   1.8381   1.9422   1.9422   2.0805   2.0805   2.1365
     2.1365   2.2051   2.2839   2.4414   2.4414   2.4915   3.5309   3.6773
     3.6773   4.0396   4.0904   4.0904   4.3845   4.6013   4.6016   5.0772
     5.3021   5.4477   5.4478   5.7143   5.8179   6.0090   6.0090

[...]

          k =-0.0732-0.0423 0.0000 ( 26214 PWs)   bands (ev):

[...]

     the Fermi energy is     1.3516 ev

!    total energy              =   -1793.29055444 Ry
     Harris-Foulkes estimate   =   -1793.29046087 Ry
     estimated scf accuracy    <       0.00000087 Ry

     The total energy is the sum of the following terms:

     one-electron contribution =   -8995.03747903 Ry
     hartree contribution      =    4547.07090763 Ry
     xc contribution           =    -642.77437533 Ry
     ewald contribution        =    3297.51211006 Ry
     electric field correction =       0.00000000 Ry
     smearing contrib. (-TS)   =      -0.06171777 Ry

     convergence has been achieved in  14 iterations

 BEEF-vdW xc energy contributions
           1 :   -571.185637133244
           2 :    529.573096987885
           3 :   -456.584453745741
           4 :    368.620392709783
           5 :   -282.342718677121
           6 :    209.567908808806
           7 :   -154.811194124994
           8 :    115.977494115336
[...]
     Generated by new atomic code, or converted to UPF format
     Using radial grid of  899 points,  6 beta functions with:
                l(1) =   0
                l(2) =   0
                l(3) =   1
                l(4) =   1
                l(5) =   2
                l(6) =   2
     Q(r) pseudized with  6 coefficients,  rinner =    1.000   1.000   1.000
                                                       1.000   1.000

     PseudoPot. # 2 for Zr read from file:
     /afs/slac.stanford.edu/u/if/mamunm/psp/gbrv1.5pbe/Zr.UPF
     MD5 check sum: 5db81b1e868ab7776c4564c113de050b
     Pseudo is Ultrasoft + core correction, Zval = 12.0
     Generated by new atomic code, or converted to UPF format
     Using radial grid of  887 points,  6 beta functions with:
                l(1) =   0
                l(2) =   0
                l(3) =   1
                l(4) =   1
                l(5) =   2
                l(6) =   2
     Q(r) pseudized with  6 coefficients,  rinner =    1.200   1.200   1.200
                                                       1.200   1.200

     vdW kernel table read from file vdW_kernel_table
     MD5 check sum: 095c7af220d748ca6e76c0b4c6cfb241

     atomic species   valence    mass     pseudopotential
        Pb1           14.00   207.20000     Pb( 1.00)
        Zr1           12.00    91.22400     Zr( 1.00)

     No symmetry found

   Cartesian axes

     site n.     atom                  positions (alat units)
         1           Pb1 tau(   1) = (   0.0000000   0.0000000  10.0000000  )
         2           Pb1 tau(   2) = (  -1.7071848   2.9569307  10.0000000  )
         3           Pb1 tau(   3) = (   1.7071848   2.9569307  10.0000000  )
         4           Zr1 tau(   4) = (   3.4143695   0.0000000  10.0000000  )
         5           Pb1 tau(   5) = (   3.4143695   1.9712872  12.7878210  )
         6           Pb1 tau(   6) = (   1.7071848   4.9282179  12.7878210  )
         7           Pb1 tau(   7) = (  -1.7071848   4.9282179  12.7878210  )
         8           Zr1 tau(   8) = (   0.0000000   1.9712872  12.7878210  )
         9           Pb1 tau(   9) = (   0.0000305   3.8718543  15.6953287  )
        10           Pb1 tau(  10) = (   1.6459018   1.0209966  15.6953393  )
        11           Pb1 tau(  11) = (   5.1828531   1.0209980  15.6951606  )
        12           Zr1 tau(  12) = (   3.4143766   3.9425618  15.0940807  )

     number of k points=    20  Fermi-Dirac smearing, width (Ry)=  0.0110
                       cart. coord. in units 2pi/alat
        k(    1) = (   0.0000000   0.0000000   0.0000000), wk =   0.0555556
        k(    2) = (   0.0000000   0.0281824   0.0000000), wk =   0.1111111
        k(    3) = (   0.0000000   0.0563648   0.0000000), wk =   0.1111111
        k(    4) = (   0.0000000  -0.0845471   0.0000000), wk =   0.0555556
        k(    5) = (   0.0244067   0.0140912   0.0000000), wk =   0.1111111
        k(    6) = (   0.0244067   0.0422736   0.0000000), wk =   0.1111111
        k(    7) = (   0.0244067   0.0704559   0.0000000), wk =   0.1111111
        k(    8) = (   0.0244067  -0.0704559   0.0000000), wk =   0.1111111
        k(    9) = (   0.0244067  -0.0422736   0.0000000), wk =   0.1111111
        k(   10) = (   0.0244067  -0.0140912   0.0000000), wk =   0.1111111
        k(   11) = (   0.0488133   0.0281824   0.0000000), wk =   0.1111111
        k(   12) = (   0.0488133   0.0563648   0.0000000), wk =   0.1111111
        k(   13) = (   0.0488133   0.0845471   0.0000000), wk =   0.1111111
        k(   14) = (   0.0488133  -0.0563648   0.0000000), wk =   0.1111111
        k(   15) = (   0.0488133  -0.0281824   0.0000000), wk =   0.1111111
        k(   16) = (   0.0488133   0.0000000   0.0000000), wk =   0.1111111
        k(   17) = (  -0.0732200  -0.0422736   0.0000000), wk =   0.0555556
        k(   18) = (  -0.0732200  -0.0140912   0.0000000), wk =   0.1111111
        k(   19) = (  -0.0732200   0.0140912   0.0000000), wk =   0.1111111
        k(   20) = (  -0.0732200  -0.1268207   0.0000000), wk =   0.0555556

     Largest allocated arrays     est. size (Mb)     dimensions
     Largest temporary arrays     est. size (Mb)     dimensions

     Check: negative/imaginary core charge=   -0.000001    0.000000

     Initial potential from superposition of free atoms
     Check: negative starting charge=   -0.330503

     starting charge  161.97239, renormalised to  162.00000

[...]

     *
     * You are using vdW-DF for exchange-correlation in this calculation.
     * Please cite the following three references that made this development
     * possible:
     *
     *   M. Dion, H. Rydberg, E. Schroder, D. C. Langreth, and
     *   B. I. Lundqvist, Phys. Rev. Lett. 92, 246401 (2004).
     *
     *   T. Thonhauser, V. R. Cooper, S. Li, A. Puzder, P. Hyldgaard, and
     *   D. C. Langreth, Phys. Rev. B 76, 125112 (2007).
     *
     *   G. Roman-Perez and J. M. Soler, Phys. Rev. Lett. 103, 096102 (2009).
     *
     *
     * If you are using vdW-DF2, please also cite:
     *
     *   K. Lee, E. D. Murray, L. Kong, B. I. Lundqvist, and
     *   D. C. Langreth, Phys. Rev. B 82, 081101(R) (2010).
     *
     *
     * If you are calculating the stress with vdW-DF, please also cite:
     *
     *   R. Sabatini, E. Kucukbenli, B. Kolb, T. Thonhauser, and
     *   S. de Gironcoli, J. Phys.: Condens. Matter 24, 424209 (2012).
     *

     Carrying out vdW-DF run using the following parameters:

     Nqs =      20    Nr_points =    1024   r_max =   100.000
     q_mesh =
               0.00001000     0.04494208     0.09755937     0.15916263
               0.23128650     0.31572767     0.41458969     0.53033537
               0.66584808     0.82450364     1.01025438     1.22772762
               1.48234092     1.78043706     2.12944203     2.53805004
               3.01644009     3.57652955     4.23227104     5.00000000

     Gradients computed in reciprocal space

[...]

     Starting wfc are  120 randomized atomic wfcs

     Self-consistent Calculation

[...]

     Threshold (ethr) on eigenvalues was too large:
     Diagonalizing with lowered threshold

     Davidson diagonalization with overlap
     ethr =  4.89E-04,  avg # of iterations =  5.0

[...]

     total energy              =   -1793.32959821 Ry
     Harris-Foulkes estimate   =   -1793.32956179 Ry
     estimated scf accuracy    <       0.00000115 Ry

     iteration # 17     ecut=    36.75 Ry     beta=0.10
     Davidson diagonalization with overlap
     ethr =  7.10E-10,  avg # of iterations =  3.0

[...]

     negative rho (up, down):  3.455E-01 0.000E+00

     Adding external electric field

     Computed dipole along edir(3) :
        Dipole               -0.0243 Ry au,         -0.0619 Debye
        Dipole field         -0.0000 Ry au

        Potential amp.        0.0041 Ry
        Total length         47.1227 bohr

     End of self-consistent calculation

[...]

          k = 0.0488 0.0000 0.0000 ( 26225 PWs)   bands (ev):

[...]

          k =-0.0732-0.1268 0.0000 ( 26214 PWs)   bands (ev):

   -49.2311 -48.9091 -48.8459 -27.2438 -27.1010 -27.1002 -26.8913 -26.8471
   -26.8468 -26.8148 -26.8138 -26.7009 -16.1473 -16.0819 -16.0616 -16.0568
   -16.0428 -16.0293 -16.0258 -16.0096 -16.0082 -16.0041 -15.9737 -15.9597
   -15.9520 -15.9489 -15.9339 -15.9333 -15.9317 -15.9177 -15.9093 -15.8977
   -15.8966 -15.8893 -15.8789 -15.8677 -15.8600 -15.8575 -15.8507 -15.8501
   -15.8468 -15.8377 -15.8326 -15.8288 -15.8263 -15.8241 -15.8205 -15.8189
   -15.8108 -15.7966 -15.7916 -15.7828 -15.7756 -15.7582 -15.7461 -15.7027
   -15.6977  -8.8396  -8.5260  -7.8311  -7.3838  -6.9758  -6.9628  -6.5400
    -6.1203  -5.4484  -2.5781  -2.0413  -1.4123  -0.6934  -0.6001  -0.4639
    -0.3783  -0.2880   0.1436   0.3020   0.3772   0.5875   0.9296   1.0565
     1.2925   1.3096   1.5576   1.7281   1.7657   1.9111   2.0338   2.0991
     2.1813   2.2426   2.3735   2.4130   2.6481   2.8028   3.3670   3.4290
     3.4359   3.6201   3.9135   4.2559   4.5432   4.8288   4.9847   5.0367
     5.3785   5.5493   5.6003   5.6985   6.0593   6.1556   6.2257

     the Fermi energy is     1.3031 ev

!    total energy              =   -1793.32957007 Ry
     Harris-Foulkes estimate   =   -1793.32959805 Ry
     estimated scf accuracy    <       0.00000050 Ry

     The total energy is the sum of the following terms:

     one-electron contribution =   -9005.24550999 Ry
     hartree contribution      =    4552.11122984 Ry
     xc contribution           =    -642.83035961 Ry
     ewald contribution        =    3302.69147691 Ry
     electric field correction =       0.00000107 Ry
     smearing contrib. (-TS)   =      -0.05640828 Ry

     convergence has been achieved in  17 iterations

 BEEF-vdW xc energy contributions
           1 :   -571.240904154549
           2 :    529.642078290333
           3 :   -456.677743084772
           4 :    368.732471766913
           5 :   -282.445519401832
           6 :    209.625349537556
           7 :   -154.803904536069
           8 :    115.916911160354
           9 :   -87.2600272304080
          10 :    63.0605967147675
          11 :   -40.0484917006903
          12 :    18.1507162210214
          13 :   0.548502476035537
          14 :   -13.6853818188000
          15 :    20.2360824602662
          16 :   -21.1368645514127
          17 :    18.7863926112640
          18 :   -15.8737784718355
          19 :    14.2194627814800
          20 :   -14.1966270992862
          21 :    14.9308798264841
          22 :   -15.0734628976555
          23 :    13.6880993998583
          24 :   -10.7930819226125
          25 :    7.32229522391003
          26 :   -4.58410381950864
          27 :    3.54093408192148
          28 :   -4.30310783525272
          29 :    6.09803597130747
          30 :   -7.71487995326140
          31 :   -47.2964347810664
          32 :   -34.7620758001784

     Forces acting on atoms (Ry/au):

     negative rho (up, down):  3.455E-01 0.000E+00
     atom    1 type  1   force =    -0.00000005    0.01140705   -0.01477064
     atom    2 type  1   force =     0.00987737   -0.00570407   -0.01477440
     atom    3 type  1   force =    -0.00987568   -0.00570404   -0.01476113
     atom    4 type  2   force =    -0.00000115    0.00000062    0.07125334
     atom    5 type  1   force =    -0.00000414   -0.01425398   -0.01058643
     atom    6 type  1   force =    -0.01234193    0.00711826   -0.01058087
     atom    7 type  1   force =     0.01233973    0.00712549   -0.01057918
     atom    8 type  2   force =     0.00000061    0.00000109    0.00165641
     atom    9 type  1   force =     0.00000197    0.00111904    0.00085922
     atom   10 type  1   force =     0.00097200   -0.00055637    0.00086017
     atom   11 type  1   force =    -0.00096841   -0.00055394    0.00086241
     atom   12 type  2   force =    -0.00000032    0.00000085    0.00056111

     Total force =     0.084118     Total SCF correction =     0.003112

     entering subroutine stress ...

     negative rho (up, down):  3.455E-01 0.000E+00
          total   stress  (Ry/bohr**3)                   (kbar)     P=   -8.24
  -0.00007516  -0.00000000   0.00000000        -11.06     -0.00      0.00
  -0.00000000  -0.00007516   0.00000000         -0.00    -11.06      0.00
   0.00000000   0.00000000  -0.00001764          0.00      0.00     -2.59

 !ASE

     Writing output data file calc.save

     General routines

     Parallel routines

   This run was terminated on:  18:18:58  27Dec2018

   JOB DONE.
Job  /afs/slac/g/suncat/bin/suncat-tsmpirun -x LD_LIBRARY_PATH -wdir /scratch/qe110431_RLYfP pw.x -in pw.inp

TID   HOST_NAME   COMMAND_LINE            STATUS            TERMINATION_TIME
00000 suncat0058 pw.x -in pw.inp   Done                     12/27/2018 18:18:58
00001 suncat0058 pw.x -in pw.inp   Done                     12/27/2018 18:18:58
00002 suncat0058 pw.x -in pw.inp   Done                     12/27/2018 18:18:58
00003 suncat0058 pw.x -in pw.inp   Done                     12/27/2018 18:18:58
00004 suncat0058 pw.x -in pw.inp   Done                     12/27/2018 18:18:58
00005 suncat0058 pw.x -in pw.inp   Done                     12/27/2018 18:18:58
00006 suncat0058 pw.x -in pw.inp   Done                     12/27/2018 18:18:58
00007 suncat0058 pw.x -in pw.inp   Done                     12/27/2018 18:18:58
00008 suncat0042 pw.x -in pw.inp   Done                     12/27/2018 18:18:58
00009 suncat0042 pw.x -in pw.inp   Done                     12/27/2018 18:18:58
00010 suncat0042 pw.x -in pw.inp   Done                     12/27/2018 18:18:58
00011 suncat0042 pw.x -in pw.inp   Done                     12/27/2018 18:18:58
00012 suncat0042 pw.x -in pw.inp   Done                     12/27/2018 18:18:58
00013 suncat0042 pw.x -in pw.inp   Done                     12/27/2018 18:18:58
00014 suncat0042 pw.x -in pw.inp   Done                     12/27/2018 18:18:58
00015 suncat0042 pw.x -in pw.inp   Done                     12/27/2018 18:18:58
00016 suncat0034 pw.x -in pw.inp   Done                     12/27/2018 18:18:58
00017 suncat0034 pw.x -in pw.inp   Done                     12/27/2018 18:18:58
00018 suncat0034 pw.x -in pw.inp   Done                     12/27/2018 18:18:58
00019 suncat0034 pw.x -in pw.inp   Done                     12/27/2018 18:18:58
00020 suncat0034 pw.x -in pw.inp   Done                     12/27/2018 18:18:58
00021 suncat0034 pw.x -in pw.inp   Done                     12/27/2018 18:18:58
00022 suncat0034 pw.x -in pw.inp   Done                     12/27/2018 18:18:58
00023 suncat0034 pw.x -in pw.inp   Done                     12/27/2018 18:18:58
00024 suncat0029 pw.x -in pw.inp   Done                     12/27/2018 18:18:58
00025 suncat0029 pw.x -in pw.inp   Done                     12/27/2018 18:18:58
00026 suncat0029 pw.x -in pw.inp   Done                     12/27/2018 18:18:58
00027 suncat0029 pw.x -in pw.inp   Done                     12/27/2018 18:18:58
00028 suncat0029 pw.x -in pw.inp   Done                     12/27/2018 18:18:58
00029 suncat0029 pw.x -in pw.inp   Done                     12/27/2018 18:18:58
00030 suncat0029 pw.x -in pw.inp   Done                     12/27/2018 18:18:58
00031 suncat0029 pw.x -in pw.inp   Done                     12/27/2018 18:18:58
00032 suncat0020 pw.x -in pw.inp   Done                     12/27/2018 18:18:58
00033 suncat0020 pw.x -in pw.inp   Done                     12/27/2018 18:18:58
00034 suncat0020 pw.x -in pw.inp   Done                     12/27/2018 18:18:58
00035 suncat0020 pw.x -in pw.inp   Done                     12/27/2018 18:18:58
00036 suncat0020 pw.x -in pw.inp   Done                     12/27/2018 18:18:58
00037 suncat0020 pw.x -in pw.inp   Done                     12/27/2018 18:18:58
00038 suncat0020 pw.x -in pw.inp   Done                     12/27/2018 18:18:58
00039 suncat0020 pw.x -in pw.inp   Done                     12/27/2018 18:18:58
00040 suncat0199 pw.x -in pw.inp   Done                     12/27/2018 18:18:58
00041 suncat0199 pw.x -in pw.inp   Done                     12/27/2018 18:18:58
00042 suncat0199 pw.x -in pw.inp   Done                     12/27/2018 18:18:58
00043 suncat0199 pw.x -in pw.inp   Done                     12/27/2018 18:18:58
00044 suncat0199 pw.x -in pw.inp   Done                     12/27/2018 18:18:58
00045 suncat0199 pw.x -in pw.inp   Done                     12/27/2018 18:18:58
00046 suncat0199 pw.x -in pw.inp   Done                     12/27/2018 18:18:58
00047 suncat0199 pw.x -in pw.inp   Done                     12/27/2018 18:18:58
00048 suncat0006 pw.x -in pw.inp   Done                     12/27/2018 18:18:58
00049 suncat0006 pw.x -in pw.inp   Done                     12/27/2018 18:18:58
00050 suncat0006 pw.x -in pw.inp   Done                     12/27/2018 18:18:58
00051 suncat0006 pw.x -in pw.inp   Done                     12/27/2018 18:18:58
00052 suncat0006 pw.x -in pw.inp   Done                     12/27/2018 18:18:58
00053 suncat0006 pw.x -in pw.inp   Done                     12/27/2018 18:18:58
00054 suncat0006 pw.x -in pw.inp   Done                     12/27/2018 18:18:58
00055 suncat0006 pw.x -in pw.inp   Done                     12/27/2018 18:18:58
00056 suncat0005 pw.x -in pw.inp   Done                     12/27/2018 18:18:58
00057 suncat0005 pw.x -in pw.inp   Done                     12/27/2018 18:18:58
00058 suncat0005 pw.x -in pw.inp   Done                     12/27/2018 18:18:58
00059 suncat0005 pw.x -in pw.inp   Done                     12/27/2018 18:18:58
00060 suncat0005 pw.x -in pw.inp   Done                     12/27/2018 18:18:58
00061 suncat0005 pw.x -in pw.inp   Done                     12/27/2018 18:18:58
00062 suncat0005 pw.x -in pw.inp   Done                     12/27/2018 18:18:58
00063 suncat0005 pw.x -in pw.inp   Done                     12/27/2018 18:18:58