     Program PWSCF v.5.1rc2 (svn rev. 11289) starts on 26Dec2018 at  3: 0:33

     Current dimensions of program PWSCF are:
     Max number of different atomic species (ntypx) = 10
     Max number of k-points (npk) =  40000
     Max angular momentum in pseudopotentials (lmaxx) =  3
     Presently stress not available with electric field

     IMPORTANT: XC functional enforced from input :
     Exchange-correlation      = BEEF-VDW ( 1  4 27 13 2)
     Any further DFT definition will be discarded
     Please, verify this is what you really want

     Subspace diagonalization in iterative solution of the eigenvalue problem:
     a serial algorithm will be used

     bravais-lattice index     =            0
     lattice parameter (alat)  =       1.8897  a.u.
     unit-cell volume          =    4424.8792 (a.u.)^3
     number of atoms/cell      =           12
     number of atomic types    =            2
     number of electrons       =       219.00
     number of Kohn-Sham states=          139
     kinetic-energy cutoff     =      36.7493  Ry
     charge density cutoff     =     367.4932  Ry
     convergence threshold     =      1.0E-06
     mixing beta               =       0.1000
     number of iterations used =           10  plain     mixing
     Exchange-correlation      = BEEF-VDW ( 1  4 27 13 2)
     nstep                     =           50

     celldm(1)=   1.889726  celldm(2)=   0.000000  celldm(3)=   0.000000
     celldm(4)=   0.000000  celldm(5)=   0.000000  celldm(6)=   0.000000

     crystal axes: (cart. coord. in units of alat)
               a(1) = (   5.555051   0.000000   0.000000 )
               a(2) = (  -2.777525   4.810815   0.000000 )
               a(3) = (   0.000000   0.000000  24.535680 )

     reciprocal axes: (cart. coord. in units 2 pi/alat)
               b(1) = (  0.180016  0.103932  0.000000 )
               b(2) = (  0.000000  0.207865  0.000000 )
               b(3) = (  0.000000  0.000000  0.040757 )

     PseudoPot. # 1 for Ga read from file:
     /afs/slac.stanford.edu/u/if/mamunm/psp/gbrv1.5pbe/Ga.UPF
     MD5 check sum: ccd671392a58a050fbb373893b4fcd66
     Pseudo is Ultrasoft + core correction, Zval = 19.0
     Generated by new atomic code, or converted to UPF format
     Using radial grid of  871 points,  6 beta functions with:
                l(1) =   0
                l(2) =   0
                l(3) =   1
                l(4) =   1
                l(5) =   2
                l(6) =   2
     Q(r) pseudized with  8 coefficients,  rinner =    1.250   1.250   1.250
                                                       1.250   1.250

     PseudoPot. # 2 for Ru read from file:
     /afs/slac.stanford.edu/u/if/mamunm/psp/gbrv1.5pbe/Ru.UPF
     MD5 check sum: 7158a806dd851261a58e6920c40ebe78
     Pseudo is Ultrasoft + core correction, Zval = 16.0
     Generated by new atomic code, or converted to UPF format
     Using radial grid of  967 points,  6 beta functions with:
                l(1) =   0
                l(2) =   0
                l(3) =   1
                l(4) =   1
                l(5) =   2
                l(6) =   2
     Q(r) pseudized with  8 coefficients,  rinner =    1.300   1.300   1.300
                                                       1.300   1.300

     vdW kernel table read from file vdW_kernel_table
     MD5 check sum: 095c7af220d748ca6e76c0b4c6cfb241

     atomic species   valence    mass     pseudopotential
        Ga1           19.00    69.72300     Ga( 1.00)
        Ru1           16.00   101.07000     Ru( 1.00)

     No symmetry found

   Cartesian axes

     site n.     atom                  positions (alat units)
         1           Ga1 tau(   1) = (   0.0000000   0.0000000  10.0000000  )
         2           Ga1 tau(   2) = (  -1.3887627   2.4054076  10.0000000  )
         3           Ga1 tau(   3) = (   1.3887627   2.4054076  10.0000000  )
         4           Ru1 tau(   4) = (   2.7775255   0.0000000  10.0000000  )
         5           Ga1 tau(   5) = (   2.7775255   1.6036051  12.2678400  )
         6           Ga1 tau(   6) = (   1.3887627   4.0090127  12.2678400  )
         7           Ga1 tau(   7) = (  -1.3887627   4.0090127  12.2678400  )
         8           Ru1 tau(   8) = (   0.0000000   1.6036051  12.2678400  )
         9           Ga1 tau(   9) = (  -0.0000000   3.2072101  14.5356801  )
        10           Ga1 tau(  10) = (   1.3887627   0.8018025  14.5356801  )
        11           Ga1 tau(  11) = (   4.1662882   0.8018025  14.5356801  )
        12           Ru1 tau(  12) = (   2.7775255   3.2072101  14.5356801  )

     number of k points=    20  Fermi-Dirac smearing, width (Ry)=  0.0110
                       cart. coord. in units 2pi/alat
        k(    1) = (   0.0000000   0.0000000   0.0000000), wk =   0.0555556
        k(    2) = (   0.0000000   0.0346442   0.0000000), wk =   0.1111111
        k(    3) = (   0.0000000   0.0692883   0.0000000), wk =   0.1111111
        k(    4) = (   0.0000000  -0.1039325   0.0000000), wk =   0.0555556
        k(    5) = (   0.0300027   0.0173221   0.0000000), wk =   0.1111111
        k(    6) = (   0.0300027   0.0519662   0.0000000), wk =   0.1111111
        k(    7) = (   0.0300027   0.0866104   0.0000000), wk =   0.1111111
        k(    8) = (   0.0300027  -0.0866104   0.0000000), wk =   0.1111111
        k(    9) = (   0.0300027  -0.0519662   0.0000000), wk =   0.1111111
        k(   10) = (   0.0300027  -0.0173221   0.0000000), wk =   0.1111111
        k(   11) = (   0.0600055   0.0346442   0.0000000), wk =   0.1111111
        k(   12) = (   0.0600055   0.0692883   0.0000000), wk =   0.1111111
        k(   13) = (   0.0600055   0.1039325   0.0000000), wk =   0.1111111
        k(   14) = (   0.0600055  -0.0692883   0.0000000), wk =   0.1111111
        k(   15) = (   0.0600055  -0.0346442   0.0000000), wk =   0.1111111
        k(   16) = (   0.0600055   0.0000000   0.0000000), wk =   0.1111111
        k(   17) = (  -0.0900082  -0.0519662   0.0000000), wk =   0.0555556
        k(   18) = (  -0.0900082  -0.0173221   0.0000000), wk =   0.1111111
        k(   19) = (  -0.0900082   0.0173221   0.0000000), wk =   0.1111111
        k(   20) = (  -0.0900082  -0.1558987   0.0000000), wk =   0.0555556

     Largest allocated arrays     est. size (Mb)     dimensions
     Largest temporary arrays     est. size (Mb)     dimensions

     Initial potential from superposition of free atoms
     Check: negative starting charge=   -0.225534

     starting charge  206.99994, renormalised to  219.00000

     negative rho (up, down):  2.386E-01 0.000E+00

     *
     * You are using vdW-DF for exchange-correlation in this calculation.
     * Please cite the following three references that made this development
     * possible:
     *
     *   M. Dion, H. Rydberg, E. Schroder, D. C. Langreth, and
     *   B. I. Lundqvist, Phys. Rev. Lett. 92, 246401 (2004).
     *
     *   T. Thonhauser, V. R. Cooper, S. Li, A. Puzder, P. Hyldgaard, and
     *   D. C. Langreth, Phys. Rev. B 76, 125112 (2007).
     *
     *   G. Roman-Perez and J. M. Soler, Phys. Rev. Lett. 103, 096102 (2009).
     *
     *
     * If you are using vdW-DF2, please also cite:
     *
     *   K. Lee, E. D. Murray, L. Kong, B. I. Lundqvist, and
     *   D. C. Langreth, Phys. Rev. B 82, 081101(R) (2010).
     *
     *
     * If you are calculating the stress with vdW-DF, please also cite:
     *
     *   R. Sabatini, E. Kucukbenli, B. Kolb, T. Thonhauser, and
     *   S. de Gironcoli, J. Phys.: Condens. Matter 24, 424209 (2012).
     *

     Carrying out vdW-DF run using the following parameters:

     Nqs =      20    Nr_points =    1024   r_max =   100.000
     q_mesh =
               0.00001000     0.04494208     0.09755937     0.15916263
               0.23128650     0.31572767     0.41458969     0.53033537
               0.66584808     0.82450364     1.01025438     1.22772762
               1.48234092     1.78043706     2.12944203     2.53805004
               3.01644009     3.57652955     4.23227104     5.00000000

     Gradients computed in reciprocal space

     Adding external electric field

     Computed dipole along edir(3) :
        Dipole               -0.0000 Ry au,         -0.0000 Debye
        Dipole field         -0.0000 Ry au

        Potential amp.        0.0000 Ry
        Total length         45.2066 bohr

     Starting wfc are  147 randomized atomic wfcs

     Self-consistent Calculation

     iteration #  1     ecut=    36.75 Ry     beta=0.10
     Davidson diagonalization with overlap
     ethr =  1.00E-02,  avg # of iterations =  7.5

[...]

     total energy              =   -4311.49832165 Ry
     Harris-Foulkes estimate   =   -4356.90682906 Ry
     estimated scf accuracy    <     255.74829163 Ry

[...]

     End of self-consistent calculation

          k = 0.0000 0.0000 0.0000 ( 16643 PWs)   bands (ev):

   -94.1116 -94.1073 -94.1072 -94.0590 -94.0571 -94.0570 -94.0541 -94.0540
   -94.0522 -93.9016 -93.9015 -93.8991 -93.8991 -93.8990 -93.8990 -93.8774
   -93.8773 -93.8733 -93.8733 -93.8732 -93.8732 -93.8328 -93.8328 -93.8328
   -93.8328 -93.8305 -93.8305 -71.3101 -71.3100 -71.2940 -41.3812 -41.3812
   -41.3811 -41.3811 -41.3538 -41.3538 -41.2331 -41.1583 -41.1578 -14.7243
   -14.6640 -14.6639 -14.6613 -14.5380 -14.5315 -14.5314 -14.4932 -14.4869
   -14.4834 -14.4834 -14.4221 -14.3968 -14.3968 -14.3778 -14.3778 -14.3621
   -14.3497 -14.3496 -14.3354 -14.3353 -14.3005 -14.2758 -14.2570 -14.2570
   -14.2465 -14.1733 -14.1681 -14.1681 -14.1506 -14.1506 -14.1341 -14.1335
   -14.1335 -14.1309 -14.1309 -14.1095 -14.1095 -14.0945 -14.0945 -14.0693
   -14.0479 -14.0479 -13.9480 -13.9473 -10.2756  -8.4290  -6.1175  -4.9380
    -4.9380  -4.0735  -4.0735  -3.4502  -3.1906  -3.1906  -2.6164  -2.0164
    -1.9089  -1.9089  -1.2170  -0.7511  -0.7511  -0.2186  -0.0973  -0.0973
    -0.0922  -0.0922   0.1180   0.1180   0.1892   0.6412   0.6412   0.6787
     1.9312   1.9312   2.0295   2.0295   2.4213   2.7378   2.7378   3.6934
     3.9379   4.3839   5.0424   5.4149   5.8040   5.8040   5.9237   6.0364
     6.0364   6.4012   6.8163   7.0642   7.3240   8.1637   8.2699   8.4918
     8.4918   9.2620   9.3738

[...]

          k =-0.0900-0.0520 0.0000 ( 16668 PWs)   bands (ev):

[...]

     the Fermi energy is     0.8993 ev

!    total energy              =   -4334.64852456 Ry
     Harris-Foulkes estimate   =   -4334.64901785 Ry
     estimated scf accuracy    <       0.00000092 Ry

     The total energy is the sum of the following terms:

     one-electron contribution =  -29258.26173646 Ry
     hartree contribution      =   14634.74225388 Ry
     xc contribution           =    -528.79547804 Ry
     ewald contribution        =   10817.71600451 Ry
     electric field correction =       0.00000000 Ry
     smearing contrib. (-TS)   =      -0.04956845 Ry

     convergence has been achieved in  19 iterations

 BEEF-vdW xc energy contributions
           1 :   -470.258248803793
           2 :    428.160060215289
           3 :   -357.127264731169
           4 :    277.235712157486
           5 :   -206.684529592168
           6 :    155.096298609984
           7 :   -121.934136717920
           8 :    100.017636948531
[...]
     Generated by new atomic code, or converted to UPF format
     Using radial grid of  871 points,  6 beta functions with:
                l(1) =   0
                l(2) =   0
                l(3) =   1
                l(4) =   1
                l(5) =   2
                l(6) =   2
     Q(r) pseudized with  8 coefficients,  rinner =    1.250   1.250   1.250
                                                       1.250   1.250

     PseudoPot. # 2 for Ru read from file:
     /afs/slac.stanford.edu/u/if/mamunm/psp/gbrv1.5pbe/Ru.UPF
     MD5 check sum: 7158a806dd851261a58e6920c40ebe78
     Pseudo is Ultrasoft + core correction, Zval = 16.0
     Generated by new atomic code, or converted to UPF format
     Using radial grid of  967 points,  6 beta functions with:
                l(1) =   0
                l(2) =   0
                l(3) =   1
                l(4) =   1
                l(5) =   2
                l(6) =   2
     Q(r) pseudized with  8 coefficients,  rinner =    1.300   1.300   1.300
                                                       1.300   1.300

     vdW kernel table read from file vdW_kernel_table
     MD5 check sum: 095c7af220d748ca6e76c0b4c6cfb241

     atomic species   valence    mass     pseudopotential
        Ga1           19.00    69.72300     Ga( 1.00)
        Ru1           16.00   101.07000     Ru( 1.00)

     No symmetry found

   Cartesian axes

     site n.     atom                  positions (alat units)
         1           Ga1 tau(   1) = (   0.0000000   0.0000000  10.0000000  )
         2           Ga1 tau(   2) = (  -1.3887627   2.4054076  10.0000000  )
         3           Ga1 tau(   3) = (   1.3887627   2.4054076  10.0000000  )
         4           Ru1 tau(   4) = (   2.7775255   0.0000000  10.0000000  )
         5           Ga1 tau(   5) = (   2.7775255   1.6036051  12.2678400  )
         6           Ga1 tau(   6) = (   1.3887627   4.0090127  12.2678400  )
         7           Ga1 tau(   7) = (  -1.3887627   4.0090127  12.2678400  )
         8           Ru1 tau(   8) = (   0.0000000   1.6036051  12.2678400  )
         9           Ga1 tau(   9) = (  -0.0000110   3.1782245  14.7676188  )
        10           Ga1 tau(  10) = (   1.3636148   0.8163594  14.7675719  )
        11           Ga1 tau(  11) = (   4.1914826   0.8163805  14.7675494  )
        12           Ru1 tau(  12) = (   2.7775316   3.2072281  14.3228496  )

     number of k points=    20  Fermi-Dirac smearing, width (Ry)=  0.0110
                       cart. coord. in units 2pi/alat
        k(    1) = (   0.0000000   0.0000000   0.0000000), wk =   0.0555556
        k(    2) = (   0.0000000   0.0346442   0.0000000), wk =   0.1111111
        k(    3) = (   0.0000000   0.0692883   0.0000000), wk =   0.1111111
        k(    4) = (   0.0000000  -0.1039325   0.0000000), wk =   0.0555556
        k(    5) = (   0.0300027   0.0173221   0.0000000), wk =   0.1111111
        k(    6) = (   0.0300027   0.0519662   0.0000000), wk =   0.1111111
        k(    7) = (   0.0300027   0.0866104   0.0000000), wk =   0.1111111
        k(    8) = (   0.0300027  -0.0866104   0.0000000), wk =   0.1111111
        k(    9) = (   0.0300027  -0.0519662   0.0000000), wk =   0.1111111
        k(   10) = (   0.0300027  -0.0173221   0.0000000), wk =   0.1111111
        k(   11) = (   0.0600055   0.0346442   0.0000000), wk =   0.1111111
        k(   12) = (   0.0600055   0.0692883   0.0000000), wk =   0.1111111
        k(   13) = (   0.0600055   0.1039325   0.0000000), wk =   0.1111111
        k(   14) = (   0.0600055  -0.0692883   0.0000000), wk =   0.1111111
        k(   15) = (   0.0600055  -0.0346442   0.0000000), wk =   0.1111111
        k(   16) = (   0.0600055   0.0000000   0.0000000), wk =   0.1111111
        k(   17) = (  -0.0900082  -0.0519662   0.0000000), wk =   0.0555556
        k(   18) = (  -0.0900082  -0.0173221   0.0000000), wk =   0.1111111
        k(   19) = (  -0.0900082   0.0173221   0.0000000), wk =   0.1111111
        k(   20) = (  -0.0900082  -0.1558987   0.0000000), wk =   0.0555556

     Largest allocated arrays     est. size (Mb)     dimensions
     Largest temporary arrays     est. size (Mb)     dimensions

     Initial potential from superposition of free atoms
     Check: negative starting charge=   -0.223767

     starting charge  206.99994, renormalised to  219.00000

[...]

     *
     * You are using vdW-DF for exchange-correlation in this calculation.
     * Please cite the following three references that made this development
     * possible:
     *
     *   M. Dion, H. Rydberg, E. Schroder, D. C. Langreth, and
     *   B. I. Lundqvist, Phys. Rev. Lett. 92, 246401 (2004).
     *
     *   T. Thonhauser, V. R. Cooper, S. Li, A. Puzder, P. Hyldgaard, and
     *   D. C. Langreth, Phys. Rev. B 76, 125112 (2007).
     *
     *   G. Roman-Perez and J. M. Soler, Phys. Rev. Lett. 103, 096102 (2009).
     *
     *
     * If you are using vdW-DF2, please also cite:
     *
     *   K. Lee, E. D. Murray, L. Kong, B. I. Lundqvist, and
     *   D. C. Langreth, Phys. Rev. B 82, 081101(R) (2010).
     *
     *
     * If you are calculating the stress with vdW-DF, please also cite:
     *
     *   R. Sabatini, E. Kucukbenli, B. Kolb, T. Thonhauser, and
     *   S. de Gironcoli, J. Phys.: Condens. Matter 24, 424209 (2012).
     *

     Carrying out vdW-DF run using the following parameters:

     Nqs =      20    Nr_points =    1024   r_max =   100.000
     q_mesh =
               0.00001000     0.04494208     0.09755937     0.15916263
               0.23128650     0.31572767     0.41458969     0.53033537
               0.66584808     0.82450364     1.01025438     1.22772762
               1.48234092     1.78043706     2.12944203     2.53805004
               3.01644009     3.57652955     4.23227104     5.00000000

     Gradients computed in reciprocal space

[...]

     Starting wfc are  147 randomized atomic wfcs

     Self-consistent Calculation

[...]

     total energy              =   -4334.69466812 Ry
     Harris-Foulkes estimate   =   -4334.69466866 Ry
     estimated scf accuracy    <       0.00000700 Ry

     iteration # 18     ecut=    36.75 Ry     beta=0.10
     Davidson diagonalization with overlap
     ethr =  3.20E-09,  avg # of iterations =  2.0

[...]

     negative rho (up, down):  2.269E-01 0.000E+00

     Adding external electric field

     Computed dipole along edir(3) :
        Dipole                0.1192 Ry au,          0.3029 Debye
        Dipole field          0.0003 Ry au

        Potential amp.       -0.0306 Ry
        Total length         45.2066 bohr

     End of self-consistent calculation

[...]

          k = 0.0600 0.0000 0.0000 ( 16592 PWs)   bands (ev):

[...]

          k =-0.0900-0.1559 0.0000 ( 16668 PWs)   bands (ev):

   -93.9356 -93.9341 -93.9327 -93.8785 -93.8776 -93.8768 -93.8733 -93.8725
   -93.8715 -93.8707 -93.8704 -93.8702 -93.8459 -93.8430 -93.8413 -93.8067
   -93.8060 -93.8048 -93.7309 -93.7299 -93.7289 -93.7063 -93.7050 -93.7037
   -93.6647 -93.6639 -93.6630 -71.3237 -71.1812 -71.0711 -41.3849 -41.3847
   -41.2466 -41.2462 -41.2262 -41.1366 -41.1362 -41.0378 -40.9885 -14.4782
   -14.4070 -14.3846 -14.3740 -14.3578 -14.3311 -14.3109 -14.3076 -14.3006
   -14.2961 -14.2818 -14.2615 -14.2511 -14.2464 -14.2454 -14.2119 -14.1977
   -14.1955 -14.1879 -14.1863 -14.1740 -14.1704 -14.1554 -14.1543 -14.1506
   -14.1419 -14.1383 -14.1162 -14.1100 -14.0969 -14.0906 -14.0712 -14.0678
   -14.0494 -14.0309 -14.0270 -14.0211 -14.0138 -14.0100 -14.0051 -13.9899
   -13.9635 -13.9440 -13.9378 -13.8631  -8.5479  -8.0925  -6.6275  -6.5655
    -5.4632  -5.0974  -4.5785  -3.6665  -3.2220  -2.5841  -1.9840  -1.9329
    -1.7445  -1.3129  -1.2782  -1.1998  -1.1892  -0.5994  -0.4018  -0.0854
     0.3090   0.5189   0.5632   0.7274   0.8653   1.3076   1.3809   1.5600
     2.1229   2.7604   3.4263   3.6750   3.7846   4.0698   4.1852   4.2165
     4.6681   4.8172   5.0686   5.1753   5.7051   6.0436   6.0645   6.1364
     6.3246   6.3607   6.7465   6.9107   7.1760   7.3205   7.4190   7.5828
     7.8539   7.9080   8.1451

     the Fermi energy is     1.0503 ev

!    total energy              =   -4334.69467038 Ry
     Harris-Foulkes estimate   =   -4334.69467002 Ry
     estimated scf accuracy    <       0.00000062 Ry

     The total energy is the sum of the following terms:

     one-electron contribution =  -28734.90704163 Ry
     hartree contribution      =   14373.99812100 Ry
     xc contribution           =    -528.72291519 Ry
     ewald contribution        =   10554.98667385 Ry
     electric field correction =       0.00004034 Ry
     smearing contrib. (-TS)   =      -0.04954875 Ry

     convergence has been achieved in  18 iterations

 BEEF-vdW xc energy contributions
           1 :   -470.749872470760
           2 :    428.594903328623
           3 :   -357.482400697808
           4 :    277.533776196789
           5 :   -206.976044935263
           6 :    155.424390027191
           7 :   -122.307588851841
           8 :    100.411221486829
           9 :   -81.7810756152656
          10 :    62.3326496093641
          11 :   -42.8741060426026
          12 :    26.7787161385373
          13 :   -16.5519117244763
          14 :    11.7995770729750
          15 :   -9.70930652031370
          16 :    7.24162642650049
          17 :   -3.17296578514049
          18 :   -1.47626298197849
          19 :    4.71447769614264
          20 :   -5.38835005877218
          21 :    4.11021620179861
          22 :   -2.70432576018163
          23 :    2.74287014187701
          24 :   -4.37961699272603
          25 :    6.35872595283939
          26 :   -7.11277987437643
          27 :    6.03337987607915
          28 :   -3.92517546415672
          29 :    2.33674023738496
          30 :   -2.34013627592117
          31 :   -36.7300064882731
          32 :   -25.6478371926615

     Forces acting on atoms (Ry/au):

     negative rho (up, down):  2.269E-01 0.000E+00
     atom    1 type  1   force =     0.00000104    0.01146873   -0.02553737
     atom    2 type  1   force =     0.00993359   -0.00573390   -0.02552840
     atom    3 type  1   force =    -0.00993410   -0.00573267   -0.02553233
     atom    4 type  2   force =     0.00000071   -0.00000142    0.05112613
     atom    5 type  1   force =     0.00000283   -0.01803935    0.00136094
     atom    6 type  1   force =    -0.01562353    0.00901766    0.00135140
     atom    7 type  1   force =     0.01561957    0.00901546    0.00134848
     atom    8 type  2   force =     0.00000053   -0.00000238    0.02065097
     atom    9 type  1   force =    -0.00000402   -0.00052731    0.00008387
     atom   10 type  1   force =    -0.00046124    0.00026522    0.00007922
     atom   11 type  1   force =     0.00046590    0.00027106    0.00007308
     atom   12 type  2   force =    -0.00000127   -0.00000109    0.00052400

     Total force =     0.079834     Total SCF correction =     0.005144

     entering subroutine stress ...

     negative rho (up, down):  2.269E-01 0.000E+00
          total   stress  (Ry/bohr**3)                   (kbar)     P=  -19.04
  -0.00020763  -0.00000000   0.00000000        -30.54     -0.00      0.00
  -0.00000000  -0.00020763  -0.00000000         -0.00    -30.54     -0.00
   0.00000000  -0.00000000   0.00002703          0.00     -0.00      3.98

 !ASE

     Writing output data file calc.save

     General routines

     Parallel routines

   This run was terminated on:   6:50: 0  26Dec2018

   JOB DONE.
Job  /afs/slac/g/suncat/bin/suncat-tsmpirun -x LD_LIBRARY_PATH -wdir /scratch/qe109701_TlK5g pw.x -in pw.inp

TID   HOST_NAME   COMMAND_LINE            STATUS            TERMINATION_TIME
00000 suncat0044 pw.x -in pw.inp   Done                     12/26/2018 06:50:00
00001 suncat0044 pw.x -in pw.inp   Done                     12/26/2018 06:50:00
00002 suncat0044 pw.x -in pw.inp   Done                     12/26/2018 06:50:00
00003 suncat0044 pw.x -in pw.inp   Done                     12/26/2018 06:50:00
00004 suncat0044 pw.x -in pw.inp   Done                     12/26/2018 06:50:00
00005 suncat0044 pw.x -in pw.inp   Done                     12/26/2018 06:50:00
00006 suncat0044 pw.x -in pw.inp   Done                     12/26/2018 06:50:00
00007 suncat0044 pw.x -in pw.inp   Done                     12/26/2018 06:50:00
00008 suncat0038 pw.x -in pw.inp   Done                     12/26/2018 06:50:00
00009 suncat0038 pw.x -in pw.inp   Done                     12/26/2018 06:50:00
00010 suncat0038 pw.x -in pw.inp   Done                     12/26/2018 06:50:00
00011 suncat0038 pw.x -in pw.inp   Done                     12/26/2018 06:50:00
00012 suncat0038 pw.x -in pw.inp   Done                     12/26/2018 06:50:00
00013 suncat0038 pw.x -in pw.inp   Done                     12/26/2018 06:50:00
00014 suncat0038 pw.x -in pw.inp   Done                     12/26/2018 06:50:00
00015 suncat0038 pw.x -in pw.inp   Done                     12/26/2018 06:50:00
00016 suncat0037 pw.x -in pw.inp   Done                     12/26/2018 06:50:00
00017 suncat0037 pw.x -in pw.inp   Done                     12/26/2018 06:50:00
00018 suncat0037 pw.x -in pw.inp   Done                     12/26/2018 06:50:00
00019 suncat0037 pw.x -in pw.inp   Done                     12/26/2018 06:50:00
00020 suncat0037 pw.x -in pw.inp   Done                     12/26/2018 06:50:00
00021 suncat0037 pw.x -in pw.inp   Done                     12/26/2018 06:50:00
00022 suncat0037 pw.x -in pw.inp   Done                     12/26/2018 06:50:00
00023 suncat0037 pw.x -in pw.inp   Done                     12/26/2018 06:50:00
00024 suncat0036 pw.x -in pw.inp   Done                     12/26/2018 06:50:00
00025 suncat0036 pw.x -in pw.inp   Done                     12/26/2018 06:50:00
00026 suncat0036 pw.x -in pw.inp   Done                     12/26/2018 06:50:00
00027 suncat0036 pw.x -in pw.inp   Done                     12/26/2018 06:50:00
00028 suncat0036 pw.x -in pw.inp   Done                     12/26/2018 06:50:00
00029 suncat0036 pw.x -in pw.inp   Done                     12/26/2018 06:50:00
00030 suncat0036 pw.x -in pw.inp   Done                     12/26/2018 06:50:00
00031 suncat0036 pw.x -in pw.inp   Done                     12/26/2018 06:50:00
00032 suncat0035 pw.x -in pw.inp   Done                     12/26/2018 06:50:00
00033 suncat0035 pw.x -in pw.inp   Done                     12/26/2018 06:50:00
00034 suncat0035 pw.x -in pw.inp   Done                     12/26/2018 06:50:00
00035 suncat0035 pw.x -in pw.inp   Done                     12/26/2018 06:50:00
00036 suncat0035 pw.x -in pw.inp   Done                     12/26/2018 06:50:00
00037 suncat0035 pw.x -in pw.inp   Done                     12/26/2018 06:50:00
00038 suncat0035 pw.x -in pw.inp   Done                     12/26/2018 06:50:00
00039 suncat0035 pw.x -in pw.inp   Done                     12/26/2018 06:50:00
00040 suncat0033 pw.x -in pw.inp   Done                     12/26/2018 06:50:00
00041 suncat0033 pw.x -in pw.inp   Done                     12/26/2018 06:50:00
00042 suncat0033 pw.x -in pw.inp   Done                     12/26/2018 06:50:00
00043 suncat0033 pw.x -in pw.inp   Done                     12/26/2018 06:50:00
00044 suncat0033 pw.x -in pw.inp   Done                     12/26/2018 06:50:00
00045 suncat0033 pw.x -in pw.inp   Done                     12/26/2018 06:50:00
00046 suncat0033 pw.x -in pw.inp   Done                     12/26/2018 06:50:00
00047 suncat0033 pw.x -in pw.inp   Done                     12/26/2018 06:50:00
00048 suncat0032 pw.x -in pw.inp   Done                     12/26/2018 06:50:00
00049 suncat0032 pw.x -in pw.inp   Done                     12/26/2018 06:50:00
00050 suncat0032 pw.x -in pw.inp   Done                     12/26/2018 06:50:00
00051 suncat0032 pw.x -in pw.inp   Done                     12/26/2018 06:50:00
00052 suncat0032 pw.x -in pw.inp   Done                     12/26/2018 06:50:00
00053 suncat0032 pw.x -in pw.inp   Done                     12/26/2018 06:50:00
00054 suncat0032 pw.x -in pw.inp   Done                     12/26/2018 06:50:00
00055 suncat0032 pw.x -in pw.inp   Done                     12/26/2018 06:50:00
00056 suncat0019 pw.x -in pw.inp   Done                     12/26/2018 06:50:00
00057 suncat0019 pw.x -in pw.inp   Done                     12/26/2018 06:50:00
00058 suncat0019 pw.x -in pw.inp   Done                     12/26/2018 06:50:00
00059 suncat0019 pw.x -in pw.inp   Done                     12/26/2018 06:50:00
00060 suncat0019 pw.x -in pw.inp   Done                     12/26/2018 06:50:00
00061 suncat0019 pw.x -in pw.inp   Done                     12/26/2018 06:50:00
00062 suncat0019 pw.x -in pw.inp   Done                     12/26/2018 06:50:00
00063 suncat0019 pw.x -in pw.inp   Done                     12/26/2018 06:50:00