     Program PWSCF v.5.1rc2 (svn rev. 11289) starts on  1Jan2019 at  5: 7:50

     Current dimensions of program PWSCF are:
     Max number of different atomic species (ntypx) = 10
     Max number of k-points (npk) =  40000
     Max angular momentum in pseudopotentials (lmaxx) =  3
     Presently stress not available with electric field

     IMPORTANT: XC functional enforced from input :
     Exchange-correlation      = BEEF-VDW ( 1  4 27 13 2)
     Any further DFT definition will be discarded
     Please, verify this is what you really want

     Subspace diagonalization in iterative solution of the eigenvalue problem:
     a serial algorithm will be used

     bravais-lattice index     =            0
     lattice parameter (alat)  =       1.8897  a.u.
     unit-cell volume          =    4219.7030 (a.u.)^3
     number of atoms/cell      =           12
     number of atomic types    =            2
     number of electrons       =       189.00
     number of Kohn-Sham states=          124
     kinetic-energy cutoff     =      36.7493  Ry
     charge density cutoff     =     367.4932  Ry
     convergence threshold     =      1.0E-06
     mixing beta               =       0.1000
     number of iterations used =           10  plain     mixing
     Exchange-correlation      = BEEF-VDW ( 1  4 27 13 2)
     nstep                     =           50

     celldm(1)=   1.889726  celldm(2)=   0.000000  celldm(3)=   0.000000
     celldm(4)=   0.000000  celldm(5)=   0.000000  celldm(6)=   0.000000

     crystal axes: (cart. coord. in units of alat)
               a(1) = (   5.435550   0.000000   0.000000 )
               a(2) = (  -2.717775   4.707325   0.000000 )
               a(3) = (   0.000000   0.000000  24.438108 )

     reciprocal axes: (cart. coord. in units 2 pi/alat)
               b(1) = (  0.183974  0.106217  0.000000 )
               b(2) = (  0.000000  0.212435  0.000000 )
               b(3) = (  0.000000  0.000000  0.040920 )

     PseudoPot. # 1 for Ru read from file:
     /afs/slac.stanford.edu/u/if/mamunm/psp/gbrv1.5pbe/Ru.UPF
     MD5 check sum: 7158a806dd851261a58e6920c40ebe78
     Pseudo is Ultrasoft + core correction, Zval = 16.0
     Generated by new atomic code, or converted to UPF format
     Using radial grid of  967 points,  6 beta functions with:
                l(1) =   0
                l(2) =   0
                l(3) =   1
                l(4) =   1
                l(5) =   2
                l(6) =   2
     Q(r) pseudized with  8 coefficients,  rinner =    1.300   1.300   1.300
                                                       1.300   1.300

     PseudoPot. # 2 for Re read from file:
     /afs/slac.stanford.edu/u/if/mamunm/psp/gbrv1.5pbe/Re.UPF
     MD5 check sum: 85f993410f3e006da9d71c142b4ad953
     Pseudo is Ultrasoft + core correction, Zval = 15.0
     Generated by new atomic code, or converted to UPF format
     Using radial grid of  981 points,  8 beta functions with:
                l(1) =   0
                l(2) =   0
                l(3) =   1
                l(4) =   1
                l(5) =   2
                l(6) =   2
                l(7) =   3
                l(8) =   3
     Q(r) pseudized with  8 coefficients,  rinner =    1.150   1.150   1.150
                                                       1.150   1.150   1.150
                                                       1.150

     vdW kernel table read from file vdW_kernel_table
     MD5 check sum: 095c7af220d748ca6e76c0b4c6cfb241

     atomic species   valence    mass     pseudopotential
        Ru1           16.00   101.07000     Ru( 1.00)
        Re1           15.00   186.20700     Re( 1.00)

     No symmetry found

   Cartesian axes

     site n.     atom                  positions (alat units)
         1           Ru1 tau(   1) = (   0.0000000   0.0000000  10.0000000  )
         2           Ru1 tau(   2) = (  -1.3588876   2.3536624  10.0000000  )
         3           Ru1 tau(   3) = (   1.3588876   2.3536624  10.0000000  )
         4           Re1 tau(   4) = (   2.7177752   0.0000000  10.0000000  )
         5           Ru1 tau(   5) = (   2.7177752   1.5691083  12.2190542  )
         6           Ru1 tau(   6) = (   1.3588876   3.9227707  12.2190542  )
         7           Ru1 tau(   7) = (  -1.3588876   3.9227707  12.2190542  )
         8           Re1 tau(   8) = (   0.0000000   1.5691083  12.2190542  )
         9           Ru1 tau(   9) = (  -0.0000000   3.1382165  14.4381084  )
        10           Ru1 tau(  10) = (   1.3588876   0.7845541  14.4381084  )
        11           Ru1 tau(  11) = (   4.0766629   0.7845541  14.4381084  )
        12           Re1 tau(  12) = (   2.7177752   3.1382165  14.4381084  )

     number of k points=    20  Fermi-Dirac smearing, width (Ry)=  0.0110
                       cart. coord. in units 2pi/alat
        k(    1) = (   0.0000000   0.0000000   0.0000000), wk =   0.0555556
        k(    2) = (   0.0000000   0.0354058   0.0000000), wk =   0.1111111
        k(    3) = (   0.0000000   0.0708116   0.0000000), wk =   0.1111111
        k(    4) = (   0.0000000  -0.1062174   0.0000000), wk =   0.0555556
        k(    5) = (   0.0306623   0.0177029   0.0000000), wk =   0.1111111
        k(    6) = (   0.0306623   0.0531087   0.0000000), wk =   0.1111111
        k(    7) = (   0.0306623   0.0885145   0.0000000), wk =   0.1111111
        k(    8) = (   0.0306623  -0.0885145   0.0000000), wk =   0.1111111
        k(    9) = (   0.0306623  -0.0531087   0.0000000), wk =   0.1111111
        k(   10) = (   0.0306623  -0.0177029   0.0000000), wk =   0.1111111
        k(   11) = (   0.0613247   0.0354058   0.0000000), wk =   0.1111111
        k(   12) = (   0.0613247   0.0708116   0.0000000), wk =   0.1111111
        k(   13) = (   0.0613247   0.1062174   0.0000000), wk =   0.1111111
        k(   14) = (   0.0613247  -0.0708116   0.0000000), wk =   0.1111111
        k(   15) = (   0.0613247  -0.0354058   0.0000000), wk =   0.1111111
        k(   16) = (   0.0613247   0.0000000   0.0000000), wk =   0.1111111
        k(   17) = (  -0.0919870  -0.0531087   0.0000000), wk =   0.0555556
        k(   18) = (  -0.0919870  -0.0177029   0.0000000), wk =   0.1111111
        k(   19) = (  -0.0919870   0.0177029   0.0000000), wk =   0.1111111
        k(   20) = (  -0.0919870  -0.1593262   0.0000000), wk =   0.0555556

     Largest allocated arrays     est. size (Mb)     dimensions
     Largest temporary arrays     est. size (Mb)     dimensions

     Initial potential from superposition of free atoms
     Check: negative starting charge=   -1.043517

     starting charge  178.49972, renormalised to  189.00000

     negative rho (up, down):  1.105E+00 0.000E+00

     *
     * You are using vdW-DF for exchange-correlation in this calculation.
     * Please cite the following three references that made this development
     * possible:
     *
     *   M. Dion, H. Rydberg, E. Schroder, D. C. Langreth, and
     *   B. I. Lundqvist, Phys. Rev. Lett. 92, 246401 (2004).
     *
     *   T. Thonhauser, V. R. Cooper, S. Li, A. Puzder, P. Hyldgaard, and
     *   D. C. Langreth, Phys. Rev. B 76, 125112 (2007).
     *
     *   G. Roman-Perez and J. M. Soler, Phys. Rev. Lett. 103, 096102 (2009).
     *
     *
     * If you are using vdW-DF2, please also cite:
     *
     *   K. Lee, E. D. Murray, L. Kong, B. I. Lundqvist, and
     *   D. C. Langreth, Phys. Rev. B 82, 081101(R) (2010).
     *
     *
     * If you are calculating the stress with vdW-DF, please also cite:
     *
     *   R. Sabatini, E. Kucukbenli, B. Kolb, T. Thonhauser, and
     *   S. de Gironcoli, J. Phys.: Condens. Matter 24, 424209 (2012).
     *

     Carrying out vdW-DF run using the following parameters:

     Nqs =      20    Nr_points =    1024   r_max =   100.000
     q_mesh =
               0.00001000     0.04494208     0.09755937     0.15916263
               0.23128650     0.31572767     0.41458969     0.53033537
               0.66584808     0.82450364     1.01025438     1.22772762
               1.48234092     1.78043706     2.12944203     2.53805004
               3.01644009     3.57652955     4.23227104     5.00000000

     Gradients computed in reciprocal space

     Adding external electric field

     Computed dipole along edir(3) :
        Dipole               -0.0000 Ry au,         -0.0000 Debye
        Dipole field         -0.0000 Ry au

        Potential amp.        0.0000 Ry
        Total length         45.0268 bohr

     Starting wfc are  156 randomized atomic wfcs

     Self-consistent Calculation

     iteration #  1     ecut=    36.75 Ry     beta=0.10
     Davidson diagonalization with overlap
     ethr =  1.00E-02,  avg # of iterations = 10.2

[...]

     total energy              =   -2333.84830746 Ry
     Harris-Foulkes estimate   =   -2336.13659586 Ry
     estimated scf accuracy    <      14.37746366 Ry

[...]

     End of self-consistent calculation

          k = 0.0000 0.0000 0.0000 ( 15821 PWs)   bands (ev):

   -78.5262 -78.1803 -78.1802 -70.7964 -70.7217 -70.7217 -70.2976 -70.2949
   -70.2247 -70.2247 -70.2241 -70.2241 -41.0873 -41.0363 -41.0363 -40.9071
   -40.8114 -40.8114 -40.6392 -40.5606 -40.5555 -40.5293 -40.5293 -40.4671
   -40.4671 -40.4036 -40.4036 -40.2553 -40.2502 -40.1693 -40.1693 -40.1451
   -40.1451 -40.0720 -40.0606 -40.0373 -40.0373 -39.9643 -39.9643 -39.9332
   -39.9201 -39.9201 -39.8826 -39.8072 -39.6283 -39.6283 -39.6201 -39.6201
    -5.0772  -3.5187  -3.4641  -3.3063  -3.3063  -3.1615  -2.8751  -2.8400
    -2.8400  -2.5698  -2.5698  -2.5387  -2.1909  -2.1909  -2.1310  -1.0066
    -1.0066  -0.9004  -0.3193  -0.3193  -0.2676  -0.0474   0.1169   0.1169
     0.1591   0.4475   0.5474   0.5474   0.6853   0.6853   0.8496   0.8496
     1.1667   1.1667   1.3236   2.0376   2.0982   2.2612   2.2612   2.3605
     2.3605   2.4529   2.4529   2.6496   3.3183   3.3517   3.3517   3.4640
     3.4810   3.4810   3.9747   4.0920   4.1472   4.1472   4.3220   4.3220
     4.4486   4.5000   4.5630   4.5630   4.8038   4.8038   4.8396   5.2503
     5.2503   5.3799   5.3799   6.7958   6.7958   6.9035   6.9863   7.0224
     7.0224   7.1068   7.4281   7.7191

[...]

          k =-0.0920-0.0531 0.0000 ( 15920 PWs)   bands (ev):

[...]

     the Fermi energy is     2.4463 ev

!    total energy              =   -2332.37559000 Ry
     Harris-Foulkes estimate   =   -2332.37559163 Ry
     estimated scf accuracy    <       0.00000062 Ry

     The total energy is the sum of the following terms:

     one-electron contribution =  -20944.79952862 Ry
     hartree contribution      =   10467.65879915 Ry
     xc contribution           =    -403.55191528 Ry
     ewald contribution        =    8548.40590735 Ry
     electric field correction =       0.00000000 Ry
     smearing contrib. (-TS)   =      -0.08885260 Ry

     convergence has been achieved in  17 iterations

 BEEF-vdW xc energy contributions
           1 :   -353.628702494473
           2 :    326.423389582442
           3 :   -278.606785525368
           4 :    220.913660294764
           5 :   -164.634166221784
           6 :    118.343026571196
           7 :   -85.9919425605037
           8 :    66.8134666894155
[...]
                l(3) =   1
                l(4) =   1
                l(5) =   2
                l(6) =   2
     Q(r) pseudized with  8 coefficients,  rinner =    1.300   1.300   1.300
                                                       1.300   1.300

     PseudoPot. # 2 for Re read from file:
     /afs/slac.stanford.edu/u/if/mamunm/psp/gbrv1.5pbe/Re.UPF
     MD5 check sum: 85f993410f3e006da9d71c142b4ad953
     Pseudo is Ultrasoft + core correction, Zval = 15.0
     Generated by new atomic code, or converted to UPF format
     Using radial grid of  981 points,  8 beta functions with:
                l(1) =   0
                l(2) =   0
                l(3) =   1
                l(4) =   1
                l(5) =   2
                l(6) =   2
                l(7) =   3
                l(8) =   3
     Q(r) pseudized with  8 coefficients,  rinner =    1.150   1.150   1.150
                                                       1.150   1.150   1.150
                                                       1.150

     vdW kernel table read from file vdW_kernel_table
     MD5 check sum: 095c7af220d748ca6e76c0b4c6cfb241

     atomic species   valence    mass     pseudopotential
        Ru1           16.00   101.07000     Ru( 1.00)
        Re1           15.00   186.20700     Re( 1.00)

     No symmetry found

   Cartesian axes

     site n.     atom                  positions (alat units)
         1           Ru1 tau(   1) = (   0.0000000   0.0000000  10.0000000  )
         2           Ru1 tau(   2) = (  -1.3588876   2.3536624  10.0000000  )
         3           Ru1 tau(   3) = (   1.3588876   2.3536624  10.0000000  )
         4           Re1 tau(   4) = (   2.7177752   0.0000000  10.0000000  )
         5           Ru1 tau(   5) = (   2.7177752   1.5691083  12.2190542  )
         6           Ru1 tau(   6) = (   1.3588876   3.9227707  12.2190542  )
         7           Ru1 tau(   7) = (  -1.3588876   3.9227707  12.2190542  )
         8           Re1 tau(   8) = (   0.0000000   1.5691083  12.2190542  )
         9           Ru1 tau(   9) = (  -0.0000018   3.1211651  14.3470149  )
        10           Ru1 tau(  10) = (   1.3441248   0.7930789  14.3470163  )
        11           Ru1 tau(  11) = (   4.0914278   0.7930771  14.3470155  )
        12           Re1 tau(  12) = (   2.7177783   3.1382102  14.2971215  )

     number of k points=    20  Fermi-Dirac smearing, width (Ry)=  0.0110
                       cart. coord. in units 2pi/alat
        k(    1) = (   0.0000000   0.0000000   0.0000000), wk =   0.0555556
        k(    2) = (   0.0000000   0.0354058   0.0000000), wk =   0.1111111
        k(    3) = (   0.0000000   0.0708116   0.0000000), wk =   0.1111111
        k(    4) = (   0.0000000  -0.1062174   0.0000000), wk =   0.0555556
        k(    5) = (   0.0306623   0.0177029   0.0000000), wk =   0.1111111
        k(    6) = (   0.0306623   0.0531087   0.0000000), wk =   0.1111111
        k(    7) = (   0.0306623   0.0885145   0.0000000), wk =   0.1111111
        k(    8) = (   0.0306623  -0.0885145   0.0000000), wk =   0.1111111
        k(    9) = (   0.0306623  -0.0531087   0.0000000), wk =   0.1111111
        k(   10) = (   0.0306623  -0.0177029   0.0000000), wk =   0.1111111
        k(   11) = (   0.0613247   0.0354058   0.0000000), wk =   0.1111111
        k(   12) = (   0.0613247   0.0708116   0.0000000), wk =   0.1111111
        k(   13) = (   0.0613247   0.1062174   0.0000000), wk =   0.1111111
        k(   14) = (   0.0613247  -0.0708116   0.0000000), wk =   0.1111111
        k(   15) = (   0.0613247  -0.0354058   0.0000000), wk =   0.1111111
        k(   16) = (   0.0613247   0.0000000   0.0000000), wk =   0.1111111
        k(   17) = (  -0.0919870  -0.0531087   0.0000000), wk =   0.0555556
        k(   18) = (  -0.0919870  -0.0177029   0.0000000), wk =   0.1111111
        k(   19) = (  -0.0919870   0.0177029   0.0000000), wk =   0.1111111
        k(   20) = (  -0.0919870  -0.1593262   0.0000000), wk =   0.0555556

     Largest allocated arrays     est. size (Mb)     dimensions
     Largest temporary arrays     est. size (Mb)     dimensions

     Initial potential from superposition of free atoms
     Check: negative starting charge=   -1.039681

     starting charge  178.49972, renormalised to  189.00000

[...]

     *
     * You are using vdW-DF for exchange-correlation in this calculation.
     * Please cite the following three references that made this development
     * possible:
     *
     *   M. Dion, H. Rydberg, E. Schroder, D. C. Langreth, and
     *   B. I. Lundqvist, Phys. Rev. Lett. 92, 246401 (2004).
     *
     *   T. Thonhauser, V. R. Cooper, S. Li, A. Puzder, P. Hyldgaard, and
     *   D. C. Langreth, Phys. Rev. B 76, 125112 (2007).
     *
     *   G. Roman-Perez and J. M. Soler, Phys. Rev. Lett. 103, 096102 (2009).
     *
     *
     * If you are using vdW-DF2, please also cite:
     *
     *   K. Lee, E. D. Murray, L. Kong, B. I. Lundqvist, and
     *   D. C. Langreth, Phys. Rev. B 82, 081101(R) (2010).
     *
     *
     * If you are calculating the stress with vdW-DF, please also cite:
     *
     *   R. Sabatini, E. Kucukbenli, B. Kolb, T. Thonhauser, and
     *   S. de Gironcoli, J. Phys.: Condens. Matter 24, 424209 (2012).
     *

     Carrying out vdW-DF run using the following parameters:

     Nqs =      20    Nr_points =    1024   r_max =   100.000
     q_mesh =
               0.00001000     0.04494208     0.09755937     0.15916263
               0.23128650     0.31572767     0.41458969     0.53033537
               0.66584808     0.82450364     1.01025438     1.22772762
               1.48234092     1.78043706     2.12944203     2.53805004
               3.01644009     3.57652955     4.23227104     5.00000000

     Gradients computed in reciprocal space

[...]

     Starting wfc are  156 randomized atomic wfcs

     Self-consistent Calculation

[...]

     iteration #  9     ecut=    36.75 Ry     beta=0.10
     Davidson diagonalization with overlap
     c_bands:  1 eigenvalues not converged
     ethr =  5.05E-06,  avg # of iterations =  4.7

[...]

     total energy              =   -2332.39084001 Ry
     Harris-Foulkes estimate   =   -2332.39084044 Ry
     estimated scf accuracy    <       0.00000107 Ry

     iteration # 18     ecut=    36.75 Ry     beta=0.10
     Davidson diagonalization with overlap
     ethr =  5.68E-10,  avg # of iterations =  2.0

[...]

     negative rho (up, down):  1.086E+00 0.000E+00

     Adding external electric field

     Computed dipole along edir(3) :
        Dipole                0.0372 Ry au,          0.0945 Debye
        Dipole field          0.0001 Ry au

        Potential amp.       -0.0100 Ry
        Total length         45.0268 bohr

     End of self-consistent calculation

[...]

          k = 0.0613 0.0000 0.0000 ( 15880 PWs)   bands (ev):

[...]

          k =-0.0920-0.1593 0.0000 ( 15920 PWs)   bands (ev):

   -78.5136 -78.1662 -78.1356 -70.8007 -70.7754 -70.7500 -70.2844 -70.2579
   -70.2349 -70.2206 -70.1965 -70.1723 -41.0209 -40.9147 -40.9079 -40.8880
   -40.8426 -40.7965 -40.7642 -40.7413 -40.5824 -40.4947 -40.4181 -40.3935
   -40.3549 -40.2792 -40.2621 -40.2377 -40.2179 -40.2014 -40.1949 -40.1832
   -40.1580 -40.1492 -40.1487 -40.0897 -40.0838 -40.0344 -40.0240 -39.9521
   -39.8924 -39.8531 -39.8376 -39.8138 -39.7665 -39.7485 -39.6636 -39.6198
    -3.6524  -3.3230  -2.5467  -2.4367  -2.4110  -2.3120  -2.2421  -2.0889
    -1.9903  -1.8941  -1.7420  -1.7346  -1.4187  -1.3402  -1.2711  -1.2244
    -0.9150  -0.8918  -0.8014  -0.7459  -0.4623  -0.3856  -0.0036   0.0999
     0.3321   0.3486   0.4001   0.4610   0.5700   0.5978   0.6940   0.7008
     0.7262   0.7503   0.8279   0.8646   0.8841   0.9187   0.9441   1.0452
     1.4260   1.6327   1.7056   2.0481   2.0632   2.1185   2.1822   2.3055
     2.5545   2.6384   2.7738   2.7986   2.9558   2.9852   3.0734   3.1849
     3.4737   3.5425   3.7856   4.0523   4.0615   4.5017   4.5326   5.0921
     5.4962   5.6218   6.5067   7.2052   7.2484   7.5319   7.7387   7.8041
     8.6102   8.6537   9.0125   9.0714

     the Fermi energy is     2.4681 ev

!    total energy              =   -2332.39083915 Ry
     Harris-Foulkes estimate   =   -2332.39083913 Ry
     estimated scf accuracy    <       0.00000056 Ry

     The total energy is the sum of the following terms:

     one-electron contribution =  -21253.25193901 Ry
     hartree contribution      =   10621.89745101 Ry
     xc contribution           =    -403.81210834 Ry
     ewald contribution        =    8702.86100753 Ry
     electric field correction =       0.00000412 Ry
     smearing contrib. (-TS)   =      -0.08525446 Ry

     convergence has been achieved in  18 iterations

 BEEF-vdW xc energy contributions
           1 :   -353.894969473003
           2 :    326.789258740670
           3 :   -279.109879392519
           4 :    221.500192411230
           5 :   -165.177925429669
           6 :    118.705167350430
           7 :   -86.0923310649399
           8 :    66.6768769733383
           9 :   -56.5364246877229
          10 :    50.6739123715266
          11 :   -45.0539209408021
          12 :    37.7805461059401
          13 :   -29.1651666660330
          14 :    20.9017049998536
          15 :   -14.8634371676556
          16 :    12.0782067995291
          17 :   -12.2694062920370
          18 :    14.0626468787857
          19 :   -15.6759441469822
          20 :    15.7288070727788
          21 :   -13.7928431068772
          22 :    10.4603686106621
          23 :   -6.94983591315497
          24 :    4.47359467299736
          25 :   -3.67831672951951
          26 :    4.40442731746191
          27 :   -5.84360635090411
          28 :    6.98152458419332
          29 :   -7.09030992046195
          30 :    6.03414295570167
          31 :   -33.6843557434469
          32 :   -25.3865361252962

     Forces acting on atoms (Ry/au):

     negative rho (up, down):  1.086E+00 0.000E+00
     atom    1 type  1   force =    -0.00000083    0.00838704    0.01812125
     atom    2 type  1   force =     0.00726250   -0.00419598    0.01812111
     atom    3 type  1   force =    -0.00726324   -0.00419640    0.01812169
     atom    4 type  2   force =     0.00000101    0.00000424    0.03498054
     atom    5 type  1   force =    -0.00000150   -0.00054251   -0.02229421
     atom    6 type  1   force =    -0.00047744    0.00026419   -0.02228249
     atom    7 type  1   force =     0.00047793    0.00026590   -0.02228084
     atom    8 type  2   force =     0.00000399    0.00001835   -0.02235786
     atom    9 type  1   force =     0.00000033    0.00014836    0.00008562
     atom   10 type  1   force =     0.00012989   -0.00007462    0.00008473
     atom   11 type  1   force =    -0.00013045   -0.00007457    0.00008459
     atom   12 type  2   force =    -0.00000219   -0.00000401   -0.00038412

     Total force =     0.066414     Total SCF correction =     0.005441

     entering subroutine stress ...

     negative rho (up, down):  1.086E+00 0.000E+00
          total   stress  (Ry/bohr**3)                   (kbar)     P=  -22.03
  -0.00017511   0.00000000  -0.00000000        -25.76      0.00     -0.00
   0.00000000  -0.00017512   0.00000000          0.00    -25.76      0.00
  -0.00000000   0.00000000  -0.00009895         -0.00      0.00    -14.56

 !ASE

     Writing output data file calc.save

     General routines

     Parallel routines

   This run was terminated on:   5:56:26   1Jan2019

   JOB DONE.
Job  /afs/slac/g/suncat/bin/suncat-tsmpirun -x LD_LIBRARY_PATH -wdir /scratch/qe648944_9gpEQ pw.x -in pw.inp

TID   HOST_NAME   COMMAND_LINE            STATUS            TERMINATION_TIME
00000 suncat0031 pw.x -in pw.inp   Done                     01/01/2019 05:56:26
00001 suncat0031 pw.x -in pw.inp   Done                     01/01/2019 05:56:26
00002 suncat0031 pw.x -in pw.inp   Done                     01/01/2019 05:56:26
00003 suncat0031 pw.x -in pw.inp   Done                     01/01/2019 05:56:26
00004 suncat0031 pw.x -in pw.inp   Done                     01/01/2019 05:56:26
00005 suncat0031 pw.x -in pw.inp   Done                     01/01/2019 05:56:26
00006 suncat0031 pw.x -in pw.inp   Done                     01/01/2019 05:56:26
00007 suncat0031 pw.x -in pw.inp   Done                     01/01/2019 05:56:26
00008 suncat0030 pw.x -in pw.inp   Done                     01/01/2019 05:56:26
00009 suncat0030 pw.x -in pw.inp   Done                     01/01/2019 05:56:26
00010 suncat0030 pw.x -in pw.inp   Done                     01/01/2019 05:56:26
00011 suncat0030 pw.x -in pw.inp   Done                     01/01/2019 05:56:26
00012 suncat0030 pw.x -in pw.inp   Done                     01/01/2019 05:56:26
00013 suncat0030 pw.x -in pw.inp   Done                     01/01/2019 05:56:26
00014 suncat0030 pw.x -in pw.inp   Done                     01/01/2019 05:56:26
00015 suncat0030 pw.x -in pw.inp   Done                     01/01/2019 05:56:26
00016 suncat0130 pw.x -in pw.inp   Done                     01/01/2019 05:56:26
00017 suncat0130 pw.x -in pw.inp   Done                     01/01/2019 05:56:26
00018 suncat0130 pw.x -in pw.inp   Done                     01/01/2019 05:56:26
00019 suncat0130 pw.x -in pw.inp   Done                     01/01/2019 05:56:26
00020 suncat0130 pw.x -in pw.inp   Done                     01/01/2019 05:56:26
00021 suncat0130 pw.x -in pw.inp   Done                     01/01/2019 05:56:26
00022 suncat0130 pw.x -in pw.inp   Done                     01/01/2019 05:56:26
00023 suncat0130 pw.x -in pw.inp   Done                     01/01/2019 05:56:26
00024 suncat0124 pw.x -in pw.inp   Done                     01/01/2019 05:56:26
00025 suncat0124 pw.x -in pw.inp   Done                     01/01/2019 05:56:26
00026 suncat0124 pw.x -in pw.inp   Done                     01/01/2019 05:56:26
00027 suncat0124 pw.x -in pw.inp   Done                     01/01/2019 05:56:26
00028 suncat0124 pw.x -in pw.inp   Done                     01/01/2019 05:56:26
00029 suncat0124 pw.x -in pw.inp   Done                     01/01/2019 05:56:26
00030 suncat0124 pw.x -in pw.inp   Done                     01/01/2019 05:56:26
00031 suncat0124 pw.x -in pw.inp   Done                     01/01/2019 05:56:26
00032 suncat0280 pw.x -in pw.inp   Done                     01/01/2019 05:56:26
00033 suncat0280 pw.x -in pw.inp   Done                     01/01/2019 05:56:26
00034 suncat0280 pw.x -in pw.inp   Done                     01/01/2019 05:56:26
00035 suncat0280 pw.x -in pw.inp   Done                     01/01/2019 05:56:26
00036 suncat0280 pw.x -in pw.inp   Done                     01/01/2019 05:56:26
00037 suncat0280 pw.x -in pw.inp   Done                     01/01/2019 05:56:26
00038 suncat0280 pw.x -in pw.inp   Done                     01/01/2019 05:56:26
00039 suncat0280 pw.x -in pw.inp   Done                     01/01/2019 05:56:26
00040 suncat0279 pw.x -in pw.inp   Done                     01/01/2019 05:56:26
00041 suncat0279 pw.x -in pw.inp   Done                     01/01/2019 05:56:26
00042 suncat0279 pw.x -in pw.inp   Done                     01/01/2019 05:56:26
00043 suncat0279 pw.x -in pw.inp   Done                     01/01/2019 05:56:26
00044 suncat0279 pw.x -in pw.inp   Done                     01/01/2019 05:56:26
00045 suncat0279 pw.x -in pw.inp   Done                     01/01/2019 05:56:26
00046 suncat0279 pw.x -in pw.inp   Done                     01/01/2019 05:56:26
00047 suncat0279 pw.x -in pw.inp   Done                     01/01/2019 05:56:26
00048 suncat0278 pw.x -in pw.inp   Done                     01/01/2019 05:56:26
00049 suncat0278 pw.x -in pw.inp   Done                     01/01/2019 05:56:26
00050 suncat0278 pw.x -in pw.inp   Done                     01/01/2019 05:56:26
00051 suncat0278 pw.x -in pw.inp   Done                     01/01/2019 05:56:26
00052 suncat0278 pw.x -in pw.inp   Done                     01/01/2019 05:56:26
00053 suncat0278 pw.x -in pw.inp   Done                     01/01/2019 05:56:26
00054 suncat0278 pw.x -in pw.inp   Done                     01/01/2019 05:56:26
00055 suncat0278 pw.x -in pw.inp   Done                     01/01/2019 05:56:26
00056 suncat0099 pw.x -in pw.inp   Done                     01/01/2019 05:56:26
00057 suncat0099 pw.x -in pw.inp   Done                     01/01/2019 05:56:26
00058 suncat0099 pw.x -in pw.inp   Done                     01/01/2019 05:56:26
00059 suncat0099 pw.x -in pw.inp   Done                     01/01/2019 05:56:26
00060 suncat0099 pw.x -in pw.inp   Done                     01/01/2019 05:56:26
00061 suncat0099 pw.x -in pw.inp   Done                     01/01/2019 05:56:26
00062 suncat0099 pw.x -in pw.inp   Done                     01/01/2019 05:56:26
00063 suncat0099 pw.x -in pw.inp   Done                     01/01/2019 05:56:26