     Program PWSCF v.5.1rc2 (svn rev. 11289) starts on 26Dec2018 at 15:59:41

     Current dimensions of program PWSCF are:
     Max number of different atomic species (ntypx) = 10
     Max number of k-points (npk) =  40000
     Max angular momentum in pseudopotentials (lmaxx) =  3
     Presently stress not available with electric field

     IMPORTANT: XC functional enforced from input :
     Exchange-correlation      = BEEF-VDW ( 1  4 27 13 2)
     Any further DFT definition will be discarded
     Please, verify this is what you really want

     Subspace diagonalization in iterative solution of the eigenvalue problem:
     a serial algorithm will be used

     bravais-lattice index     =            0
     lattice parameter (alat)  =       1.8897  a.u.
     unit-cell volume          =    4286.7911 (a.u.)^3
     number of atoms/cell      =           12
     number of atomic types    =            2
     number of electrons       =       180.00
     number of Kohn-Sham states=          120
     kinetic-energy cutoff     =      36.7493  Ry
     charge density cutoff     =     367.4932  Ry
     convergence threshold     =      1.0E-06
     mixing beta               =       0.1000
     number of iterations used =           10  plain     mixing
     Exchange-correlation      = BEEF-VDW ( 1  4 27 13 2)
     nstep                     =           50

     celldm(1)=   1.889726  celldm(2)=   0.000000  celldm(3)=   0.000000
     celldm(4)=   0.000000  celldm(5)=   0.000000  celldm(6)=   0.000000

     crystal axes: (cart. coord. in units of alat)
               a(1) = (   5.474984   0.000000   0.000000 )
               a(2) = (  -2.737492   4.741475   0.000000 )
               a(3) = (   0.000000   0.000000  24.470306 )

     reciprocal axes: (cart. coord. in units 2 pi/alat)
               b(1) = (  0.182649  0.105452  0.000000 )
               b(2) = (  0.000000  0.210905  0.000000 )
               b(3) = (  0.000000  0.000000  0.040866 )

     PseudoPot. # 1 for Ir read from file:
     /afs/slac.stanford.edu/u/if/mamunm/psp/gbrv1.5pbe/Ir.UPF
     MD5 check sum: 8836f839c3459d2b385c504ce6d91f2c
     Pseudo is Ultrasoft + core correction, Zval = 15.0
     Generated by new atomic code, or converted to UPF format
     Using radial grid of  983 points,  7 beta functions with:
                l(1) =   0
                l(2) =   0
                l(3) =   1
                l(4) =   1
                l(5) =   1
                l(6) =   2
                l(7) =   2
     Q(r) pseudized with  8 coefficients,  rinner =    1.400   1.400   1.400
                                                       1.400   1.400

     PseudoPot. # 2 for Rh read from file:
     /afs/slac.stanford.edu/u/if/mamunm/psp/gbrv1.5pbe/Rh.UPF
     MD5 check sum: 761627e959a2e3a1f56b0b5fe687810e
     Pseudo is Ultrasoft + core correction, Zval = 15.0
     Generated by new atomic code, or converted to UPF format
     Using radial grid of  969 points,  7 beta functions with:
                l(1) =   0
                l(2) =   0
                l(3) =   1
                l(4) =   1
                l(5) =   2
                l(6) =   2
                l(7) =   2
     Q(r) pseudized with  8 coefficients,  rinner =    1.200   1.200   1.200
                                                       1.200   1.200

     vdW kernel table read from file vdW_kernel_table
     MD5 check sum: 095c7af220d748ca6e76c0b4c6cfb241

     atomic species   valence    mass     pseudopotential
        Ir1           15.00   192.21700     Ir( 1.00)
        Rh1           15.00   102.90550     Rh( 1.00)

     No symmetry found

   Cartesian axes

     site n.     atom                  positions (alat units)
         1           Ir1 tau(   1) = (   0.0000000   0.0000000  10.0000000  )
         2           Ir1 tau(   2) = (  -1.3687460   2.3707376  10.0000000  )
         3           Ir1 tau(   3) = (   1.3687460   2.3707376  10.0000000  )
         4           Rh1 tau(   4) = (   2.7374919   0.0000000  10.0000000  )
         5           Ir1 tau(   5) = (   2.7374919   1.5804917  12.2351528  )
         6           Ir1 tau(   6) = (   1.3687460   3.9512293  12.2351528  )
         7           Ir1 tau(   7) = (  -1.3687460   3.9512293  12.2351528  )
         8           Rh1 tau(   8) = (   0.0000000   1.5804917  12.2351528  )
         9           Ir1 tau(   9) = (  -0.0000000   3.1609834  14.4703056  )
        10           Ir1 tau(  10) = (   1.3687460   0.7902459  14.4703056  )
        11           Ir1 tau(  11) = (   4.1062379   0.7902459  14.4703056  )
        12           Rh1 tau(  12) = (   2.7374919   3.1609834  14.4703056  )

     number of k points=    20  Fermi-Dirac smearing, width (Ry)=  0.0110
                       cart. coord. in units 2pi/alat
        k(    1) = (   0.0000000   0.0000000   0.0000000), wk =   0.0555556
        k(    2) = (   0.0000000   0.0351508   0.0000000), wk =   0.1111111
        k(    3) = (   0.0000000   0.0703016   0.0000000), wk =   0.1111111
        k(    4) = (   0.0000000  -0.1054524   0.0000000), wk =   0.0555556
        k(    5) = (   0.0304415   0.0175754   0.0000000), wk =   0.1111111
        k(    6) = (   0.0304415   0.0527262   0.0000000), wk =   0.1111111
        k(    7) = (   0.0304415   0.0878770   0.0000000), wk =   0.1111111
        k(    8) = (   0.0304415  -0.0878770   0.0000000), wk =   0.1111111
        k(    9) = (   0.0304415  -0.0527262   0.0000000), wk =   0.1111111
        k(   10) = (   0.0304415  -0.0175754   0.0000000), wk =   0.1111111
        k(   11) = (   0.0608830   0.0351508   0.0000000), wk =   0.1111111
        k(   12) = (   0.0608830   0.0703016   0.0000000), wk =   0.1111111
        k(   13) = (   0.0608830   0.1054524   0.0000000), wk =   0.1111111
        k(   14) = (   0.0608830  -0.0703016   0.0000000), wk =   0.1111111
        k(   15) = (   0.0608830  -0.0351508   0.0000000), wk =   0.1111111
        k(   16) = (   0.0608830   0.0000000   0.0000000), wk =   0.1111111
        k(   17) = (  -0.0913245  -0.0527262   0.0000000), wk =   0.0555556
        k(   18) = (  -0.0913245  -0.0175754   0.0000000), wk =   0.1111111
        k(   19) = (  -0.0913245   0.0175754   0.0000000), wk =   0.1111111
        k(   20) = (  -0.0913245  -0.1581786   0.0000000), wk =   0.0555556

     Largest allocated arrays     est. size (Mb)     dimensions
     Largest temporary arrays     est. size (Mb)     dimensions

     Initial potential from superposition of free atoms
     Check: negative starting charge=   -3.436247

     starting charge  173.99942, renormalised to  180.00000

     negative rho (up, down):  3.555E+00 0.000E+00

     *
     * You are using vdW-DF for exchange-correlation in this calculation.
     * Please cite the following three references that made this development
     * possible:
     *
     *   M. Dion, H. Rydberg, E. Schroder, D. C. Langreth, and
     *   B. I. Lundqvist, Phys. Rev. Lett. 92, 246401 (2004).
     *
     *   T. Thonhauser, V. R. Cooper, S. Li, A. Puzder, P. Hyldgaard, and
     *   D. C. Langreth, Phys. Rev. B 76, 125112 (2007).
     *
     *   G. Roman-Perez and J. M. Soler, Phys. Rev. Lett. 103, 096102 (2009).
     *
     *
     * If you are using vdW-DF2, please also cite:
     *
     *   K. Lee, E. D. Murray, L. Kong, B. I. Lundqvist, and
     *   D. C. Langreth, Phys. Rev. B 82, 081101(R) (2010).
     *
     *
     * If you are calculating the stress with vdW-DF, please also cite:
     *
     *   R. Sabatini, E. Kucukbenli, B. Kolb, T. Thonhauser, and
     *   S. de Gironcoli, J. Phys.: Condens. Matter 24, 424209 (2012).
     *

     Carrying out vdW-DF run using the following parameters:

     Nqs =      20    Nr_points =    1024   r_max =   100.000
     q_mesh =
               0.00001000     0.04494208     0.09755937     0.15916263
               0.23128650     0.31572767     0.41458969     0.53033537
               0.66584808     0.82450364     1.01025438     1.22772762
               1.48234092     1.78043706     2.12944203     2.53805004
               3.01644009     3.57652955     4.23227104     5.00000000

     Gradients computed in reciprocal space

     Adding external electric field

     Computed dipole along edir(3) :
        Dipole                0.0000 Ry au,          0.0000 Debye
        Dipole field          0.0000 Ry au

        Potential amp.       -0.0000 Ry
        Total length         45.0861 bohr

     Starting wfc are  144 randomized atomic wfcs

     Self-consistent Calculation

     iteration #  1     ecut=    36.75 Ry     beta=0.10
     Davidson diagonalization with overlap
     ethr =  1.00E-02,  avg # of iterations =  7.5

[...]

     total energy              =   -2167.01192209 Ry
     Harris-Foulkes estimate   =   -2169.49951142 Ry
     estimated scf accuracy    <      15.48250475 Ry

[...]

     iteration #  7     ecut=    36.75 Ry     beta=0.10
     Davidson diagonalization with overlap
     c_bands:  2 eigenvalues not converged
     ethr =  7.49E-05,  avg # of iterations =  9.2

[...]

     End of self-consistent calculation

          k = 0.0000 0.0000 0.0000 ( 16037 PWs)   bands (ev):

   -47.7933 -47.6432 -47.6432 -47.6119 -47.5446 -47.5446 -47.3798 -47.3274
   -47.3140 -47.2945 -47.2945 -47.1443 -47.1443 -47.1108 -47.1108 -46.9368
   -46.8952 -46.8870 -46.8868 -46.8868 -46.8801 -46.8616 -46.8616 -46.8345
   -46.8344 -46.8325 -46.8325 -44.8199 -44.8061 -44.8061 -44.4079 -44.4079
   -44.4054 -44.4054 -44.2590 -44.2483  -6.6822  -4.9009  -4.6508  -4.3222
    -4.3222  -4.2944  -4.0278  -4.0278  -3.8933  -3.5892  -3.5892  -3.5851
    -3.2907  -3.2907  -3.2303  -2.0490  -1.8441  -1.8441  -1.3926  -1.3926
    -1.3862  -1.1796  -1.0453  -1.0453  -0.8741  -0.6280  -0.6280  -0.6245
    -0.5409  -0.5409  -0.3532  -0.3532  -0.0215  -0.0215   0.1817   1.1166
     1.1166   1.1741   1.2157   1.2157   1.2163   1.2886   1.2886   1.4162
     1.9303   1.9303   2.3905   2.4688   2.4688   2.5439   2.5439   2.7493
     2.7493   2.7510   2.8359   2.9443   2.9443   3.2853   3.3618   3.3618
     3.4409   3.4409   3.5367   3.7572   3.7614   3.7614   3.8209   5.5471
     5.6215   5.7196   5.7196   5.8695   5.8695   6.7814   7.0246   7.4195
     8.3359   8.9659   8.9659   8.9673   8.9673   9.1694   9.7762   9.8284

[...]

          k =-0.0913-0.0527 0.0000 ( 16164 PWs)   bands (ev):

[...]

     the Fermi energy is     2.1886 ev

!    total energy              =   -2166.39358288 Ry
     Harris-Foulkes estimate   =   -2166.39358974 Ry
     estimated scf accuracy    <       0.00000035 Ry

     The total energy is the sum of the following terms:

     one-electron contribution =  -18485.00851119 Ry
     hartree contribution      =    9274.59950851 Ry
     xc contribution           =    -560.59762872 Ry
     ewald contribution        =    7604.71944765 Ry
     electric field correction =       0.00000000 Ry
     smearing contrib. (-TS)   =      -0.10639914 Ry

     convergence has been achieved in  19 iterations

 BEEF-vdW xc energy contributions
           1 :   -495.261957395297
           2 :    459.852284191783
           3 :   -396.865594003778
           4 :    319.235886143684
           5 :   -240.984290227141
           6 :    173.425965152606
[...]
     MD5 check sum: 8836f839c3459d2b385c504ce6d91f2c
     Pseudo is Ultrasoft + core correction, Zval = 15.0
     Generated by new atomic code, or converted to UPF format
     Using radial grid of  983 points,  7 beta functions with:
                l(1) =   0
                l(2) =   0
                l(3) =   1
                l(4) =   1
                l(5) =   1
                l(6) =   2
                l(7) =   2
     Q(r) pseudized with  8 coefficients,  rinner =    1.400   1.400   1.400
                                                       1.400   1.400

     PseudoPot. # 2 for Rh read from file:
     /afs/slac.stanford.edu/u/if/mamunm/psp/gbrv1.5pbe/Rh.UPF
     MD5 check sum: 761627e959a2e3a1f56b0b5fe687810e
     Pseudo is Ultrasoft + core correction, Zval = 15.0
     Generated by new atomic code, or converted to UPF format
     Using radial grid of  969 points,  7 beta functions with:
                l(1) =   0
                l(2) =   0
                l(3) =   1
                l(4) =   1
                l(5) =   2
                l(6) =   2
                l(7) =   2
     Q(r) pseudized with  8 coefficients,  rinner =    1.200   1.200   1.200
                                                       1.200   1.200

     vdW kernel table read from file vdW_kernel_table
     MD5 check sum: 095c7af220d748ca6e76c0b4c6cfb241

     atomic species   valence    mass     pseudopotential
        Ir1           15.00   192.21700     Ir( 1.00)
        Rh1           15.00   102.90550     Rh( 1.00)

     No symmetry found

   Cartesian axes

     site n.     atom                  positions (alat units)
         1           Ir1 tau(   1) = (   0.0000000   0.0000000  10.0000000  )
         2           Ir1 tau(   2) = (  -1.3687460   2.3707376  10.0000000  )
         3           Ir1 tau(   3) = (   1.3687460   2.3707376  10.0000000  )
         4           Rh1 tau(   4) = (   2.7374919   0.0000000  10.0000000  )
         5           Ir1 tau(   5) = (   2.7374919   1.5804917  12.2351528  )
         6           Ir1 tau(   6) = (   1.3687460   3.9512293  12.2351528  )
         7           Ir1 tau(   7) = (  -1.3687460   3.9512293  12.2351528  )
         8           Rh1 tau(   8) = (   0.0000000   1.5804917  12.2351528  )
         9           Ir1 tau(   9) = (   0.0000001   3.1650447  14.4056166  )
        10           Ir1 tau(  10) = (   1.3722624   0.7882151  14.4056162  )
        11           Ir1 tau(  11) = (   4.1027216   0.7882157  14.4056182  )
        12           Rh1 tau(  12) = (   2.7374927   3.1609837  14.4410461  )

     number of k points=    20  Fermi-Dirac smearing, width (Ry)=  0.0110
                       cart. coord. in units 2pi/alat
        k(    1) = (   0.0000000   0.0000000   0.0000000), wk =   0.0555556
        k(    2) = (   0.0000000   0.0351508   0.0000000), wk =   0.1111111
        k(    3) = (   0.0000000   0.0703016   0.0000000), wk =   0.1111111
        k(    4) = (   0.0000000  -0.1054524   0.0000000), wk =   0.0555556
        k(    5) = (   0.0304415   0.0175754   0.0000000), wk =   0.1111111
        k(    6) = (   0.0304415   0.0527262   0.0000000), wk =   0.1111111
        k(    7) = (   0.0304415   0.0878770   0.0000000), wk =   0.1111111
        k(    8) = (   0.0304415  -0.0878770   0.0000000), wk =   0.1111111
        k(    9) = (   0.0304415  -0.0527262   0.0000000), wk =   0.1111111
        k(   10) = (   0.0304415  -0.0175754   0.0000000), wk =   0.1111111
        k(   11) = (   0.0608830   0.0351508   0.0000000), wk =   0.1111111
        k(   12) = (   0.0608830   0.0703016   0.0000000), wk =   0.1111111
        k(   13) = (   0.0608830   0.1054524   0.0000000), wk =   0.1111111
        k(   14) = (   0.0608830  -0.0703016   0.0000000), wk =   0.1111111
        k(   15) = (   0.0608830  -0.0351508   0.0000000), wk =   0.1111111
        k(   16) = (   0.0608830   0.0000000   0.0000000), wk =   0.1111111
        k(   17) = (  -0.0913245  -0.0527262   0.0000000), wk =   0.0555556
        k(   18) = (  -0.0913245  -0.0175754   0.0000000), wk =   0.1111111
        k(   19) = (  -0.0913245   0.0175754   0.0000000), wk =   0.1111111
        k(   20) = (  -0.0913245  -0.1581786   0.0000000), wk =   0.0555556

     Largest allocated arrays     est. size (Mb)     dimensions
     Largest temporary arrays     est. size (Mb)     dimensions

     Initial potential from superposition of free atoms
     Check: negative starting charge=   -3.432514

     starting charge  173.99942, renormalised to  180.00000

[...]

     *
     * You are using vdW-DF for exchange-correlation in this calculation.
     * Please cite the following three references that made this development
     * possible:
     *
     *   M. Dion, H. Rydberg, E. Schroder, D. C. Langreth, and
     *   B. I. Lundqvist, Phys. Rev. Lett. 92, 246401 (2004).
     *
     *   T. Thonhauser, V. R. Cooper, S. Li, A. Puzder, P. Hyldgaard, and
     *   D. C. Langreth, Phys. Rev. B 76, 125112 (2007).
     *
     *   G. Roman-Perez and J. M. Soler, Phys. Rev. Lett. 103, 096102 (2009).
     *
     *
     * If you are using vdW-DF2, please also cite:
     *
     *   K. Lee, E. D. Murray, L. Kong, B. I. Lundqvist, and
     *   D. C. Langreth, Phys. Rev. B 82, 081101(R) (2010).
     *
     *
     * If you are calculating the stress with vdW-DF, please also cite:
     *
     *   R. Sabatini, E. Kucukbenli, B. Kolb, T. Thonhauser, and
     *   S. de Gironcoli, J. Phys.: Condens. Matter 24, 424209 (2012).
     *

     Carrying out vdW-DF run using the following parameters:

     Nqs =      20    Nr_points =    1024   r_max =   100.000
     q_mesh =
               0.00001000     0.04494208     0.09755937     0.15916263
               0.23128650     0.31572767     0.41458969     0.53033537
               0.66584808     0.82450364     1.01025438     1.22772762
               1.48234092     1.78043706     2.12944203     2.53805004
               3.01644009     3.57652955     4.23227104     5.00000000

     Gradients computed in reciprocal space

[...]

     Starting wfc are  144 randomized atomic wfcs

     Self-consistent Calculation

[...]

     total energy              =   -2166.39784384 Ry
     Harris-Foulkes estimate   =   -2166.39783994 Ry
     estimated scf accuracy    <       0.00000113 Ry

     iteration # 18     ecut=    36.75 Ry     beta=0.10
     Davidson diagonalization with overlap
     ethr =  6.26E-10,  avg # of iterations =  2.9

[...]

     negative rho (up, down):  3.082E+00 0.000E+00

     Adding external electric field

     Computed dipole along edir(3) :
        Dipole                0.0005 Ry au,          0.0014 Debye
        Dipole field          0.0000 Ry au

        Potential amp.       -0.0001 Ry
        Total length         45.0861 bohr

     End of self-consistent calculation

[...]

          k = 0.0609 0.0000 0.0000 ( 16152 PWs)   bands (ev):

[...]

          k =-0.0913-0.1582 0.0000 ( 16164 PWs)   bands (ev):

   -47.7245 -47.6301 -47.6217 -47.5902 -47.5481 -47.5458 -47.5081 -47.5075
   -47.3288 -47.2459 -47.1755 -47.0812 -47.0606 -47.0424 -47.0309 -47.0084
   -46.9935 -46.9695 -46.9597 -46.9596 -46.9436 -46.9272 -46.8838 -46.8620
   -46.8409 -46.8332 -46.8064 -44.8725 -44.8532 -44.8408 -44.4266 -44.4139
   -44.3970 -44.3840 -44.2699 -44.2255  -5.1367  -4.8092  -3.6279  -3.6113
    -3.4240  -3.3603  -3.3524  -3.2750  -3.2138  -2.9607  -2.8396  -2.6990
    -2.5637  -2.3409  -2.2574  -2.2469  -2.0849  -1.9874  -1.8713  -1.7729
    -1.6107  -1.4884  -1.1066  -1.0735  -0.7989  -0.7549  -0.7167  -0.6212
    -0.6076  -0.6010  -0.4590  -0.4138  -0.3503  -0.3335  -0.3061  -0.2646
    -0.2084  -0.1897  -0.1675  -0.0860   0.3975   0.4568   0.6990   0.7089
     0.8236   0.8254   0.9968   1.1019   1.1850   1.2780   1.4230   1.4696
     1.6948   1.8092   1.8783   1.8948   1.9485   2.0073   2.5277   2.5796
     2.8445   2.9165   2.9585   3.3460   4.3437   4.4760   5.1779   5.4673
     5.9771   6.1714   6.9340   7.0304   7.8675   8.0009   8.3608   8.3630
     8.9562   8.9707   9.0175   9.0305  10.1624  10.1717  10.3609  10.5159

     the Fermi energy is     2.2117 ev

!    total energy              =   -2166.39784374 Ry
     Harris-Foulkes estimate   =   -2166.39784391 Ry
     estimated scf accuracy    <       0.00000078 Ry

     The total energy is the sum of the following terms:

     one-electron contribution =  -18633.65527096 Ry
     hartree contribution      =    9348.85293616 Ry
     xc contribution           =    -560.72388635 Ry
     ewald contribution        =    7679.23225350 Ry
     electric field correction =       0.00000000 Ry
     smearing contrib. (-TS)   =      -0.10387610 Ry

     convergence has been achieved in  18 iterations

 BEEF-vdW xc energy contributions
           1 :   -495.393436079804
           2 :    460.042199746781
           3 :   -397.137152475847
           4 :    319.560691204663
           5 :   -241.292477775102
           6 :    173.638103928971
           7 :   -122.788191129900
           8 :    89.2689160810362
           9 :   -69.1976386624234
          10 :    56.6515128592549
          11 :   -46.1667948392239
          12 :    34.4824248952871
          13 :   -21.0724012411561
          14 :    7.53192574470972
          15 :    3.70993441196867
          16 :   -10.7314964184627
          17 :    12.9880127551455
          18 :   -11.4560145389806
          19 :    8.11670782210024
          20 :   -5.09676141460682
          21 :    3.86333223675103
          22 :   -4.78461625237924
          23 :    7.17664057056538
          24 :   -9.75730326895098
          25 :    11.2772485886406
          26 :   -11.0546256972477
          27 :    9.20601044625880
          28 :   -6.51414872578050
          29 :    4.02975579005363
          30 :   -2.60588311451579
          31 :   -43.4414439775418
          32 :   -32.5866152667800

     Forces acting on atoms (Ry/au):

     negative rho (up, down):  3.082E+00 0.000E+00
     atom    1 type  1   force =     0.00000030   -0.00390887    0.01859710
     atom    2 type  1   force =    -0.00338512    0.00195444    0.01859741
     atom    3 type  1   force =     0.00338525    0.00195474    0.01859735
     atom    4 type  2   force =    -0.00000020    0.00000008    0.00573791
     atom    5 type  1   force =    -0.00000004    0.00288737   -0.01546156
     atom    6 type  1   force =     0.00250079   -0.00144380   -0.01546184
     atom    7 type  1   force =    -0.00250069   -0.00144349   -0.01546180
     atom    8 type  2   force =    -0.00000021    0.00000014   -0.01674453
     atom    9 type  1   force =    -0.00000011    0.00101964    0.00059701
     atom   10 type  1   force =     0.00088328   -0.00051011    0.00059704
     atom   11 type  1   force =    -0.00088311   -0.00050980    0.00059618
     atom   12 type  2   force =    -0.00000013   -0.00000035   -0.00019026

     Total force =     0.046294     Total SCF correction =     0.004044

     entering subroutine stress ...

     negative rho (up, down):  3.082E+00 0.000E+00
          total   stress  (Ry/bohr**3)                   (kbar)     P=  -31.19
  -0.00024992  -0.00000000   0.00000000        -36.76     -0.00      0.00
  -0.00000000  -0.00024992  -0.00000000         -0.00    -36.76     -0.00
   0.00000000  -0.00000000  -0.00013631          0.00     -0.00    -20.05

 !ASE

     Writing output data file calc.save

     General routines

     Parallel routines

   This run was terminated on:  16:37:32  26Dec2018

   JOB DONE.
Job  /afs/slac/g/suncat/bin/suncat-tsmpirun -x LD_LIBRARY_PATH -wdir /scratch/qe109959_r0rNu pw.x -in pw.inp

TID   HOST_NAME   COMMAND_LINE            STATUS            TERMINATION_TIME
00000 suncat0277 pw.x -in pw.inp   Done                     12/26/2018 16:37:32
00001 suncat0277 pw.x -in pw.inp   Done                     12/26/2018 16:37:32
00002 suncat0277 pw.x -in pw.inp   Done                     12/26/2018 16:37:32
00003 suncat0277 pw.x -in pw.inp   Done                     12/26/2018 16:37:32
00004 suncat0277 pw.x -in pw.inp   Done                     12/26/2018 16:37:32
00005 suncat0277 pw.x -in pw.inp   Done                     12/26/2018 16:37:32
00006 suncat0277 pw.x -in pw.inp   Done                     12/26/2018 16:37:32
00007 suncat0277 pw.x -in pw.inp   Done                     12/26/2018 16:37:32
00008 suncat0276 pw.x -in pw.inp   Done                     12/26/2018 16:37:32
00009 suncat0276 pw.x -in pw.inp   Done                     12/26/2018 16:37:32
00010 suncat0276 pw.x -in pw.inp   Done                     12/26/2018 16:37:32
00011 suncat0276 pw.x -in pw.inp   Done                     12/26/2018 16:37:32
00012 suncat0276 pw.x -in pw.inp   Done                     12/26/2018 16:37:32
00013 suncat0276 pw.x -in pw.inp   Done                     12/26/2018 16:37:32
00014 suncat0276 pw.x -in pw.inp   Done                     12/26/2018 16:37:32
00015 suncat0276 pw.x -in pw.inp   Done                     12/26/2018 16:37:32
00016 suncat0274 pw.x -in pw.inp   Done                     12/26/2018 16:37:32
00017 suncat0274 pw.x -in pw.inp   Done                     12/26/2018 16:37:32
00018 suncat0274 pw.x -in pw.inp   Done                     12/26/2018 16:37:32
00019 suncat0274 pw.x -in pw.inp   Done                     12/26/2018 16:37:32
00020 suncat0274 pw.x -in pw.inp   Done                     12/26/2018 16:37:32
00021 suncat0274 pw.x -in pw.inp   Done                     12/26/2018 16:37:32
00022 suncat0274 pw.x -in pw.inp   Done                     12/26/2018 16:37:32
00023 suncat0274 pw.x -in pw.inp   Done                     12/26/2018 16:37:32
00024 suncat0273 pw.x -in pw.inp   Done                     12/26/2018 16:37:32
00025 suncat0273 pw.x -in pw.inp   Done                     12/26/2018 16:37:32
00026 suncat0273 pw.x -in pw.inp   Done                     12/26/2018 16:37:32
00027 suncat0273 pw.x -in pw.inp   Done                     12/26/2018 16:37:32
00028 suncat0273 pw.x -in pw.inp   Done                     12/26/2018 16:37:32
00029 suncat0273 pw.x -in pw.inp   Done                     12/26/2018 16:37:32
00030 suncat0273 pw.x -in pw.inp   Done                     12/26/2018 16:37:32
00031 suncat0273 pw.x -in pw.inp   Done                     12/26/2018 16:37:32
00032 suncat0230 pw.x -in pw.inp   Done                     12/26/2018 16:37:32
00033 suncat0230 pw.x -in pw.inp   Done                     12/26/2018 16:37:32
00034 suncat0230 pw.x -in pw.inp   Done                     12/26/2018 16:37:32
00035 suncat0230 pw.x -in pw.inp   Done                     12/26/2018 16:37:32
00036 suncat0230 pw.x -in pw.inp   Done                     12/26/2018 16:37:32
00037 suncat0230 pw.x -in pw.inp   Done                     12/26/2018 16:37:32
00038 suncat0230 pw.x -in pw.inp   Done                     12/26/2018 16:37:32
00039 suncat0230 pw.x -in pw.inp   Done                     12/26/2018 16:37:32
00040 suncat0229 pw.x -in pw.inp   Done                     12/26/2018 16:37:32
00041 suncat0229 pw.x -in pw.inp   Done                     12/26/2018 16:37:32
00042 suncat0229 pw.x -in pw.inp   Done                     12/26/2018 16:37:32
00043 suncat0229 pw.x -in pw.inp   Done                     12/26/2018 16:37:32
00044 suncat0229 pw.x -in pw.inp   Done                     12/26/2018 16:37:32
00045 suncat0229 pw.x -in pw.inp   Done                     12/26/2018 16:37:32
00046 suncat0229 pw.x -in pw.inp   Done                     12/26/2018 16:37:32
00047 suncat0229 pw.x -in pw.inp   Done                     12/26/2018 16:37:32
00048 suncat0205 pw.x -in pw.inp   Done                     12/26/2018 16:37:32
00049 suncat0205 pw.x -in pw.inp   Done                     12/26/2018 16:37:32
00050 suncat0205 pw.x -in pw.inp   Done                     12/26/2018 16:37:32
00051 suncat0205 pw.x -in pw.inp   Done                     12/26/2018 16:37:32
00052 suncat0205 pw.x -in pw.inp   Done                     12/26/2018 16:37:32
00053 suncat0205 pw.x -in pw.inp   Done                     12/26/2018 16:37:32
00054 suncat0205 pw.x -in pw.inp   Done                     12/26/2018 16:37:32
00055 suncat0205 pw.x -in pw.inp   Done                     12/26/2018 16:37:32
00056 suncat0204 pw.x -in pw.inp   Done                     12/26/2018 16:37:32
00057 suncat0204 pw.x -in pw.inp   Done                     12/26/2018 16:37:32
00058 suncat0204 pw.x -in pw.inp   Done                     12/26/2018 16:37:32
00059 suncat0204 pw.x -in pw.inp   Done                     12/26/2018 16:37:32
00060 suncat0204 pw.x -in pw.inp   Done                     12/26/2018 16:37:32
00061 suncat0204 pw.x -in pw.inp   Done                     12/26/2018 16:37:32
00062 suncat0204 pw.x -in pw.inp   Done                     12/26/2018 16:37:32
00063 suncat0204 pw.x -in pw.inp   Done                     12/26/2018 16:37:32