     Program PWSCF v.5.1rc2 (svn rev. 11289) starts on 30Dec2018 at 14:43:47

     Current dimensions of program PWSCF are:
     Max number of different atomic species (ntypx) = 10
     Max number of k-points (npk) =  40000
     Max angular momentum in pseudopotentials (lmaxx) =  3
     Presently stress not available with electric field

     IMPORTANT: XC functional enforced from input :
     Exchange-correlation      = BEEF-VDW ( 1  4 27 13 2)
     Any further DFT definition will be discarded
     Please, verify this is what you really want

     Subspace diagonalization in iterative solution of the eigenvalue problem:
     a serial algorithm will be used

     Generating pointlists ...
     new r_m :   0.4125 (alat units)  0.7795 (a.u.) for type    1
     new r_m :   0.4125 (alat units)  0.7795 (a.u.) for type    2

     bravais-lattice index     =            0
     lattice parameter (alat)  =       1.8897  a.u.
     unit-cell volume          =    4532.4690 (a.u.)^3
     number of atoms/cell      =           12
     number of atomic types    =            2
     number of electrons       =       171.00
     number of Kohn-Sham states=          115
     kinetic-energy cutoff     =      36.7493  Ry
     charge density cutoff     =     367.4932  Ry
     convergence threshold     =      1.0E-06
     mixing beta               =       0.1000
     number of iterations used =           10  plain     mixing
     Exchange-correlation      = BEEF-VDW ( 1  4 27 13 2)
     nstep                     =           50

     celldm(1)=   1.889726  celldm(2)=   0.000000  celldm(3)=   0.000000
     celldm(4)=   0.000000  celldm(5)=   0.000000  celldm(6)=   0.000000

     crystal axes: (cart. coord. in units of alat)
               a(1) = (   5.616446   0.000000   0.000000 )
               a(2) = (  -2.808223   4.863985   0.000000 )
               a(3) = (   0.000000   0.000000  24.585809 )

     reciprocal axes: (cart. coord. in units 2 pi/alat)
               b(1) = (  0.178049  0.102796  0.000000 )
               b(2) = (  0.000000  0.205593  0.000000 )
               b(3) = (  0.000000  0.000000  0.040674 )

     PseudoPot. # 1 for Mn read from file:
     /afs/slac.stanford.edu/u/if/mamunm/psp/gbrv1.5pbe/Mn.UPF
     MD5 check sum: 82ef2b46521d7a7d9e736dc3972e4928
     Pseudo is Ultrasoft + core correction, Zval = 15.0
     Generated by new atomic code, or converted to UPF format
     Using radial grid of  859 points,  6 beta functions with:
                l(1) =   0
                l(2) =   0
                l(3) =   1
                l(4) =   1
                l(5) =   2
                l(6) =   2
     Q(r) pseudized with  8 coefficients,  rinner =    0.950   0.950   0.950
                                                       0.950   0.950

     PseudoPot. # 2 for Hg read from file:
     /afs/slac.stanford.edu/u/if/mamunm/psp/gbrv1.5pbe/Hg.UPF
     MD5 check sum: 8f42caffe07f7fd9c0a564347f8c5498
     Pseudo is Ultrasoft + core correction, Zval = 12.0
     Generated by new atomic code, or converted to UPF format
     Using radial grid of  985 points,  6 beta functions with:
                l(1) =   0
                l(2) =   0
                l(3) =   1
                l(4) =   1
                l(5) =   2
                l(6) =   2
     Q(r) pseudized with  8 coefficients,  rinner =    2.000   2.000   2.000
                                                       2.000   2.000

     vdW kernel table read from file vdW_kernel_table
     MD5 check sum: 095c7af220d748ca6e76c0b4c6cfb241

     atomic species   valence    mass     pseudopotential
        Mn1           15.00    54.93804     Mn( 1.00)
        Hg1           12.00   200.59200     Hg( 1.00)

     Starting magnetic structure
     atomic species   magnetization
        Mn1          0.133
        Hg1          0.167

     No symmetry found

   Cartesian axes

     site n.     atom                  positions (alat units)
         1           Mn1 tau(   1) = (   0.0000000   0.0000000  10.0000000  )
         2           Mn1 tau(   2) = (  -1.4041114   2.4319923  10.0000000  )
         3           Mn1 tau(   3) = (   1.4041114   2.4319923  10.0000000  )
         4           Hg1 tau(   4) = (   2.8082228   0.0000000  10.0000000  )
         5           Mn1 tau(   5) = (   2.8082228   1.6213282  12.2929043  )
         6           Mn1 tau(   6) = (   1.4041114   4.0533205  12.2929043  )
         7           Mn1 tau(   7) = (  -1.4041114   4.0533205  12.2929043  )
         8           Hg1 tau(   8) = (   0.0000000   1.6213282  12.2929043  )
         9           Mn1 tau(   9) = (  -0.0000000   3.2426564  14.5858086  )
        10           Mn1 tau(  10) = (   1.4041114   0.8106641  14.5858086  )
        11           Mn1 tau(  11) = (   4.2123342   0.8106641  14.5858086  )
        12           Hg1 tau(  12) = (   2.8082228   3.2426564  14.5858086  )

     number of k points=    40  Fermi-Dirac smearing, width (Ry)=  0.0110
                       cart. coord. in units 2pi/alat
        k(    1) = (   0.0000000   0.0000000   0.0000000), wk =   0.0277778
        k(    2) = (   0.0000000   0.0342655   0.0000000), wk =   0.0555556
        k(    3) = (   0.0000000   0.0685309   0.0000000), wk =   0.0555556
        k(    4) = (   0.0000000  -0.1027964   0.0000000), wk =   0.0277778
        k(    5) = (   0.0296748   0.0171327   0.0000000), wk =   0.0555556
        k(    6) = (   0.0296748   0.0513982   0.0000000), wk =   0.0555556
        k(    7) = (   0.0296748   0.0856636   0.0000000), wk =   0.0555556
        k(    8) = (   0.0296748  -0.0856636   0.0000000), wk =   0.0555556
        k(    9) = (   0.0296748  -0.0513982   0.0000000), wk =   0.0555556
        k(   10) = (   0.0296748  -0.0171327   0.0000000), wk =   0.0555556
        k(   11) = (   0.0593495   0.0342655   0.0000000), wk =   0.0555556
        k(   12) = (   0.0593495   0.0685309   0.0000000), wk =   0.0555556
        k(   13) = (   0.0593495   0.1027964   0.0000000), wk =   0.0555556
        k(   14) = (   0.0593495  -0.0685309   0.0000000), wk =   0.0555556
        k(   15) = (   0.0593495  -0.0342655   0.0000000), wk =   0.0555556
        k(   16) = (   0.0593495   0.0000000   0.0000000), wk =   0.0555556
        k(   17) = (  -0.0890243  -0.0513982   0.0000000), wk =   0.0277778
        k(   18) = (  -0.0890243  -0.0171327   0.0000000), wk =   0.0555556
        k(   19) = (  -0.0890243   0.0171327   0.0000000), wk =   0.0555556
        k(   20) = (  -0.0890243  -0.1541946   0.0000000), wk =   0.0277778
        k(   21) = (   0.0000000   0.0000000   0.0000000), wk =   0.0277778
        k(   22) = (   0.0000000   0.0342655   0.0000000), wk =   0.0555556
        k(   23) = (   0.0000000   0.0685309   0.0000000), wk =   0.0555556
        k(   24) = (   0.0000000  -0.1027964   0.0000000), wk =   0.0277778
        k(   25) = (   0.0296748   0.0171327   0.0000000), wk =   0.0555556
        k(   26) = (   0.0296748   0.0513982   0.0000000), wk =   0.0555556
        k(   27) = (   0.0296748   0.0856636   0.0000000), wk =   0.0555556
        k(   28) = (   0.0296748  -0.0856636   0.0000000), wk =   0.0555556
        k(   29) = (   0.0296748  -0.0513982   0.0000000), wk =   0.0555556
        k(   30) = (   0.0296748  -0.0171327   0.0000000), wk =   0.0555556
        k(   31) = (   0.0593495   0.0342655   0.0000000), wk =   0.0555556
        k(   32) = (   0.0593495   0.0685309   0.0000000), wk =   0.0555556
        k(   33) = (   0.0593495   0.1027964   0.0000000), wk =   0.0555556
        k(   34) = (   0.0593495  -0.0685309   0.0000000), wk =   0.0555556
        k(   35) = (   0.0593495  -0.0342655   0.0000000), wk =   0.0555556
        k(   36) = (   0.0593495   0.0000000   0.0000000), wk =   0.0555556
        k(   37) = (  -0.0890243  -0.0513982   0.0000000), wk =   0.0277778
        k(   38) = (  -0.0890243  -0.0171327   0.0000000), wk =   0.0555556
        k(   39) = (  -0.0890243   0.0171327   0.0000000), wk =   0.0555556
        k(   40) = (  -0.0890243  -0.1541946   0.0000000), wk =   0.0277778

     Largest allocated arrays     est. size (Mb)     dimensions
     Largest temporary arrays     est. size (Mb)     dimensions

     Check: negative/imaginary core charge=   -0.000007    0.000000

     Initial potential from superposition of free atoms
     Check: negative starting charge=(component1):   -0.001624
     Check: negative starting charge=(component2):   -0.001244

     starting charge  166.49906, renormalised to  171.00000

     negative rho (up, down):  1.668E-03 1.277E-03

     *
     * You are using vdW-DF for exchange-correlation in this calculation.
     * Please cite the following three references that made this development
     * possible:
     *
     *   M. Dion, H. Rydberg, E. Schroder, D. C. Langreth, and
     *   B. I. Lundqvist, Phys. Rev. Lett. 92, 246401 (2004).
     *
     *   T. Thonhauser, V. R. Cooper, S. Li, A. Puzder, P. Hyldgaard, and
     *   D. C. Langreth, Phys. Rev. B 76, 125112 (2007).
     *
     *   G. Roman-Perez and J. M. Soler, Phys. Rev. Lett. 103, 096102 (2009).
     *
     *
     * If you are using vdW-DF2, please also cite:
     *
     *   K. Lee, E. D. Murray, L. Kong, B. I. Lundqvist, and
     *   D. C. Langreth, Phys. Rev. B 82, 081101(R) (2010).
     *
     *
     * If you are calculating the stress with vdW-DF, please also cite:
     *
     *   R. Sabatini, E. Kucukbenli, B. Kolb, T. Thonhauser, and
     *   S. de Gironcoli, J. Phys.: Condens. Matter 24, 424209 (2012).
     *

     Carrying out vdW-DF run using the following parameters:

     Nqs =      20    Nr_points =    1024   r_max =   100.000
     q_mesh =
               0.00001000     0.04494208     0.09755937     0.15916263
               0.23128650     0.31572767     0.41458969     0.53033537
               0.66584808     0.82450364     1.01025438     1.22772762
               1.48234092     1.78043706     2.12944203     2.53805004
               3.01644009     3.57652955     4.23227104     5.00000000

     Gradients computed in reciprocal space

     Adding external electric field

     Computed dipole along edir(3) :
        Dipole                0.0000 Ry au,          0.0000 Debye
        Dipole field          0.0000 Ry au

        Potential amp.       -0.0000 Ry
        Total length         45.2989 bohr

[...]

     Starting wfc are  144 randomized atomic wfcs

     Self-consistent Calculation

     iteration #  1     ecut=    36.75 Ry     beta=0.10
     Davidson diagonalization with overlap
     ethr =  1.00E-02,  avg # of iterations =  5.0

[...]

     Magnetic moment per site:
     atom:    1    charge:    6.0689    magn:    0.8085    constr:    0.0000
     atom:    2    charge:    6.0689    magn:    0.8085    constr:    0.0000
     atom:    3    charge:    6.0689    magn:    0.8085    constr:    0.0000
     atom:    4    charge:    1.9747    magn:    0.3038    constr:    0.0000
     atom:    5    charge:    6.0712    magn:    0.8016    constr:    0.0000
     atom:    6    charge:    6.0712    magn:    0.8016    constr:    0.0000
     atom:    7    charge:    6.0712    magn:    0.8016    constr:    0.0000
     atom:    8    charge:    1.9758    magn:    0.3040    constr:    0.0000
[...]
        k(    2) = (   0.0000000   0.0342655   0.0000000), wk =   0.0555556
        k(    3) = (   0.0000000   0.0685309   0.0000000), wk =   0.0555556
        k(    4) = (   0.0000000  -0.1027964   0.0000000), wk =   0.0277778
        k(    5) = (   0.0296748   0.0171327   0.0000000), wk =   0.0555556
        k(    6) = (   0.0296748   0.0513982   0.0000000), wk =   0.0555556
        k(    7) = (   0.0296748   0.0856636   0.0000000), wk =   0.0555556
        k(    8) = (   0.0296748  -0.0856636   0.0000000), wk =   0.0555556
        k(    9) = (   0.0296748  -0.0513982   0.0000000), wk =   0.0555556
        k(   10) = (   0.0296748  -0.0171327   0.0000000), wk =   0.0555556
        k(   11) = (   0.0593495   0.0342655   0.0000000), wk =   0.0555556
        k(   12) = (   0.0593495   0.0685309   0.0000000), wk =   0.0555556
        k(   13) = (   0.0593495   0.1027964   0.0000000), wk =   0.0555556
        k(   14) = (   0.0593495  -0.0685309   0.0000000), wk =   0.0555556
        k(   15) = (   0.0593495  -0.0342655   0.0000000), wk =   0.0555556
        k(   16) = (   0.0593495   0.0000000   0.0000000), wk =   0.0555556
        k(   17) = (  -0.0890243  -0.0513982   0.0000000), wk =   0.0277778
        k(   18) = (  -0.0890243  -0.0171327   0.0000000), wk =   0.0555556
        k(   19) = (  -0.0890243   0.0171327   0.0000000), wk =   0.0555556
        k(   20) = (  -0.0890243  -0.1541946   0.0000000), wk =   0.0277778
        k(   21) = (   0.0000000   0.0000000   0.0000000), wk =   0.0277778
        k(   22) = (   0.0000000   0.0342655   0.0000000), wk =   0.0555556
        k(   23) = (   0.0000000   0.0685309   0.0000000), wk =   0.0555556
        k(   24) = (   0.0000000  -0.1027964   0.0000000), wk =   0.0277778
        k(   25) = (   0.0296748   0.0171327   0.0000000), wk =   0.0555556
        k(   26) = (   0.0296748   0.0513982   0.0000000), wk =   0.0555556
        k(   27) = (   0.0296748   0.0856636   0.0000000), wk =   0.0555556
        k(   28) = (   0.0296748  -0.0856636   0.0000000), wk =   0.0555556
        k(   29) = (   0.0296748  -0.0513982   0.0000000), wk =   0.0555556
        k(   30) = (   0.0296748  -0.0171327   0.0000000), wk =   0.0555556
        k(   31) = (   0.0593495   0.0342655   0.0000000), wk =   0.0555556
        k(   32) = (   0.0593495   0.0685309   0.0000000), wk =   0.0555556
        k(   33) = (   0.0593495   0.1027964   0.0000000), wk =   0.0555556
        k(   34) = (   0.0593495  -0.0685309   0.0000000), wk =   0.0555556
        k(   35) = (   0.0593495  -0.0342655   0.0000000), wk =   0.0555556
        k(   36) = (   0.0593495   0.0000000   0.0000000), wk =   0.0555556
        k(   37) = (  -0.0890243  -0.0513982   0.0000000), wk =   0.0277778
        k(   38) = (  -0.0890243  -0.0171327   0.0000000), wk =   0.0555556
        k(   39) = (  -0.0890243   0.0171327   0.0000000), wk =   0.0555556
        k(   40) = (  -0.0890243  -0.1541946   0.0000000), wk =   0.0277778

     Largest allocated arrays     est. size (Mb)     dimensions
     Largest temporary arrays     est. size (Mb)     dimensions

     Check: negative/imaginary core charge=   -0.000007    0.000000

     Initial potential from superposition of free atoms
     Check: negative starting charge=(component1):   -0.001591
     Check: negative starting charge=(component2):   -0.001218

     starting charge  166.49906, renormalised to  171.00000

[...]

     *
     * You are using vdW-DF for exchange-correlation in this calculation.
     * Please cite the following three references that made this development
     * possible:
     *
     *   M. Dion, H. Rydberg, E. Schroder, D. C. Langreth, and
     *   B. I. Lundqvist, Phys. Rev. Lett. 92, 246401 (2004).
     *
     *   T. Thonhauser, V. R. Cooper, S. Li, A. Puzder, P. Hyldgaard, and
     *   D. C. Langreth, Phys. Rev. B 76, 125112 (2007).
     *
     *   G. Roman-Perez and J. M. Soler, Phys. Rev. Lett. 103, 096102 (2009).
     *
     *
     * If you are using vdW-DF2, please also cite:
     *
     *   K. Lee, E. D. Murray, L. Kong, B. I. Lundqvist, and
     *   D. C. Langreth, Phys. Rev. B 82, 081101(R) (2010).
     *
     *
     * If you are calculating the stress with vdW-DF, please also cite:
     *
     *   R. Sabatini, E. Kucukbenli, B. Kolb, T. Thonhauser, and
     *   S. de Gironcoli, J. Phys.: Condens. Matter 24, 424209 (2012).
     *

     Carrying out vdW-DF run using the following parameters:

     Nqs =      20    Nr_points =    1024   r_max =   100.000
     q_mesh =
               0.00001000     0.04494208     0.09755937     0.15916263
               0.23128650     0.31572767     0.41458969     0.53033537
               0.66584808     0.82450364     1.01025438     1.22772762
               1.48234092     1.78043706     2.12944203     2.53805004
               3.01644009     3.57652955     4.23227104     5.00000000

     Gradients computed in reciprocal space

[...]

     Starting wfc are  144 randomized atomic wfcs

     Self-consistent Calculation

[...]

     total energy              =   -2236.06684415 Ry
     Harris-Foulkes estimate   =   -2236.06684111 Ry
     estimated scf accuracy    <       0.00000103 Ry

[...]

     iteration # 26     ecut=    36.75 Ry     beta=0.10
     Davidson diagonalization with overlap
     ethr =  6.04E-10,  avg # of iterations =  2.1

[...]

     negative rho (up, down):  1.907E-03 1.951E-03

[...]

     Adding external electric field

     Computed dipole along edir(3) :
        Dipole               -0.0261 Ry au,         -0.0664 Debye
        Dipole field         -0.0001 Ry au

        Potential amp.        0.0066 Ry
        Total length         45.2989 bohr

     Magnetic moment per site:
     atom:    1    charge:    6.0117    magn:    1.4970    constr:    0.0000
     atom:    2    charge:    6.0117    magn:    1.4970    constr:    0.0000
     atom:    3    charge:    6.0117    magn:    1.4970    constr:    0.0000
     atom:    4    charge:    1.9923    magn:    0.0191    constr:    0.0000
     atom:    5    charge:    6.0057    magn:    1.4223    constr:    0.0000
     atom:    6    charge:    6.0057    magn:    1.4223    constr:    0.0000
     atom:    7    charge:    6.0057    magn:    1.4223    constr:    0.0000
     atom:    8    charge:    1.9978    magn:    0.0205    constr:    0.0000
     atom:    9    charge:    6.0160    magn:    1.5064    constr:    0.0000
     atom:   10    charge:    6.0160    magn:    1.5064    constr:    0.0000
     atom:   11    charge:    6.0159    magn:    1.5064    constr:    0.0000
     atom:   12    charge:    1.9887    magn:    0.0160    constr:    0.0000

     End of self-consistent calculation

 ------ SPIN UP ------------

[...]

 ------ SPIN DOWN ----------

[...]

          k = 0.0593 0.0000 0.0000 ( 17028 PWs)   bands (ev):

[...]

          k =-0.0890-0.1542 0.0000 ( 17080 PWs)   bands (ev):

   -76.0222 -76.0206 -76.0149 -76.0147 -76.0095 -76.0090 -75.9179 -75.9123
   -75.9067 -44.8893 -44.8873 -44.8481 -44.8475 -44.8458 -44.8387 -44.8385
   -44.8319 -44.8252 -44.8243 -44.8216 -44.8192 -44.8181 -44.8077 -44.8077
   -44.7941 -44.7808 -44.7562 -44.7512 -44.7382 -44.7319 -44.7292 -44.7224
   -44.6981 -44.6702 -44.6601 -44.6301  -6.9387  -6.8475  -6.8327  -6.8091
    -6.7834  -6.6879  -6.5567  -6.5542  -6.4835  -6.4703  -6.4061  -6.3783
    -6.2713  -6.2517  -6.1649  -5.5426  -5.1982  -4.3019  -3.0495  -1.9650
    -1.6705  -1.6037  -0.4093  -0.2908  -0.1406   0.1091   0.3820   0.3994
     0.4967   0.6850   0.7987   0.8297   0.9463   1.0659   1.1568   1.2857
     1.2919   1.3440   1.5675   1.5975   1.6050   1.7309   1.8807   1.9592
     2.0076   2.0682   2.1720   2.2128   2.3360   2.6615   2.6902   2.7321
     2.7371   2.7543   2.8029   2.8048   2.8176   2.9450   2.9521   3.0684
     3.2080   3.3005   3.3982   3.4630   3.4845   3.4900   3.7585   3.8799
     4.4637   4.5044   4.5258   4.8166   5.0837   5.4215   5.9305   5.9696
     6.4927   6.5363   6.8845

     the Fermi energy is     0.9318 ev

!    total energy              =   -2236.06685611 Ry
     Harris-Foulkes estimate   =   -2236.06684440 Ry
     estimated scf accuracy    <       0.00000059 Ry

     The total energy is the sum of the following terms:

     one-electron contribution =  -16339.56474102 Ry
     hartree contribution      =    8189.27913566 Ry
     xc contribution           =    -370.55839859 Ry
     ewald contribution        =    6284.84384539 Ry
     electric field correction =       0.00000189 Ry
     smearing contrib. (-TS)   =      -0.06669944 Ry

     total magnetization       =    34.38 Bohr mag/cell
     absolute magnetization    =    35.59 Bohr mag/cell

     convergence has been achieved in  26 iterations

 BEEF-vdW xc energy contributions
           1 :   -324.081185226790
           2 :    294.378645149677
           3 :   -244.669845594851
           4 :    189.136043417386
           5 :   -139.912505687844
           6 :    103.167683943773
           7 :   -79.0416067326835
           8 :    64.0646139413512
           9 :   -53.9555836471691
          10 :    45.4541021102052
          11 :   -36.9232980664076
          12 :    28.1221519831743
          13 :   -19.6810195848009
          14 :    12.5490350826464
          15 :   -7.44769320987552
          16 :    4.42856173556117
          17 :   -2.80924226659926
          18 :    1.60896725919531
          19 :  -0.191088966221912
          20 :   -1.39817490049575
          21 :    2.64110201973858
          22 :   -3.09608727427911
          23 :    2.81948480928662
          24 :   -2.34495251131699
          25 :    2.26858553064210
          26 :   -2.79802150031293
          27 :    3.62566923026765
          28 :   -4.20218623620178
          29 :    4.16062902386460
          30 :   -3.56119606377075
          31 :   -29.3765755892078
          32 :   -21.0355805471035

     Forces acting on atoms (Ry/au):

     negative rho (up, down):  1.907E-03 1.951E-03
     atom    1 type  1   force =     0.00000396   -0.00590858   -0.00626357
     atom    2 type  1   force =    -0.00511640    0.00295588   -0.00626292
     atom    3 type  1   force =     0.00511844    0.00295263   -0.00625916
     atom    4 type  2   force =    -0.00000841    0.00000057   -0.03069281
     atom    5 type  1   force =     0.00000102    0.00547974    0.01131059
     atom    6 type  1   force =     0.00474541   -0.00273990    0.01129461
     atom    7 type  1   force =    -0.00474748   -0.00274226    0.01130821
     atom    8 type  2   force =    -0.00000117    0.00000030    0.01546557
     atom    9 type  1   force =    -0.00006689   -0.00099873    0.00009913
     atom   10 type  1   force =    -0.00083007    0.00049012    0.00009461
     atom   11 type  1   force =     0.00082524    0.00056508    0.00009576
     atom   12 type  2   force =     0.00007635   -0.00005486   -0.00019003

     Total force =     0.043360     Total SCF correction =     0.002084

     entering subroutine stress ...

     negative rho (up, down):  1.907E-03 1.951E-03
          total   stress  (Ry/bohr**3)                   (kbar)     P=    4.54
   0.00002807   0.00000000   0.00000001          4.13      0.00      0.00
   0.00000000   0.00002808  -0.00000001          0.00      4.13     -0.00
   0.00000001  -0.00000001   0.00003644          0.00     -0.00      5.36

 !ASE

     Writing output data file calc.save

     General routines

     Parallel routines

   This run was terminated on:  19:36:11  30Dec2018

   JOB DONE.
Job  /afs/slac/g/suncat/bin/suncat-tsmpirun -x LD_LIBRARY_PATH -wdir /scratch/qe648578_TJSe2 pw.x -in pw.inp

TID   HOST_NAME   COMMAND_LINE            STATUS            TERMINATION_TIME
00000 suncat0074 pw.x -in pw.inp   Done                     12/30/2018 19:36:11
00001 suncat0074 pw.x -in pw.inp   Done                     12/30/2018 19:36:11
00002 suncat0074 pw.x -in pw.inp   Done                     12/30/2018 19:36:11
00003 suncat0074 pw.x -in pw.inp   Done                     12/30/2018 19:36:11
00004 suncat0074 pw.x -in pw.inp   Done                     12/30/2018 19:36:11
00005 suncat0074 pw.x -in pw.inp   Done                     12/30/2018 19:36:11
00006 suncat0074 pw.x -in pw.inp   Done                     12/30/2018 19:36:11
00007 suncat0074 pw.x -in pw.inp   Done                     12/30/2018 19:36:11
00008 suncat0073 pw.x -in pw.inp   Done                     12/30/2018 19:36:11
00009 suncat0073 pw.x -in pw.inp   Done                     12/30/2018 19:36:11
00010 suncat0073 pw.x -in pw.inp   Done                     12/30/2018 19:36:11
00011 suncat0073 pw.x -in pw.inp   Done                     12/30/2018 19:36:11
00012 suncat0073 pw.x -in pw.inp   Done                     12/30/2018 19:36:11
00013 suncat0073 pw.x -in pw.inp   Done                     12/30/2018 19:36:11
00014 suncat0073 pw.x -in pw.inp   Done                     12/30/2018 19:36:11
00015 suncat0073 pw.x -in pw.inp   Done                     12/30/2018 19:36:11
00016 suncat0065 pw.x -in pw.inp   Done                     12/30/2018 19:36:11
00017 suncat0065 pw.x -in pw.inp   Done                     12/30/2018 19:36:11
00018 suncat0065 pw.x -in pw.inp   Done                     12/30/2018 19:36:11
00019 suncat0065 pw.x -in pw.inp   Done                     12/30/2018 19:36:11
00020 suncat0065 pw.x -in pw.inp   Done                     12/30/2018 19:36:11
00021 suncat0065 pw.x -in pw.inp   Done                     12/30/2018 19:36:11
00022 suncat0065 pw.x -in pw.inp   Done                     12/30/2018 19:36:11
00023 suncat0065 pw.x -in pw.inp   Done                     12/30/2018 19:36:11
00024 suncat0064 pw.x -in pw.inp   Done                     12/30/2018 19:36:11
00025 suncat0064 pw.x -in pw.inp   Done                     12/30/2018 19:36:11
00026 suncat0064 pw.x -in pw.inp   Done                     12/30/2018 19:36:11
00027 suncat0064 pw.x -in pw.inp   Done                     12/30/2018 19:36:11
00028 suncat0064 pw.x -in pw.inp   Done                     12/30/2018 19:36:11
00029 suncat0064 pw.x -in pw.inp   Done                     12/30/2018 19:36:11
00030 suncat0064 pw.x -in pw.inp   Done                     12/30/2018 19:36:11
00031 suncat0064 pw.x -in pw.inp   Done                     12/30/2018 19:36:11
00032 suncat0062 pw.x -in pw.inp   Done                     12/30/2018 19:36:11
00033 suncat0062 pw.x -in pw.inp   Done                     12/30/2018 19:36:11
00034 suncat0062 pw.x -in pw.inp   Done                     12/30/2018 19:36:11
00035 suncat0062 pw.x -in pw.inp   Done                     12/30/2018 19:36:11
00036 suncat0062 pw.x -in pw.inp   Done                     12/30/2018 19:36:11
00037 suncat0062 pw.x -in pw.inp   Done                     12/30/2018 19:36:11
00038 suncat0062 pw.x -in pw.inp   Done                     12/30/2018 19:36:11
00039 suncat0062 pw.x -in pw.inp   Done                     12/30/2018 19:36:11
00040 suncat0061 pw.x -in pw.inp   Done                     12/30/2018 19:36:11
00041 suncat0061 pw.x -in pw.inp   Done                     12/30/2018 19:36:11
00042 suncat0061 pw.x -in pw.inp   Done                     12/30/2018 19:36:11
00043 suncat0061 pw.x -in pw.inp   Done                     12/30/2018 19:36:11
00044 suncat0061 pw.x -in pw.inp   Done                     12/30/2018 19:36:11
00045 suncat0061 pw.x -in pw.inp   Done                     12/30/2018 19:36:11
00046 suncat0061 pw.x -in pw.inp   Done                     12/30/2018 19:36:11
00047 suncat0061 pw.x -in pw.inp   Done                     12/30/2018 19:36:11
00048 suncat0060 pw.x -in pw.inp   Done                     12/30/2018 19:36:11
00049 suncat0060 pw.x -in pw.inp   Done                     12/30/2018 19:36:11
00050 suncat0060 pw.x -in pw.inp   Done                     12/30/2018 19:36:11
00051 suncat0060 pw.x -in pw.inp   Done                     12/30/2018 19:36:11
00052 suncat0060 pw.x -in pw.inp   Done                     12/30/2018 19:36:11
00053 suncat0060 pw.x -in pw.inp   Done                     12/30/2018 19:36:11
00054 suncat0060 pw.x -in pw.inp   Done                     12/30/2018 19:36:11
00055 suncat0060 pw.x -in pw.inp   Done                     12/30/2018 19:36:11
00056 suncat0057 pw.x -in pw.inp   Done                     12/30/2018 19:36:11
00057 suncat0057 pw.x -in pw.inp   Done                     12/30/2018 19:36:11
00058 suncat0057 pw.x -in pw.inp   Done                     12/30/2018 19:36:11
00059 suncat0057 pw.x -in pw.inp   Done                     12/30/2018 19:36:11
00060 suncat0057 pw.x -in pw.inp   Done                     12/30/2018 19:36:11
00061 suncat0057 pw.x -in pw.inp   Done                     12/30/2018 19:36:11
00062 suncat0057 pw.x -in pw.inp   Done                     12/30/2018 19:36:11
00063 suncat0057 pw.x -in pw.inp   Done                     12/30/2018 19:36:11