     Program PWSCF v.5.1rc2 (svn rev. 11289) starts on 30Dec2018 at 21:41:24

     Current dimensions of program PWSCF are:
     Max number of different atomic species (ntypx) = 10
     Max number of k-points (npk) =  40000
     Max angular momentum in pseudopotentials (lmaxx) =  3
     Presently stress not available with electric field

     IMPORTANT: XC functional enforced from input :
     Exchange-correlation      = BEEF-VDW ( 1  4 27 13 2)
     Any further DFT definition will be discarded
     Please, verify this is what you really want

     Subspace diagonalization in iterative solution of the eigenvalue problem:
     a serial algorithm will be used

     Generating pointlists ...
     new r_m :   0.4125 (alat units)  0.7795 (a.u.) for type    1
     new r_m :   0.4125 (alat units)  0.7795 (a.u.) for type    2

     bravais-lattice index     =            0
     lattice parameter (alat)  =       1.8897  a.u.
     unit-cell volume          =    4913.4843 (a.u.)^3
     number of atoms/cell      =           12
     number of atomic types    =            2
     number of electrons       =       162.00
     number of Kohn-Sham states=          111
     kinetic-energy cutoff     =      36.7493  Ry
     charge density cutoff     =     367.4932  Ry
     convergence threshold     =      1.0E-06
     mixing beta               =       0.1000
     number of iterations used =           10  plain     mixing
     Exchange-correlation      = BEEF-VDW ( 1  4 27 13 2)
     nstep                     =           50

     celldm(1)=   1.889726  celldm(2)=   0.000000  celldm(3)=   0.000000
     celldm(4)=   0.000000  celldm(5)=   0.000000  celldm(6)=   0.000000

     crystal axes: (cart. coord. in units of alat)
               a(1) = (   5.827377   0.000000   0.000000 )
               a(2) = (  -2.913688   5.046656   0.000000 )
               a(3) = (   0.000000   0.000000  24.758033 )

     reciprocal axes: (cart. coord. in units 2 pi/alat)
               b(1) = (  0.171604  0.099075  0.000000 )
               b(2) = (  0.000000  0.198151  0.000000 )
               b(3) = (  0.000000  0.000000  0.040391 )

     PseudoPot. # 1 for Nb read from file:
     /afs/slac.stanford.edu/u/if/mamunm/psp/gbrv1.5pbe/Nb.UPF
     MD5 check sum: 573aab8a2fa660278ed4a62cd769473f
     Pseudo is Ultrasoft + core correction, Zval = 13.0
     Generated by new atomic code, or converted to UPF format
     Using radial grid of  887 points,  6 beta functions with:
                l(1) =   0
                l(2) =   0
                l(3) =   1
                l(4) =   1
                l(5) =   2
                l(6) =   2
     Q(r) pseudized with  6 coefficients,  rinner =    1.000   1.000   1.000
                                                       1.000   1.000

     PseudoPot. # 2 for Mn read from file:
     /afs/slac.stanford.edu/u/if/mamunm/psp/gbrv1.5pbe/Mn.UPF
     MD5 check sum: 82ef2b46521d7a7d9e736dc3972e4928
     Pseudo is Ultrasoft + core correction, Zval = 15.0
     Generated by new atomic code, or converted to UPF format
     Using radial grid of  859 points,  6 beta functions with:
                l(1) =   0
                l(2) =   0
                l(3) =   1
                l(4) =   1
                l(5) =   2
                l(6) =   2
     Q(r) pseudized with  8 coefficients,  rinner =    0.950   0.950   0.950
                                                       0.950   0.950

     vdW kernel table read from file vdW_kernel_table
     MD5 check sum: 095c7af220d748ca6e76c0b4c6cfb241

     atomic species   valence    mass     pseudopotential
        Nb1           13.00    92.90637     Nb( 1.00)
        Mn1           15.00    54.93804     Mn( 1.00)

     Starting magnetic structure
     atomic species   magnetization
        Nb1          0.154
        Mn1          0.133

     No symmetry found

   Cartesian axes

     site n.     atom                  positions (alat units)
         1           Nb1 tau(   1) = (   0.0000000   0.0000000  10.0000000  )
         2           Nb1 tau(   2) = (  -1.4568442   2.5233282  10.0000000  )
         3           Nb1 tau(   3) = (   1.4568442   2.5233282  10.0000000  )
         4           Mn1 tau(   4) = (   2.9136884   0.0000000  10.0000000  )
         5           Nb1 tau(   5) = (   2.9136884   1.6822188  12.3790166  )
         6           Nb1 tau(   6) = (   1.4568442   4.2055470  12.3790166  )
         7           Nb1 tau(   7) = (  -1.4568442   4.2055470  12.3790166  )
         8           Mn1 tau(   8) = (   0.0000000   1.6822188  12.3790166  )
         9           Nb1 tau(   9) = (  -0.0000000   3.3644376  14.7580332  )
        10           Nb1 tau(  10) = (   1.4568442   0.8411094  14.7580332  )
        11           Nb1 tau(  11) = (   4.3705326   0.8411094  14.7580332  )
        12           Mn1 tau(  12) = (   2.9136884   3.3644376  14.7580332  )

     number of k points=    40  Fermi-Dirac smearing, width (Ry)=  0.0110
                       cart. coord. in units 2pi/alat
        k(    1) = (   0.0000000   0.0000000   0.0000000), wk =   0.0277778
        k(    2) = (   0.0000000   0.0330252   0.0000000), wk =   0.0555556
        k(    3) = (   0.0000000   0.0660503   0.0000000), wk =   0.0555556
        k(    4) = (   0.0000000  -0.0990755   0.0000000), wk =   0.0277778
        k(    5) = (   0.0286006   0.0165126   0.0000000), wk =   0.0555556
        k(    6) = (   0.0286006   0.0495377   0.0000000), wk =   0.0555556
        k(    7) = (   0.0286006   0.0825629   0.0000000), wk =   0.0555556
        k(    8) = (   0.0286006  -0.0825629   0.0000000), wk =   0.0555556
        k(    9) = (   0.0286006  -0.0495377   0.0000000), wk =   0.0555556
        k(   10) = (   0.0286006  -0.0165126   0.0000000), wk =   0.0555556
        k(   11) = (   0.0572013   0.0330252   0.0000000), wk =   0.0555556
        k(   12) = (   0.0572013   0.0660503   0.0000000), wk =   0.0555556
        k(   13) = (   0.0572013   0.0990755   0.0000000), wk =   0.0555556
        k(   14) = (   0.0572013  -0.0660503   0.0000000), wk =   0.0555556
        k(   15) = (   0.0572013  -0.0330252   0.0000000), wk =   0.0555556
        k(   16) = (   0.0572013   0.0000000   0.0000000), wk =   0.0555556
        k(   17) = (  -0.0858019  -0.0495377   0.0000000), wk =   0.0277778
        k(   18) = (  -0.0858019  -0.0165126   0.0000000), wk =   0.0555556
        k(   19) = (  -0.0858019   0.0165126   0.0000000), wk =   0.0555556
        k(   20) = (  -0.0858019  -0.1486132   0.0000000), wk =   0.0277778
        k(   21) = (   0.0000000   0.0000000   0.0000000), wk =   0.0277778
        k(   22) = (   0.0000000   0.0330252   0.0000000), wk =   0.0555556
        k(   23) = (   0.0000000   0.0660503   0.0000000), wk =   0.0555556
        k(   24) = (   0.0000000  -0.0990755   0.0000000), wk =   0.0277778
        k(   25) = (   0.0286006   0.0165126   0.0000000), wk =   0.0555556
        k(   26) = (   0.0286006   0.0495377   0.0000000), wk =   0.0555556
        k(   27) = (   0.0286006   0.0825629   0.0000000), wk =   0.0555556
        k(   28) = (   0.0286006  -0.0825629   0.0000000), wk =   0.0555556
        k(   29) = (   0.0286006  -0.0495377   0.0000000), wk =   0.0555556
        k(   30) = (   0.0286006  -0.0165126   0.0000000), wk =   0.0555556
        k(   31) = (   0.0572013   0.0330252   0.0000000), wk =   0.0555556
        k(   32) = (   0.0572013   0.0660503   0.0000000), wk =   0.0555556
        k(   33) = (   0.0572013   0.0990755   0.0000000), wk =   0.0555556
        k(   34) = (   0.0572013  -0.0660503   0.0000000), wk =   0.0555556
        k(   35) = (   0.0572013  -0.0330252   0.0000000), wk =   0.0555556
        k(   36) = (   0.0572013   0.0000000   0.0000000), wk =   0.0555556
        k(   37) = (  -0.0858019  -0.0495377   0.0000000), wk =   0.0277778
        k(   38) = (  -0.0858019  -0.0165126   0.0000000), wk =   0.0555556
        k(   39) = (  -0.0858019   0.0165126   0.0000000), wk =   0.0555556
        k(   40) = (  -0.0858019  -0.1486132   0.0000000), wk =   0.0277778

     Largest allocated arrays     est. size (Mb)     dimensions
     Largest temporary arrays     est. size (Mb)     dimensions

     Check: negative/imaginary core charge=   -0.000003    0.000000

     Initial potential from superposition of free atoms
     Check: negative starting charge=(component1):   -0.002793
     Check: negative starting charge=(component2):   -0.002056

     starting charge  160.47515, renormalised to  162.00000

     negative rho (up, down):  2.820E-03 2.076E-03

     *
     * You are using vdW-DF for exchange-correlation in this calculation.
     * Please cite the following three references that made this development
     * possible:
     *
     *   M. Dion, H. Rydberg, E. Schroder, D. C. Langreth, and
     *   B. I. Lundqvist, Phys. Rev. Lett. 92, 246401 (2004).
     *
     *   T. Thonhauser, V. R. Cooper, S. Li, A. Puzder, P. Hyldgaard, and
     *   D. C. Langreth, Phys. Rev. B 76, 125112 (2007).
     *
     *   G. Roman-Perez and J. M. Soler, Phys. Rev. Lett. 103, 096102 (2009).
     *
     *
     * If you are using vdW-DF2, please also cite:
     *
     *   K. Lee, E. D. Murray, L. Kong, B. I. Lundqvist, and
     *   D. C. Langreth, Phys. Rev. B 82, 081101(R) (2010).
     *
     *
     * If you are calculating the stress with vdW-DF, please also cite:
     *
     *   R. Sabatini, E. Kucukbenli, B. Kolb, T. Thonhauser, and
     *   S. de Gironcoli, J. Phys.: Condens. Matter 24, 424209 (2012).
     *

     Carrying out vdW-DF run using the following parameters:

     Nqs =      20    Nr_points =    1024   r_max =   100.000
     q_mesh =
               0.00001000     0.04494208     0.09755937     0.15916263
               0.23128650     0.31572767     0.41458969     0.53033537
               0.66584808     0.82450364     1.01025438     1.22772762
               1.48234092     1.78043706     2.12944203     2.53805004
               3.01644009     3.57652955     4.23227104     5.00000000

     Gradients computed in reciprocal space

     Adding external electric field

     Computed dipole along edir(3) :
        Dipole                0.0000 Ry au,          0.0000 Debye
        Dipole field          0.0000 Ry au

        Potential amp.       -0.0000 Ry
        Total length         45.6163 bohr

[...]

     Starting wfc are  156 randomized atomic wfcs

     Self-consistent Calculation

     iteration #  1     ecut=    36.75 Ry     beta=0.10
     Davidson diagonalization with overlap
     ethr =  1.00E-02,  avg # of iterations =  2.0

[...]

     Magnetic moment per site:
     atom:    1    charge:    1.4773    magn:    0.2094    constr:    0.0000
     atom:    2    charge:    1.4773    magn:    0.2094    constr:    0.0000
     atom:    3    charge:    1.4773    magn:    0.2094    constr:    0.0000
     atom:    4    charge:    6.1043    magn:    0.7716    constr:    0.0000
     atom:    5    charge:    1.4844    magn:    0.2100    constr:    0.0000
     atom:    6    charge:    1.4844    magn:    0.2100    constr:    0.0000
     atom:    7    charge:    1.4844    magn:    0.2100    constr:    0.0000
     atom:    8    charge:    6.1052    magn:    0.7666    constr:    0.0000
[...]
        k(    2) = (   0.0000000   0.0330252   0.0000000), wk =   0.0555556
        k(    3) = (   0.0000000   0.0660503   0.0000000), wk =   0.0555556
        k(    4) = (   0.0000000  -0.0990755   0.0000000), wk =   0.0277778
        k(    5) = (   0.0286006   0.0165126   0.0000000), wk =   0.0555556
        k(    6) = (   0.0286006   0.0495377   0.0000000), wk =   0.0555556
        k(    7) = (   0.0286006   0.0825629   0.0000000), wk =   0.0555556
        k(    8) = (   0.0286006  -0.0825629   0.0000000), wk =   0.0555556
        k(    9) = (   0.0286006  -0.0495377   0.0000000), wk =   0.0555556
        k(   10) = (   0.0286006  -0.0165126   0.0000000), wk =   0.0555556
        k(   11) = (   0.0572013   0.0330252   0.0000000), wk =   0.0555556
        k(   12) = (   0.0572013   0.0660503   0.0000000), wk =   0.0555556
        k(   13) = (   0.0572013   0.0990755   0.0000000), wk =   0.0555556
        k(   14) = (   0.0572013  -0.0660503   0.0000000), wk =   0.0555556
        k(   15) = (   0.0572013  -0.0330252   0.0000000), wk =   0.0555556
        k(   16) = (   0.0572013   0.0000000   0.0000000), wk =   0.0555556
        k(   17) = (  -0.0858019  -0.0495377   0.0000000), wk =   0.0277778
        k(   18) = (  -0.0858019  -0.0165126   0.0000000), wk =   0.0555556
        k(   19) = (  -0.0858019   0.0165126   0.0000000), wk =   0.0555556
        k(   20) = (  -0.0858019  -0.1486132   0.0000000), wk =   0.0277778
        k(   21) = (   0.0000000   0.0000000   0.0000000), wk =   0.0277778
        k(   22) = (   0.0000000   0.0330252   0.0000000), wk =   0.0555556
        k(   23) = (   0.0000000   0.0660503   0.0000000), wk =   0.0555556
        k(   24) = (   0.0000000  -0.0990755   0.0000000), wk =   0.0277778
        k(   25) = (   0.0286006   0.0165126   0.0000000), wk =   0.0555556
        k(   26) = (   0.0286006   0.0495377   0.0000000), wk =   0.0555556
        k(   27) = (   0.0286006   0.0825629   0.0000000), wk =   0.0555556
        k(   28) = (   0.0286006  -0.0825629   0.0000000), wk =   0.0555556
        k(   29) = (   0.0286006  -0.0495377   0.0000000), wk =   0.0555556
        k(   30) = (   0.0286006  -0.0165126   0.0000000), wk =   0.0555556
        k(   31) = (   0.0572013   0.0330252   0.0000000), wk =   0.0555556
        k(   32) = (   0.0572013   0.0660503   0.0000000), wk =   0.0555556
        k(   33) = (   0.0572013   0.0990755   0.0000000), wk =   0.0555556
        k(   34) = (   0.0572013  -0.0660503   0.0000000), wk =   0.0555556
        k(   35) = (   0.0572013  -0.0330252   0.0000000), wk =   0.0555556
        k(   36) = (   0.0572013   0.0000000   0.0000000), wk =   0.0555556
        k(   37) = (  -0.0858019  -0.0495377   0.0000000), wk =   0.0277778
        k(   38) = (  -0.0858019  -0.0165126   0.0000000), wk =   0.0555556
        k(   39) = (  -0.0858019   0.0165126   0.0000000), wk =   0.0555556
        k(   40) = (  -0.0858019  -0.1486132   0.0000000), wk =   0.0277778

     Largest allocated arrays     est. size (Mb)     dimensions
     Largest temporary arrays     est. size (Mb)     dimensions

     Check: negative/imaginary core charge=   -0.000003    0.000000

     Initial potential from superposition of free atoms
     Check: negative starting charge=(component1):   -0.002803
     Check: negative starting charge=(component2):   -0.002063

     starting charge  160.47515, renormalised to  162.00000

[...]

     *
     * You are using vdW-DF for exchange-correlation in this calculation.
     * Please cite the following three references that made this development
     * possible:
     *
     *   M. Dion, H. Rydberg, E. Schroder, D. C. Langreth, and
     *   B. I. Lundqvist, Phys. Rev. Lett. 92, 246401 (2004).
     *
     *   T. Thonhauser, V. R. Cooper, S. Li, A. Puzder, P. Hyldgaard, and
     *   D. C. Langreth, Phys. Rev. B 76, 125112 (2007).
     *
     *   G. Roman-Perez and J. M. Soler, Phys. Rev. Lett. 103, 096102 (2009).
     *
     *
     * If you are using vdW-DF2, please also cite:
     *
     *   K. Lee, E. D. Murray, L. Kong, B. I. Lundqvist, and
     *   D. C. Langreth, Phys. Rev. B 82, 081101(R) (2010).
     *
     *
     * If you are calculating the stress with vdW-DF, please also cite:
     *
     *   R. Sabatini, E. Kucukbenli, B. Kolb, T. Thonhauser, and
     *   S. de Gironcoli, J. Phys.: Condens. Matter 24, 424209 (2012).
     *

     Carrying out vdW-DF run using the following parameters:

     Nqs =      20    Nr_points =    1024   r_max =   100.000
     q_mesh =
               0.00001000     0.04494208     0.09755937     0.15916263
               0.23128650     0.31572767     0.41458969     0.53033537
               0.66584808     0.82450364     1.01025438     1.22772762
               1.48234092     1.78043706     2.12944203     2.53805004
               3.01644009     3.57652955     4.23227104     5.00000000

     Gradients computed in reciprocal space

[...]

     Starting wfc are  156 randomized atomic wfcs

     Self-consistent Calculation

[...]

     total energy              =   -1702.90145565 Ry
     Harris-Foulkes estimate   =   -1702.90145036 Ry
     estimated scf accuracy    <       0.00000130 Ry

[...]

     iteration # 31     ecut=    36.75 Ry     beta=0.10
     Davidson diagonalization with overlap
     ethr =  8.04E-10,  avg # of iterations =  3.2

[...]

     negative rho (up, down):  2.404E-03 2.324E-03

[...]

     Adding external electric field

     Computed dipole along edir(3) :
        Dipole                0.0146 Ry au,          0.0371 Debye
        Dipole field          0.0000 Ry au

        Potential amp.       -0.0034 Ry
        Total length         45.6163 bohr

     Magnetic moment per site:
     atom:    1    charge:    1.4793    magn:   -0.0113    constr:    0.0000
     atom:    2    charge:    1.4793    magn:   -0.0113    constr:    0.0000
     atom:    3    charge:    1.4793    magn:   -0.0113    constr:    0.0000
     atom:    4    charge:    5.9935    magn:    1.3865    constr:    0.0000
     atom:    5    charge:    1.4818    magn:    0.0021    constr:    0.0000
     atom:    6    charge:    1.4818    magn:    0.0021    constr:    0.0000
     atom:    7    charge:    1.4818    magn:    0.0021    constr:    0.0000
     atom:    8    charge:    5.9822    magn:    1.2651    constr:    0.0000
     atom:    9    charge:    1.4842    magn:   -0.0065    constr:    0.0000
     atom:   10    charge:    1.4842    magn:   -0.0065    constr:    0.0000
     atom:   11    charge:    1.4842    magn:   -0.0065    constr:    0.0000
     atom:   12    charge:    5.9956    magn:    1.4123    constr:    0.0000

     End of self-consistent calculation

 ------ SPIN UP ------------

[...]

 ------ SPIN DOWN ----------

[...]

          k = 0.0572 0.0000 0.0000 ( 18495 PWs)   bands (ev):

[...]

          k =-0.0858-0.1486 0.0000 ( 18460 PWs)   bands (ev):

   -75.7298 -75.5848 -75.5770 -53.4066 -53.3662 -53.3580 -53.3213 -53.3056
   -53.2601 -53.1741 -53.1445 -53.1066 -44.5225 -44.4823 -44.4817 -44.3657
   -44.3651 -44.3632 -44.3626 -44.3528 -44.3384 -29.8014 -29.7721 -29.7177
   -29.6494 -29.6014 -29.5761 -29.5211 -29.5148 -29.4619 -29.4556 -29.4441
   -29.4177 -29.3864 -29.3487 -29.3417 -29.2900 -29.2712 -29.2313 -29.1061
   -29.1059 -29.0795 -28.9679 -28.9563 -28.9237 -28.9045 -28.8929 -28.7940
    -2.4583  -2.4419  -1.4696  -1.3264  -1.2013  -1.1657  -0.7630  -0.6887
    -0.4270  -0.3873  -0.3068  -0.1494  -0.1217   0.2055   0.2213   0.2571
     0.2672   0.4072   0.5627   0.7308   0.8320   0.8653   1.1226   1.1460
     1.1899   1.2419   1.2764   1.3145   1.4483   1.5167   1.7215   1.7848
     1.8129   2.0366   2.0548   2.0828   2.1780   2.3498   2.5119   2.7078
     2.8919   2.9369   3.0838   3.1973   3.2744   3.3131   3.3649   3.4689
     3.5504   3.5958   3.6423   3.8885   3.9081   3.9606   4.0517   4.2609
     4.3455   4.5208   4.5771   4.8513   4.9322   5.1602   5.4235

     the Fermi energy is     1.6888 ev

!    total energy              =   -1702.90146673 Ry
     Harris-Foulkes estimate   =   -1702.90145693 Ry
     estimated scf accuracy    <       0.00000090 Ry

     The total energy is the sum of the following terms:

     one-electron contribution =  -13361.33442431 Ry
     hartree contribution      =    6673.60549313 Ry
     xc contribution           =    -254.12017197 Ry
     ewald contribution        =    5239.05616824 Ry
     electric field correction =       0.00000055 Ry
     smearing contrib. (-TS)   =      -0.10853236 Ry

     total magnetization       =     9.43 Bohr mag/cell
     absolute magnetization    =    12.79 Bohr mag/cell

     convergence has been achieved in  31 iterations

 BEEF-vdW xc energy contributions
           1 :   -219.254495991700
           2 :    198.956801166767
           3 :   -164.686384653635
           4 :    126.023994463065
           5 :   -91.7477664505417
           6 :    66.8365309451843
           7 :   -51.7401584946543
           8 :    43.6148338688623
           9 :   -38.4710242813430
          10 :    33.0684394931009
          11 :   -25.9305091824417
          12 :    17.3442023196064
          13 :   -8.67238516686265
          14 :    1.41377104856042
          15 :    3.55135202274923
          16 :   -6.29893740211918
          17 :    7.69460869926041
          18 :   -8.86306878693190
          19 :    10.5553005162385
          20 :   -12.7715560903308
          21 :    14.8343245938474
          22 :   -15.8679737387173
          23 :    15.3629484175343
          24 :   -13.4873400433408
          25 :    10.9620550480026
          26 :   -8.62927905422939
          27 :    7.00195623617489
          28 :   -6.08169991396429
          29 :    5.50000268344795
          30 :   -4.84183452503007
          31 :   -23.4167844080807
          32 :   -17.3845623422389

     Forces acting on atoms (Ry/au):

     negative rho (up, down):  2.404E-03 2.324E-03
     atom    1 type  1   force =     0.00000004    0.01284767    0.01123595
     atom    2 type  1   force =     0.01112605   -0.00642362    0.01123594
     atom    3 type  1   force =    -0.01112619   -0.00642382    0.01123595
     atom    4 type  2   force =     0.00000032   -0.00000014   -0.00303878
     atom    5 type  1   force =    -0.00000008    0.00303993   -0.00438321
     atom    6 type  1   force =     0.00263278   -0.00152006   -0.00438320
     atom    7 type  1   force =    -0.00263264   -0.00152025   -0.00438304
     atom    8 type  2   force =    -0.00000008    0.00000015   -0.01865682
     atom    9 type  1   force =    -0.00000034   -0.00038759   -0.00009245
     atom   10 type  1   force =    -0.00033497    0.00019356   -0.00009265
     atom   11 type  1   force =     0.00033531    0.00019405   -0.00009234
     atom   12 type  2   force =    -0.00000020    0.00000011    0.00141465

     Total force =     0.036319     Total SCF correction =     0.001334

     entering subroutine stress ...

     negative rho (up, down):  2.404E-03 2.324E-03
          total   stress  (Ry/bohr**3)                   (kbar)     P=  -14.12
  -0.00012827   0.00000000   0.00000000        -18.87      0.00      0.00
   0.00000000  -0.00012827   0.00000000          0.00    -18.87      0.00
   0.00000000   0.00000000  -0.00003149          0.00      0.00     -4.63

 !ASE

     Writing output data file calc.save

     General routines

     Parallel routines

   This run was terminated on:   4:19: 1  31Dec2018

   JOB DONE.
Job  /afs/slac/g/suncat/bin/suncat-tsmpirun -x LD_LIBRARY_PATH -wdir /scratch/qe648641_Esp76 pw.x -in pw.inp

TID   HOST_NAME   COMMAND_LINE            STATUS            TERMINATION_TIME
00000 suncat0083 pw.x -in pw.inp   Done                     12/31/2018 04:19:01
00001 suncat0083 pw.x -in pw.inp   Done                     12/31/2018 04:19:01
00002 suncat0083 pw.x -in pw.inp   Done                     12/31/2018 04:19:01
00003 suncat0083 pw.x -in pw.inp   Done                     12/31/2018 04:19:01
00004 suncat0083 pw.x -in pw.inp   Done                     12/31/2018 04:19:01
00005 suncat0083 pw.x -in pw.inp   Done                     12/31/2018 04:19:01
00006 suncat0083 pw.x -in pw.inp   Done                     12/31/2018 04:19:01
00007 suncat0083 pw.x -in pw.inp   Done                     12/31/2018 04:19:01
00008 suncat0082 pw.x -in pw.inp   Done                     12/31/2018 04:19:01
00009 suncat0082 pw.x -in pw.inp   Done                     12/31/2018 04:19:01
00010 suncat0082 pw.x -in pw.inp   Done                     12/31/2018 04:19:01
00011 suncat0082 pw.x -in pw.inp   Done                     12/31/2018 04:19:01
00012 suncat0082 pw.x -in pw.inp   Done                     12/31/2018 04:19:01
00013 suncat0082 pw.x -in pw.inp   Done                     12/31/2018 04:19:01
00014 suncat0082 pw.x -in pw.inp   Done                     12/31/2018 04:19:01
00015 suncat0082 pw.x -in pw.inp   Done                     12/31/2018 04:19:01
00016 suncat0081 pw.x -in pw.inp   Done                     12/31/2018 04:19:01
00017 suncat0081 pw.x -in pw.inp   Done                     12/31/2018 04:19:01
00018 suncat0081 pw.x -in pw.inp   Done                     12/31/2018 04:19:01
00019 suncat0081 pw.x -in pw.inp   Done                     12/31/2018 04:19:01
00020 suncat0081 pw.x -in pw.inp   Done                     12/31/2018 04:19:01
00021 suncat0081 pw.x -in pw.inp   Done                     12/31/2018 04:19:01
00022 suncat0081 pw.x -in pw.inp   Done                     12/31/2018 04:19:01
00023 suncat0081 pw.x -in pw.inp   Done                     12/31/2018 04:19:01
00024 suncat0080 pw.x -in pw.inp   Done                     12/31/2018 04:19:01
00025 suncat0080 pw.x -in pw.inp   Done                     12/31/2018 04:19:01
00026 suncat0080 pw.x -in pw.inp   Done                     12/31/2018 04:19:01
00027 suncat0080 pw.x -in pw.inp   Done                     12/31/2018 04:19:01
00028 suncat0080 pw.x -in pw.inp   Done                     12/31/2018 04:19:01
00029 suncat0080 pw.x -in pw.inp   Done                     12/31/2018 04:19:01
00030 suncat0080 pw.x -in pw.inp   Done                     12/31/2018 04:19:01
00031 suncat0080 pw.x -in pw.inp   Done                     12/31/2018 04:19:01
00032 suncat0016 pw.x -in pw.inp   Done                     12/31/2018 04:19:01
00033 suncat0016 pw.x -in pw.inp   Done                     12/31/2018 04:19:01
00034 suncat0016 pw.x -in pw.inp   Done                     12/31/2018 04:19:01
00035 suncat0016 pw.x -in pw.inp   Done                     12/31/2018 04:19:01
00036 suncat0016 pw.x -in pw.inp   Done                     12/31/2018 04:19:01
00037 suncat0016 pw.x -in pw.inp   Done                     12/31/2018 04:19:01
00038 suncat0016 pw.x -in pw.inp   Done                     12/31/2018 04:19:01
00039 suncat0016 pw.x -in pw.inp   Done                     12/31/2018 04:19:01
00040 suncat0198 pw.x -in pw.inp   Done                     12/31/2018 04:19:01
00041 suncat0198 pw.x -in pw.inp   Done                     12/31/2018 04:19:01
00042 suncat0198 pw.x -in pw.inp   Done                     12/31/2018 04:19:01
00043 suncat0198 pw.x -in pw.inp   Done                     12/31/2018 04:19:01
00044 suncat0198 pw.x -in pw.inp   Done                     12/31/2018 04:19:01
00045 suncat0198 pw.x -in pw.inp   Done                     12/31/2018 04:19:01
00046 suncat0198 pw.x -in pw.inp   Done                     12/31/2018 04:19:01
00047 suncat0198 pw.x -in pw.inp   Done                     12/31/2018 04:19:01
00048 suncat0194 pw.x -in pw.inp   Done                     12/31/2018 04:19:01
00049 suncat0194 pw.x -in pw.inp   Done                     12/31/2018 04:19:01
00050 suncat0194 pw.x -in pw.inp   Done                     12/31/2018 04:19:01
00051 suncat0194 pw.x -in pw.inp   Done                     12/31/2018 04:19:01
00052 suncat0194 pw.x -in pw.inp   Done                     12/31/2018 04:19:01
00053 suncat0194 pw.x -in pw.inp   Done                     12/31/2018 04:19:01
00054 suncat0194 pw.x -in pw.inp   Done                     12/31/2018 04:19:01
00055 suncat0194 pw.x -in pw.inp   Done                     12/31/2018 04:19:01
00056 suncat0193 pw.x -in pw.inp   Done                     12/31/2018 04:19:01
00057 suncat0193 pw.x -in pw.inp   Done                     12/31/2018 04:19:01
00058 suncat0193 pw.x -in pw.inp   Done                     12/31/2018 04:19:01
00059 suncat0193 pw.x -in pw.inp   Done                     12/31/2018 04:19:01
00060 suncat0193 pw.x -in pw.inp   Done                     12/31/2018 04:19:01
00061 suncat0193 pw.x -in pw.inp   Done                     12/31/2018 04:19:01
00062 suncat0193 pw.x -in pw.inp   Done                     12/31/2018 04:19:01
00063 suncat0193 pw.x -in pw.inp   Done                     12/31/2018 04:19:01