     Program PWSCF v.5.1rc2 (svn rev. 11289) starts on  1Jan2019 at 13: 5:53

     Current dimensions of program PWSCF are:
     Max number of different atomic species (ntypx) = 10
     Max number of k-points (npk) =  40000
     Max angular momentum in pseudopotentials (lmaxx) =  3
     Presently stress not available with electric field

     IMPORTANT: XC functional enforced from input :
     Exchange-correlation      = BEEF-VDW ( 1  4 27 13 2)
     Any further DFT definition will be discarded
     Please, verify this is what you really want

     Subspace diagonalization in iterative solution of the eigenvalue problem:
     a serial algorithm will be used

     Generating pointlists ...
     new r_m :   0.4125 (alat units)  0.7795 (a.u.) for type    1
     new r_m :   0.4125 (alat units)  0.7795 (a.u.) for type    2

     bravais-lattice index     =            0
     lattice parameter (alat)  =       1.8897  a.u.
     unit-cell volume          =    6027.9028 (a.u.)^3
     number of atoms/cell      =           12
     number of atomic types    =            2
     number of electrons       =       180.00
     number of Kohn-Sham states=          120
     kinetic-energy cutoff     =      36.7493  Ry
     charge density cutoff     =     367.4932  Ry
     convergence threshold     =      1.0E-06
     mixing beta               =       0.1000
     number of iterations used =           10  plain     mixing
     Exchange-correlation      = BEEF-VDW ( 1  4 27 13 2)
     nstep                     =           50

     celldm(1)=   1.889726  celldm(2)=   0.000000  celldm(3)=   0.000000
     celldm(4)=   0.000000  celldm(5)=   0.000000  celldm(6)=   0.000000

     crystal axes: (cart. coord. in units of alat)
               a(1) = (   6.394914   0.000000   0.000000 )
               a(2) = (  -3.197457   5.538158   0.000000 )
               a(3) = (   0.000000   0.000000  25.221425 )

     reciprocal axes: (cart. coord. in units 2 pi/alat)
               b(1) = (  0.156374  0.090283  0.000000 )
               b(2) = (  0.000000  0.180565  0.000000 )
               b(3) = (  0.000000  0.000000  0.039649 )

     PseudoPot. # 1 for Sn read from file:
     /afs/slac.stanford.edu/u/if/mamunm/psp/gbrv1.5pbe/Sn.UPF
     MD5 check sum: 469debedee59599fedebd795477fea03
     Pseudo is Ultrasoft + core correction, Zval = 14.0
     Generated by new atomic code, or converted to UPF format
     Using radial grid of  891 points,  6 beta functions with:
                l(1) =   0
                l(2) =   0
                l(3) =   1
                l(4) =   1
                l(5) =   2
                l(6) =   2
     Q(r) pseudized with  8 coefficients,  rinner =    1.350   1.350   1.350
                                                       1.350   1.350

     PseudoPot. # 2 for Ni read from file:
     /afs/slac.stanford.edu/u/if/mamunm/psp/gbrv1.5pbe/Ni.UPF
     MD5 check sum: 1ee80287db30b12d2bc1f57a5b5d6409
     Pseudo is Ultrasoft + core correction, Zval = 18.0
     Generated by new atomic code, or converted to UPF format
     Using radial grid of  865 points,  6 beta functions with:
                l(1) =   0
                l(2) =   0
                l(3) =   1
                l(4) =   1
                l(5) =   2
                l(6) =   2
     Q(r) pseudized with 10 coefficients,  rinner =    0.980   0.980   0.980
                                                       0.980   0.980

     vdW kernel table read from file vdW_kernel_table
     MD5 check sum: 095c7af220d748ca6e76c0b4c6cfb241

     atomic species   valence    mass     pseudopotential
        Sn1           14.00   118.71000     Sn( 1.00)
        Ni1           18.00    58.69340     Ni( 1.00)

     Starting magnetic structure
     atomic species   magnetization
        Sn1          0.143
        Ni1          0.111

     No symmetry found

   Cartesian axes

     site n.     atom                  positions (alat units)
         1           Sn1 tau(   1) = (   0.0000000   0.0000000  10.0000000  )
         2           Sn1 tau(   2) = (  -1.5987284   2.7690789  10.0000000  )
         3           Sn1 tau(   3) = (   1.5987284   2.7690789  10.0000000  )
         4           Ni1 tau(   4) = (   3.1974569   0.0000000  10.0000000  )
         5           Sn1 tau(   5) = (   3.1974569   1.8460526  12.6107126  )
         6           Sn1 tau(   6) = (   1.5987284   4.6151315  12.6107126  )
         7           Sn1 tau(   7) = (  -1.5987284   4.6151315  12.6107126  )
         8           Ni1 tau(   8) = (   0.0000000   1.8460526  12.6107126  )
         9           Sn1 tau(   9) = (  -0.0000000   3.6921052  15.2214252  )
        10           Sn1 tau(  10) = (   1.5987284   0.9230263  15.2214252  )
        11           Sn1 tau(  11) = (   4.7961853   0.9230263  15.2214252  )
        12           Ni1 tau(  12) = (   3.1974569   3.6921052  15.2214252  )

     number of k points=    40  Fermi-Dirac smearing, width (Ry)=  0.0110
                       cart. coord. in units 2pi/alat
        k(    1) = (   0.0000000   0.0000000   0.0000000), wk =   0.0277778
        k(    2) = (   0.0000000   0.0300942   0.0000000), wk =   0.0555556
        k(    3) = (   0.0000000   0.0601885   0.0000000), wk =   0.0555556
        k(    4) = (   0.0000000  -0.0902827   0.0000000), wk =   0.0277778
        k(    5) = (   0.0260624   0.0150471   0.0000000), wk =   0.0555556
        k(    6) = (   0.0260624   0.0451414   0.0000000), wk =   0.0555556
        k(    7) = (   0.0260624   0.0752356   0.0000000), wk =   0.0555556
        k(    8) = (   0.0260624  -0.0752356   0.0000000), wk =   0.0555556
        k(    9) = (   0.0260624  -0.0451414   0.0000000), wk =   0.0555556
        k(   10) = (   0.0260624  -0.0150471   0.0000000), wk =   0.0555556
        k(   11) = (   0.0521248   0.0300942   0.0000000), wk =   0.0555556
        k(   12) = (   0.0521248   0.0601885   0.0000000), wk =   0.0555556
        k(   13) = (   0.0521248   0.0902827   0.0000000), wk =   0.0555556
        k(   14) = (   0.0521248  -0.0601885   0.0000000), wk =   0.0555556
        k(   15) = (   0.0521248  -0.0300942   0.0000000), wk =   0.0555556
        k(   16) = (   0.0521248   0.0000000   0.0000000), wk =   0.0555556
        k(   17) = (  -0.0781871  -0.0451414   0.0000000), wk =   0.0277778
        k(   18) = (  -0.0781871  -0.0150471   0.0000000), wk =   0.0555556
        k(   19) = (  -0.0781871   0.0150471   0.0000000), wk =   0.0555556
        k(   20) = (  -0.0781871  -0.1354241   0.0000000), wk =   0.0277778
        k(   21) = (   0.0000000   0.0000000   0.0000000), wk =   0.0277778
        k(   22) = (   0.0000000   0.0300942   0.0000000), wk =   0.0555556
        k(   23) = (   0.0000000   0.0601885   0.0000000), wk =   0.0555556
        k(   24) = (   0.0000000  -0.0902827   0.0000000), wk =   0.0277778
        k(   25) = (   0.0260624   0.0150471   0.0000000), wk =   0.0555556
        k(   26) = (   0.0260624   0.0451414   0.0000000), wk =   0.0555556
        k(   27) = (   0.0260624   0.0752356   0.0000000), wk =   0.0555556
        k(   28) = (   0.0260624  -0.0752356   0.0000000), wk =   0.0555556
        k(   29) = (   0.0260624  -0.0451414   0.0000000), wk =   0.0555556
        k(   30) = (   0.0260624  -0.0150471   0.0000000), wk =   0.0555556
        k(   31) = (   0.0521248   0.0300942   0.0000000), wk =   0.0555556
        k(   32) = (   0.0521248   0.0601885   0.0000000), wk =   0.0555556
        k(   33) = (   0.0521248   0.0902827   0.0000000), wk =   0.0555556
        k(   34) = (   0.0521248  -0.0601885   0.0000000), wk =   0.0555556
        k(   35) = (   0.0521248  -0.0300942   0.0000000), wk =   0.0555556
        k(   36) = (   0.0521248   0.0000000   0.0000000), wk =   0.0555556
        k(   37) = (  -0.0781871  -0.0451414   0.0000000), wk =   0.0277778
        k(   38) = (  -0.0781871  -0.0150471   0.0000000), wk =   0.0555556
        k(   39) = (  -0.0781871   0.0150471   0.0000000), wk =   0.0555556
        k(   40) = (  -0.0781871  -0.1354241   0.0000000), wk =   0.0277778

     Largest allocated arrays     est. size (Mb)     dimensions
     Largest temporary arrays     est. size (Mb)     dimensions

     Check: negative/imaginary core charge=   -0.000001    0.000000

     Initial potential from superposition of free atoms
     Check: negative starting charge=(component1):   -0.000814
     Check: negative starting charge=(component2):   -0.000614

     starting charge  164.99959, renormalised to  180.00000

     negative rho (up, down):  8.875E-04 6.703E-04

     *
     * You are using vdW-DF for exchange-correlation in this calculation.
     * Please cite the following three references that made this development
     * possible:
     *
     *   M. Dion, H. Rydberg, E. Schroder, D. C. Langreth, and
     *   B. I. Lundqvist, Phys. Rev. Lett. 92, 246401 (2004).
     *
     *   T. Thonhauser, V. R. Cooper, S. Li, A. Puzder, P. Hyldgaard, and
     *   D. C. Langreth, Phys. Rev. B 76, 125112 (2007).
     *
     *   G. Roman-Perez and J. M. Soler, Phys. Rev. Lett. 103, 096102 (2009).
     *
     *
     * If you are using vdW-DF2, please also cite:
     *
     *   K. Lee, E. D. Murray, L. Kong, B. I. Lundqvist, and
     *   D. C. Langreth, Phys. Rev. B 82, 081101(R) (2010).
     *
     *
     * If you are calculating the stress with vdW-DF, please also cite:
     *
     *   R. Sabatini, E. Kucukbenli, B. Kolb, T. Thonhauser, and
     *   S. de Gironcoli, J. Phys.: Condens. Matter 24, 424209 (2012).
     *

     Carrying out vdW-DF run using the following parameters:

     Nqs =      20    Nr_points =    1024   r_max =   100.000
     q_mesh =
               0.00001000     0.04494208     0.09755937     0.15916263
               0.23128650     0.31572767     0.41458969     0.53033537
               0.66584808     0.82450364     1.01025438     1.22772762
               1.48234092     1.78043706     2.12944203     2.53805004
               3.01644009     3.57652955     4.23227104     5.00000000

     Gradients computed in reciprocal space

     Adding external electric field

     Computed dipole along edir(3) :
        Dipole               -0.0000 Ry au,         -0.0000 Debye
        Dipole field         -0.0000 Ry au

        Potential amp.        0.0000 Ry
        Total length         46.4700 bohr

[...]

     Starting wfc are  120 randomized atomic wfcs

     Self-consistent Calculation

     iteration #  1     ecut=    36.75 Ry     beta=0.10
     Davidson diagonalization with overlap
     ethr =  1.00E-02,  avg # of iterations =  8.8

[...]

     Magnetic moment per site:
     atom:    1    charge:    3.7441    magn:    0.4932    constr:    0.0000
     atom:    2    charge:    3.7396    magn:    0.4926    constr:    0.0000
     atom:    3    charge:    3.7396    magn:    0.4926    constr:    0.0000
     atom:    4    charge:    9.6756    magn:    1.0230    constr:    0.0000
     atom:    5    charge:    3.7440    magn:    0.4932    constr:    0.0000
     atom:    6    charge:    3.7398    magn:    0.4926    constr:    0.0000
     atom:    7    charge:    3.7398    magn:    0.4926    constr:    0.0000
     atom:    8    charge:    9.6749    magn:    1.0231    constr:    0.0000
[...]
        k(    3) = (   0.0000000   0.0601885   0.0000000), wk =   0.0555556
        k(    4) = (   0.0000000  -0.0902827   0.0000000), wk =   0.0277778
        k(    5) = (   0.0260624   0.0150471   0.0000000), wk =   0.0555556
        k(    6) = (   0.0260624   0.0451414   0.0000000), wk =   0.0555556
        k(    7) = (   0.0260624   0.0752356   0.0000000), wk =   0.0555556
        k(    8) = (   0.0260624  -0.0752356   0.0000000), wk =   0.0555556
        k(    9) = (   0.0260624  -0.0451414   0.0000000), wk =   0.0555556
        k(   10) = (   0.0260624  -0.0150471   0.0000000), wk =   0.0555556
        k(   11) = (   0.0521248   0.0300942   0.0000000), wk =   0.0555556
        k(   12) = (   0.0521248   0.0601885   0.0000000), wk =   0.0555556
        k(   13) = (   0.0521248   0.0902827   0.0000000), wk =   0.0555556
        k(   14) = (   0.0521248  -0.0601885   0.0000000), wk =   0.0555556
        k(   15) = (   0.0521248  -0.0300942   0.0000000), wk =   0.0555556
        k(   16) = (   0.0521248   0.0000000   0.0000000), wk =   0.0555556
        k(   17) = (  -0.0781871  -0.0451414   0.0000000), wk =   0.0277778
        k(   18) = (  -0.0781871  -0.0150471   0.0000000), wk =   0.0555556
        k(   19) = (  -0.0781871   0.0150471   0.0000000), wk =   0.0555556
        k(   20) = (  -0.0781871  -0.1354241   0.0000000), wk =   0.0277778
        k(   21) = (   0.0000000   0.0000000   0.0000000), wk =   0.0277778
        k(   22) = (   0.0000000   0.0300942   0.0000000), wk =   0.0555556
        k(   23) = (   0.0000000   0.0601885   0.0000000), wk =   0.0555556
        k(   24) = (   0.0000000  -0.0902827   0.0000000), wk =   0.0277778
        k(   25) = (   0.0260624   0.0150471   0.0000000), wk =   0.0555556
        k(   26) = (   0.0260624   0.0451414   0.0000000), wk =   0.0555556
        k(   27) = (   0.0260624   0.0752356   0.0000000), wk =   0.0555556
        k(   28) = (   0.0260624  -0.0752356   0.0000000), wk =   0.0555556
        k(   29) = (   0.0260624  -0.0451414   0.0000000), wk =   0.0555556
        k(   30) = (   0.0260624  -0.0150471   0.0000000), wk =   0.0555556
        k(   31) = (   0.0521248   0.0300942   0.0000000), wk =   0.0555556
        k(   32) = (   0.0521248   0.0601885   0.0000000), wk =   0.0555556
        k(   33) = (   0.0521248   0.0902827   0.0000000), wk =   0.0555556
        k(   34) = (   0.0521248  -0.0601885   0.0000000), wk =   0.0555556
        k(   35) = (   0.0521248  -0.0300942   0.0000000), wk =   0.0555556
        k(   36) = (   0.0521248   0.0000000   0.0000000), wk =   0.0555556
        k(   37) = (  -0.0781871  -0.0451414   0.0000000), wk =   0.0277778
        k(   38) = (  -0.0781871  -0.0150471   0.0000000), wk =   0.0555556
        k(   39) = (  -0.0781871   0.0150471   0.0000000), wk =   0.0555556
        k(   40) = (  -0.0781871  -0.1354241   0.0000000), wk =   0.0277778

     Largest allocated arrays     est. size (Mb)     dimensions
     Largest temporary arrays     est. size (Mb)     dimensions

     Check: negative/imaginary core charge=   -0.000001    0.000000

     Initial potential from superposition of free atoms
     Check: negative starting charge=(component1):   -0.000810
     Check: negative starting charge=(component2):   -0.000612

     starting charge  164.99959, renormalised to  180.00000

[...]

     *
     * You are using vdW-DF for exchange-correlation in this calculation.
     * Please cite the following three references that made this development
     * possible:
     *
     *   M. Dion, H. Rydberg, E. Schroder, D. C. Langreth, and
     *   B. I. Lundqvist, Phys. Rev. Lett. 92, 246401 (2004).
     *
     *   T. Thonhauser, V. R. Cooper, S. Li, A. Puzder, P. Hyldgaard, and
     *   D. C. Langreth, Phys. Rev. B 76, 125112 (2007).
     *
     *   G. Roman-Perez and J. M. Soler, Phys. Rev. Lett. 103, 096102 (2009).
     *
     *
     * If you are using vdW-DF2, please also cite:
     *
     *   K. Lee, E. D. Murray, L. Kong, B. I. Lundqvist, and
     *   D. C. Langreth, Phys. Rev. B 82, 081101(R) (2010).
     *
     *
     * If you are calculating the stress with vdW-DF, please also cite:
     *
     *   R. Sabatini, E. Kucukbenli, B. Kolb, T. Thonhauser, and
     *   S. de Gironcoli, J. Phys.: Condens. Matter 24, 424209 (2012).
     *

     Carrying out vdW-DF run using the following parameters:

     Nqs =      20    Nr_points =    1024   r_max =   100.000
     q_mesh =
               0.00001000     0.04494208     0.09755937     0.15916263
               0.23128650     0.31572767     0.41458969     0.53033537
               0.66584808     0.82450364     1.01025438     1.22772762
               1.48234092     1.78043706     2.12944203     2.53805004
               3.01644009     3.57652955     4.23227104     5.00000000

     Gradients computed in reciprocal space

[...]

     Starting wfc are  120 randomized atomic wfcs

     Self-consistent Calculation

[...]

     total energy              =   -2479.38459186 Ry
     Harris-Foulkes estimate   =   -2479.38459119 Ry
     estimated scf accuracy    <       0.00000102 Ry

[...]

     iteration # 57     ecut=    36.75 Ry     beta=0.10
     Davidson diagonalization with overlap
     ethr =  5.64E-10,  avg # of iterations =  2.0

[...]

     negative rho (up, down):  5.665E-04 5.652E-04

[...]

     Adding external electric field

     Computed dipole along edir(3) :
        Dipole                0.0366 Ry au,          0.0931 Debye
        Dipole field          0.0001 Ry au

        Potential amp.       -0.0071 Ry
        Total length         46.4700 bohr

     Magnetic moment per site:
     atom:    1    charge:    3.5194    magn:   -0.0000    constr:    0.0000
     atom:    2    charge:    3.5152    magn:   -0.0000    constr:    0.0000
     atom:    3    charge:    3.5152    magn:   -0.0000    constr:    0.0000
     atom:    4    charge:    9.3750    magn:    0.0162    constr:    0.0000
     atom:    5    charge:    3.5214    magn:    0.0000    constr:    0.0000
     atom:    6    charge:    3.5175    magn:    0.0000    constr:    0.0000
     atom:    7    charge:    3.5175    magn:    0.0000    constr:    0.0000
     atom:    8    charge:    9.3659    magn:   -0.0019    constr:    0.0000
     atom:    9    charge:    3.5149    magn:    0.0000    constr:    0.0000
     atom:   10    charge:    3.5139    magn:    0.0000    constr:    0.0000
     atom:   11    charge:    3.5139    magn:    0.0000    constr:    0.0000
     atom:   12    charge:    9.3696    magn:    0.0006    constr:    0.0000

     End of self-consistent calculation

 ------ SPIN UP ------------

[...]

 ------ SPIN DOWN ----------

[...]

          k = 0.0521 0.0000 0.0000 ( 22691 PWs)   bands (ev):

[...]

          k =-0.0782-0.1354 0.0000 ( 22684 PWs)   bands (ev):

  -101.9786-101.9533-101.6016 -62.4276 -62.3981 -62.3782 -62.3780 -62.3410
   -62.3408 -62.0542 -62.0540 -61.9570 -21.3967 -21.3563 -21.3411 -21.3331
   -21.3218 -21.3206 -21.3138 -21.3107 -21.2936 -21.2908 -21.2721 -21.2633
   -21.2575 -21.2543 -21.2438 -21.2414 -21.2400 -21.2341 -21.2300 -21.2224
   -21.2213 -21.2158 -21.2139 -21.2113 -21.2105 -21.2030 -21.2023 -21.1969
   -21.1900 -21.1892 -21.1782 -21.1743 -21.1736 -21.1733 -21.1716 -21.1684
   -21.1670 -21.1617 -21.1507 -21.1491 -21.1406 -21.1355 -21.1062 -21.0971
   -21.0797  -9.1066  -8.7596  -7.6780  -7.2444  -6.5909  -6.4563  -5.7077
    -5.2982  -3.8035  -3.5879  -3.0635  -2.1447  -1.3718  -1.3501  -1.1863
    -1.1339  -0.9277  -0.7734  -0.7261  -0.7061  -0.5704  -0.4301  -0.3649
    -0.3641  -0.2670  -0.0992  -0.0955   0.0213   0.1138   0.2624   0.3605
     0.5053   0.5254   0.9387   1.4107   1.4424   1.4741   1.7991   2.1465
     2.3472   2.3946   2.6372   2.9154   3.1268   3.7725   4.0518   4.0754
     4.3179   4.4401   4.6583   4.9782   5.2529   5.3931   5.6062   5.6453
     5.8652   5.9277   6.0579   6.0584   6.1396   6.3756   6.5350   6.5874

     the Fermi energy is     0.6548 ev

!    total energy              =   -2479.38459395 Ry
     Harris-Foulkes estimate   =   -2479.38459230 Ry
     estimated scf accuracy    <       0.00000082 Ry

     The total energy is the sum of the following terms:

     one-electron contribution =  -14307.59315969 Ry
     hartree contribution      =    7205.06562838 Ry
     xc contribution           =    -510.95986928 Ry
     ewald contribution        =    5134.14842608 Ry
     electric field correction =       0.00000280 Ry
     smearing contrib. (-TS)   =      -0.04562224 Ry

     total magnetization       =     0.02 Bohr mag/cell
     absolute magnetization    =     0.04 Bohr mag/cell

     convergence has been achieved in  57 iterations

 BEEF-vdW xc energy contributions
           1 :   -449.287436595549
           2 :    410.377872880766
           3 :   -344.612364220098
           4 :    270.599360079947
           5 :   -205.726523501659
           6 :    159.919008953671
           7 :   -133.580658707043
           8 :    120.036480670128
           9 :   -110.607329752317
          10 :    99.3620042776983
          11 :   -85.2412393408852
          12 :    71.0093585891767
          13 :   -60.3247347768043
          14 :    54.9930829229839
          15 :   -53.9704362242923
          16 :    54.3386561463810
          17 :   -53.2909743298353
          18 :    49.7329994343251
          19 :   -44.5995055570560
          20 :    39.8983332757938
          21 :   -37.2687115652486
          22 :    36.9938498304676
          23 :   -37.9986473759128
          24 :    38.6760443874585
          25 :   -37.9221049874945
          26 :    35.7194318440612
          27 :   -32.9891873710511
          28 :    30.8980469442797
          29 :   -30.1141350609468
          30 :    30.4594634446723
          31 :   -38.7878572409507
          32 :   -27.9924772576597

     Forces acting on atoms (Ry/au):

     negative rho (up, down):  5.665E-04 5.652E-04
     atom    1 type  1   force =     0.00000083    0.01338533   -0.00232736
     atom    2 type  1   force =     0.01159238   -0.00669401   -0.00232178
     atom    3 type  1   force =    -0.01159213   -0.00669478   -0.00232244
     atom    4 type  2   force =    -0.00000071   -0.00000010    0.03143419
     atom    5 type  1   force =    -0.00000041   -0.00830827   -0.00847341
     atom    6 type  1   force =    -0.00719595    0.00415161   -0.00846324
     atom    7 type  1   force =     0.00719703    0.00415272   -0.00846599
     atom    8 type  2   force =     0.00000063    0.00000125    0.00062788
     atom    9 type  1   force =    -0.00000206    0.00078169    0.00009229
     atom   10 type  1   force =     0.00067852   -0.00038778    0.00008893
     atom   11 type  1   force =    -0.00067848   -0.00038465    0.00008770
     atom   12 type  2   force =     0.00000034   -0.00000301    0.00004322

     Total force =     0.044343     Total SCF correction =     0.001759

     entering subroutine stress ...

     negative rho (up, down):  5.665E-04 5.652E-04
          total   stress  (Ry/bohr**3)                   (kbar)     P=  -16.12
  -0.00011364   0.00000000  -0.00000000        -16.72      0.00     -0.00
   0.00000000  -0.00011368   0.00000000          0.00    -16.72      0.00
  -0.00000000   0.00000000  -0.00010143         -0.00      0.00    -14.92

 !ASE

     Writing output data file calc.save

     General routines

     Parallel routines

   This run was terminated on:  15:50:10   2Jan2019

   JOB DONE.
Job  /afs/slac/g/suncat/bin/suncat-tsmpirun -x LD_LIBRARY_PATH -wdir /scratch/qe649023_V7gAq pw.x -in pw.inp

TID   HOST_NAME   COMMAND_LINE            STATUS            TERMINATION_TIME
00000 suncat0046 pw.x -in pw.inp   Done                     01/02/2019 15:50:10
00001 suncat0046 pw.x -in pw.inp   Done                     01/02/2019 15:50:10
00002 suncat0046 pw.x -in pw.inp   Done                     01/02/2019 15:50:10
00003 suncat0046 pw.x -in pw.inp   Done                     01/02/2019 15:50:10
00004 suncat0046 pw.x -in pw.inp   Done                     01/02/2019 15:50:10
00005 suncat0046 pw.x -in pw.inp   Done                     01/02/2019 15:50:10
00006 suncat0046 pw.x -in pw.inp   Done                     01/02/2019 15:50:10
00007 suncat0046 pw.x -in pw.inp   Done                     01/02/2019 15:50:10
00008 suncat0044 pw.x -in pw.inp   Done                     01/02/2019 15:50:10
00009 suncat0044 pw.x -in pw.inp   Done                     01/02/2019 15:50:10
00010 suncat0044 pw.x -in pw.inp   Done                     01/02/2019 15:50:10
00011 suncat0044 pw.x -in pw.inp   Done                     01/02/2019 15:50:10
00012 suncat0044 pw.x -in pw.inp   Done                     01/02/2019 15:50:10
00013 suncat0044 pw.x -in pw.inp   Done                     01/02/2019 15:50:10
00014 suncat0044 pw.x -in pw.inp   Done                     01/02/2019 15:50:10
00015 suncat0044 pw.x -in pw.inp   Done                     01/02/2019 15:50:10
00016 suncat0028 pw.x -in pw.inp   Done                     01/02/2019 15:50:10
00017 suncat0028 pw.x -in pw.inp   Done                     01/02/2019 15:50:10
00018 suncat0028 pw.x -in pw.inp   Done                     01/02/2019 15:50:10
00019 suncat0028 pw.x -in pw.inp   Done                     01/02/2019 15:50:10
00020 suncat0028 pw.x -in pw.inp   Done                     01/02/2019 15:50:10
00021 suncat0028 pw.x -in pw.inp   Done                     01/02/2019 15:50:10
00022 suncat0028 pw.x -in pw.inp   Done                     01/02/2019 15:50:10
00023 suncat0028 pw.x -in pw.inp   Done                     01/02/2019 15:50:10
00024 suncat0027 pw.x -in pw.inp   Done                     01/02/2019 15:50:10
00025 suncat0027 pw.x -in pw.inp   Done                     01/02/2019 15:50:10
00026 suncat0027 pw.x -in pw.inp   Done                     01/02/2019 15:50:10
00027 suncat0027 pw.x -in pw.inp   Done                     01/02/2019 15:50:10
00028 suncat0027 pw.x -in pw.inp   Done                     01/02/2019 15:50:10
00029 suncat0027 pw.x -in pw.inp   Done                     01/02/2019 15:50:10
00030 suncat0027 pw.x -in pw.inp   Done                     01/02/2019 15:50:10
00031 suncat0027 pw.x -in pw.inp   Done                     01/02/2019 15:50:10
00032 suncat0026 pw.x -in pw.inp   Done                     01/02/2019 15:50:10
00033 suncat0026 pw.x -in pw.inp   Done                     01/02/2019 15:50:10
00034 suncat0026 pw.x -in pw.inp   Done                     01/02/2019 15:50:10
00035 suncat0026 pw.x -in pw.inp   Done                     01/02/2019 15:50:10
00036 suncat0026 pw.x -in pw.inp   Done                     01/02/2019 15:50:10
00037 suncat0026 pw.x -in pw.inp   Done                     01/02/2019 15:50:10
00038 suncat0026 pw.x -in pw.inp   Done                     01/02/2019 15:50:10
00039 suncat0026 pw.x -in pw.inp   Done                     01/02/2019 15:50:10
00040 suncat0021 pw.x -in pw.inp   Done                     01/02/2019 15:50:10
00041 suncat0021 pw.x -in pw.inp   Done                     01/02/2019 15:50:10
00042 suncat0021 pw.x -in pw.inp   Done                     01/02/2019 15:50:10
00043 suncat0021 pw.x -in pw.inp   Done                     01/02/2019 15:50:10
00044 suncat0021 pw.x -in pw.inp   Done                     01/02/2019 15:50:10
00045 suncat0021 pw.x -in pw.inp   Done                     01/02/2019 15:50:10
00046 suncat0021 pw.x -in pw.inp   Done                     01/02/2019 15:50:10
00047 suncat0021 pw.x -in pw.inp   Done                     01/02/2019 15:50:10
00048 suncat0215 pw.x -in pw.inp   Done                     01/02/2019 15:50:10
00049 suncat0215 pw.x -in pw.inp   Done                     01/02/2019 15:50:10
00050 suncat0215 pw.x -in pw.inp   Done                     01/02/2019 15:50:10
00051 suncat0215 pw.x -in pw.inp   Done                     01/02/2019 15:50:10
00052 suncat0215 pw.x -in pw.inp   Done                     01/02/2019 15:50:10
00053 suncat0215 pw.x -in pw.inp   Done                     01/02/2019 15:50:10
00054 suncat0215 pw.x -in pw.inp   Done                     01/02/2019 15:50:10
00055 suncat0215 pw.x -in pw.inp   Done                     01/02/2019 15:50:10
00056 suncat0210 pw.x -in pw.inp   Done                     01/02/2019 15:50:10
00057 suncat0210 pw.x -in pw.inp   Done                     01/02/2019 15:50:10
00058 suncat0210 pw.x -in pw.inp   Done                     01/02/2019 15:50:10
00059 suncat0210 pw.x -in pw.inp   Done                     01/02/2019 15:50:10
00060 suncat0210 pw.x -in pw.inp   Done                     01/02/2019 15:50:10
00061 suncat0210 pw.x -in pw.inp   Done                     01/02/2019 15:50:10
00062 suncat0210 pw.x -in pw.inp   Done                     01/02/2019 15:50:10
00063 suncat0210 pw.x -in pw.inp   Done                     01/02/2019 15:50:10