     Program PWSCF v.5.1rc2 (svn rev. 11289) starts on 27Dec2018 at  7:26:19

     Current dimensions of program PWSCF are:
     Max number of different atomic species (ntypx) = 10
     Max number of k-points (npk) =  40000
     Max angular momentum in pseudopotentials (lmaxx) =  3
     Presently stress not available with electric field

     IMPORTANT: XC functional enforced from input :
     Exchange-correlation      = BEEF-VDW ( 1  4 27 13 2)
     Any further DFT definition will be discarded
     Please, verify this is what you really want

     Subspace diagonalization in iterative solution of the eigenvalue problem:
     a serial algorithm will be used

     bravais-lattice index     =            0
     lattice parameter (alat)  =       1.8897  a.u.
     unit-cell volume          =    5253.7592 (a.u.)^3
     number of atoms/cell      =           12
     number of atomic types    =            2
     number of electrons       =       156.00
     number of Kohn-Sham states=          108
     kinetic-energy cutoff     =      36.7493  Ry
     charge density cutoff     =     367.4932  Ry
     convergence threshold     =      1.0E-06
     mixing beta               =       0.1000
     number of iterations used =           10  plain     mixing
     Exchange-correlation      = BEEF-VDW ( 1  4 27 13 2)
     nstep                     =           50

     celldm(1)=   1.889726  celldm(2)=   0.000000  celldm(3)=   0.000000
     celldm(4)=   0.000000  celldm(5)=   0.000000  celldm(6)=   0.000000

     crystal axes: (cart. coord. in units of alat)
               a(1) = (   6.007922   0.000000   0.000000 )
               a(2) = (  -3.003961   5.203013   0.000000 )
               a(3) = (   0.000000   0.000000  24.905448 )

     reciprocal axes: (cart. coord. in units 2 pi/alat)
               b(1) = (  0.166447  0.096098  0.000000 )
               b(2) = (  0.000000  0.192196  0.000000 )
               b(3) = (  0.000000  0.000000  0.040152 )

     PseudoPot. # 1 for Nb read from file:
     /afs/slac.stanford.edu/u/if/mamunm/psp/gbrv1.5pbe/Nb.UPF
     MD5 check sum: 573aab8a2fa660278ed4a62cd769473f
     Pseudo is Ultrasoft + core correction, Zval = 13.0
     Generated by new atomic code, or converted to UPF format
     Using radial grid of  887 points,  6 beta functions with:
                l(1) =   0
                l(2) =   0
                l(3) =   1
                l(4) =   1
                l(5) =   2
                l(6) =   2
     Q(r) pseudized with  6 coefficients,  rinner =    1.000   1.000   1.000
                                                       1.000   1.000

     PseudoPot. # 2 for Tl read from file:
     /afs/slac.stanford.edu/u/if/mamunm/psp/gbrv1.5pbe/Tl.UPF
     MD5 check sum: b76cf1f7e72655a2b2c53cf6385d7059
     Pseudo is Ultrasoft + core correction, Zval = 13.0
     Generated by new atomic code, or converted to UPF format
     Using radial grid of  899 points,  6 beta functions with:
                l(1) =   0
                l(2) =   0
                l(3) =   1
                l(4) =   1
                l(5) =   2
                l(6) =   2
     Q(r) pseudized with  6 coefficients,  rinner =    1.100   1.100   1.100
                                                       1.100   1.100

     vdW kernel table read from file vdW_kernel_table
     MD5 check sum: 095c7af220d748ca6e76c0b4c6cfb241

     atomic species   valence    mass     pseudopotential
        Nb1           13.00    92.90637     Nb( 1.00)
        Tl1           13.00   204.38000     Tl( 1.00)

     No symmetry found

   Cartesian axes

     site n.     atom                  positions (alat units)
         1           Nb1 tau(   1) = (   0.0000000   0.0000000  10.0000000  )
         2           Nb1 tau(   2) = (  -1.5019805   2.6015066  10.0000000  )
         3           Nb1 tau(   3) = (   1.5019805   2.6015066  10.0000000  )
         4           Tl1 tau(   4) = (   3.0039610   0.0000000  10.0000000  )
         5           Nb1 tau(   5) = (   3.0039610   1.7343377  12.4527239  )
         6           Nb1 tau(   6) = (   1.5019805   4.3358443  12.4527239  )
         7           Nb1 tau(   7) = (  -1.5019805   4.3358443  12.4527239  )
         8           Tl1 tau(   8) = (   0.0000000   1.7343377  12.4527239  )
         9           Nb1 tau(   9) = (  -0.0000000   3.4686754  14.9054478  )
        10           Nb1 tau(  10) = (   1.5019805   0.8671689  14.9054478  )
        11           Nb1 tau(  11) = (   4.5059415   0.8671689  14.9054478  )
        12           Tl1 tau(  12) = (   3.0039610   3.4686754  14.9054478  )

     number of k points=    20  Fermi-Dirac smearing, width (Ry)=  0.0110
                       cart. coord. in units 2pi/alat
        k(    1) = (   0.0000000   0.0000000   0.0000000), wk =   0.0555556
        k(    2) = (   0.0000000   0.0320327   0.0000000), wk =   0.1111111
        k(    3) = (   0.0000000   0.0640654   0.0000000), wk =   0.1111111
        k(    4) = (   0.0000000  -0.0960982   0.0000000), wk =   0.0555556
        k(    5) = (   0.0277412   0.0160164   0.0000000), wk =   0.1111111
        k(    6) = (   0.0277412   0.0480491   0.0000000), wk =   0.1111111
        k(    7) = (   0.0277412   0.0800818   0.0000000), wk =   0.1111111
        k(    8) = (   0.0277412  -0.0800818   0.0000000), wk =   0.1111111
        k(    9) = (   0.0277412  -0.0480491   0.0000000), wk =   0.1111111
        k(   10) = (   0.0277412  -0.0160164   0.0000000), wk =   0.1111111
        k(   11) = (   0.0554823   0.0320327   0.0000000), wk =   0.1111111
        k(   12) = (   0.0554823   0.0640654   0.0000000), wk =   0.1111111
        k(   13) = (   0.0554823   0.0960982   0.0000000), wk =   0.1111111
        k(   14) = (   0.0554823  -0.0640654   0.0000000), wk =   0.1111111
        k(   15) = (   0.0554823  -0.0320327   0.0000000), wk =   0.1111111
        k(   16) = (   0.0554823  -0.0000000   0.0000000), wk =   0.1111111
        k(   17) = (  -0.0832235  -0.0480491   0.0000000), wk =   0.0555556
        k(   18) = (  -0.0832235  -0.0160164   0.0000000), wk =   0.1111111
        k(   19) = (  -0.0832235   0.0160164   0.0000000), wk =   0.1111111
        k(   20) = (  -0.0832235  -0.1441472   0.0000000), wk =   0.0555556

     Largest allocated arrays     est. size (Mb)     dimensions
     Largest temporary arrays     est. size (Mb)     dimensions

     Check: negative/imaginary core charge=   -0.000001    0.000000

     Initial potential from superposition of free atoms
     Check: negative starting charge=   -0.156910

     starting charge  155.96080, renormalised to  156.00000

     negative rho (up, down):  1.569E-01 0.000E+00

     *
     * You are using vdW-DF for exchange-correlation in this calculation.
     * Please cite the following three references that made this development
     * possible:
     *
     *   M. Dion, H. Rydberg, E. Schroder, D. C. Langreth, and
     *   B. I. Lundqvist, Phys. Rev. Lett. 92, 246401 (2004).
     *
     *   T. Thonhauser, V. R. Cooper, S. Li, A. Puzder, P. Hyldgaard, and
     *   D. C. Langreth, Phys. Rev. B 76, 125112 (2007).
     *
     *   G. Roman-Perez and J. M. Soler, Phys. Rev. Lett. 103, 096102 (2009).
     *
     *
     * If you are using vdW-DF2, please also cite:
     *
     *   K. Lee, E. D. Murray, L. Kong, B. I. Lundqvist, and
     *   D. C. Langreth, Phys. Rev. B 82, 081101(R) (2010).
     *
     *
     * If you are calculating the stress with vdW-DF, please also cite:
     *
     *   R. Sabatini, E. Kucukbenli, B. Kolb, T. Thonhauser, and
     *   S. de Gironcoli, J. Phys.: Condens. Matter 24, 424209 (2012).
     *

     Carrying out vdW-DF run using the following parameters:

     Nqs =      20    Nr_points =    1024   r_max =   100.000
     q_mesh =
               0.00001000     0.04494208     0.09755937     0.15916263
               0.23128650     0.31572767     0.41458969     0.53033537
               0.66584808     0.82450364     1.01025438     1.22772762
               1.48234092     1.78043706     2.12944203     2.53805004
               3.01644009     3.57652955     4.23227104     5.00000000

     Gradients computed in reciprocal space

     Adding external electric field

     Computed dipole along edir(3) :
        Dipole               -0.0000 Ry au,         -0.0000 Debye
        Dipole field         -0.0000 Ry au

        Potential amp.        0.0000 Ry
        Total length         45.8879 bohr

     Starting wfc are  144 randomized atomic wfcs

     Self-consistent Calculation

     iteration #  1     ecut=    36.75 Ry     beta=0.10
     Davidson diagonalization with overlap
     ethr =  1.00E-02,  avg # of iterations =  2.0

[...]

     total energy              =   -1506.63922062 Ry
     Harris-Foulkes estimate   =   -1507.16919399 Ry
     estimated scf accuracy    <       3.25024696 Ry

[...]

     iteration #  8     ecut=    36.75 Ry     beta=0.10
     Davidson diagonalization with overlap
     c_bands:  1 eigenvalues not converged
     ethr =  1.06E-05,  avg # of iterations =  8.0

[...]

     End of self-consistent calculation

          k = 0.0000 0.0000 0.0000 ( 19579 PWs)   bands (ev):

   -53.4065 -53.3983 -53.3157 -53.3157 -53.3137 -53.3137 -53.2012 -53.1211
   -53.1211 -29.7353 -29.6928 -29.6536 -29.6097 -29.6097 -29.5836 -29.5836
   -29.5829 -29.5478 -29.5478 -29.4931 -29.4083 -29.4083 -29.2912 -29.2912
   -29.2342 -29.1956 -29.0519 -29.0519 -29.0338 -29.0101 -28.9644 -28.9644
   -28.9558 -28.9558 -28.8275 -28.8274  -9.9895  -9.9895  -9.9693  -9.9185
    -9.9185  -9.7245  -9.7245  -9.7165  -9.7165  -9.6981  -9.6633  -9.6025
    -9.6025  -9.5846  -9.5846  -6.6298  -5.3958  -5.3527  -1.9131  -1.6150
    -1.2031  -0.4159  -0.4159  -0.3236  -0.2405  -0.0769  -0.0769  -0.0706
    -0.0706   0.0477   0.0477   0.6353   0.6353   1.0190   1.0593   1.4115
     1.4115   1.6677   1.7207   1.7207   1.9215   1.9215   2.1209   2.1215
     2.2709   2.2710   2.3183   3.4989   3.5750   3.5750   3.6659   3.7472
     3.7473   3.9090   3.9090   4.0430   4.0622   4.0622   4.2578   4.2578
     4.6594   4.7599   4.7599   4.9549   4.9549   5.0296   5.0296   5.2356
     5.2859   5.2897   5.6406   5.8640

[...]

          k =-0.0832-0.0480 0.0000 ( 19788 PWs)   bands (ev):

[...]

     the Fermi energy is     1.8216 ev

!    total energy              =   -1506.84865258 Ry
     Harris-Foulkes estimate   =   -1506.84865430 Ry
     estimated scf accuracy    <       0.00000071 Ry

     The total energy is the sum of the following terms:

     one-electron contribution =  -11169.12984537 Ry
     hartree contribution      =    5599.99308463 Ry
     xc contribution           =    -363.46064856 Ry
     ewald contribution        =    4425.85120908 Ry
     electric field correction =       0.00000000 Ry
     smearing contrib. (-TS)   =      -0.10245235 Ry

     convergence has been achieved in  16 iterations

 BEEF-vdW xc energy contributions
           1 :   -318.067981466787
           2 :    292.926217380273
           3 :   -249.195941224536
           4 :    197.287308199715
           5 :   -147.667199533493
           6 :    107.550503296946
           7 :   -79.3714990819996
           8 :    61.2890369530753
           9 :   -49.1522424057277
[...]

     PseudoPot. # 1 for Nb read from file:
     /afs/slac.stanford.edu/u/if/mamunm/psp/gbrv1.5pbe/Nb.UPF
     MD5 check sum: 573aab8a2fa660278ed4a62cd769473f
     Pseudo is Ultrasoft + core correction, Zval = 13.0
     Generated by new atomic code, or converted to UPF format
     Using radial grid of  887 points,  6 beta functions with:
                l(1) =   0
                l(2) =   0
                l(3) =   1
                l(4) =   1
                l(5) =   2
                l(6) =   2
     Q(r) pseudized with  6 coefficients,  rinner =    1.000   1.000   1.000
                                                       1.000   1.000

     PseudoPot. # 2 for Tl read from file:
     /afs/slac.stanford.edu/u/if/mamunm/psp/gbrv1.5pbe/Tl.UPF
     MD5 check sum: b76cf1f7e72655a2b2c53cf6385d7059
     Pseudo is Ultrasoft + core correction, Zval = 13.0
     Generated by new atomic code, or converted to UPF format
     Using radial grid of  899 points,  6 beta functions with:
                l(1) =   0
                l(2) =   0
                l(3) =   1
                l(4) =   1
                l(5) =   2
                l(6) =   2
     Q(r) pseudized with  6 coefficients,  rinner =    1.100   1.100   1.100
                                                       1.100   1.100

     vdW kernel table read from file vdW_kernel_table
     MD5 check sum: 095c7af220d748ca6e76c0b4c6cfb241

     atomic species   valence    mass     pseudopotential
        Nb1           13.00    92.90637     Nb( 1.00)
        Tl1           13.00   204.38000     Tl( 1.00)

     No symmetry found

   Cartesian axes

     site n.     atom                  positions (alat units)
         1           Nb1 tau(   1) = (   0.0000000   0.0000000  10.0000000  )
         2           Nb1 tau(   2) = (  -1.5019805   2.6015066  10.0000000  )
         3           Nb1 tau(   3) = (   1.5019805   2.6015066  10.0000000  )
         4           Tl1 tau(   4) = (   3.0039610   0.0000000  10.0000000  )
         5           Nb1 tau(   5) = (   3.0039610   1.7343377  12.4527239  )
         6           Nb1 tau(   6) = (   1.5019805   4.3358443  12.4527239  )
         7           Nb1 tau(   7) = (  -1.5019805   4.3358443  12.4527239  )
         8           Tl1 tau(   8) = (   0.0000000   1.7343377  12.4527239  )
         9           Nb1 tau(   9) = (   0.0000050   3.5571634  14.7531785  )
        10           Nb1 tau(  10) = (   1.5786208   0.8229128  14.7531761  )
        11           Nb1 tau(  11) = (   4.4292989   0.8229056  14.7531706  )
        12           Tl1 tau(  12) = (   3.0039661   3.4686460  15.4153286  )

     number of k points=    20  Fermi-Dirac smearing, width (Ry)=  0.0110
                       cart. coord. in units 2pi/alat
        k(    1) = (   0.0000000   0.0000000   0.0000000), wk =   0.0555556
        k(    2) = (   0.0000000   0.0320327   0.0000000), wk =   0.1111111
        k(    3) = (   0.0000000   0.0640654   0.0000000), wk =   0.1111111
        k(    4) = (   0.0000000  -0.0960982   0.0000000), wk =   0.0555556
        k(    5) = (   0.0277412   0.0160164   0.0000000), wk =   0.1111111
        k(    6) = (   0.0277412   0.0480491   0.0000000), wk =   0.1111111
        k(    7) = (   0.0277412   0.0800818   0.0000000), wk =   0.1111111
        k(    8) = (   0.0277412  -0.0800818   0.0000000), wk =   0.1111111
        k(    9) = (   0.0277412  -0.0480491   0.0000000), wk =   0.1111111
        k(   10) = (   0.0277412  -0.0160164   0.0000000), wk =   0.1111111
        k(   11) = (   0.0554823   0.0320327   0.0000000), wk =   0.1111111
        k(   12) = (   0.0554823   0.0640654   0.0000000), wk =   0.1111111
        k(   13) = (   0.0554823   0.0960982   0.0000000), wk =   0.1111111
        k(   14) = (   0.0554823  -0.0640654   0.0000000), wk =   0.1111111
        k(   15) = (   0.0554823  -0.0320327   0.0000000), wk =   0.1111111
        k(   16) = (   0.0554823  -0.0000000   0.0000000), wk =   0.1111111
        k(   17) = (  -0.0832235  -0.0480491   0.0000000), wk =   0.0555556
        k(   18) = (  -0.0832235  -0.0160164   0.0000000), wk =   0.1111111
        k(   19) = (  -0.0832235   0.0160164   0.0000000), wk =   0.1111111
        k(   20) = (  -0.0832235  -0.1441472   0.0000000), wk =   0.0555556

     Largest allocated arrays     est. size (Mb)     dimensions
     Largest temporary arrays     est. size (Mb)     dimensions

     Check: negative/imaginary core charge=   -0.000001    0.000000

     Initial potential from superposition of free atoms
     Check: negative starting charge=   -0.157031

     starting charge  155.96080, renormalised to  156.00000

[...]

     *
     * You are using vdW-DF for exchange-correlation in this calculation.
     * Please cite the following three references that made this development
     * possible:
     *
     *   M. Dion, H. Rydberg, E. Schroder, D. C. Langreth, and
     *   B. I. Lundqvist, Phys. Rev. Lett. 92, 246401 (2004).
     *
     *   T. Thonhauser, V. R. Cooper, S. Li, A. Puzder, P. Hyldgaard, and
     *   D. C. Langreth, Phys. Rev. B 76, 125112 (2007).
     *
     *   G. Roman-Perez and J. M. Soler, Phys. Rev. Lett. 103, 096102 (2009).
     *
     *
     * If you are using vdW-DF2, please also cite:
     *
     *   K. Lee, E. D. Murray, L. Kong, B. I. Lundqvist, and
     *   D. C. Langreth, Phys. Rev. B 82, 081101(R) (2010).
     *
     *
     * If you are calculating the stress with vdW-DF, please also cite:
     *
     *   R. Sabatini, E. Kucukbenli, B. Kolb, T. Thonhauser, and
     *   S. de Gironcoli, J. Phys.: Condens. Matter 24, 424209 (2012).
     *

     Carrying out vdW-DF run using the following parameters:

     Nqs =      20    Nr_points =    1024   r_max =   100.000
     q_mesh =
               0.00001000     0.04494208     0.09755937     0.15916263
               0.23128650     0.31572767     0.41458969     0.53033537
               0.66584808     0.82450364     1.01025438     1.22772762
               1.48234092     1.78043706     2.12944203     2.53805004
               3.01644009     3.57652955     4.23227104     5.00000000

     Gradients computed in reciprocal space

[...]

     Starting wfc are  144 randomized atomic wfcs

     Self-consistent Calculation

[...]

     total energy              =   -1506.89985368 Ry
     Harris-Foulkes estimate   =   -1506.89985276 Ry
     estimated scf accuracy    <       0.00000414 Ry

     iteration # 17     ecut=    36.75 Ry     beta=0.10
     Davidson diagonalization with overlap
     ethr =  1.77E-09,  avg # of iterations =  2.0

[...]

     negative rho (up, down):  1.726E-01 0.000E+00

     Adding external electric field

     Computed dipole along edir(3) :
        Dipole               -0.0410 Ry au,         -0.1042 Debye
        Dipole field         -0.0001 Ry au

        Potential amp.        0.0090 Ry
        Total length         45.8879 bohr

     End of self-consistent calculation

[...]

          k = 0.0555-0.0000 0.0000 ( 19767 PWs)   bands (ev):

[...]

          k =-0.0832-0.1441 0.0000 ( 19788 PWs)   bands (ev):

   -53.4459 -53.4174 -53.3879 -53.3389 -53.2684 -53.2467 -53.1757 -53.1538
   -53.1287 -29.7313 -29.7058 -29.6655 -29.5991 -29.5839 -29.5628 -29.5342
   -29.4924 -29.4836 -29.4735 -29.4438 -29.4298 -29.4014 -29.3919 -29.3311
   -29.2868 -29.2226 -29.1735 -29.1403 -29.1151 -29.1062 -29.0579 -28.9894
   -28.9568 -28.9332 -28.9214 -28.8519 -10.0577 -10.0173 -10.0035  -9.9639
    -9.9619  -9.7753  -9.7179  -9.6972  -9.6680  -9.6646  -9.4262  -9.3984
    -9.3737  -9.3587  -9.3460  -5.7461  -5.1093  -4.4704  -2.3229  -1.6508
    -1.4879  -1.1528  -0.9785  -0.3156  -0.2592  -0.1517  -0.1149   0.0163
     0.1500   0.1557   0.3538   0.5783   0.6458   0.7593   0.8696   0.9776
     1.0219   1.2522   1.3243   1.4122   1.4391   1.5560   1.8144   1.9392
     1.9511   2.1777   2.1847   2.2554   2.7866   3.1199   3.1644   3.2630
     3.3087   3.4914   3.5713   3.6101   3.7661   3.8237   3.9156   4.0727
     4.0801   4.2288   4.3576   4.3942   4.8991   5.0712   5.1459   5.3640
     5.6752   5.9748   6.3370   6.5877

     the Fermi energy is     1.7597 ev

!    total energy              =   -1506.89986360 Ry
     Harris-Foulkes estimate   =   -1506.89985410 Ry
     estimated scf accuracy    <       0.00000063 Ry

     The total energy is the sum of the following terms:

     one-electron contribution =  -11132.88437300 Ry
     hartree contribution      =    5581.81783910 Ry
     xc contribution           =    -363.54025091 Ry
     ewald contribution        =    4407.80018069 Ry
     electric field correction =       0.00000402 Ry
     smearing contrib. (-TS)   =      -0.09326349 Ry

     convergence has been achieved in  17 iterations

 BEEF-vdW xc energy contributions
           1 :   -318.340762577976
           2 :    293.179059744467
           3 :   -249.424841416271
           4 :    197.500647930525
           5 :   -147.871731730609
           6 :    107.739503910156
           7 :   -79.5210089824508
           8 :    61.3654188243108
           9 :   -49.1318230627150
          10 :    38.7134602539834
          11 :   -27.7100179696900
          12 :    15.9021943572101
          13 :   -4.63374202884910
          14 :   -4.37490944160089
          15 :    10.1033888824849
          16 :   -12.7273473270951
          17 :    13.4058937883923
          18 :   -13.6031734908316
          19 :    14.3557953639499
          20 :   -15.8717063164299
          21 :    17.6070613178618
          22 :   -18.7091819431947
          23 :    18.5352981673323
          24 :   -16.9771700757590
          25 :    14.4617150134431
          26 :   -11.6916632317493
          27 :    9.29867344047653
          28 :   -7.59433163844898
          29 :    6.51514193270935
          30 :   -5.75246478308293
          31 :   -30.6518514576234
          32 :   -22.9252510193554

     Forces acting on atoms (Ry/au):

     negative rho (up, down):  1.726E-01 0.000E+00
     atom    1 type  1   force =    -0.00000030   -0.00751761    0.02627831
     atom    2 type  1   force =    -0.00651164    0.00376057    0.02627849
     atom    3 type  1   force =     0.00651067    0.00375966    0.02627891
     atom    4 type  2   force =     0.00000285   -0.00000036   -0.05982719
     atom    5 type  1   force =    -0.00000066    0.01986569    0.00149755
     atom    6 type  1   force =     0.01720349   -0.00993288    0.00149806
     atom    7 type  1   force =    -0.01720349   -0.00993238    0.00149917
     atom    8 type  2   force =    -0.00000205   -0.00000358   -0.02377900
     atom    9 type  1   force =    -0.00000128   -0.00114983   -0.00044914
     atom   10 type  1   force =    -0.00099711    0.00057307   -0.00045003
     atom   11 type  1   force =     0.00099786    0.00057459   -0.00044730
     atom   12 type  2   force =     0.00000166    0.00000307    0.00162217

     Total force =     0.087085     Total SCF correction =     0.002897

     entering subroutine stress ...

     negative rho (up, down):  1.726E-01 0.000E+00
          total   stress  (Ry/bohr**3)                   (kbar)     P=  -14.18
  -0.00012925  -0.00000000  -0.00000000        -19.01     -0.00     -0.00
  -0.00000000  -0.00012925   0.00000000         -0.00    -19.01      0.00
  -0.00000000   0.00000000  -0.00003070         -0.00      0.00     -4.52

 !ASE

     Writing output data file calc.save

     General routines

     Parallel routines

   This run was terminated on:   8:30:18  27Dec2018

   JOB DONE.
Job  /afs/slac/g/suncat/bin/suncat-tsmpirun -x LD_LIBRARY_PATH -wdir /scratch/qe110220_PzjT3 pw.x -in pw.inp

TID   HOST_NAME   COMMAND_LINE            STATUS            TERMINATION_TIME
00000 suncat0083 pw.x -in pw.inp   Done                     12/27/2018 08:30:18
00001 suncat0083 pw.x -in pw.inp   Done                     12/27/2018 08:30:18
00002 suncat0083 pw.x -in pw.inp   Done                     12/27/2018 08:30:18
00003 suncat0083 pw.x -in pw.inp   Done                     12/27/2018 08:30:18
00004 suncat0083 pw.x -in pw.inp   Done                     12/27/2018 08:30:18
00005 suncat0083 pw.x -in pw.inp   Done                     12/27/2018 08:30:18
00006 suncat0083 pw.x -in pw.inp   Done                     12/27/2018 08:30:18
00007 suncat0083 pw.x -in pw.inp   Done                     12/27/2018 08:30:18
00008 suncat0081 pw.x -in pw.inp   Done                     12/27/2018 08:30:18
00009 suncat0081 pw.x -in pw.inp   Done                     12/27/2018 08:30:18
00010 suncat0081 pw.x -in pw.inp   Done                     12/27/2018 08:30:18
00011 suncat0081 pw.x -in pw.inp   Done                     12/27/2018 08:30:18
00012 suncat0081 pw.x -in pw.inp   Done                     12/27/2018 08:30:18
00013 suncat0081 pw.x -in pw.inp   Done                     12/27/2018 08:30:18
00014 suncat0081 pw.x -in pw.inp   Done                     12/27/2018 08:30:18
00015 suncat0081 pw.x -in pw.inp   Done                     12/27/2018 08:30:18
00016 suncat0076 pw.x -in pw.inp   Done                     12/27/2018 08:30:18
00017 suncat0076 pw.x -in pw.inp   Done                     12/27/2018 08:30:18
00018 suncat0076 pw.x -in pw.inp   Done                     12/27/2018 08:30:18
00019 suncat0076 pw.x -in pw.inp   Done                     12/27/2018 08:30:18
00020 suncat0076 pw.x -in pw.inp   Done                     12/27/2018 08:30:18
00021 suncat0076 pw.x -in pw.inp   Done                     12/27/2018 08:30:18
00022 suncat0076 pw.x -in pw.inp   Done                     12/27/2018 08:30:18
00023 suncat0076 pw.x -in pw.inp   Done                     12/27/2018 08:30:18
00024 suncat0041 pw.x -in pw.inp   Done                     12/27/2018 08:30:18
00025 suncat0041 pw.x -in pw.inp   Done                     12/27/2018 08:30:18
00026 suncat0041 pw.x -in pw.inp   Done                     12/27/2018 08:30:18
00027 suncat0041 pw.x -in pw.inp   Done                     12/27/2018 08:30:18
00028 suncat0041 pw.x -in pw.inp   Done                     12/27/2018 08:30:18
00029 suncat0041 pw.x -in pw.inp   Done                     12/27/2018 08:30:18
00030 suncat0041 pw.x -in pw.inp   Done                     12/27/2018 08:30:18
00031 suncat0041 pw.x -in pw.inp   Done                     12/27/2018 08:30:18
00032 suncat0039 pw.x -in pw.inp   Done                     12/27/2018 08:30:18
00033 suncat0039 pw.x -in pw.inp   Done                     12/27/2018 08:30:18
00034 suncat0039 pw.x -in pw.inp   Done                     12/27/2018 08:30:18
00035 suncat0039 pw.x -in pw.inp   Done                     12/27/2018 08:30:18
00036 suncat0039 pw.x -in pw.inp   Done                     12/27/2018 08:30:18
00037 suncat0039 pw.x -in pw.inp   Done                     12/27/2018 08:30:18
00038 suncat0039 pw.x -in pw.inp   Done                     12/27/2018 08:30:18
00039 suncat0039 pw.x -in pw.inp   Done                     12/27/2018 08:30:18
00040 suncat0034 pw.x -in pw.inp   Done                     12/27/2018 08:30:18
00041 suncat0034 pw.x -in pw.inp   Done                     12/27/2018 08:30:18
00042 suncat0034 pw.x -in pw.inp   Done                     12/27/2018 08:30:18
00043 suncat0034 pw.x -in pw.inp   Done                     12/27/2018 08:30:18
00044 suncat0034 pw.x -in pw.inp   Done                     12/27/2018 08:30:18
00045 suncat0034 pw.x -in pw.inp   Done                     12/27/2018 08:30:18
00046 suncat0034 pw.x -in pw.inp   Done                     12/27/2018 08:30:18
00047 suncat0034 pw.x -in pw.inp   Done                     12/27/2018 08:30:18
00048 suncat0029 pw.x -in pw.inp   Done                     12/27/2018 08:30:18
00049 suncat0029 pw.x -in pw.inp   Done                     12/27/2018 08:30:18
00050 suncat0029 pw.x -in pw.inp   Done                     12/27/2018 08:30:18
00051 suncat0029 pw.x -in pw.inp   Done                     12/27/2018 08:30:18
00052 suncat0029 pw.x -in pw.inp   Done                     12/27/2018 08:30:18
00053 suncat0029 pw.x -in pw.inp   Done                     12/27/2018 08:30:18
00054 suncat0029 pw.x -in pw.inp   Done                     12/27/2018 08:30:18
00055 suncat0029 pw.x -in pw.inp   Done                     12/27/2018 08:30:18
00056 suncat0199 pw.x -in pw.inp   Done                     12/27/2018 08:30:18
00057 suncat0199 pw.x -in pw.inp   Done                     12/27/2018 08:30:18
00058 suncat0199 pw.x -in pw.inp   Done                     12/27/2018 08:30:18
00059 suncat0199 pw.x -in pw.inp   Done                     12/27/2018 08:30:18
00060 suncat0199 pw.x -in pw.inp   Done                     12/27/2018 08:30:18
00061 suncat0199 pw.x -in pw.inp   Done                     12/27/2018 08:30:18
00062 suncat0199 pw.x -in pw.inp   Done                     12/27/2018 08:30:18
00063 suncat0199 pw.x -in pw.inp   Done                     12/27/2018 08:30:18