     Program PWSCF v.5.1rc2 (svn rev. 11289) starts on 25Dec2018 at 22:22:22

     Current dimensions of program PWSCF are:
     Max number of different atomic species (ntypx) = 10
     Max number of k-points (npk) =  40000
     Max angular momentum in pseudopotentials (lmaxx) =  3
     Presently stress not available with electric field

     IMPORTANT: XC functional enforced from input :
     Exchange-correlation      = BEEF-VDW ( 1  4 27 13 2)
     Any further DFT definition will be discarded
     Please, verify this is what you really want

     Subspace diagonalization in iterative solution of the eigenvalue problem:
     a serial algorithm will be used

     Generating pointlists ...
     new r_m :   0.4125 (alat units)  0.7795 (a.u.) for type    1
     new r_m :   0.4125 (alat units)  0.7795 (a.u.) for type    2

     bravais-lattice index     =            0
     lattice parameter (alat)  =       1.8897  a.u.
     unit-cell volume          =    3848.9265 (a.u.)^3
     number of atoms/cell      =           12
     number of atomic types    =            2
     number of electrons       =       180.00
     number of Kohn-Sham states=          120
     kinetic-energy cutoff     =      36.7493  Ry
     charge density cutoff     =     367.4932  Ry
     convergence threshold     =      1.0E-06
     mixing beta               =       0.1000
     number of iterations used =           10  plain     mixing
     Exchange-correlation      = BEEF-VDW ( 1  4 27 13 2)
     nstep                     =           50

     celldm(1)=   1.889726  celldm(2)=   0.000000  celldm(3)=   0.000000
     celldm(4)=   0.000000  celldm(5)=   0.000000  celldm(6)=   0.000000

     crystal axes: (cart. coord. in units of alat)
               a(1) = (   5.210852   0.000000   0.000000 )
               a(2) = (  -2.605426   4.512730   0.000000 )
               a(3) = (   0.000000   0.000000  24.254643 )

     reciprocal axes: (cart. coord. in units 2 pi/alat)
               b(1) = (  0.191907  0.110798  0.000000 )
               b(2) = (  0.000000  0.221595  0.000000 )
               b(3) = (  0.000000  0.000000  0.041229 )

     PseudoPot. # 1 for Fe read from file:
     /afs/slac.stanford.edu/u/if/mamunm/psp/gbrv1.5pbe/Fe.UPF
     MD5 check sum: a130daea23fe5165f5d574ae7f82ed95
     Pseudo is Ultrasoft + core correction, Zval = 16.0
     Generated by new atomic code, or converted to UPF format
     Using radial grid of  861 points,  6 beta functions with:
                l(1) =   0
                l(2) =   0
                l(3) =   1
                l(4) =   1
                l(5) =   2
                l(6) =   2
     Q(r) pseudized with  8 coefficients,  rinner =    1.000   1.000   1.000
                                                       1.000   1.000

     PseudoPot. # 2 for Ti read from file:
     /afs/slac.stanford.edu/u/if/mamunm/psp/gbrv1.5pbe/Ti.UPF
     MD5 check sum: 88a00a6731bd790ddea75d31a80cb452
     Pseudo is Ultrasoft + core correction, Zval = 12.0
     Generated by new atomic code, or converted to UPF format
     Using radial grid of  851 points,  6 beta functions with:
                l(1) =   0
                l(2) =   0
                l(3) =   1
                l(4) =   1
                l(5) =   2
                l(6) =   2
     Q(r) pseudized with  6 coefficients,  rinner =    1.000   1.000   1.000
                                                       1.000   1.000

     vdW kernel table read from file vdW_kernel_table
     MD5 check sum: 095c7af220d748ca6e76c0b4c6cfb241

     atomic species   valence    mass     pseudopotential
        Fe1           16.00    55.84500     Fe( 1.00)
        Ti1           12.00    47.86700     Ti( 1.00)

     Starting magnetic structure
     atomic species   magnetization
        Fe1          0.125
        Ti1          0.167

     No symmetry found

   Cartesian axes

     site n.     atom                  positions (alat units)
         1           Fe1 tau(   1) = (   0.0000000   0.0000000  10.0000000  )
         2           Fe1 tau(   2) = (  -1.3027130   2.2563652  10.0000000  )
         3           Fe1 tau(   3) = (   1.3027130   2.2563652  10.0000000  )
         4           Ti1 tau(   4) = (   2.6054261   0.0000000  10.0000000  )
         5           Fe1 tau(   5) = (   2.6054261   1.5042434  12.1273215  )
         6           Fe1 tau(   6) = (   1.3027130   3.7606086  12.1273215  )
         7           Fe1 tau(   7) = (  -1.3027130   3.7606086  12.1273215  )
         8           Ti1 tau(   8) = (   0.0000000   1.5042434  12.1273215  )
         9           Fe1 tau(   9) = (  -0.0000000   3.0084869  14.2546430  )
        10           Fe1 tau(  10) = (   1.3027130   0.7521217  14.2546430  )
        11           Fe1 tau(  11) = (   3.9081391   0.7521217  14.2546430  )
        12           Ti1 tau(  12) = (   2.6054261   3.0084869  14.2546430  )

     number of k points=    40  Fermi-Dirac smearing, width (Ry)=  0.0110
                       cart. coord. in units 2pi/alat
        k(    1) = (   0.0000000   0.0000000   0.0000000), wk =   0.0277778
        k(    2) = (   0.0000000   0.0369326   0.0000000), wk =   0.0555556
        k(    3) = (   0.0000000   0.0738651   0.0000000), wk =   0.0555556
        k(    4) = (   0.0000000  -0.1107977   0.0000000), wk =   0.0277778
        k(    5) = (   0.0319845   0.0184663   0.0000000), wk =   0.0555556
        k(    6) = (   0.0319845   0.0553988   0.0000000), wk =   0.0555556
        k(    7) = (   0.0319845   0.0923314   0.0000000), wk =   0.0555556
        k(    8) = (   0.0319845  -0.0923314   0.0000000), wk =   0.0555556
        k(    9) = (   0.0319845  -0.0553988   0.0000000), wk =   0.0555556
        k(   10) = (   0.0319845  -0.0184663   0.0000000), wk =   0.0555556
        k(   11) = (   0.0639691   0.0369326   0.0000000), wk =   0.0555556
        k(   12) = (   0.0639691   0.0738651   0.0000000), wk =   0.0555556
        k(   13) = (   0.0639691   0.1107977   0.0000000), wk =   0.0555556
        k(   14) = (   0.0639691  -0.0738651   0.0000000), wk =   0.0555556
        k(   15) = (   0.0639691  -0.0369326   0.0000000), wk =   0.0555556
        k(   16) = (   0.0639691   0.0000000   0.0000000), wk =   0.0555556
        k(   17) = (  -0.0959536  -0.0553988   0.0000000), wk =   0.0277778
        k(   18) = (  -0.0959536  -0.0184663   0.0000000), wk =   0.0555556
        k(   19) = (  -0.0959536   0.0184663   0.0000000), wk =   0.0555556
        k(   20) = (  -0.0959536  -0.1661965   0.0000000), wk =   0.0277778
        k(   21) = (   0.0000000   0.0000000   0.0000000), wk =   0.0277778
        k(   22) = (   0.0000000   0.0369326   0.0000000), wk =   0.0555556
        k(   23) = (   0.0000000   0.0738651   0.0000000), wk =   0.0555556
        k(   24) = (   0.0000000  -0.1107977   0.0000000), wk =   0.0277778
        k(   25) = (   0.0319845   0.0184663   0.0000000), wk =   0.0555556
        k(   26) = (   0.0319845   0.0553988   0.0000000), wk =   0.0555556
        k(   27) = (   0.0319845   0.0923314   0.0000000), wk =   0.0555556
        k(   28) = (   0.0319845  -0.0923314   0.0000000), wk =   0.0555556
        k(   29) = (   0.0319845  -0.0553988   0.0000000), wk =   0.0555556
        k(   30) = (   0.0319845  -0.0184663   0.0000000), wk =   0.0555556
        k(   31) = (   0.0639691   0.0369326   0.0000000), wk =   0.0555556
        k(   32) = (   0.0639691   0.0738651   0.0000000), wk =   0.0555556
        k(   33) = (   0.0639691   0.1107977   0.0000000), wk =   0.0555556
        k(   34) = (   0.0639691  -0.0738651   0.0000000), wk =   0.0555556
        k(   35) = (   0.0639691  -0.0369326   0.0000000), wk =   0.0555556
        k(   36) = (   0.0639691   0.0000000   0.0000000), wk =   0.0555556
        k(   37) = (  -0.0959536  -0.0553988   0.0000000), wk =   0.0277778
        k(   38) = (  -0.0959536  -0.0184663   0.0000000), wk =   0.0555556
        k(   39) = (  -0.0959536   0.0184663   0.0000000), wk =   0.0555556
        k(   40) = (  -0.0959536  -0.1661965   0.0000000), wk =   0.0277778

     Largest allocated arrays     est. size (Mb)     dimensions
     Largest temporary arrays     est. size (Mb)     dimensions

     Check: negative/imaginary core charge=   -0.000008    0.000000

     Initial potential from superposition of free atoms
     Check: negative starting charge=(component1):   -0.002586
     Check: negative starting charge=(component2):   -0.001848

     starting charge  167.99982, renormalised to  180.00000

     negative rho (up, down):  2.771E-03 1.980E-03

     *
     * You are using vdW-DF for exchange-correlation in this calculation.
     * Please cite the following three references that made this development
     * possible:
     *
     *   M. Dion, H. Rydberg, E. Schroder, D. C. Langreth, and
     *   B. I. Lundqvist, Phys. Rev. Lett. 92, 246401 (2004).
     *
     *   T. Thonhauser, V. R. Cooper, S. Li, A. Puzder, P. Hyldgaard, and
     *   D. C. Langreth, Phys. Rev. B 76, 125112 (2007).
     *
     *   G. Roman-Perez and J. M. Soler, Phys. Rev. Lett. 103, 096102 (2009).
     *
     *
     * If you are using vdW-DF2, please also cite:
     *
     *   K. Lee, E. D. Murray, L. Kong, B. I. Lundqvist, and
     *   D. C. Langreth, Phys. Rev. B 82, 081101(R) (2010).
     *
     *
     * If you are calculating the stress with vdW-DF, please also cite:
     *
     *   R. Sabatini, E. Kucukbenli, B. Kolb, T. Thonhauser, and
     *   S. de Gironcoli, J. Phys.: Condens. Matter 24, 424209 (2012).
     *

     Carrying out vdW-DF run using the following parameters:

     Nqs =      20    Nr_points =    1024   r_max =   100.000
     q_mesh =
               0.00001000     0.04494208     0.09755937     0.15916263
               0.23128650     0.31572767     0.41458969     0.53033537
               0.66584808     0.82450364     1.01025438     1.22772762
               1.48234092     1.78043706     2.12944203     2.53805004
               3.01644009     3.57652955     4.23227104     5.00000000

     Gradients computed in reciprocal space

     Adding external electric field

     Computed dipole along edir(3) :
        Dipole                0.0000 Ry au,          0.0000 Debye
        Dipole field          0.0000 Ry au

        Potential amp.       -0.0000 Ry
        Total length         44.6888 bohr

[...]

     Starting wfc are  147 randomized atomic wfcs

     Self-consistent Calculation

     iteration #  1     ecut=    36.75 Ry     beta=0.10
     Davidson diagonalization with overlap
     ethr =  1.00E-02,  avg # of iterations =  6.3

[...]

     Magnetic moment per site:
     atom:    1    charge:    7.2476    magn:    0.8730    constr:    0.0000
     atom:    2    charge:    7.2476    magn:    0.8730    constr:    0.0000
     atom:    3    charge:    7.2476    magn:    0.8730    constr:    0.0000
     atom:    4    charge:    3.3344    magn:    0.5158    constr:    0.0000
     atom:    5    charge:    7.2791    magn:    0.8769    constr:    0.0000
     atom:    6    charge:    7.2791    magn:    0.8769    constr:    0.0000
     atom:    7    charge:    7.2791    magn:    0.8769    constr:    0.0000
     atom:    8    charge:    3.3478    magn:    0.5170    constr:    0.0000
[...]
        k(    4) = (   0.0000000  -0.1107977   0.0000000), wk =   0.0277778
        k(    5) = (   0.0319845   0.0184663   0.0000000), wk =   0.0555556
        k(    6) = (   0.0319845   0.0553988   0.0000000), wk =   0.0555556
        k(    7) = (   0.0319845   0.0923314   0.0000000), wk =   0.0555556
        k(    8) = (   0.0319845  -0.0923314   0.0000000), wk =   0.0555556
        k(    9) = (   0.0319845  -0.0553988   0.0000000), wk =   0.0555556
        k(   10) = (   0.0319845  -0.0184663   0.0000000), wk =   0.0555556
        k(   11) = (   0.0639691   0.0369326   0.0000000), wk =   0.0555556
        k(   12) = (   0.0639691   0.0738651   0.0000000), wk =   0.0555556
        k(   13) = (   0.0639691   0.1107977   0.0000000), wk =   0.0555556
        k(   14) = (   0.0639691  -0.0738651   0.0000000), wk =   0.0555556
        k(   15) = (   0.0639691  -0.0369326   0.0000000), wk =   0.0555556
        k(   16) = (   0.0639691   0.0000000   0.0000000), wk =   0.0555556
        k(   17) = (  -0.0959536  -0.0553988   0.0000000), wk =   0.0277778
        k(   18) = (  -0.0959536  -0.0184663   0.0000000), wk =   0.0555556
        k(   19) = (  -0.0959536   0.0184663   0.0000000), wk =   0.0555556
        k(   20) = (  -0.0959536  -0.1661965   0.0000000), wk =   0.0277778
        k(   21) = (   0.0000000   0.0000000   0.0000000), wk =   0.0277778
        k(   22) = (   0.0000000   0.0369326   0.0000000), wk =   0.0555556
        k(   23) = (   0.0000000   0.0738651   0.0000000), wk =   0.0555556
        k(   24) = (   0.0000000  -0.1107977   0.0000000), wk =   0.0277778
        k(   25) = (   0.0319845   0.0184663   0.0000000), wk =   0.0555556
        k(   26) = (   0.0319845   0.0553988   0.0000000), wk =   0.0555556
        k(   27) = (   0.0319845   0.0923314   0.0000000), wk =   0.0555556
        k(   28) = (   0.0319845  -0.0923314   0.0000000), wk =   0.0555556
        k(   29) = (   0.0319845  -0.0553988   0.0000000), wk =   0.0555556
        k(   30) = (   0.0319845  -0.0184663   0.0000000), wk =   0.0555556
        k(   31) = (   0.0639691   0.0369326   0.0000000), wk =   0.0555556
        k(   32) = (   0.0639691   0.0738651   0.0000000), wk =   0.0555556
        k(   33) = (   0.0639691   0.1107977   0.0000000), wk =   0.0555556
        k(   34) = (   0.0639691  -0.0738651   0.0000000), wk =   0.0555556
        k(   35) = (   0.0639691  -0.0369326   0.0000000), wk =   0.0555556
        k(   36) = (   0.0639691   0.0000000   0.0000000), wk =   0.0555556
        k(   37) = (  -0.0959536  -0.0553988   0.0000000), wk =   0.0277778
        k(   38) = (  -0.0959536  -0.0184663   0.0000000), wk =   0.0555556
        k(   39) = (  -0.0959536   0.0184663   0.0000000), wk =   0.0555556
        k(   40) = (  -0.0959536  -0.1661965   0.0000000), wk =   0.0277778

     Largest allocated arrays     est. size (Mb)     dimensions
     Largest temporary arrays     est. size (Mb)     dimensions

     Check: negative/imaginary core charge=   -0.000008    0.000000

     Initial potential from superposition of free atoms
     Check: negative starting charge=(component1):   -0.002712
     Check: negative starting charge=(component2):   -0.001938

     starting charge  167.99982, renormalised to  180.00000

[...]

     *
     * You are using vdW-DF for exchange-correlation in this calculation.
     * Please cite the following three references that made this development
     * possible:
     *
     *   M. Dion, H. Rydberg, E. Schroder, D. C. Langreth, and
     *   B. I. Lundqvist, Phys. Rev. Lett. 92, 246401 (2004).
     *
     *   T. Thonhauser, V. R. Cooper, S. Li, A. Puzder, P. Hyldgaard, and
     *   D. C. Langreth, Phys. Rev. B 76, 125112 (2007).
     *
     *   G. Roman-Perez and J. M. Soler, Phys. Rev. Lett. 103, 096102 (2009).
     *
     *
     * If you are using vdW-DF2, please also cite:
     *
     *   K. Lee, E. D. Murray, L. Kong, B. I. Lundqvist, and
     *   D. C. Langreth, Phys. Rev. B 82, 081101(R) (2010).
     *
     *
     * If you are calculating the stress with vdW-DF, please also cite:
     *
     *   R. Sabatini, E. Kucukbenli, B. Kolb, T. Thonhauser, and
     *   S. de Gironcoli, J. Phys.: Condens. Matter 24, 424209 (2012).
     *

     Carrying out vdW-DF run using the following parameters:

     Nqs =      20    Nr_points =    1024   r_max =   100.000
     q_mesh =
               0.00001000     0.04494208     0.09755937     0.15916263
               0.23128650     0.31572767     0.41458969     0.53033537
               0.66584808     0.82450364     1.01025438     1.22772762
               1.48234092     1.78043706     2.12944203     2.53805004
               3.01644009     3.57652955     4.23227104     5.00000000

     Gradients computed in reciprocal space

[...]

     Starting wfc are  147 randomized atomic wfcs

     Self-consistent Calculation

[...]

     total energy              =   -2621.70384587 Ry
     Harris-Foulkes estimate   =   -2621.70384354 Ry
     estimated scf accuracy    <       0.00000109 Ry

[...]

     iteration # 35     ecut=    36.75 Ry     beta=0.10
     Davidson diagonalization with overlap
     ethr =  6.07E-10,  avg # of iterations =  3.0

[...]

     negative rho (up, down):  3.123E-03 9.139E-04

[...]

     Adding external electric field

     Computed dipole along edir(3) :
        Dipole                0.0036 Ry au,          0.0090 Debye
        Dipole field          0.0000 Ry au

        Potential amp.       -0.0010 Ry
        Total length         44.6888 bohr

     Magnetic moment per site:
     atom:    1    charge:    7.0732    magn:    1.1697    constr:    0.0000
     atom:    2    charge:    7.0733    magn:    1.1696    constr:    0.0000
     atom:    3    charge:    7.0732    magn:    1.1697    constr:    0.0000
     atom:    4    charge:    3.1197    magn:   -0.2088    constr:    0.0000
     atom:    5    charge:    7.0885    magn:    1.1185    constr:    0.0000
     atom:    6    charge:    7.0885    magn:    1.1185    constr:    0.0000
     atom:    7    charge:    7.0885    magn:    1.1185    constr:    0.0000
     atom:    8    charge:    3.1315    magn:   -0.1634    constr:    0.0000
     atom:    9    charge:    7.0867    magn:    1.1744    constr:    0.0000
     atom:   10    charge:    7.0867    magn:    1.1743    constr:    0.0000
     atom:   11    charge:    7.0867    magn:    1.1744    constr:    0.0000
     atom:   12    charge:    3.1236    magn:   -0.2179    constr:    0.0000

     End of self-consistent calculation

 ------ SPIN UP ------------

[...]

 ------ SPIN DOWN ----------

[...]

          k = 0.0640 0.0000 0.0000 ( 14469 PWs)   bands (ev):

[...]

          k =-0.0960-0.1662 0.0000 ( 14410 PWs)   bands (ev):

   -84.5449 -84.5359 -84.5270 -84.3655 -84.3648 -84.3570 -84.3550 -84.3482
   -84.3466 -56.4265 -56.3493 -56.1936 -50.7350 -50.6778 -50.6743 -50.6674
   -50.6607 -50.6349 -50.6216 -50.6035 -50.5539 -50.5429 -50.5376 -50.5207
   -50.4988 -50.4940 -50.4831 -50.4797 -50.4779 -50.4470 -50.4353 -50.4219
   -50.4146 -50.4094 -50.4071 -50.4008 -50.3823 -50.3388 -50.3371 -32.7463
   -32.6635 -32.6252 -32.6189 -32.5606 -32.5542 -32.4554 -32.4487 -32.4173
    -4.3158  -4.2216  -2.7943  -2.6608  -1.9173  -1.9043  -1.6221  -1.5341
    -1.2797  -1.1866  -0.9111  -0.6798  -0.6734  -0.5973  -0.5015  -0.4519
    -0.2149  -0.1362  -0.0822  -0.0784  -0.0152   0.0686   0.1906   0.2543
     0.3587   0.3825   0.4492   0.4522   0.5425   0.5934   0.6538   0.7002
     0.8501   0.9546   1.0083   1.0546   1.0996   1.1782   1.4229   1.5444
     1.5912   1.7659   1.7728   1.8565   1.9530   2.0023   2.0699   2.0889
     2.2680   2.3194   2.3726   2.4127   2.4651   2.5739   2.6278   2.7043
     2.8481   2.9888   3.0500   3.0524   3.0828   3.3357   3.5253   3.7536
     3.8027   4.0543   4.3186   4.9359   5.3429   5.4246   5.5585   5.6094

     the Fermi energy is     1.0207 ev

!    total energy              =   -2621.70384871 Ry
     Harris-Foulkes estimate   =   -2621.70384646 Ry
     estimated scf accuracy    <       0.00000086 Ry

     The total energy is the sum of the following terms:

     one-electron contribution =  -21831.55752948 Ry
     hartree contribution      =   10912.24514805 Ry
     xc contribution           =    -328.90914673 Ry
     ewald contribution        =    8626.61139629 Ry
     electric field correction =       0.00000004 Ry
     smearing contrib. (-TS)   =      -0.09371688 Ry

     total magnetization       =    18.12 Bohr mag/cell
     absolute magnetization    =    25.86 Bohr mag/cell

     convergence has been achieved in  35 iterations

 BEEF-vdW xc energy contributions
           1 :   -287.067123020169
           2 :    259.227827408522
           3 :   -212.724910499021
           4 :    161.373105859145
           5 :   -117.446759741326
           6 :    87.1524534215765
           7 :   -69.7589609092540
           8 :    60.0538340763118
           9 :   -52.2064907343241
          10 :    42.7862310953254
          11 :   -31.6623410941095
          12 :    20.8713972416299
          13 :   -12.6257159276572
          14 :    7.79464545426356
          15 :   -5.62057820598193
          16 :    4.50169732939423
          17 :   -3.10912143275993
          18 :    1.06533305689879
          19 :    1.11524046382596
          20 :   -2.61812505331267
          21 :    2.95308567017258
          22 :   -2.23344729446893
          23 :    1.02272640447501
          24 :   4.381846596703554E-002
          25 :  -0.600203927908296
          26 :   0.670573247523691
          27 :  -0.567544377457466
          28 :   0.661207680742052
          29 :   -1.16263821312543
          30 :    2.01175267104645
          31 :   -26.1648803664704
          32 :   -18.5137186487420

     Forces acting on atoms (Ry/au):

     negative rho (up, down):  3.123E-03 9.139E-04
     atom    1 type  1   force =     0.00000141   -0.00719902   -0.00332063
     atom    2 type  1   force =    -0.00623246    0.00359823   -0.00331459
     atom    3 type  1   force =     0.00623634    0.00359947   -0.00332335
     atom    4 type  2   force =     0.00000132   -0.00000052   -0.01550302
     atom    5 type  1   force =    -0.00001441    0.00495131    0.00707779
     atom    6 type  1   force =     0.00429291   -0.00248300    0.00708018
     atom    7 type  1   force =    -0.00429126   -0.00246546    0.00708513
     atom    8 type  2   force =     0.00000528   -0.00000101    0.00499052
     atom    9 type  1   force =     0.00002066    0.00089882   -0.00083373
     atom   10 type  1   force =     0.00076323   -0.00044619   -0.00083150
     atom   11 type  1   force =    -0.00076234   -0.00046979   -0.00082607
     atom   12 type  2   force =    -0.00002070    0.00001718    0.00171926

     Total force =     0.026177     Total SCF correction =     0.005527
     SCF correction compared to forces is large: reduce conv_thr to get better values

     entering subroutine stress ...

     negative rho (up, down):  3.123E-03 9.139E-04
          total   stress  (Ry/bohr**3)                   (kbar)     P=   -8.36
  -0.00009279  -0.00000000  -0.00000000        -13.65     -0.00     -0.00
  -0.00000000  -0.00009278  -0.00000000         -0.00    -13.65     -0.00
  -0.00000000  -0.00000000   0.00001501         -0.00     -0.00      2.21

 !ASE

     Writing output data file calc.save

     General routines

     Parallel routines

   This run was terminated on:   2:28: 7  26Dec2018

   JOB DONE.
Job  /afs/slac/g/suncat/bin/suncat-tsmpirun -x LD_LIBRARY_PATH -wdir /scratch/qe109649_Vi6mE pw.x -in pw.inp

TID   HOST_NAME   COMMAND_LINE            STATUS            TERMINATION_TIME
00000 suncat0097 pw.x -in pw.inp   Done                     12/26/2018 02:28:07
00001 suncat0097 pw.x -in pw.inp   Done                     12/26/2018 02:28:07
00002 suncat0097 pw.x -in pw.inp   Done                     12/26/2018 02:28:07
00003 suncat0097 pw.x -in pw.inp   Done                     12/26/2018 02:28:07
00004 suncat0097 pw.x -in pw.inp   Done                     12/26/2018 02:28:07
00005 suncat0097 pw.x -in pw.inp   Done                     12/26/2018 02:28:07
00006 suncat0097 pw.x -in pw.inp   Done                     12/26/2018 02:28:07
00007 suncat0097 pw.x -in pw.inp   Done                     12/26/2018 02:28:07
00008 suncat0096 pw.x -in pw.inp   Done                     12/26/2018 02:28:07
00009 suncat0096 pw.x -in pw.inp   Done                     12/26/2018 02:28:07
00010 suncat0096 pw.x -in pw.inp   Done                     12/26/2018 02:28:07
00011 suncat0096 pw.x -in pw.inp   Done                     12/26/2018 02:28:07
00012 suncat0096 pw.x -in pw.inp   Done                     12/26/2018 02:28:07
00013 suncat0096 pw.x -in pw.inp   Done                     12/26/2018 02:28:07
00014 suncat0096 pw.x -in pw.inp   Done                     12/26/2018 02:28:07
00015 suncat0096 pw.x -in pw.inp   Done                     12/26/2018 02:28:07
00016 suncat0095 pw.x -in pw.inp   Done                     12/26/2018 02:28:07
00017 suncat0095 pw.x -in pw.inp   Done                     12/26/2018 02:28:07
00018 suncat0095 pw.x -in pw.inp   Done                     12/26/2018 02:28:07
00019 suncat0095 pw.x -in pw.inp   Done                     12/26/2018 02:28:07
00020 suncat0095 pw.x -in pw.inp   Done                     12/26/2018 02:28:07
00021 suncat0095 pw.x -in pw.inp   Done                     12/26/2018 02:28:07
00022 suncat0095 pw.x -in pw.inp   Done                     12/26/2018 02:28:07
00023 suncat0095 pw.x -in pw.inp   Done                     12/26/2018 02:28:07
00024 suncat0092 pw.x -in pw.inp   Done                     12/26/2018 02:28:07
00025 suncat0092 pw.x -in pw.inp   Done                     12/26/2018 02:28:07
00026 suncat0092 pw.x -in pw.inp   Done                     12/26/2018 02:28:07
00027 suncat0092 pw.x -in pw.inp   Done                     12/26/2018 02:28:07
00028 suncat0092 pw.x -in pw.inp   Done                     12/26/2018 02:28:07
00029 suncat0092 pw.x -in pw.inp   Done                     12/26/2018 02:28:07
00030 suncat0092 pw.x -in pw.inp   Done                     12/26/2018 02:28:07
00031 suncat0092 pw.x -in pw.inp   Done                     12/26/2018 02:28:07
00032 suncat0091 pw.x -in pw.inp   Done                     12/26/2018 02:28:07
00033 suncat0091 pw.x -in pw.inp   Done                     12/26/2018 02:28:07
00034 suncat0091 pw.x -in pw.inp   Done                     12/26/2018 02:28:07
00035 suncat0091 pw.x -in pw.inp   Done                     12/26/2018 02:28:07
00036 suncat0091 pw.x -in pw.inp   Done                     12/26/2018 02:28:07
00037 suncat0091 pw.x -in pw.inp   Done                     12/26/2018 02:28:07
00038 suncat0091 pw.x -in pw.inp   Done                     12/26/2018 02:28:07
00039 suncat0091 pw.x -in pw.inp   Done                     12/26/2018 02:28:07
00040 suncat0090 pw.x -in pw.inp   Done                     12/26/2018 02:28:07
00041 suncat0090 pw.x -in pw.inp   Done                     12/26/2018 02:28:07
00042 suncat0090 pw.x -in pw.inp   Done                     12/26/2018 02:28:07
00043 suncat0090 pw.x -in pw.inp   Done                     12/26/2018 02:28:07
00044 suncat0090 pw.x -in pw.inp   Done                     12/26/2018 02:28:07
00045 suncat0090 pw.x -in pw.inp   Done                     12/26/2018 02:28:07
00046 suncat0090 pw.x -in pw.inp   Done                     12/26/2018 02:28:07
00047 suncat0090 pw.x -in pw.inp   Done                     12/26/2018 02:28:07
00048 suncat0086 pw.x -in pw.inp   Done                     12/26/2018 02:28:07
00049 suncat0086 pw.x -in pw.inp   Done                     12/26/2018 02:28:07
00050 suncat0086 pw.x -in pw.inp   Done                     12/26/2018 02:28:07
00051 suncat0086 pw.x -in pw.inp   Done                     12/26/2018 02:28:07
00052 suncat0086 pw.x -in pw.inp   Done                     12/26/2018 02:28:07
00053 suncat0086 pw.x -in pw.inp   Done                     12/26/2018 02:28:07
00054 suncat0086 pw.x -in pw.inp   Done                     12/26/2018 02:28:07
00055 suncat0086 pw.x -in pw.inp   Done                     12/26/2018 02:28:07
00056 suncat0085 pw.x -in pw.inp   Done                     12/26/2018 02:28:07
00057 suncat0085 pw.x -in pw.inp   Done                     12/26/2018 02:28:07
00058 suncat0085 pw.x -in pw.inp   Done                     12/26/2018 02:28:07
00059 suncat0085 pw.x -in pw.inp   Done                     12/26/2018 02:28:07
00060 suncat0085 pw.x -in pw.inp   Done                     12/26/2018 02:28:07
00061 suncat0085 pw.x -in pw.inp   Done                     12/26/2018 02:28:07
00062 suncat0085 pw.x -in pw.inp   Done                     12/26/2018 02:28:07
00063 suncat0085 pw.x -in pw.inp   Done                     12/26/2018 02:28:07