     Program PWSCF v.5.1rc2 (svn rev. 11289) starts on 19Dec2018 at 16: 7: 4

     Current dimensions of program PWSCF are:
     Max number of different atomic species (ntypx) = 10
     Max number of k-points (npk) =  40000
     Max angular momentum in pseudopotentials (lmaxx) =  3
     Presently stress not available with electric field

     IMPORTANT: XC functional enforced from input :
     Exchange-correlation      = BEEF-VDW ( 1  4 27 13 2)
     Any further DFT definition will be discarded
     Please, verify this is what you really want

     Subspace diagonalization in iterative solution of the eigenvalue problem:
     a serial algorithm will be used

     bravais-lattice index     =            0
     lattice parameter (alat)  =       1.8897  a.u.
     unit-cell volume          =    5421.6254 (a.u.)^3
     number of atoms/cell      =           12
     number of atomic types    =            2
     number of electrons       =       213.00
     number of Kohn-Sham states=          136
     kinetic-energy cutoff     =      36.7493  Ry
     charge density cutoff     =     367.4932  Ry
     convergence threshold     =      1.0E-06
     mixing beta               =       0.1000
     number of iterations used =           10  plain     mixing
     Exchange-correlation      = BEEF-VDW ( 1  4 27 13 2)
     nstep                     =           50

     celldm(1)=   1.889726  celldm(2)=   0.000000  celldm(3)=   0.000000
     celldm(4)=   0.000000  celldm(5)=   0.000000  celldm(6)=   0.000000

     crystal axes: (cart. coord. in units of alat)
               a(1) = (   6.094505   0.000000   0.000000 )
               a(2) = (  -3.047253   5.277996   0.000000 )
               a(3) = (   0.000000   0.000000  24.976143 )

     reciprocal axes: (cart. coord. in units 2 pi/alat)
               b(1) = (  0.164082  0.094733  0.000000 )
               b(2) = (  0.000000  0.189466  0.000000 )
               b(3) = (  0.000000  0.000000  0.040038 )

     PseudoPot. # 1 for Ag read from file:
     /afs/slac.stanford.edu/u/if/mamunm/psp/gbrv1.5pbe/Ag.UPF
     MD5 check sum: d66d668201baa78d5eb5b04ef7011058
     Pseudo is Ultrasoft + core correction, Zval = 19.0
     Generated by new atomic code, or converted to UPF format
     Using radial grid of  887 points,  6 beta functions with:
                l(1) =   0
                l(2) =   0
                l(3) =   1
                l(4) =   1
                l(5) =   2
                l(6) =   2
     Q(r) pseudized with  6 coefficients,  rinner =    1.300   1.300   1.300
                                                       1.300   1.300

     PseudoPot. # 2 for Sn read from file:
     /afs/slac.stanford.edu/u/if/mamunm/psp/gbrv1.5pbe/Sn.UPF
     MD5 check sum: 469debedee59599fedebd795477fea03
     Pseudo is Ultrasoft + core correction, Zval = 14.0
     Generated by new atomic code, or converted to UPF format
     Using radial grid of  891 points,  6 beta functions with:
                l(1) =   0
                l(2) =   0
                l(3) =   1
                l(4) =   1
                l(5) =   2
                l(6) =   2
     Q(r) pseudized with  8 coefficients,  rinner =    1.350   1.350   1.350
                                                       1.350   1.350

     vdW kernel table read from file vdW_kernel_table
     MD5 check sum: 095c7af220d748ca6e76c0b4c6cfb241

     atomic species   valence    mass     pseudopotential
        Ag1           19.00   107.86820     Ag( 1.00)
        Sn1           14.00   118.71000     Sn( 1.00)

     No symmetry found

   Cartesian axes

     site n.     atom                  positions (alat units)
         1           Ag1 tau(   1) = (   0.0000000   0.0000000  10.0000000  )
         2           Ag1 tau(   2) = (  -1.5236263   2.6389982  10.0000000  )
         3           Ag1 tau(   3) = (   1.5236263   2.6389982  10.0000000  )
         4           Sn1 tau(   4) = (   3.0472526   0.0000000  10.0000000  )
         5           Ag1 tau(   5) = (   3.0472526   1.7593321  12.4880713  )
         6           Ag1 tau(   6) = (   1.5236263   4.3983303  12.4880713  )
         7           Ag1 tau(   7) = (  -1.5236263   4.3983303  12.4880713  )
         8           Sn1 tau(   8) = (   0.0000000   1.7593321  12.4880713  )
         9           Ag1 tau(   9) = (  -0.0000000   3.5186642  14.9761427  )
        10           Ag1 tau(  10) = (   1.5236263   0.8796661  14.9761427  )
        11           Ag1 tau(  11) = (   4.5708789   0.8796661  14.9761427  )
        12           Sn1 tau(  12) = (   3.0472526   3.5186642  14.9761427  )

     number of k points=    20  Fermi-Dirac smearing, width (Ry)=  0.0110
                       cart. coord. in units 2pi/alat
        k(    1) = (   0.0000000   0.0000000   0.0000000), wk =   0.0555556
        k(    2) = (   0.0000000   0.0315776   0.0000000), wk =   0.1111111
        k(    3) = (   0.0000000   0.0631553   0.0000000), wk =   0.1111111
        k(    4) = (   0.0000000  -0.0947329   0.0000000), wk =   0.0555556
        k(    5) = (   0.0273470   0.0157888   0.0000000), wk =   0.1111111
        k(    6) = (   0.0273470   0.0473665   0.0000000), wk =   0.1111111
        k(    7) = (   0.0273470   0.0789441   0.0000000), wk =   0.1111111
        k(    8) = (   0.0273470  -0.0789441   0.0000000), wk =   0.1111111
        k(    9) = (   0.0273470  -0.0473665   0.0000000), wk =   0.1111111
        k(   10) = (   0.0273470  -0.0157888   0.0000000), wk =   0.1111111
        k(   11) = (   0.0546941   0.0315776   0.0000000), wk =   0.1111111
        k(   12) = (   0.0546941   0.0631553   0.0000000), wk =   0.1111111
        k(   13) = (   0.0546941   0.0947329   0.0000000), wk =   0.1111111
        k(   14) = (   0.0546941  -0.0631553   0.0000000), wk =   0.1111111
        k(   15) = (   0.0546941  -0.0315776   0.0000000), wk =   0.1111111
        k(   16) = (   0.0546941   0.0000000   0.0000000), wk =   0.1111111
        k(   17) = (  -0.0820411  -0.0473665   0.0000000), wk =   0.0555556
        k(   18) = (  -0.0820411  -0.0157888   0.0000000), wk =   0.1111111
        k(   19) = (  -0.0820411   0.0157888   0.0000000), wk =   0.1111111
        k(   20) = (  -0.0820411  -0.1420994   0.0000000), wk =   0.0555556

     Largest allocated arrays     est. size (Mb)     dimensions
     Largest temporary arrays     est. size (Mb)     dimensions

     Initial potential from superposition of free atoms
     Check: negative starting charge=   -0.002197

     starting charge  205.49944, renormalised to  213.00000

     negative rho (up, down):  2.277E-03 0.000E+00

     *
     * You are using vdW-DF for exchange-correlation in this calculation.
     * Please cite the following three references that made this development
     * possible:
     *
     *   M. Dion, H. Rydberg, E. Schroder, D. C. Langreth, and
     *   B. I. Lundqvist, Phys. Rev. Lett. 92, 246401 (2004).
     *
     *   T. Thonhauser, V. R. Cooper, S. Li, A. Puzder, P. Hyldgaard, and
     *   D. C. Langreth, Phys. Rev. B 76, 125112 (2007).
     *
     *   G. Roman-Perez and J. M. Soler, Phys. Rev. Lett. 103, 096102 (2009).
     *
     *
     * If you are using vdW-DF2, please also cite:
     *
     *   K. Lee, E. D. Murray, L. Kong, B. I. Lundqvist, and
     *   D. C. Langreth, Phys. Rev. B 82, 081101(R) (2010).
     *
     *
     * If you are calculating the stress with vdW-DF, please also cite:
     *
     *   R. Sabatini, E. Kucukbenli, B. Kolb, T. Thonhauser, and
     *   S. de Gironcoli, J. Phys.: Condens. Matter 24, 424209 (2012).
     *

     Carrying out vdW-DF run using the following parameters:

     Nqs =      20    Nr_points =    1024   r_max =   100.000
     q_mesh =
               0.00001000     0.04494208     0.09755937     0.15916263
               0.23128650     0.31572767     0.41458969     0.53033537
               0.66584808     0.82450364     1.01025438     1.22772762
               1.48234092     1.78043706     2.12944203     2.53805004
               3.01644009     3.57652955     4.23227104     5.00000000

     Gradients computed in reciprocal space

     Adding external electric field

     Computed dipole along edir(3) :
        Dipole                0.0000 Ry au,          0.0000 Debye
        Dipole field          0.0000 Ry au

        Potential amp.       -0.0000 Ry
        Total length         46.0181 bohr

     Starting wfc are  144 randomized atomic wfcs

     Self-consistent Calculation

     iteration #  1     ecut=    36.75 Ry     beta=0.10
     Davidson diagonalization with overlap
     ethr =  1.00E-02,  avg # of iterations =  7.2

[...]

     total energy              =   -3151.02531022 Ry
     Harris-Foulkes estimate   =   -3157.59705735 Ry
     estimated scf accuracy    <      38.48380525 Ry

[...]

     End of self-consistent calculation

          k = 0.0000 0.0000 0.0000 ( 20347 PWs)   bands (ev):

   -91.1073 -91.1035 -91.1035 -90.8401 -90.8401 -90.8363 -90.8363 -90.8363
   -90.8363 -54.6323 -54.6323 -54.6321 -54.6075 -54.6059 -54.6059 -54.5796
   -54.5457 -54.5457 -54.3700 -54.3700 -54.3692 -54.3692 -54.3677 -54.3676
   -54.3455 -54.3452 -54.3245 -54.3245 -54.3241 -54.3241 -54.3107 -54.3088
   -54.2947 -54.2947 -54.2939 -54.2939 -20.7901 -20.7780 -20.7780 -20.7545
   -20.7545 -20.5753 -20.5742 -20.5639 -20.5639 -20.5626 -20.5626 -20.5503
   -20.5503 -20.5503 -20.5503  -7.8513  -6.7566  -6.6481  -4.6114  -4.4108
    -4.3538  -4.2466  -4.2466  -4.1525  -4.1024  -4.1024  -4.0581  -4.0581
    -3.8671  -3.8671  -3.8170  -3.5984  -3.5984  -3.4865  -3.4865  -3.4438
    -3.4049  -3.1937  -3.1937  -3.1917  -3.1830  -3.0421  -3.0421  -3.0136
    -3.0136  -2.8585  -2.8585  -2.7978  -2.7422  -2.7422  -2.6422  -2.6422
    -2.6045  -2.6045  -2.5015  -2.5015  -2.4254  -2.2870  -2.2465  -2.2465
    -2.0679  -2.0509  -2.0385  -0.6747  -0.6747  -0.6110  -0.3129  -0.1518
     0.1883   0.1883   0.5160   0.5160   1.0970   1.4953   2.6965   3.1727
     3.2204   3.2204   4.3468   4.3468   4.3730   4.9284   4.9992   4.9992
     5.2703   5.6538   6.0405   6.4048   6.6481   7.3856   7.3856   7.5485
     7.5485   8.0768   8.4439   8.5736   8.5736   8.8574   9.2069   9.2070

[...]

          k =-0.0820-0.0474 0.0000 ( 20404 PWs)   bands (ev):

[...]

     the Fermi energy is     1.2054 ev

!    total energy              =   -3151.96384019 Ry
     Harris-Foulkes estimate   =   -3151.96529047 Ry
     estimated scf accuracy    <       0.00000029 Ry

     The total energy is the sum of the following terms:

     one-electron contribution =  -21334.05104390 Ry
     hartree contribution      =   10675.13288602 Ry
     xc contribution           =    -404.28112826 Ry
     ewald contribution        =    7911.25760224 Ry
     electric field correction =       0.00000000 Ry
     smearing contrib. (-TS)   =      -0.02215629 Ry

     convergence has been achieved in  15 iterations

 BEEF-vdW xc energy contributions
           1 :   -351.985378813065
           2 :    320.041158658964
           3 :   -266.432033736198
           4 :    206.925410067681
           5 :   -156.081747448895
           6 :    121.995298185176
           7 :   -104.663082804704
           8 :    98.1255163938278
           9 :   -94.7374109585634
[...]
     Using radial grid of  887 points,  6 beta functions with:
                l(1) =   0
                l(2) =   0
                l(3) =   1
                l(4) =   1
                l(5) =   2
                l(6) =   2
     Q(r) pseudized with  6 coefficients,  rinner =    1.300   1.300   1.300
                                                       1.300   1.300

     PseudoPot. # 2 for Sn read from file:
     /afs/slac.stanford.edu/u/if/mamunm/psp/gbrv1.5pbe/Sn.UPF
     MD5 check sum: 469debedee59599fedebd795477fea03
     Pseudo is Ultrasoft + core correction, Zval = 14.0
     Generated by new atomic code, or converted to UPF format
     Using radial grid of  891 points,  6 beta functions with:
                l(1) =   0
                l(2) =   0
                l(3) =   1
                l(4) =   1
                l(5) =   2
                l(6) =   2
     Q(r) pseudized with  8 coefficients,  rinner =    1.350   1.350   1.350
                                                       1.350   1.350

     vdW kernel table read from file vdW_kernel_table
     MD5 check sum: 095c7af220d748ca6e76c0b4c6cfb241

     atomic species   valence    mass     pseudopotential
        Ag1           19.00   107.86820     Ag( 1.00)
        Sn1           14.00   118.71000     Sn( 1.00)

     No symmetry found

   Cartesian axes

     site n.     atom                  positions (alat units)
         1           Ag1 tau(   1) = (   0.0000000   0.0000000  10.0000000  )
         2           Ag1 tau(   2) = (  -1.5236263   2.6389982  10.0000000  )
         3           Ag1 tau(   3) = (   1.5236263   2.6389982  10.0000000  )
         4           Sn1 tau(   4) = (   3.0472526   0.0000000  10.0000000  )
         5           Ag1 tau(   5) = (   3.0472526   1.7593321  12.4880713  )
         6           Ag1 tau(   6) = (   1.5236263   4.3983303  12.4880713  )
         7           Ag1 tau(   7) = (  -1.5236263   4.3983303  12.4880713  )
         8           Sn1 tau(   8) = (   0.0000000   1.7593321  12.4880713  )
         9           Ag1 tau(   9) = (  -0.0000000   3.5482993  15.0180954  )
        10           Ag1 tau(  10) = (   1.5492894   0.8648517  15.0180972  )
        11           Ag1 tau(  11) = (   4.5452130   0.8648484  15.0180965  )
        12           Sn1 tau(  12) = (   3.0472625   3.5186699  15.0666523  )

     number of k points=    20  Fermi-Dirac smearing, width (Ry)=  0.0110
                       cart. coord. in units 2pi/alat
        k(    1) = (   0.0000000   0.0000000   0.0000000), wk =   0.0555556
        k(    2) = (   0.0000000   0.0315776   0.0000000), wk =   0.1111111
        k(    3) = (   0.0000000   0.0631553   0.0000000), wk =   0.1111111
        k(    4) = (   0.0000000  -0.0947329   0.0000000), wk =   0.0555556
        k(    5) = (   0.0273470   0.0157888   0.0000000), wk =   0.1111111
        k(    6) = (   0.0273470   0.0473665   0.0000000), wk =   0.1111111
        k(    7) = (   0.0273470   0.0789441   0.0000000), wk =   0.1111111
        k(    8) = (   0.0273470  -0.0789441   0.0000000), wk =   0.1111111
        k(    9) = (   0.0273470  -0.0473665   0.0000000), wk =   0.1111111
        k(   10) = (   0.0273470  -0.0157888   0.0000000), wk =   0.1111111
        k(   11) = (   0.0546941   0.0315776   0.0000000), wk =   0.1111111
        k(   12) = (   0.0546941   0.0631553   0.0000000), wk =   0.1111111
        k(   13) = (   0.0546941   0.0947329   0.0000000), wk =   0.1111111
        k(   14) = (   0.0546941  -0.0631553   0.0000000), wk =   0.1111111
        k(   15) = (   0.0546941  -0.0315776   0.0000000), wk =   0.1111111
        k(   16) = (   0.0546941   0.0000000   0.0000000), wk =   0.1111111
        k(   17) = (  -0.0820411  -0.0473665   0.0000000), wk =   0.0555556
        k(   18) = (  -0.0820411  -0.0157888   0.0000000), wk =   0.1111111
        k(   19) = (  -0.0820411   0.0157888   0.0000000), wk =   0.1111111
        k(   20) = (  -0.0820411  -0.1420994   0.0000000), wk =   0.0555556

     Largest allocated arrays     est. size (Mb)     dimensions
     Largest temporary arrays     est. size (Mb)     dimensions

     Initial potential from superposition of free atoms
     Check: negative starting charge=   -0.002180

     starting charge  205.49944, renormalised to  213.00000

[...]

     *
     * You are using vdW-DF for exchange-correlation in this calculation.
     * Please cite the following three references that made this development
     * possible:
     *
     *   M. Dion, H. Rydberg, E. Schroder, D. C. Langreth, and
     *   B. I. Lundqvist, Phys. Rev. Lett. 92, 246401 (2004).
     *
     *   T. Thonhauser, V. R. Cooper, S. Li, A. Puzder, P. Hyldgaard, and
     *   D. C. Langreth, Phys. Rev. B 76, 125112 (2007).
     *
     *   G. Roman-Perez and J. M. Soler, Phys. Rev. Lett. 103, 096102 (2009).
     *
     *
     * If you are using vdW-DF2, please also cite:
     *
     *   K. Lee, E. D. Murray, L. Kong, B. I. Lundqvist, and
     *   D. C. Langreth, Phys. Rev. B 82, 081101(R) (2010).
     *
     *
     * If you are calculating the stress with vdW-DF, please also cite:
     *
     *   R. Sabatini, E. Kucukbenli, B. Kolb, T. Thonhauser, and
     *   S. de Gironcoli, J. Phys.: Condens. Matter 24, 424209 (2012).
     *

     Carrying out vdW-DF run using the following parameters:

     Nqs =      20    Nr_points =    1024   r_max =   100.000
     q_mesh =
               0.00001000     0.04494208     0.09755937     0.15916263
               0.23128650     0.31572767     0.41458969     0.53033537
               0.66584808     0.82450364     1.01025438     1.22772762
               1.48234092     1.78043706     2.12944203     2.53805004
               3.01644009     3.57652955     4.23227104     5.00000000

     Gradients computed in reciprocal space

[...]

     Starting wfc are  144 randomized atomic wfcs

     Self-consistent Calculation

[...]

     total energy              =   -3151.96740016 Ry
     Harris-Foulkes estimate   =   -3151.96740156 Ry
     estimated scf accuracy    <       0.00000430 Ry

     iteration # 15     ecut=    36.75 Ry     beta=0.10
     Davidson diagonalization with overlap
     ethr =  2.02E-09,  avg # of iterations =  2.0

[...]

     negative rho (up, down):  1.876E-03 0.000E+00

     Adding external electric field

     Computed dipole along edir(3) :
        Dipole               -0.0007 Ry au,         -0.0017 Debye
        Dipole field         -0.0000 Ry au

        Potential amp.        0.0001 Ry
        Total length         46.0181 bohr

     End of self-consistent calculation

[...]

          k = 0.0547 0.0000 0.0000 ( 20381 PWs)   bands (ev):

[...]

          k =-0.0820-0.1421 0.0000 ( 20404 PWs)   bands (ev):

   -91.0713 -91.0701 -91.0688 -90.8363 -90.8351 -90.8338 -90.8075 -90.8059
   -90.8047 -54.5978 -54.5879 -54.5830 -54.5800 -54.5742 -54.5670 -54.5373
   -54.5275 -54.5140 -54.3670 -54.3565 -54.3519 -54.3462 -54.3401 -54.3361
   -54.3306 -54.3238 -54.3231 -54.3187 -54.3038 -54.3035 -54.2993 -54.2919
   -54.2906 -54.2733 -54.2693 -54.2637 -20.7747 -20.7623 -20.7621 -20.7366
   -20.7351 -20.5871 -20.5796 -20.5731 -20.5729 -20.5689 -20.5689 -20.5549
   -20.5533 -20.5529 -20.5514  -7.0161  -6.5780  -6.2583  -4.5643  -4.3351
    -4.2779  -4.1196  -4.0245  -3.9792  -3.9344  -3.8963  -3.8656  -3.8368
    -3.7863  -3.7809  -3.6976  -3.6826  -3.6290  -3.4996  -3.4889  -3.4024
    -3.3192  -3.2932  -3.2695  -3.2084  -3.1384  -3.1374  -3.1126  -3.1026
    -3.0879  -3.0527  -3.0307  -2.9998  -2.9732  -2.9488  -2.9261  -2.9180
    -2.8962  -2.8622  -2.8033  -2.7372  -2.7090  -2.6645  -2.6571  -2.5616
    -2.4735  -2.3168  -2.3065  -2.1812  -1.5551  -0.9135  -0.5479  -0.1170
     0.3375   0.5432   1.2492   1.9668   2.2864   2.6038   3.6940   4.2112
     4.6417   4.9366   5.1243   5.1600   5.1611   5.7752   5.8926   5.9251
     6.1557   6.3701   6.3978   6.6093   6.6670   6.7115   6.7516   6.9943
     7.2447   7.5779   7.6286   7.6371   7.7350   8.0102   8.1979   8.4968

     the Fermi energy is     1.2030 ev

!    total energy              =   -3151.96739888 Ry
     Harris-Foulkes estimate   =   -3151.96740071 Ry
     estimated scf accuracy    <       0.00000047 Ry

     The total energy is the sum of the following terms:

     one-electron contribution =  -21185.80059427 Ry
     hartree contribution      =   10601.16615119 Ry
     xc contribution           =    -404.24720908 Ry
     ewald contribution        =    7836.93651733 Ry
     electric field correction =       0.00000000 Ry
     smearing contrib. (-TS)   =      -0.02226404 Ry

     convergence has been achieved in  15 iterations

 BEEF-vdW xc energy contributions
           1 :   -352.009817078228
           2 :    320.032763770959
           3 :   -266.384093332636
           4 :    206.865134560001
           5 :   -156.053777820959
           6 :    122.031427098722
           7 :   -104.759274958027
           8 :    98.2429822916865
           9 :   -94.8277178637167
          10 :    89.1736573207712
          11 :   -80.0464218713940
          12 :    69.5073639635095
          13 :   -60.5606132326998
          14 :    54.9314159385604
          15 :   -52.2255629201545
          16 :    50.6355564638937
          17 :   -48.4011869002283
          18 :    44.9255298095872
          19 :   -40.8932955614706
          20 :    37.5044124867276
          21 :   -35.4997731479800
          22 :    34.6701208823003
          23 :   -34.1063652147948
          24 :    32.9115858375928
          25 :   -30.8291679675553
          26 :    28.3645089718541
          27 :   -26.3704215175728
          28 :    25.4287572331467
          29 :   -25.4686489227469
          30 :    25.8575493276934
          31 :   -33.6026048253036
          32 :   -24.4787505271091

     Forces acting on atoms (Ry/au):

     negative rho (up, down):  1.876E-03 0.000E+00
     atom    1 type  1   force =     0.00000018   -0.00327772   -0.00350801
     atom    2 type  1   force =    -0.00283876    0.00163902   -0.00350801
     atom    3 type  1   force =     0.00283877    0.00163886   -0.00350818
     atom    4 type  2   force =    -0.00000027    0.00000040   -0.00733593
     atom    5 type  1   force =    -0.00000014    0.00146107    0.00351719
     atom    6 type  1   force =     0.00126528   -0.00073034    0.00351718
     atom    7 type  1   force =    -0.00126519   -0.00073027    0.00351686
     atom    8 type  2   force =    -0.00000010    0.00000001    0.00392435
     atom    9 type  1   force =     0.00000061   -0.00170271    0.00080772
     atom   10 type  1   force =    -0.00147419    0.00085209    0.00080753
     atom   11 type  1   force =     0.00147472    0.00085158    0.00080770
     atom   12 type  2   force =    -0.00000089   -0.00000199    0.00096160

     Total force =     0.013909     Total SCF correction =     0.003505
     SCF correction compared to forces is large: reduce conv_thr to get better values

     entering subroutine stress ...

     negative rho (up, down):  1.876E-03 0.000E+00
          total   stress  (Ry/bohr**3)                   (kbar)     P=   -7.36
  -0.00007528   0.00000000  -0.00000000        -11.07      0.00     -0.00
   0.00000000  -0.00007528  -0.00000000          0.00    -11.07     -0.00
  -0.00000000  -0.00000000   0.00000047         -0.00     -0.00      0.07

 !ASE

     Writing output data file calc.save

     General routines

     Parallel routines

   This run was terminated on:  17: 6: 8  19Dec2018

   JOB DONE.
Job  /afs/slac/g/suncat/bin/suncat-tsmpirun -x LD_LIBRARY_PATH -wdir /scratch/qe773198_oDG3v pw.x -in pw.inp

TID   HOST_NAME   COMMAND_LINE            STATUS            TERMINATION_TIME
00000 suncat0282 pw.x -in pw.inp   Done                     12/19/2018 17:06:08
00001 suncat0282 pw.x -in pw.inp   Done                     12/19/2018 17:06:08
00002 suncat0282 pw.x -in pw.inp   Done                     12/19/2018 17:06:08
00003 suncat0282 pw.x -in pw.inp   Done                     12/19/2018 17:06:08
00004 suncat0282 pw.x -in pw.inp   Done                     12/19/2018 17:06:08
00005 suncat0282 pw.x -in pw.inp   Done                     12/19/2018 17:06:08
00006 suncat0282 pw.x -in pw.inp   Done                     12/19/2018 17:06:08
00007 suncat0282 pw.x -in pw.inp   Done                     12/19/2018 17:06:08
00008 suncat0280 pw.x -in pw.inp   Done                     12/19/2018 17:06:08
00009 suncat0280 pw.x -in pw.inp   Done                     12/19/2018 17:06:08
00010 suncat0280 pw.x -in pw.inp   Done                     12/19/2018 17:06:08
00011 suncat0280 pw.x -in pw.inp   Done                     12/19/2018 17:06:08
00012 suncat0280 pw.x -in pw.inp   Done                     12/19/2018 17:06:08
00013 suncat0280 pw.x -in pw.inp   Done                     12/19/2018 17:06:08
00014 suncat0280 pw.x -in pw.inp   Done                     12/19/2018 17:06:08
00015 suncat0280 pw.x -in pw.inp   Done                     12/19/2018 17:06:08
00016 suncat0279 pw.x -in pw.inp   Done                     12/19/2018 17:06:08
00017 suncat0279 pw.x -in pw.inp   Done                     12/19/2018 17:06:08
00018 suncat0279 pw.x -in pw.inp   Done                     12/19/2018 17:06:08
00019 suncat0279 pw.x -in pw.inp   Done                     12/19/2018 17:06:08
00020 suncat0279 pw.x -in pw.inp   Done                     12/19/2018 17:06:08
00021 suncat0279 pw.x -in pw.inp   Done                     12/19/2018 17:06:08
00022 suncat0279 pw.x -in pw.inp   Done                     12/19/2018 17:06:08
00023 suncat0279 pw.x -in pw.inp   Done                     12/19/2018 17:06:08
00024 suncat0278 pw.x -in pw.inp   Done                     12/19/2018 17:06:08
00025 suncat0278 pw.x -in pw.inp   Done                     12/19/2018 17:06:08
00026 suncat0278 pw.x -in pw.inp   Done                     12/19/2018 17:06:08
00027 suncat0278 pw.x -in pw.inp   Done                     12/19/2018 17:06:08
00028 suncat0278 pw.x -in pw.inp   Done                     12/19/2018 17:06:08
00029 suncat0278 pw.x -in pw.inp   Done                     12/19/2018 17:06:08
00030 suncat0278 pw.x -in pw.inp   Done                     12/19/2018 17:06:08
00031 suncat0278 pw.x -in pw.inp   Done                     12/19/2018 17:06:08
00032 suncat0267 pw.x -in pw.inp   Done                     12/19/2018 17:06:08
00033 suncat0267 pw.x -in pw.inp   Done                     12/19/2018 17:06:08
00034 suncat0267 pw.x -in pw.inp   Done                     12/19/2018 17:06:08
00035 suncat0267 pw.x -in pw.inp   Done                     12/19/2018 17:06:08
00036 suncat0267 pw.x -in pw.inp   Done                     12/19/2018 17:06:08
00037 suncat0267 pw.x -in pw.inp   Done                     12/19/2018 17:06:08
00038 suncat0267 pw.x -in pw.inp   Done                     12/19/2018 17:06:08
00039 suncat0267 pw.x -in pw.inp   Done                     12/19/2018 17:06:08
00040 suncat0266 pw.x -in pw.inp   Done                     12/19/2018 17:06:08
00041 suncat0266 pw.x -in pw.inp   Done                     12/19/2018 17:06:08
00042 suncat0266 pw.x -in pw.inp   Done                     12/19/2018 17:06:08
00043 suncat0266 pw.x -in pw.inp   Done                     12/19/2018 17:06:08
00044 suncat0266 pw.x -in pw.inp   Done                     12/19/2018 17:06:08
00045 suncat0266 pw.x -in pw.inp   Done                     12/19/2018 17:06:08
00046 suncat0266 pw.x -in pw.inp   Done                     12/19/2018 17:06:08
00047 suncat0266 pw.x -in pw.inp   Done                     12/19/2018 17:06:08
00048 suncat0264 pw.x -in pw.inp   Done                     12/19/2018 17:06:08
00049 suncat0264 pw.x -in pw.inp   Done                     12/19/2018 17:06:08
00050 suncat0264 pw.x -in pw.inp   Done                     12/19/2018 17:06:08
00051 suncat0264 pw.x -in pw.inp   Done                     12/19/2018 17:06:08
00052 suncat0264 pw.x -in pw.inp   Done                     12/19/2018 17:06:08
00053 suncat0264 pw.x -in pw.inp   Done                     12/19/2018 17:06:08
00054 suncat0264 pw.x -in pw.inp   Done                     12/19/2018 17:06:08
00055 suncat0264 pw.x -in pw.inp   Done                     12/19/2018 17:06:08
00056 suncat0262 pw.x -in pw.inp   Done                     12/19/2018 17:06:08
00057 suncat0262 pw.x -in pw.inp   Done                     12/19/2018 17:06:08
00058 suncat0262 pw.x -in pw.inp   Done                     12/19/2018 17:06:08
00059 suncat0262 pw.x -in pw.inp   Done                     12/19/2018 17:06:08
00060 suncat0262 pw.x -in pw.inp   Done                     12/19/2018 17:06:08
00061 suncat0262 pw.x -in pw.inp   Done                     12/19/2018 17:06:08
00062 suncat0262 pw.x -in pw.inp   Done                     12/19/2018 17:06:08
00063 suncat0262 pw.x -in pw.inp   Done                     12/19/2018 17:06:08