     Program PWSCF v.5.1rc2 (svn rev. 11289) starts on 25Dec2018 at 20: 1:45

     Current dimensions of program PWSCF are:
     Max number of different atomic species (ntypx) = 10
     Max number of k-points (npk) =  40000
     Max angular momentum in pseudopotentials (lmaxx) =  3
     Presently stress not available with electric field

     IMPORTANT: XC functional enforced from input :
     Exchange-correlation      = BEEF-VDW ( 1  4 27 13 2)
     Any further DFT definition will be discarded
     Please, verify this is what you really want

     Subspace diagonalization in iterative solution of the eigenvalue problem:
     a serial algorithm will be used

     Generating pointlists ...
     new r_m :   0.4125 (alat units)  0.7795 (a.u.) for type    1
     new r_m :   0.4125 (alat units)  0.7795 (a.u.) for type    2

     bravais-lattice index     =            0
     lattice parameter (alat)  =       1.8897  a.u.
     unit-cell volume          =    3739.0032 (a.u.)^3
     number of atoms/cell      =           12
     number of atomic types    =            2
     number of electrons       =       186.00
     number of Kohn-Sham states=          123
     kinetic-energy cutoff     =      36.7493  Ry
     charge density cutoff     =     367.4932  Ry
     convergence threshold     =      1.0E-06
     mixing beta               =       0.1000
     number of iterations used =           10  plain     mixing
     Exchange-correlation      = BEEF-VDW ( 1  4 27 13 2)
     nstep                     =           50

     celldm(1)=   1.889726  celldm(2)=   0.000000  celldm(3)=   0.000000
     celldm(4)=   0.000000  celldm(5)=   0.000000  celldm(6)=   0.000000

     crystal axes: (cart. coord. in units of alat)
               a(1) = (   5.141877   0.000000   0.000000 )
               a(2) = (  -2.570938   4.452996   0.000000 )
               a(3) = (   0.000000   0.000000  24.198325 )

     reciprocal axes: (cart. coord. in units 2 pi/alat)
               b(1) = (  0.194482  0.112284  0.000000 )
               b(2) = (  0.000000  0.224568  0.000000 )
               b(3) = (  0.000000  0.000000  0.041325 )

     PseudoPot. # 1 for Fe read from file:
     /afs/slac.stanford.edu/u/if/mamunm/psp/gbrv1.5pbe/Fe.UPF
     MD5 check sum: a130daea23fe5165f5d574ae7f82ed95
     Pseudo is Ultrasoft + core correction, Zval = 16.0
     Generated by new atomic code, or converted to UPF format
     Using radial grid of  861 points,  6 beta functions with:
                l(1) =   0
                l(2) =   0
                l(3) =   1
                l(4) =   1
                l(5) =   2
                l(6) =   2
     Q(r) pseudized with  8 coefficients,  rinner =    1.000   1.000   1.000
                                                       1.000   1.000

     PseudoPot. # 2 for Mo read from file:
     /afs/slac.stanford.edu/u/if/mamunm/psp/gbrv1.5pbe/Mo.UPF
     MD5 check sum: 30c4dcd161f5d35cd49bb5239c51a633
     Pseudo is Ultrasoft + core correction, Zval = 14.0
     Generated by new atomic code, or converted to UPF format
     Using radial grid of  889 points,  6 beta functions with:
                l(1) =   0
                l(2) =   0
                l(3) =   1
                l(4) =   1
                l(5) =   2
                l(6) =   2
     Q(r) pseudized with  6 coefficients,  rinner =    1.000   1.000   1.000
                                                       1.000   1.000

     vdW kernel table read from file vdW_kernel_table
     MD5 check sum: 095c7af220d748ca6e76c0b4c6cfb241

     atomic species   valence    mass     pseudopotential
        Fe1           16.00    55.84500     Fe( 1.00)
        Mo1           14.00    95.95000     Mo( 1.00)

     Starting magnetic structure
     atomic species   magnetization
        Fe1          0.125
        Mo1          0.143

     No symmetry found

   Cartesian axes

     site n.     atom                  positions (alat units)
         1           Fe1 tau(   1) = (   0.0000000   0.0000000  10.0000000  )
         2           Fe1 tau(   2) = (  -1.2854692   2.2264979  10.0000000  )
         3           Fe1 tau(   3) = (   1.2854692   2.2264979  10.0000000  )
         4           Mo1 tau(   4) = (   2.5709383   0.0000000  10.0000000  )
         5           Fe1 tau(   5) = (   2.5709383   1.4843319  12.0991624  )
         6           Fe1 tau(   6) = (   1.2854692   3.7108298  12.0991624  )
         7           Fe1 tau(   7) = (  -1.2854692   3.7108298  12.0991624  )
         8           Mo1 tau(   8) = (   0.0000000   1.4843319  12.0991624  )
         9           Fe1 tau(   9) = (  -0.0000000   2.9686639  14.1983247  )
        10           Fe1 tau(  10) = (   1.2854692   0.7421660  14.1983247  )
        11           Fe1 tau(  11) = (   3.8564075   0.7421660  14.1983247  )
        12           Mo1 tau(  12) = (   2.5709383   2.9686639  14.1983247  )

     number of k points=    40  Fermi-Dirac smearing, width (Ry)=  0.0110
                       cart. coord. in units 2pi/alat
        k(    1) = (   0.0000000   0.0000000   0.0000000), wk =   0.0277778
        k(    2) = (   0.0000000   0.0374280   0.0000000), wk =   0.0555556
        k(    3) = (   0.0000000   0.0748560   0.0000000), wk =   0.0555556
        k(    4) = (   0.0000000  -0.1122840   0.0000000), wk =   0.0277778
        k(    5) = (   0.0324136   0.0187140   0.0000000), wk =   0.0555556
        k(    6) = (   0.0324136   0.0561420   0.0000000), wk =   0.0555556
        k(    7) = (   0.0324136   0.0935700   0.0000000), wk =   0.0555556
        k(    8) = (   0.0324136  -0.0935700   0.0000000), wk =   0.0555556
        k(    9) = (   0.0324136  -0.0561420   0.0000000), wk =   0.0555556
        k(   10) = (   0.0324136  -0.0187140   0.0000000), wk =   0.0555556
        k(   11) = (   0.0648272   0.0374280   0.0000000), wk =   0.0555556
        k(   12) = (   0.0648272   0.0748560   0.0000000), wk =   0.0555556
        k(   13) = (   0.0648272   0.1122840   0.0000000), wk =   0.0555556
        k(   14) = (   0.0648272  -0.0748560   0.0000000), wk =   0.0555556
        k(   15) = (   0.0648272  -0.0374280   0.0000000), wk =   0.0555556
        k(   16) = (   0.0648272   0.0000000   0.0000000), wk =   0.0555556
        k(   17) = (  -0.0972408  -0.0561420   0.0000000), wk =   0.0277778
        k(   18) = (  -0.0972408  -0.0187140   0.0000000), wk =   0.0555556
        k(   19) = (  -0.0972408   0.0187140   0.0000000), wk =   0.0555556
        k(   20) = (  -0.0972408  -0.1684259   0.0000000), wk =   0.0277778
        k(   21) = (   0.0000000   0.0000000   0.0000000), wk =   0.0277778
        k(   22) = (   0.0000000   0.0374280   0.0000000), wk =   0.0555556
        k(   23) = (   0.0000000   0.0748560   0.0000000), wk =   0.0555556
        k(   24) = (   0.0000000  -0.1122840   0.0000000), wk =   0.0277778
        k(   25) = (   0.0324136   0.0187140   0.0000000), wk =   0.0555556
        k(   26) = (   0.0324136   0.0561420   0.0000000), wk =   0.0555556
        k(   27) = (   0.0324136   0.0935700   0.0000000), wk =   0.0555556
        k(   28) = (   0.0324136  -0.0935700   0.0000000), wk =   0.0555556
        k(   29) = (   0.0324136  -0.0561420   0.0000000), wk =   0.0555556
        k(   30) = (   0.0324136  -0.0187140   0.0000000), wk =   0.0555556
        k(   31) = (   0.0648272   0.0374280   0.0000000), wk =   0.0555556
        k(   32) = (   0.0648272   0.0748560   0.0000000), wk =   0.0555556
        k(   33) = (   0.0648272   0.1122840   0.0000000), wk =   0.0555556
        k(   34) = (   0.0648272  -0.0748560   0.0000000), wk =   0.0555556
        k(   35) = (   0.0648272  -0.0374280   0.0000000), wk =   0.0555556
        k(   36) = (   0.0648272   0.0000000   0.0000000), wk =   0.0555556
        k(   37) = (  -0.0972408  -0.0561420   0.0000000), wk =   0.0277778
        k(   38) = (  -0.0972408  -0.0187140   0.0000000), wk =   0.0555556
        k(   39) = (  -0.0972408   0.0187140   0.0000000), wk =   0.0555556
        k(   40) = (  -0.0972408  -0.1684259   0.0000000), wk =   0.0277778

     Largest allocated arrays     est. size (Mb)     dimensions
     Largest temporary arrays     est. size (Mb)     dimensions

     Check: negative/imaginary core charge=   -0.000007    0.000000

     Initial potential from superposition of free atoms
     Check: negative starting charge=(component1):   -0.001374
     Check: negative starting charge=(component2):   -0.001030

     starting charge  176.99676, renormalised to  186.00000

     negative rho (up, down):  1.444E-03 1.083E-03

     *
     * You are using vdW-DF for exchange-correlation in this calculation.
     * Please cite the following three references that made this development
     * possible:
     *
     *   M. Dion, H. Rydberg, E. Schroder, D. C. Langreth, and
     *   B. I. Lundqvist, Phys. Rev. Lett. 92, 246401 (2004).
     *
     *   T. Thonhauser, V. R. Cooper, S. Li, A. Puzder, P. Hyldgaard, and
     *   D. C. Langreth, Phys. Rev. B 76, 125112 (2007).
     *
     *   G. Roman-Perez and J. M. Soler, Phys. Rev. Lett. 103, 096102 (2009).
     *
     *
     * If you are using vdW-DF2, please also cite:
     *
     *   K. Lee, E. D. Murray, L. Kong, B. I. Lundqvist, and
     *   D. C. Langreth, Phys. Rev. B 82, 081101(R) (2010).
     *
     *
     * If you are calculating the stress with vdW-DF, please also cite:
     *
     *   R. Sabatini, E. Kucukbenli, B. Kolb, T. Thonhauser, and
     *   S. de Gironcoli, J. Phys.: Condens. Matter 24, 424209 (2012).
     *

     Carrying out vdW-DF run using the following parameters:

     Nqs =      20    Nr_points =    1024   r_max =   100.000
     q_mesh =
               0.00001000     0.04494208     0.09755937     0.15916263
               0.23128650     0.31572767     0.41458969     0.53033537
               0.66584808     0.82450364     1.01025438     1.22772762
               1.48234092     1.78043706     2.12944203     2.53805004
               3.01644009     3.57652955     4.23227104     5.00000000

     Gradients computed in reciprocal space

     Adding external electric field

     Computed dipole along edir(3) :
        Dipole               -0.0000 Ry au,         -0.0000 Debye
        Dipole field         -0.0000 Ry au

        Potential amp.        0.0000 Ry
        Total length         44.5850 bohr

[...]

     Starting wfc are  156 randomized atomic wfcs

     Self-consistent Calculation

     iteration #  1     ecut=    36.75 Ry     beta=0.10
     Davidson diagonalization with overlap
     ethr =  1.00E-02,  avg # of iterations =  5.3

[...]

     Magnetic moment per site:
     atom:    1    charge:    7.2545    magn:    0.8905    constr:    0.0000
     atom:    2    charge:    7.2545    magn:    0.8905    constr:    0.0000
     atom:    3    charge:    7.2545    magn:    0.8905    constr:    0.0000
     atom:    4    charge:    1.9401    magn:    0.2541    constr:    0.0000
     atom:    5    charge:    7.2631    magn:    0.8800    constr:    0.0000
     atom:    6    charge:    7.2631    magn:    0.8800    constr:    0.0000
     atom:    7    charge:    7.2631    magn:    0.8800    constr:    0.0000
     atom:    8    charge:    1.9467    magn:    0.2545    constr:    0.0000
[...]
        k(    4) = (   0.0000000  -0.1122840   0.0000000), wk =   0.0277778
        k(    5) = (   0.0324136   0.0187140   0.0000000), wk =   0.0555556
        k(    6) = (   0.0324136   0.0561420   0.0000000), wk =   0.0555556
        k(    7) = (   0.0324136   0.0935700   0.0000000), wk =   0.0555556
        k(    8) = (   0.0324136  -0.0935700   0.0000000), wk =   0.0555556
        k(    9) = (   0.0324136  -0.0561420   0.0000000), wk =   0.0555556
        k(   10) = (   0.0324136  -0.0187140   0.0000000), wk =   0.0555556
        k(   11) = (   0.0648272   0.0374280   0.0000000), wk =   0.0555556
        k(   12) = (   0.0648272   0.0748560   0.0000000), wk =   0.0555556
        k(   13) = (   0.0648272   0.1122840   0.0000000), wk =   0.0555556
        k(   14) = (   0.0648272  -0.0748560   0.0000000), wk =   0.0555556
        k(   15) = (   0.0648272  -0.0374280   0.0000000), wk =   0.0555556
        k(   16) = (   0.0648272   0.0000000   0.0000000), wk =   0.0555556
        k(   17) = (  -0.0972408  -0.0561420   0.0000000), wk =   0.0277778
        k(   18) = (  -0.0972408  -0.0187140   0.0000000), wk =   0.0555556
        k(   19) = (  -0.0972408   0.0187140   0.0000000), wk =   0.0555556
        k(   20) = (  -0.0972408  -0.1684259   0.0000000), wk =   0.0277778
        k(   21) = (   0.0000000   0.0000000   0.0000000), wk =   0.0277778
        k(   22) = (   0.0000000   0.0374280   0.0000000), wk =   0.0555556
        k(   23) = (   0.0000000   0.0748560   0.0000000), wk =   0.0555556
        k(   24) = (   0.0000000  -0.1122840   0.0000000), wk =   0.0277778
        k(   25) = (   0.0324136   0.0187140   0.0000000), wk =   0.0555556
        k(   26) = (   0.0324136   0.0561420   0.0000000), wk =   0.0555556
        k(   27) = (   0.0324136   0.0935700   0.0000000), wk =   0.0555556
        k(   28) = (   0.0324136  -0.0935700   0.0000000), wk =   0.0555556
        k(   29) = (   0.0324136  -0.0561420   0.0000000), wk =   0.0555556
        k(   30) = (   0.0324136  -0.0187140   0.0000000), wk =   0.0555556
        k(   31) = (   0.0648272   0.0374280   0.0000000), wk =   0.0555556
        k(   32) = (   0.0648272   0.0748560   0.0000000), wk =   0.0555556
        k(   33) = (   0.0648272   0.1122840   0.0000000), wk =   0.0555556
        k(   34) = (   0.0648272  -0.0748560   0.0000000), wk =   0.0555556
        k(   35) = (   0.0648272  -0.0374280   0.0000000), wk =   0.0555556
        k(   36) = (   0.0648272   0.0000000   0.0000000), wk =   0.0555556
        k(   37) = (  -0.0972408  -0.0561420   0.0000000), wk =   0.0277778
        k(   38) = (  -0.0972408  -0.0187140   0.0000000), wk =   0.0555556
        k(   39) = (  -0.0972408   0.0187140   0.0000000), wk =   0.0555556
        k(   40) = (  -0.0972408  -0.1684259   0.0000000), wk =   0.0277778

     Largest allocated arrays     est. size (Mb)     dimensions
     Largest temporary arrays     est. size (Mb)     dimensions

     Check: negative/imaginary core charge=   -0.000007    0.000000

     Initial potential from superposition of free atoms
     Check: negative starting charge=(component1):   -0.001383
     Check: negative starting charge=(component2):   -0.001037

     starting charge  176.99676, renormalised to  186.00000

[...]

     *
     * You are using vdW-DF for exchange-correlation in this calculation.
     * Please cite the following three references that made this development
     * possible:
     *
     *   M. Dion, H. Rydberg, E. Schroder, D. C. Langreth, and
     *   B. I. Lundqvist, Phys. Rev. Lett. 92, 246401 (2004).
     *
     *   T. Thonhauser, V. R. Cooper, S. Li, A. Puzder, P. Hyldgaard, and
     *   D. C. Langreth, Phys. Rev. B 76, 125112 (2007).
     *
     *   G. Roman-Perez and J. M. Soler, Phys. Rev. Lett. 103, 096102 (2009).
     *
     *
     * If you are using vdW-DF2, please also cite:
     *
     *   K. Lee, E. D. Murray, L. Kong, B. I. Lundqvist, and
     *   D. C. Langreth, Phys. Rev. B 82, 081101(R) (2010).
     *
     *
     * If you are calculating the stress with vdW-DF, please also cite:
     *
     *   R. Sabatini, E. Kucukbenli, B. Kolb, T. Thonhauser, and
     *   S. de Gironcoli, J. Phys.: Condens. Matter 24, 424209 (2012).
     *

     Carrying out vdW-DF run using the following parameters:

     Nqs =      20    Nr_points =    1024   r_max =   100.000
     q_mesh =
               0.00001000     0.04494208     0.09755937     0.15916263
               0.23128650     0.31572767     0.41458969     0.53033537
               0.66584808     0.82450364     1.01025438     1.22772762
               1.48234092     1.78043706     2.12944203     2.53805004
               3.01644009     3.57652955     4.23227104     5.00000000

     Gradients computed in reciprocal space

[...]

     Starting wfc are  156 randomized atomic wfcs

     Self-consistent Calculation

[...]

     total energy              =   -2681.75339999 Ry
     Harris-Foulkes estimate   =   -2681.75339948 Ry
     estimated scf accuracy    <       0.00000123 Ry

[...]

     iteration # 38     ecut=    36.75 Ry     beta=0.10
     Davidson diagonalization with overlap
     ethr =  6.60E-10,  avg # of iterations =  1.9

[...]

     negative rho (up, down):  1.355E-03 1.240E-03

[...]

     Adding external electric field

     Computed dipole along edir(3) :
        Dipole               -0.0002 Ry au,         -0.0005 Debye
        Dipole field         -0.0000 Ry au

        Potential amp.        0.0001 Ry
        Total length         44.5850 bohr

     Magnetic moment per site:
     atom:    1    charge:    7.0879    magn:    1.0116    constr:    0.0000
     atom:    2    charge:    7.0879    magn:    1.0116    constr:    0.0000
     atom:    3    charge:    7.0878    magn:    1.0116    constr:    0.0000
     atom:    4    charge:    1.8700    magn:   -0.0750    constr:    0.0000
     atom:    5    charge:    7.0804    magn:    0.7056    constr:    0.0000
     atom:    6    charge:    7.0804    magn:    0.7056    constr:    0.0000
     atom:    7    charge:    7.0803    magn:    0.7056    constr:    0.0000
     atom:    8    charge:    1.8736    magn:   -0.0574    constr:    0.0000
     atom:    9    charge:    7.0816    magn:    1.0288    constr:    0.0000
     atom:   10    charge:    7.0816    magn:    1.0288    constr:    0.0000
     atom:   11    charge:    7.0815    magn:    1.0288    constr:    0.0000
     atom:   12    charge:    1.8616    magn:   -0.0729    constr:    0.0000

     End of self-consistent calculation

 ------ SPIN UP ------------

[...]

 ------ SPIN DOWN ----------

[...]

          k = 0.0648 0.0000 0.0000 ( 14075 PWs)   bands (ev):

[...]

          k =-0.0972-0.1684 0.0000 ( 14066 PWs)   bands (ev):

   -84.6580 -84.6477 -84.6373 -84.2014 -84.1912 -84.1833 -84.1809 -84.1714
   -84.1615 -60.1334 -60.1020 -60.0881 -50.8986 -50.8412 -50.8063 -50.7685
   -50.7444 -50.7099 -50.6523 -50.6236 -50.5713 -50.4408 -50.4241 -50.4072
   -50.3893 -50.3786 -50.3610 -50.2926 -50.2783 -50.2463 -50.2216 -50.2181
   -50.2095 -50.1943 -50.1925 -50.1829 -50.1645 -50.1219 -50.1059 -34.2589
   -34.2335 -34.2324 -34.2151 -34.1975 -34.1689 -34.1581 -34.1531 -34.1490
    -4.1022  -3.9972  -2.9352  -2.4775  -2.4209  -2.3899  -2.0664  -1.8002
    -1.6231  -1.5160  -1.2601  -1.2179  -1.1446  -0.9577  -0.8435  -0.7755
    -0.6259  -0.5515  -0.4262  -0.2452  -0.1443   0.0186   0.0814   0.2993
     0.3592   0.4322   0.4927   0.6138   0.7030   0.7103   0.8049   0.8244
     0.9125   0.9751   1.0863   1.1061   1.1566   1.2801   1.3016   1.4474
     1.7627   1.7839   1.7977   1.8715   2.0234   2.0725   2.1394   2.2452
     2.3746   2.4311   2.4959   2.5045   2.6028   2.6496   2.6528   2.7580
     2.9958   3.0483   3.1665   3.1738   3.2719   3.5346   3.6854   4.1006
     4.2426   4.6095   4.7804   5.6768   6.1972   6.2040   6.4242   6.4732
     7.5111   7.5475   7.6750

     the Fermi energy is     1.4583 ev

!    total energy              =   -2681.75340160 Ry
     Harris-Foulkes estimate   =   -2681.75340015 Ry
     estimated scf accuracy    <       0.00000089 Ry

     The total energy is the sum of the following terms:

     one-electron contribution =  -23878.17645692 Ry
     hartree contribution      =   11937.70716039 Ry
     xc contribution           =    -332.44111981 Ry
     ewald contribution        =    9591.24768574 Ry
     electric field correction =       0.00000000 Ry
     smearing contrib. (-TS)   =      -0.09067099 Ry

     total magnetization       =    14.04 Bohr mag/cell
     absolute magnetization    =    20.95 Bohr mag/cell

     convergence has been achieved in  38 iterations

 BEEF-vdW xc energy contributions
           1 :   -290.021457468340
           2 :    263.085052244741
           3 :   -217.621284564518
           4 :    166.564600163048
           5 :   -121.957499018675
           6 :    90.6637873785673
           7 :   -73.0494175239992
           8 :    64.6627474641951
           9 :   -59.5623793690716
          10 :    53.3888862242392
          11 :   -44.8410993670790
          12 :    35.2366631552072
          13 :   -26.8750396224697
          14 :    21.3292117724063
          15 :   -18.6156302161725
          16 :    17.4799918414678
          17 :   -16.3821988027686
          18 :    14.4246418798992
          19 :   -11.6936629293662
          20 :    8.93002074824642
          21 :   -6.88544748003000
          22 :    5.81375211995976
          23 :   -5.38843080668903
          24 :    5.00215872915413
          25 :   -4.19701931390551
          26 :    2.92112613090711
          27 :   -1.48663738602232
          28 :   0.298654541619101
          29 :   0.425137542801906
          30 :  -0.770417593730997
          31 :   -26.9960216919644
          32 :   -19.4853871722376

     Forces acting on atoms (Ry/au):

     negative rho (up, down):  1.355E-03 1.240E-03
     atom    1 type  1   force =     0.00000382   -0.00961500   -0.00310091
     atom    2 type  1   force =    -0.00831920    0.00481495   -0.00310865
     atom    3 type  1   force =     0.00831011    0.00480546   -0.00312235
     atom    4 type  2   force =    -0.00000408   -0.00000105    0.00842994
     atom    5 type  1   force =     0.00001892   -0.00143104   -0.00225977
     atom    6 type  1   force =    -0.00124030    0.00072744   -0.00224940
     atom    7 type  1   force =     0.00123317    0.00070132   -0.00227315
     atom    8 type  2   force =    -0.00000351   -0.00000138    0.00662063
     atom    9 type  1   force =    -0.00000694   -0.00036849    0.00057101
     atom   10 type  1   force =    -0.00033189    0.00017996    0.00057765
     atom   11 type  1   force =     0.00034092    0.00019331    0.00059688
     atom   12 type  2   force =    -0.00000104   -0.00000547   -0.00068188

     Total force =     0.021078     Total SCF correction =     0.002716
     SCF correction compared to forces is large: reduce conv_thr to get better values

     entering subroutine stress ...

     negative rho (up, down):  1.355E-03 1.240E-03
          total   stress  (Ry/bohr**3)                   (kbar)     P=   -8.92
  -0.00008869  -0.00000002  -0.00000001        -13.05     -0.00     -0.00
  -0.00000002  -0.00008866  -0.00000001         -0.00    -13.04     -0.00
  -0.00000001  -0.00000001  -0.00000465         -0.00     -0.00     -0.68

 !ASE

     Writing output data file calc.save

     General routines

     Parallel routines

   This run was terminated on:  23: 7:20  25Dec2018

   JOB DONE.
Job  /afs/slac/g/suncat/bin/suncat-tsmpirun -x LD_LIBRARY_PATH -wdir /scratch/qe109629_PcvRj pw.x -in pw.inp

TID   HOST_NAME   COMMAND_LINE            STATUS            TERMINATION_TIME
00000 suncat0094 pw.x -in pw.inp   Done                     12/25/2018 23:07:20
00001 suncat0094 pw.x -in pw.inp   Done                     12/25/2018 23:07:20
00002 suncat0094 pw.x -in pw.inp   Done                     12/25/2018 23:07:20
00003 suncat0094 pw.x -in pw.inp   Done                     12/25/2018 23:07:20
00004 suncat0094 pw.x -in pw.inp   Done                     12/25/2018 23:07:20
00005 suncat0094 pw.x -in pw.inp   Done                     12/25/2018 23:07:20
00006 suncat0094 pw.x -in pw.inp   Done                     12/25/2018 23:07:20
00007 suncat0094 pw.x -in pw.inp   Done                     12/25/2018 23:07:20
00008 suncat0093 pw.x -in pw.inp   Done                     12/25/2018 23:07:20
00009 suncat0093 pw.x -in pw.inp   Done                     12/25/2018 23:07:20
00010 suncat0093 pw.x -in pw.inp   Done                     12/25/2018 23:07:20
00011 suncat0093 pw.x -in pw.inp   Done                     12/25/2018 23:07:20
00012 suncat0093 pw.x -in pw.inp   Done                     12/25/2018 23:07:20
00013 suncat0093 pw.x -in pw.inp   Done                     12/25/2018 23:07:20
00014 suncat0093 pw.x -in pw.inp   Done                     12/25/2018 23:07:20
00015 suncat0093 pw.x -in pw.inp   Done                     12/25/2018 23:07:20
00016 suncat0087 pw.x -in pw.inp   Done                     12/25/2018 23:07:20
00017 suncat0087 pw.x -in pw.inp   Done                     12/25/2018 23:07:20
00018 suncat0087 pw.x -in pw.inp   Done                     12/25/2018 23:07:20
00019 suncat0087 pw.x -in pw.inp   Done                     12/25/2018 23:07:20
00020 suncat0087 pw.x -in pw.inp   Done                     12/25/2018 23:07:20
00021 suncat0087 pw.x -in pw.inp   Done                     12/25/2018 23:07:20
00022 suncat0087 pw.x -in pw.inp   Done                     12/25/2018 23:07:20
00023 suncat0087 pw.x -in pw.inp   Done                     12/25/2018 23:07:20
00024 suncat0084 pw.x -in pw.inp   Done                     12/25/2018 23:07:20
00025 suncat0084 pw.x -in pw.inp   Done                     12/25/2018 23:07:20
00026 suncat0084 pw.x -in pw.inp   Done                     12/25/2018 23:07:20
00027 suncat0084 pw.x -in pw.inp   Done                     12/25/2018 23:07:20
00028 suncat0084 pw.x -in pw.inp   Done                     12/25/2018 23:07:20
00029 suncat0084 pw.x -in pw.inp   Done                     12/25/2018 23:07:20
00030 suncat0084 pw.x -in pw.inp   Done                     12/25/2018 23:07:20
00031 suncat0084 pw.x -in pw.inp   Done                     12/25/2018 23:07:20
00032 suncat0083 pw.x -in pw.inp   Done                     12/25/2018 23:07:20
00033 suncat0083 pw.x -in pw.inp   Done                     12/25/2018 23:07:20
00034 suncat0083 pw.x -in pw.inp   Done                     12/25/2018 23:07:20
00035 suncat0083 pw.x -in pw.inp   Done                     12/25/2018 23:07:20
00036 suncat0083 pw.x -in pw.inp   Done                     12/25/2018 23:07:20
00037 suncat0083 pw.x -in pw.inp   Done                     12/25/2018 23:07:20
00038 suncat0083 pw.x -in pw.inp   Done                     12/25/2018 23:07:20
00039 suncat0083 pw.x -in pw.inp   Done                     12/25/2018 23:07:20
00040 suncat0081 pw.x -in pw.inp   Done                     12/25/2018 23:07:20
00041 suncat0081 pw.x -in pw.inp   Done                     12/25/2018 23:07:20
00042 suncat0081 pw.x -in pw.inp   Done                     12/25/2018 23:07:20
00043 suncat0081 pw.x -in pw.inp   Done                     12/25/2018 23:07:20
00044 suncat0081 pw.x -in pw.inp   Done                     12/25/2018 23:07:20
00045 suncat0081 pw.x -in pw.inp   Done                     12/25/2018 23:07:20
00046 suncat0081 pw.x -in pw.inp   Done                     12/25/2018 23:07:20
00047 suncat0081 pw.x -in pw.inp   Done                     12/25/2018 23:07:20
00048 suncat0080 pw.x -in pw.inp   Done                     12/25/2018 23:07:20
00049 suncat0080 pw.x -in pw.inp   Done                     12/25/2018 23:07:20
00050 suncat0080 pw.x -in pw.inp   Done                     12/25/2018 23:07:20
00051 suncat0080 pw.x -in pw.inp   Done                     12/25/2018 23:07:20
00052 suncat0080 pw.x -in pw.inp   Done                     12/25/2018 23:07:20
00053 suncat0080 pw.x -in pw.inp   Done                     12/25/2018 23:07:20
00054 suncat0080 pw.x -in pw.inp   Done                     12/25/2018 23:07:20
00055 suncat0080 pw.x -in pw.inp   Done                     12/25/2018 23:07:20
00056 suncat0078 pw.x -in pw.inp   Done                     12/25/2018 23:07:20
00057 suncat0078 pw.x -in pw.inp   Done                     12/25/2018 23:07:20
00058 suncat0078 pw.x -in pw.inp   Done                     12/25/2018 23:07:20
00059 suncat0078 pw.x -in pw.inp   Done                     12/25/2018 23:07:20
00060 suncat0078 pw.x -in pw.inp   Done                     12/25/2018 23:07:20
00061 suncat0078 pw.x -in pw.inp   Done                     12/25/2018 23:07:20
00062 suncat0078 pw.x -in pw.inp   Done                     12/25/2018 23:07:20
00063 suncat0078 pw.x -in pw.inp   Done                     12/25/2018 23:07:20