     Program PWSCF v.5.1rc2 (svn rev. 11289) starts on 31Dec2018 at 20:35: 8

     Current dimensions of program PWSCF are:
     Max number of different atomic species (ntypx) = 10
     Max number of k-points (npk) =  40000
     Max angular momentum in pseudopotentials (lmaxx) =  3
     Presently stress not available with electric field

     IMPORTANT: XC functional enforced from input :
     Exchange-correlation      = BEEF-VDW ( 1  4 27 13 2)
     Any further DFT definition will be discarded
     Please, verify this is what you really want

     Subspace diagonalization in iterative solution of the eigenvalue problem:
     a serial algorithm will be used

     bravais-lattice index     =            0
     lattice parameter (alat)  =       1.8897  a.u.
     unit-cell volume          =    4800.9694 (a.u.)^3
     number of atoms/cell      =           12
     number of atomic types    =            2
     number of electrons       =       177.00
     number of Kohn-Sham states=          118
     kinetic-energy cutoff     =      36.7493  Ry
     charge density cutoff     =     367.4932  Ry
     convergence threshold     =      1.0E-06
     mixing beta               =       0.1000
     number of iterations used =           10  plain     mixing
     Exchange-correlation      = BEEF-VDW ( 1  4 27 13 2)
     nstep                     =           50

     celldm(1)=   1.889726  celldm(2)=   0.000000  celldm(3)=   0.000000
     celldm(4)=   0.000000  celldm(5)=   0.000000  celldm(6)=   0.000000

     crystal axes: (cart. coord. in units of alat)
               a(1) = (   5.766099   0.000000   0.000000 )
               a(2) = (  -2.883049   4.993588   0.000000 )
               a(3) = (   0.000000   0.000000  24.708000 )

     reciprocal axes: (cart. coord. in units 2 pi/alat)
               b(1) = (  0.173427  0.100128  0.000000 )
               b(2) = (  0.000000  0.200257  0.000000 )
               b(3) = (  0.000000  0.000000  0.040473 )

     PseudoPot. # 1 for Re read from file:
     /afs/slac.stanford.edu/u/if/mamunm/psp/gbrv1.5pbe/Re.UPF
     MD5 check sum: 85f993410f3e006da9d71c142b4ad953
     Pseudo is Ultrasoft + core correction, Zval = 15.0
     Generated by new atomic code, or converted to UPF format
     Using radial grid of  981 points,  8 beta functions with:
                l(1) =   0
                l(2) =   0
                l(3) =   1
                l(4) =   1
                l(5) =   2
                l(6) =   2
                l(7) =   3
                l(8) =   3
     Q(r) pseudized with  8 coefficients,  rinner =    1.150   1.150   1.150
                                                       1.150   1.150   1.150
                                                       1.150

     PseudoPot. # 2 for Pb read from file:
     /afs/slac.stanford.edu/u/if/mamunm/psp/gbrv1.5pbe/Pb.UPF
     MD5 check sum: 3d1c1779aa92214d1e8f3a7db79003e2
     Pseudo is Ultrasoft + core correction, Zval = 14.0
     Generated by new atomic code, or converted to UPF format
     Using radial grid of  899 points,  6 beta functions with:
                l(1) =   0
                l(2) =   0
                l(3) =   1
                l(4) =   1
                l(5) =   2
                l(6) =   2
     Q(r) pseudized with  6 coefficients,  rinner =    1.000   1.000   1.000
                                                       1.000   1.000

     vdW kernel table read from file vdW_kernel_table
     MD5 check sum: 095c7af220d748ca6e76c0b4c6cfb241

     atomic species   valence    mass     pseudopotential
        Re1           15.00   186.20700     Re( 1.00)
        Pb1           14.00   207.20000     Pb( 1.00)

     No symmetry found

   Cartesian axes

     site n.     atom                  positions (alat units)
         1           Re1 tau(   1) = (   0.0000000   0.0000000  10.0000000  )
         2           Re1 tau(   2) = (  -1.4415246   2.4967939  10.0000000  )
         3           Re1 tau(   3) = (   1.4415246   2.4967939  10.0000000  )
         4           Pb1 tau(   4) = (   2.8830493   0.0000000  10.0000000  )
         5           Re1 tau(   5) = (   2.8830493   1.6645293  12.3539999  )
         6           Re1 tau(   6) = (   1.4415246   4.1613232  12.3539999  )
         7           Re1 tau(   7) = (  -1.4415246   4.1613232  12.3539999  )
         8           Pb1 tau(   8) = (   0.0000000   1.6645293  12.3539999  )
         9           Re1 tau(   9) = (  -0.0000000   3.3290585  14.7079997  )
        10           Re1 tau(  10) = (   1.4415246   0.8322646  14.7079997  )
        11           Re1 tau(  11) = (   4.3245739   0.8322646  14.7079997  )
        12           Pb1 tau(  12) = (   2.8830493   3.3290585  14.7079997  )

     number of k points=    20  Fermi-Dirac smearing, width (Ry)=  0.0110
                       cart. coord. in units 2pi/alat
        k(    1) = (   0.0000000   0.0000000   0.0000000), wk =   0.0555556
        k(    2) = (   0.0000000   0.0333761   0.0000000), wk =   0.1111111
        k(    3) = (   0.0000000   0.0667523   0.0000000), wk =   0.1111111
        k(    4) = (   0.0000000  -0.1001284   0.0000000), wk =   0.0555556
        k(    5) = (   0.0289046   0.0166881   0.0000000), wk =   0.1111111
        k(    6) = (   0.0289046   0.0500642   0.0000000), wk =   0.1111111
        k(    7) = (   0.0289046   0.0834403   0.0000000), wk =   0.1111111
        k(    8) = (   0.0289046  -0.0834403   0.0000000), wk =   0.1111111
        k(    9) = (   0.0289046  -0.0500642   0.0000000), wk =   0.1111111
        k(   10) = (   0.0289046  -0.0166881   0.0000000), wk =   0.1111111
        k(   11) = (   0.0578092   0.0333761   0.0000000), wk =   0.1111111
        k(   12) = (   0.0578092   0.0667523   0.0000000), wk =   0.1111111
        k(   13) = (   0.0578092   0.1001284   0.0000000), wk =   0.1111111
        k(   14) = (   0.0578092  -0.0667523   0.0000000), wk =   0.1111111
        k(   15) = (   0.0578092  -0.0333761   0.0000000), wk =   0.1111111
        k(   16) = (   0.0578092   0.0000000   0.0000000), wk =   0.1111111
        k(   17) = (  -0.0867137  -0.0500642   0.0000000), wk =   0.0555556
        k(   18) = (  -0.0867137  -0.0166881   0.0000000), wk =   0.1111111
        k(   19) = (  -0.0867137   0.0166881   0.0000000), wk =   0.1111111
        k(   20) = (  -0.0867137  -0.1501926   0.0000000), wk =   0.0555556

     Largest allocated arrays     est. size (Mb)     dimensions
     Largest temporary arrays     est. size (Mb)     dimensions

     Initial potential from superposition of free atoms
     Check: negative starting charge=   -1.195061

     starting charge  172.49254, renormalised to  177.00000

     negative rho (up, down):  1.226E+00 0.000E+00

     *
     * You are using vdW-DF for exchange-correlation in this calculation.
     * Please cite the following three references that made this development
     * possible:
     *
     *   M. Dion, H. Rydberg, E. Schroder, D. C. Langreth, and
     *   B. I. Lundqvist, Phys. Rev. Lett. 92, 246401 (2004).
     *
     *   T. Thonhauser, V. R. Cooper, S. Li, A. Puzder, P. Hyldgaard, and
     *   D. C. Langreth, Phys. Rev. B 76, 125112 (2007).
     *
     *   G. Roman-Perez and J. M. Soler, Phys. Rev. Lett. 103, 096102 (2009).
     *
     *
     * If you are using vdW-DF2, please also cite:
     *
     *   K. Lee, E. D. Murray, L. Kong, B. I. Lundqvist, and
     *   D. C. Langreth, Phys. Rev. B 82, 081101(R) (2010).
     *
     *
     * If you are calculating the stress with vdW-DF, please also cite:
     *
     *   R. Sabatini, E. Kucukbenli, B. Kolb, T. Thonhauser, and
     *   S. de Gironcoli, J. Phys.: Condens. Matter 24, 424209 (2012).
     *

     Carrying out vdW-DF run using the following parameters:

     Nqs =      20    Nr_points =    1024   r_max =   100.000
     q_mesh =
               0.00001000     0.04494208     0.09755937     0.15916263
               0.23128650     0.31572767     0.41458969     0.53033537
               0.66584808     0.82450364     1.01025438     1.22772762
               1.48234092     1.78043706     2.12944203     2.53805004
               3.01644009     3.57652955     4.23227104     5.00000000

     Gradients computed in reciprocal space

     Adding external electric field

     Computed dipole along edir(3) :
        Dipole               -0.0000 Ry au,         -0.0000 Debye
        Dipole field         -0.0000 Ry au

        Potential amp.        0.0000 Ry
        Total length         45.5241 bohr

     Starting wfc are  144 randomized atomic wfcs

     Self-consistent Calculation

     iteration #  1     ecut=    36.75 Ry     beta=0.10
     Davidson diagonalization with overlap
     ethr =  1.00E-02,  avg # of iterations =  4.9

     Threshold (ethr) on eigenvalues was too large:
     Diagonalizing with lowered threshold

     Davidson diagonalization with overlap
     ethr =  7.93E-04,  avg # of iterations =  4.5

[...]

     total energy              =   -2226.89812231 Ry
     Harris-Foulkes estimate   =   -2227.10440561 Ry
     estimated scf accuracy    <       1.44719893 Ry

[...]

     End of self-consistent calculation

          k = 0.0000 0.0000 0.0000 ( 18067 PWs)   bands (ev):

   -78.1208 -78.0904 -78.0887 -78.0102 -78.0084 -77.9807 -77.9807 -77.9803
   -77.9803 -40.0740 -39.9873 -39.9854 -39.9849 -39.9400 -39.9397 -39.9313
   -39.9005 -39.8461 -39.8461 -39.7396 -39.7393 -39.7339 -39.6753 -39.6227
   -39.6226 -39.6096 -39.5802 -39.5611 -39.5610 -39.5439 -39.5367 -39.5362
   -39.4376 -39.4376 -39.4326 -39.4325 -15.1694 -15.1694 -15.1670 -15.1183
   -15.1183 -14.7771 -14.7771 -14.7705 -14.7705 -14.7647 -14.7424 -14.6962
   -14.6962 -14.6776 -14.6776  -9.1315  -7.5976  -7.4045  -3.3377  -3.1518
    -2.8140  -2.0795  -2.0794  -1.5187  -1.5187  -1.4846  -1.4846  -1.3845
    -1.1512  -1.1511  -1.1506  -0.4616  -0.4616   0.0658   0.1866   0.4741
     0.4741   0.8401   0.8401   0.9871   0.9871   1.1265   1.1361   1.2947
     1.2947   1.4360   1.9917   2.5201   2.5203   2.7713   2.7714   2.7930
     2.9395   2.9395   3.1029   3.3563   3.3565   3.3958   3.4212   3.4212
     3.4800   3.9292   3.9293   4.3425   4.4203   4.4203   4.4685   4.4685
     4.6105   4.6297   5.4709   5.6389   5.6392   5.6874   5.8223   6.0469
     6.7779   6.7783   7.4033   8.2129   8.7835   8.7846

[...]

          k =-0.0867-0.0501 0.0000 ( 18028 PWs)   bands (ev):

[...]

     the Fermi energy is     2.6084 ev

!    total energy              =   -2226.60090881 Ry
     Harris-Foulkes estimate   =   -2226.61015738 Ry
     estimated scf accuracy    <       0.00000086 Ry

     The total energy is the sum of the following terms:

     one-electron contribution =  -15869.35401697 Ry
     hartree contribution      =    7940.74755791 Ry
     xc contribution           =    -682.80688548 Ry
     ewald contribution        =    6384.90057850 Ry
     electric field correction =       0.00000000 Ry
     smearing contrib. (-TS)   =      -0.08814277 Ry

     convergence has been achieved in  16 iterations

 BEEF-vdW xc energy contributions
           1 :   -607.171222660163
           2 :    564.430686989500
           3 :   -488.002070841998
           4 :    392.903224713085
           5 :   -295.503164551195
[...]
     Pseudo is Ultrasoft + core correction, Zval = 15.0
     Generated by new atomic code, or converted to UPF format
     Using radial grid of  981 points,  8 beta functions with:
                l(1) =   0
                l(2) =   0
                l(3) =   1
                l(4) =   1
                l(5) =   2
                l(6) =   2
                l(7) =   3
                l(8) =   3
     Q(r) pseudized with  8 coefficients,  rinner =    1.150   1.150   1.150
                                                       1.150   1.150   1.150
                                                       1.150

     PseudoPot. # 2 for Pb read from file:
     /afs/slac.stanford.edu/u/if/mamunm/psp/gbrv1.5pbe/Pb.UPF
     MD5 check sum: 3d1c1779aa92214d1e8f3a7db79003e2
     Pseudo is Ultrasoft + core correction, Zval = 14.0
     Generated by new atomic code, or converted to UPF format
     Using radial grid of  899 points,  6 beta functions with:
                l(1) =   0
                l(2) =   0
                l(3) =   1
                l(4) =   1
                l(5) =   2
                l(6) =   2
     Q(r) pseudized with  6 coefficients,  rinner =    1.000   1.000   1.000
                                                       1.000   1.000

     vdW kernel table read from file vdW_kernel_table
     MD5 check sum: 095c7af220d748ca6e76c0b4c6cfb241

     atomic species   valence    mass     pseudopotential
        Re1           15.00   186.20700     Re( 1.00)
        Pb1           14.00   207.20000     Pb( 1.00)

     No symmetry found

   Cartesian axes

     site n.     atom                  positions (alat units)
         1           Re1 tau(   1) = (   0.0000000   0.0000000  10.0000000  )
         2           Re1 tau(   2) = (  -1.4415246   2.4967939  10.0000000  )
         3           Re1 tau(   3) = (   1.4415246   2.4967939  10.0000000  )
         4           Pb1 tau(   4) = (   2.8830493   0.0000000  10.0000000  )
         5           Re1 tau(   5) = (   2.8830493   1.6645293  12.3539999  )
         6           Re1 tau(   6) = (   1.4415246   4.1613232  12.3539999  )
         7           Re1 tau(   7) = (  -1.4415246   4.1613232  12.3539999  )
         8           Pb1 tau(   8) = (   0.0000000   1.6645293  12.3539999  )
         9           Re1 tau(   9) = (   0.0000114   3.5317705  14.4619987  )
        10           Re1 tau(  10) = (   1.6170556   0.7311983  14.4620880  )
        11           Re1 tau(  11) = (   4.1490728   0.7311982  14.4620811  )
        12           Pb1 tau(  12) = (   2.8830831   3.3292875  15.4442167  )

     number of k points=    20  Fermi-Dirac smearing, width (Ry)=  0.0110
                       cart. coord. in units 2pi/alat
        k(    1) = (   0.0000000   0.0000000   0.0000000), wk =   0.0555556
        k(    2) = (   0.0000000   0.0333761   0.0000000), wk =   0.1111111
        k(    3) = (   0.0000000   0.0667523   0.0000000), wk =   0.1111111
        k(    4) = (   0.0000000  -0.1001284   0.0000000), wk =   0.0555556
        k(    5) = (   0.0289046   0.0166881   0.0000000), wk =   0.1111111
        k(    6) = (   0.0289046   0.0500642   0.0000000), wk =   0.1111111
        k(    7) = (   0.0289046   0.0834403   0.0000000), wk =   0.1111111
        k(    8) = (   0.0289046  -0.0834403   0.0000000), wk =   0.1111111
        k(    9) = (   0.0289046  -0.0500642   0.0000000), wk =   0.1111111
        k(   10) = (   0.0289046  -0.0166881   0.0000000), wk =   0.1111111
        k(   11) = (   0.0578092   0.0333761   0.0000000), wk =   0.1111111
        k(   12) = (   0.0578092   0.0667523   0.0000000), wk =   0.1111111
        k(   13) = (   0.0578092   0.1001284   0.0000000), wk =   0.1111111
        k(   14) = (   0.0578092  -0.0667523   0.0000000), wk =   0.1111111
        k(   15) = (   0.0578092  -0.0333761   0.0000000), wk =   0.1111111
        k(   16) = (   0.0578092   0.0000000   0.0000000), wk =   0.1111111
        k(   17) = (  -0.0867137  -0.0500642   0.0000000), wk =   0.0555556
        k(   18) = (  -0.0867137  -0.0166881   0.0000000), wk =   0.1111111
        k(   19) = (  -0.0867137   0.0166881   0.0000000), wk =   0.1111111
        k(   20) = (  -0.0867137  -0.1501926   0.0000000), wk =   0.0555556

     Largest allocated arrays     est. size (Mb)     dimensions
     Largest temporary arrays     est. size (Mb)     dimensions

     Initial potential from superposition of free atoms
     Check: negative starting charge=   -1.200115

     starting charge  172.49254, renormalised to  177.00000

[...]

     *
     * You are using vdW-DF for exchange-correlation in this calculation.
     * Please cite the following three references that made this development
     * possible:
     *
     *   M. Dion, H. Rydberg, E. Schroder, D. C. Langreth, and
     *   B. I. Lundqvist, Phys. Rev. Lett. 92, 246401 (2004).
     *
     *   T. Thonhauser, V. R. Cooper, S. Li, A. Puzder, P. Hyldgaard, and
     *   D. C. Langreth, Phys. Rev. B 76, 125112 (2007).
     *
     *   G. Roman-Perez and J. M. Soler, Phys. Rev. Lett. 103, 096102 (2009).
     *
     *
     * If you are using vdW-DF2, please also cite:
     *
     *   K. Lee, E. D. Murray, L. Kong, B. I. Lundqvist, and
     *   D. C. Langreth, Phys. Rev. B 82, 081101(R) (2010).
     *
     *
     * If you are calculating the stress with vdW-DF, please also cite:
     *
     *   R. Sabatini, E. Kucukbenli, B. Kolb, T. Thonhauser, and
     *   S. de Gironcoli, J. Phys.: Condens. Matter 24, 424209 (2012).
     *

     Carrying out vdW-DF run using the following parameters:

     Nqs =      20    Nr_points =    1024   r_max =   100.000
     q_mesh =
               0.00001000     0.04494208     0.09755937     0.15916263
               0.23128650     0.31572767     0.41458969     0.53033537
               0.66584808     0.82450364     1.01025438     1.22772762
               1.48234092     1.78043706     2.12944203     2.53805004
               3.01644009     3.57652955     4.23227104     5.00000000

     Gradients computed in reciprocal space

[...]

     Starting wfc are  144 randomized atomic wfcs

     Self-consistent Calculation

[...]

     total energy              =   -2226.74666463 Ry
     Harris-Foulkes estimate   =   -2226.74666381 Ry
     estimated scf accuracy    <       0.00000127 Ry

     iteration # 16     ecut=    36.75 Ry     beta=0.10
     Davidson diagonalization with overlap
     ethr =  7.17E-10,  avg # of iterations =  4.3

[...]

     negative rho (up, down):  1.229E+00 0.000E+00

     Adding external electric field

     Computed dipole along edir(3) :
        Dipole                0.2398 Ry au,          0.6096 Debye
        Dipole field          0.0006 Ry au

        Potential amp.       -0.0572 Ry
        Total length         45.5241 bohr

     End of self-consistent calculation

[...]

          k = 0.0578 0.0000 0.0000 ( 18083 PWs)   bands (ev):

[...]

          k =-0.0867-0.1502 0.0000 ( 18028 PWs)   bands (ev):

   -77.9243 -77.9065 -77.8943 -77.8313 -77.7669 -77.7642 -77.7198 -77.7101
   -77.7004 -40.0893 -39.9501 -39.9069 -39.9033 -39.8608 -39.7767 -39.6925
   -39.6700 -39.6047 -39.5821 -39.5506 -39.5418 -39.4509 -39.4493 -39.4321
   -39.3943 -39.3928 -39.3698 -39.3278 -39.3273 -39.2753 -39.2514 -39.2470
   -39.2217 -39.2007 -39.1755 -39.1446 -14.9533 -14.9322 -14.9086 -14.8799
   -14.8745 -14.5169 -14.4756 -14.4752 -14.4436 -14.4423 -14.3781 -14.3594
   -14.3509 -14.3030 -14.2965  -7.8532  -6.9735  -6.0487  -4.2151  -3.2287
    -3.0241  -2.7666  -2.3388  -1.4511  -1.3317  -1.2982  -1.2547  -1.0516
    -1.0458  -0.8826  -0.5070  -0.4582  -0.2502  -0.1672  -0.1234  -0.0214
     0.0453   0.4089   0.5669   0.7099   0.8444   1.0453   1.1217   1.3021
     1.4150   1.4888   1.6589   1.7376   2.1371   2.3605   2.3819   2.6370
     2.7389   2.9886   3.0240   3.0419   3.1173   3.3253   3.4419   3.4987
     3.5268   3.8586   3.9993   4.0972   4.4202   4.5180   4.8845   4.9282
     5.3241   5.7181   6.3502   6.3839   6.5925   7.0809   7.1907   7.2871
     7.6364   7.8858   8.0263   8.4191   8.5019   8.6609

     the Fermi energy is     2.8696 ev

!    total energy              =   -2226.74663194 Ry
     Harris-Foulkes estimate   =   -2226.74666555 Ry
     estimated scf accuracy    <       0.00000041 Ry

     The total energy is the sum of the following terms:

     one-electron contribution =  -15866.48213206 Ry
     hartree contribution      =    7940.53863349 Ry
     xc contribution           =    -683.08615458 Ry
     ewald contribution        =    6382.35925306 Ry
     electric field correction =       0.00015055 Ry
     smearing contrib. (-TS)   =      -0.07638240 Ry

     convergence has been achieved in  16 iterations

 BEEF-vdW xc energy contributions
           1 :   -607.971054911078
           2 :    565.259177006391
           3 :   -488.873383444013
           4 :    393.792817511485
           5 :   -296.331098723720
           6 :    209.767987353957
           7 :   -141.569428051907
           8 :    92.8742013257314
           9 :   -60.0747963005165
          10 :    37.5574488600461
          11 :   -20.3626996747658
          12 :    5.76576071445959
          13 :    6.58192200288215
          14 :   -15.6318249141154
          15 :    20.3086113125454
          16 :   -20.5406305897091
          17 :    17.5339705844333
          18 :   -13.3074853582516
          19 :    9.84013911077761
          20 :   -8.30681059950950
          21 :    8.75889974402799
          22 :   -10.3393973719726
          23 :    11.8523630810516
          24 :   -12.3721001704382
          25 :    11.6106518947254
          26 :   -9.92295065156122
          27 :    8.01353324761862
          28 :   -6.53656690402192
          29 :    5.79709551206406
          30 :   -5.67923419134559
          31 :   -49.8924932459164
          32 :   -36.9095109859218

     Forces acting on atoms (Ry/au):

     negative rho (up, down):  1.229E+00 0.000E+00
     atom    1 type  1   force =    -0.00000089   -0.04473477    0.02241861
     atom    2 type  1   force =    -0.03873900    0.02237839    0.02241831
     atom    3 type  1   force =     0.03873806    0.02238070    0.02242190
     atom    4 type  2   force =    -0.00000535    0.00000115   -0.09157779
     atom    5 type  1   force =    -0.00000370    0.03587746    0.01673622
     atom    6 type  1   force =     0.03106518   -0.01794012    0.01675348
     atom    7 type  1   force =    -0.03106419   -0.01793486    0.01675718
     atom    8 type  2   force =    -0.00000224   -0.00000741   -0.02606089
     atom    9 type  1   force =     0.00001000    0.00005398   -0.00030398
     atom   10 type  1   force =     0.00003951   -0.00003418   -0.00029579
     atom   11 type  1   force =    -0.00003859   -0.00004188   -0.00029712
     atom   12 type  2   force =     0.00000120    0.00000154    0.00102988

     Total force =     0.145882     Total SCF correction =     0.003102

     entering subroutine stress ...

     negative rho (up, down):  1.229E+00 0.000E+00
          total   stress  (Ry/bohr**3)                   (kbar)     P=  -20.42
  -0.00020910  -0.00000000  -0.00000000        -30.76     -0.00     -0.00
  -0.00000000  -0.00020909  -0.00000001         -0.00    -30.76     -0.00
  -0.00000000  -0.00000001   0.00000177         -0.00     -0.00      0.26

 !ASE

     Writing output data file calc.save

     General routines

     Parallel routines

   This run was terminated on:  23: 6:14  31Dec2018

   JOB DONE.
Job  /afs/slac/g/suncat/bin/suncat-tsmpirun -x LD_LIBRARY_PATH -wdir /scratch/qe648856_5VGWd pw.x -in pw.inp

TID   HOST_NAME   COMMAND_LINE            STATUS            TERMINATION_TIME
00000 suncat0146 pw.x -in pw.inp   Done                     12/31/2018 23:06:14
00001 suncat0146 pw.x -in pw.inp   Done                     12/31/2018 23:06:14
00002 suncat0146 pw.x -in pw.inp   Done                     12/31/2018 23:06:14
00003 suncat0146 pw.x -in pw.inp   Done                     12/31/2018 23:06:14
00004 suncat0146 pw.x -in pw.inp   Done                     12/31/2018 23:06:14
00005 suncat0146 pw.x -in pw.inp   Done                     12/31/2018 23:06:14
00006 suncat0146 pw.x -in pw.inp   Done                     12/31/2018 23:06:14
00007 suncat0146 pw.x -in pw.inp   Done                     12/31/2018 23:06:14
00008 suncat0136 pw.x -in pw.inp   Done                     12/31/2018 23:06:14
00009 suncat0136 pw.x -in pw.inp   Done                     12/31/2018 23:06:14
00010 suncat0136 pw.x -in pw.inp   Done                     12/31/2018 23:06:14
00011 suncat0136 pw.x -in pw.inp   Done                     12/31/2018 23:06:14
00012 suncat0136 pw.x -in pw.inp   Done                     12/31/2018 23:06:14
00013 suncat0136 pw.x -in pw.inp   Done                     12/31/2018 23:06:14
00014 suncat0136 pw.x -in pw.inp   Done                     12/31/2018 23:06:14
00015 suncat0136 pw.x -in pw.inp   Done                     12/31/2018 23:06:14
00016 suncat0248 pw.x -in pw.inp   Done                     12/31/2018 23:06:14
00017 suncat0248 pw.x -in pw.inp   Done                     12/31/2018 23:06:14
00018 suncat0248 pw.x -in pw.inp   Done                     12/31/2018 23:06:14
00019 suncat0248 pw.x -in pw.inp   Done                     12/31/2018 23:06:14
00020 suncat0248 pw.x -in pw.inp   Done                     12/31/2018 23:06:14
00021 suncat0248 pw.x -in pw.inp   Done                     12/31/2018 23:06:14
00022 suncat0248 pw.x -in pw.inp   Done                     12/31/2018 23:06:14
00023 suncat0248 pw.x -in pw.inp   Done                     12/31/2018 23:06:14
00024 suncat0247 pw.x -in pw.inp   Done                     12/31/2018 23:06:14
00025 suncat0247 pw.x -in pw.inp   Done                     12/31/2018 23:06:14
00026 suncat0247 pw.x -in pw.inp   Done                     12/31/2018 23:06:14
00027 suncat0247 pw.x -in pw.inp   Done                     12/31/2018 23:06:14
00028 suncat0247 pw.x -in pw.inp   Done                     12/31/2018 23:06:14
00029 suncat0247 pw.x -in pw.inp   Done                     12/31/2018 23:06:14
00030 suncat0247 pw.x -in pw.inp   Done                     12/31/2018 23:06:14
00031 suncat0247 pw.x -in pw.inp   Done                     12/31/2018 23:06:14
00032 suncat0246 pw.x -in pw.inp   Done                     12/31/2018 23:06:14
00033 suncat0246 pw.x -in pw.inp   Done                     12/31/2018 23:06:14
00034 suncat0246 pw.x -in pw.inp   Done                     12/31/2018 23:06:14
00035 suncat0246 pw.x -in pw.inp   Done                     12/31/2018 23:06:14
00036 suncat0246 pw.x -in pw.inp   Done                     12/31/2018 23:06:14
00037 suncat0246 pw.x -in pw.inp   Done                     12/31/2018 23:06:14
00038 suncat0246 pw.x -in pw.inp   Done                     12/31/2018 23:06:14
00039 suncat0246 pw.x -in pw.inp   Done                     12/31/2018 23:06:14
00040 suncat0245 pw.x -in pw.inp   Done                     12/31/2018 23:06:14
00041 suncat0245 pw.x -in pw.inp   Done                     12/31/2018 23:06:14
00042 suncat0245 pw.x -in pw.inp   Done                     12/31/2018 23:06:14
00043 suncat0245 pw.x -in pw.inp   Done                     12/31/2018 23:06:14
00044 suncat0245 pw.x -in pw.inp   Done                     12/31/2018 23:06:14
00045 suncat0245 pw.x -in pw.inp   Done                     12/31/2018 23:06:14
00046 suncat0245 pw.x -in pw.inp   Done                     12/31/2018 23:06:14
00047 suncat0245 pw.x -in pw.inp   Done                     12/31/2018 23:06:14
00048 suncat0214 pw.x -in pw.inp   Done                     12/31/2018 23:06:14
00049 suncat0214 pw.x -in pw.inp   Done                     12/31/2018 23:06:14
00050 suncat0214 pw.x -in pw.inp   Done                     12/31/2018 23:06:14
00051 suncat0214 pw.x -in pw.inp   Done                     12/31/2018 23:06:14
00052 suncat0214 pw.x -in pw.inp   Done                     12/31/2018 23:06:14
00053 suncat0214 pw.x -in pw.inp   Done                     12/31/2018 23:06:14
00054 suncat0214 pw.x -in pw.inp   Done                     12/31/2018 23:06:14
00055 suncat0214 pw.x -in pw.inp   Done                     12/31/2018 23:06:14
00056 suncat0213 pw.x -in pw.inp   Done                     12/31/2018 23:06:14
00057 suncat0213 pw.x -in pw.inp   Done                     12/31/2018 23:06:14
00058 suncat0213 pw.x -in pw.inp   Done                     12/31/2018 23:06:14
00059 suncat0213 pw.x -in pw.inp   Done                     12/31/2018 23:06:14
00060 suncat0213 pw.x -in pw.inp   Done                     12/31/2018 23:06:14
00061 suncat0213 pw.x -in pw.inp   Done                     12/31/2018 23:06:14
00062 suncat0213 pw.x -in pw.inp   Done                     12/31/2018 23:06:14
00063 suncat0213 pw.x -in pw.inp   Done                     12/31/2018 23:06:14