     Program PWSCF v.5.1rc2 (svn rev. 11289) starts on 27Dec2018 at 15:35:24

     Current dimensions of program PWSCF are:
     Max number of different atomic species (ntypx) = 10
     Max number of k-points (npk) =  40000
     Max angular momentum in pseudopotentials (lmaxx) =  3
     Presently stress not available with electric field

     IMPORTANT: XC functional enforced from input :
     Exchange-correlation      = BEEF-VDW ( 1  4 27 13 2)
     Any further DFT definition will be discarded
     Please, verify this is what you really want

     Subspace diagonalization in iterative solution of the eigenvalue problem:
     a serial algorithm will be used

     bravais-lattice index     =            0
     lattice parameter (alat)  =       1.8897  a.u.
     unit-cell volume          =    6508.3429 (a.u.)^3
     number of atoms/cell      =           12
     number of atomic types    =            2
     number of electrons       =       174.00
     number of Kohn-Sham states=          117
     kinetic-energy cutoff     =      36.7493  Ry
     charge density cutoff     =     367.4932  Ry
     convergence threshold     =      1.0E-06
     mixing beta               =       0.1000
     number of iterations used =           10  plain     mixing
     Exchange-correlation      = BEEF-VDW ( 1  4 27 13 2)
     nstep                     =           50

     celldm(1)=   1.889726  celldm(2)=   0.000000  celldm(3)=   0.000000
     celldm(4)=   0.000000  celldm(5)=   0.000000  celldm(6)=   0.000000

     crystal axes: (cart. coord. in units of alat)
               a(1) = (   6.620720   0.000000   0.000000 )
               a(2) = (  -3.310360   5.733711   0.000000 )
               a(3) = (   0.000000   0.000000  25.405795 )

     reciprocal axes: (cart. coord. in units 2 pi/alat)
               b(1) = (  0.151041  0.087204  0.000000 )
               b(2) = (  0.000000  0.174407  0.000000 )
               b(3) = (  0.000000  0.000000  0.039361 )

     PseudoPot. # 1 for Pb read from file:
     /afs/slac.stanford.edu/u/if/mamunm/psp/gbrv1.5pbe/Pb.UPF
     MD5 check sum: 3d1c1779aa92214d1e8f3a7db79003e2
     Pseudo is Ultrasoft + core correction, Zval = 14.0
     Generated by new atomic code, or converted to UPF format
     Using radial grid of  899 points,  6 beta functions with:
                l(1) =   0
                l(2) =   0
                l(3) =   1
                l(4) =   1
                l(5) =   2
                l(6) =   2
     Q(r) pseudized with  6 coefficients,  rinner =    1.000   1.000   1.000
                                                       1.000   1.000

     PseudoPot. # 2 for Ru read from file:
     /afs/slac.stanford.edu/u/if/mamunm/psp/gbrv1.5pbe/Ru.UPF
     MD5 check sum: 7158a806dd851261a58e6920c40ebe78
     Pseudo is Ultrasoft + core correction, Zval = 16.0
     Generated by new atomic code, or converted to UPF format
     Using radial grid of  967 points,  6 beta functions with:
                l(1) =   0
                l(2) =   0
                l(3) =   1
                l(4) =   1
                l(5) =   2
                l(6) =   2
     Q(r) pseudized with  8 coefficients,  rinner =    1.300   1.300   1.300
                                                       1.300   1.300

     vdW kernel table read from file vdW_kernel_table
     MD5 check sum: 095c7af220d748ca6e76c0b4c6cfb241

     atomic species   valence    mass     pseudopotential
        Pb1           14.00   207.20000     Pb( 1.00)
        Ru1           16.00   101.07000     Ru( 1.00)

     No symmetry found

   Cartesian axes

     site n.     atom                  positions (alat units)
         1           Pb1 tau(   1) = (   0.0000000   0.0000000  10.0000000  )
         2           Pb1 tau(   2) = (  -1.6551799   2.8668557  10.0000000  )
         3           Pb1 tau(   3) = (   1.6551799   2.8668557  10.0000000  )
         4           Ru1 tau(   4) = (   3.3103598   0.0000000  10.0000000  )
         5           Pb1 tau(   5) = (   3.3103598   1.9112371  12.7028975  )
         6           Pb1 tau(   6) = (   1.6551799   4.7780929  12.7028975  )
         7           Pb1 tau(   7) = (  -1.6551799   4.7780929  12.7028975  )
         8           Ru1 tau(   8) = (   0.0000000   1.9112371  12.7028975  )
         9           Pb1 tau(   9) = (  -0.0000000   3.8224743  15.4057950  )
        10           Pb1 tau(  10) = (   1.6551799   0.9556186  15.4057950  )
        11           Pb1 tau(  11) = (   4.9655398   0.9556186  15.4057950  )
        12           Ru1 tau(  12) = (   3.3103598   3.8224743  15.4057950  )

     number of k points=    20  Fermi-Dirac smearing, width (Ry)=  0.0110
                       cart. coord. in units 2pi/alat
        k(    1) = (   0.0000000   0.0000000   0.0000000), wk =   0.0555556
        k(    2) = (   0.0000000   0.0290679   0.0000000), wk =   0.1111111
        k(    3) = (   0.0000000   0.0581357   0.0000000), wk =   0.1111111
        k(    4) = (   0.0000000  -0.0872036   0.0000000), wk =   0.0555556
        k(    5) = (   0.0251735   0.0145339   0.0000000), wk =   0.1111111
        k(    6) = (   0.0251735   0.0436018   0.0000000), wk =   0.1111111
        k(    7) = (   0.0251735   0.0726696   0.0000000), wk =   0.1111111
        k(    8) = (   0.0251735  -0.0726696   0.0000000), wk =   0.1111111
        k(    9) = (   0.0251735  -0.0436018   0.0000000), wk =   0.1111111
        k(   10) = (   0.0251735  -0.0145339   0.0000000), wk =   0.1111111
        k(   11) = (   0.0503470   0.0290679   0.0000000), wk =   0.1111111
        k(   12) = (   0.0503470   0.0581357   0.0000000), wk =   0.1111111
        k(   13) = (   0.0503470   0.0872036   0.0000000), wk =   0.1111111
        k(   14) = (   0.0503470  -0.0581357   0.0000000), wk =   0.1111111
        k(   15) = (   0.0503470  -0.0290679   0.0000000), wk =   0.1111111
        k(   16) = (   0.0503470   0.0000000   0.0000000), wk =   0.1111111
        k(   17) = (  -0.0755205  -0.0436018   0.0000000), wk =   0.0555556
        k(   18) = (  -0.0755205  -0.0145339   0.0000000), wk =   0.1111111
        k(   19) = (  -0.0755205   0.0145339   0.0000000), wk =   0.1111111
        k(   20) = (  -0.0755205  -0.1308053   0.0000000), wk =   0.0555556

     Largest allocated arrays     est. size (Mb)     dimensions
     Largest temporary arrays     est. size (Mb)     dimensions

     Check: negative/imaginary core charge=   -0.000001    0.000000

     Initial potential from superposition of free atoms
     Check: negative starting charge=   -0.369605

     starting charge  170.97879, renormalised to  174.00000

     negative rho (up, down):  3.761E-01 0.000E+00

     *
     * You are using vdW-DF for exchange-correlation in this calculation.
     * Please cite the following three references that made this development
     * possible:
     *
     *   M. Dion, H. Rydberg, E. Schroder, D. C. Langreth, and
     *   B. I. Lundqvist, Phys. Rev. Lett. 92, 246401 (2004).
     *
     *   T. Thonhauser, V. R. Cooper, S. Li, A. Puzder, P. Hyldgaard, and
     *   D. C. Langreth, Phys. Rev. B 76, 125112 (2007).
     *
     *   G. Roman-Perez and J. M. Soler, Phys. Rev. Lett. 103, 096102 (2009).
     *
     *
     * If you are using vdW-DF2, please also cite:
     *
     *   K. Lee, E. D. Murray, L. Kong, B. I. Lundqvist, and
     *   D. C. Langreth, Phys. Rev. B 82, 081101(R) (2010).
     *
     *
     * If you are calculating the stress with vdW-DF, please also cite:
     *
     *   R. Sabatini, E. Kucukbenli, B. Kolb, T. Thonhauser, and
     *   S. de Gironcoli, J. Phys.: Condens. Matter 24, 424209 (2012).
     *

     Carrying out vdW-DF run using the following parameters:

     Nqs =      20    Nr_points =    1024   r_max =   100.000
     q_mesh =
               0.00001000     0.04494208     0.09755937     0.15916263
               0.23128650     0.31572767     0.41458969     0.53033537
               0.66584808     0.82450364     1.01025438     1.22772762
               1.48234092     1.78043706     2.12944203     2.53805004
               3.01644009     3.57652955     4.23227104     5.00000000

     Gradients computed in reciprocal space

     Adding external electric field

     Computed dipole along edir(3) :
        Dipole               -0.0000 Ry au,         -0.0000 Debye
        Dipole field         -0.0000 Ry au

        Potential amp.        0.0000 Ry
        Total length         46.8097 bohr

     Starting wfc are  120 randomized atomic wfcs

     Self-consistent Calculation

     iteration #  1     ecut=    36.75 Ry     beta=0.10
     Davidson diagonalization with overlap
     ethr =  1.00E-02,  avg # of iterations =  7.3

[...]

     total energy              =   -2078.76863756 Ry
     Harris-Foulkes estimate   =   -2080.39424061 Ry
     estimated scf accuracy    <       9.06077429 Ry

[...]

     End of self-consistent calculation

          k = 0.0000 0.0000 0.0000 ( 24381 PWs)   bands (ev):

   -70.4785 -70.3346 -70.3345 -40.4785 -40.4722 -40.4722 -40.3673 -40.3673
   -40.3672 -40.3672 -40.2978 -40.2977 -16.2737 -16.2449 -16.2306 -16.2306
   -16.2202 -16.1885 -16.1614 -16.1614 -16.1232 -16.1232 -16.1011 -16.0791
   -16.0791 -16.0446 -16.0168 -16.0146 -16.0146 -15.9985 -15.9984 -15.9876
   -15.9355 -15.9043 -15.9043 -15.8960 -15.8960 -15.8923 -15.8863 -15.8760
   -15.8760 -15.8674 -15.8674 -15.8489 -15.8489 -15.8259 -15.8259 -15.8060
   -15.8060 -15.7445 -15.7445 -15.7231 -15.7141 -15.7140 -15.6937 -15.6911
   -15.6592  -9.9957  -8.8873  -7.4471  -6.5904  -6.5904  -6.0085  -6.0085
    -5.2447  -5.2447  -2.8515  -2.1929  -1.7500  -1.4411  -1.4411  -1.2931
    -0.4398  -0.4398  -0.3124  -0.3124   0.0335   0.5316   0.5316   0.5687
     0.5687   0.7838   0.8066   0.8066   0.9462   0.9462   0.9590   0.9590
     0.9999   1.1531   1.1531   1.3175   2.2247   2.5511   3.2927   3.6367
     3.6367   3.7184   3.7184   4.4356   4.7128   4.8459   4.9580   5.2799
     5.7848   5.7848   5.9392   6.0773   6.2216   6.4157   6.4157   6.9936
     7.3259   7.3259   7.3600   7.8072   7.8733

[...]

          k =-0.0755-0.0436 0.0000 ( 24480 PWs)   bands (ev):

[...]

     the Fermi energy is     1.2394 ev

!    total energy              =   -2079.04988752 Ry
     Harris-Foulkes estimate   =   -2079.04990641 Ry
     estimated scf accuracy    <       0.00000068 Ry

     The total energy is the sum of the following terms:

     one-electron contribution =  -11264.67129407 Ry
     hartree contribution      =    5685.78080223 Ry
     xc contribution           =    -668.34287554 Ry
     ewald contribution        =    4168.27166096 Ry
     electric field correction =       0.00000002 Ry
     smearing contrib. (-TS)   =      -0.08818111 Ry

     convergence has been achieved in  16 iterations

 BEEF-vdW xc energy contributions
           1 :   -593.855943089199
           2 :    550.642256571313
           3 :   -474.839272576599
           4 :    383.534776669303
           5 :   -294.221095517619
           6 :    219.449835436849
           7 :   -164.087335463897
           8 :    125.825262112090
           9 :   -98.2487180058932
          10 :    74.7840441615463
          11 :   -51.6979625548961
          12 :    29.0054741777485
[...]
     MD5 check sum: 3d1c1779aa92214d1e8f3a7db79003e2
     Pseudo is Ultrasoft + core correction, Zval = 14.0
     Generated by new atomic code, or converted to UPF format
     Using radial grid of  899 points,  6 beta functions with:
                l(1) =   0
                l(2) =   0
                l(3) =   1
                l(4) =   1
                l(5) =   2
                l(6) =   2
     Q(r) pseudized with  6 coefficients,  rinner =    1.000   1.000   1.000
                                                       1.000   1.000

     PseudoPot. # 2 for Ru read from file:
     /afs/slac.stanford.edu/u/if/mamunm/psp/gbrv1.5pbe/Ru.UPF
     MD5 check sum: 7158a806dd851261a58e6920c40ebe78
     Pseudo is Ultrasoft + core correction, Zval = 16.0
     Generated by new atomic code, or converted to UPF format
     Using radial grid of  967 points,  6 beta functions with:
                l(1) =   0
                l(2) =   0
                l(3) =   1
                l(4) =   1
                l(5) =   2
                l(6) =   2
     Q(r) pseudized with  8 coefficients,  rinner =    1.300   1.300   1.300
                                                       1.300   1.300

     vdW kernel table read from file vdW_kernel_table
     MD5 check sum: 095c7af220d748ca6e76c0b4c6cfb241

     atomic species   valence    mass     pseudopotential
        Pb1           14.00   207.20000     Pb( 1.00)
        Ru1           16.00   101.07000     Ru( 1.00)

     No symmetry found

   Cartesian axes

     site n.     atom                  positions (alat units)
         1           Pb1 tau(   1) = (   0.0000000   0.0000000  10.0000000  )
         2           Pb1 tau(   2) = (  -1.6551799   2.8668557  10.0000000  )
         3           Pb1 tau(   3) = (   1.6551799   2.8668557  10.0000000  )
         4           Ru1 tau(   4) = (   3.3103598   0.0000000  10.0000000  )
         5           Pb1 tau(   5) = (   3.3103598   1.9112371  12.7028975  )
         6           Pb1 tau(   6) = (   1.6551799   4.7780929  12.7028975  )
         7           Pb1 tau(   7) = (  -1.6551799   4.7780929  12.7028975  )
         8           Ru1 tau(   8) = (   0.0000000   1.9112371  12.7028975  )
         9           Pb1 tau(   9) = (  -0.0000279   3.7625545  15.4921114  )
        10           Pb1 tau(  10) = (   1.6033448   0.9856609  15.4922669  )
        11           Pb1 tau(  11) = (   5.0175053   0.9855546  15.4921107  )
        12           Ru1 tau(  12) = (   3.3103741   3.8224592  14.7864058  )

     number of k points=    20  Fermi-Dirac smearing, width (Ry)=  0.0110
                       cart. coord. in units 2pi/alat
        k(    1) = (   0.0000000   0.0000000   0.0000000), wk =   0.0555556
        k(    2) = (   0.0000000   0.0290679   0.0000000), wk =   0.1111111
        k(    3) = (   0.0000000   0.0581357   0.0000000), wk =   0.1111111
        k(    4) = (   0.0000000  -0.0872036   0.0000000), wk =   0.0555556
        k(    5) = (   0.0251735   0.0145339   0.0000000), wk =   0.1111111
        k(    6) = (   0.0251735   0.0436018   0.0000000), wk =   0.1111111
        k(    7) = (   0.0251735   0.0726696   0.0000000), wk =   0.1111111
        k(    8) = (   0.0251735  -0.0726696   0.0000000), wk =   0.1111111
        k(    9) = (   0.0251735  -0.0436018   0.0000000), wk =   0.1111111
        k(   10) = (   0.0251735  -0.0145339   0.0000000), wk =   0.1111111
        k(   11) = (   0.0503470   0.0290679   0.0000000), wk =   0.1111111
        k(   12) = (   0.0503470   0.0581357   0.0000000), wk =   0.1111111
        k(   13) = (   0.0503470   0.0872036   0.0000000), wk =   0.1111111
        k(   14) = (   0.0503470  -0.0581357   0.0000000), wk =   0.1111111
        k(   15) = (   0.0503470  -0.0290679   0.0000000), wk =   0.1111111
        k(   16) = (   0.0503470   0.0000000   0.0000000), wk =   0.1111111
        k(   17) = (  -0.0755205  -0.0436018   0.0000000), wk =   0.0555556
        k(   18) = (  -0.0755205  -0.0145339   0.0000000), wk =   0.1111111
        k(   19) = (  -0.0755205   0.0145339   0.0000000), wk =   0.1111111
        k(   20) = (  -0.0755205  -0.1308053   0.0000000), wk =   0.0555556

     Largest allocated arrays     est. size (Mb)     dimensions
     Largest temporary arrays     est. size (Mb)     dimensions

     Check: negative/imaginary core charge=   -0.000001    0.000000

     Initial potential from superposition of free atoms
     Check: negative starting charge=   -0.368580

     starting charge  170.97879, renormalised to  174.00000

[...]

     *
     * You are using vdW-DF for exchange-correlation in this calculation.
     * Please cite the following three references that made this development
     * possible:
     *
     *   M. Dion, H. Rydberg, E. Schroder, D. C. Langreth, and
     *   B. I. Lundqvist, Phys. Rev. Lett. 92, 246401 (2004).
     *
     *   T. Thonhauser, V. R. Cooper, S. Li, A. Puzder, P. Hyldgaard, and
     *   D. C. Langreth, Phys. Rev. B 76, 125112 (2007).
     *
     *   G. Roman-Perez and J. M. Soler, Phys. Rev. Lett. 103, 096102 (2009).
     *
     *
     * If you are using vdW-DF2, please also cite:
     *
     *   K. Lee, E. D. Murray, L. Kong, B. I. Lundqvist, and
     *   D. C. Langreth, Phys. Rev. B 82, 081101(R) (2010).
     *
     *
     * If you are calculating the stress with vdW-DF, please also cite:
     *
     *   R. Sabatini, E. Kucukbenli, B. Kolb, T. Thonhauser, and
     *   S. de Gironcoli, J. Phys.: Condens. Matter 24, 424209 (2012).
     *

     Carrying out vdW-DF run using the following parameters:

     Nqs =      20    Nr_points =    1024   r_max =   100.000
     q_mesh =
               0.00001000     0.04494208     0.09755937     0.15916263
               0.23128650     0.31572767     0.41458969     0.53033537
               0.66584808     0.82450364     1.01025438     1.22772762
               1.48234092     1.78043706     2.12944203     2.53805004
               3.01644009     3.57652955     4.23227104     5.00000000

     Gradients computed in reciprocal space

[...]

     Starting wfc are  120 randomized atomic wfcs

     Self-consistent Calculation

[...]

     total energy              =   -2079.08957537 Ry
     Harris-Foulkes estimate   =   -2079.08958040 Ry
     estimated scf accuracy    <       0.00000145 Ry

     iteration # 24     ecut=    36.75 Ry     beta=0.10
     Davidson diagonalization with overlap
     ethr =  8.32E-10,  avg # of iterations =  2.2

[...]

     negative rho (up, down):  3.811E-01 0.000E+00

     Adding external electric field

     Computed dipole along edir(3) :
        Dipole                0.0996 Ry au,          0.2532 Debye
        Dipole field          0.0002 Ry au

        Potential amp.       -0.0180 Ry
        Total length         46.8097 bohr

     End of self-consistent calculation

[...]

          k = 0.0503 0.0000 0.0000 ( 24498 PWs)   bands (ev):

[...]

          k =-0.0755-0.1308 0.0000 ( 24480 PWs)   bands (ev):

   -70.4849 -70.4140 -70.3313 -40.4856 -40.4759 -40.4759 -40.4496 -40.4317
   -40.4317 -40.3524 -40.3524 -40.3226 -16.2004 -16.1619 -16.1210 -16.1057
   -16.0896 -16.0656 -16.0540 -16.0522 -16.0357 -16.0258 -16.0137 -15.9934
   -15.9885 -15.9811 -15.9635 -15.9540 -15.9513 -15.9442 -15.9422 -15.9340
   -15.9256 -15.9199 -15.9166 -15.9094 -15.8942 -15.8927 -15.8873 -15.8829
   -15.8761 -15.8678 -15.8463 -15.8446 -15.8348 -15.8320 -15.8154 -15.8148
   -15.8104 -15.7999 -15.7839 -15.7807 -15.7799 -15.7773 -15.7136 -15.7027
   -15.6560  -9.0375  -8.7040  -7.9207  -7.4654  -6.8800  -6.8732  -6.4398
    -5.9900  -5.1118  -2.4663  -1.9953  -1.4082  -0.6842  -0.6668  -0.4869
    -0.4229  -0.3330  -0.0413   0.0049   0.1979   0.2928   0.6001   0.6053
     0.8023   0.8520   0.8620   0.9172   1.0653   1.1980   1.2943   1.4585
     1.6161   1.6315   2.2580   2.2695   2.3327   2.5661   2.6902   2.9110
     3.3741   3.7619   3.8770   4.0110   4.0842   4.6998   4.9271   5.1936
     5.2395   5.6543   5.8048   5.8839   6.0856   6.2376   6.3827   6.5334
     6.5807   6.7575   6.8792   7.0274   7.0881

     the Fermi energy is     1.2722 ev

!    total energy              =   -2079.08952314 Ry
     Harris-Foulkes estimate   =   -2079.08957399 Ry
     estimated scf accuracy    <       0.00000071 Ry

     The total energy is the sum of the following terms:

     one-electron contribution =  -11419.69111909 Ry
     hartree contribution      =    5763.34752255 Ry
     xc contribution           =    -668.42832477 Ry
     ewald contribution        =    4245.76333791 Ry
     electric field correction =       0.00001916 Ry
     smearing contrib. (-TS)   =      -0.08095892 Ry

     convergence has been achieved in  24 iterations

 BEEF-vdW xc energy contributions
           1 :   -593.950794541120
           2 :    550.791024113048
           3 :   -475.054161817093
           4 :    383.770887420535
           5 :   -294.397533989980
           6 :    219.495356245278
           7 :   -163.982818852414
           8 :    125.617544334339
           9 :   -98.0291329277709
          10 :    74.6444719323730
          11 :   -51.6869874477142
          12 :    29.1064210901491
          13 :   -9.43896536209604
          14 :   -4.42353533297558
          15 :    11.2169958209704
          16 :   -12.0652747253376
          17 :    9.82306185266270
          18 :   -7.56734749120494
          19 :    7.15511314249670
          20 :   -8.60355087246091
          21 :    10.5173219759899
          22 :   -11.2036375574306
          23 :    9.78304793319455
          24 :   -6.68699007349642
          25 :    3.33805238151842
          26 :   -1.28288270959763
          27 :    1.31788558162611
          28 :   -3.09865853270185
          29 :    5.41051697417402
          30 :   -6.89729466156905
          31 :   -49.0698358058917
          32 :   -36.1024819474875

     Forces acting on atoms (Ry/au):

     negative rho (up, down):  3.811E-01 0.000E+00
     atom    1 type  1   force =    -0.00000728    0.02046330   -0.00974155
     atom    2 type  1   force =     0.01771417   -0.01023816   -0.00974866
     atom    3 type  1   force =    -0.01771262   -0.01022809   -0.00974964
     atom    4 type  2   force =    -0.00000279   -0.00000030    0.04743992
     atom    5 type  1   force =     0.00000293   -0.01342070   -0.00602935
     atom    6 type  1   force =    -0.01161186    0.00671239   -0.00602482
     atom    7 type  1   force =     0.01161838    0.00670923   -0.00602374
     atom    8 type  2   force =     0.00000112    0.00000158    0.00411745
     atom    9 type  1   force =    -0.00000116   -0.00096145   -0.00132383
     atom   10 type  1   force =    -0.00083150    0.00048107   -0.00134247
     atom   11 type  1   force =     0.00083218    0.00048126   -0.00132025
     atom   12 type  2   force =    -0.00000158   -0.00000012   -0.00025306

     Total force =     0.066823     Total SCF correction =     0.004387

     entering subroutine stress ...

     negative rho (up, down):  3.811E-01 0.000E+00
          total   stress  (Ry/bohr**3)                   (kbar)     P=   -5.65
  -0.00004807  -0.00000000   0.00000000         -7.07     -0.00      0.00
  -0.00000000  -0.00004807  -0.00000000         -0.00     -7.07     -0.00
   0.00000000  -0.00000000  -0.00001906          0.00     -0.00     -2.80

 !ASE

     Writing output data file calc.save

     General routines

     Parallel routines

   This run was terminated on:  17:23:58  27Dec2018

   JOB DONE.
Job  /afs/slac/g/suncat/bin/suncat-tsmpirun -x LD_LIBRARY_PATH -wdir /scratch/qe110410_Iu15L pw.x -in pw.inp

TID   HOST_NAME   COMMAND_LINE            STATUS            TERMINATION_TIME
00000 suncat0136 pw.x -in pw.inp   Done                     12/27/2018 17:23:58
00001 suncat0136 pw.x -in pw.inp   Done                     12/27/2018 17:23:58
00002 suncat0136 pw.x -in pw.inp   Done                     12/27/2018 17:23:58
00003 suncat0136 pw.x -in pw.inp   Done                     12/27/2018 17:23:58
00004 suncat0136 pw.x -in pw.inp   Done                     12/27/2018 17:23:58
00005 suncat0136 pw.x -in pw.inp   Done                     12/27/2018 17:23:58
00006 suncat0136 pw.x -in pw.inp   Done                     12/27/2018 17:23:58
00007 suncat0136 pw.x -in pw.inp   Done                     12/27/2018 17:23:58
00008 suncat0135 pw.x -in pw.inp   Done                     12/27/2018 17:23:58
00009 suncat0135 pw.x -in pw.inp   Done                     12/27/2018 17:23:58
00010 suncat0135 pw.x -in pw.inp   Done                     12/27/2018 17:23:58
00011 suncat0135 pw.x -in pw.inp   Done                     12/27/2018 17:23:58
00012 suncat0135 pw.x -in pw.inp   Done                     12/27/2018 17:23:58
00013 suncat0135 pw.x -in pw.inp   Done                     12/27/2018 17:23:58
00014 suncat0135 pw.x -in pw.inp   Done                     12/27/2018 17:23:58
00015 suncat0135 pw.x -in pw.inp   Done                     12/27/2018 17:23:58
00016 suncat0134 pw.x -in pw.inp   Done                     12/27/2018 17:23:58
00017 suncat0134 pw.x -in pw.inp   Done                     12/27/2018 17:23:58
00018 suncat0134 pw.x -in pw.inp   Done                     12/27/2018 17:23:58
00019 suncat0134 pw.x -in pw.inp   Done                     12/27/2018 17:23:58
00020 suncat0134 pw.x -in pw.inp   Done                     12/27/2018 17:23:58
00021 suncat0134 pw.x -in pw.inp   Done                     12/27/2018 17:23:58
00022 suncat0134 pw.x -in pw.inp   Done                     12/27/2018 17:23:58
00023 suncat0134 pw.x -in pw.inp   Done                     12/27/2018 17:23:58
00024 suncat0232 pw.x -in pw.inp   Done                     12/27/2018 17:23:58
00025 suncat0232 pw.x -in pw.inp   Done                     12/27/2018 17:23:58
00026 suncat0232 pw.x -in pw.inp   Done                     12/27/2018 17:23:58
00027 suncat0232 pw.x -in pw.inp   Done                     12/27/2018 17:23:58
00028 suncat0232 pw.x -in pw.inp   Done                     12/27/2018 17:23:58
00029 suncat0232 pw.x -in pw.inp   Done                     12/27/2018 17:23:58
00030 suncat0232 pw.x -in pw.inp   Done                     12/27/2018 17:23:58
00031 suncat0232 pw.x -in pw.inp   Done                     12/27/2018 17:23:58
00032 suncat0220 pw.x -in pw.inp   Done                     12/27/2018 17:23:58
00033 suncat0220 pw.x -in pw.inp   Done                     12/27/2018 17:23:58
00034 suncat0220 pw.x -in pw.inp   Done                     12/27/2018 17:23:58
00035 suncat0220 pw.x -in pw.inp   Done                     12/27/2018 17:23:58
00036 suncat0220 pw.x -in pw.inp   Done                     12/27/2018 17:23:58
00037 suncat0220 pw.x -in pw.inp   Done                     12/27/2018 17:23:58
00038 suncat0220 pw.x -in pw.inp   Done                     12/27/2018 17:23:58
00039 suncat0220 pw.x -in pw.inp   Done                     12/27/2018 17:23:58
00040 suncat0219 pw.x -in pw.inp   Done                     12/27/2018 17:23:58
00041 suncat0219 pw.x -in pw.inp   Done                     12/27/2018 17:23:58
00042 suncat0219 pw.x -in pw.inp   Done                     12/27/2018 17:23:58
00043 suncat0219 pw.x -in pw.inp   Done                     12/27/2018 17:23:58
00044 suncat0219 pw.x -in pw.inp   Done                     12/27/2018 17:23:58
00045 suncat0219 pw.x -in pw.inp   Done                     12/27/2018 17:23:58
00046 suncat0219 pw.x -in pw.inp   Done                     12/27/2018 17:23:58
00047 suncat0219 pw.x -in pw.inp   Done                     12/27/2018 17:23:58
00048 suncat0201 pw.x -in pw.inp   Done                     12/27/2018 17:23:58
00049 suncat0201 pw.x -in pw.inp   Done                     12/27/2018 17:23:58
00050 suncat0201 pw.x -in pw.inp   Done                     12/27/2018 17:23:58
00051 suncat0201 pw.x -in pw.inp   Done                     12/27/2018 17:23:58
00052 suncat0201 pw.x -in pw.inp   Done                     12/27/2018 17:23:58
00053 suncat0201 pw.x -in pw.inp   Done                     12/27/2018 17:23:58
00054 suncat0201 pw.x -in pw.inp   Done                     12/27/2018 17:23:58
00055 suncat0201 pw.x -in pw.inp   Done                     12/27/2018 17:23:58
00056 suncat0200 pw.x -in pw.inp   Done                     12/27/2018 17:23:58
00057 suncat0200 pw.x -in pw.inp   Done                     12/27/2018 17:23:58
00058 suncat0200 pw.x -in pw.inp   Done                     12/27/2018 17:23:58
00059 suncat0200 pw.x -in pw.inp   Done                     12/27/2018 17:23:58
00060 suncat0200 pw.x -in pw.inp   Done                     12/27/2018 17:23:58
00061 suncat0200 pw.x -in pw.inp   Done                     12/27/2018 17:23:58
00062 suncat0200 pw.x -in pw.inp   Done                     12/27/2018 17:23:58
00063 suncat0200 pw.x -in pw.inp   Done                     12/27/2018 17:23:58