     Program PWSCF v.5.1rc2 (svn rev. 11289) starts on 31Dec2018 at 20:33: 4

     Current dimensions of program PWSCF are:
     Max number of different atomic species (ntypx) = 10
     Max number of k-points (npk) =  40000
     Max angular momentum in pseudopotentials (lmaxx) =  3
     Presently stress not available with electric field

     IMPORTANT: XC functional enforced from input :
     Exchange-correlation      = BEEF-VDW ( 1  4 27 13 2)
     Any further DFT definition will be discarded
     Please, verify this is what you really want

     Subspace diagonalization in iterative solution of the eigenvalue problem:
     a serial algorithm will be used

     bravais-lattice index     =            0
     lattice parameter (alat)  =       1.8897  a.u.
     unit-cell volume          =    4363.7655 (a.u.)^3
     number of atoms/cell      =           12
     number of atomic types    =            2
     number of electrons       =       183.00
     number of Kohn-Sham states=          121
     kinetic-energy cutoff     =      36.7493  Ry
     charge density cutoff     =     367.4932  Ry
     convergence threshold     =      1.0E-06
     mixing beta               =       0.1000
     number of iterations used =           10  plain     mixing
     Exchange-correlation      = BEEF-VDW ( 1  4 27 13 2)
     nstep                     =           50

     celldm(1)=   1.889726  celldm(2)=   0.000000  celldm(3)=   0.000000
     celldm(4)=   0.000000  celldm(5)=   0.000000  celldm(6)=   0.000000

     crystal axes: (cart. coord. in units of alat)
               a(1) = (   5.519795   0.000000   0.000000 )
               a(2) = (  -2.759898   4.780283   0.000000 )
               a(3) = (   0.000000   0.000000  24.506894 )

     reciprocal axes: (cart. coord. in units 2 pi/alat)
               b(1) = (  0.181166  0.104596  0.000000 )
               b(2) = (  0.000000  0.209193  0.000000 )
               b(3) = (  0.000000  0.000000  0.040805 )

     PseudoPot. # 1 for Re read from file:
     /afs/slac.stanford.edu/u/if/mamunm/psp/gbrv1.5pbe/Re.UPF
     MD5 check sum: 85f993410f3e006da9d71c142b4ad953
     Pseudo is Ultrasoft + core correction, Zval = 15.0
     Generated by new atomic code, or converted to UPF format
     Using radial grid of  981 points,  8 beta functions with:
                l(1) =   0
                l(2) =   0
                l(3) =   1
                l(4) =   1
                l(5) =   2
                l(6) =   2
                l(7) =   3
                l(8) =   3
     Q(r) pseudized with  8 coefficients,  rinner =    1.150   1.150   1.150
                                                       1.150   1.150   1.150
                                                       1.150

     PseudoPot. # 2 for Os read from file:
     /afs/slac.stanford.edu/u/if/mamunm/psp/gbrv1.5pbe/Os.UPF
     MD5 check sum: a3fb40a04f0c37c25c34bbc47164c9a8
     Pseudo is Ultrasoft + core correction, Zval = 16.0
     Generated by new atomic code, or converted to UPF format
     Using radial grid of  983 points,  8 beta functions with:
                l(1) =   0
                l(2) =   0
                l(3) =   1
                l(4) =   1
                l(5) =   2
                l(6) =   2
                l(7) =   3
                l(8) =   3
     Q(r) pseudized with  8 coefficients,  rinner =    1.150   1.150   1.150
                                                       1.150   1.150   1.150
                                                       1.150

     vdW kernel table read from file vdW_kernel_table
     MD5 check sum: 095c7af220d748ca6e76c0b4c6cfb241

     atomic species   valence    mass     pseudopotential
        Re1           15.00   186.20700     Re( 1.00)
        Os1           16.00   190.23000     Os( 1.00)

     No symmetry found

   Cartesian axes

     site n.     atom                  positions (alat units)
         1           Re1 tau(   1) = (   0.0000000   0.0000000  10.0000000  )
         2           Re1 tau(   2) = (  -1.3799488   2.3901414  10.0000000  )
         3           Re1 tau(   3) = (   1.3799488   2.3901414  10.0000000  )
         4           Os1 tau(   4) = (   2.7598975   0.0000000  10.0000000  )
         5           Re1 tau(   5) = (   2.7598975   1.5934276  12.2534469  )
         6           Re1 tau(   6) = (   1.3799488   3.9835689  12.2534469  )
         7           Re1 tau(   7) = (  -1.3799488   3.9835689  12.2534469  )
         8           Os1 tau(   8) = (   0.0000000   1.5934276  12.2534469  )
         9           Re1 tau(   9) = (  -0.0000000   3.1868552  14.5068938  )
        10           Re1 tau(  10) = (   1.3799488   0.7967138  14.5068938  )
        11           Re1 tau(  11) = (   4.1398463   0.7967138  14.5068938  )
        12           Os1 tau(  12) = (   2.7598975   3.1868552  14.5068938  )

     number of k points=    20  Fermi-Dirac smearing, width (Ry)=  0.0110
                       cart. coord. in units 2pi/alat
        k(    1) = (   0.0000000   0.0000000   0.0000000), wk =   0.0555556
        k(    2) = (   0.0000000   0.0348654   0.0000000), wk =   0.1111111
        k(    3) = (   0.0000000   0.0697309   0.0000000), wk =   0.1111111
        k(    4) = (   0.0000000  -0.1045963   0.0000000), wk =   0.0555556
        k(    5) = (   0.0301944   0.0174327   0.0000000), wk =   0.1111111
        k(    6) = (   0.0301944   0.0522982   0.0000000), wk =   0.1111111
        k(    7) = (   0.0301944   0.0871636   0.0000000), wk =   0.1111111
        k(    8) = (   0.0301944  -0.0871636   0.0000000), wk =   0.1111111
        k(    9) = (   0.0301944  -0.0522982   0.0000000), wk =   0.1111111
        k(   10) = (   0.0301944  -0.0174327   0.0000000), wk =   0.1111111
        k(   11) = (   0.0603887   0.0348654   0.0000000), wk =   0.1111111
        k(   12) = (   0.0603887   0.0697309   0.0000000), wk =   0.1111111
        k(   13) = (   0.0603887   0.1045963   0.0000000), wk =   0.1111111
        k(   14) = (   0.0603887  -0.0697309   0.0000000), wk =   0.1111111
        k(   15) = (   0.0603887  -0.0348654   0.0000000), wk =   0.1111111
        k(   16) = (   0.0603887   0.0000000   0.0000000), wk =   0.1111111
        k(   17) = (  -0.0905831  -0.0522982   0.0000000), wk =   0.0555556
        k(   18) = (  -0.0905831  -0.0174327   0.0000000), wk =   0.1111111
        k(   19) = (  -0.0905831   0.0174327   0.0000000), wk =   0.1111111
        k(   20) = (  -0.0905831  -0.1568945   0.0000000), wk =   0.0555556

     Largest allocated arrays     est. size (Mb)     dimensions
     Largest temporary arrays     est. size (Mb)     dimensions

     Initial potential from superposition of free atoms
     Check: negative starting charge=   -1.525390

     starting charge  176.99949, renormalised to  183.00000

     negative rho (up, down):  1.577E+00 0.000E+00

     *
     * You are using vdW-DF for exchange-correlation in this calculation.
     * Please cite the following three references that made this development
     * possible:
     *
     *   M. Dion, H. Rydberg, E. Schroder, D. C. Langreth, and
     *   B. I. Lundqvist, Phys. Rev. Lett. 92, 246401 (2004).
     *
     *   T. Thonhauser, V. R. Cooper, S. Li, A. Puzder, P. Hyldgaard, and
     *   D. C. Langreth, Phys. Rev. B 76, 125112 (2007).
     *
     *   G. Roman-Perez and J. M. Soler, Phys. Rev. Lett. 103, 096102 (2009).
     *
     *
     * If you are using vdW-DF2, please also cite:
     *
     *   K. Lee, E. D. Murray, L. Kong, B. I. Lundqvist, and
     *   D. C. Langreth, Phys. Rev. B 82, 081101(R) (2010).
     *
     *
     * If you are calculating the stress with vdW-DF, please also cite:
     *
     *   R. Sabatini, E. Kucukbenli, B. Kolb, T. Thonhauser, and
     *   S. de Gironcoli, J. Phys.: Condens. Matter 24, 424209 (2012).
     *

     Carrying out vdW-DF run using the following parameters:

     Nqs =      20    Nr_points =    1024   r_max =   100.000
     q_mesh =
               0.00001000     0.04494208     0.09755937     0.15916263
               0.23128650     0.31572767     0.41458969     0.53033537
               0.66584808     0.82450364     1.01025438     1.22772762
               1.48234092     1.78043706     2.12944203     2.53805004
               3.01644009     3.57652955     4.23227104     5.00000000

     Gradients computed in reciprocal space

     Adding external electric field

     Computed dipole along edir(3) :
        Dipole                0.0000 Ry au,          0.0000 Debye
        Dipole field          0.0000 Ry au

        Potential amp.       -0.0000 Ry
        Total length         45.1535 bohr

     Starting wfc are  156 randomized atomic wfcs

     Self-consistent Calculation

     iteration #  1     ecut=    36.75 Ry     beta=0.10
     Davidson diagonalization with overlap
     ethr =  1.00E-02,  avg # of iterations =  3.8

[...]

     total energy              =   -2329.18180480 Ry
     Harris-Foulkes estimate   =   -2329.45747325 Ry
     estimated scf accuracy    <       1.99695112 Ry

[...]

     iteration #  5     ecut=    36.75 Ry     beta=0.10
     Davidson diagonalization with overlap
     c_bands:  1 eigenvalues not converged
     ethr =  2.33E-05,  avg # of iterations =  6.6

[...]

     End of self-consistent calculation

          k = 0.0000 0.0000 0.0000 ( 16355 PWs)   bands (ev):

   -83.9614 -83.5954 -83.5954 -77.9820 -77.9262 -77.9262 -77.7744 -77.7712
   -77.7218 -77.7218 -77.7210 -77.7210 -43.2733 -43.2623 -43.2623 -42.9056
   -42.8873 -42.8667 -42.8667 -42.8616 -42.8616 -40.1341 -39.8923 -39.8873
   -39.8873 -39.7898 -39.7433 -39.7413 -39.7413 -39.5653 -39.5318 -39.5318
   -39.4868 -39.4778 -39.4778 -39.4755 -39.4755 -39.3173 -39.3173 -39.3155
   -39.2875 -39.2875 -39.1848 -39.1568 -39.0168 -39.0168 -39.0118 -39.0118
    -6.4105  -4.4483  -3.9005  -3.5172  -3.5172  -3.4921  -3.2042  -3.2042
    -3.1643  -2.5387  -2.5387  -2.5362  -2.3357  -2.3357  -2.2777  -0.8618
    -0.8618  -0.7464   0.0798   0.0798   0.1291   0.2815   0.4116   0.7395
     0.7395   1.1108   1.1108   1.1663   1.2161   1.2161   1.3833   1.3833
     1.4104   1.5145   1.5145   1.9811   2.7775   2.8901   2.8901   3.0389
     3.0389   3.1531   3.4000   3.5729   3.5729   4.3120   4.3120   4.3973
     4.3973   4.4169   4.4308   4.7402   4.7402   5.2095   5.2095   5.5333
     5.5333   5.5549   6.0051   6.0051   6.4247   6.4247   6.5058   6.5441
     6.5441   6.7620   6.8608   6.8608   6.9247   7.0357   7.2703   7.4407
     7.7012

[...]

          k =-0.0906-0.0523 0.0000 ( 16424 PWs)   bands (ev):

[...]

     the Fermi energy is     2.7875 ev

!    total energy              =   -2328.68002574 Ry
     Harris-Foulkes estimate   =   -2328.68002486 Ry
     estimated scf accuracy    <       0.00000089 Ry

     The total energy is the sum of the following terms:

     one-electron contribution =  -18794.38665877 Ry
     hartree contribution      =    9379.95788429 Ry
     xc contribution           =    -602.63317367 Ry
     ewald contribution        =    7688.45678687 Ry
     electric field correction =       0.00000000 Ry
     smearing contrib. (-TS)   =      -0.07486445 Ry

     convergence has been achieved in  14 iterations

 BEEF-vdW xc energy contributions
[...]
                l(1) =   0
                l(2) =   0
                l(3) =   1
                l(4) =   1
                l(5) =   2
                l(6) =   2
                l(7) =   3
                l(8) =   3
     Q(r) pseudized with  8 coefficients,  rinner =    1.150   1.150   1.150
                                                       1.150   1.150   1.150
                                                       1.150

     PseudoPot. # 2 for Os read from file:
     /afs/slac.stanford.edu/u/if/mamunm/psp/gbrv1.5pbe/Os.UPF
     MD5 check sum: a3fb40a04f0c37c25c34bbc47164c9a8
     Pseudo is Ultrasoft + core correction, Zval = 16.0
     Generated by new atomic code, or converted to UPF format
     Using radial grid of  983 points,  8 beta functions with:
                l(1) =   0
                l(2) =   0
                l(3) =   1
                l(4) =   1
                l(5) =   2
                l(6) =   2
                l(7) =   3
                l(8) =   3
     Q(r) pseudized with  8 coefficients,  rinner =    1.150   1.150   1.150
                                                       1.150   1.150   1.150
                                                       1.150

     vdW kernel table read from file vdW_kernel_table
     MD5 check sum: 095c7af220d748ca6e76c0b4c6cfb241

     atomic species   valence    mass     pseudopotential
        Re1           15.00   186.20700     Re( 1.00)
        Os1           16.00   190.23000     Os( 1.00)

     No symmetry found

   Cartesian axes

     site n.     atom                  positions (alat units)
         1           Re1 tau(   1) = (   0.0000000   0.0000000  10.0000000  )
         2           Re1 tau(   2) = (  -1.3799488   2.3901414  10.0000000  )
         3           Re1 tau(   3) = (   1.3799488   2.3901414  10.0000000  )
         4           Os1 tau(   4) = (   2.7598975   0.0000000  10.0000000  )
         5           Re1 tau(   5) = (   2.7598975   1.5934276  12.2534469  )
         6           Re1 tau(   6) = (   1.3799488   3.9835689  12.2534469  )
         7           Re1 tau(   7) = (  -1.3799488   3.9835689  12.2534469  )
         8           Os1 tau(   8) = (   0.0000000   1.5934276  12.2534469  )
         9           Re1 tau(   9) = (   0.0000053   3.1892357  14.3937566  )
        10           Re1 tau(  10) = (   1.3820119   0.7955280  14.3937539  )
        11           Re1 tau(  11) = (   4.1377823   0.7955227  14.3937523  )
        12           Os1 tau(  12) = (   2.7599014   3.1868570  14.4163215  )

     number of k points=    20  Fermi-Dirac smearing, width (Ry)=  0.0110
                       cart. coord. in units 2pi/alat
        k(    1) = (   0.0000000   0.0000000   0.0000000), wk =   0.0555556
        k(    2) = (   0.0000000   0.0348654   0.0000000), wk =   0.1111111
        k(    3) = (   0.0000000   0.0697309   0.0000000), wk =   0.1111111
        k(    4) = (   0.0000000  -0.1045963   0.0000000), wk =   0.0555556
        k(    5) = (   0.0301944   0.0174327   0.0000000), wk =   0.1111111
        k(    6) = (   0.0301944   0.0522982   0.0000000), wk =   0.1111111
        k(    7) = (   0.0301944   0.0871636   0.0000000), wk =   0.1111111
        k(    8) = (   0.0301944  -0.0871636   0.0000000), wk =   0.1111111
        k(    9) = (   0.0301944  -0.0522982   0.0000000), wk =   0.1111111
        k(   10) = (   0.0301944  -0.0174327   0.0000000), wk =   0.1111111
        k(   11) = (   0.0603887   0.0348654   0.0000000), wk =   0.1111111
        k(   12) = (   0.0603887   0.0697309   0.0000000), wk =   0.1111111
        k(   13) = (   0.0603887   0.1045963   0.0000000), wk =   0.1111111
        k(   14) = (   0.0603887  -0.0697309   0.0000000), wk =   0.1111111
        k(   15) = (   0.0603887  -0.0348654   0.0000000), wk =   0.1111111
        k(   16) = (   0.0603887   0.0000000   0.0000000), wk =   0.1111111
        k(   17) = (  -0.0905831  -0.0522982   0.0000000), wk =   0.0555556
        k(   18) = (  -0.0905831  -0.0174327   0.0000000), wk =   0.1111111
        k(   19) = (  -0.0905831   0.0174327   0.0000000), wk =   0.1111111
        k(   20) = (  -0.0905831  -0.1568945   0.0000000), wk =   0.0555556

     Largest allocated arrays     est. size (Mb)     dimensions
     Largest temporary arrays     est. size (Mb)     dimensions

     Initial potential from superposition of free atoms
     Check: negative starting charge=   -1.528129

     starting charge  176.99949, renormalised to  183.00000

[...]

     *
     * You are using vdW-DF for exchange-correlation in this calculation.
     * Please cite the following three references that made this development
     * possible:
     *
     *   M. Dion, H. Rydberg, E. Schroder, D. C. Langreth, and
     *   B. I. Lundqvist, Phys. Rev. Lett. 92, 246401 (2004).
     *
     *   T. Thonhauser, V. R. Cooper, S. Li, A. Puzder, P. Hyldgaard, and
     *   D. C. Langreth, Phys. Rev. B 76, 125112 (2007).
     *
     *   G. Roman-Perez and J. M. Soler, Phys. Rev. Lett. 103, 096102 (2009).
     *
     *
     * If you are using vdW-DF2, please also cite:
     *
     *   K. Lee, E. D. Murray, L. Kong, B. I. Lundqvist, and
     *   D. C. Langreth, Phys. Rev. B 82, 081101(R) (2010).
     *
     *
     * If you are calculating the stress with vdW-DF, please also cite:
     *
     *   R. Sabatini, E. Kucukbenli, B. Kolb, T. Thonhauser, and
     *   S. de Gironcoli, J. Phys.: Condens. Matter 24, 424209 (2012).
     *

     Carrying out vdW-DF run using the following parameters:

     Nqs =      20    Nr_points =    1024   r_max =   100.000
     q_mesh =
               0.00001000     0.04494208     0.09755937     0.15916263
               0.23128650     0.31572767     0.41458969     0.53033537
               0.66584808     0.82450364     1.01025438     1.22772762
               1.48234092     1.78043706     2.12944203     2.53805004
               3.01644009     3.57652955     4.23227104     5.00000000

     Gradients computed in reciprocal space

[...]

     Starting wfc are  156 randomized atomic wfcs

     Self-consistent Calculation

[...]

     total energy              =   -2328.69609144 Ry
     Harris-Foulkes estimate   =   -2328.69609099 Ry
     estimated scf accuracy    <       0.00000135 Ry

     iteration # 15     ecut=    36.75 Ry     beta=0.10
     Davidson diagonalization with overlap
     ethr =  7.36E-10,  avg # of iterations =  2.5

[...]

     negative rho (up, down):  1.595E+00 0.000E+00

     Adding external electric field

     Computed dipole along edir(3) :
        Dipole                0.0420 Ry au,          0.1066 Debye
        Dipole field          0.0001 Ry au

        Potential amp.       -0.0109 Ry
        Total length         45.1535 bohr

     End of self-consistent calculation

[...]

          k = 0.0604 0.0000 0.0000 ( 16440 PWs)   bands (ev):

[...]

          k =-0.0906-0.1569 0.0000 ( 16424 PWs)   bands (ev):

   -83.9627 -83.5608 -83.5461 -77.9291 -77.9103 -77.8909 -77.7379 -77.7209
   -77.7036 -77.6713 -77.6545 -77.6375 -43.2889 -43.2758 -43.2602 -42.8773
   -42.8458 -42.8418 -42.8244 -42.8113 -42.7958 -40.0067 -39.8685 -39.8368
   -39.7648 -39.7413 -39.7169 -39.6556 -39.6270 -39.6122 -39.5555 -39.4665
   -39.4399 -39.4018 -39.3781 -39.3636 -39.3480 -39.3416 -39.3320 -39.3107
   -39.2861 -39.2833 -39.2376 -39.2224 -39.1499 -39.1497 -39.0268 -38.9846
    -4.5469  -4.4827  -2.9118  -2.8889  -2.4923  -2.4641  -2.3999  -2.3545
    -2.3349  -2.2301  -1.7364  -1.5904  -1.3635  -1.1714  -1.1277  -1.1252
    -0.8856  -0.7155  -0.6956  -0.6562  -0.2708  -0.0797   0.3398   0.4533
     0.4929   0.5869   0.6168   0.7655   0.7973   0.8253   0.9226   0.9249
     1.1559   1.1748   1.2528   1.2686   1.3793   1.4196   1.4635   1.5715
     2.2615   2.4488   2.6127   2.6173   2.8156   2.9425   2.9719   3.3121
     3.3554   3.5489   3.5788   3.7104   3.8022   3.8152   4.0041   4.2702
     4.2940   4.6643   4.9680   5.0454   5.8537   5.8981   5.9024   6.1479
     6.2563   6.4543   7.7102   8.0189   8.1397   8.2759   8.2931   8.4104
     8.8976

     the Fermi energy is     2.8228 ev

!    total energy              =   -2328.69609254 Ry
     Harris-Foulkes estimate   =   -2328.69609135 Ry
     estimated scf accuracy    <       0.00000024 Ry

     The total energy is the sum of the following terms:

     one-electron contribution =  -19085.25968265 Ry
     hartree contribution      =    9525.56009912 Ry
     xc contribution           =    -602.95629127 Ry
     ewald contribution        =    7834.03359357 Ry
     electric field correction =       0.00000507 Ry
     smearing contrib. (-TS)   =      -0.07381638 Ry

     convergence has been achieved in  15 iterations

 BEEF-vdW xc energy contributions
           1 :   -534.722339144480
           2 :    496.951665539073
           3 :   -429.294226787890
           4 :    344.906253064865
           5 :   -258.304426967691
           6 :    181.574107305842
           7 :   -121.840287121362
           8 :    80.5938396235288
           9 :   -54.8091950868763
          10 :    39.1700358989222
          11 :   -28.4414620368117
          12 :    19.1401801372425
          13 :   -10.0898794227890
          14 :    1.93873285200766
          15 :    3.91717094227056
          16 :   -6.44663989437652
          17 :    5.67655148398933
          18 :   -2.75849731503899
          19 :  -0.522906276919684
          20 :    2.50780261121781
          21 :   -2.31904748311285
          22 :   0.135197370541164
          23 :    3.00570068754371
          24 :   -5.74579370890035
          25 :    7.02520288818346
          26 :   -6.50599910190499
          27 :    4.63671496238089
          28 :   -2.36580929209538
          29 :   0.667483896438512
          30 :  -0.114067229192528
          31 :   -45.5532170915365
          32 :   -34.0182678121398

     Forces acting on atoms (Ry/au):

     negative rho (up, down):  1.595E+00 0.000E+00
     atom    1 type  1   force =     0.00000377   -0.00142020    0.02400391
     atom    2 type  1   force =    -0.00123062    0.00071226    0.02400294
     atom    3 type  1   force =     0.00122895    0.00070752    0.02400432
     atom    4 type  2   force =    -0.00000327    0.00000205    0.01584262
     atom    5 type  1   force =    -0.00000163   -0.00227524   -0.02170042
     atom    6 type  1   force =    -0.00196858    0.00113698   -0.02169776
     atom    7 type  1   force =     0.00196991    0.00113864   -0.02170025
     atom    8 type  2   force =     0.00000179   -0.00000142   -0.02332088
     atom    9 type  1   force =    -0.00000059   -0.00090719    0.00008677
     atom   10 type  1   force =    -0.00078584    0.00045322    0.00008736
     atom   11 type  1   force =     0.00078505    0.00045408    0.00008841
     atom   12 type  2   force =     0.00000105   -0.00000069    0.00030298

     Total force =     0.062930     Total SCF correction =     0.002014

     entering subroutine stress ...

     negative rho (up, down):  1.595E+00 0.000E+00
          total   stress  (Ry/bohr**3)                   (kbar)     P=  -33.78
  -0.00028872   0.00000000  -0.00000000        -42.47      0.00     -0.00
   0.00000000  -0.00028872  -0.00000000          0.00    -42.47     -0.00
  -0.00000000  -0.00000000  -0.00011137         -0.00     -0.00    -16.38

 !ASE

     Writing output data file calc.save

     General routines

     Parallel routines

   This run was terminated on:  21:40:53  31Dec2018

   JOB DONE.
Job  /afs/slac/g/suncat/bin/suncat-tsmpirun -x LD_LIBRARY_PATH -wdir /scratch/qe648854_GKkZI pw.x -in pw.inp

TID   HOST_NAME   COMMAND_LINE            STATUS            TERMINATION_TIME
00000 suncat0121 pw.x -in pw.inp   Done                     12/31/2018 21:40:53
00001 suncat0121 pw.x -in pw.inp   Done                     12/31/2018 21:40:53
00002 suncat0121 pw.x -in pw.inp   Done                     12/31/2018 21:40:53
00003 suncat0121 pw.x -in pw.inp   Done                     12/31/2018 21:40:53
00004 suncat0121 pw.x -in pw.inp   Done                     12/31/2018 21:40:53
00005 suncat0121 pw.x -in pw.inp   Done                     12/31/2018 21:40:53
00006 suncat0121 pw.x -in pw.inp   Done                     12/31/2018 21:40:53
00007 suncat0121 pw.x -in pw.inp   Done                     12/31/2018 21:40:53
00008 suncat0115 pw.x -in pw.inp   Done                     12/31/2018 21:40:53
00009 suncat0115 pw.x -in pw.inp   Done                     12/31/2018 21:40:53
00010 suncat0115 pw.x -in pw.inp   Done                     12/31/2018 21:40:53
00011 suncat0115 pw.x -in pw.inp   Done                     12/31/2018 21:40:53
00012 suncat0115 pw.x -in pw.inp   Done                     12/31/2018 21:40:53
00013 suncat0115 pw.x -in pw.inp   Done                     12/31/2018 21:40:53
00014 suncat0115 pw.x -in pw.inp   Done                     12/31/2018 21:40:53
00015 suncat0115 pw.x -in pw.inp   Done                     12/31/2018 21:40:53
00016 suncat0228 pw.x -in pw.inp   Done                     12/31/2018 21:40:53
00017 suncat0228 pw.x -in pw.inp   Done                     12/31/2018 21:40:53
00018 suncat0228 pw.x -in pw.inp   Done                     12/31/2018 21:40:53
00019 suncat0228 pw.x -in pw.inp   Done                     12/31/2018 21:40:53
00020 suncat0228 pw.x -in pw.inp   Done                     12/31/2018 21:40:53
00021 suncat0228 pw.x -in pw.inp   Done                     12/31/2018 21:40:53
00022 suncat0228 pw.x -in pw.inp   Done                     12/31/2018 21:40:53
00023 suncat0228 pw.x -in pw.inp   Done                     12/31/2018 21:40:53
00024 suncat0227 pw.x -in pw.inp   Done                     12/31/2018 21:40:53
00025 suncat0227 pw.x -in pw.inp   Done                     12/31/2018 21:40:53
00026 suncat0227 pw.x -in pw.inp   Done                     12/31/2018 21:40:53
00027 suncat0227 pw.x -in pw.inp   Done                     12/31/2018 21:40:53
00028 suncat0227 pw.x -in pw.inp   Done                     12/31/2018 21:40:53
00029 suncat0227 pw.x -in pw.inp   Done                     12/31/2018 21:40:53
00030 suncat0227 pw.x -in pw.inp   Done                     12/31/2018 21:40:53
00031 suncat0227 pw.x -in pw.inp   Done                     12/31/2018 21:40:53
00032 suncat0217 pw.x -in pw.inp   Done                     12/31/2018 21:40:53
00033 suncat0217 pw.x -in pw.inp   Done                     12/31/2018 21:40:53
00034 suncat0217 pw.x -in pw.inp   Done                     12/31/2018 21:40:53
00035 suncat0217 pw.x -in pw.inp   Done                     12/31/2018 21:40:53
00036 suncat0217 pw.x -in pw.inp   Done                     12/31/2018 21:40:53
00037 suncat0217 pw.x -in pw.inp   Done                     12/31/2018 21:40:53
00038 suncat0217 pw.x -in pw.inp   Done                     12/31/2018 21:40:53
00039 suncat0217 pw.x -in pw.inp   Done                     12/31/2018 21:40:53
00040 suncat0216 pw.x -in pw.inp   Done                     12/31/2018 21:40:53
00041 suncat0216 pw.x -in pw.inp   Done                     12/31/2018 21:40:53
00042 suncat0216 pw.x -in pw.inp   Done                     12/31/2018 21:40:53
00043 suncat0216 pw.x -in pw.inp   Done                     12/31/2018 21:40:53
00044 suncat0216 pw.x -in pw.inp   Done                     12/31/2018 21:40:53
00045 suncat0216 pw.x -in pw.inp   Done                     12/31/2018 21:40:53
00046 suncat0216 pw.x -in pw.inp   Done                     12/31/2018 21:40:53
00047 suncat0216 pw.x -in pw.inp   Done                     12/31/2018 21:40:53
00048 suncat0215 pw.x -in pw.inp   Done                     12/31/2018 21:40:53
00049 suncat0215 pw.x -in pw.inp   Done                     12/31/2018 21:40:53
00050 suncat0215 pw.x -in pw.inp   Done                     12/31/2018 21:40:53
00051 suncat0215 pw.x -in pw.inp   Done                     12/31/2018 21:40:53
00052 suncat0215 pw.x -in pw.inp   Done                     12/31/2018 21:40:53
00053 suncat0215 pw.x -in pw.inp   Done                     12/31/2018 21:40:53
00054 suncat0215 pw.x -in pw.inp   Done                     12/31/2018 21:40:53
00055 suncat0215 pw.x -in pw.inp   Done                     12/31/2018 21:40:53
00056 suncat0210 pw.x -in pw.inp   Done                     12/31/2018 21:40:53
00057 suncat0210 pw.x -in pw.inp   Done                     12/31/2018 21:40:53
00058 suncat0210 pw.x -in pw.inp   Done                     12/31/2018 21:40:53
00059 suncat0210 pw.x -in pw.inp   Done                     12/31/2018 21:40:53
00060 suncat0210 pw.x -in pw.inp   Done                     12/31/2018 21:40:53
00061 suncat0210 pw.x -in pw.inp   Done                     12/31/2018 21:40:53
00062 suncat0210 pw.x -in pw.inp   Done                     12/31/2018 21:40:53
00063 suncat0210 pw.x -in pw.inp   Done                     12/31/2018 21:40:53