     Program PWSCF v.5.1rc2 (svn rev. 11289) starts on 27Dec2018 at 14:54:37

     Current dimensions of program PWSCF are:
     Max number of different atomic species (ntypx) = 10
     Max number of k-points (npk) =  40000
     Max angular momentum in pseudopotentials (lmaxx) =  3
     Presently stress not available with electric field

     IMPORTANT: XC functional enforced from input :
     Exchange-correlation      = BEEF-VDW ( 1  4 27 13 2)
     Any further DFT definition will be discarded
     Please, verify this is what you really want

     Subspace diagonalization in iterative solution of the eigenvalue problem:
     a serial algorithm will be used

     bravais-lattice index     =            0
     lattice parameter (alat)  =       1.8897  a.u.
     unit-cell volume          =    4267.0475 (a.u.)^3
     number of atoms/cell      =           12
     number of atomic types    =            2
     number of electrons       =       204.00
     number of Kohn-Sham states=          132
     kinetic-energy cutoff     =      36.7493  Ry
     charge density cutoff     =     367.4932  Ry
     convergence threshold     =      1.0E-06
     mixing beta               =       0.1000
     number of iterations used =           10  plain     mixing
     Exchange-correlation      = BEEF-VDW ( 1  4 27 13 2)
     nstep                     =           50

     celldm(1)=   1.889726  celldm(2)=   0.000000  celldm(3)=   0.000000
     celldm(4)=   0.000000  celldm(5)=   0.000000  celldm(6)=   0.000000

     crystal axes: (cart. coord. in units of alat)
               a(1) = (   5.463416   0.000000   0.000000 )
               a(2) = (  -2.731708   4.731457   0.000000 )
               a(3) = (   0.000000   0.000000  24.460860 )

     reciprocal axes: (cart. coord. in units 2 pi/alat)
               b(1) = (  0.183036  0.105676  0.000000 )
               b(2) = (  0.000000  0.211351  0.000000 )
               b(3) = (  0.000000  0.000000  0.040882 )

     PseudoPot. # 1 for Os read from file:
     /afs/slac.stanford.edu/u/if/mamunm/psp/gbrv1.5pbe/Os.UPF
     MD5 check sum: a3fb40a04f0c37c25c34bbc47164c9a8
     Pseudo is Ultrasoft + core correction, Zval = 16.0
     Generated by new atomic code, or converted to UPF format
     Using radial grid of  983 points,  8 beta functions with:
                l(1) =   0
                l(2) =   0
                l(3) =   1
                l(4) =   1
                l(5) =   2
                l(6) =   2
                l(7) =   3
                l(8) =   3
     Q(r) pseudized with  8 coefficients,  rinner =    1.150   1.150   1.150
                                                       1.150   1.150   1.150
                                                       1.150

     PseudoPot. # 2 for Zn read from file:
     /afs/slac.stanford.edu/u/if/mamunm/psp/gbrv1.5pbe/Zn.UPF
     MD5 check sum: df62231357ef9e81f77b2b3087fa5675
     Pseudo is Ultrasoft, Zval = 20.0
     Generated by new atomic code, or converted to UPF format
     Using radial grid of  943 points,  6 beta functions with:
                l(1) =   0
                l(2) =   0
                l(3) =   1
                l(4) =   1
                l(5) =   2
                l(6) =   2
     Q(r) pseudized with  8 coefficients,  rinner =    1.100   1.100   1.100
                                                       1.100   1.100

     vdW kernel table read from file vdW_kernel_table
     MD5 check sum: 095c7af220d748ca6e76c0b4c6cfb241

     atomic species   valence    mass     pseudopotential
        Os1           16.00   190.23000     Os( 1.00)
        Zn1           20.00    65.38000     Zn( 1.00)

     No symmetry found

   Cartesian axes

     site n.     atom                  positions (alat units)
         1           Os1 tau(   1) = (   0.0000000   0.0000000  10.0000000  )
         2           Os1 tau(   2) = (  -1.3658540   2.3657284  10.0000000  )
         3           Os1 tau(   3) = (   1.3658540   2.3657284  10.0000000  )
         4           Zn1 tau(   4) = (   2.7317079   0.0000000  10.0000000  )
         5           Os1 tau(   5) = (   2.7317079   1.5771523  12.2304302  )
         6           Os1 tau(   6) = (   1.3658540   3.9428807  12.2304302  )
         7           Os1 tau(   7) = (  -1.3658540   3.9428807  12.2304302  )
         8           Zn1 tau(   8) = (   0.0000000   1.5771523  12.2304302  )
         9           Os1 tau(   9) = (  -0.0000000   3.1543046  14.4608603  )
        10           Os1 tau(  10) = (   1.3658540   0.7885761  14.4608603  )
        11           Os1 tau(  11) = (   4.0975619   0.7885761  14.4608603  )
        12           Zn1 tau(  12) = (   2.7317079   3.1543046  14.4608603  )

     number of k points=    20  Fermi-Dirac smearing, width (Ry)=  0.0110
                       cart. coord. in units 2pi/alat
        k(    1) = (   0.0000000   0.0000000   0.0000000), wk =   0.0555556
        k(    2) = (   0.0000000   0.0352252   0.0000000), wk =   0.1111111
        k(    3) = (   0.0000000   0.0704505   0.0000000), wk =   0.1111111
        k(    4) = (   0.0000000  -0.1056757   0.0000000), wk =   0.0555556
        k(    5) = (   0.0305059   0.0176126   0.0000000), wk =   0.1111111
        k(    6) = (   0.0305059   0.0528378   0.0000000), wk =   0.1111111
        k(    7) = (   0.0305059   0.0880631   0.0000000), wk =   0.1111111
        k(    8) = (   0.0305059  -0.0880631   0.0000000), wk =   0.1111111
        k(    9) = (   0.0305059  -0.0528378   0.0000000), wk =   0.1111111
        k(   10) = (   0.0305059  -0.0176126   0.0000000), wk =   0.1111111
        k(   11) = (   0.0610119   0.0352252   0.0000000), wk =   0.1111111
        k(   12) = (   0.0610119   0.0704505   0.0000000), wk =   0.1111111
        k(   13) = (   0.0610119   0.1056757   0.0000000), wk =   0.1111111
        k(   14) = (   0.0610119  -0.0704505   0.0000000), wk =   0.1111111
        k(   15) = (   0.0610119  -0.0352252   0.0000000), wk =   0.1111111
        k(   16) = (   0.0610119   0.0000000   0.0000000), wk =   0.1111111
        k(   17) = (  -0.0915178  -0.0528378   0.0000000), wk =   0.0555556
        k(   18) = (  -0.0915178  -0.0176126   0.0000000), wk =   0.1111111
        k(   19) = (  -0.0915178   0.0176126   0.0000000), wk =   0.1111111
        k(   20) = (  -0.0915178  -0.1585135   0.0000000), wk =   0.0555556

     Largest allocated arrays     est. size (Mb)     dimensions
     Largest temporary arrays     est. size (Mb)     dimensions

     Initial potential from superposition of free atoms
     Check: negative starting charge=   -1.120937

     starting charge  199.49925, renormalised to  204.00000

     negative rho (up, down):  1.146E+00 0.000E+00

     *
     * You are using vdW-DF for exchange-correlation in this calculation.
     * Please cite the following three references that made this development
     * possible:
     *
     *   M. Dion, H. Rydberg, E. Schroder, D. C. Langreth, and
     *   B. I. Lundqvist, Phys. Rev. Lett. 92, 246401 (2004).
     *
     *   T. Thonhauser, V. R. Cooper, S. Li, A. Puzder, P. Hyldgaard, and
     *   D. C. Langreth, Phys. Rev. B 76, 125112 (2007).
     *
     *   G. Roman-Perez and J. M. Soler, Phys. Rev. Lett. 103, 096102 (2009).
     *
     *
     * If you are using vdW-DF2, please also cite:
     *
     *   K. Lee, E. D. Murray, L. Kong, B. I. Lundqvist, and
     *   D. C. Langreth, Phys. Rev. B 82, 081101(R) (2010).
     *
     *
     * If you are calculating the stress with vdW-DF, please also cite:
     *
     *   R. Sabatini, E. Kucukbenli, B. Kolb, T. Thonhauser, and
     *   S. de Gironcoli, J. Phys.: Condens. Matter 24, 424209 (2012).
     *

     Carrying out vdW-DF run using the following parameters:

     Nqs =      20    Nr_points =    1024   r_max =   100.000
     q_mesh =
               0.00001000     0.04494208     0.09755937     0.15916263
               0.23128650     0.31572767     0.41458969     0.53033537
               0.66584808     0.82450364     1.01025438     1.22772762
               1.48234092     1.78043706     2.12944203     2.53805004
               3.01644009     3.57652955     4.23227104     5.00000000

     Gradients computed in reciprocal space

     Adding external electric field

     Computed dipole along edir(3) :
        Dipole                0.0000 Ry au,          0.0000 Debye
        Dipole field          0.0000 Ry au

        Potential amp.       -0.0000 Ry
        Total length         45.0687 bohr

     Starting wfc are  156 randomized atomic wfcs

     Self-consistent Calculation

     iteration #  1     ecut=    36.75 Ry     beta=0.10
     Davidson diagonalization with overlap
     ethr =  1.00E-02,  avg # of iterations =  7.7

[...]

     total energy              =   -3162.68982262 Ry
     Harris-Foulkes estimate   =   -3191.12914719 Ry
     estimated scf accuracy    <     154.77112925 Ry

[...]

     End of self-consistent calculation

          k = 0.0000 0.0000 0.0000 ( 15989 PWs)   bands (ev):

  -123.9663-123.8042-123.8041 -84.4036 -84.3598 -84.3598 -84.1717 -84.1700
   -84.1294 -84.1294 -84.1290 -84.1289 -78.1495 -78.1488 -78.1488 -77.9850
   -77.9850 -77.9849 -77.9849 -77.9688 -77.9687 -44.0937 -43.8873 -43.8695
   -43.8688 -43.8688 -43.7672 -43.7671 -43.7577 -43.5690 -43.5690 -43.5091
   -43.4725 -43.4725 -43.4108 -43.3672 -43.3672 -43.3395 -43.3394 -43.2873
   -43.2650 -43.2650 -43.2243 -43.2034 -43.1910 -43.1910 -43.1842 -43.1842
    -7.2250  -5.5390  -5.4329  -5.4073  -5.4073  -5.3072  -5.3072  -5.1135
    -5.0956  -5.0956  -5.0541  -5.0541  -4.7945  -4.7945  -4.7777  -4.7777
    -4.6080  -4.5411  -4.2487  -3.3579  -3.3307  -2.5587  -2.5587  -2.3827
    -2.0944  -2.0944  -1.8431  -1.7311  -1.7311  -1.7055  -1.7055  -0.6227
    -0.6227  -0.4526  -0.4526  -0.3837   0.0886   0.2698   0.3802   0.3802
     0.8371   1.1654   1.1654   1.5268   1.8673   1.8673   2.1445   2.1723
     2.2891   2.2891   2.4436   2.4436   2.6984   2.6984   2.7657   2.7657
     3.0124   3.0124   3.2014   3.2014   3.3126   3.8847   3.8847   4.0901
     4.3688   4.5424   4.8833   5.1732   5.2606   5.2606   5.2868   5.9380
     5.9380   6.5793   6.7792   7.2533   7.3732   7.3867   8.1737   8.7760
     9.1842   9.2631   9.2635   9.2859

[...]

          k =-0.0915-0.0528 0.0000 ( 16072 PWs)   bands (ev):

[...]

     the Fermi energy is     2.3047 ev

!    total energy              =   -3186.01540497 Ry
     Harris-Foulkes estimate   =   -3186.01540054 Ry
     estimated scf accuracy    <       0.00000061 Ry

     The total energy is the sum of the following terms:

     one-electron contribution =  -25008.33853804 Ry
     hartree contribution      =   12487.71127829 Ry
     xc contribution           =    -478.35807971 Ry
     ewald contribution        =    9813.05175659 Ry
     electric field correction =       0.00000000 Ry
     smearing contrib. (-TS)   =      -0.08182211 Ry

     convergence has been achieved in  17 iterations

 BEEF-vdW xc energy contributions
           1 :   -420.779379199611
           2 :    387.531612065074
           3 :   -329.714268775087
           4 :    261.190613059681
           5 :   -195.989695165518
           6 :    143.966759523661
           7 :   -108.734015112154
[...]
     Using radial grid of  983 points,  8 beta functions with:
                l(1) =   0
                l(2) =   0
                l(3) =   1
                l(4) =   1
                l(5) =   2
                l(6) =   2
                l(7) =   3
                l(8) =   3
     Q(r) pseudized with  8 coefficients,  rinner =    1.150   1.150   1.150
                                                       1.150   1.150   1.150
                                                       1.150

     PseudoPot. # 2 for Zn read from file:
     /afs/slac.stanford.edu/u/if/mamunm/psp/gbrv1.5pbe/Zn.UPF
     MD5 check sum: df62231357ef9e81f77b2b3087fa5675
     Pseudo is Ultrasoft, Zval = 20.0
     Generated by new atomic code, or converted to UPF format
     Using radial grid of  943 points,  6 beta functions with:
                l(1) =   0
                l(2) =   0
                l(3) =   1
                l(4) =   1
                l(5) =   2
                l(6) =   2
     Q(r) pseudized with  8 coefficients,  rinner =    1.100   1.100   1.100
                                                       1.100   1.100

     vdW kernel table read from file vdW_kernel_table
     MD5 check sum: 095c7af220d748ca6e76c0b4c6cfb241

     atomic species   valence    mass     pseudopotential
        Os1           16.00   190.23000     Os( 1.00)
        Zn1           20.00    65.38000     Zn( 1.00)

     No symmetry found

   Cartesian axes

     site n.     atom                  positions (alat units)
         1           Os1 tau(   1) = (   0.0000000   0.0000000  10.0000000  )
         2           Os1 tau(   2) = (  -1.3658540   2.3657284  10.0000000  )
         3           Os1 tau(   3) = (   1.3658540   2.3657284  10.0000000  )
         4           Zn1 tau(   4) = (   2.7317079   0.0000000  10.0000000  )
         5           Os1 tau(   5) = (   2.7317079   1.5771523  12.2304302  )
         6           Os1 tau(   6) = (   1.3658540   3.9428807  12.2304302  )
         7           Os1 tau(   7) = (  -1.3658540   3.9428807  12.2304302  )
         8           Zn1 tau(   8) = (   0.0000000   1.5771523  12.2304302  )
         9           Os1 tau(   9) = (  -0.0000119   3.1876166  14.3888610  )
        10           Os1 tau(  10) = (   1.3946886   0.7718900  14.3888668  )
        11           Os1 tau(  11) = (   4.0687300   0.7719003  14.3888563  )
        12           Zn1 tau(  12) = (   2.7316944   3.1542616  14.6055546  )

     number of k points=    20  Fermi-Dirac smearing, width (Ry)=  0.0110
                       cart. coord. in units 2pi/alat
        k(    1) = (   0.0000000   0.0000000   0.0000000), wk =   0.0555556
        k(    2) = (   0.0000000   0.0352252   0.0000000), wk =   0.1111111
        k(    3) = (   0.0000000   0.0704505   0.0000000), wk =   0.1111111
        k(    4) = (   0.0000000  -0.1056757   0.0000000), wk =   0.0555556
        k(    5) = (   0.0305059   0.0176126   0.0000000), wk =   0.1111111
        k(    6) = (   0.0305059   0.0528378   0.0000000), wk =   0.1111111
        k(    7) = (   0.0305059   0.0880631   0.0000000), wk =   0.1111111
        k(    8) = (   0.0305059  -0.0880631   0.0000000), wk =   0.1111111
        k(    9) = (   0.0305059  -0.0528378   0.0000000), wk =   0.1111111
        k(   10) = (   0.0305059  -0.0176126   0.0000000), wk =   0.1111111
        k(   11) = (   0.0610119   0.0352252   0.0000000), wk =   0.1111111
        k(   12) = (   0.0610119   0.0704505   0.0000000), wk =   0.1111111
        k(   13) = (   0.0610119   0.1056757   0.0000000), wk =   0.1111111
        k(   14) = (   0.0610119  -0.0704505   0.0000000), wk =   0.1111111
        k(   15) = (   0.0610119  -0.0352252   0.0000000), wk =   0.1111111
        k(   16) = (   0.0610119   0.0000000   0.0000000), wk =   0.1111111
        k(   17) = (  -0.0915178  -0.0528378   0.0000000), wk =   0.0555556
        k(   18) = (  -0.0915178  -0.0176126   0.0000000), wk =   0.1111111
        k(   19) = (  -0.0915178   0.0176126   0.0000000), wk =   0.1111111
        k(   20) = (  -0.0915178  -0.1585135   0.0000000), wk =   0.0555556

     Largest allocated arrays     est. size (Mb)     dimensions
     Largest temporary arrays     est. size (Mb)     dimensions

     Initial potential from superposition of free atoms
     Check: negative starting charge=   -1.121828

     starting charge  199.49925, renormalised to  204.00000

[...]

     *
     * You are using vdW-DF for exchange-correlation in this calculation.
     * Please cite the following three references that made this development
     * possible:
     *
     *   M. Dion, H. Rydberg, E. Schroder, D. C. Langreth, and
     *   B. I. Lundqvist, Phys. Rev. Lett. 92, 246401 (2004).
     *
     *   T. Thonhauser, V. R. Cooper, S. Li, A. Puzder, P. Hyldgaard, and
     *   D. C. Langreth, Phys. Rev. B 76, 125112 (2007).
     *
     *   G. Roman-Perez and J. M. Soler, Phys. Rev. Lett. 103, 096102 (2009).
     *
     *
     * If you are using vdW-DF2, please also cite:
     *
     *   K. Lee, E. D. Murray, L. Kong, B. I. Lundqvist, and
     *   D. C. Langreth, Phys. Rev. B 82, 081101(R) (2010).
     *
     *
     * If you are calculating the stress with vdW-DF, please also cite:
     *
     *   R. Sabatini, E. Kucukbenli, B. Kolb, T. Thonhauser, and
     *   S. de Gironcoli, J. Phys.: Condens. Matter 24, 424209 (2012).
     *

     Carrying out vdW-DF run using the following parameters:

     Nqs =      20    Nr_points =    1024   r_max =   100.000
     q_mesh =
               0.00001000     0.04494208     0.09755937     0.15916263
               0.23128650     0.31572767     0.41458969     0.53033537
               0.66584808     0.82450364     1.01025438     1.22772762
               1.48234092     1.78043706     2.12944203     2.53805004
               3.01644009     3.57652955     4.23227104     5.00000000

     Gradients computed in reciprocal space

[...]

     Starting wfc are  156 randomized atomic wfcs

     Self-consistent Calculation

[...]

     total energy              =   -3186.02499059 Ry
     Harris-Foulkes estimate   =   -3186.02499016 Ry
     estimated scf accuracy    <       0.00000199 Ry

     iteration # 18     ecut=    36.75 Ry     beta=0.10
     Davidson diagonalization with overlap
     ethr =  9.77E-10,  avg # of iterations =  2.0

[...]

     negative rho (up, down):  1.113E+00 0.000E+00

     Adding external electric field

     Computed dipole along edir(3) :
        Dipole                0.0380 Ry au,          0.0967 Debye
        Dipole field          0.0001 Ry au

        Potential amp.       -0.0101 Ry
        Total length         45.0687 bohr

     End of self-consistent calculation

[...]

          k = 0.0610 0.0000 0.0000 ( 16074 PWs)   bands (ev):

[...]

          k =-0.0915-0.1585 0.0000 ( 16072 PWs)   bands (ev):

  -123.9673-123.7523-123.7466 -84.3762 -84.3615 -84.3466 -84.1615 -84.1441
   -84.1314 -84.0936 -84.0796 -84.0657 -78.1510 -78.1491 -78.1491 -77.9334
   -77.9334 -77.9255 -77.9255 -77.9186 -77.9170 -43.9837 -43.8939 -43.8037
   -43.7920 -43.7003 -43.6927 -43.6828 -43.6428 -43.6215 -43.5949 -43.4814
   -43.4324 -43.4060 -43.4031 -43.3874 -43.3769 -43.3526 -43.3387 -43.3360
   -43.2988 -43.2950 -43.2666 -43.2492 -43.2305 -43.2139 -43.1866 -43.1371
    -5.5566  -5.4133  -5.2054  -5.1778  -5.1328  -5.0748  -4.9518  -4.9426
    -4.9050  -4.8642  -4.7578  -4.7438  -4.7389  -4.7024  -4.6707  -4.6137
    -4.5564  -3.7083  -3.4450  -3.3366  -3.2501  -2.7587  -2.6650  -2.0493
    -2.0076  -1.9319  -1.6071  -1.5524  -1.4434  -1.4406  -1.3037  -1.0520
    -0.8133  -0.7099  -0.4783  -0.4414  -0.1990  -0.1436  -0.1330  -0.0577
     0.0555   0.1900   0.3196   0.5467   0.5588   0.6669   0.7026   0.8565
     1.5454   1.5822   1.7481   1.7767   1.8854   2.0079   2.1101   2.2127
     2.4328   2.4687   2.5118   2.6295   3.1559   3.2756   3.5325   3.8039
     3.9759   4.1940   4.7954   4.9226   6.1647   6.4556   6.5713   6.7373
     6.9853   7.6866   8.0734   8.0914   8.6137   8.7121   8.8284   8.8400
     9.1251   9.5525   9.8670   9.8938

     the Fermi energy is     2.3498 ev

!    total energy              =   -3186.02499472 Ry
     Harris-Foulkes estimate   =   -3186.02499110 Ry
     estimated scf accuracy    <       0.00000053 Ry

     The total energy is the sum of the following terms:

     one-electron contribution =  -25032.93824126 Ry
     hartree contribution      =   12500.15725753 Ry
     xc contribution           =    -478.45011110 Ry
     ewald contribution        =    9825.28852612 Ry
     electric field correction =       0.00000426 Ry
     smearing contrib. (-TS)   =      -0.08243028 Ry

     convergence has been achieved in  18 iterations

 BEEF-vdW xc energy contributions
           1 :   -420.873109404162
           2 :    387.656030734018
           3 :   -329.883592488787
           4 :    261.391900400237
           5 :   -196.182664191433
           6 :    144.096866901830
           7 :   -108.756616095831
           8 :    88.1470621551340
           9 :   -77.0652754203602
          10 :    69.9976689226381
          11 :   -63.1418702730482
          12 :    55.0078417196070
          13 :   -45.8745000166120
          14 :    36.8069913848926
          15 :   -28.8677251924623
          16 :    22.7494958825829
          17 :   -18.7121300185578
          18 :    16.6036925998814
          19 :   -15.8840129932194
          20 :    15.7144418759267
          21 :   -15.2021261946303
          22 :    13.7551536617148
          23 :   -11.3657772467687
          24 :    8.61416757538541
          25 :   -6.34077941452199
          26 :    5.15446210904230
          27 :   -5.07620853764661
          28 :    5.54396953682982
          29 :   -5.77551507811199
          30 :    5.25098923669589
          31 :   -37.8081493944842
          32 :   -28.1030165538609

     Forces acting on atoms (Ry/au):

     negative rho (up, down):  1.113E+00 0.000E+00
     atom    1 type  1   force =     0.00000133   -0.01870678    0.01640112
     atom    2 type  1   force =    -0.01619845    0.00935412    0.01639983
     atom    3 type  1   force =     0.01620143    0.00935352    0.01640818
     atom    4 type  2   force =     0.00000180    0.00000351   -0.02387628
     atom    5 type  1   force =     0.00000014    0.01162961   -0.00564260
     atom    6 type  1   force =     0.01007338   -0.00581488   -0.00564293
     atom    7 type  1   force =    -0.01006975   -0.00581492   -0.00563924
     atom    8 type  2   force =     0.00000013    0.00000012   -0.00959397
     atom    9 type  1   force =    -0.00000298    0.00053416    0.00039379
     atom   10 type  1   force =     0.00045950   -0.00027068    0.00039254
     atom   11 type  1   force =    -0.00046042   -0.00026532    0.00039453
     atom   12 type  2   force =    -0.00000612   -0.00000246    0.00000501

     Total force =     0.054970     Total SCF correction =     0.003250

     entering subroutine stress ...

     negative rho (up, down):  1.113E+00 0.000E+00
          total   stress  (Ry/bohr**3)                   (kbar)     P=  -33.93
  -0.00032137  -0.00000000   0.00000000        -47.27     -0.00      0.00
  -0.00000000  -0.00032136   0.00000000         -0.00    -47.27      0.00
   0.00000000   0.00000000  -0.00004924          0.00      0.00     -7.24

 !ASE

     Writing output data file calc.save

     General routines

     Parallel routines

   This run was terminated on:  16: 8:31  27Dec2018

   JOB DONE.
Job  /afs/slac/g/suncat/bin/suncat-tsmpirun -x LD_LIBRARY_PATH -wdir /scratch/qe110366_JALbz pw.x -in pw.inp

TID   HOST_NAME   COMMAND_LINE            STATUS            TERMINATION_TIME
00000 suncat0075 pw.x -in pw.inp   Done                     12/27/2018 16:08:31
00001 suncat0075 pw.x -in pw.inp   Done                     12/27/2018 16:08:31
00002 suncat0075 pw.x -in pw.inp   Done                     12/27/2018 16:08:31
00003 suncat0075 pw.x -in pw.inp   Done                     12/27/2018 16:08:31
00004 suncat0075 pw.x -in pw.inp   Done                     12/27/2018 16:08:31
00005 suncat0075 pw.x -in pw.inp   Done                     12/27/2018 16:08:31
00006 suncat0075 pw.x -in pw.inp   Done                     12/27/2018 16:08:31
00007 suncat0075 pw.x -in pw.inp   Done                     12/27/2018 16:08:31
00008 suncat0074 pw.x -in pw.inp   Done                     12/27/2018 16:08:31
00009 suncat0074 pw.x -in pw.inp   Done                     12/27/2018 16:08:31
00010 suncat0074 pw.x -in pw.inp   Done                     12/27/2018 16:08:31
00011 suncat0074 pw.x -in pw.inp   Done                     12/27/2018 16:08:31
00012 suncat0074 pw.x -in pw.inp   Done                     12/27/2018 16:08:31
00013 suncat0074 pw.x -in pw.inp   Done                     12/27/2018 16:08:31
00014 suncat0074 pw.x -in pw.inp   Done                     12/27/2018 16:08:31
00015 suncat0074 pw.x -in pw.inp   Done                     12/27/2018 16:08:31
00016 suncat0065 pw.x -in pw.inp   Done                     12/27/2018 16:08:31
00017 suncat0065 pw.x -in pw.inp   Done                     12/27/2018 16:08:31
00018 suncat0065 pw.x -in pw.inp   Done                     12/27/2018 16:08:31
00019 suncat0065 pw.x -in pw.inp   Done                     12/27/2018 16:08:31
00020 suncat0065 pw.x -in pw.inp   Done                     12/27/2018 16:08:31
00021 suncat0065 pw.x -in pw.inp   Done                     12/27/2018 16:08:31
00022 suncat0065 pw.x -in pw.inp   Done                     12/27/2018 16:08:31
00023 suncat0065 pw.x -in pw.inp   Done                     12/27/2018 16:08:31
00024 suncat0195 pw.x -in pw.inp   Done                     12/27/2018 16:08:31
00025 suncat0195 pw.x -in pw.inp   Done                     12/27/2018 16:08:31
00026 suncat0195 pw.x -in pw.inp   Done                     12/27/2018 16:08:31
00027 suncat0195 pw.x -in pw.inp   Done                     12/27/2018 16:08:31
00028 suncat0195 pw.x -in pw.inp   Done                     12/27/2018 16:08:31
00029 suncat0195 pw.x -in pw.inp   Done                     12/27/2018 16:08:31
00030 suncat0195 pw.x -in pw.inp   Done                     12/27/2018 16:08:31
00031 suncat0195 pw.x -in pw.inp   Done                     12/27/2018 16:08:31
00032 suncat0003 pw.x -in pw.inp   Done                     12/27/2018 16:08:31
00033 suncat0003 pw.x -in pw.inp   Done                     12/27/2018 16:08:31
00034 suncat0003 pw.x -in pw.inp   Done                     12/27/2018 16:08:31
00035 suncat0003 pw.x -in pw.inp   Done                     12/27/2018 16:08:31
00036 suncat0003 pw.x -in pw.inp   Done                     12/27/2018 16:08:31
00037 suncat0003 pw.x -in pw.inp   Done                     12/27/2018 16:08:31
00038 suncat0003 pw.x -in pw.inp   Done                     12/27/2018 16:08:31
00039 suncat0003 pw.x -in pw.inp   Done                     12/27/2018 16:08:31
00040 suncat0002 pw.x -in pw.inp   Done                     12/27/2018 16:08:31
00041 suncat0002 pw.x -in pw.inp   Done                     12/27/2018 16:08:31
00042 suncat0002 pw.x -in pw.inp   Done                     12/27/2018 16:08:31
00043 suncat0002 pw.x -in pw.inp   Done                     12/27/2018 16:08:31
00044 suncat0002 pw.x -in pw.inp   Done                     12/27/2018 16:08:31
00045 suncat0002 pw.x -in pw.inp   Done                     12/27/2018 16:08:31
00046 suncat0002 pw.x -in pw.inp   Done                     12/27/2018 16:08:31
00047 suncat0002 pw.x -in pw.inp   Done                     12/27/2018 16:08:31
00048 suncat0283 pw.x -in pw.inp   Done                     12/27/2018 16:08:31
00049 suncat0283 pw.x -in pw.inp   Done                     12/27/2018 16:08:31
00050 suncat0283 pw.x -in pw.inp   Done                     12/27/2018 16:08:31
00051 suncat0283 pw.x -in pw.inp   Done                     12/27/2018 16:08:31
00052 suncat0283 pw.x -in pw.inp   Done                     12/27/2018 16:08:31
00053 suncat0283 pw.x -in pw.inp   Done                     12/27/2018 16:08:31
00054 suncat0283 pw.x -in pw.inp   Done                     12/27/2018 16:08:31
00055 suncat0283 pw.x -in pw.inp   Done                     12/27/2018 16:08:31
00056 suncat0282 pw.x -in pw.inp   Done                     12/27/2018 16:08:31
00057 suncat0282 pw.x -in pw.inp   Done                     12/27/2018 16:08:31
00058 suncat0282 pw.x -in pw.inp   Done                     12/27/2018 16:08:31
00059 suncat0282 pw.x -in pw.inp   Done                     12/27/2018 16:08:31
00060 suncat0282 pw.x -in pw.inp   Done                     12/27/2018 16:08:31
00061 suncat0282 pw.x -in pw.inp   Done                     12/27/2018 16:08:31
00062 suncat0282 pw.x -in pw.inp   Done                     12/27/2018 16:08:31
00063 suncat0282 pw.x -in pw.inp   Done                     12/27/2018 16:08:31