     Program PWSCF v.5.1rc2 (svn rev. 11289) starts on  1Jan2019 at 23:36:52

     Current dimensions of program PWSCF are:
     Max number of different atomic species (ntypx) = 10
     Max number of k-points (npk) =  40000
     Max angular momentum in pseudopotentials (lmaxx) =  3
     Presently stress not available with electric field

     IMPORTANT: XC functional enforced from input :
     Exchange-correlation      = BEEF-VDW ( 1  4 27 13 2)
     Any further DFT definition will be discarded
     Please, verify this is what you really want

     Subspace diagonalization in iterative solution of the eigenvalue problem:
     a serial algorithm will be used

     bravais-lattice index     =            0
     lattice parameter (alat)  =       1.8897  a.u.
     unit-cell volume          =    5186.1563 (a.u.)^3
     number of atoms/cell      =           12
     number of atomic types    =            2
     number of electrons       =       141.00
     number of Kohn-Sham states=          100
     kinetic-energy cutoff     =      36.7493  Ry
     charge density cutoff     =     367.4932  Ry
     convergence threshold     =      1.0E-06
     mixing beta               =       0.1000
     number of iterations used =           10  plain     mixing
     Exchange-correlation      = BEEF-VDW ( 1  4 27 13 2)
     nstep                     =           50

     celldm(1)=   1.889726  celldm(2)=   0.000000  celldm(3)=   0.000000
     celldm(4)=   0.000000  celldm(5)=   0.000000  celldm(6)=   0.000000

     crystal axes: (cart. coord. in units of alat)
               a(1) = (   5.972602   0.000000   0.000000 )
               a(2) = (  -2.986301   5.172425   0.000000 )
               a(3) = (   0.000000   0.000000  24.876609 )

     reciprocal axes: (cart. coord. in units 2 pi/alat)
               b(1) = (  0.167431  0.096666  0.000000 )
               b(2) = (  0.000000  0.193333  0.000000 )
               b(3) = (  0.000000  0.000000  0.040198 )

     PseudoPot. # 1 for Ti read from file:
     /afs/slac.stanford.edu/u/if/mamunm/psp/gbrv1.5pbe/Ti.UPF
     MD5 check sum: 88a00a6731bd790ddea75d31a80cb452
     Pseudo is Ultrasoft + core correction, Zval = 12.0
     Generated by new atomic code, or converted to UPF format
     Using radial grid of  851 points,  6 beta functions with:
                l(1) =   0
                l(2) =   0
                l(3) =   1
                l(4) =   1
                l(5) =   2
                l(6) =   2
     Q(r) pseudized with  6 coefficients,  rinner =    1.000   1.000   1.000
                                                       1.000   1.000

     PseudoPot. # 2 for Sc read from file:
     /afs/slac.stanford.edu/u/if/mamunm/psp/gbrv1.5pbe/Sc.UPF
     MD5 check sum: db30a2753ba66ef00f23801d899b7e7f
     Pseudo is Ultrasoft + core correction, Zval = 11.0
     Generated by new atomic code, or converted to UPF format
     Using radial grid of  849 points,  6 beta functions with:
                l(1) =   0
                l(2) =   0
                l(3) =   1
                l(4) =   1
                l(5) =   2
                l(6) =   2
     Q(r) pseudized with  6 coefficients,  rinner =    1.200   1.200   1.200
                                                       1.200   1.200

     vdW kernel table read from file vdW_kernel_table
     MD5 check sum: 095c7af220d748ca6e76c0b4c6cfb241

     atomic species   valence    mass     pseudopotential
        Ti1           12.00    47.86700     Ti( 1.00)
        Sc1           11.00    44.95591     Sc( 1.00)

     No symmetry found

   Cartesian axes

     site n.     atom                  positions (alat units)
         1           Ti1 tau(   1) = (   0.0000000   0.0000000  10.0000000  )
         2           Ti1 tau(   2) = (  -1.4931506   2.5862126  10.0000000  )
         3           Ti1 tau(   3) = (   1.4931506   2.5862126  10.0000000  )
         4           Sc1 tau(   4) = (   2.9863011   0.0000000  10.0000000  )
         5           Ti1 tau(   5) = (   2.9863011   1.7241417  12.4383046  )
         6           Ti1 tau(   6) = (   1.4931506   4.3103544  12.4383046  )
         7           Ti1 tau(   7) = (  -1.4931506   4.3103544  12.4383046  )
         8           Sc1 tau(   8) = (   0.0000000   1.7241417  12.4383046  )
         9           Ti1 tau(   9) = (  -0.0000000   3.4482835  14.8766093  )
        10           Ti1 tau(  10) = (   1.4931506   0.8620709  14.8766093  )
        11           Ti1 tau(  11) = (   4.4794517   0.8620709  14.8766093  )
        12           Sc1 tau(  12) = (   2.9863011   3.4482835  14.8766093  )

     number of k points=    20  Fermi-Dirac smearing, width (Ry)=  0.0110
                       cart. coord. in units 2pi/alat
        k(    1) = (   0.0000000   0.0000000   0.0000000), wk =   0.0555556
        k(    2) = (   0.0000000   0.0322222   0.0000000), wk =   0.1111111
        k(    3) = (   0.0000000   0.0644443   0.0000000), wk =   0.1111111
        k(    4) = (   0.0000000  -0.0966665   0.0000000), wk =   0.0555556
        k(    5) = (   0.0279052   0.0161111   0.0000000), wk =   0.1111111
        k(    6) = (   0.0279052   0.0483332   0.0000000), wk =   0.1111111
        k(    7) = (   0.0279052   0.0805554   0.0000000), wk =   0.1111111
        k(    8) = (   0.0279052  -0.0805554   0.0000000), wk =   0.1111111
        k(    9) = (   0.0279052  -0.0483332   0.0000000), wk =   0.1111111
        k(   10) = (   0.0279052  -0.0161111   0.0000000), wk =   0.1111111
        k(   11) = (   0.0558104   0.0322222   0.0000000), wk =   0.1111111
        k(   12) = (   0.0558104   0.0644443   0.0000000), wk =   0.1111111
        k(   13) = (   0.0558104   0.0966665   0.0000000), wk =   0.1111111
        k(   14) = (   0.0558104  -0.0644443   0.0000000), wk =   0.1111111
        k(   15) = (   0.0558104  -0.0322222   0.0000000), wk =   0.1111111
        k(   16) = (   0.0558104   0.0000000   0.0000000), wk =   0.1111111
        k(   17) = (  -0.0837156  -0.0483332   0.0000000), wk =   0.0555556
        k(   18) = (  -0.0837156  -0.0161111   0.0000000), wk =   0.1111111
        k(   19) = (  -0.0837156   0.0161111   0.0000000), wk =   0.1111111
        k(   20) = (  -0.0837156  -0.1449997   0.0000000), wk =   0.0555556

     Largest allocated arrays     est. size (Mb)     dimensions
     Largest temporary arrays     est. size (Mb)     dimensions

     Check: negative/imaginary core charge=   -0.000005    0.000000

     Initial potential from superposition of free atoms
     Check: negative starting charge=   -0.009054

     starting charge  131.99240, renormalised to  141.00000

     negative rho (up, down):  9.672E-03 0.000E+00

     *
     * You are using vdW-DF for exchange-correlation in this calculation.
     * Please cite the following three references that made this development
     * possible:
     *
     *   M. Dion, H. Rydberg, E. Schroder, D. C. Langreth, and
     *   B. I. Lundqvist, Phys. Rev. Lett. 92, 246401 (2004).
     *
     *   T. Thonhauser, V. R. Cooper, S. Li, A. Puzder, P. Hyldgaard, and
     *   D. C. Langreth, Phys. Rev. B 76, 125112 (2007).
     *
     *   G. Roman-Perez and J. M. Soler, Phys. Rev. Lett. 103, 096102 (2009).
     *
     *
     * If you are using vdW-DF2, please also cite:
     *
     *   K. Lee, E. D. Murray, L. Kong, B. I. Lundqvist, and
     *   D. C. Langreth, Phys. Rev. B 82, 081101(R) (2010).
     *
     *
     * If you are calculating the stress with vdW-DF, please also cite:
     *
     *   R. Sabatini, E. Kucukbenli, B. Kolb, T. Thonhauser, and
     *   S. de Gironcoli, J. Phys.: Condens. Matter 24, 424209 (2012).
     *

     Carrying out vdW-DF run using the following parameters:

     Nqs =      20    Nr_points =    1024   r_max =   100.000
     q_mesh =
               0.00001000     0.04494208     0.09755937     0.15916263
               0.23128650     0.31572767     0.41458969     0.53033537
               0.66584808     0.82450364     1.01025438     1.22772762
               1.48234092     1.78043706     2.12944203     2.53805004
               3.01644009     3.57652955     4.23227104     5.00000000

     Gradients computed in reciprocal space

     Adding external electric field

     Computed dipole along edir(3) :
        Dipole                0.0000 Ry au,          0.0000 Debye
        Dipole field          0.0000 Ry au

        Potential amp.       -0.0000 Ry
        Total length         45.8347 bohr

     Starting wfc are  129 randomized atomic wfcs

     Self-consistent Calculation

     iteration #  1     ecut=    36.75 Ry     beta=0.10
     Davidson diagonalization with overlap
     ethr =  1.00E-02,  avg # of iterations =  3.4

[...]

     total energy              =   -1363.82792162 Ry
     Harris-Foulkes estimate   =   -1364.98132171 Ry
     estimated scf accuracy    <       6.83820703 Ry

[...]

     End of self-consistent calculation

          k = 0.0000 0.0000 0.0000 ( 19447 PWs)   bands (ev):

   -56.4741 -56.4719 -56.4295 -56.4294 -56.4289 -56.4288 -56.2848 -56.2435
   -56.2434 -48.8824 -48.8820 -48.3616 -32.8489 -32.8334 -32.7998 -32.7718
   -32.7717 -32.7476 -32.7475 -32.7442 -32.7441 -32.7437 -32.7020 -32.7019
   -32.6624 -32.5796 -32.5717 -32.5419 -32.5419 -32.4896 -32.4895 -32.4819
   -32.4819 -32.4574 -32.4453 -32.4452 -32.3758 -32.3110 -32.3110 -27.5293
   -27.5206 -27.4771 -27.4771 -27.4749 -27.4749 -26.9957 -26.9764 -26.9764
    -4.6034  -3.3854  -2.1080  -1.4039  -1.4039  -1.3411  -1.3411  -1.3219
    -1.2361  -0.9395  -0.9395  -0.8850  -0.6147  -0.5939  -0.5939  -0.1228
    -0.0676  -0.0676   0.5726   0.6292   0.9268   0.9322   0.9322   1.0125
     1.1329   1.1330   1.2781   1.3323   1.5133   1.5134   1.5458   1.6612
     1.6612   1.6958   1.6958   1.7508   1.7508   1.8723   1.9307   1.9308
     2.1602   2.1602   2.2713   2.2839   2.5400   2.5400   2.8946   2.8946
     3.0105   3.0106   3.3138   3.3634

[...]

          k =-0.0837-0.0483 0.0000 ( 19532 PWs)   bands (ev):

[...]

     the Fermi energy is     0.6090 ev

!    total energy              =   -1363.20933326 Ry
     Harris-Foulkes estimate   =   -1363.20933168 Ry
     estimated scf accuracy    <       0.00000087 Ry

     The total energy is the sum of the following terms:

     one-electron contribution =   -9624.32053220 Ry
     hartree contribution      =    4796.18592846 Ry
     xc contribution           =    -210.03951980 Ry
     ewald contribution        =    3675.11071473 Ry
     electric field correction =       0.00000001 Ry
     smearing contrib. (-TS)   =      -0.14592447 Ry

     convergence has been achieved in  23 iterations

 BEEF-vdW xc energy contributions
           1 :   -179.971560479873
           2 :    160.295670357472
           3 :   -128.383401996874
           4 :    94.9127838196873
           5 :   -68.3581863760297
           6 :    51.5924169501120
           7 :   -42.1852351286508
           8 :    35.4552274700177
           9 :   -27.8794492174359
          10 :    18.7616128458078
          11 :   -9.64523945892699
          12 :    2.45431513931621
          13 :    2.08657510441020
          14 :   -4.76416288785379
          15 :    6.98326156985067
          16 :   -9.56386890041276
[...]
               b(3) = (  0.000000  0.000000  0.040198 )

     PseudoPot. # 1 for Ti read from file:
     /afs/slac.stanford.edu/u/if/mamunm/psp/gbrv1.5pbe/Ti.UPF
     MD5 check sum: 88a00a6731bd790ddea75d31a80cb452
     Pseudo is Ultrasoft + core correction, Zval = 12.0
     Generated by new atomic code, or converted to UPF format
     Using radial grid of  851 points,  6 beta functions with:
                l(1) =   0
                l(2) =   0
                l(3) =   1
                l(4) =   1
                l(5) =   2
                l(6) =   2
     Q(r) pseudized with  6 coefficients,  rinner =    1.000   1.000   1.000
                                                       1.000   1.000

     PseudoPot. # 2 for Sc read from file:
     /afs/slac.stanford.edu/u/if/mamunm/psp/gbrv1.5pbe/Sc.UPF
     MD5 check sum: db30a2753ba66ef00f23801d899b7e7f
     Pseudo is Ultrasoft + core correction, Zval = 11.0
     Generated by new atomic code, or converted to UPF format
     Using radial grid of  849 points,  6 beta functions with:
                l(1) =   0
                l(2) =   0
                l(3) =   1
                l(4) =   1
                l(5) =   2
                l(6) =   2
     Q(r) pseudized with  6 coefficients,  rinner =    1.200   1.200   1.200
                                                       1.200   1.200

     vdW kernel table read from file vdW_kernel_table
     MD5 check sum: 095c7af220d748ca6e76c0b4c6cfb241

     atomic species   valence    mass     pseudopotential
        Ti1           12.00    47.86700     Ti( 1.00)
        Sc1           11.00    44.95591     Sc( 1.00)

     No symmetry found

   Cartesian axes

     site n.     atom                  positions (alat units)
         1           Ti1 tau(   1) = (   0.0000000   0.0000000  10.0000000  )
         2           Ti1 tau(   2) = (  -1.4931506   2.5862126  10.0000000  )
         3           Ti1 tau(   3) = (   1.4931506   2.5862126  10.0000000  )
         4           Sc1 tau(   4) = (   2.9863011   0.0000000  10.0000000  )
         5           Ti1 tau(   5) = (   2.9863011   1.7241417  12.4383046  )
         6           Ti1 tau(   6) = (   1.4931506   4.3103544  12.4383046  )
         7           Ti1 tau(   7) = (  -1.4931506   4.3103544  12.4383046  )
         8           Sc1 tau(   8) = (   0.0000000   1.7241417  12.4383046  )
         9           Ti1 tau(   9) = (  -0.0000042   3.5357838  14.6752692  )
        10           Ti1 tau(  10) = (   1.5689109   0.8183309  14.6752745  )
        11           Ti1 tau(  11) = (   4.4036999   0.8183437  14.6753203  )
        12           Sc1 tau(  12) = (   2.9863383   3.4482344  14.9777692  )

     number of k points=    20  Fermi-Dirac smearing, width (Ry)=  0.0110
                       cart. coord. in units 2pi/alat
        k(    1) = (   0.0000000   0.0000000   0.0000000), wk =   0.0555556
        k(    2) = (   0.0000000   0.0322222   0.0000000), wk =   0.1111111
        k(    3) = (   0.0000000   0.0644443   0.0000000), wk =   0.1111111
        k(    4) = (   0.0000000  -0.0966665   0.0000000), wk =   0.0555556
        k(    5) = (   0.0279052   0.0161111   0.0000000), wk =   0.1111111
        k(    6) = (   0.0279052   0.0483332   0.0000000), wk =   0.1111111
        k(    7) = (   0.0279052   0.0805554   0.0000000), wk =   0.1111111
        k(    8) = (   0.0279052  -0.0805554   0.0000000), wk =   0.1111111
        k(    9) = (   0.0279052  -0.0483332   0.0000000), wk =   0.1111111
        k(   10) = (   0.0279052  -0.0161111   0.0000000), wk =   0.1111111
        k(   11) = (   0.0558104   0.0322222   0.0000000), wk =   0.1111111
        k(   12) = (   0.0558104   0.0644443   0.0000000), wk =   0.1111111
        k(   13) = (   0.0558104   0.0966665   0.0000000), wk =   0.1111111
        k(   14) = (   0.0558104  -0.0644443   0.0000000), wk =   0.1111111
        k(   15) = (   0.0558104  -0.0322222   0.0000000), wk =   0.1111111
        k(   16) = (   0.0558104   0.0000000   0.0000000), wk =   0.1111111
        k(   17) = (  -0.0837156  -0.0483332   0.0000000), wk =   0.0555556
        k(   18) = (  -0.0837156  -0.0161111   0.0000000), wk =   0.1111111
        k(   19) = (  -0.0837156   0.0161111   0.0000000), wk =   0.1111111
        k(   20) = (  -0.0837156  -0.1449997   0.0000000), wk =   0.0555556

     Largest allocated arrays     est. size (Mb)     dimensions
     Largest temporary arrays     est. size (Mb)     dimensions

     Check: negative/imaginary core charge=   -0.000005    0.000000

     Initial potential from superposition of free atoms
     Check: negative starting charge=   -0.010466

     starting charge  131.99240, renormalised to  141.00000

[...]

     *
     * You are using vdW-DF for exchange-correlation in this calculation.
     * Please cite the following three references that made this development
     * possible:
     *
     *   M. Dion, H. Rydberg, E. Schroder, D. C. Langreth, and
     *   B. I. Lundqvist, Phys. Rev. Lett. 92, 246401 (2004).
     *
     *   T. Thonhauser, V. R. Cooper, S. Li, A. Puzder, P. Hyldgaard, and
     *   D. C. Langreth, Phys. Rev. B 76, 125112 (2007).
     *
     *   G. Roman-Perez and J. M. Soler, Phys. Rev. Lett. 103, 096102 (2009).
     *
     *
     * If you are using vdW-DF2, please also cite:
     *
     *   K. Lee, E. D. Murray, L. Kong, B. I. Lundqvist, and
     *   D. C. Langreth, Phys. Rev. B 82, 081101(R) (2010).
     *
     *
     * If you are calculating the stress with vdW-DF, please also cite:
     *
     *   R. Sabatini, E. Kucukbenli, B. Kolb, T. Thonhauser, and
     *   S. de Gironcoli, J. Phys.: Condens. Matter 24, 424209 (2012).
     *

     Carrying out vdW-DF run using the following parameters:

     Nqs =      20    Nr_points =    1024   r_max =   100.000
     q_mesh =
               0.00001000     0.04494208     0.09755937     0.15916263
               0.23128650     0.31572767     0.41458969     0.53033537
               0.66584808     0.82450364     1.01025438     1.22772762
               1.48234092     1.78043706     2.12944203     2.53805004
               3.01644009     3.57652955     4.23227104     5.00000000

     Gradients computed in reciprocal space

[...]

     Starting wfc are  129 randomized atomic wfcs

     Self-consistent Calculation

[...]

     total energy              =   -1363.23016159 Ry
     Harris-Foulkes estimate   =   -1363.23016079 Ry
     estimated scf accuracy    <       0.00000118 Ry

     iteration # 23     ecut=    36.75 Ry     beta=0.10
     Davidson diagonalization with overlap
     ethr =  8.38E-10,  avg # of iterations =  2.2

[...]

     negative rho (up, down):  6.955E-03 0.000E+00

     Adding external electric field

     Computed dipole along edir(3) :
        Dipole                0.0318 Ry au,          0.0808 Debye
        Dipole field          0.0001 Ry au

        Potential amp.       -0.0071 Ry
        Total length         45.8347 bohr

     End of self-consistent calculation

[...]

          k = 0.0558 0.0000 0.0000 ( 19485 PWs)   bands (ev):

[...]

          k =-0.0837-0.1450 0.0000 ( 19532 PWs)   bands (ev):

   -56.4327 -56.4185 -56.4037 -56.3046 -56.2687 -56.2583 -56.1613 -56.1488
   -56.1361 -49.0400 -48.8583 -48.2507 -32.7542 -32.7407 -32.7305 -32.7003
   -32.6858 -32.6540 -32.6510 -32.6310 -32.6279 -32.6133 -32.5976 -32.5935
   -32.5836 -32.5701 -32.4873 -32.4796 -32.4718 -32.4314 -32.3882 -32.3598
   -32.3454 -32.3431 -32.3131 -32.2920 -32.2848 -32.2684 -32.2176 -27.6873
   -27.6304 -27.6226 -27.5056 -27.4636 -27.4550 -26.9138 -26.8793 -26.8708
    -3.1364  -3.0792  -1.9932  -1.9848  -1.1794  -1.1397  -0.9253  -0.8515
    -0.7970  -0.7420  -0.2080  -0.1361  -0.1127  -0.0458   0.0100   0.0884
     0.1986   0.3121   0.3226   0.3312   0.3737   0.3893   0.4921   0.5575
     0.6104   0.6736   0.7641   0.7754   0.8658   0.9261   1.1202   1.1355
     1.1719   1.3326   1.5547   1.6532   1.7283   1.7833   1.9464   2.0058
     2.1879   2.2977   2.3581   2.4127   2.5044   2.5295   2.5581   2.6217
     2.6389   2.7900   2.8147   2.9358

     the Fermi energy is     0.6341 ev

!    total energy              =   -1363.23016366 Ry
     Harris-Foulkes estimate   =   -1363.23016142 Ry
     estimated scf accuracy    <       0.00000061 Ry

     The total energy is the sum of the following terms:

     one-electron contribution =   -9798.89760482 Ry
     hartree contribution      =    4883.83901565 Ry
     xc contribution           =    -210.21967283 Ry
     ewald contribution        =    3762.18566156 Ry
     electric field correction =       0.00000245 Ry
     smearing contrib. (-TS)   =      -0.13756566 Ry

     convergence has been achieved in  23 iterations

 BEEF-vdW xc energy contributions
           1 :   -180.253642774153
           2 :    160.635555496725
           3 :   -128.769239541856
           4 :    95.2552347981785
           5 :   -68.5559996111961
           6 :    51.6188099998211
           7 :   -42.1199860942417
           8 :    35.4296890286131
           9 :   -27.9779863476662
          10 :    18.9601811407661
          11 :   -9.83364415920803
          12 :    2.52003208329643
          13 :    2.17719256454427
          14 :   -4.94260965778324
          15 :    7.12802068106325
          16 :   -9.58995834551320
          17 :    12.1054547153450
          18 :   -13.7170774643487
          19 :    13.6078747312130
          20 :   -11.7740660019541
          21 :    9.00433249322822
          22 :   -6.26801809054297
          23 :    4.04472687702014
          24 :   -2.11470677044233
          25 :  -9.149711747602396E-002
          26 :    2.92221351540553
          27 :   -6.18128780023980
          28 :    9.26560196866888
          29 :   -11.6009514514610
          30 :    13.0065495398380
          31 :   -19.5081497961167
          32 :   -13.9121499856845

     Forces acting on atoms (Ry/au):

     negative rho (up, down):  6.955E-03 0.000E+00
     atom    1 type  1   force =    -0.00000065   -0.00772439    0.01606797
     atom    2 type  1   force =    -0.00669103    0.00386353    0.01607475
     atom    3 type  1   force =     0.00669031    0.00386388    0.01606876
     atom    4 type  2   force =    -0.00000079    0.00000241   -0.01268475
     atom    5 type  1   force =    -0.00000016    0.00404634   -0.00648480
     atom    6 type  1   force =     0.00351053   -0.00201871   -0.00648647
     atom    7 type  1   force =    -0.00351120   -0.00201893   -0.00649194
     atom    8 type  2   force =     0.00000635   -0.00002108   -0.01703110
     atom    9 type  1   force =     0.00000262    0.00088110    0.00036783
     atom   10 type  1   force =     0.00076179   -0.00043991    0.00036761
     atom   11 type  1   force =    -0.00076144   -0.00044327    0.00036297
     atom   12 type  2   force =    -0.00000631    0.00000903   -0.00013084

     Total force =     0.039787     Total SCF correction =     0.002137

     entering subroutine stress ...

     negative rho (up, down):  6.955E-03 0.000E+00
          total   stress  (Ry/bohr**3)                   (kbar)     P=   -4.67
  -0.00003189  -0.00000000  -0.00000000         -4.69     -0.00     -0.00
  -0.00000000  -0.00003189   0.00000000         -0.00     -4.69      0.00
  -0.00000000   0.00000000  -0.00003152         -0.00      0.00     -4.64

 !ASE

     Writing output data file calc.save

     General routines

     Parallel routines

   This run was terminated on:   1:53:24   2Jan2019

   JOB DONE.
Job  /afs/slac/g/suncat/bin/suncat-tsmpirun -x LD_LIBRARY_PATH -wdir /scratch/qe649225_aaTuX pw.x -in pw.inp

TID   HOST_NAME   COMMAND_LINE            STATUS            TERMINATION_TIME
00000 suncat0278 pw.x -in pw.inp   Done                     01/02/2019 01:53:24
00001 suncat0278 pw.x -in pw.inp   Done                     01/02/2019 01:53:24
00002 suncat0278 pw.x -in pw.inp   Done                     01/02/2019 01:53:24
00003 suncat0278 pw.x -in pw.inp   Done                     01/02/2019 01:53:24
00004 suncat0278 pw.x -in pw.inp   Done                     01/02/2019 01:53:24
00005 suncat0278 pw.x -in pw.inp   Done                     01/02/2019 01:53:24
00006 suncat0278 pw.x -in pw.inp   Done                     01/02/2019 01:53:24
00007 suncat0278 pw.x -in pw.inp   Done                     01/02/2019 01:53:24
00008 suncat0271 pw.x -in pw.inp   Done                     01/02/2019 01:53:24
00009 suncat0271 pw.x -in pw.inp   Done                     01/02/2019 01:53:24
00010 suncat0271 pw.x -in pw.inp   Done                     01/02/2019 01:53:24
00011 suncat0271 pw.x -in pw.inp   Done                     01/02/2019 01:53:24
00012 suncat0271 pw.x -in pw.inp   Done                     01/02/2019 01:53:24
00013 suncat0271 pw.x -in pw.inp   Done                     01/02/2019 01:53:24
00014 suncat0271 pw.x -in pw.inp   Done                     01/02/2019 01:53:24
00015 suncat0271 pw.x -in pw.inp   Done                     01/02/2019 01:53:24
00016 suncat0266 pw.x -in pw.inp   Done                     01/02/2019 01:53:24
00017 suncat0266 pw.x -in pw.inp   Done                     01/02/2019 01:53:24
00018 suncat0266 pw.x -in pw.inp   Done                     01/02/2019 01:53:24
00019 suncat0266 pw.x -in pw.inp   Done                     01/02/2019 01:53:24
00020 suncat0266 pw.x -in pw.inp   Done                     01/02/2019 01:53:24
00021 suncat0266 pw.x -in pw.inp   Done                     01/02/2019 01:53:24
00022 suncat0266 pw.x -in pw.inp   Done                     01/02/2019 01:53:24
00023 suncat0266 pw.x -in pw.inp   Done                     01/02/2019 01:53:24
00024 suncat0251 pw.x -in pw.inp   Done                     01/02/2019 01:53:24
00025 suncat0251 pw.x -in pw.inp   Done                     01/02/2019 01:53:24
00026 suncat0251 pw.x -in pw.inp   Done                     01/02/2019 01:53:24
00027 suncat0251 pw.x -in pw.inp   Done                     01/02/2019 01:53:24
00028 suncat0251 pw.x -in pw.inp   Done                     01/02/2019 01:53:24
00029 suncat0251 pw.x -in pw.inp   Done                     01/02/2019 01:53:24
00030 suncat0251 pw.x -in pw.inp   Done                     01/02/2019 01:53:24
00031 suncat0251 pw.x -in pw.inp   Done                     01/02/2019 01:53:24
00032 suncat0244 pw.x -in pw.inp   Done                     01/02/2019 01:53:24
00033 suncat0244 pw.x -in pw.inp   Done                     01/02/2019 01:53:24
00034 suncat0244 pw.x -in pw.inp   Done                     01/02/2019 01:53:24
00035 suncat0244 pw.x -in pw.inp   Done                     01/02/2019 01:53:24
00036 suncat0244 pw.x -in pw.inp   Done                     01/02/2019 01:53:24
00037 suncat0244 pw.x -in pw.inp   Done                     01/02/2019 01:53:24
00038 suncat0244 pw.x -in pw.inp   Done                     01/02/2019 01:53:24
00039 suncat0244 pw.x -in pw.inp   Done                     01/02/2019 01:53:24
00040 suncat0239 pw.x -in pw.inp   Done                     01/02/2019 01:53:24
00041 suncat0239 pw.x -in pw.inp   Done                     01/02/2019 01:53:24
00042 suncat0239 pw.x -in pw.inp   Done                     01/02/2019 01:53:24
00043 suncat0239 pw.x -in pw.inp   Done                     01/02/2019 01:53:24
00044 suncat0239 pw.x -in pw.inp   Done                     01/02/2019 01:53:24
00045 suncat0239 pw.x -in pw.inp   Done                     01/02/2019 01:53:24
00046 suncat0239 pw.x -in pw.inp   Done                     01/02/2019 01:53:24
00047 suncat0239 pw.x -in pw.inp   Done                     01/02/2019 01:53:24
00048 suncat0099 pw.x -in pw.inp   Done                     01/02/2019 01:53:24
00049 suncat0099 pw.x -in pw.inp   Done                     01/02/2019 01:53:24
00050 suncat0099 pw.x -in pw.inp   Done                     01/02/2019 01:53:24
00051 suncat0099 pw.x -in pw.inp   Done                     01/02/2019 01:53:24
00052 suncat0099 pw.x -in pw.inp   Done                     01/02/2019 01:53:24
00053 suncat0099 pw.x -in pw.inp   Done                     01/02/2019 01:53:24
00054 suncat0099 pw.x -in pw.inp   Done                     01/02/2019 01:53:24
00055 suncat0099 pw.x -in pw.inp   Done                     01/02/2019 01:53:24
00056 suncat0098 pw.x -in pw.inp   Done                     01/02/2019 01:53:24
00057 suncat0098 pw.x -in pw.inp   Done                     01/02/2019 01:53:24
00058 suncat0098 pw.x -in pw.inp   Done                     01/02/2019 01:53:24
00059 suncat0098 pw.x -in pw.inp   Done                     01/02/2019 01:53:24
00060 suncat0098 pw.x -in pw.inp   Done                     01/02/2019 01:53:24
00061 suncat0098 pw.x -in pw.inp   Done                     01/02/2019 01:53:24
00062 suncat0098 pw.x -in pw.inp   Done                     01/02/2019 01:53:24
00063 suncat0098 pw.x -in pw.inp   Done                     01/02/2019 01:53:24