     Program PWSCF v.5.1rc2 (svn rev. 11289) starts on 27Dec2018 at 19:38:53

     Current dimensions of program PWSCF are:
     Max number of different atomic species (ntypx) = 10
     Max number of k-points (npk) =  40000
     Max angular momentum in pseudopotentials (lmaxx) =  3
     Presently stress not available with electric field

     IMPORTANT: XC functional enforced from input :
     Exchange-correlation      = BEEF-VDW ( 1  4 27 13 2)
     Any further DFT definition will be discarded
     Please, verify this is what you really want

     Subspace diagonalization in iterative solution of the eigenvalue problem:
     a serial algorithm will be used

     bravais-lattice index     =            0
     lattice parameter (alat)  =       1.8897  a.u.
     unit-cell volume          =    4670.9816 (a.u.)^3
     number of atoms/cell      =           12
     number of atomic types    =            2
     number of electrons       =       177.00
     number of Kohn-Sham states=          118
     kinetic-energy cutoff     =      36.7493  Ry
     charge density cutoff     =     367.4932  Ry
     convergence threshold     =      1.0E-06
     mixing beta               =       0.1000
     number of iterations used =           10  plain     mixing
     Exchange-correlation      = BEEF-VDW ( 1  4 27 13 2)
     nstep                     =           50

     celldm(1)=   1.889726  celldm(2)=   0.000000  celldm(3)=   0.000000
     celldm(4)=   0.000000  celldm(5)=   0.000000  celldm(6)=   0.000000

     crystal axes: (cart. coord. in units of alat)
               a(1) = (   5.694266   0.000000   0.000000 )
               a(2) = (  -2.847133   4.931379   0.000000 )
               a(3) = (   0.000000   0.000000  24.649349 )

     reciprocal axes: (cart. coord. in units 2 pi/alat)
               b(1) = (  0.175615  0.101392  0.000000 )
               b(2) = (  0.000000  0.202783  0.000000 )
               b(3) = (  0.000000  0.000000  0.040569 )

     PseudoPot. # 1 for Re read from file:
     /afs/slac.stanford.edu/u/if/mamunm/psp/gbrv1.5pbe/Re.UPF
     MD5 check sum: 85f993410f3e006da9d71c142b4ad953
     Pseudo is Ultrasoft + core correction, Zval = 15.0
     Generated by new atomic code, or converted to UPF format
     Using radial grid of  981 points,  8 beta functions with:
                l(1) =   0
                l(2) =   0
                l(3) =   1
                l(4) =   1
                l(5) =   2
                l(6) =   2
                l(7) =   3
                l(8) =   3
     Q(r) pseudized with  8 coefficients,  rinner =    1.150   1.150   1.150
                                                       1.150   1.150   1.150
                                                       1.150

     PseudoPot. # 2 for Sn read from file:
     /afs/slac.stanford.edu/u/if/mamunm/psp/gbrv1.5pbe/Sn.UPF
     MD5 check sum: 469debedee59599fedebd795477fea03
     Pseudo is Ultrasoft + core correction, Zval = 14.0
     Generated by new atomic code, or converted to UPF format
     Using radial grid of  891 points,  6 beta functions with:
                l(1) =   0
                l(2) =   0
                l(3) =   1
                l(4) =   1
                l(5) =   2
                l(6) =   2
     Q(r) pseudized with  8 coefficients,  rinner =    1.350   1.350   1.350
                                                       1.350   1.350

     vdW kernel table read from file vdW_kernel_table
     MD5 check sum: 095c7af220d748ca6e76c0b4c6cfb241

     atomic species   valence    mass     pseudopotential
        Re1           15.00   186.20700     Re( 1.00)
        Sn1           14.00   118.71000     Sn( 1.00)

     No symmetry found

   Cartesian axes

     site n.     atom                  positions (alat units)
         1           Re1 tau(   1) = (   0.0000000   0.0000000  10.0000000  )
         2           Re1 tau(   2) = (  -1.4235665   2.4656894  10.0000000  )
         3           Re1 tau(   3) = (   1.4235665   2.4656894  10.0000000  )
         4           Sn1 tau(   4) = (   2.8471329   0.0000000  10.0000000  )
         5           Re1 tau(   5) = (   2.8471329   1.6437930  12.3246743  )
         6           Re1 tau(   6) = (   1.4235665   4.1094824  12.3246743  )
         7           Re1 tau(   7) = (  -1.4235665   4.1094824  12.3246743  )
         8           Sn1 tau(   8) = (   0.0000000   1.6437930  12.3246743  )
         9           Re1 tau(   9) = (  -0.0000000   3.2875859  14.6493486  )
        10           Re1 tau(  10) = (   1.4235665   0.8218965  14.6493486  )
        11           Re1 tau(  11) = (   4.2706994   0.8218965  14.6493486  )
        12           Sn1 tau(  12) = (   2.8471329   3.2875859  14.6493486  )

     number of k points=    20  Fermi-Dirac smearing, width (Ry)=  0.0110
                       cart. coord. in units 2pi/alat
        k(    1) = (   0.0000000   0.0000000   0.0000000), wk =   0.0555556
        k(    2) = (   0.0000000   0.0337972   0.0000000), wk =   0.1111111
        k(    3) = (   0.0000000   0.0675943   0.0000000), wk =   0.1111111
        k(    4) = (   0.0000000  -0.1013915   0.0000000), wk =   0.0555556
        k(    5) = (   0.0292692   0.0168986   0.0000000), wk =   0.1111111
        k(    6) = (   0.0292692   0.0506958   0.0000000), wk =   0.1111111
        k(    7) = (   0.0292692   0.0844929   0.0000000), wk =   0.1111111
        k(    8) = (   0.0292692  -0.0844929   0.0000000), wk =   0.1111111
        k(    9) = (   0.0292692  -0.0506958   0.0000000), wk =   0.1111111
        k(   10) = (   0.0292692  -0.0168986   0.0000000), wk =   0.1111111
        k(   11) = (   0.0585384   0.0337972   0.0000000), wk =   0.1111111
        k(   12) = (   0.0585384   0.0675943   0.0000000), wk =   0.1111111
        k(   13) = (   0.0585384   0.1013915   0.0000000), wk =   0.1111111
        k(   14) = (   0.0585384  -0.0675943   0.0000000), wk =   0.1111111
        k(   15) = (   0.0585384  -0.0337972   0.0000000), wk =   0.1111111
        k(   16) = (   0.0585384  -0.0000000   0.0000000), wk =   0.1111111
        k(   17) = (  -0.0878076  -0.0506958   0.0000000), wk =   0.0555556
        k(   18) = (  -0.0878076  -0.0168986   0.0000000), wk =   0.1111111
        k(   19) = (  -0.0878076   0.0168986   0.0000000), wk =   0.1111111
        k(   20) = (  -0.0878076  -0.1520873   0.0000000), wk =   0.0555556

     Largest allocated arrays     est. size (Mb)     dimensions
     Largest temporary arrays     est. size (Mb)     dimensions

     Initial potential from superposition of free atoms
     Check: negative starting charge=   -1.154369

     starting charge  169.49946, renormalised to  177.00000

     negative rho (up, down):  1.205E+00 0.000E+00

     *
     * You are using vdW-DF for exchange-correlation in this calculation.
     * Please cite the following three references that made this development
     * possible:
     *
     *   M. Dion, H. Rydberg, E. Schroder, D. C. Langreth, and
     *   B. I. Lundqvist, Phys. Rev. Lett. 92, 246401 (2004).
     *
     *   T. Thonhauser, V. R. Cooper, S. Li, A. Puzder, P. Hyldgaard, and
     *   D. C. Langreth, Phys. Rev. B 76, 125112 (2007).
     *
     *   G. Roman-Perez and J. M. Soler, Phys. Rev. Lett. 103, 096102 (2009).
     *
     *
     * If you are using vdW-DF2, please also cite:
     *
     *   K. Lee, E. D. Murray, L. Kong, B. I. Lundqvist, and
     *   D. C. Langreth, Phys. Rev. B 82, 081101(R) (2010).
     *
     *
     * If you are calculating the stress with vdW-DF, please also cite:
     *
     *   R. Sabatini, E. Kucukbenli, B. Kolb, T. Thonhauser, and
     *   S. de Gironcoli, J. Phys.: Condens. Matter 24, 424209 (2012).
     *

     Carrying out vdW-DF run using the following parameters:

     Nqs =      20    Nr_points =    1024   r_max =   100.000
     q_mesh =
               0.00001000     0.04494208     0.09755937     0.15916263
               0.23128650     0.31572767     0.41458969     0.53033537
               0.66584808     0.82450364     1.01025438     1.22772762
               1.48234092     1.78043706     2.12944203     2.53805004
               3.01644009     3.57652955     4.23227104     5.00000000

     Gradients computed in reciprocal space

     Adding external electric field

     Computed dipole along edir(3) :
        Dipole               -0.0000 Ry au,         -0.0000 Debye
        Dipole field         -0.0000 Ry au

        Potential amp.        0.0000 Ry
        Total length         45.4160 bohr

     Starting wfc are  144 randomized atomic wfcs

     Self-consistent Calculation

     iteration #  1     ecut=    36.75 Ry     beta=0.10
     Davidson diagonalization with overlap
     ethr =  1.00E-02,  avg # of iterations =  7.7

[...]

     total energy              =   -2211.76519208 Ry
     Harris-Foulkes estimate   =   -2212.27412628 Ry
     estimated scf accuracy    <       3.37881463 Ry

[...]

     End of self-consistent calculation

          k = 0.0000 0.0000 0.0000 ( 17615 PWs)   bands (ev):

   -78.1943 -78.1571 -78.1571 -78.0782 -78.0758 -78.0432 -78.0432 -78.0426
   -78.0426 -40.2014 -40.0994 -40.0765 -40.0765 -40.0365 -40.0299 -40.0299
   -39.9987 -39.9168 -39.9168 -39.8061 -39.8061 -39.7832 -39.7628 -39.6998
   -39.6998 -39.6446 -39.6183 -39.6183 -39.6106 -39.6052 -39.5858 -39.5858
   -39.4747 -39.4747 -39.4703 -39.4703 -19.6565 -19.6565 -19.6520 -19.6283
   -19.6283 -19.3059 -19.2971 -19.2676 -19.2676 -19.2567 -19.2567 -19.2489
   -19.2489 -19.2482 -19.2482  -8.5345  -6.8224  -6.5178  -3.5246  -3.2593
    -3.1510  -2.4515  -2.4515  -1.8842  -1.8842  -1.7877  -1.7877  -1.6989
    -1.4868  -1.4868  -1.4073  -0.7270  -0.7270  -0.0687   0.0551   0.3520
     0.3520   0.6959   0.6959   0.8054   0.8054   0.9128   1.0640   1.0972
     1.0972   1.3039   1.8654   2.3391   2.3391   2.6233   2.6233   2.8057
     2.8062   2.8062   3.0710   3.2764   3.2764   3.3762   3.4124   3.4124
     3.7327   3.9547   3.9547   4.4324   4.4324   4.4681   4.4681   4.7213
     5.0206   5.0918   5.6209   5.7037   5.7037   5.8584   5.9963   6.3392
     6.7091   6.9559   7.3861   8.1454   8.9822   8.9861

[...]

          k =-0.0878-0.0507 0.0000 ( 17556 PWs)   bands (ev):

[...]

     the Fermi energy is     2.5391 ev

!    total energy              =   -2210.99309185 Ry
     Harris-Foulkes estimate   =   -2210.99308855 Ry
     estimated scf accuracy    <       0.00000049 Ry

     The total energy is the sum of the following terms:

     one-electron contribution =  -16406.86878441 Ry
     hartree contribution      =    8208.05902875 Ry
     xc contribution           =    -620.51488421 Ry
     ewald contribution        =    6608.41511880 Ry
     electric field correction =       0.00000000 Ry
     smearing contrib. (-TS)   =      -0.08357079 Ry

     convergence has been achieved in  17 iterations

 BEEF-vdW xc energy contributions
           1 :   -550.040462297706
           2 :    509.791255948620
           3 :   -438.445000820490
           4 :    350.980342012601
           5 :   -263.285825799974
           6 :    187.636440299466
           7 :   -130.096495569434
           8 :    90.4761413294754
           9 :   -64.4222080427340
          10 :    46.4085848286826
[...]
     Pseudo is Ultrasoft + core correction, Zval = 15.0
     Generated by new atomic code, or converted to UPF format
     Using radial grid of  981 points,  8 beta functions with:
                l(1) =   0
                l(2) =   0
                l(3) =   1
                l(4) =   1
                l(5) =   2
                l(6) =   2
                l(7) =   3
                l(8) =   3
     Q(r) pseudized with  8 coefficients,  rinner =    1.150   1.150   1.150
                                                       1.150   1.150   1.150
                                                       1.150

     PseudoPot. # 2 for Sn read from file:
     /afs/slac.stanford.edu/u/if/mamunm/psp/gbrv1.5pbe/Sn.UPF
     MD5 check sum: 469debedee59599fedebd795477fea03
     Pseudo is Ultrasoft + core correction, Zval = 14.0
     Generated by new atomic code, or converted to UPF format
     Using radial grid of  891 points,  6 beta functions with:
                l(1) =   0
                l(2) =   0
                l(3) =   1
                l(4) =   1
                l(5) =   2
                l(6) =   2
     Q(r) pseudized with  8 coefficients,  rinner =    1.350   1.350   1.350
                                                       1.350   1.350

     vdW kernel table read from file vdW_kernel_table
     MD5 check sum: 095c7af220d748ca6e76c0b4c6cfb241

     atomic species   valence    mass     pseudopotential
        Re1           15.00   186.20700     Re( 1.00)
        Sn1           14.00   118.71000     Sn( 1.00)

     No symmetry found

   Cartesian axes

     site n.     atom                  positions (alat units)
         1           Re1 tau(   1) = (   0.0000000   0.0000000  10.0000000  )
         2           Re1 tau(   2) = (  -1.4235665   2.4656894  10.0000000  )
         3           Re1 tau(   3) = (   1.4235665   2.4656894  10.0000000  )
         4           Sn1 tau(   4) = (   2.8471329   0.0000000  10.0000000  )
         5           Re1 tau(   5) = (   2.8471329   1.6437930  12.3246743  )
         6           Re1 tau(   6) = (   1.4235665   4.1094824  12.3246743  )
         7           Re1 tau(   7) = (  -1.4235665   4.1094824  12.3246743  )
         8           Sn1 tau(   8) = (   0.0000000   1.6437930  12.3246743  )
         9           Re1 tau(   9) = (  -0.0000217   3.4406877  14.4696269  )
        10           Re1 tau(  10) = (   1.5561874   0.7453087  14.4696395  )
        11           Re1 tau(  11) = (   4.1380781   0.7453286  14.4696046  )
        12           Sn1 tau(  12) = (   2.8471000   3.2876005  15.0751599  )

     number of k points=    20  Fermi-Dirac smearing, width (Ry)=  0.0110
                       cart. coord. in units 2pi/alat
        k(    1) = (   0.0000000   0.0000000   0.0000000), wk =   0.0555556
        k(    2) = (   0.0000000   0.0337972   0.0000000), wk =   0.1111111
        k(    3) = (   0.0000000   0.0675943   0.0000000), wk =   0.1111111
        k(    4) = (   0.0000000  -0.1013915   0.0000000), wk =   0.0555556
        k(    5) = (   0.0292692   0.0168986   0.0000000), wk =   0.1111111
        k(    6) = (   0.0292692   0.0506958   0.0000000), wk =   0.1111111
        k(    7) = (   0.0292692   0.0844929   0.0000000), wk =   0.1111111
        k(    8) = (   0.0292692  -0.0844929   0.0000000), wk =   0.1111111
        k(    9) = (   0.0292692  -0.0506958   0.0000000), wk =   0.1111111
        k(   10) = (   0.0292692  -0.0168986   0.0000000), wk =   0.1111111
        k(   11) = (   0.0585384   0.0337972   0.0000000), wk =   0.1111111
        k(   12) = (   0.0585384   0.0675943   0.0000000), wk =   0.1111111
        k(   13) = (   0.0585384   0.1013915   0.0000000), wk =   0.1111111
        k(   14) = (   0.0585384  -0.0675943   0.0000000), wk =   0.1111111
        k(   15) = (   0.0585384  -0.0337972   0.0000000), wk =   0.1111111
        k(   16) = (   0.0585384  -0.0000000   0.0000000), wk =   0.1111111
        k(   17) = (  -0.0878076  -0.0506958   0.0000000), wk =   0.0555556
        k(   18) = (  -0.0878076  -0.0168986   0.0000000), wk =   0.1111111
        k(   19) = (  -0.0878076   0.0168986   0.0000000), wk =   0.1111111
        k(   20) = (  -0.0878076  -0.1520873   0.0000000), wk =   0.0555556

     Largest allocated arrays     est. size (Mb)     dimensions
     Largest temporary arrays     est. size (Mb)     dimensions

     Initial potential from superposition of free atoms
     Check: negative starting charge=   -1.154149

     starting charge  169.49946, renormalised to  177.00000

[...]

     *
     * You are using vdW-DF for exchange-correlation in this calculation.
     * Please cite the following three references that made this development
     * possible:
     *
     *   M. Dion, H. Rydberg, E. Schroder, D. C. Langreth, and
     *   B. I. Lundqvist, Phys. Rev. Lett. 92, 246401 (2004).
     *
     *   T. Thonhauser, V. R. Cooper, S. Li, A. Puzder, P. Hyldgaard, and
     *   D. C. Langreth, Phys. Rev. B 76, 125112 (2007).
     *
     *   G. Roman-Perez and J. M. Soler, Phys. Rev. Lett. 103, 096102 (2009).
     *
     *
     * If you are using vdW-DF2, please also cite:
     *
     *   K. Lee, E. D. Murray, L. Kong, B. I. Lundqvist, and
     *   D. C. Langreth, Phys. Rev. B 82, 081101(R) (2010).
     *
     *
     * If you are calculating the stress with vdW-DF, please also cite:
     *
     *   R. Sabatini, E. Kucukbenli, B. Kolb, T. Thonhauser, and
     *   S. de Gironcoli, J. Phys.: Condens. Matter 24, 424209 (2012).
     *

     Carrying out vdW-DF run using the following parameters:

     Nqs =      20    Nr_points =    1024   r_max =   100.000
     q_mesh =
               0.00001000     0.04494208     0.09755937     0.15916263
               0.23128650     0.31572767     0.41458969     0.53033537
               0.66584808     0.82450364     1.01025438     1.22772762
               1.48234092     1.78043706     2.12944203     2.53805004
               3.01644009     3.57652955     4.23227104     5.00000000

     Gradients computed in reciprocal space

[...]

     Starting wfc are  144 randomized atomic wfcs

     Self-consistent Calculation

[...]

     total energy              =   -2211.06608434 Ry
     Harris-Foulkes estimate   =   -2211.06608499 Ry
     estimated scf accuracy    <       0.00000104 Ry

     iteration # 17     ecut=    36.75 Ry     beta=0.10
     Davidson diagonalization with overlap
     ethr =  5.87E-10,  avg # of iterations =  2.5

[...]

     negative rho (up, down):  1.177E+00 0.000E+00

     Adding external electric field

     Computed dipole along edir(3) :
        Dipole                0.1401 Ry au,          0.3560 Debye
        Dipole field          0.0004 Ry au

        Potential amp.       -0.0342 Ry
        Total length         45.4160 bohr

     End of self-consistent calculation

[...]

          k = 0.0585-0.0000 0.0000 ( 17589 PWs)   bands (ev):

[...]

          k =-0.0878-0.1521 0.0000 ( 17556 PWs)   bands (ev):

   -78.0911 -78.0743 -78.0600 -78.0037 -77.9549 -77.9503 -77.9011 -77.8896
   -77.8781 -40.1732 -40.1002 -40.0447 -40.0370 -40.0091 -39.9258 -39.8866
   -39.8391 -39.7975 -39.7774 -39.7414 -39.7224 -39.6303 -39.6140 -39.5980
   -39.5908 -39.5743 -39.5536 -39.5200 -39.5183 -39.4867 -39.4386 -39.4285
   -39.4263 -39.4034 -39.3423 -39.3320 -19.5188 -19.5083 -19.4937 -19.4842
   -19.4834 -19.2474 -19.2083 -19.2060 -19.1568 -19.1407 -19.1345 -19.1206
   -19.1201 -19.0975 -19.0867  -7.0846  -6.3385  -5.5447  -4.3363  -3.4629
    -3.4011  -3.1082  -2.5353  -1.8245  -1.6512  -1.6391  -1.4942  -1.4416
    -1.3244  -1.2171  -0.7549  -0.5999  -0.4781  -0.4141  -0.4099  -0.2469
    -0.1788   0.2585   0.2684   0.4867   0.6142   0.8509   0.8658   1.0728
     1.1672   1.2094   1.4090   1.5289   2.1276   2.2598   2.2699   2.3585
     2.5879   2.7629   2.7988   2.8531   2.8616   3.1895   3.2092   3.3101
     3.3345   3.7899   3.8726   3.9646   4.4075   4.5825   4.7092   5.0643
     5.3604   5.6460   6.2873   6.3164   6.5708   6.9752   7.4585   7.4799
     7.6148   8.0310   8.1228   8.3819   8.4591   8.5750

     the Fermi energy is     2.6894 ev

!    total energy              =   -2211.06608420 Ry
     Harris-Foulkes estimate   =   -2211.06608338 Ry
     estimated scf accuracy    <       0.00000056 Ry

     The total energy is the sum of the following terms:

     one-electron contribution =  -16480.50257893 Ry
     hartree contribution      =    8245.45102380 Ry
     xc contribution           =    -620.75687926 Ry
     ewald contribution        =    6644.81881355 Ry
     electric field correction =       0.00005279 Ry
     smearing contrib. (-TS)   =      -0.07651615 Ry

     convergence has been achieved in  17 iterations

 BEEF-vdW xc energy contributions
           1 :   -550.696874850080
           2 :    510.502540528455
           3 :   -439.226864407741
           4 :    351.787614758361
           5 :   -264.020650982389
           6 :    188.185697933440
           7 :   -130.382673274168
           8 :    90.4993475841509
           9 :   -64.2733496780111
          10 :    46.2442234206728
          11 :   -32.2177970487825
          12 :    20.3478935051260
          13 :   -10.7667844875322
          14 :    4.37505045929458
          15 :   -1.64337258547550
          16 :    2.03505162703743
          17 :   -4.18048385393251
          18 :    6.50893288267673
          19 :   -7.88813327960554
          20 :    7.93374757158142
          21 :   -6.91523410468517
          22 :    5.41634059654405
          23 :   -3.99559551016068
          24 :    3.00759441396781
          25 :   -2.59697004876375
          26 :    2.76863459581398
          27 :   -3.43847905886116
          28 :    4.43640459292430
          29 :   -5.50520754154707
          30 :    6.35031767300336
          31 :   -46.1976721922925
          32 :   -34.1662697477274

     Forces acting on atoms (Ry/au):

     negative rho (up, down):  1.177E+00 0.000E+00
     atom    1 type  1   force =    -0.00000337   -0.03636788    0.01575390
     atom    2 type  1   force =    -0.03150438    0.01818206    0.01576055
     atom    3 type  1   force =     0.03150198    0.01818107    0.01575906
     atom    4 type  2   force =    -0.00000416   -0.00001066   -0.06471131
     atom    5 type  1   force =    -0.00000039    0.02701942    0.01215480
     atom    6 type  1   force =     0.02340886   -0.01350970    0.01215259
     atom    7 type  1   force =    -0.02340921   -0.01351057    0.01214858
     atom    8 type  2   force =     0.00000829    0.00001543   -0.02096654
     atom    9 type  1   force =    -0.00000211    0.00111624    0.00029441
     atom   10 type  1   force =     0.00097147   -0.00055455    0.00029108
     atom   11 type  1   force =    -0.00097317   -0.00055228    0.00029584
     atom   12 type  2   force =     0.00000618   -0.00000856    0.00106704

     Total force =     0.109453     Total SCF correction =     0.002991

     entering subroutine stress ...

     negative rho (up, down):  1.177E+00 0.000E+00
          total   stress  (Ry/bohr**3)                   (kbar)     P=  -26.16
  -0.00026199  -0.00000000  -0.00000000        -38.54     -0.00     -0.00
  -0.00000000  -0.00026200   0.00000000         -0.00    -38.54      0.00
  -0.00000000   0.00000000  -0.00000948         -0.00      0.00     -1.39

 !ASE

     Writing output data file calc.save

     General routines

     Parallel routines

   This run was terminated on:  21:10: 8  27Dec2018

   JOB DONE.
Job  /afs/slac/g/suncat/bin/suncat-tsmpirun -x LD_LIBRARY_PATH -wdir /scratch/qe110643_pjHi1 pw.x -in pw.inp

TID   HOST_NAME   COMMAND_LINE            STATUS            TERMINATION_TIME
00000 suncat0058 pw.x -in pw.inp   Done                     12/27/2018 21:10:08
00001 suncat0058 pw.x -in pw.inp   Done                     12/27/2018 21:10:08
00002 suncat0058 pw.x -in pw.inp   Done                     12/27/2018 21:10:08
00003 suncat0058 pw.x -in pw.inp   Done                     12/27/2018 21:10:08
00004 suncat0058 pw.x -in pw.inp   Done                     12/27/2018 21:10:08
00005 suncat0058 pw.x -in pw.inp   Done                     12/27/2018 21:10:08
00006 suncat0058 pw.x -in pw.inp   Done                     12/27/2018 21:10:08
00007 suncat0058 pw.x -in pw.inp   Done                     12/27/2018 21:10:08
00008 suncat0042 pw.x -in pw.inp   Done                     12/27/2018 21:10:08
00009 suncat0042 pw.x -in pw.inp   Done                     12/27/2018 21:10:08
00010 suncat0042 pw.x -in pw.inp   Done                     12/27/2018 21:10:08
00011 suncat0042 pw.x -in pw.inp   Done                     12/27/2018 21:10:08
00012 suncat0042 pw.x -in pw.inp   Done                     12/27/2018 21:10:08
00013 suncat0042 pw.x -in pw.inp   Done                     12/27/2018 21:10:08
00014 suncat0042 pw.x -in pw.inp   Done                     12/27/2018 21:10:08
00015 suncat0042 pw.x -in pw.inp   Done                     12/27/2018 21:10:08
00016 suncat0034 pw.x -in pw.inp   Done                     12/27/2018 21:10:08
00017 suncat0034 pw.x -in pw.inp   Done                     12/27/2018 21:10:08
00018 suncat0034 pw.x -in pw.inp   Done                     12/27/2018 21:10:08
00019 suncat0034 pw.x -in pw.inp   Done                     12/27/2018 21:10:08
00020 suncat0034 pw.x -in pw.inp   Done                     12/27/2018 21:10:08
00021 suncat0034 pw.x -in pw.inp   Done                     12/27/2018 21:10:08
00022 suncat0034 pw.x -in pw.inp   Done                     12/27/2018 21:10:08
00023 suncat0034 pw.x -in pw.inp   Done                     12/27/2018 21:10:08
00024 suncat0029 pw.x -in pw.inp   Done                     12/27/2018 21:10:08
00025 suncat0029 pw.x -in pw.inp   Done                     12/27/2018 21:10:08
00026 suncat0029 pw.x -in pw.inp   Done                     12/27/2018 21:10:08
00027 suncat0029 pw.x -in pw.inp   Done                     12/27/2018 21:10:08
00028 suncat0029 pw.x -in pw.inp   Done                     12/27/2018 21:10:08
00029 suncat0029 pw.x -in pw.inp   Done                     12/27/2018 21:10:08
00030 suncat0029 pw.x -in pw.inp   Done                     12/27/2018 21:10:08
00031 suncat0029 pw.x -in pw.inp   Done                     12/27/2018 21:10:08
00032 suncat0020 pw.x -in pw.inp   Done                     12/27/2018 21:10:08
00033 suncat0020 pw.x -in pw.inp   Done                     12/27/2018 21:10:08
00034 suncat0020 pw.x -in pw.inp   Done                     12/27/2018 21:10:08
00035 suncat0020 pw.x -in pw.inp   Done                     12/27/2018 21:10:08
00036 suncat0020 pw.x -in pw.inp   Done                     12/27/2018 21:10:08
00037 suncat0020 pw.x -in pw.inp   Done                     12/27/2018 21:10:08
00038 suncat0020 pw.x -in pw.inp   Done                     12/27/2018 21:10:08
00039 suncat0020 pw.x -in pw.inp   Done                     12/27/2018 21:10:08
00040 suncat0199 pw.x -in pw.inp   Done                     12/27/2018 21:10:08
00041 suncat0199 pw.x -in pw.inp   Done                     12/27/2018 21:10:08
00042 suncat0199 pw.x -in pw.inp   Done                     12/27/2018 21:10:08
00043 suncat0199 pw.x -in pw.inp   Done                     12/27/2018 21:10:08
00044 suncat0199 pw.x -in pw.inp   Done                     12/27/2018 21:10:08
00045 suncat0199 pw.x -in pw.inp   Done                     12/27/2018 21:10:08
00046 suncat0199 pw.x -in pw.inp   Done                     12/27/2018 21:10:08
00047 suncat0199 pw.x -in pw.inp   Done                     12/27/2018 21:10:08
00048 suncat0006 pw.x -in pw.inp   Done                     12/27/2018 21:10:08
00049 suncat0006 pw.x -in pw.inp   Done                     12/27/2018 21:10:08
00050 suncat0006 pw.x -in pw.inp   Done                     12/27/2018 21:10:08
00051 suncat0006 pw.x -in pw.inp   Done                     12/27/2018 21:10:08
00052 suncat0006 pw.x -in pw.inp   Done                     12/27/2018 21:10:08
00053 suncat0006 pw.x -in pw.inp   Done                     12/27/2018 21:10:08
00054 suncat0006 pw.x -in pw.inp   Done                     12/27/2018 21:10:08
00055 suncat0006 pw.x -in pw.inp   Done                     12/27/2018 21:10:08
00056 suncat0005 pw.x -in pw.inp   Done                     12/27/2018 21:10:08
00057 suncat0005 pw.x -in pw.inp   Done                     12/27/2018 21:10:08
00058 suncat0005 pw.x -in pw.inp   Done                     12/27/2018 21:10:08
00059 suncat0005 pw.x -in pw.inp   Done                     12/27/2018 21:10:08
00060 suncat0005 pw.x -in pw.inp   Done                     12/27/2018 21:10:08
00061 suncat0005 pw.x -in pw.inp   Done                     12/27/2018 21:10:08
00062 suncat0005 pw.x -in pw.inp   Done                     12/27/2018 21:10:08
00063 suncat0005 pw.x -in pw.inp   Done                     12/27/2018 21:10:08