     Program PWSCF v.5.1rc2 (svn rev. 11289) starts on  2Jan2019 at 22:10:29

     Current dimensions of program PWSCF are:
     Max number of different atomic species (ntypx) = 10
     Max number of k-points (npk) =  40000
     Max angular momentum in pseudopotentials (lmaxx) =  3
     Presently stress not available with electric field

     IMPORTANT: XC functional enforced from input :
     Exchange-correlation      = BEEF-VDW ( 1  4 27 13 2)
     Any further DFT definition will be discarded
     Please, verify this is what you really want

     Subspace diagonalization in iterative solution of the eigenvalue problem:
     a serial algorithm will be used

     bravais-lattice index     =            0
     lattice parameter (alat)  =       1.8897  a.u.
     unit-cell volume          =    5959.3402 (a.u.)^3
     number of atoms/cell      =           12
     number of atomic types    =            2
     number of electrons       =       147.00
     number of Kohn-Sham states=          103
     kinetic-energy cutoff     =      36.7493  Ry
     charge density cutoff     =     367.4932  Ry
     convergence threshold     =      1.0E-06
     mixing beta               =       0.1000
     number of iterations used =           10  plain     mixing
     Exchange-correlation      = BEEF-VDW ( 1  4 27 13 2)
     nstep                     =           50

     celldm(1)=   1.889726  celldm(2)=   0.000000  celldm(3)=   0.000000
     celldm(4)=   0.000000  celldm(5)=   0.000000  celldm(6)=   0.000000

     crystal axes: (cart. coord. in units of alat)
               a(1) = (   6.361847   0.000000   0.000000 )
               a(2) = (  -3.180924   5.509521   0.000000 )
               a(3) = (   0.000000   0.000000  25.194426 )

     reciprocal axes: (cart. coord. in units 2 pi/alat)
               b(1) = (  0.157187  0.090752  0.000000 )
               b(2) = (  0.000000  0.181504  0.000000 )
               b(3) = (  0.000000  0.000000  0.039691 )

     PseudoPot. # 1 for Zr read from file:
     /afs/slac.stanford.edu/u/if/mamunm/psp/gbrv1.5pbe/Zr.UPF
     MD5 check sum: 5db81b1e868ab7776c4564c113de050b
     Pseudo is Ultrasoft + core correction, Zval = 12.0
     Generated by new atomic code, or converted to UPF format
     Using radial grid of  887 points,  6 beta functions with:
                l(1) =   0
                l(2) =   0
                l(3) =   1
                l(4) =   1
                l(5) =   2
                l(6) =   2
     Q(r) pseudized with  6 coefficients,  rinner =    1.200   1.200   1.200
                                                       1.200   1.200

     PseudoPot. # 2 for Tl read from file:
     /afs/slac.stanford.edu/u/if/mamunm/psp/gbrv1.5pbe/Tl.UPF
     MD5 check sum: b76cf1f7e72655a2b2c53cf6385d7059
     Pseudo is Ultrasoft + core correction, Zval = 13.0
     Generated by new atomic code, or converted to UPF format
     Using radial grid of  899 points,  6 beta functions with:
                l(1) =   0
                l(2) =   0
                l(3) =   1
                l(4) =   1
                l(5) =   2
                l(6) =   2
     Q(r) pseudized with  6 coefficients,  rinner =    1.100   1.100   1.100
                                                       1.100   1.100

     vdW kernel table read from file vdW_kernel_table
     MD5 check sum: 095c7af220d748ca6e76c0b4c6cfb241

     atomic species   valence    mass     pseudopotential
        Zr1           12.00    91.22400     Zr( 1.00)
        Tl1           13.00   204.38000     Tl( 1.00)

     No symmetry found

   Cartesian axes

     site n.     atom                  positions (alat units)
         1           Zr1 tau(   1) = (   0.0000000   0.0000000  10.0000000  )
         2           Zr1 tau(   2) = (  -1.5904618   2.7547607  10.0000000  )
         3           Zr1 tau(   3) = (   1.5904618   2.7547607  10.0000000  )
         4           Tl1 tau(   4) = (   3.1809236   0.0000000  10.0000000  )
         5           Zr1 tau(   5) = (   3.1809236   1.8365071  12.5972132  )
         6           Zr1 tau(   6) = (   1.5904618   4.5912678  12.5972132  )
         7           Zr1 tau(   7) = (  -1.5904618   4.5912678  12.5972132  )
         8           Tl1 tau(   8) = (   0.0000000   1.8365071  12.5972132  )
         9           Zr1 tau(   9) = (  -0.0000000   3.6730142  15.1944265  )
        10           Zr1 tau(  10) = (   1.5904618   0.9182536  15.1944265  )
        11           Zr1 tau(  11) = (   4.7713854   0.9182536  15.1944265  )
        12           Tl1 tau(  12) = (   3.1809236   3.6730142  15.1944265  )

     number of k points=    20  Fermi-Dirac smearing, width (Ry)=  0.0110
                       cart. coord. in units 2pi/alat
        k(    1) = (   0.0000000   0.0000000   0.0000000), wk =   0.0555556
        k(    2) = (   0.0000000   0.0302507   0.0000000), wk =   0.1111111
        k(    3) = (   0.0000000   0.0605013   0.0000000), wk =   0.1111111
        k(    4) = (   0.0000000  -0.0907520   0.0000000), wk =   0.0555556
        k(    5) = (   0.0261978   0.0151253   0.0000000), wk =   0.1111111
        k(    6) = (   0.0261978   0.0453760   0.0000000), wk =   0.1111111
        k(    7) = (   0.0261978   0.0756267   0.0000000), wk =   0.1111111
        k(    8) = (   0.0261978  -0.0756267   0.0000000), wk =   0.1111111
        k(    9) = (   0.0261978  -0.0453760   0.0000000), wk =   0.1111111
        k(   10) = (   0.0261978  -0.0151253   0.0000000), wk =   0.1111111
        k(   11) = (   0.0523957   0.0302507   0.0000000), wk =   0.1111111
        k(   12) = (   0.0523957   0.0605013   0.0000000), wk =   0.1111111
        k(   13) = (   0.0523957   0.0907520   0.0000000), wk =   0.1111111
        k(   14) = (   0.0523957  -0.0605013   0.0000000), wk =   0.1111111
        k(   15) = (   0.0523957  -0.0302507   0.0000000), wk =   0.1111111
        k(   16) = (   0.0523957   0.0000000   0.0000000), wk =   0.1111111
        k(   17) = (  -0.0785935  -0.0453760   0.0000000), wk =   0.0555556
        k(   18) = (  -0.0785935  -0.0151253   0.0000000), wk =   0.1111111
        k(   19) = (  -0.0785935   0.0151253   0.0000000), wk =   0.1111111
        k(   20) = (  -0.0785935  -0.1361280   0.0000000), wk =   0.0555556

     Largest allocated arrays     est. size (Mb)     dimensions
     Largest temporary arrays     est. size (Mb)     dimensions

     Check: negative/imaginary core charge=   -0.000001    0.000000

     Initial potential from superposition of free atoms
     Check: negative starting charge=   -0.700029

     starting charge  146.96606, renormalised to  147.00000

     negative rho (up, down):  7.002E-01 0.000E+00

     *
     * You are using vdW-DF for exchange-correlation in this calculation.
     * Please cite the following three references that made this development
     * possible:
     *
     *   M. Dion, H. Rydberg, E. Schroder, D. C. Langreth, and
     *   B. I. Lundqvist, Phys. Rev. Lett. 92, 246401 (2004).
     *
     *   T. Thonhauser, V. R. Cooper, S. Li, A. Puzder, P. Hyldgaard, and
     *   D. C. Langreth, Phys. Rev. B 76, 125112 (2007).
     *
     *   G. Roman-Perez and J. M. Soler, Phys. Rev. Lett. 103, 096102 (2009).
     *
     *
     * If you are using vdW-DF2, please also cite:
     *
     *   K. Lee, E. D. Murray, L. Kong, B. I. Lundqvist, and
     *   D. C. Langreth, Phys. Rev. B 82, 081101(R) (2010).
     *
     *
     * If you are calculating the stress with vdW-DF, please also cite:
     *
     *   R. Sabatini, E. Kucukbenli, B. Kolb, T. Thonhauser, and
     *   S. de Gironcoli, J. Phys.: Condens. Matter 24, 424209 (2012).
     *

     Carrying out vdW-DF run using the following parameters:

     Nqs =      20    Nr_points =    1024   r_max =   100.000
     q_mesh =
               0.00001000     0.04494208     0.09755937     0.15916263
               0.23128650     0.31572767     0.41458969     0.53033537
               0.66584808     0.82450364     1.01025438     1.22772762
               1.48234092     1.78043706     2.12944203     2.53805004
               3.01644009     3.57652955     4.23227104     5.00000000

     Gradients computed in reciprocal space

     Adding external electric field

     Computed dipole along edir(3) :
        Dipole                0.0000 Ry au,          0.0000 Debye
        Dipole field          0.0000 Ry au

        Potential amp.       -0.0000 Ry
        Total length         46.4203 bohr

     Starting wfc are  144 randomized atomic wfcs

     Self-consistent Calculation

     iteration #  1     ecut=    36.75 Ry     beta=0.10
     Davidson diagonalization with overlap
     ethr =  1.00E-02,  avg # of iterations =  2.0

[...]

     total energy              =   -1337.65436624 Ry
     Harris-Foulkes estimate   =   -1338.45798561 Ry
     estimated scf accuracy    <       4.55962703 Ry

[...]

     End of self-consistent calculation

          k = 0.0000 0.0000 0.0000 ( 22441 PWs)   bands (ev):

   -47.7481 -47.7451 -47.6738 -47.6738 -47.6731 -47.6731 -47.3604 -47.2890
   -47.2886 -25.9757 -25.9673 -25.9182 -25.8656 -25.8656 -25.8284 -25.8284
   -25.8182 -25.8182 -25.8075 -25.7328 -25.7328 -25.7056 -25.5225 -25.5061
   -25.4681 -25.4681 -25.2976 -25.2976 -25.2893 -25.2892 -25.2216 -25.2215
   -25.2070 -25.1570 -24.9694 -24.9692  -9.8927  -9.8927  -9.8805  -9.8577
    -9.8577  -9.8120  -9.8120  -9.8094  -9.8094  -9.7929  -9.7733  -9.7253
    -9.7253  -9.7229  -9.7229  -6.1779  -5.2288  -5.0817  -1.4396  -1.3195
    -0.9100  -0.0851  -0.0851   0.1478   0.1478   0.1494   0.2063   0.3096
     0.3096   0.6323   0.6323   0.9966   0.9967   1.2540   1.3775   1.4665
     1.7845   1.7845   1.9130   1.9130   2.1321   2.1321   2.2033   2.2033
     2.2247   2.3941   2.7413   3.2151   3.6158   3.9599   3.9962   3.9962
     4.1427   4.1427   4.2669   4.2670   4.4170   4.4170   4.4947   4.6348
     4.6349   4.6632   4.7148   4.8598   4.8598   5.0277   5.1078

[...]

          k =-0.0786-0.0454 0.0000 ( 22416 PWs)   bands (ev):

[...]

     the Fermi energy is     1.6415 ev

!    total energy              =   -1338.03888076 Ry
     Harris-Foulkes estimate   =   -1338.03892618 Ry
     estimated scf accuracy    <       0.00000026 Ry

     The total energy is the sum of the following terms:

     one-electron contribution =   -8673.03850193 Ry
     hartree contribution      =    4351.90840373 Ry
     xc contribution           =    -357.68469926 Ry
     ewald contribution        =    3340.87871401 Ry
     electric field correction =       0.00000001 Ry
     smearing contrib. (-TS)   =      -0.10279731 Ry

     convergence has been achieved in  17 iterations

 BEEF-vdW xc energy contributions
           1 :   -313.152738451823
           2 :    287.856424129279
           3 :   -244.125997430272
           4 :    192.676173233758
           5 :   -143.879288978789
           6 :    104.405871456666
           7 :   -76.0225971932925
           8 :    56.5777526070728
           9 :   -42.2459746680055
          10 :    29.7594961004851
          11 :   -17.6896158333539
          12 :    6.46497686266781
          13 :    2.54560422017795
          14 :   -8.21259902904364
          15 :    10.4184836901297
          16 :   -10.1053249624300
[...]
               b(3) = (  0.000000  0.000000  0.039691 )

     PseudoPot. # 1 for Zr read from file:
     /afs/slac.stanford.edu/u/if/mamunm/psp/gbrv1.5pbe/Zr.UPF
     MD5 check sum: 5db81b1e868ab7776c4564c113de050b
     Pseudo is Ultrasoft + core correction, Zval = 12.0
     Generated by new atomic code, or converted to UPF format
     Using radial grid of  887 points,  6 beta functions with:
                l(1) =   0
                l(2) =   0
                l(3) =   1
                l(4) =   1
                l(5) =   2
                l(6) =   2
     Q(r) pseudized with  6 coefficients,  rinner =    1.200   1.200   1.200
                                                       1.200   1.200

     PseudoPot. # 2 for Tl read from file:
     /afs/slac.stanford.edu/u/if/mamunm/psp/gbrv1.5pbe/Tl.UPF
     MD5 check sum: b76cf1f7e72655a2b2c53cf6385d7059
     Pseudo is Ultrasoft + core correction, Zval = 13.0
     Generated by new atomic code, or converted to UPF format
     Using radial grid of  899 points,  6 beta functions with:
                l(1) =   0
                l(2) =   0
                l(3) =   1
                l(4) =   1
                l(5) =   2
                l(6) =   2
     Q(r) pseudized with  6 coefficients,  rinner =    1.100   1.100   1.100
                                                       1.100   1.100

     vdW kernel table read from file vdW_kernel_table
     MD5 check sum: 095c7af220d748ca6e76c0b4c6cfb241

     atomic species   valence    mass     pseudopotential
        Zr1           12.00    91.22400     Zr( 1.00)
        Tl1           13.00   204.38000     Tl( 1.00)

     No symmetry found

   Cartesian axes

     site n.     atom                  positions (alat units)
         1           Zr1 tau(   1) = (   0.0000000   0.0000000  10.0000000  )
         2           Zr1 tau(   2) = (  -1.5904618   2.7547607  10.0000000  )
         3           Zr1 tau(   3) = (   1.5904618   2.7547607  10.0000000  )
         4           Tl1 tau(   4) = (   3.1809236   0.0000000  10.0000000  )
         5           Zr1 tau(   5) = (   3.1809236   1.8365071  12.5972132  )
         6           Zr1 tau(   6) = (   1.5904618   4.5912678  12.5972132  )
         7           Zr1 tau(   7) = (  -1.5904618   4.5912678  12.5972132  )
         8           Tl1 tau(   8) = (   0.0000000   1.8365071  12.5972132  )
         9           Zr1 tau(   9) = (  -0.0001070   3.6571730  15.0989918  )
        10           Zr1 tau(  10) = (   1.5766964   0.9261723  15.0990012  )
        11           Zr1 tau(  11) = (   4.7850468   0.9262395  15.0990027  )
        12           Tl1 tau(  12) = (   3.1808588   3.6731380  15.4144971  )

     number of k points=    20  Fermi-Dirac smearing, width (Ry)=  0.0110
                       cart. coord. in units 2pi/alat
        k(    1) = (   0.0000000   0.0000000   0.0000000), wk =   0.0555556
        k(    2) = (   0.0000000   0.0302507   0.0000000), wk =   0.1111111
        k(    3) = (   0.0000000   0.0605013   0.0000000), wk =   0.1111111
        k(    4) = (   0.0000000  -0.0907520   0.0000000), wk =   0.0555556
        k(    5) = (   0.0261978   0.0151253   0.0000000), wk =   0.1111111
        k(    6) = (   0.0261978   0.0453760   0.0000000), wk =   0.1111111
        k(    7) = (   0.0261978   0.0756267   0.0000000), wk =   0.1111111
        k(    8) = (   0.0261978  -0.0756267   0.0000000), wk =   0.1111111
        k(    9) = (   0.0261978  -0.0453760   0.0000000), wk =   0.1111111
        k(   10) = (   0.0261978  -0.0151253   0.0000000), wk =   0.1111111
        k(   11) = (   0.0523957   0.0302507   0.0000000), wk =   0.1111111
        k(   12) = (   0.0523957   0.0605013   0.0000000), wk =   0.1111111
        k(   13) = (   0.0523957   0.0907520   0.0000000), wk =   0.1111111
        k(   14) = (   0.0523957  -0.0605013   0.0000000), wk =   0.1111111
        k(   15) = (   0.0523957  -0.0302507   0.0000000), wk =   0.1111111
        k(   16) = (   0.0523957   0.0000000   0.0000000), wk =   0.1111111
        k(   17) = (  -0.0785935  -0.0453760   0.0000000), wk =   0.0555556
        k(   18) = (  -0.0785935  -0.0151253   0.0000000), wk =   0.1111111
        k(   19) = (  -0.0785935   0.0151253   0.0000000), wk =   0.1111111
        k(   20) = (  -0.0785935  -0.1361280   0.0000000), wk =   0.0555556

     Largest allocated arrays     est. size (Mb)     dimensions
     Largest temporary arrays     est. size (Mb)     dimensions

     Check: negative/imaginary core charge=   -0.000001    0.000000

     Initial potential from superposition of free atoms
     Check: negative starting charge=   -0.699883

     starting charge  146.96606, renormalised to  147.00000

[...]

     *
     * You are using vdW-DF for exchange-correlation in this calculation.
     * Please cite the following three references that made this development
     * possible:
     *
     *   M. Dion, H. Rydberg, E. Schroder, D. C. Langreth, and
     *   B. I. Lundqvist, Phys. Rev. Lett. 92, 246401 (2004).
     *
     *   T. Thonhauser, V. R. Cooper, S. Li, A. Puzder, P. Hyldgaard, and
     *   D. C. Langreth, Phys. Rev. B 76, 125112 (2007).
     *
     *   G. Roman-Perez and J. M. Soler, Phys. Rev. Lett. 103, 096102 (2009).
     *
     *
     * If you are using vdW-DF2, please also cite:
     *
     *   K. Lee, E. D. Murray, L. Kong, B. I. Lundqvist, and
     *   D. C. Langreth, Phys. Rev. B 82, 081101(R) (2010).
     *
     *
     * If you are calculating the stress with vdW-DF, please also cite:
     *
     *   R. Sabatini, E. Kucukbenli, B. Kolb, T. Thonhauser, and
     *   S. de Gironcoli, J. Phys.: Condens. Matter 24, 424209 (2012).
     *

     Carrying out vdW-DF run using the following parameters:

     Nqs =      20    Nr_points =    1024   r_max =   100.000
     q_mesh =
               0.00001000     0.04494208     0.09755937     0.15916263
               0.23128650     0.31572767     0.41458969     0.53033537
               0.66584808     0.82450364     1.01025438     1.22772762
               1.48234092     1.78043706     2.12944203     2.53805004
               3.01644009     3.57652955     4.23227104     5.00000000

     Gradients computed in reciprocal space

[...]

     Starting wfc are  144 randomized atomic wfcs

     Self-consistent Calculation

[...]

     total energy              =   -1338.04766593 Ry
     Harris-Foulkes estimate   =   -1338.04766850 Ry
     estimated scf accuracy    <       0.00000323 Ry

     iteration # 17     ecut=    36.75 Ry     beta=0.10
     Davidson diagonalization with overlap
     ethr =  2.20E-09,  avg # of iterations =  2.0

[...]

     negative rho (up, down):  7.231E-01 0.000E+00

     Adding external electric field

     Computed dipole along edir(3) :
        Dipole               -0.0375 Ry au,         -0.0954 Debye
        Dipole field         -0.0001 Ry au

        Potential amp.        0.0073 Ry
        Total length         46.4203 bohr

     End of self-consistent calculation

[...]

          k = 0.0524 0.0000 0.0000 ( 22407 PWs)   bands (ev):

[...]

          k =-0.0786-0.1361 0.0000 ( 22416 PWs)   bands (ev):

   -47.7653 -47.7411 -47.7165 -47.6671 -47.6417 -47.6166 -47.3289 -47.3057
   -47.2818 -25.9282 -25.8940 -25.8802 -25.8352 -25.8143 -25.7998 -25.7600
   -25.7583 -25.7338 -25.7218 -25.6781 -25.6505 -25.6450 -25.6199 -25.5971
   -25.5579 -25.5311 -25.3828 -25.3574 -25.3284 -25.3252 -25.2986 -25.2495
   -25.1792 -25.1380 -25.1153 -24.9848  -9.9366  -9.9128  -9.9082  -9.8758
    -9.8751  -9.8470  -9.8124  -9.7965  -9.7741  -9.7699  -9.7065  -9.6775
    -9.6472  -9.6214  -9.6199  -5.4271  -4.9952  -4.6685  -2.0107  -1.3423
    -1.2691  -0.9125  -0.3187   0.0523   0.1108   0.1211   0.2351   0.3467
     0.3919   0.7735   0.8158   1.0033   1.0852   1.2164   1.3765   1.4378
     1.4461   1.5133   1.5544   1.7175   1.8176   1.8846   2.2826   2.3098
     2.3705   2.5238   2.5875   2.7086   3.0284   3.4989   3.6017   3.7030
     3.7510   3.7693   3.9563   4.0015   4.0582   4.1474   4.2106   4.2724
     4.3073   4.3373   4.4626   4.7036   4.9054   5.1585   5.2854

     the Fermi energy is     1.6005 ev

!    total energy              =   -1338.04762168 Ry
     Harris-Foulkes estimate   =   -1338.04766613 Ry
     estimated scf accuracy    <       0.00000040 Ry

     The total energy is the sum of the following terms:

     one-electron contribution =   -8684.99366666 Ry
     hartree contribution      =    4357.90572773 Ry
     xc contribution           =    -357.73669812 Ry
     ewald contribution        =    3346.88005544 Ry
     electric field correction =       0.00000297 Ry
     smearing contrib. (-TS)   =      -0.10304304 Ry

     convergence has been achieved in  17 iterations

 BEEF-vdW xc energy contributions
           1 :   -313.216070723296
           2 :    287.925262482948
           3 :   -244.200660838185
           4 :    192.748191197797
           5 :   -143.936297426720
           6 :    104.442164131330
           7 :   -76.0446189338280
           8 :    56.5977900793189
           9 :   -42.2699015585563
          10 :    29.7806787773793
          11 :   -17.6948311427533
          12 :    6.44655013135326
          13 :    2.58196065186252
          14 :   -8.25019909341995
          15 :    10.4397893541758
          16 :   -10.1026708752796
          17 :    8.70231977487742
          18 :   -7.48747806924143
          19 :    7.02662237693875
          20 :   -7.19022963045859
          21 :    7.47115747225831
          22 :   -7.39074383502145
          23 :    6.76312237180827
          24 :   -5.73195847156899
          25 :    4.62512912382630
          26 :   -3.75198524200096
          27 :    3.25843426604695
          28 :   -3.09807249127942
          29 :    3.10012036778585
          30 :   -3.07560345789472
          31 :   -30.1360178203641
          32 :   -22.3662368670413

     Forces acting on atoms (Ry/au):

     negative rho (up, down):  7.231E-01 0.000E+00
     atom    1 type  1   force =    -0.00000142    0.00238040    0.01098698
     atom    2 type  1   force =     0.00206671   -0.00119810    0.01098566
     atom    3 type  1   force =    -0.00206626   -0.00119614    0.01098520
     atom    4 type  2   force =    -0.00000126    0.00003854   -0.02416360
     atom    5 type  1   force =    -0.00000103    0.00819033    0.00064643
     atom    6 type  1   force =     0.00709246   -0.00410039    0.00064624
     atom    7 type  1   force =    -0.00709882   -0.00410273    0.00064123
     atom    8 type  2   force =    -0.00000176   -0.00000599   -0.01435291
     atom    9 type  1   force =     0.00001155   -0.00048923    0.00097350
     atom   10 type  1   force =    -0.00042056    0.00024820    0.00097615
     atom   11 type  1   force =     0.00042053    0.00023534    0.00097318
     atom   12 type  2   force =    -0.00000013   -0.00000023    0.00070194

     Total force =     0.037091     Total SCF correction =     0.001932

     entering subroutine stress ...

     negative rho (up, down):  7.231E-01 0.000E+00
          total   stress  (Ry/bohr**3)                   (kbar)     P=   -9.03
  -0.00008351  -0.00000000   0.00000001        -12.28     -0.00      0.00
  -0.00000000  -0.00008351  -0.00000001         -0.00    -12.28     -0.00
   0.00000001  -0.00000001  -0.00001712          0.00     -0.00     -2.52

 !ASE

     Writing output data file calc.save

     General routines

     Parallel routines

   This run was terminated on:  23:35: 9   2Jan2019

   JOB DONE.
Job  /afs/slac/g/suncat/bin/suncat-tsmpirun -x LD_LIBRARY_PATH -wdir /scratch/qe649575_RaHTp pw.x -in pw.inp

TID   HOST_NAME   COMMAND_LINE            STATUS            TERMINATION_TIME
00000 suncat0259 pw.x -in pw.inp   Done                     01/02/2019 23:35:09
00001 suncat0259 pw.x -in pw.inp   Done                     01/02/2019 23:35:09
00002 suncat0259 pw.x -in pw.inp   Done                     01/02/2019 23:35:09
00003 suncat0259 pw.x -in pw.inp   Done                     01/02/2019 23:35:09
00004 suncat0259 pw.x -in pw.inp   Done                     01/02/2019 23:35:09
00005 suncat0259 pw.x -in pw.inp   Done                     01/02/2019 23:35:09
00006 suncat0259 pw.x -in pw.inp   Done                     01/02/2019 23:35:09
00007 suncat0259 pw.x -in pw.inp   Done                     01/02/2019 23:35:09
00008 suncat0256 pw.x -in pw.inp   Done                     01/02/2019 23:35:09
00009 suncat0256 pw.x -in pw.inp   Done                     01/02/2019 23:35:09
00010 suncat0256 pw.x -in pw.inp   Done                     01/02/2019 23:35:09
00011 suncat0256 pw.x -in pw.inp   Done                     01/02/2019 23:35:09
00012 suncat0256 pw.x -in pw.inp   Done                     01/02/2019 23:35:09
00013 suncat0256 pw.x -in pw.inp   Done                     01/02/2019 23:35:09
00014 suncat0256 pw.x -in pw.inp   Done                     01/02/2019 23:35:09
00015 suncat0256 pw.x -in pw.inp   Done                     01/02/2019 23:35:09
00016 suncat0255 pw.x -in pw.inp   Done                     01/02/2019 23:35:09
00017 suncat0255 pw.x -in pw.inp   Done                     01/02/2019 23:35:09
00018 suncat0255 pw.x -in pw.inp   Done                     01/02/2019 23:35:09
00019 suncat0255 pw.x -in pw.inp   Done                     01/02/2019 23:35:09
00020 suncat0255 pw.x -in pw.inp   Done                     01/02/2019 23:35:09
00021 suncat0255 pw.x -in pw.inp   Done                     01/02/2019 23:35:09
00022 suncat0255 pw.x -in pw.inp   Done                     01/02/2019 23:35:09
00023 suncat0255 pw.x -in pw.inp   Done                     01/02/2019 23:35:09
00024 suncat0232 pw.x -in pw.inp   Done                     01/02/2019 23:35:09
00025 suncat0232 pw.x -in pw.inp   Done                     01/02/2019 23:35:09
00026 suncat0232 pw.x -in pw.inp   Done                     01/02/2019 23:35:09
00027 suncat0232 pw.x -in pw.inp   Done                     01/02/2019 23:35:09
00028 suncat0232 pw.x -in pw.inp   Done                     01/02/2019 23:35:09
00029 suncat0232 pw.x -in pw.inp   Done                     01/02/2019 23:35:09
00030 suncat0232 pw.x -in pw.inp   Done                     01/02/2019 23:35:09
00031 suncat0232 pw.x -in pw.inp   Done                     01/02/2019 23:35:09
00032 suncat0220 pw.x -in pw.inp   Done                     01/02/2019 23:35:09
00033 suncat0220 pw.x -in pw.inp   Done                     01/02/2019 23:35:09
00034 suncat0220 pw.x -in pw.inp   Done                     01/02/2019 23:35:09
00035 suncat0220 pw.x -in pw.inp   Done                     01/02/2019 23:35:09
00036 suncat0220 pw.x -in pw.inp   Done                     01/02/2019 23:35:09
00037 suncat0220 pw.x -in pw.inp   Done                     01/02/2019 23:35:09
00038 suncat0220 pw.x -in pw.inp   Done                     01/02/2019 23:35:09
00039 suncat0220 pw.x -in pw.inp   Done                     01/02/2019 23:35:09
00040 suncat0219 pw.x -in pw.inp   Done                     01/02/2019 23:35:09
00041 suncat0219 pw.x -in pw.inp   Done                     01/02/2019 23:35:09
00042 suncat0219 pw.x -in pw.inp   Done                     01/02/2019 23:35:09
00043 suncat0219 pw.x -in pw.inp   Done                     01/02/2019 23:35:09
00044 suncat0219 pw.x -in pw.inp   Done                     01/02/2019 23:35:09
00045 suncat0219 pw.x -in pw.inp   Done                     01/02/2019 23:35:09
00046 suncat0219 pw.x -in pw.inp   Done                     01/02/2019 23:35:09
00047 suncat0219 pw.x -in pw.inp   Done                     01/02/2019 23:35:09
00048 suncat0201 pw.x -in pw.inp   Done                     01/02/2019 23:35:09
00049 suncat0201 pw.x -in pw.inp   Done                     01/02/2019 23:35:09
00050 suncat0201 pw.x -in pw.inp   Done                     01/02/2019 23:35:09
00051 suncat0201 pw.x -in pw.inp   Done                     01/02/2019 23:35:09
00052 suncat0201 pw.x -in pw.inp   Done                     01/02/2019 23:35:09
00053 suncat0201 pw.x -in pw.inp   Done                     01/02/2019 23:35:09
00054 suncat0201 pw.x -in pw.inp   Done                     01/02/2019 23:35:09
00055 suncat0201 pw.x -in pw.inp   Done                     01/02/2019 23:35:09
00056 suncat0200 pw.x -in pw.inp   Done                     01/02/2019 23:35:09
00057 suncat0200 pw.x -in pw.inp   Done                     01/02/2019 23:35:09
00058 suncat0200 pw.x -in pw.inp   Done                     01/02/2019 23:35:09
00059 suncat0200 pw.x -in pw.inp   Done                     01/02/2019 23:35:09
00060 suncat0200 pw.x -in pw.inp   Done                     01/02/2019 23:35:09
00061 suncat0200 pw.x -in pw.inp   Done                     01/02/2019 23:35:09
00062 suncat0200 pw.x -in pw.inp   Done                     01/02/2019 23:35:09
00063 suncat0200 pw.x -in pw.inp   Done                     01/02/2019 23:35:09