     Program PWSCF v.5.1rc2 (svn rev. 11289) starts on 27Dec2018 at 21:45:24

     Current dimensions of program PWSCF are:
     Max number of different atomic species (ntypx) = 10
     Max number of k-points (npk) =  40000
     Max angular momentum in pseudopotentials (lmaxx) =  3
     Presently stress not available with electric field

     IMPORTANT: XC functional enforced from input :
     Exchange-correlation      = BEEF-VDW ( 1  4 27 13 2)
     Any further DFT definition will be discarded
     Please, verify this is what you really want

     Subspace diagonalization in iterative solution of the eigenvalue problem:
     a serial algorithm will be used

     bravais-lattice index     =            0
     lattice parameter (alat)  =       1.8897  a.u.
     unit-cell volume          =    4372.7471 (a.u.)^3
     number of atoms/cell      =           12
     number of atomic types    =            2
     number of electrons       =       183.00
     number of Kohn-Sham states=          121
     kinetic-energy cutoff     =      36.7493  Ry
     charge density cutoff     =     367.4932  Ry
     convergence threshold     =      1.0E-06
     mixing beta               =       0.1000
     number of iterations used =           10  plain     mixing
     Exchange-correlation      = BEEF-VDW ( 1  4 27 13 2)
     nstep                     =           50

     celldm(1)=   1.889726  celldm(2)=   0.000000  celldm(3)=   0.000000
     celldm(4)=   0.000000  celldm(5)=   0.000000  celldm(6)=   0.000000

     crystal axes: (cart. coord. in units of alat)
               a(1) = (   5.524994   0.000000   0.000000 )
               a(2) = (  -2.762497   4.784785   0.000000 )
               a(3) = (   0.000000   0.000000  24.511139 )

     reciprocal axes: (cart. coord. in units 2 pi/alat)
               b(1) = (  0.180996  0.104498  0.000000 )
               b(2) = (  0.000000  0.208996  0.000000 )
               b(3) = (  0.000000  0.000000  0.040798 )

     PseudoPot. # 1 for Ru read from file:
     /afs/slac.stanford.edu/u/if/mamunm/psp/gbrv1.5pbe/Ru.UPF
     MD5 check sum: 7158a806dd851261a58e6920c40ebe78
     Pseudo is Ultrasoft + core correction, Zval = 16.0
     Generated by new atomic code, or converted to UPF format
     Using radial grid of  967 points,  6 beta functions with:
                l(1) =   0
                l(2) =   0
                l(3) =   1
                l(4) =   1
                l(5) =   2
                l(6) =   2
     Q(r) pseudized with  8 coefficients,  rinner =    1.300   1.300   1.300
                                                       1.300   1.300

     PseudoPot. # 2 for Ta read from file:
     /afs/slac.stanford.edu/u/if/mamunm/psp/gbrv1.5pbe/Ta.UPF
     MD5 check sum: f8bbe9446314a3b8ea5d9f3e3836c939
     Pseudo is Ultrasoft + core correction, Zval = 13.0
     Generated by new atomic code, or converted to UPF format
     Using radial grid of  921 points,  7 beta functions with:
                l(1) =   0
                l(2) =   0
                l(3) =   1
                l(4) =   1
                l(5) =   2
                l(6) =   2
                l(7) =   3
     Q(r) pseudized with  6 coefficients,  rinner =    1.300   1.300   1.300
                                                       1.300   1.300   1.300
                                                       1.300

     vdW kernel table read from file vdW_kernel_table
     MD5 check sum: 095c7af220d748ca6e76c0b4c6cfb241

     atomic species   valence    mass     pseudopotential
        Ru1           16.00   101.07000     Ru( 1.00)
        Ta1           13.00   180.94788     Ta( 1.00)

     No symmetry found

   Cartesian axes

     site n.     atom                  positions (alat units)
         1           Ru1 tau(   1) = (   0.0000000   0.0000000  10.0000000  )
         2           Ru1 tau(   2) = (  -1.3812485   2.3923926  10.0000000  )
         3           Ru1 tau(   3) = (   1.3812485   2.3923926  10.0000000  )
         4           Ta1 tau(   4) = (   2.7624970   0.0000000  10.0000000  )
         5           Ru1 tau(   5) = (   2.7624970   1.5949284  12.2555694  )
         6           Ru1 tau(   6) = (   1.3812485   3.9873210  12.2555694  )
         7           Ru1 tau(   7) = (  -1.3812485   3.9873210  12.2555694  )
         8           Ta1 tau(   8) = (   0.0000000   1.5949284  12.2555694  )
         9           Ru1 tau(   9) = (  -0.0000000   3.1898568  14.5111388  )
        10           Ru1 tau(  10) = (   1.3812485   0.7974642  14.5111388  )
        11           Ru1 tau(  11) = (   4.1437456   0.7974642  14.5111388  )
        12           Ta1 tau(  12) = (   2.7624970   3.1898568  14.5111388  )

     number of k points=    20  Fermi-Dirac smearing, width (Ry)=  0.0110
                       cart. coord. in units 2pi/alat
        k(    1) = (   0.0000000   0.0000000   0.0000000), wk =   0.0555556
        k(    2) = (   0.0000000   0.0348326   0.0000000), wk =   0.1111111
        k(    3) = (   0.0000000   0.0696653   0.0000000), wk =   0.1111111
        k(    4) = (   0.0000000  -0.1044979   0.0000000), wk =   0.0555556
        k(    5) = (   0.0301659   0.0174163   0.0000000), wk =   0.1111111
        k(    6) = (   0.0301659   0.0522489   0.0000000), wk =   0.1111111
        k(    7) = (   0.0301659   0.0870816   0.0000000), wk =   0.1111111
        k(    8) = (   0.0301659  -0.0870816   0.0000000), wk =   0.1111111
        k(    9) = (   0.0301659  -0.0522489   0.0000000), wk =   0.1111111
        k(   10) = (   0.0301659  -0.0174163   0.0000000), wk =   0.1111111
        k(   11) = (   0.0603319   0.0348326   0.0000000), wk =   0.1111111
        k(   12) = (   0.0603319   0.0696653   0.0000000), wk =   0.1111111
        k(   13) = (   0.0603319   0.1044979   0.0000000), wk =   0.1111111
        k(   14) = (   0.0603319  -0.0696653   0.0000000), wk =   0.1111111
        k(   15) = (   0.0603319  -0.0348326   0.0000000), wk =   0.1111111
        k(   16) = (   0.0603319   0.0000000   0.0000000), wk =   0.1111111
        k(   17) = (  -0.0904978  -0.0522489   0.0000000), wk =   0.0555556
        k(   18) = (  -0.0904978  -0.0174163   0.0000000), wk =   0.1111111
        k(   19) = (  -0.0904978   0.0174163   0.0000000), wk =   0.1111111
        k(   20) = (  -0.0904978  -0.1567468   0.0000000), wk =   0.0555556

     Largest allocated arrays     est. size (Mb)     dimensions
     Largest temporary arrays     est. size (Mb)     dimensions

     Initial potential from superposition of free atoms
     Check: negative starting charge=   -0.940011

     starting charge  173.99652, renormalised to  183.00000

     negative rho (up, down):  9.887E-01 0.000E+00

     *
     * You are using vdW-DF for exchange-correlation in this calculation.
     * Please cite the following three references that made this development
     * possible:
     *
     *   M. Dion, H. Rydberg, E. Schroder, D. C. Langreth, and
     *   B. I. Lundqvist, Phys. Rev. Lett. 92, 246401 (2004).
     *
     *   T. Thonhauser, V. R. Cooper, S. Li, A. Puzder, P. Hyldgaard, and
     *   D. C. Langreth, Phys. Rev. B 76, 125112 (2007).
     *
     *   G. Roman-Perez and J. M. Soler, Phys. Rev. Lett. 103, 096102 (2009).
     *
     *
     * If you are using vdW-DF2, please also cite:
     *
     *   K. Lee, E. D. Murray, L. Kong, B. I. Lundqvist, and
     *   D. C. Langreth, Phys. Rev. B 82, 081101(R) (2010).
     *
     *
     * If you are calculating the stress with vdW-DF, please also cite:
     *
     *   R. Sabatini, E. Kucukbenli, B. Kolb, T. Thonhauser, and
     *   S. de Gironcoli, J. Phys.: Condens. Matter 24, 424209 (2012).
     *

     Carrying out vdW-DF run using the following parameters:

     Nqs =      20    Nr_points =    1024   r_max =   100.000
     q_mesh =
               0.00001000     0.04494208     0.09755937     0.15916263
               0.23128650     0.31572767     0.41458969     0.53033537
               0.66584808     0.82450364     1.01025438     1.22772762
               1.48234092     1.78043706     2.12944203     2.53805004
               3.01644009     3.57652955     4.23227104     5.00000000

     Gradients computed in reciprocal space

     Adding external electric field

     Computed dipole along edir(3) :
        Dipole                0.0000 Ry au,          0.0000 Debye
        Dipole field          0.0000 Ry au

        Potential amp.       -0.0000 Ry
        Total length         45.1614 bohr

     Starting wfc are  156 randomized atomic wfcs

     Self-consistent Calculation

     iteration #  1     ecut=    36.75 Ry     beta=0.10
     Davidson diagonalization with overlap
     ethr =  1.00E-02,  avg # of iterations =  6.5

[...]

     total energy              =   -2187.04200085 Ry
     Harris-Foulkes estimate   =   -2188.48965984 Ry
     estimated scf accuracy    <       9.43913065 Ry

[...]

     End of self-consistent calculation

          k = 0.0000 0.0000 0.0000 ( 16415 PWs)   bands (ev):

   -70.4868 -70.4245 -70.4244 -70.1163 -70.1141 -70.0559 -70.0559 -70.0553
   -70.0553 -66.3170 -66.3166 -66.0607 -40.7068 -40.5814 -40.5814 -40.5680
   -40.4814 -40.4814 -40.3768 -40.3495 -40.2852 -40.1695 -40.1695 -40.1617
   -40.1617 -40.1074 -40.1074 -40.0860 -40.0273 -40.0273 -40.0106 -39.9820
   -39.9820 -39.8771 -39.8671 -39.8303 -39.8303 -39.8282 -39.8282 -32.7592
   -32.7377 -32.5355 -32.5355 -32.5305 -32.5304 -32.3967 -32.3967 -32.3473
    -4.5738  -3.0630  -2.9050  -2.7032  -2.7032  -2.6602  -2.4099  -2.2770
    -2.2770  -2.0747  -2.0747  -2.0108  -1.7917  -1.7265  -1.7265  -0.6322
    -0.5853  -0.5853   0.0029   0.0029   0.1619   0.3907   0.4317   0.6364
     0.6916   0.6916   0.9241   0.9241   1.2138   1.2138   1.2871   1.2871
     1.3243   1.3243   1.9743   2.1434   2.1856   2.4525   2.4525   2.4907
     2.4907   2.6614   2.6614   3.2865   3.3451   3.4571   3.4571   3.4648
     4.0163   4.3642   4.3850   4.3850   4.4160   4.7765   4.7765   4.8390
     5.0409   5.0409   5.0499   5.5912   5.5912   5.8229   5.8229   5.9981
     5.9981   6.4434   6.4434   6.5877   6.7305   7.0979   7.0979   7.2306
     7.4156

[...]

          k =-0.0905-0.0522 0.0000 ( 16456 PWs)   bands (ev):

[...]

     the Fermi energy is     2.3898 ev

!    total energy              =   -2185.74737206 Ry
     Harris-Foulkes estimate   =   -2185.74737999 Ry
     estimated scf accuracy    <       0.00000099 Ry

     The total energy is the sum of the following terms:

     one-electron contribution =  -18947.57976435 Ry
     hartree contribution      =    9470.59322458 Ry
     xc contribution           =    -372.29646368 Ry
     ewald contribution        =    7663.62340303 Ry
     electric field correction =       0.00000000 Ry
     smearing contrib. (-TS)   =      -0.08777164 Ry

     convergence has been achieved in  16 iterations

 BEEF-vdW xc energy contributions
           1 :   -324.713530838801
           2 :    298.816036099318
           3 :   -253.758113730768
           4 :    200.358497960101
           5 :   -149.662003031878
           6 :    109.546615627021
           7 :   -82.9670091440124
           8 :    68.2293956850798
           9 :   -60.8318151851983
          10 :    55.8676503341934
[...]
     Pseudo is Ultrasoft + core correction, Zval = 16.0
     Generated by new atomic code, or converted to UPF format
     Using radial grid of  967 points,  6 beta functions with:
                l(1) =   0
                l(2) =   0
                l(3) =   1
                l(4) =   1
                l(5) =   2
                l(6) =   2
     Q(r) pseudized with  8 coefficients,  rinner =    1.300   1.300   1.300
                                                       1.300   1.300

     PseudoPot. # 2 for Ta read from file:
     /afs/slac.stanford.edu/u/if/mamunm/psp/gbrv1.5pbe/Ta.UPF
     MD5 check sum: f8bbe9446314a3b8ea5d9f3e3836c939
     Pseudo is Ultrasoft + core correction, Zval = 13.0
     Generated by new atomic code, or converted to UPF format
     Using radial grid of  921 points,  7 beta functions with:
                l(1) =   0
                l(2) =   0
                l(3) =   1
                l(4) =   1
                l(5) =   2
                l(6) =   2
                l(7) =   3
     Q(r) pseudized with  6 coefficients,  rinner =    1.300   1.300   1.300
                                                       1.300   1.300   1.300
                                                       1.300

     vdW kernel table read from file vdW_kernel_table
     MD5 check sum: 095c7af220d748ca6e76c0b4c6cfb241

     atomic species   valence    mass     pseudopotential
        Ru1           16.00   101.07000     Ru( 1.00)
        Ta1           13.00   180.94788     Ta( 1.00)

     No symmetry found

   Cartesian axes

     site n.     atom                  positions (alat units)
         1           Ru1 tau(   1) = (   0.0000000   0.0000000  10.0000000  )
         2           Ru1 tau(   2) = (  -1.3812485   2.3923926  10.0000000  )
         3           Ru1 tau(   3) = (   1.3812485   2.3923926  10.0000000  )
         4           Ta1 tau(   4) = (   2.7624970   0.0000000  10.0000000  )
         5           Ru1 tau(   5) = (   2.7624970   1.5949284  12.2555694  )
         6           Ru1 tau(   6) = (   1.3812485   3.9873210  12.2555694  )
         7           Ru1 tau(   7) = (  -1.3812485   3.9873210  12.2555694  )
         8           Ta1 tau(   8) = (   0.0000000   1.5949284  12.2555694  )
         9           Ru1 tau(   9) = (  -0.0000023   3.1980451  14.4349834  )
        10           Ru1 tau(  10) = (   1.3883301   0.7933735  14.4349835  )
        11           Ru1 tau(  11) = (   4.1366369   0.7933620  14.4349914  )
        12           Ta1 tau(  12) = (   2.7624916   3.1898555  14.3487889  )

     number of k points=    20  Fermi-Dirac smearing, width (Ry)=  0.0110
                       cart. coord. in units 2pi/alat
        k(    1) = (   0.0000000   0.0000000   0.0000000), wk =   0.0555556
        k(    2) = (   0.0000000   0.0348326   0.0000000), wk =   0.1111111
        k(    3) = (   0.0000000   0.0696653   0.0000000), wk =   0.1111111
        k(    4) = (   0.0000000  -0.1044979   0.0000000), wk =   0.0555556
        k(    5) = (   0.0301659   0.0174163   0.0000000), wk =   0.1111111
        k(    6) = (   0.0301659   0.0522489   0.0000000), wk =   0.1111111
        k(    7) = (   0.0301659   0.0870816   0.0000000), wk =   0.1111111
        k(    8) = (   0.0301659  -0.0870816   0.0000000), wk =   0.1111111
        k(    9) = (   0.0301659  -0.0522489   0.0000000), wk =   0.1111111
        k(   10) = (   0.0301659  -0.0174163   0.0000000), wk =   0.1111111
        k(   11) = (   0.0603319   0.0348326   0.0000000), wk =   0.1111111
        k(   12) = (   0.0603319   0.0696653   0.0000000), wk =   0.1111111
        k(   13) = (   0.0603319   0.1044979   0.0000000), wk =   0.1111111
        k(   14) = (   0.0603319  -0.0696653   0.0000000), wk =   0.1111111
        k(   15) = (   0.0603319  -0.0348326   0.0000000), wk =   0.1111111
        k(   16) = (   0.0603319   0.0000000   0.0000000), wk =   0.1111111
        k(   17) = (  -0.0904978  -0.0522489   0.0000000), wk =   0.0555556
        k(   18) = (  -0.0904978  -0.0174163   0.0000000), wk =   0.1111111
        k(   19) = (  -0.0904978   0.0174163   0.0000000), wk =   0.1111111
        k(   20) = (  -0.0904978  -0.1567468   0.0000000), wk =   0.0555556

     Largest allocated arrays     est. size (Mb)     dimensions
     Largest temporary arrays     est. size (Mb)     dimensions

     Initial potential from superposition of free atoms
     Check: negative starting charge=   -0.942685

     starting charge  173.99652, renormalised to  183.00000

[...]

     *
     * You are using vdW-DF for exchange-correlation in this calculation.
     * Please cite the following three references that made this development
     * possible:
     *
     *   M. Dion, H. Rydberg, E. Schroder, D. C. Langreth, and
     *   B. I. Lundqvist, Phys. Rev. Lett. 92, 246401 (2004).
     *
     *   T. Thonhauser, V. R. Cooper, S. Li, A. Puzder, P. Hyldgaard, and
     *   D. C. Langreth, Phys. Rev. B 76, 125112 (2007).
     *
     *   G. Roman-Perez and J. M. Soler, Phys. Rev. Lett. 103, 096102 (2009).
     *
     *
     * If you are using vdW-DF2, please also cite:
     *
     *   K. Lee, E. D. Murray, L. Kong, B. I. Lundqvist, and
     *   D. C. Langreth, Phys. Rev. B 82, 081101(R) (2010).
     *
     *
     * If you are calculating the stress with vdW-DF, please also cite:
     *
     *   R. Sabatini, E. Kucukbenli, B. Kolb, T. Thonhauser, and
     *   S. de Gironcoli, J. Phys.: Condens. Matter 24, 424209 (2012).
     *

     Carrying out vdW-DF run using the following parameters:

     Nqs =      20    Nr_points =    1024   r_max =   100.000
     q_mesh =
               0.00001000     0.04494208     0.09755937     0.15916263
               0.23128650     0.31572767     0.41458969     0.53033537
               0.66584808     0.82450364     1.01025438     1.22772762
               1.48234092     1.78043706     2.12944203     2.53805004
               3.01644009     3.57652955     4.23227104     5.00000000

     Gradients computed in reciprocal space

[...]

     Starting wfc are  156 randomized atomic wfcs

     Self-consistent Calculation

[...]

     total energy              =   -2185.76027398 Ry
     Harris-Foulkes estimate   =   -2185.76027607 Ry
     estimated scf accuracy    <       0.00000207 Ry

     iteration # 18     ecut=    36.75 Ry     beta=0.10
     Davidson diagonalization with overlap
     ethr =  1.13E-09,  avg # of iterations =  2.2

[...]

     negative rho (up, down):  9.820E-01 0.000E+00

     Adding external electric field

     Computed dipole along edir(3) :
        Dipole                0.0263 Ry au,          0.0668 Debye
        Dipole field          0.0001 Ry au

        Potential amp.       -0.0068 Ry
        Total length         45.1614 bohr

     End of self-consistent calculation

[...]

          k = 0.0603 0.0000 0.0000 ( 16456 PWs)   bands (ev):

[...]

          k =-0.0905-0.1567 0.0000 ( 16456 PWs)   bands (ev):

   -70.4992 -70.4785 -70.4572 -70.0929 -70.0760 -70.0732 -70.0563 -70.0534
   -70.0363 -66.3525 -66.1237 -66.0031 -40.6589 -40.5896 -40.5763 -40.5299
   -40.4854 -40.4829 -40.4388 -40.4289 -40.2510 -40.2208 -40.2207 -40.0795
   -40.0540 -40.0528 -40.0357 -40.0300 -40.0224 -40.0161 -40.0092 -39.9978
   -39.9920 -39.9875 -39.9706 -39.9642 -39.9598 -39.8415 -39.8242 -32.7935
   -32.5964 -32.5723 -32.5643 -32.4195 -32.3979 -32.3867 -32.3643 -32.2958
    -3.0301  -2.8630  -2.0651  -1.8983  -1.8693  -1.7865  -1.7709  -1.6083
    -1.5010  -1.4185  -1.3084  -1.0907  -1.0100  -0.8991  -0.8424  -0.7410
    -0.5084  -0.4234  -0.3932  -0.1957  -0.0221   0.0818   0.3138   0.5023
     0.5768   0.6119   0.6950   0.7252   0.7835   0.8378   0.8883   0.9093
     0.9224   1.0127   1.0853   1.1439   1.2433   1.4543   1.4738   1.6379
     1.7462   1.7958   1.8569   2.1205   2.3502   2.3557   2.5932   2.7665
     2.8028   2.9215   3.3425   3.3486   3.7193   3.9753   4.0486   4.0838
     4.2877   4.3427   4.7431   4.8106   4.8228   5.3955   5.5358   5.6352
     5.9005   6.4254   6.4416   7.2735   7.3984   7.6849   8.1997   8.2167
     8.4471

     the Fermi energy is     2.3955 ev

!    total energy              =   -2185.76026998 Ry
     Harris-Foulkes estimate   =   -2185.76027422 Ry
     estimated scf accuracy    <       0.00000058 Ry

     The total energy is the sum of the following terms:

     one-electron contribution =  -19203.02690640 Ry
     hartree contribution      =    9598.34567380 Ry
     xc contribution           =    -372.53433121 Ry
     ewald contribution        =    7791.53942751 Ry
     electric field correction =       0.00000199 Ry
     smearing contrib. (-TS)   =      -0.08413566 Ry

     convergence has been achieved in  18 iterations

 BEEF-vdW xc energy contributions
           1 :   -324.955732156070
           2 :    299.142618730222
           3 :   -254.196790752234
           4 :    200.854689763070
           5 :   -150.100116702981
           6 :    109.809260841185
           7 :   -83.0003510407922
           8 :    68.0771988986264
           9 :   -60.6177297708933
          10 :    55.7345998078090
          11 :   -49.9910322193388
          12 :    42.2395074159861
          13 :   -33.3222346625344
          14 :    25.0413398274843
          15 :   -18.9999584718820
          16 :    15.8228259794551
          17 :   -14.9955890236450
          18 :    15.2592911560121
          19 :   -15.2790813519745
          20 :    14.2392915838776
          21 :   -12.1037538501487
          22 :    9.47267640393289
          23 :   -7.16898159479967
          24 :    5.79407810333362
          25 :   -5.46627370920430
          26 :    5.83257570054235
          27 :   -6.30125067340504
          28 :    6.34916197208508
          29 :   -5.74903522095195
          30 :    4.62582402104368
          31 :   -31.9837192014770
          32 :   -24.1235103539935

     Forces acting on atoms (Ry/au):

     negative rho (up, down):  9.820E-01 0.000E+00
     atom    1 type  1   force =    -0.00000056   -0.00238552    0.01227430
     atom    2 type  1   force =    -0.00206696    0.00119259    0.01227742
     atom    3 type  1   force =     0.00206451    0.00119152    0.01227180
     atom    4 type  2   force =     0.00000065    0.00000098    0.04153965
     atom    5 type  1   force =    -0.00000012   -0.00251507   -0.02265543
     atom    6 type  1   force =    -0.00217670    0.00125865   -0.02265764
     atom    7 type  1   force =     0.00217492    0.00125786   -0.02265731
     atom    8 type  2   force =    -0.00000236   -0.00000310   -0.01002834
     atom    9 type  1   force =    -0.00000102    0.00008637   -0.00006799
     atom   10 type  1   force =     0.00007599   -0.00004443   -0.00006790
     atom   11 type  1   force =    -0.00006946   -0.00003943   -0.00006413
     atom   12 type  2   force =     0.00000111   -0.00000041   -0.00016444

     Total force =     0.062082     Total SCF correction =     0.001524

     entering subroutine stress ...

     negative rho (up, down):  9.820E-01 0.000E+00
          total   stress  (Ry/bohr**3)                   (kbar)     P=  -20.51
  -0.00016308  -0.00000000   0.00000000        -23.99     -0.00      0.00
  -0.00000000  -0.00016308   0.00000000         -0.00    -23.99      0.00
   0.00000000   0.00000000  -0.00009202          0.00      0.00    -13.54

 !ASE

     Writing output data file calc.save

     General routines

     Parallel routines

   This run was terminated on:  23: 7:59  27Dec2018

   JOB DONE.
Job  /afs/slac/g/suncat/bin/suncat-tsmpirun -x LD_LIBRARY_PATH -wdir /scratch/qe110804_dNfwO pw.x -in pw.inp

TID   HOST_NAME   COMMAND_LINE            STATUS            TERMINATION_TIME
00000 suncat0085 pw.x -in pw.inp   Done                     12/27/2018 23:07:59
00001 suncat0085 pw.x -in pw.inp   Done                     12/27/2018 23:07:59
00002 suncat0085 pw.x -in pw.inp   Done                     12/27/2018 23:07:59
00003 suncat0085 pw.x -in pw.inp   Done                     12/27/2018 23:07:59
00004 suncat0085 pw.x -in pw.inp   Done                     12/27/2018 23:07:59
00005 suncat0085 pw.x -in pw.inp   Done                     12/27/2018 23:07:59
00006 suncat0085 pw.x -in pw.inp   Done                     12/27/2018 23:07:59
00007 suncat0085 pw.x -in pw.inp   Done                     12/27/2018 23:07:59
00008 suncat0084 pw.x -in pw.inp   Done                     12/27/2018 23:07:59
00009 suncat0084 pw.x -in pw.inp   Done                     12/27/2018 23:07:59
00010 suncat0084 pw.x -in pw.inp   Done                     12/27/2018 23:07:59
00011 suncat0084 pw.x -in pw.inp   Done                     12/27/2018 23:07:59
00012 suncat0084 pw.x -in pw.inp   Done                     12/27/2018 23:07:59
00013 suncat0084 pw.x -in pw.inp   Done                     12/27/2018 23:07:59
00014 suncat0084 pw.x -in pw.inp   Done                     12/27/2018 23:07:59
00015 suncat0084 pw.x -in pw.inp   Done                     12/27/2018 23:07:59
00016 suncat0083 pw.x -in pw.inp   Done                     12/27/2018 23:07:59
00017 suncat0083 pw.x -in pw.inp   Done                     12/27/2018 23:07:59
00018 suncat0083 pw.x -in pw.inp   Done                     12/27/2018 23:07:59
00019 suncat0083 pw.x -in pw.inp   Done                     12/27/2018 23:07:59
00020 suncat0083 pw.x -in pw.inp   Done                     12/27/2018 23:07:59
00021 suncat0083 pw.x -in pw.inp   Done                     12/27/2018 23:07:59
00022 suncat0083 pw.x -in pw.inp   Done                     12/27/2018 23:07:59
00023 suncat0083 pw.x -in pw.inp   Done                     12/27/2018 23:07:59
00024 suncat0081 pw.x -in pw.inp   Done                     12/27/2018 23:07:59
00025 suncat0081 pw.x -in pw.inp   Done                     12/27/2018 23:07:59
00026 suncat0081 pw.x -in pw.inp   Done                     12/27/2018 23:07:59
00027 suncat0081 pw.x -in pw.inp   Done                     12/27/2018 23:07:59
00028 suncat0081 pw.x -in pw.inp   Done                     12/27/2018 23:07:59
00029 suncat0081 pw.x -in pw.inp   Done                     12/27/2018 23:07:59
00030 suncat0081 pw.x -in pw.inp   Done                     12/27/2018 23:07:59
00031 suncat0081 pw.x -in pw.inp   Done                     12/27/2018 23:07:59
00032 suncat0073 pw.x -in pw.inp   Done                     12/27/2018 23:07:59
00033 suncat0073 pw.x -in pw.inp   Done                     12/27/2018 23:07:59
00034 suncat0073 pw.x -in pw.inp   Done                     12/27/2018 23:07:59
00035 suncat0073 pw.x -in pw.inp   Done                     12/27/2018 23:07:59
00036 suncat0073 pw.x -in pw.inp   Done                     12/27/2018 23:07:59
00037 suncat0073 pw.x -in pw.inp   Done                     12/27/2018 23:07:59
00038 suncat0073 pw.x -in pw.inp   Done                     12/27/2018 23:07:59
00039 suncat0073 pw.x -in pw.inp   Done                     12/27/2018 23:07:59
00040 suncat0244 pw.x -in pw.inp   Done                     12/27/2018 23:07:59
00041 suncat0244 pw.x -in pw.inp   Done                     12/27/2018 23:07:59
00042 suncat0244 pw.x -in pw.inp   Done                     12/27/2018 23:07:59
00043 suncat0244 pw.x -in pw.inp   Done                     12/27/2018 23:07:59
00044 suncat0244 pw.x -in pw.inp   Done                     12/27/2018 23:07:59
00045 suncat0244 pw.x -in pw.inp   Done                     12/27/2018 23:07:59
00046 suncat0244 pw.x -in pw.inp   Done                     12/27/2018 23:07:59
00047 suncat0244 pw.x -in pw.inp   Done                     12/27/2018 23:07:59
00048 suncat0243 pw.x -in pw.inp   Done                     12/27/2018 23:07:59
00049 suncat0243 pw.x -in pw.inp   Done                     12/27/2018 23:07:59
00050 suncat0243 pw.x -in pw.inp   Done                     12/27/2018 23:07:59
00051 suncat0243 pw.x -in pw.inp   Done                     12/27/2018 23:07:59
00052 suncat0243 pw.x -in pw.inp   Done                     12/27/2018 23:07:59
00053 suncat0243 pw.x -in pw.inp   Done                     12/27/2018 23:07:59
00054 suncat0243 pw.x -in pw.inp   Done                     12/27/2018 23:07:59
00055 suncat0243 pw.x -in pw.inp   Done                     12/27/2018 23:07:59
00056 suncat0242 pw.x -in pw.inp   Done                     12/27/2018 23:07:59
00057 suncat0242 pw.x -in pw.inp   Done                     12/27/2018 23:07:59
00058 suncat0242 pw.x -in pw.inp   Done                     12/27/2018 23:07:59
00059 suncat0242 pw.x -in pw.inp   Done                     12/27/2018 23:07:59
00060 suncat0242 pw.x -in pw.inp   Done                     12/27/2018 23:07:59
00061 suncat0242 pw.x -in pw.inp   Done                     12/27/2018 23:07:59
00062 suncat0242 pw.x -in pw.inp   Done                     12/27/2018 23:07:59
00063 suncat0242 pw.x -in pw.inp   Done                     12/27/2018 23:07:59