     Program PWSCF v.5.1rc2 (svn rev. 11289) starts on 31Dec2018 at 17: 5:59

     Current dimensions of program PWSCF are:
     Max number of different atomic species (ntypx) = 10
     Max number of k-points (npk) =  40000
     Max angular momentum in pseudopotentials (lmaxx) =  3
     Presently stress not available with electric field

     IMPORTANT: XC functional enforced from input :
     Exchange-correlation      = BEEF-VDW ( 1  4 27 13 2)
     Any further DFT definition will be discarded
     Please, verify this is what you really want

     Subspace diagonalization in iterative solution of the eigenvalue problem:
     a serial algorithm will be used

     bravais-lattice index     =            0
     lattice parameter (alat)  =       1.8897  a.u.
     unit-cell volume          =    4992.8928 (a.u.)^3
     number of atoms/cell      =           12
     number of atomic types    =            2
     number of electrons       =       186.00
     number of Kohn-Sham states=          123
     kinetic-energy cutoff     =      36.7493  Ry
     charge density cutoff     =     367.4932  Ry
     convergence threshold     =      1.0E-06
     mixing beta               =       0.1000
     number of iterations used =           10  plain     mixing
     Exchange-correlation      = BEEF-VDW ( 1  4 27 13 2)
     nstep                     =           50

     celldm(1)=   1.889726  celldm(2)=   0.000000  celldm(3)=   0.000000
     celldm(4)=   0.000000  celldm(5)=   0.000000  celldm(6)=   0.000000

     crystal axes: (cart. coord. in units of alat)
               a(1) = (   5.870139   0.000000   0.000000 )
               a(2) = (  -2.935070   5.083690   0.000000 )
               a(3) = (   0.000000   0.000000  24.792949 )

     reciprocal axes: (cart. coord. in units 2 pi/alat)
               b(1) = (  0.170354  0.098354  0.000000 )
               b(2) = (  0.000000  0.196708  0.000000 )
               b(3) = (  0.000000  0.000000  0.040334 )

     PseudoPot. # 1 for Pt read from file:
     /afs/slac.stanford.edu/u/if/mamunm/psp/gbrv1.5pbe/Pt.UPF
     MD5 check sum: f09d6de1a584b5a045c4fc126da2d0c4
     Pseudo is Ultrasoft + core correction, Zval = 16.0
     Generated by new atomic code, or converted to UPF format
     Using radial grid of  985 points,  6 beta functions with:
                l(1) =   0
                l(2) =   0
                l(3) =   1
                l(4) =   1
                l(5) =   2
                l(6) =   2
     Q(r) pseudized with  8 coefficients,  rinner =    1.300   1.300   1.300
                                                       1.300   1.300

     PseudoPot. # 2 for Pb read from file:
     /afs/slac.stanford.edu/u/if/mamunm/psp/gbrv1.5pbe/Pb.UPF
     MD5 check sum: 3d1c1779aa92214d1e8f3a7db79003e2
     Pseudo is Ultrasoft + core correction, Zval = 14.0
     Generated by new atomic code, or converted to UPF format
     Using radial grid of  899 points,  6 beta functions with:
                l(1) =   0
                l(2) =   0
                l(3) =   1
                l(4) =   1
                l(5) =   2
                l(6) =   2
     Q(r) pseudized with  6 coefficients,  rinner =    1.000   1.000   1.000
                                                       1.000   1.000

     vdW kernel table read from file vdW_kernel_table
     MD5 check sum: 095c7af220d748ca6e76c0b4c6cfb241

     atomic species   valence    mass     pseudopotential
        Pt1           16.00   195.08400     Pt( 1.00)
        Pb1           14.00   207.20000     Pb( 1.00)

     No symmetry found

   Cartesian axes

     site n.     atom                  positions (alat units)
         1           Pt1 tau(   1) = (   0.0000000   0.0000000  10.0000000  )
         2           Pt1 tau(   2) = (  -1.4675348   2.5418449  10.0000000  )
         3           Pt1 tau(   3) = (   1.4675348   2.5418449  10.0000000  )
         4           Pb1 tau(   4) = (   2.9350697   0.0000000  10.0000000  )
         5           Pt1 tau(   5) = (   2.9350697   1.6945633  12.3964744  )
         6           Pt1 tau(   6) = (   1.4675348   4.2364082  12.3964744  )
         7           Pt1 tau(   7) = (  -1.4675348   4.2364082  12.3964744  )
         8           Pb1 tau(   8) = (   0.0000000   1.6945633  12.3964744  )
         9           Pt1 tau(   9) = (  -0.0000000   3.3891265  14.7929487  )
        10           Pt1 tau(  10) = (   1.4675348   0.8472816  14.7929487  )
        11           Pt1 tau(  11) = (   4.4026045   0.8472816  14.7929487  )
        12           Pb1 tau(  12) = (   2.9350697   3.3891265  14.7929487  )

     number of k points=    20  Fermi-Dirac smearing, width (Ry)=  0.0110
                       cart. coord. in units 2pi/alat
        k(    1) = (   0.0000000   0.0000000   0.0000000), wk =   0.0555556
        k(    2) = (   0.0000000   0.0327846   0.0000000), wk =   0.1111111
        k(    3) = (   0.0000000   0.0655692   0.0000000), wk =   0.1111111
        k(    4) = (   0.0000000  -0.0983538   0.0000000), wk =   0.0555556
        k(    5) = (   0.0283923   0.0163923   0.0000000), wk =   0.1111111
        k(    6) = (   0.0283923   0.0491769   0.0000000), wk =   0.1111111
        k(    7) = (   0.0283923   0.0819615   0.0000000), wk =   0.1111111
        k(    8) = (   0.0283923  -0.0819615   0.0000000), wk =   0.1111111
        k(    9) = (   0.0283923  -0.0491769   0.0000000), wk =   0.1111111
        k(   10) = (   0.0283923  -0.0163923   0.0000000), wk =   0.1111111
        k(   11) = (   0.0567846   0.0327846   0.0000000), wk =   0.1111111
        k(   12) = (   0.0567846   0.0655692   0.0000000), wk =   0.1111111
        k(   13) = (   0.0567846   0.0983538   0.0000000), wk =   0.1111111
        k(   14) = (   0.0567846  -0.0655692   0.0000000), wk =   0.1111111
        k(   15) = (   0.0567846  -0.0327846   0.0000000), wk =   0.1111111
        k(   16) = (   0.0567846   0.0000000   0.0000000), wk =   0.1111111
        k(   17) = (  -0.0851769  -0.0491769   0.0000000), wk =   0.0555556
        k(   18) = (  -0.0851769  -0.0163923   0.0000000), wk =   0.1111111
        k(   19) = (  -0.0851769   0.0163923   0.0000000), wk =   0.1111111
        k(   20) = (  -0.0851769  -0.1475306   0.0000000), wk =   0.0555556

     Largest allocated arrays     est. size (Mb)     dimensions
     Largest temporary arrays     est. size (Mb)     dimensions

     Check: negative/imaginary core charge=   -0.000001    0.000000

     Initial potential from superposition of free atoms
     Check: negative starting charge=   -1.692159

     starting charge  181.49284, renormalised to  186.00000

     negative rho (up, down):  1.734E+00 0.000E+00

     *
     * You are using vdW-DF for exchange-correlation in this calculation.
     * Please cite the following three references that made this development
     * possible:
     *
     *   M. Dion, H. Rydberg, E. Schroder, D. C. Langreth, and
     *   B. I. Lundqvist, Phys. Rev. Lett. 92, 246401 (2004).
     *
     *   T. Thonhauser, V. R. Cooper, S. Li, A. Puzder, P. Hyldgaard, and
     *   D. C. Langreth, Phys. Rev. B 76, 125112 (2007).
     *
     *   G. Roman-Perez and J. M. Soler, Phys. Rev. Lett. 103, 096102 (2009).
     *
     *
     * If you are using vdW-DF2, please also cite:
     *
     *   K. Lee, E. D. Murray, L. Kong, B. I. Lundqvist, and
     *   D. C. Langreth, Phys. Rev. B 82, 081101(R) (2010).
     *
     *
     * If you are calculating the stress with vdW-DF, please also cite:
     *
     *   R. Sabatini, E. Kucukbenli, B. Kolb, T. Thonhauser, and
     *   S. de Gironcoli, J. Phys.: Condens. Matter 24, 424209 (2012).
     *

     Carrying out vdW-DF run using the following parameters:

     Nqs =      20    Nr_points =    1024   r_max =   100.000
     q_mesh =
               0.00001000     0.04494208     0.09755937     0.15916263
               0.23128650     0.31572767     0.41458969     0.53033537
               0.66584808     0.82450364     1.01025438     1.22772762
               1.48234092     1.78043706     2.12944203     2.53805004
               3.01644009     3.57652955     4.23227104     5.00000000

     Gradients computed in reciprocal space

     Adding external electric field

     Computed dipole along edir(3) :
        Dipole                0.0000 Ry au,          0.0000 Debye
        Dipole field          0.0000 Ry au

        Potential amp.       -0.0000 Ry
        Total length         45.6806 bohr

     Starting wfc are  135 randomized atomic wfcs

     Self-consistent Calculation

     iteration #  1     ecut=    36.75 Ry     beta=0.10
     Davidson diagonalization with overlap
     ethr =  1.00E-02,  avg # of iterations =  7.5

[...]

     total energy              =   -2409.77219311 Ry
     Harris-Foulkes estimate   =   -2410.94959790 Ry
     estimated scf accuracy    <       7.54033801 Ry

[...]

     End of self-consistent calculation

          k = 0.0000 0.0000 0.0000 ( 18871 PWs)   bands (ev):

   -50.9061 -50.8072 -50.8072 -50.7864 -50.7666 -50.7666 -50.7003 -50.7003
   -50.6861 -50.5086 -50.5059 -50.4844 -50.4844 -50.4788 -50.4788 -50.4078
   -50.4063 -50.3469 -50.3469 -50.3465 -50.3465 -50.2569 -50.2493 -50.2396
   -50.2396 -50.2355 -50.2355 -15.5470 -15.5470 -15.5078 -15.4952 -15.4952
   -15.4623 -15.4529 -15.4151 -15.4151 -15.4029 -15.4029 -15.3919 -15.3919
   -15.3807 -15.3807  -9.0500  -7.7569  -7.4400  -3.9412  -3.6153  -3.5338
    -2.9920  -2.9920  -2.5671  -2.5542  -2.5542  -2.4585  -2.4585  -2.3003
    -2.3003  -2.0385  -1.6112  -1.6112  -1.4309  -1.3845  -1.3845  -1.1362
    -0.9796  -0.7367  -0.7367  -0.6227  -0.6227  -0.5105  -0.1321  -0.1321
     0.1876   0.1876   0.2405   0.2405   0.2659   0.3126   0.6190   0.6190
     0.6230   0.6264   0.6264   0.6875   0.6875   0.8161   0.8161   1.1383
     1.2046   1.3860   1.3860   1.4172   1.5447   1.8506   1.8944   2.2854
     2.4869   2.4869   2.5351   2.5351   2.6594   3.6609   4.7248   5.4602
     5.4602   5.8086   5.9301   5.9301   6.1071   6.3745   6.6034   6.6034
     7.3204   7.3677   8.0804   8.2028   9.3470   9.3470   9.5953   9.6155
    10.0265  10.0266  10.3675

[...]

          k =-0.0852-0.0492 0.0000 ( 18736 PWs)   bands (ev):

[...]

     the Fermi energy is     1.6040 ev

!    total energy              =   -2409.23206823 Ry
     Harris-Foulkes estimate   =   -2409.23697576 Ry
     estimated scf accuracy    <       0.00000096 Ry

     The total energy is the sum of the following terms:

     one-electron contribution =  -16883.69509233 Ry
     hartree contribution      =    8489.28120849 Ry
     xc contribution           =    -723.97220455 Ry
     ewald contribution        =    6709.20434540 Ry
     electric field correction =       0.00000000 Ry
     smearing contrib. (-TS)   =      -0.05032524 Ry

     convergence has been achieved in  14 iterations

 BEEF-vdW xc energy contributions
           1 :   -644.359077591673
           2 :    599.398968291341
           3 :   -519.155290200443
           4 :    419.528831815240
           5 :   -317.640645916672
           6 :    227.192275330196
           7 :   -155.653026331977
           8 :    103.880609245764
           9 :   -67.9259578635489
          10 :    41.9843179484453
[...]
     Pseudo is Ultrasoft + core correction, Zval = 16.0
     Generated by new atomic code, or converted to UPF format
     Using radial grid of  985 points,  6 beta functions with:
                l(1) =   0
                l(2) =   0
                l(3) =   1
                l(4) =   1
                l(5) =   2
                l(6) =   2
     Q(r) pseudized with  8 coefficients,  rinner =    1.300   1.300   1.300
                                                       1.300   1.300

     PseudoPot. # 2 for Pb read from file:
     /afs/slac.stanford.edu/u/if/mamunm/psp/gbrv1.5pbe/Pb.UPF
     MD5 check sum: 3d1c1779aa92214d1e8f3a7db79003e2
     Pseudo is Ultrasoft + core correction, Zval = 14.0
     Generated by new atomic code, or converted to UPF format
     Using radial grid of  899 points,  6 beta functions with:
                l(1) =   0
                l(2) =   0
                l(3) =   1
                l(4) =   1
                l(5) =   2
                l(6) =   2
     Q(r) pseudized with  6 coefficients,  rinner =    1.000   1.000   1.000
                                                       1.000   1.000

     vdW kernel table read from file vdW_kernel_table
     MD5 check sum: 095c7af220d748ca6e76c0b4c6cfb241

     atomic species   valence    mass     pseudopotential
        Pt1           16.00   195.08400     Pt( 1.00)
        Pb1           14.00   207.20000     Pb( 1.00)

     No symmetry found

   Cartesian axes

     site n.     atom                  positions (alat units)
         1           Pt1 tau(   1) = (   0.0000000   0.0000000  10.0000000  )
         2           Pt1 tau(   2) = (  -1.4675348   2.5418449  10.0000000  )
         3           Pt1 tau(   3) = (   1.4675348   2.5418449  10.0000000  )
         4           Pb1 tau(   4) = (   2.9350697   0.0000000  10.0000000  )
         5           Pt1 tau(   5) = (   2.9350697   1.6945633  12.3964744  )
         6           Pt1 tau(   6) = (   1.4675348   4.2364082  12.3964744  )
         7           Pt1 tau(   7) = (  -1.4675348   4.2364082  12.3964744  )
         8           Pb1 tau(   8) = (   0.0000000   1.6945633  12.3964744  )
         9           Pt1 tau(   9) = (   0.0000055   3.4042113  14.6959026  )
        10           Pt1 tau(  10) = (   1.4805868   0.8397416  14.6959001  )
        11           Pt1 tau(  11) = (   4.3895579   0.8397269  14.6959068  )
        12           Pb1 tau(  12) = (   2.9350948   3.3891143  15.1408541  )

     number of k points=    20  Fermi-Dirac smearing, width (Ry)=  0.0110
                       cart. coord. in units 2pi/alat
        k(    1) = (   0.0000000   0.0000000   0.0000000), wk =   0.0555556
        k(    2) = (   0.0000000   0.0327846   0.0000000), wk =   0.1111111
        k(    3) = (   0.0000000   0.0655692   0.0000000), wk =   0.1111111
        k(    4) = (   0.0000000  -0.0983538   0.0000000), wk =   0.0555556
        k(    5) = (   0.0283923   0.0163923   0.0000000), wk =   0.1111111
        k(    6) = (   0.0283923   0.0491769   0.0000000), wk =   0.1111111
        k(    7) = (   0.0283923   0.0819615   0.0000000), wk =   0.1111111
        k(    8) = (   0.0283923  -0.0819615   0.0000000), wk =   0.1111111
        k(    9) = (   0.0283923  -0.0491769   0.0000000), wk =   0.1111111
        k(   10) = (   0.0283923  -0.0163923   0.0000000), wk =   0.1111111
        k(   11) = (   0.0567846   0.0327846   0.0000000), wk =   0.1111111
        k(   12) = (   0.0567846   0.0655692   0.0000000), wk =   0.1111111
        k(   13) = (   0.0567846   0.0983538   0.0000000), wk =   0.1111111
        k(   14) = (   0.0567846  -0.0655692   0.0000000), wk =   0.1111111
        k(   15) = (   0.0567846  -0.0327846   0.0000000), wk =   0.1111111
        k(   16) = (   0.0567846   0.0000000   0.0000000), wk =   0.1111111
        k(   17) = (  -0.0851769  -0.0491769   0.0000000), wk =   0.0555556
        k(   18) = (  -0.0851769  -0.0163923   0.0000000), wk =   0.1111111
        k(   19) = (  -0.0851769   0.0163923   0.0000000), wk =   0.1111111
        k(   20) = (  -0.0851769  -0.1475306   0.0000000), wk =   0.0555556

     Largest allocated arrays     est. size (Mb)     dimensions
     Largest temporary arrays     est. size (Mb)     dimensions

     Check: negative/imaginary core charge=   -0.000001    0.000000

     Initial potential from superposition of free atoms
     Check: negative starting charge=   -1.695283

     starting charge  181.49284, renormalised to  186.00000

[...]

     *
     * You are using vdW-DF for exchange-correlation in this calculation.
     * Please cite the following three references that made this development
     * possible:
     *
     *   M. Dion, H. Rydberg, E. Schroder, D. C. Langreth, and
     *   B. I. Lundqvist, Phys. Rev. Lett. 92, 246401 (2004).
     *
     *   T. Thonhauser, V. R. Cooper, S. Li, A. Puzder, P. Hyldgaard, and
     *   D. C. Langreth, Phys. Rev. B 76, 125112 (2007).
     *
     *   G. Roman-Perez and J. M. Soler, Phys. Rev. Lett. 103, 096102 (2009).
     *
     *
     * If you are using vdW-DF2, please also cite:
     *
     *   K. Lee, E. D. Murray, L. Kong, B. I. Lundqvist, and
     *   D. C. Langreth, Phys. Rev. B 82, 081101(R) (2010).
     *
     *
     * If you are calculating the stress with vdW-DF, please also cite:
     *
     *   R. Sabatini, E. Kucukbenli, B. Kolb, T. Thonhauser, and
     *   S. de Gironcoli, J. Phys.: Condens. Matter 24, 424209 (2012).
     *

     Carrying out vdW-DF run using the following parameters:

     Nqs =      20    Nr_points =    1024   r_max =   100.000
     q_mesh =
               0.00001000     0.04494208     0.09755937     0.15916263
               0.23128650     0.31572767     0.41458969     0.53033537
               0.66584808     0.82450364     1.01025438     1.22772762
               1.48234092     1.78043706     2.12944203     2.53805004
               3.01644009     3.57652955     4.23227104     5.00000000

     Gradients computed in reciprocal space

[...]

     Starting wfc are  135 randomized atomic wfcs

     Self-consistent Calculation

[...]

     total energy              =   -2409.26665736 Ry
     Harris-Foulkes estimate   =   -2409.26664697 Ry
     estimated scf accuracy    <       0.00000194 Ry

     iteration # 16     ecut=    36.75 Ry     beta=0.10
     Davidson diagonalization with overlap
     ethr =  1.04E-09,  avg # of iterations =  3.1

[...]

     negative rho (up, down):  1.643E+00 0.000E+00

     Adding external electric field

     Computed dipole along edir(3) :
        Dipole                0.1205 Ry au,          0.3063 Debye
        Dipole field          0.0003 Ry au

        Potential amp.       -0.0277 Ry
        Total length         45.6806 bohr

     End of self-consistent calculation

[...]

          k = 0.0568 0.0000 0.0000 ( 18781 PWs)   bands (ev):

[...]

          k =-0.0852-0.1475 0.0000 ( 18736 PWs)   bands (ev):

   -50.6623 -50.6079 -50.6043 -50.5969 -50.5923 -50.5743 -50.5738 -50.5609
   -50.5208 -50.4337 -50.3915 -50.3881 -50.3812 -50.3618 -50.3450 -50.3056
   -50.3007 -50.2963 -50.2903 -50.2723 -50.2274 -50.2232 -50.2183 -50.2142
   -50.1087 -50.1033 -50.0983 -15.4198 -15.4012 -15.3842 -15.3787 -15.3768
   -15.3689 -15.3372 -15.3324 -15.2792 -15.2671 -15.2625 -15.2233 -15.2225
   -15.2006 -15.1847  -7.9206  -7.2935  -6.8734  -4.4691  -3.6784  -3.6188
    -3.2786  -2.7243  -2.3809  -2.2320  -2.2056  -2.1857  -2.1518  -2.0931
    -2.0076  -1.8148  -1.6284  -1.5973  -1.5714  -1.4317  -1.3384  -1.2324
    -1.0416  -0.9437  -0.9206  -0.7966  -0.7094  -0.6060  -0.5890  -0.4897
    -0.3906  -0.3668  -0.3115  -0.0560  -0.0191   0.0295   0.1033   0.1404
     0.1456   0.2903   0.3316   0.3759   0.4037   0.4644   0.5981   0.6861
     0.9289   1.1204   1.4654   1.4685   1.6398   1.7981   2.6206   2.7018
     2.8666   3.1620   3.8737   4.3879   4.4188   5.8139   6.1519   6.4019
     6.4976   6.8095   7.0637   7.0705   7.3204   7.5102   7.6082   7.6996
     7.9166   7.9517   8.2906   8.5850   8.7018   8.7415   8.8585   9.0211
     9.2270   9.4378   9.5933

     the Fermi energy is     1.7573 ev

!    total energy              =   -2409.26667619 Ry
     Harris-Foulkes estimate   =   -2409.26665841 Ry
     estimated scf accuracy    <       0.00000045 Ry

     The total energy is the sum of the following terms:

     one-electron contribution =  -16865.60442651 Ry
     hartree contribution      =    8480.99820879 Ry
     xc contribution           =    -723.93485354 Ry
     ewald contribution        =    6699.32629675 Ry
     electric field correction =       0.00003654 Ry
     smearing contrib. (-TS)   =      -0.05193824 Ry

     convergence has been achieved in  16 iterations

 BEEF-vdW xc energy contributions
           1 :   -644.879790430990
           2 :    599.911024100756
           3 :   -519.653137078148
           4 :    420.014975525420
           5 :   -318.126664193421
           6 :    227.690878561586
           7 :   -156.168948455691
           8 :    104.408516824525
           9 :   -68.4565924347227
          10 :    42.5144634485431
          11 :   -21.7189020580353
          12 :    3.69685633297968
          13 :    11.4372447158295
          14 :   -22.2573927785154
          15 :    27.5476986075391
          16 :   -27.3778224400835
          17 :    23.2938944768788
          18 :   -17.6939346102766
          19 :    12.8277093399089
          20 :   -9.97903940780736
          21 :    9.19935531307294
          22 :   -9.63342906829962
          23 :    10.1750523440624
          24 :   -10.0804125051080
          25 :    9.24799671796814
          26 :   -8.09835273681097
          27 :    7.19772229145065
          28 :   -6.87912364423278
          29 :    7.06882379920978
          30 :   -7.38314659543494
          31 :   -52.4198818241675
          32 :   -38.6624137457129

     Forces acting on atoms (Ry/au):

     negative rho (up, down):  1.643E+00 0.000E+00
     atom    1 type  1   force =    -0.00000022   -0.00421663    0.01447636
     atom    2 type  1   force =    -0.00365341    0.00210808    0.01447812
     atom    3 type  1   force =     0.00365194    0.00210878    0.01447639
     atom    4 type  2   force =     0.00000069   -0.00000133   -0.03555061
     atom    5 type  1   force =     0.00000036    0.01345255    0.00080529
     atom    6 type  1   force =     0.01165189   -0.00672644    0.00080331
     atom    7 type  1   force =    -0.01165087   -0.00672633    0.00080391
     atom    8 type  2   force =    -0.00000099    0.00000077   -0.01481853
     atom    9 type  1   force =     0.00000039    0.00038915    0.00113606
     atom   10 type  1   force =     0.00033872   -0.00019369    0.00113437
     atom   11 type  1   force =    -0.00033727   -0.00019305    0.00113491
     atom   12 type  2   force =    -0.00000121   -0.00000185    0.00112042

     Total force =     0.052115     Total SCF correction =     0.003154

     entering subroutine stress ...

     negative rho (up, down):  1.643E+00 0.000E+00
          total   stress  (Ry/bohr**3)                   (kbar)     P=  -15.77
  -0.00015435   0.00000000  -0.00000000        -22.71      0.00     -0.00
   0.00000000  -0.00015434  -0.00000000          0.00    -22.70     -0.00
  -0.00000000  -0.00000000  -0.00001297         -0.00     -0.00     -1.91

 !ASE

     Writing output data file calc.save

     General routines

     Parallel routines

   This run was terminated on:  18:12:12  31Dec2018

   JOB DONE.
Job  /afs/slac/g/suncat/bin/suncat-tsmpirun -x LD_LIBRARY_PATH -wdir /scratch/qe648819_ZOe5c pw.x -in pw.inp

TID   HOST_NAME   COMMAND_LINE            STATUS            TERMINATION_TIME
00000 suncat0086 pw.x -in pw.inp   Done                     12/31/2018 18:12:12
00001 suncat0086 pw.x -in pw.inp   Done                     12/31/2018 18:12:12
00002 suncat0086 pw.x -in pw.inp   Done                     12/31/2018 18:12:12
00003 suncat0086 pw.x -in pw.inp   Done                     12/31/2018 18:12:12
00004 suncat0086 pw.x -in pw.inp   Done                     12/31/2018 18:12:12
00005 suncat0086 pw.x -in pw.inp   Done                     12/31/2018 18:12:12
00006 suncat0086 pw.x -in pw.inp   Done                     12/31/2018 18:12:12
00007 suncat0086 pw.x -in pw.inp   Done                     12/31/2018 18:12:12
00008 suncat0085 pw.x -in pw.inp   Done                     12/31/2018 18:12:12
00009 suncat0085 pw.x -in pw.inp   Done                     12/31/2018 18:12:12
00010 suncat0085 pw.x -in pw.inp   Done                     12/31/2018 18:12:12
00011 suncat0085 pw.x -in pw.inp   Done                     12/31/2018 18:12:12
00012 suncat0085 pw.x -in pw.inp   Done                     12/31/2018 18:12:12
00013 suncat0085 pw.x -in pw.inp   Done                     12/31/2018 18:12:12
00014 suncat0085 pw.x -in pw.inp   Done                     12/31/2018 18:12:12
00015 suncat0085 pw.x -in pw.inp   Done                     12/31/2018 18:12:12
00016 suncat0084 pw.x -in pw.inp   Done                     12/31/2018 18:12:12
00017 suncat0084 pw.x -in pw.inp   Done                     12/31/2018 18:12:12
00018 suncat0084 pw.x -in pw.inp   Done                     12/31/2018 18:12:12
00019 suncat0084 pw.x -in pw.inp   Done                     12/31/2018 18:12:12
00020 suncat0084 pw.x -in pw.inp   Done                     12/31/2018 18:12:12
00021 suncat0084 pw.x -in pw.inp   Done                     12/31/2018 18:12:12
00022 suncat0084 pw.x -in pw.inp   Done                     12/31/2018 18:12:12
00023 suncat0084 pw.x -in pw.inp   Done                     12/31/2018 18:12:12
00024 suncat0083 pw.x -in pw.inp   Done                     12/31/2018 18:12:12
00025 suncat0083 pw.x -in pw.inp   Done                     12/31/2018 18:12:12
00026 suncat0083 pw.x -in pw.inp   Done                     12/31/2018 18:12:12
00027 suncat0083 pw.x -in pw.inp   Done                     12/31/2018 18:12:12
00028 suncat0083 pw.x -in pw.inp   Done                     12/31/2018 18:12:12
00029 suncat0083 pw.x -in pw.inp   Done                     12/31/2018 18:12:12
00030 suncat0083 pw.x -in pw.inp   Done                     12/31/2018 18:12:12
00031 suncat0083 pw.x -in pw.inp   Done                     12/31/2018 18:12:12
00032 suncat0234 pw.x -in pw.inp   Done                     12/31/2018 18:12:12
00033 suncat0234 pw.x -in pw.inp   Done                     12/31/2018 18:12:12
00034 suncat0234 pw.x -in pw.inp   Done                     12/31/2018 18:12:12
00035 suncat0234 pw.x -in pw.inp   Done                     12/31/2018 18:12:12
00036 suncat0234 pw.x -in pw.inp   Done                     12/31/2018 18:12:12
00037 suncat0234 pw.x -in pw.inp   Done                     12/31/2018 18:12:12
00038 suncat0234 pw.x -in pw.inp   Done                     12/31/2018 18:12:12
00039 suncat0234 pw.x -in pw.inp   Done                     12/31/2018 18:12:12
00040 suncat0233 pw.x -in pw.inp   Done                     12/31/2018 18:12:12
00041 suncat0233 pw.x -in pw.inp   Done                     12/31/2018 18:12:12
00042 suncat0233 pw.x -in pw.inp   Done                     12/31/2018 18:12:12
00043 suncat0233 pw.x -in pw.inp   Done                     12/31/2018 18:12:12
00044 suncat0233 pw.x -in pw.inp   Done                     12/31/2018 18:12:12
00045 suncat0233 pw.x -in pw.inp   Done                     12/31/2018 18:12:12
00046 suncat0233 pw.x -in pw.inp   Done                     12/31/2018 18:12:12
00047 suncat0233 pw.x -in pw.inp   Done                     12/31/2018 18:12:12
00048 suncat0222 pw.x -in pw.inp   Done                     12/31/2018 18:12:12
00049 suncat0222 pw.x -in pw.inp   Done                     12/31/2018 18:12:12
00050 suncat0222 pw.x -in pw.inp   Done                     12/31/2018 18:12:12
00051 suncat0222 pw.x -in pw.inp   Done                     12/31/2018 18:12:12
00052 suncat0222 pw.x -in pw.inp   Done                     12/31/2018 18:12:12
00053 suncat0222 pw.x -in pw.inp   Done                     12/31/2018 18:12:12
00054 suncat0222 pw.x -in pw.inp   Done                     12/31/2018 18:12:12
00055 suncat0222 pw.x -in pw.inp   Done                     12/31/2018 18:12:12
00056 suncat0221 pw.x -in pw.inp   Done                     12/31/2018 18:12:12
00057 suncat0221 pw.x -in pw.inp   Done                     12/31/2018 18:12:12
00058 suncat0221 pw.x -in pw.inp   Done                     12/31/2018 18:12:12
00059 suncat0221 pw.x -in pw.inp   Done                     12/31/2018 18:12:12
00060 suncat0221 pw.x -in pw.inp   Done                     12/31/2018 18:12:12
00061 suncat0221 pw.x -in pw.inp   Done                     12/31/2018 18:12:12
00062 suncat0221 pw.x -in pw.inp   Done                     12/31/2018 18:12:12
00063 suncat0221 pw.x -in pw.inp   Done                     12/31/2018 18:12:12