     Program PWSCF v.5.1rc2 (svn rev. 11289) starts on 19Dec2018 at 23:42:35

     Current dimensions of program PWSCF are:
     Max number of different atomic species (ntypx) = 10
     Max number of k-points (npk) =  40000
     Max angular momentum in pseudopotentials (lmaxx) =  3
     Presently stress not available with electric field

     IMPORTANT: XC functional enforced from input :
     Exchange-correlation      = BEEF-VDW ( 1  4 27 13 2)
     Any further DFT definition will be discarded
     Please, verify this is what you really want

     Subspace diagonalization in iterative solution of the eigenvalue problem:
     a serial algorithm will be used

     bravais-lattice index     =            0
     lattice parameter (alat)  =       1.8897  a.u.
     unit-cell volume          =    5353.5082 (a.u.)^3
     number of atoms/cell      =           12
     number of atomic types    =            2
     number of electrons       =       156.00
     number of Kohn-Sham states=          108
     kinetic-energy cutoff     =      36.7493  Ry
     charge density cutoff     =     367.4932  Ry
     convergence threshold     =      1.0E-06
     mixing beta               =       0.1000
     number of iterations used =           10  plain     mixing
     Exchange-correlation      = BEEF-VDW ( 1  4 27 13 2)
     nstep                     =           50

     celldm(1)=   1.889726  celldm(2)=   0.000000  celldm(3)=   0.000000
     celldm(4)=   0.000000  celldm(5)=   0.000000  celldm(6)=   0.000000

     crystal axes: (cart. coord. in units of alat)
               a(1) = (   6.059561   0.000000   0.000000 )
               a(2) = (  -3.029780   5.247734   0.000000 )
               a(3) = (   0.000000   0.000000  24.947611 )

     reciprocal axes: (cart. coord. in units 2 pi/alat)
               b(1) = (  0.165028  0.095279  0.000000 )
               b(2) = (  0.000000  0.190558  0.000000 )
               b(3) = (  0.000000  0.000000  0.040084 )

     PseudoPot. # 1 for Cd read from file:
     /afs/slac.stanford.edu/u/if/mamunm/psp/gbrv1.5pbe/Cd.UPF
     MD5 check sum: 17164a7926edb8e0dc231208abae86a6
     Pseudo is Ultrasoft + core correction, Zval = 12.0
     Generated by new atomic code, or converted to UPF format
     Using radial grid of  889 points,  6 beta functions with:
                l(1) =   0
                l(2) =   0
                l(3) =   1
                l(4) =   1
                l(5) =   2
                l(6) =   2
     Q(r) pseudized with  6 coefficients,  rinner =    1.000   1.000   1.000
                                                       1.000   1.000

     PseudoPot. # 2 for Pt read from file:
     /afs/slac.stanford.edu/u/if/mamunm/psp/gbrv1.5pbe/Pt.UPF
     MD5 check sum: f09d6de1a584b5a045c4fc126da2d0c4
     Pseudo is Ultrasoft + core correction, Zval = 16.0
     Generated by new atomic code, or converted to UPF format
     Using radial grid of  985 points,  6 beta functions with:
                l(1) =   0
                l(2) =   0
                l(3) =   1
                l(4) =   1
                l(5) =   2
                l(6) =   2
     Q(r) pseudized with  8 coefficients,  rinner =    1.300   1.300   1.300
                                                       1.300   1.300

     vdW kernel table read from file vdW_kernel_table
     MD5 check sum: 095c7af220d748ca6e76c0b4c6cfb241

     atomic species   valence    mass     pseudopotential
        Cd1           12.00   112.41400     Cd( 1.00)
        Pt1           16.00   195.08400     Pt( 1.00)

     No symmetry found

   Cartesian axes

     site n.     atom                  positions (alat units)
         1           Cd1 tau(   1) = (   0.0000000   0.0000000  10.0000000  )
         2           Cd1 tau(   2) = (  -1.5148902   2.6238668  10.0000000  )
         3           Cd1 tau(   3) = (   1.5148902   2.6238668  10.0000000  )
         4           Pt1 tau(   4) = (   3.0297804   0.0000000  10.0000000  )
         5           Cd1 tau(   5) = (   3.0297804   1.7492445  12.4738053  )
         6           Cd1 tau(   6) = (   1.5148902   4.3731113  12.4738053  )
         7           Cd1 tau(   7) = (  -1.5148902   4.3731113  12.4738053  )
         8           Pt1 tau(   8) = (   0.0000000   1.7492445  12.4738053  )
         9           Cd1 tau(   9) = (  -0.0000000   3.4984890  14.9476106  )
        10           Cd1 tau(  10) = (   1.5148902   0.8746223  14.9476106  )
        11           Cd1 tau(  11) = (   4.5446705   0.8746223  14.9476106  )
        12           Pt1 tau(  12) = (   3.0297804   3.4984890  14.9476106  )

     number of k points=    20  Fermi-Dirac smearing, width (Ry)=  0.0110
                       cart. coord. in units 2pi/alat
        k(    1) = (   0.0000000   0.0000000   0.0000000), wk =   0.0555556
        k(    2) = (   0.0000000   0.0317597   0.0000000), wk =   0.1111111
        k(    3) = (   0.0000000   0.0635195   0.0000000), wk =   0.1111111
        k(    4) = (   0.0000000  -0.0952792   0.0000000), wk =   0.0555556
        k(    5) = (   0.0275047   0.0158799   0.0000000), wk =   0.1111111
        k(    6) = (   0.0275047   0.0476396   0.0000000), wk =   0.1111111
        k(    7) = (   0.0275047   0.0793994   0.0000000), wk =   0.1111111
        k(    8) = (   0.0275047  -0.0793994   0.0000000), wk =   0.1111111
        k(    9) = (   0.0275047  -0.0476396   0.0000000), wk =   0.1111111
        k(   10) = (   0.0275047  -0.0158799   0.0000000), wk =   0.1111111
        k(   11) = (   0.0550095   0.0317597   0.0000000), wk =   0.1111111
        k(   12) = (   0.0550095   0.0635195   0.0000000), wk =   0.1111111
        k(   13) = (   0.0550095   0.0952792   0.0000000), wk =   0.1111111
        k(   14) = (   0.0550095  -0.0635195   0.0000000), wk =   0.1111111
        k(   15) = (   0.0550095  -0.0317597   0.0000000), wk =   0.1111111
        k(   16) = (   0.0550095   0.0000000   0.0000000), wk =   0.1111111
        k(   17) = (  -0.0825142  -0.0476396   0.0000000), wk =   0.0555556
        k(   18) = (  -0.0825142  -0.0158799   0.0000000), wk =   0.1111111
        k(   19) = (  -0.0825142   0.0158799   0.0000000), wk =   0.1111111
        k(   20) = (  -0.0825142  -0.1429188   0.0000000), wk =   0.0555556

     Largest allocated arrays     est. size (Mb)     dimensions
     Largest temporary arrays     est. size (Mb)     dimensions

     Initial potential from superposition of free atoms
     Check: negative starting charge=   -0.734332

     starting charge  149.99959, renormalised to  156.00000

     negative rho (up, down):  7.637E-01 0.000E+00

     *
     * You are using vdW-DF for exchange-correlation in this calculation.
     * Please cite the following three references that made this development
     * possible:
     *
     *   M. Dion, H. Rydberg, E. Schroder, D. C. Langreth, and
     *   B. I. Lundqvist, Phys. Rev. Lett. 92, 246401 (2004).
     *
     *   T. Thonhauser, V. R. Cooper, S. Li, A. Puzder, P. Hyldgaard, and
     *   D. C. Langreth, Phys. Rev. B 76, 125112 (2007).
     *
     *   G. Roman-Perez and J. M. Soler, Phys. Rev. Lett. 103, 096102 (2009).
     *
     *
     * If you are using vdW-DF2, please also cite:
     *
     *   K. Lee, E. D. Murray, L. Kong, B. I. Lundqvist, and
     *   D. C. Langreth, Phys. Rev. B 82, 081101(R) (2010).
     *
     *
     * If you are calculating the stress with vdW-DF, please also cite:
     *
     *   R. Sabatini, E. Kucukbenli, B. Kolb, T. Thonhauser, and
     *   S. de Gironcoli, J. Phys.: Condens. Matter 24, 424209 (2012).
     *

     Carrying out vdW-DF run using the following parameters:

     Nqs =      20    Nr_points =    1024   r_max =   100.000
     q_mesh =
               0.00001000     0.04494208     0.09755937     0.15916263
               0.23128650     0.31572767     0.41458969     0.53033537
               0.66584808     0.82450364     1.01025438     1.22772762
               1.48234092     1.78043706     2.12944203     2.53805004
               3.01644009     3.57652955     4.23227104     5.00000000

     Gradients computed in reciprocal space

     Adding external electric field

     Computed dipole along edir(3) :
        Dipole               -0.0000 Ry au,         -0.0000 Debye
        Dipole field         -0.0000 Ry au

        Potential amp.        0.0000 Ry
        Total length         45.9655 bohr

     Starting wfc are  117 randomized atomic wfcs

     Self-consistent Calculation

     iteration #  1     ecut=    36.75 Ry     beta=0.10
     Davidson diagonalization with overlap
     ethr =  1.00E-02,  avg # of iterations =  7.7

[...]

     total energy              =   -1681.28814490 Ry
     Harris-Foulkes estimate   =   -1683.83357377 Ry
     estimated scf accuracy    <      14.81695196 Ry

[...]

     End of self-consistent calculation

          k = 0.0000 0.0000 0.0000 ( 20059 PWs)   bands (ev):

   -51.4926 -51.4926 -51.4366 -51.1562 -51.1562 -51.1562 -51.1562 -51.0174
   -51.0172  -9.1514  -8.9910  -8.9612  -8.9611  -8.8296  -8.8150  -8.7997
    -8.6976  -8.6976  -8.6233  -8.6232  -8.5558  -8.5558  -8.4516  -8.4045
    -8.4045  -8.3335  -8.3308  -8.1900  -8.1800  -8.1800  -8.1283  -8.1149
    -8.1147  -8.0716  -8.0715  -7.8817  -7.8817  -7.8367  -7.8367  -7.8124
    -7.7851  -7.7851  -7.7772  -7.7772  -7.7325  -7.7325  -7.6283  -7.6283
    -7.5817  -7.5467  -7.4992  -7.4992  -7.4498  -7.3120  -7.3075  -5.6227
    -3.3718  -2.5328  -2.5328  -1.9987  -1.9987  -1.9822  -1.9822  -1.9249
    -1.7554  -1.3514  -1.3514  -1.2313  -1.2313  -0.9670  -0.9670  -0.7253
    -0.5882   0.0541   0.0541   0.2786   0.2932   0.6660   0.6660   0.7153
     0.8935   0.8935   1.9590   2.6131   2.6131   3.3973   3.3987   3.3987
     3.7482   4.0028   4.0805   4.0805   4.5591   4.9044   5.9021   5.9669
     6.8782   6.8782   6.9988   7.1607   7.2074   7.2074   7.7094   8.0849
     8.8188   8.9089   8.9089   9.0428

[...]

          k =-0.0825-0.0476 0.0000 ( 20156 PWs)   bands (ev):

[...]

     the Fermi energy is     0.7336 ev

!    total energy              =   -1681.92098253 Ry
     Harris-Foulkes estimate   =   -1681.92099082 Ry
     estimated scf accuracy    <       0.00000090 Ry

     The total energy is the sum of the following terms:

     one-electron contribution =  -11058.09532191 Ry
     hartree contribution      =    5608.17010987 Ry
     xc contribution           =    -543.28397829 Ry
     ewald contribution        =    4311.31762614 Ry
     electric field correction =       0.00000000 Ry
     smearing contrib. (-TS)   =      -0.02941834 Ry

     convergence has been achieved in  14 iterations

 BEEF-vdW xc energy contributions
           1 :   -478.367065453025
           2 :    440.087309012431
           3 :   -374.335729940530
           4 :    297.990148008166
           5 :   -227.288449123073
           6 :    172.389336674814
           7 :   -135.399030119789
           8 :    112.103055664332
           9 :   -95.8950299084926
          10 :    81.5934522057254
          11 :   -67.3551600844654
          12 :    54.2296833487527
          13 :   -44.2510129622781
          14 :    38.5323244781364
          15 :   -36.4731567840477
          16 :    36.2607114709244
[...]
               b(3) = (  0.000000  0.000000  0.040084 )

     PseudoPot. # 1 for Cd read from file:
     /afs/slac.stanford.edu/u/if/mamunm/psp/gbrv1.5pbe/Cd.UPF
     MD5 check sum: 17164a7926edb8e0dc231208abae86a6
     Pseudo is Ultrasoft + core correction, Zval = 12.0
     Generated by new atomic code, or converted to UPF format
     Using radial grid of  889 points,  6 beta functions with:
                l(1) =   0
                l(2) =   0
                l(3) =   1
                l(4) =   1
                l(5) =   2
                l(6) =   2
     Q(r) pseudized with  6 coefficients,  rinner =    1.000   1.000   1.000
                                                       1.000   1.000

     PseudoPot. # 2 for Pt read from file:
     /afs/slac.stanford.edu/u/if/mamunm/psp/gbrv1.5pbe/Pt.UPF
     MD5 check sum: f09d6de1a584b5a045c4fc126da2d0c4
     Pseudo is Ultrasoft + core correction, Zval = 16.0
     Generated by new atomic code, or converted to UPF format
     Using radial grid of  985 points,  6 beta functions with:
                l(1) =   0
                l(2) =   0
                l(3) =   1
                l(4) =   1
                l(5) =   2
                l(6) =   2
     Q(r) pseudized with  8 coefficients,  rinner =    1.300   1.300   1.300
                                                       1.300   1.300

     vdW kernel table read from file vdW_kernel_table
     MD5 check sum: 095c7af220d748ca6e76c0b4c6cfb241

     atomic species   valence    mass     pseudopotential
        Cd1           12.00   112.41400     Cd( 1.00)
        Pt1           16.00   195.08400     Pt( 1.00)

     No symmetry found

   Cartesian axes

     site n.     atom                  positions (alat units)
         1           Cd1 tau(   1) = (   0.0000000   0.0000000  10.0000000  )
         2           Cd1 tau(   2) = (  -1.5148902   2.6238668  10.0000000  )
         3           Cd1 tau(   3) = (   1.5148902   2.6238668  10.0000000  )
         4           Pt1 tau(   4) = (   3.0297804   0.0000000  10.0000000  )
         5           Cd1 tau(   5) = (   3.0297804   1.7492445  12.4738053  )
         6           Cd1 tau(   6) = (   1.5148902   4.3731113  12.4738053  )
         7           Cd1 tau(   7) = (  -1.5148902   4.3731113  12.4738053  )
         8           Pt1 tau(   8) = (   0.0000000   1.7492445  12.4738053  )
         9           Cd1 tau(   9) = (  -0.0000097   3.4814254  15.1485176  )
        10           Cd1 tau(  10) = (   1.5001165   0.8830941  15.1485199  )
        11           Cd1 tau(  11) = (   4.5593808   0.8831211  15.1484804  )
        12           Pt1 tau(  12) = (   3.0297721   3.4984714  14.7507491  )

     number of k points=    20  Fermi-Dirac smearing, width (Ry)=  0.0110
                       cart. coord. in units 2pi/alat
        k(    1) = (   0.0000000   0.0000000   0.0000000), wk =   0.0555556
        k(    2) = (   0.0000000   0.0317597   0.0000000), wk =   0.1111111
        k(    3) = (   0.0000000   0.0635195   0.0000000), wk =   0.1111111
        k(    4) = (   0.0000000  -0.0952792   0.0000000), wk =   0.0555556
        k(    5) = (   0.0275047   0.0158799   0.0000000), wk =   0.1111111
        k(    6) = (   0.0275047   0.0476396   0.0000000), wk =   0.1111111
        k(    7) = (   0.0275047   0.0793994   0.0000000), wk =   0.1111111
        k(    8) = (   0.0275047  -0.0793994   0.0000000), wk =   0.1111111
        k(    9) = (   0.0275047  -0.0476396   0.0000000), wk =   0.1111111
        k(   10) = (   0.0275047  -0.0158799   0.0000000), wk =   0.1111111
        k(   11) = (   0.0550095   0.0317597   0.0000000), wk =   0.1111111
        k(   12) = (   0.0550095   0.0635195   0.0000000), wk =   0.1111111
        k(   13) = (   0.0550095   0.0952792   0.0000000), wk =   0.1111111
        k(   14) = (   0.0550095  -0.0635195   0.0000000), wk =   0.1111111
        k(   15) = (   0.0550095  -0.0317597   0.0000000), wk =   0.1111111
        k(   16) = (   0.0550095   0.0000000   0.0000000), wk =   0.1111111
        k(   17) = (  -0.0825142  -0.0476396   0.0000000), wk =   0.0555556
        k(   18) = (  -0.0825142  -0.0158799   0.0000000), wk =   0.1111111
        k(   19) = (  -0.0825142   0.0158799   0.0000000), wk =   0.1111111
        k(   20) = (  -0.0825142  -0.1429188   0.0000000), wk =   0.0555556

     Largest allocated arrays     est. size (Mb)     dimensions
     Largest temporary arrays     est. size (Mb)     dimensions

     Initial potential from superposition of free atoms
     Check: negative starting charge=   -0.741078

     starting charge  149.99959, renormalised to  156.00000

[...]

     *
     * You are using vdW-DF for exchange-correlation in this calculation.
     * Please cite the following three references that made this development
     * possible:
     *
     *   M. Dion, H. Rydberg, E. Schroder, D. C. Langreth, and
     *   B. I. Lundqvist, Phys. Rev. Lett. 92, 246401 (2004).
     *
     *   T. Thonhauser, V. R. Cooper, S. Li, A. Puzder, P. Hyldgaard, and
     *   D. C. Langreth, Phys. Rev. B 76, 125112 (2007).
     *
     *   G. Roman-Perez and J. M. Soler, Phys. Rev. Lett. 103, 096102 (2009).
     *
     *
     * If you are using vdW-DF2, please also cite:
     *
     *   K. Lee, E. D. Murray, L. Kong, B. I. Lundqvist, and
     *   D. C. Langreth, Phys. Rev. B 82, 081101(R) (2010).
     *
     *
     * If you are calculating the stress with vdW-DF, please also cite:
     *
     *   R. Sabatini, E. Kucukbenli, B. Kolb, T. Thonhauser, and
     *   S. de Gironcoli, J. Phys.: Condens. Matter 24, 424209 (2012).
     *

     Carrying out vdW-DF run using the following parameters:

     Nqs =      20    Nr_points =    1024   r_max =   100.000
     q_mesh =
               0.00001000     0.04494208     0.09755937     0.15916263
               0.23128650     0.31572767     0.41458969     0.53033537
               0.66584808     0.82450364     1.01025438     1.22772762
               1.48234092     1.78043706     2.12944203     2.53805004
               3.01644009     3.57652955     4.23227104     5.00000000

     Gradients computed in reciprocal space

[...]

     Starting wfc are  117 randomized atomic wfcs

     Self-consistent Calculation

[...]

     total energy              =   -1681.94371511 Ry
     Harris-Foulkes estimate   =   -1681.94371579 Ry
     estimated scf accuracy    <       0.00000220 Ry

     iteration # 16     ecut=    36.75 Ry     beta=0.10
     Davidson diagonalization with overlap
     ethr =  1.41E-09,  avg # of iterations =  2.4

[...]

     negative rho (up, down):  7.281E-01 0.000E+00

     Adding external electric field

     Computed dipole along edir(3) :
        Dipole                0.0660 Ry au,          0.1677 Debye
        Dipole field          0.0002 Ry au

        Potential amp.       -0.0142 Ry
        Total length         45.9655 bohr

     End of self-consistent calculation

[...]

          k = 0.0550 0.0000 0.0000 ( 20141 PWs)   bands (ev):

[...]

          k =-0.0825-0.1429 0.0000 ( 20156 PWs)   bands (ev):

   -51.3101 -51.3100 -51.2272 -51.2162 -51.2161 -51.1444 -51.1157 -51.1156
   -50.9825  -8.7921  -8.6661  -8.6098  -8.5717  -8.4932  -8.4611  -8.4506
    -8.4035  -8.3875  -8.3684  -8.3499  -8.3359  -8.2925  -8.2204  -8.2028
    -8.1682  -8.1136  -8.0705  -8.0520  -8.0242  -8.0083  -8.0027  -7.9873
    -7.9718  -7.9664  -7.9417  -7.9414  -7.9203  -7.9104  -7.8836  -7.8755
    -7.8679  -7.8467  -7.8283  -7.8273  -7.8197  -7.8085  -7.7393  -7.6943
    -7.6553  -7.6454  -7.6383  -7.5609  -7.4411  -7.3916  -5.7129  -5.5492
    -4.2763  -3.8275  -3.2954  -2.3996  -2.3757  -2.2075  -1.9712  -1.9615
    -1.8088  -1.6677  -1.5505  -1.4926  -1.4666  -1.3639  -1.1866  -1.1571
    -0.9791  -0.8631  -0.3152  -0.1623   0.2228   0.2887   0.5697   2.0622
     2.2481   2.2644   2.5800   4.4380   4.4884   4.6208   4.7511   4.8764
     5.0345   5.1239   5.4114   5.8416   5.8956   6.1314   6.2031   6.2230
     6.2387   6.3632   7.0837   7.1371   7.2107   7.2549   7.2806   7.3396
     7.5386   7.6339   8.0485   8.3896

     the Fermi energy is     0.8057 ev

!    total energy              =   -1681.94371211 Ry
     Harris-Foulkes estimate   =   -1681.94371514 Ry
     estimated scf accuracy    <       0.00000038 Ry

     The total energy is the sum of the following terms:

     one-electron contribution =  -10927.72969016 Ry
     hartree contribution      =    5543.42833574 Ry
     xc contribution           =    -543.22799848 Ry
     ewald contribution        =    4245.61602017 Ry
     electric field correction =       0.00001022 Ry
     smearing contrib. (-TS)   =      -0.03038960 Ry

     convergence has been achieved in  16 iterations

 BEEF-vdW xc energy contributions
           1 :   -478.554380370470
           2 :    440.218209123995
           3 :   -374.397875709562
           4 :    298.028701343030
           5 :   -227.374389741405
           6 :    172.565601169353
           7 :   -135.647522245892
           8 :    112.359020067663
           9 :   -96.0971333987334
          10 :    81.7299540570818
          11 :   -67.4703565739756
          12 :    54.3871328572340
          13 :   -44.4832978063865
          14 :    38.8169976397208
          15 :   -36.7526678010058
          16 :    36.4899393205957
          17 :   -36.2257364361324
          18 :    35.0748810420811
          19 :   -33.2373381362651
          20 :    31.4814375807998
          21 :   -30.4249730146903
          22 :    30.1065689658254
          23 :   -30.0494588784053
          24 :    29.6629962116295
          25 :   -28.6552288008355
          26 :    27.1885565404780
          27 :   -25.7253289955930
          28 :    24.7090052125155
          29 :   -24.3041220759900
          30 :    24.3404515536705
          31 :   -41.7587817593195
          32 :   -30.5771780265017

     Forces acting on atoms (Ry/au):

     negative rho (up, down):  7.281E-01 0.000E+00
     atom    1 type  1   force =     0.00000287    0.00866184   -0.01700042
     atom    2 type  1   force =     0.00750398   -0.00433141   -0.01700650
     atom    3 type  1   force =    -0.00750364   -0.00433474   -0.01699756
     atom    4 type  2   force =     0.00000035    0.00000025    0.02962190
     atom    5 type  1   force =    -0.00000205   -0.01014284    0.00594472
     atom    6 type  1   force =    -0.00878638    0.00506995    0.00593452
     atom    7 type  1   force =     0.00878718    0.00507249    0.00593658
     atom    8 type  2   force =     0.00000047   -0.00000015    0.00282789
     atom    9 type  1   force =    -0.00000056   -0.00083290    0.00006182
     atom   10 type  1   force =    -0.00072739    0.00041832    0.00005864
     atom   11 type  1   force =     0.00072615    0.00041884    0.00006370
     atom   12 type  2   force =    -0.00000098    0.00000034    0.00055471

     Total force =     0.048936     Total SCF correction =     0.001486

     entering subroutine stress ...

     negative rho (up, down):  7.281E-01 0.000E+00
          total   stress  (Ry/bohr**3)                   (kbar)     P=  -11.16
  -0.00011111  -0.00000000   0.00000000        -16.35     -0.00      0.00
  -0.00000000  -0.00011111   0.00000000         -0.00    -16.34      0.00
   0.00000000   0.00000000  -0.00000534          0.00      0.00     -0.79

 !ASE

     Writing output data file calc.save

     General routines

     Parallel routines

   This run was terminated on:   1:15:34  20Dec2018

   JOB DONE.
Job  /afs/slac/g/suncat/bin/suncat-tsmpirun -x LD_LIBRARY_PATH -wdir /scratch/qe773456_OAKIP pw.x -in pw.inp

TID   HOST_NAME   COMMAND_LINE            STATUS            TERMINATION_TIME
00000 suncat0026 pw.x -in pw.inp   Done                     12/20/2018 01:15:34
00001 suncat0026 pw.x -in pw.inp   Done                     12/20/2018 01:15:34
00002 suncat0026 pw.x -in pw.inp   Done                     12/20/2018 01:15:34
00003 suncat0026 pw.x -in pw.inp   Done                     12/20/2018 01:15:34
00004 suncat0026 pw.x -in pw.inp   Done                     12/20/2018 01:15:34
00005 suncat0026 pw.x -in pw.inp   Done                     12/20/2018 01:15:34
00006 suncat0026 pw.x -in pw.inp   Done                     12/20/2018 01:15:34
00007 suncat0026 pw.x -in pw.inp   Done                     12/20/2018 01:15:34
00008 suncat0180 pw.x -in pw.inp   Done                     12/20/2018 01:15:34
00009 suncat0180 pw.x -in pw.inp   Done                     12/20/2018 01:15:34
00010 suncat0180 pw.x -in pw.inp   Done                     12/20/2018 01:15:34
00011 suncat0180 pw.x -in pw.inp   Done                     12/20/2018 01:15:34
00012 suncat0180 pw.x -in pw.inp   Done                     12/20/2018 01:15:34
00013 suncat0180 pw.x -in pw.inp   Done                     12/20/2018 01:15:34
00014 suncat0180 pw.x -in pw.inp   Done                     12/20/2018 01:15:34
00015 suncat0180 pw.x -in pw.inp   Done                     12/20/2018 01:15:34
00016 suncat0149 pw.x -in pw.inp   Done                     12/20/2018 01:15:34
00017 suncat0149 pw.x -in pw.inp   Done                     12/20/2018 01:15:34
00018 suncat0149 pw.x -in pw.inp   Done                     12/20/2018 01:15:34
00019 suncat0149 pw.x -in pw.inp   Done                     12/20/2018 01:15:34
00020 suncat0149 pw.x -in pw.inp   Done                     12/20/2018 01:15:34
00021 suncat0149 pw.x -in pw.inp   Done                     12/20/2018 01:15:34
00022 suncat0149 pw.x -in pw.inp   Done                     12/20/2018 01:15:34
00023 suncat0149 pw.x -in pw.inp   Done                     12/20/2018 01:15:34
00024 suncat0148 pw.x -in pw.inp   Done                     12/20/2018 01:15:34
00025 suncat0148 pw.x -in pw.inp   Done                     12/20/2018 01:15:34
00026 suncat0148 pw.x -in pw.inp   Done                     12/20/2018 01:15:34
00027 suncat0148 pw.x -in pw.inp   Done                     12/20/2018 01:15:34
00028 suncat0148 pw.x -in pw.inp   Done                     12/20/2018 01:15:34
00029 suncat0148 pw.x -in pw.inp   Done                     12/20/2018 01:15:34
00030 suncat0148 pw.x -in pw.inp   Done                     12/20/2018 01:15:34
00031 suncat0148 pw.x -in pw.inp   Done                     12/20/2018 01:15:34
00032 suncat0147 pw.x -in pw.inp   Done                     12/20/2018 01:15:34
00033 suncat0147 pw.x -in pw.inp   Done                     12/20/2018 01:15:34
00034 suncat0147 pw.x -in pw.inp   Done                     12/20/2018 01:15:34
00035 suncat0147 pw.x -in pw.inp   Done                     12/20/2018 01:15:34
00036 suncat0147 pw.x -in pw.inp   Done                     12/20/2018 01:15:34
00037 suncat0147 pw.x -in pw.inp   Done                     12/20/2018 01:15:34
00038 suncat0147 pw.x -in pw.inp   Done                     12/20/2018 01:15:34
00039 suncat0147 pw.x -in pw.inp   Done                     12/20/2018 01:15:34
00040 suncat0146 pw.x -in pw.inp   Done                     12/20/2018 01:15:34
00041 suncat0146 pw.x -in pw.inp   Done                     12/20/2018 01:15:34
00042 suncat0146 pw.x -in pw.inp   Done                     12/20/2018 01:15:34
00043 suncat0146 pw.x -in pw.inp   Done                     12/20/2018 01:15:34
00044 suncat0146 pw.x -in pw.inp   Done                     12/20/2018 01:15:34
00045 suncat0146 pw.x -in pw.inp   Done                     12/20/2018 01:15:34
00046 suncat0146 pw.x -in pw.inp   Done                     12/20/2018 01:15:34
00047 suncat0146 pw.x -in pw.inp   Done                     12/20/2018 01:15:34
00048 suncat0260 pw.x -in pw.inp   Done                     12/20/2018 01:15:34
00049 suncat0260 pw.x -in pw.inp   Done                     12/20/2018 01:15:34
00050 suncat0260 pw.x -in pw.inp   Done                     12/20/2018 01:15:34
00051 suncat0260 pw.x -in pw.inp   Done                     12/20/2018 01:15:34
00052 suncat0260 pw.x -in pw.inp   Done                     12/20/2018 01:15:34
00053 suncat0260 pw.x -in pw.inp   Done                     12/20/2018 01:15:34
00054 suncat0260 pw.x -in pw.inp   Done                     12/20/2018 01:15:34
00055 suncat0260 pw.x -in pw.inp   Done                     12/20/2018 01:15:34
00056 suncat0259 pw.x -in pw.inp   Done                     12/20/2018 01:15:34
00057 suncat0259 pw.x -in pw.inp   Done                     12/20/2018 01:15:34
00058 suncat0259 pw.x -in pw.inp   Done                     12/20/2018 01:15:34
00059 suncat0259 pw.x -in pw.inp   Done                     12/20/2018 01:15:34
00060 suncat0259 pw.x -in pw.inp   Done                     12/20/2018 01:15:34
00061 suncat0259 pw.x -in pw.inp   Done                     12/20/2018 01:15:34
00062 suncat0259 pw.x -in pw.inp   Done                     12/20/2018 01:15:34
00063 suncat0259 pw.x -in pw.inp   Done                     12/20/2018 01:15:34