     Program PWSCF v.5.1rc2 (svn rev. 11289) starts on  1Jan2019 at 17:20:23

     Current dimensions of program PWSCF are:
     Max number of different atomic species (ntypx) = 10
     Max number of k-points (npk) =  40000
     Max angular momentum in pseudopotentials (lmaxx) =  3
     Presently stress not available with electric field

     IMPORTANT: XC functional enforced from input :
     Exchange-correlation      = BEEF-VDW ( 1  4 27 13 2)
     Any further DFT definition will be discarded
     Please, verify this is what you really want

     Subspace diagonalization in iterative solution of the eigenvalue problem:
     a serial algorithm will be used

     bravais-lattice index     =            0
     lattice parameter (alat)  =       1.8897  a.u.
     unit-cell volume          =    5202.3402 (a.u.)^3
     number of atoms/cell      =           12
     number of atomic types    =            2
     number of electrons       =       156.00
     number of Kohn-Sham states=          108
     kinetic-energy cutoff     =      36.7493  Ry
     charge density cutoff     =     367.4932  Ry
     convergence threshold     =      1.0E-06
     mixing beta               =       0.1000
     number of iterations used =           10  plain     mixing
     Exchange-correlation      = BEEF-VDW ( 1  4 27 13 2)
     nstep                     =           50

     celldm(1)=   1.889726  celldm(2)=   0.000000  celldm(3)=   0.000000
     celldm(4)=   0.000000  celldm(5)=   0.000000  celldm(6)=   0.000000

     crystal axes: (cart. coord. in units of alat)
               a(1) = (   5.981082   0.000000   0.000000 )
               a(2) = (  -2.990541   5.179769   0.000000 )
               a(3) = (   0.000000   0.000000  24.883533 )

     reciprocal axes: (cart. coord. in units 2 pi/alat)
               b(1) = (  0.167194  0.096529  0.000000 )
               b(2) = (  0.000000  0.193059  0.000000 )
               b(3) = (  0.000000  0.000000  0.040187 )

     PseudoPot. # 1 for Ta read from file:
     /afs/slac.stanford.edu/u/if/mamunm/psp/gbrv1.5pbe/Ta.UPF
     MD5 check sum: f8bbe9446314a3b8ea5d9f3e3836c939
     Pseudo is Ultrasoft + core correction, Zval = 13.0
     Generated by new atomic code, or converted to UPF format
     Using radial grid of  921 points,  7 beta functions with:
                l(1) =   0
                l(2) =   0
                l(3) =   1
                l(4) =   1
                l(5) =   2
                l(6) =   2
                l(7) =   3
     Q(r) pseudized with  6 coefficients,  rinner =    1.300   1.300   1.300
                                                       1.300   1.300   1.300
                                                       1.300

     PseudoPot. # 2 for Nb read from file:
     /afs/slac.stanford.edu/u/if/mamunm/psp/gbrv1.5pbe/Nb.UPF
     MD5 check sum: 573aab8a2fa660278ed4a62cd769473f
     Pseudo is Ultrasoft + core correction, Zval = 13.0
     Generated by new atomic code, or converted to UPF format
     Using radial grid of  887 points,  6 beta functions with:
                l(1) =   0
                l(2) =   0
                l(3) =   1
                l(4) =   1
                l(5) =   2
                l(6) =   2
     Q(r) pseudized with  6 coefficients,  rinner =    1.000   1.000   1.000
                                                       1.000   1.000

     vdW kernel table read from file vdW_kernel_table
     MD5 check sum: 095c7af220d748ca6e76c0b4c6cfb241

     atomic species   valence    mass     pseudopotential
        Ta1           13.00   180.94788     Ta( 1.00)
        Nb1           13.00    92.90637     Nb( 1.00)

     No symmetry found

   Cartesian axes

     site n.     atom                  positions (alat units)
         1           Ta1 tau(   1) = (   0.0000000   0.0000000  10.0000000  )
         2           Ta1 tau(   2) = (  -1.4952704   2.5898844  10.0000000  )
         3           Ta1 tau(   3) = (   1.4952704   2.5898844  10.0000000  )
         4           Nb1 tau(   4) = (   2.9905409   0.0000000  10.0000000  )
         5           Ta1 tau(   5) = (   2.9905409   1.7265896  12.4417664  )
         6           Ta1 tau(   6) = (   1.4952704   4.3164740  12.4417664  )
         7           Ta1 tau(   7) = (  -1.4952704   4.3164740  12.4417664  )
         8           Nb1 tau(   8) = (   0.0000000   1.7265896  12.4417664  )
         9           Ta1 tau(   9) = (  -0.0000000   3.4531792  14.8835328  )
        10           Ta1 tau(  10) = (   1.4952704   0.8632948  14.8835328  )
        11           Ta1 tau(  11) = (   4.4858113   0.8632948  14.8835328  )
        12           Nb1 tau(  12) = (   2.9905409   3.4531792  14.8835328  )

     number of k points=    20  Fermi-Dirac smearing, width (Ry)=  0.0110
                       cart. coord. in units 2pi/alat
        k(    1) = (   0.0000000   0.0000000   0.0000000), wk =   0.0555556
        k(    2) = (   0.0000000   0.0321765   0.0000000), wk =   0.1111111
        k(    3) = (   0.0000000   0.0643529   0.0000000), wk =   0.1111111
        k(    4) = (   0.0000000  -0.0965294   0.0000000), wk =   0.0555556
        k(    5) = (   0.0278656   0.0160882   0.0000000), wk =   0.1111111
        k(    6) = (   0.0278656   0.0482647   0.0000000), wk =   0.1111111
        k(    7) = (   0.0278656   0.0804412   0.0000000), wk =   0.1111111
        k(    8) = (   0.0278656  -0.0804412   0.0000000), wk =   0.1111111
        k(    9) = (   0.0278656  -0.0482647   0.0000000), wk =   0.1111111
        k(   10) = (   0.0278656  -0.0160882   0.0000000), wk =   0.1111111
        k(   11) = (   0.0557313   0.0321765   0.0000000), wk =   0.1111111
        k(   12) = (   0.0557313   0.0643529   0.0000000), wk =   0.1111111
        k(   13) = (   0.0557313   0.0965294   0.0000000), wk =   0.1111111
        k(   14) = (   0.0557313  -0.0643529   0.0000000), wk =   0.1111111
        k(   15) = (   0.0557313  -0.0321765   0.0000000), wk =   0.1111111
        k(   16) = (   0.0557313   0.0000000   0.0000000), wk =   0.1111111
        k(   17) = (  -0.0835969  -0.0482647   0.0000000), wk =   0.0555556
        k(   18) = (  -0.0835969  -0.0160882   0.0000000), wk =   0.1111111
        k(   19) = (  -0.0835969   0.0160882   0.0000000), wk =   0.1111111
        k(   20) = (  -0.0835969  -0.1447941   0.0000000), wk =   0.0555556

     Largest allocated arrays     est. size (Mb)     dimensions
     Largest temporary arrays     est. size (Mb)     dimensions

     Initial potential from superposition of free atoms
     Check: negative starting charge=   -0.842495

     starting charge  155.98179, renormalised to  156.00000

     negative rho (up, down):  8.426E-01 0.000E+00

     *
     * You are using vdW-DF for exchange-correlation in this calculation.
     * Please cite the following three references that made this development
     * possible:
     *
     *   M. Dion, H. Rydberg, E. Schroder, D. C. Langreth, and
     *   B. I. Lundqvist, Phys. Rev. Lett. 92, 246401 (2004).
     *
     *   T. Thonhauser, V. R. Cooper, S. Li, A. Puzder, P. Hyldgaard, and
     *   D. C. Langreth, Phys. Rev. B 76, 125112 (2007).
     *
     *   G. Roman-Perez and J. M. Soler, Phys. Rev. Lett. 103, 096102 (2009).
     *
     *
     * If you are using vdW-DF2, please also cite:
     *
     *   K. Lee, E. D. Murray, L. Kong, B. I. Lundqvist, and
     *   D. C. Langreth, Phys. Rev. B 82, 081101(R) (2010).
     *
     *
     * If you are calculating the stress with vdW-DF, please also cite:
     *
     *   R. Sabatini, E. Kucukbenli, B. Kolb, T. Thonhauser, and
     *   S. de Gironcoli, J. Phys.: Condens. Matter 24, 424209 (2012).
     *

     Carrying out vdW-DF run using the following parameters:

     Nqs =      20    Nr_points =    1024   r_max =   100.000
     q_mesh =
               0.00001000     0.04494208     0.09755937     0.15916263
               0.23128650     0.31572767     0.41458969     0.53033537
               0.66584808     0.82450364     1.01025438     1.22772762
               1.48234092     1.78043706     2.12944203     2.53805004
               3.01644009     3.57652955     4.23227104     5.00000000

     Gradients computed in reciprocal space

     Adding external electric field

     Computed dipole along edir(3) :
        Dipole               -0.0000 Ry au,         -0.0000 Debye
        Dipole field         -0.0000 Ry au

        Potential amp.        0.0000 Ry
        Total length         45.8475 bohr

     Starting wfc are  156 randomized atomic wfcs

     Self-consistent Calculation

     iteration #  1     ecut=    36.75 Ry     beta=0.10
     Davidson diagonalization with overlap
     ethr =  1.00E-02,  avg # of iterations =  2.0

[...]

     total energy              =   -1643.67266725 Ry
     Harris-Foulkes estimate   =   -1644.73245472 Ry
     estimated scf accuracy    <       6.12628355 Ry

[...]

     End of self-consistent calculation

          k = 0.0000 0.0000 0.0000 ( 19507 PWs)   bands (ev):

   -66.4237 -66.4190 -66.3798 -66.3798 -66.3787 -66.3787 -66.3400 -66.3028
   -66.3027 -53.0650 -53.0533 -53.0530 -33.1472 -33.0456 -33.0175 -32.9761
   -32.9761 -32.9621 -32.9347 -32.9347 -32.8558 -32.8558 -32.8446 -32.7662
   -32.7661 -32.6765 -32.6765 -32.5777 -32.5179 -32.5111 -32.4974 -32.4973
   -32.4257 -32.3974 -32.3974 -32.3935 -32.3935 -32.3768 -32.3767 -29.1338
   -29.1077 -29.0589 -29.0589 -29.0574 -29.0124 -29.0124 -29.0062 -29.0062
    -5.1106  -3.5924  -2.7015  -2.1086  -2.1086  -1.9131  -1.9130  -1.8027
    -1.4569  -1.2350  -1.2350  -0.9978  -0.9978  -0.9919  -0.9363   0.1950
     0.1950   0.2076   1.2169   1.4116   1.4116   1.4200   1.7092   1.7694
     2.0280   2.0280   2.0515   2.2044   2.2044   2.4675   2.4830   2.4830
     2.5240   2.5240   2.6367   2.6624   2.6624   2.8664   3.0198   3.0198
     3.6413   3.7991   3.7991   4.0850   4.0850   4.2753   4.8030   4.8030
     4.9889   4.9889   5.0296   5.2328   5.2328   5.8567   6.0101   6.1160
     6.1166   6.1166   6.1509   6.1509

[...]

          k =-0.0836-0.0483 0.0000 ( 19564 PWs)   bands (ev):

[...]

     the Fermi energy is     1.9157 ev

!    total energy              =   -1644.19074427 Ry
     Harris-Foulkes estimate   =   -1644.19074401 Ry
     estimated scf accuracy    <       0.00000076 Ry

     The total energy is the sum of the following terms:

     one-electron contribution =  -11321.63246249 Ry
     hartree contribution      =    5644.88491121 Ry
     xc contribution           =    -448.92985860 Ry
     ewald contribution        =    4481.59935948 Ry
     electric field correction =       0.00000000 Ry
     smearing contrib. (-TS)   =      -0.11269388 Ry

     convergence has been achieved in  16 iterations

 BEEF-vdW xc energy contributions
           1 :   -393.791277851445
           2 :    362.902463254178
           3 :   -309.102761561212
           4 :    245.087204546227
           5 :   -183.576104947030
           6 :    133.289776438294
           7 :   -97.1603999913816
           8 :    73.1060194074593
           9 :   -56.5375141354284
          10 :    43.1248760641020
          11 :   -30.5506138582219
          12 :    18.7214247343508
          13 :   -8.78520791305880
          14 :    1.78954573438307
[...]
     MD5 check sum: f8bbe9446314a3b8ea5d9f3e3836c939
     Pseudo is Ultrasoft + core correction, Zval = 13.0
     Generated by new atomic code, or converted to UPF format
     Using radial grid of  921 points,  7 beta functions with:
                l(1) =   0
                l(2) =   0
                l(3) =   1
                l(4) =   1
                l(5) =   2
                l(6) =   2
                l(7) =   3
     Q(r) pseudized with  6 coefficients,  rinner =    1.300   1.300   1.300
                                                       1.300   1.300   1.300
                                                       1.300

     PseudoPot. # 2 for Nb read from file:
     /afs/slac.stanford.edu/u/if/mamunm/psp/gbrv1.5pbe/Nb.UPF
     MD5 check sum: 573aab8a2fa660278ed4a62cd769473f
     Pseudo is Ultrasoft + core correction, Zval = 13.0
     Generated by new atomic code, or converted to UPF format
     Using radial grid of  887 points,  6 beta functions with:
                l(1) =   0
                l(2) =   0
                l(3) =   1
                l(4) =   1
                l(5) =   2
                l(6) =   2
     Q(r) pseudized with  6 coefficients,  rinner =    1.000   1.000   1.000
                                                       1.000   1.000

     vdW kernel table read from file vdW_kernel_table
     MD5 check sum: 095c7af220d748ca6e76c0b4c6cfb241

     atomic species   valence    mass     pseudopotential
        Ta1           13.00   180.94788     Ta( 1.00)
        Nb1           13.00    92.90637     Nb( 1.00)

     No symmetry found

   Cartesian axes

     site n.     atom                  positions (alat units)
         1           Ta1 tau(   1) = (   0.0000000   0.0000000  10.0000000  )
         2           Ta1 tau(   2) = (  -1.4952704   2.5898844  10.0000000  )
         3           Ta1 tau(   3) = (   1.4952704   2.5898844  10.0000000  )
         4           Nb1 tau(   4) = (   2.9905409   0.0000000  10.0000000  )
         5           Ta1 tau(   5) = (   2.9905409   1.7265896  12.4417664  )
         6           Ta1 tau(   6) = (   1.4952704   4.3164740  12.4417664  )
         7           Ta1 tau(   7) = (  -1.4952704   4.3164740  12.4417664  )
         8           Nb1 tau(   8) = (   0.0000000   1.7265896  12.4417664  )
         9           Ta1 tau(   9) = (  -0.0000189   3.4699432  14.8343404  )
        10           Ta1 tau(  10) = (   1.5097674   0.8549212  14.8343475  )
        11           Ta1 tau(  11) = (   4.4712859   0.8549237  14.8343437  )
        12           Nb1 tau(  12) = (   2.9905034   3.4531915  14.9530559  )

     number of k points=    20  Fermi-Dirac smearing, width (Ry)=  0.0110
                       cart. coord. in units 2pi/alat
        k(    1) = (   0.0000000   0.0000000   0.0000000), wk =   0.0555556
        k(    2) = (   0.0000000   0.0321765   0.0000000), wk =   0.1111111
        k(    3) = (   0.0000000   0.0643529   0.0000000), wk =   0.1111111
        k(    4) = (   0.0000000  -0.0965294   0.0000000), wk =   0.0555556
        k(    5) = (   0.0278656   0.0160882   0.0000000), wk =   0.1111111
        k(    6) = (   0.0278656   0.0482647   0.0000000), wk =   0.1111111
        k(    7) = (   0.0278656   0.0804412   0.0000000), wk =   0.1111111
        k(    8) = (   0.0278656  -0.0804412   0.0000000), wk =   0.1111111
        k(    9) = (   0.0278656  -0.0482647   0.0000000), wk =   0.1111111
        k(   10) = (   0.0278656  -0.0160882   0.0000000), wk =   0.1111111
        k(   11) = (   0.0557313   0.0321765   0.0000000), wk =   0.1111111
        k(   12) = (   0.0557313   0.0643529   0.0000000), wk =   0.1111111
        k(   13) = (   0.0557313   0.0965294   0.0000000), wk =   0.1111111
        k(   14) = (   0.0557313  -0.0643529   0.0000000), wk =   0.1111111
        k(   15) = (   0.0557313  -0.0321765   0.0000000), wk =   0.1111111
        k(   16) = (   0.0557313   0.0000000   0.0000000), wk =   0.1111111
        k(   17) = (  -0.0835969  -0.0482647   0.0000000), wk =   0.0555556
        k(   18) = (  -0.0835969  -0.0160882   0.0000000), wk =   0.1111111
        k(   19) = (  -0.0835969   0.0160882   0.0000000), wk =   0.1111111
        k(   20) = (  -0.0835969  -0.1447941   0.0000000), wk =   0.0555556

     Largest allocated arrays     est. size (Mb)     dimensions
     Largest temporary arrays     est. size (Mb)     dimensions

     Initial potential from superposition of free atoms
     Check: negative starting charge=   -0.844636

     starting charge  155.98179, renormalised to  156.00000

[...]

     *
     * You are using vdW-DF for exchange-correlation in this calculation.
     * Please cite the following three references that made this development
     * possible:
     *
     *   M. Dion, H. Rydberg, E. Schroder, D. C. Langreth, and
     *   B. I. Lundqvist, Phys. Rev. Lett. 92, 246401 (2004).
     *
     *   T. Thonhauser, V. R. Cooper, S. Li, A. Puzder, P. Hyldgaard, and
     *   D. C. Langreth, Phys. Rev. B 76, 125112 (2007).
     *
     *   G. Roman-Perez and J. M. Soler, Phys. Rev. Lett. 103, 096102 (2009).
     *
     *
     * If you are using vdW-DF2, please also cite:
     *
     *   K. Lee, E. D. Murray, L. Kong, B. I. Lundqvist, and
     *   D. C. Langreth, Phys. Rev. B 82, 081101(R) (2010).
     *
     *
     * If you are calculating the stress with vdW-DF, please also cite:
     *
     *   R. Sabatini, E. Kucukbenli, B. Kolb, T. Thonhauser, and
     *   S. de Gironcoli, J. Phys.: Condens. Matter 24, 424209 (2012).
     *

     Carrying out vdW-DF run using the following parameters:

     Nqs =      20    Nr_points =    1024   r_max =   100.000
     q_mesh =
               0.00001000     0.04494208     0.09755937     0.15916263
               0.23128650     0.31572767     0.41458969     0.53033537
               0.66584808     0.82450364     1.01025438     1.22772762
               1.48234092     1.78043706     2.12944203     2.53805004
               3.01644009     3.57652955     4.23227104     5.00000000

     Gradients computed in reciprocal space

[...]

     Starting wfc are  156 randomized atomic wfcs

     Self-consistent Calculation

[...]

     total energy              =   -1644.20020325 Ry
     Harris-Foulkes estimate   =   -1644.20020237 Ry
     estimated scf accuracy    <       0.00000295 Ry

     iteration # 16     ecut=    36.75 Ry     beta=0.10
     Davidson diagonalization with overlap
     ethr =  1.89E-09,  avg # of iterations =  2.2

[...]

     negative rho (up, down):  8.844E-01 0.000E+00

     Adding external electric field

     Computed dipole along edir(3) :
        Dipole                0.0147 Ry au,          0.0374 Debye
        Dipole field          0.0000 Ry au

        Potential amp.       -0.0033 Ry
        Total length         45.8475 bohr

     End of self-consistent calculation

[...]

          k = 0.0557 0.0000 0.0000 ( 19575 PWs)   bands (ev):

[...]

          k =-0.0836-0.1448 0.0000 ( 19564 PWs)   bands (ev):

   -66.3930 -66.3795 -66.3687 -66.3651 -66.3529 -66.3388 -66.3045 -66.2937
   -66.2812 -53.0890 -53.0454 -53.0360 -33.0146 -32.9875 -32.9137 -32.8945
   -32.8686 -32.8589 -32.8419 -32.7969 -32.7702 -32.7611 -32.7128 -32.7048
   -32.6746 -32.6592 -32.6510 -32.6437 -32.6421 -32.6210 -32.5672 -32.5508
   -32.5388 -32.4643 -32.4405 -32.4333 -32.4063 -32.3884 -32.3632 -29.1811
   -29.1054 -29.0813 -29.0647 -29.0545 -29.0428 -29.0395 -29.0292 -29.0035
    -3.4672  -3.2827  -2.0625  -1.9270  -1.3217  -1.2658  -1.0721  -1.0041
    -0.8607  -0.7371  -0.2066  -0.0695   0.1082   0.1200   0.1455   0.1667
     0.4831   0.5629   0.6344   0.6687   0.7579   0.8730   1.1164   1.1870
     1.2532   1.2803   1.4047   1.4850   1.5075   1.5715   1.6262   1.6565
     1.9853   2.1156   2.1498   2.2242   2.2990   2.3325   2.9804   3.0469
     3.2255   3.3685   3.6024   3.6714   3.8485   3.8923   3.9833   4.0888
     4.1322   4.1757   4.3497   4.5080   4.6422   4.6747   4.7006   4.8447
     5.2997   5.4480   5.4709   5.5962

     the Fermi energy is     1.9291 ev

!    total energy              =   -1644.20020343 Ry
     Harris-Foulkes estimate   =   -1644.20020364 Ry
     estimated scf accuracy    <       0.00000063 Ry

     The total energy is the sum of the following terms:

     one-electron contribution =  -11353.04329230 Ry
     hartree contribution      =    5660.68450620 Ry
     xc contribution           =    -448.98550288 Ry
     ewald contribution        =    4497.25584655 Ry
     electric field correction =       0.00000052 Ry
     smearing contrib. (-TS)   =      -0.11176152 Ry

     convergence has been achieved in  16 iterations

 BEEF-vdW xc energy contributions
           1 :   -394.082339383412
           2 :    363.205874142570
           3 :   -309.421696255963
           4 :    245.411694551343
           5 :   -183.887039029689
           6 :    133.570141597745
           7 :   -97.4071411018996
           8 :    73.3338631715625
           9 :   -56.7702306092856
          10 :    43.3797671845805
          11 :   -30.8276619796493
          12 :    19.0042496786696
          13 :   -9.05280902519291
          14 :    2.02963786774228
          15 :    1.98854885948606
          16 :   -3.97307101895410
          17 :    5.32797789555957
          18 :   -7.08236296444238
          19 :    9.39426314645152
          20 :   -11.6229802799677
          21 :    12.8624221703432
          22 :   -12.5798706189523
          23 :    10.9716232984847
          24 :   -8.85275429743467
          25 :    7.18228408931782
          26 :   -6.53467392768653
          27 :    6.83025843762823
          28 :   -7.46222367366880
          29 :    7.70878234558154
          30 :   -7.16451061247437
          31 :   -36.3909309216871
          32 :   -27.0921334245051

     Forces acting on atoms (Ry/au):

     negative rho (up, down):  8.844E-01 0.000E+00
     atom    1 type  1   force =     0.00000053   -0.00378594    0.00678918
     atom    2 type  1   force =    -0.00327708    0.00189453    0.00678701
     atom    3 type  1   force =     0.00327727    0.00189325    0.00678664
     atom    4 type  2   force =    -0.00000006   -0.00000078   -0.00454290
     atom    5 type  1   force =     0.00000018    0.00794649   -0.00342246
     atom    6 type  1   force =     0.00688241   -0.00397326   -0.00342300
     atom    7 type  1   force =    -0.00688169   -0.00397280   -0.00342314
     atom    8 type  2   force =     0.00000015   -0.00000057   -0.00849974
     atom    9 type  1   force =     0.00000095    0.00021039    0.00089285
     atom   10 type  1   force =     0.00017609   -0.00010483    0.00089367
     atom   11 type  1   force =    -0.00017905   -0.00010767    0.00089630
     atom   12 type  2   force =     0.00000028    0.00000116    0.00026558

     Total force =     0.022389     Total SCF correction =     0.003026
     SCF correction compared to forces is large: reduce conv_thr to get better values

     entering subroutine stress ...

     negative rho (up, down):  8.844E-01 0.000E+00
          total   stress  (Ry/bohr**3)                   (kbar)     P=  -30.39
  -0.00028566  -0.00000000  -0.00000000        -42.02     -0.00     -0.00
  -0.00000000  -0.00028566   0.00000000         -0.00    -42.02      0.00
  -0.00000000   0.00000000  -0.00004851         -0.00      0.00     -7.14

 !ASE

     Writing output data file calc.save

     General routines

     Parallel routines

   This run was terminated on:  18:27:49   1Jan2019

   JOB DONE.
Job  /afs/slac/g/suncat/bin/suncat-tsmpirun -x LD_LIBRARY_PATH -wdir /scratch/qe649113_qjtZN pw.x -in pw.inp

TID   HOST_NAME   COMMAND_LINE            STATUS            TERMINATION_TIME
00000 suncat0163 pw.x -in pw.inp   Done                     01/01/2019 18:27:49
00001 suncat0163 pw.x -in pw.inp   Done                     01/01/2019 18:27:49
00002 suncat0163 pw.x -in pw.inp   Done                     01/01/2019 18:27:49
00003 suncat0163 pw.x -in pw.inp   Done                     01/01/2019 18:27:49
00004 suncat0163 pw.x -in pw.inp   Done                     01/01/2019 18:27:49
00005 suncat0163 pw.x -in pw.inp   Done                     01/01/2019 18:27:49
00006 suncat0163 pw.x -in pw.inp   Done                     01/01/2019 18:27:49
00007 suncat0163 pw.x -in pw.inp   Done                     01/01/2019 18:27:49
00008 suncat0162 pw.x -in pw.inp   Done                     01/01/2019 18:27:49
00009 suncat0162 pw.x -in pw.inp   Done                     01/01/2019 18:27:49
00010 suncat0162 pw.x -in pw.inp   Done                     01/01/2019 18:27:49
00011 suncat0162 pw.x -in pw.inp   Done                     01/01/2019 18:27:49
00012 suncat0162 pw.x -in pw.inp   Done                     01/01/2019 18:27:49
00013 suncat0162 pw.x -in pw.inp   Done                     01/01/2019 18:27:49
00014 suncat0162 pw.x -in pw.inp   Done                     01/01/2019 18:27:49
00015 suncat0162 pw.x -in pw.inp   Done                     01/01/2019 18:27:49
00016 suncat0139 pw.x -in pw.inp   Done                     01/01/2019 18:27:49
00017 suncat0139 pw.x -in pw.inp   Done                     01/01/2019 18:27:49
00018 suncat0139 pw.x -in pw.inp   Done                     01/01/2019 18:27:49
00019 suncat0139 pw.x -in pw.inp   Done                     01/01/2019 18:27:49
00020 suncat0139 pw.x -in pw.inp   Done                     01/01/2019 18:27:49
00021 suncat0139 pw.x -in pw.inp   Done                     01/01/2019 18:27:49
00022 suncat0139 pw.x -in pw.inp   Done                     01/01/2019 18:27:49
00023 suncat0139 pw.x -in pw.inp   Done                     01/01/2019 18:27:49
00024 suncat0133 pw.x -in pw.inp   Done                     01/01/2019 18:27:49
00025 suncat0133 pw.x -in pw.inp   Done                     01/01/2019 18:27:49
00026 suncat0133 pw.x -in pw.inp   Done                     01/01/2019 18:27:49
00027 suncat0133 pw.x -in pw.inp   Done                     01/01/2019 18:27:49
00028 suncat0133 pw.x -in pw.inp   Done                     01/01/2019 18:27:49
00029 suncat0133 pw.x -in pw.inp   Done                     01/01/2019 18:27:49
00030 suncat0133 pw.x -in pw.inp   Done                     01/01/2019 18:27:49
00031 suncat0133 pw.x -in pw.inp   Done                     01/01/2019 18:27:49
00032 suncat0123 pw.x -in pw.inp   Done                     01/01/2019 18:27:49
00033 suncat0123 pw.x -in pw.inp   Done                     01/01/2019 18:27:49
00034 suncat0123 pw.x -in pw.inp   Done                     01/01/2019 18:27:49
00035 suncat0123 pw.x -in pw.inp   Done                     01/01/2019 18:27:49
00036 suncat0123 pw.x -in pw.inp   Done                     01/01/2019 18:27:49
00037 suncat0123 pw.x -in pw.inp   Done                     01/01/2019 18:27:49
00038 suncat0123 pw.x -in pw.inp   Done                     01/01/2019 18:27:49
00039 suncat0123 pw.x -in pw.inp   Done                     01/01/2019 18:27:49
00040 suncat0122 pw.x -in pw.inp   Done                     01/01/2019 18:27:49
00041 suncat0122 pw.x -in pw.inp   Done                     01/01/2019 18:27:49
00042 suncat0122 pw.x -in pw.inp   Done                     01/01/2019 18:27:49
00043 suncat0122 pw.x -in pw.inp   Done                     01/01/2019 18:27:49
00044 suncat0122 pw.x -in pw.inp   Done                     01/01/2019 18:27:49
00045 suncat0122 pw.x -in pw.inp   Done                     01/01/2019 18:27:49
00046 suncat0122 pw.x -in pw.inp   Done                     01/01/2019 18:27:49
00047 suncat0122 pw.x -in pw.inp   Done                     01/01/2019 18:27:49
00048 suncat0207 pw.x -in pw.inp   Done                     01/01/2019 18:27:49
00049 suncat0207 pw.x -in pw.inp   Done                     01/01/2019 18:27:49
00050 suncat0207 pw.x -in pw.inp   Done                     01/01/2019 18:27:49
00051 suncat0207 pw.x -in pw.inp   Done                     01/01/2019 18:27:49
00052 suncat0207 pw.x -in pw.inp   Done                     01/01/2019 18:27:49
00053 suncat0207 pw.x -in pw.inp   Done                     01/01/2019 18:27:49
00054 suncat0207 pw.x -in pw.inp   Done                     01/01/2019 18:27:49
00055 suncat0207 pw.x -in pw.inp   Done                     01/01/2019 18:27:49
00056 suncat0206 pw.x -in pw.inp   Done                     01/01/2019 18:27:49
00057 suncat0206 pw.x -in pw.inp   Done                     01/01/2019 18:27:49
00058 suncat0206 pw.x -in pw.inp   Done                     01/01/2019 18:27:49
00059 suncat0206 pw.x -in pw.inp   Done                     01/01/2019 18:27:49
00060 suncat0206 pw.x -in pw.inp   Done                     01/01/2019 18:27:49
00061 suncat0206 pw.x -in pw.inp   Done                     01/01/2019 18:27:49
00062 suncat0206 pw.x -in pw.inp   Done                     01/01/2019 18:27:49
00063 suncat0206 pw.x -in pw.inp   Done                     01/01/2019 18:27:49