     Program PWSCF v.5.1rc2 (svn rev. 11289) starts on 30Dec2018 at 10:44:40

     Current dimensions of program PWSCF are:
     Max number of different atomic species (ntypx) = 10
     Max number of k-points (npk) =  40000
     Max angular momentum in pseudopotentials (lmaxx) =  3
     Presently stress not available with electric field

     IMPORTANT: XC functional enforced from input :
     Exchange-correlation      = BEEF-VDW ( 1  4 27 13 2)
     Any further DFT definition will be discarded
     Please, verify this is what you really want

     Subspace diagonalization in iterative solution of the eigenvalue problem:
     a serial algorithm will be used

     bravais-lattice index     =            0
     lattice parameter (alat)  =       1.8897  a.u.
     unit-cell volume          =    4572.5323 (a.u.)^3
     number of atoms/cell      =           12
     number of atomic types    =            2
     number of electrons       =       171.00
     number of Kohn-Sham states=          115
     kinetic-energy cutoff     =      36.7493  Ry
     charge density cutoff     =     367.4932  Ry
     convergence threshold     =      1.0E-06
     mixing beta               =       0.1000
     number of iterations used =           10  plain     mixing
     Exchange-correlation      = BEEF-VDW ( 1  4 27 13 2)
     nstep                     =           50

     celldm(1)=   1.889726  celldm(2)=   0.000000  celldm(3)=   0.000000
     celldm(4)=   0.000000  celldm(5)=   0.000000  celldm(6)=   0.000000

     crystal axes: (cart. coord. in units of alat)
               a(1) = (   5.639093   0.000000   0.000000 )
               a(2) = (  -2.819547   4.883598   0.000000 )
               a(3) = (   0.000000   0.000000  24.604300 )

     reciprocal axes: (cart. coord. in units 2 pi/alat)
               b(1) = (  0.177333  0.102384  0.000000 )
               b(2) = (  0.000000  0.204767  0.000000 )
               b(3) = (  0.000000  0.000000  0.040643 )

     PseudoPot. # 1 for Ir read from file:
     /afs/slac.stanford.edu/u/if/mamunm/psp/gbrv1.5pbe/Ir.UPF
     MD5 check sum: 8836f839c3459d2b385c504ce6d91f2c
     Pseudo is Ultrasoft + core correction, Zval = 15.0
     Generated by new atomic code, or converted to UPF format
     Using radial grid of  983 points,  7 beta functions with:
                l(1) =   0
                l(2) =   0
                l(3) =   1
                l(4) =   1
                l(5) =   1
                l(6) =   2
                l(7) =   2
     Q(r) pseudized with  8 coefficients,  rinner =    1.400   1.400   1.400
                                                       1.400   1.400

     PseudoPot. # 2 for Cd read from file:
     /afs/slac.stanford.edu/u/if/mamunm/psp/gbrv1.5pbe/Cd.UPF
     MD5 check sum: 17164a7926edb8e0dc231208abae86a6
     Pseudo is Ultrasoft + core correction, Zval = 12.0
     Generated by new atomic code, or converted to UPF format
     Using radial grid of  889 points,  6 beta functions with:
                l(1) =   0
                l(2) =   0
                l(3) =   1
                l(4) =   1
                l(5) =   2
                l(6) =   2
     Q(r) pseudized with  6 coefficients,  rinner =    1.000   1.000   1.000
                                                       1.000   1.000

     vdW kernel table read from file vdW_kernel_table
     MD5 check sum: 095c7af220d748ca6e76c0b4c6cfb241

     atomic species   valence    mass     pseudopotential
        Ir1           15.00   192.21700     Ir( 1.00)
        Cd1           12.00   112.41400     Cd( 1.00)

     No symmetry found

   Cartesian axes

     site n.     atom                  positions (alat units)
         1           Ir1 tau(   1) = (   0.0000000   0.0000000  10.0000000  )
         2           Ir1 tau(   2) = (  -1.4097733   2.4417990  10.0000000  )
         3           Ir1 tau(   3) = (   1.4097733   2.4417990  10.0000000  )
         4           Cd1 tau(   4) = (   2.8195466   0.0000000  10.0000000  )
         5           Ir1 tau(   5) = (   2.8195466   1.6278660  12.3021501  )
         6           Ir1 tau(   6) = (   1.4097733   4.0696649  12.3021501  )
         7           Ir1 tau(   7) = (  -1.4097733   4.0696649  12.3021501  )
         8           Cd1 tau(   8) = (   0.0000000   1.6278660  12.3021501  )
         9           Ir1 tau(   9) = (  -0.0000000   3.2557319  14.6043003  )
        10           Ir1 tau(  10) = (   1.4097733   0.8139330  14.6043003  )
        11           Ir1 tau(  11) = (   4.2293199   0.8139330  14.6043003  )
        12           Cd1 tau(  12) = (   2.8195466   3.2557319  14.6043003  )

     number of k points=    20  Fermi-Dirac smearing, width (Ry)=  0.0110
                       cart. coord. in units 2pi/alat
        k(    1) = (   0.0000000   0.0000000   0.0000000), wk =   0.0555556
        k(    2) = (   0.0000000   0.0341278   0.0000000), wk =   0.1111111
        k(    3) = (   0.0000000   0.0682557   0.0000000), wk =   0.1111111
        k(    4) = (   0.0000000  -0.1023835   0.0000000), wk =   0.0555556
        k(    5) = (   0.0295556   0.0170639   0.0000000), wk =   0.1111111
        k(    6) = (   0.0295556   0.0511918   0.0000000), wk =   0.1111111
        k(    7) = (   0.0295556   0.0853196   0.0000000), wk =   0.1111111
        k(    8) = (   0.0295556  -0.0853196   0.0000000), wk =   0.1111111
        k(    9) = (   0.0295556  -0.0511918   0.0000000), wk =   0.1111111
        k(   10) = (   0.0295556  -0.0170639   0.0000000), wk =   0.1111111
        k(   11) = (   0.0591112   0.0341278   0.0000000), wk =   0.1111111
        k(   12) = (   0.0591112   0.0682557   0.0000000), wk =   0.1111111
        k(   13) = (   0.0591112   0.1023835   0.0000000), wk =   0.1111111
        k(   14) = (   0.0591112  -0.0682557   0.0000000), wk =   0.1111111
        k(   15) = (   0.0591112  -0.0341278   0.0000000), wk =   0.1111111
        k(   16) = (   0.0591112   0.0000000   0.0000000), wk =   0.1111111
        k(   17) = (  -0.0886667  -0.0511918   0.0000000), wk =   0.0555556
        k(   18) = (  -0.0886667  -0.0170639   0.0000000), wk =   0.1111111
        k(   19) = (  -0.0886667   0.0170639   0.0000000), wk =   0.1111111
        k(   20) = (  -0.0886667  -0.1535753   0.0000000), wk =   0.0555556

     Largest allocated arrays     est. size (Mb)     dimensions
     Largest temporary arrays     est. size (Mb)     dimensions

     Initial potential from superposition of free atoms
     Check: negative starting charge=   -3.369907

     starting charge  164.99959, renormalised to  171.00000

     negative rho (up, down):  3.492E+00 0.000E+00

     *
     * You are using vdW-DF for exchange-correlation in this calculation.
     * Please cite the following three references that made this development
     * possible:
     *
     *   M. Dion, H. Rydberg, E. Schroder, D. C. Langreth, and
     *   B. I. Lundqvist, Phys. Rev. Lett. 92, 246401 (2004).
     *
     *   T. Thonhauser, V. R. Cooper, S. Li, A. Puzder, P. Hyldgaard, and
     *   D. C. Langreth, Phys. Rev. B 76, 125112 (2007).
     *
     *   G. Roman-Perez and J. M. Soler, Phys. Rev. Lett. 103, 096102 (2009).
     *
     *
     * If you are using vdW-DF2, please also cite:
     *
     *   K. Lee, E. D. Murray, L. Kong, B. I. Lundqvist, and
     *   D. C. Langreth, Phys. Rev. B 82, 081101(R) (2010).
     *
     *
     * If you are calculating the stress with vdW-DF, please also cite:
     *
     *   R. Sabatini, E. Kucukbenli, B. Kolb, T. Thonhauser, and
     *   S. de Gironcoli, J. Phys.: Condens. Matter 24, 424209 (2012).
     *

     Carrying out vdW-DF run using the following parameters:

     Nqs =      20    Nr_points =    1024   r_max =   100.000
     q_mesh =
               0.00001000     0.04494208     0.09755937     0.15916263
               0.23128650     0.31572767     0.41458969     0.53033537
               0.66584808     0.82450364     1.01025438     1.22772762
               1.48234092     1.78043706     2.12944203     2.53805004
               3.01644009     3.57652955     4.23227104     5.00000000

     Gradients computed in reciprocal space

     Adding external electric field

     Computed dipole along edir(3) :
        Dipole                0.0000 Ry au,          0.0000 Debye
        Dipole field          0.0000 Ry au

        Potential amp.       -0.0000 Ry
        Total length         45.3330 bohr

     Starting wfc are  135 randomized atomic wfcs

     Self-consistent Calculation

     iteration #  1     ecut=    36.75 Ry     beta=0.10
     Davidson diagonalization with overlap
     ethr =  1.00E-02,  avg # of iterations =  7.3

[...]

     total energy              =   -1998.39200715 Ry
     Harris-Foulkes estimate   =   -2000.61695126 Ry
     estimated scf accuracy    <      13.94316666 Ry

[...]

     End of self-consistent calculation

          k = 0.0000 0.0000 0.0000 ( 17255 PWs)   bands (ev):

   -47.5294 -47.4142 -47.4140 -47.3322 -47.3312 -47.3309 -47.2399 -47.2220
   -47.2123 -47.0997 -47.0992 -47.0626 -47.0626 -47.0366 -47.0366 -46.9106
   -46.9085 -46.9085 -46.8960 -46.8960 -46.8788 -46.8663 -46.8611 -46.8271
   -46.8270 -46.8193 -46.8193  -7.1653  -7.1437  -7.1437  -7.0795  -7.0795
    -7.0174  -6.9350  -6.9350  -6.9072  -6.9072  -6.8877  -6.7786  -6.6390
    -6.6390  -6.5818  -6.5818  -4.9129  -4.3385  -3.9646  -3.3849  -3.2131
    -2.6591  -2.6590  -2.4897  -2.2651  -2.2651  -1.9320  -1.8948  -1.8948
    -1.8420  -1.8418  -1.0508  -1.0508  -0.9434  -0.9433  -0.8096  -0.5479
    -0.3820  -0.2188  -0.2188   0.1651   0.3989   0.3992   0.9096   0.9099
     1.0031   1.0205   1.2581   1.2581   1.3878   1.3878   1.4772   1.4772
     1.7136   1.7138   1.8808   1.8809   1.9604   2.4123   2.4170   2.4170
     2.4267   2.4268   2.8033   2.9538   3.2722   3.3323   3.9626   3.9981
     4.4454   4.4455   4.5506   4.5507   6.0194   6.2858   6.6530   6.9345
     7.0209   7.5254   7.5254   7.5923   7.6436   7.6436   8.3440   8.4872
     8.4873   8.4998   9.9249

[...]

          k =-0.0887-0.0512 0.0000 ( 17248 PWs)   bands (ev):

[...]

     the Fermi energy is     1.7079 ev

!    total energy              =   -1997.82923589 Ry
     Harris-Foulkes estimate   =   -1997.82922872 Ry
     estimated scf accuracy    <       0.00000082 Ry

     The total energy is the sum of the following terms:

     one-electron contribution =  -15568.30023316 Ry
     hartree contribution      =    7831.67053507 Ry
     xc contribution           =    -590.20763273 Ry
     ewald contribution        =    6329.09497688 Ry
     electric field correction =       0.00000001 Ry
     smearing contrib. (-TS)   =      -0.08688196 Ry

     convergence has been achieved in  18 iterations

 BEEF-vdW xc energy contributions
           1 :   -521.402279824428
           2 :    483.320281171427
           3 :   -416.079172807731
           4 :    334.215412449240
           5 :   -253.054074664034
           6 :    184.326263594345
           7 :   -133.655050767082
           8 :    100.465275164863
           9 :   -79.9382114427976
          10 :    65.9138191092508
          11 :   -53.4736244598955
          12 :    40.3060411657482
          13 :   -26.6481835573993
          14 :    14.2188115302747
[...]
     /afs/slac.stanford.edu/u/if/mamunm/psp/gbrv1.5pbe/Ir.UPF
     MD5 check sum: 8836f839c3459d2b385c504ce6d91f2c
     Pseudo is Ultrasoft + core correction, Zval = 15.0
     Generated by new atomic code, or converted to UPF format
     Using radial grid of  983 points,  7 beta functions with:
                l(1) =   0
                l(2) =   0
                l(3) =   1
                l(4) =   1
                l(5) =   1
                l(6) =   2
                l(7) =   2
     Q(r) pseudized with  8 coefficients,  rinner =    1.400   1.400   1.400
                                                       1.400   1.400

     PseudoPot. # 2 for Cd read from file:
     /afs/slac.stanford.edu/u/if/mamunm/psp/gbrv1.5pbe/Cd.UPF
     MD5 check sum: 17164a7926edb8e0dc231208abae86a6
     Pseudo is Ultrasoft + core correction, Zval = 12.0
     Generated by new atomic code, or converted to UPF format
     Using radial grid of  889 points,  6 beta functions with:
                l(1) =   0
                l(2) =   0
                l(3) =   1
                l(4) =   1
                l(5) =   2
                l(6) =   2
     Q(r) pseudized with  6 coefficients,  rinner =    1.000   1.000   1.000
                                                       1.000   1.000

     vdW kernel table read from file vdW_kernel_table
     MD5 check sum: 095c7af220d748ca6e76c0b4c6cfb241

     atomic species   valence    mass     pseudopotential
        Ir1           15.00   192.21700     Ir( 1.00)
        Cd1           12.00   112.41400     Cd( 1.00)

     No symmetry found

   Cartesian axes

     site n.     atom                  positions (alat units)
         1           Ir1 tau(   1) = (   0.0000000   0.0000000  10.0000000  )
         2           Ir1 tau(   2) = (  -1.4097733   2.4417990  10.0000000  )
         3           Ir1 tau(   3) = (   1.4097733   2.4417990  10.0000000  )
         4           Cd1 tau(   4) = (   2.8195466   0.0000000  10.0000000  )
         5           Ir1 tau(   5) = (   2.8195466   1.6278660  12.3021501  )
         6           Ir1 tau(   6) = (   1.4097733   4.0696649  12.3021501  )
         7           Ir1 tau(   7) = (  -1.4097733   4.0696649  12.3021501  )
         8           Cd1 tau(   8) = (   0.0000000   1.6278660  12.3021501  )
         9           Ir1 tau(   9) = (  -0.0000263   3.2961335  14.4795514  )
        10           Ir1 tau(  10) = (   1.4449845   0.7939900  14.4795770  )
        11           Ir1 tau(  11) = (   4.1941032   0.7940141  14.4795703  )
        12           Cd1 tau(  12) = (   2.8195686   3.2551319  14.9875526  )

     number of k points=    20  Fermi-Dirac smearing, width (Ry)=  0.0110
                       cart. coord. in units 2pi/alat
        k(    1) = (   0.0000000   0.0000000   0.0000000), wk =   0.0555556
        k(    2) = (   0.0000000   0.0341278   0.0000000), wk =   0.1111111
        k(    3) = (   0.0000000   0.0682557   0.0000000), wk =   0.1111111
        k(    4) = (   0.0000000  -0.1023835   0.0000000), wk =   0.0555556
        k(    5) = (   0.0295556   0.0170639   0.0000000), wk =   0.1111111
        k(    6) = (   0.0295556   0.0511918   0.0000000), wk =   0.1111111
        k(    7) = (   0.0295556   0.0853196   0.0000000), wk =   0.1111111
        k(    8) = (   0.0295556  -0.0853196   0.0000000), wk =   0.1111111
        k(    9) = (   0.0295556  -0.0511918   0.0000000), wk =   0.1111111
        k(   10) = (   0.0295556  -0.0170639   0.0000000), wk =   0.1111111
        k(   11) = (   0.0591112   0.0341278   0.0000000), wk =   0.1111111
        k(   12) = (   0.0591112   0.0682557   0.0000000), wk =   0.1111111
        k(   13) = (   0.0591112   0.1023835   0.0000000), wk =   0.1111111
        k(   14) = (   0.0591112  -0.0682557   0.0000000), wk =   0.1111111
        k(   15) = (   0.0591112  -0.0341278   0.0000000), wk =   0.1111111
        k(   16) = (   0.0591112   0.0000000   0.0000000), wk =   0.1111111
        k(   17) = (  -0.0886667  -0.0511918   0.0000000), wk =   0.0555556
        k(   18) = (  -0.0886667  -0.0170639   0.0000000), wk =   0.1111111
        k(   19) = (  -0.0886667   0.0170639   0.0000000), wk =   0.1111111
        k(   20) = (  -0.0886667  -0.1535753   0.0000000), wk =   0.0555556

     Largest allocated arrays     est. size (Mb)     dimensions
     Largest temporary arrays     est. size (Mb)     dimensions

     Initial potential from superposition of free atoms
     Check: negative starting charge=   -3.358122

     starting charge  164.99959, renormalised to  171.00000

[...]

     *
     * You are using vdW-DF for exchange-correlation in this calculation.
     * Please cite the following three references that made this development
     * possible:
     *
     *   M. Dion, H. Rydberg, E. Schroder, D. C. Langreth, and
     *   B. I. Lundqvist, Phys. Rev. Lett. 92, 246401 (2004).
     *
     *   T. Thonhauser, V. R. Cooper, S. Li, A. Puzder, P. Hyldgaard, and
     *   D. C. Langreth, Phys. Rev. B 76, 125112 (2007).
     *
     *   G. Roman-Perez and J. M. Soler, Phys. Rev. Lett. 103, 096102 (2009).
     *
     *
     * If you are using vdW-DF2, please also cite:
     *
     *   K. Lee, E. D. Murray, L. Kong, B. I. Lundqvist, and
     *   D. C. Langreth, Phys. Rev. B 82, 081101(R) (2010).
     *
     *
     * If you are calculating the stress with vdW-DF, please also cite:
     *
     *   R. Sabatini, E. Kucukbenli, B. Kolb, T. Thonhauser, and
     *   S. de Gironcoli, J. Phys.: Condens. Matter 24, 424209 (2012).
     *

     Carrying out vdW-DF run using the following parameters:

     Nqs =      20    Nr_points =    1024   r_max =   100.000
     q_mesh =
               0.00001000     0.04494208     0.09755937     0.15916263
               0.23128650     0.31572767     0.41458969     0.53033537
               0.66584808     0.82450364     1.01025438     1.22772762
               1.48234092     1.78043706     2.12944203     2.53805004
               3.01644009     3.57652955     4.23227104     5.00000000

     Gradients computed in reciprocal space

[...]

     Starting wfc are  135 randomized atomic wfcs

     Self-consistent Calculation

[...]

     total energy              =   -1997.86779249 Ry
     Harris-Foulkes estimate   =   -1997.86778511 Ry
     estimated scf accuracy    <       0.00000214 Ry

     iteration # 17     ecut=    36.75 Ry     beta=0.10
     Davidson diagonalization with overlap
     ethr =  1.25E-09,  avg # of iterations =  3.6

[...]

     negative rho (up, down):  3.035E+00 0.000E+00

     Adding external electric field

     Computed dipole along edir(3) :
        Dipole                0.0656 Ry au,          0.1667 Debye
        Dipole field          0.0002 Ry au

        Potential amp.       -0.0163 Ry
        Total length         45.3330 bohr

     End of self-consistent calculation

[...]

          k = 0.0591 0.0000 0.0000 ( 17206 PWs)   bands (ev):

[...]

          k =-0.0887-0.1536 0.0000 ( 17248 PWs)   bands (ev):

   -47.4598 -47.3955 -47.3502 -47.3282 -47.2843 -47.2403 -47.1920 -47.1422
   -47.1180 -47.0385 -47.0322 -47.0119 -46.9587 -46.9447 -46.9191 -46.9166
   -46.8901 -46.8804 -46.8710 -46.8549 -46.8475 -46.8250 -46.8140 -46.7623
   -46.7515 -46.7369 -46.7058  -6.9944  -6.8874  -6.8419  -6.7896  -6.7879
    -6.7609  -6.6302  -6.6144  -6.6110  -6.5635  -6.5289  -6.4991  -6.4988
    -6.4644  -6.4072  -5.0313  -4.8739  -3.6208  -3.3784  -3.2082  -3.0435
    -2.8205  -2.8049  -2.2659  -2.1711  -2.0902  -1.8898  -1.8008  -1.7120
    -1.6857  -1.5670  -1.5233  -1.1139  -1.0654  -0.8568  -0.8160  -0.7083
    -0.5945  -0.5605  -0.5499  -0.4558  -0.3074  -0.2720  -0.1017   0.0209
     0.0225   0.1684   0.1840   0.5400   0.7378   0.7985   0.9330   0.9666
     0.9796   1.0988   1.1628   1.3115   1.3723   1.4816   1.4939   1.8411
     2.1513   2.5241   2.5398   3.0698   3.0750   3.3522   4.0227   4.6734
     5.0677   5.3270   5.9464   6.1999   6.4848   7.3147   7.3920   7.9427
     8.0070   8.0541   8.0913   8.7150   8.8720   9.0340   9.1702   9.1710
     9.2457   9.4192   9.4921

     the Fermi energy is     1.8007 ev

!    total energy              =   -1997.86779639 Ry
     Harris-Foulkes estimate   =   -1997.86779311 Ry
     estimated scf accuracy    <       0.00000050 Ry

     The total energy is the sum of the following terms:

     one-electron contribution =  -15595.89973460 Ry
     hartree contribution      =    7845.86397730 Ry
     xc contribution           =    -590.25853857 Ry
     ewald contribution        =    6342.51172541 Ry
     electric field correction =       0.00001182 Ry
     smearing contrib. (-TS)   =      -0.08523775 Ry

     convergence has been achieved in  17 iterations

 BEEF-vdW xc energy contributions
           1 :   -521.732358810396
           2 :    483.662174080772
           3 :   -416.441526151593
           4 :    334.596062149995
           5 :   -253.428123336560
           6 :    184.644172659847
           7 :   -133.863058782851
           8 :    100.542379162765
           9 :   -79.9250206314837
          10 :    65.9077989042499
          11 :   -53.5855078908746
          12 :    40.5994884714246
          13 :   -27.0990291642065
          14 :    14.7218532200637
          15 :   -5.28721910458319
          16 :  -0.195036134077441
          17 :    1.89560198451193
          18 :  -0.949115765715192
          19 :   -1.10015195883227
          20 :    2.88086805043974
          21 :   -3.58239491420511
          22 :    3.06396650146462
          23 :   -1.72749933371347
          24 :   0.255364069144889
          25 :   0.678675711187338
          26 :  -0.646199619576009
          27 :  -0.402418999590395
          28 :    2.13291526603882
          29 :   -3.95411159860123
          30 :    5.24302291176070
          31 :   -45.0953830300581
          32 :   -33.5747044101917

     Forces acting on atoms (Ry/au):

     negative rho (up, down):  3.035E+00 0.000E+00
     atom    1 type  1   force =    -0.00000077   -0.01263455    0.02515686
     atom    2 type  1   force =    -0.01094190    0.00631582    0.02516298
     atom    3 type  1   force =     0.01093986    0.00631490    0.02516035
     atom    4 type  2   force =     0.00000168   -0.00000260   -0.05213420
     atom    5 type  1   force =    -0.00000056    0.02639725    0.00180544
     atom    6 type  1   force =     0.02285961   -0.01318663    0.00185813
     atom    7 type  1   force =    -0.02286107   -0.01318728    0.00185515
     atom    8 type  2   force =    -0.00000014   -0.00001407   -0.02887593
     atom    9 type  1   force =     0.00001015    0.00034622   -0.00035040
     atom   10 type  1   force =     0.00019036   -0.00031464   -0.00036655
     atom   11 type  1   force =    -0.00018593   -0.00032408   -0.00036311
     atom   12 type  2   force =    -0.00001129    0.00028967    0.00109128

     Total force =     0.089620     Total SCF correction =     0.003798

     entering subroutine stress ...

     negative rho (up, down):  3.035E+00 0.000E+00
          total   stress  (Ry/bohr**3)                   (kbar)     P=  -24.93
  -0.00022285  -0.00000000  -0.00000000        -32.78     -0.00     -0.00
  -0.00000000  -0.00022289   0.00000006         -0.00    -32.79      0.01
  -0.00000000   0.00000006  -0.00006273         -0.00      0.01     -9.23

 !ASE

     Writing output data file calc.save

     General routines

     Parallel routines

   This run was terminated on:  12:11:50  30Dec2018

   JOB DONE.
Job  /afs/slac/g/suncat/bin/suncat-tsmpirun -x LD_LIBRARY_PATH -wdir /scratch/qe648518_cl7eL pw.x -in pw.inp

TID   HOST_NAME   COMMAND_LINE            STATUS            TERMINATION_TIME
00000 suncat0081 pw.x -in pw.inp   Done                     12/30/2018 12:11:50
00001 suncat0081 pw.x -in pw.inp   Done                     12/30/2018 12:11:50
00002 suncat0081 pw.x -in pw.inp   Done                     12/30/2018 12:11:50
00003 suncat0081 pw.x -in pw.inp   Done                     12/30/2018 12:11:50
00004 suncat0081 pw.x -in pw.inp   Done                     12/30/2018 12:11:50
00005 suncat0081 pw.x -in pw.inp   Done                     12/30/2018 12:11:50
00006 suncat0081 pw.x -in pw.inp   Done                     12/30/2018 12:11:50
00007 suncat0081 pw.x -in pw.inp   Done                     12/30/2018 12:11:50
00008 suncat0079 pw.x -in pw.inp   Done                     12/30/2018 12:11:50
00009 suncat0079 pw.x -in pw.inp   Done                     12/30/2018 12:11:50
00010 suncat0079 pw.x -in pw.inp   Done                     12/30/2018 12:11:50
00011 suncat0079 pw.x -in pw.inp   Done                     12/30/2018 12:11:50
00012 suncat0079 pw.x -in pw.inp   Done                     12/30/2018 12:11:50
00013 suncat0079 pw.x -in pw.inp   Done                     12/30/2018 12:11:50
00014 suncat0079 pw.x -in pw.inp   Done                     12/30/2018 12:11:50
00015 suncat0079 pw.x -in pw.inp   Done                     12/30/2018 12:11:50
00016 suncat0076 pw.x -in pw.inp   Done                     12/30/2018 12:11:50
00017 suncat0076 pw.x -in pw.inp   Done                     12/30/2018 12:11:50
00018 suncat0076 pw.x -in pw.inp   Done                     12/30/2018 12:11:50
00019 suncat0076 pw.x -in pw.inp   Done                     12/30/2018 12:11:50
00020 suncat0076 pw.x -in pw.inp   Done                     12/30/2018 12:11:50
00021 suncat0076 pw.x -in pw.inp   Done                     12/30/2018 12:11:50
00022 suncat0076 pw.x -in pw.inp   Done                     12/30/2018 12:11:50
00023 suncat0076 pw.x -in pw.inp   Done                     12/30/2018 12:11:50
00024 suncat0075 pw.x -in pw.inp   Done                     12/30/2018 12:11:50
00025 suncat0075 pw.x -in pw.inp   Done                     12/30/2018 12:11:50
00026 suncat0075 pw.x -in pw.inp   Done                     12/30/2018 12:11:50
00027 suncat0075 pw.x -in pw.inp   Done                     12/30/2018 12:11:50
00028 suncat0075 pw.x -in pw.inp   Done                     12/30/2018 12:11:50
00029 suncat0075 pw.x -in pw.inp   Done                     12/30/2018 12:11:50
00030 suncat0075 pw.x -in pw.inp   Done                     12/30/2018 12:11:50
00031 suncat0075 pw.x -in pw.inp   Done                     12/30/2018 12:11:50
00032 suncat0074 pw.x -in pw.inp   Done                     12/30/2018 12:11:50
00033 suncat0074 pw.x -in pw.inp   Done                     12/30/2018 12:11:50
00034 suncat0074 pw.x -in pw.inp   Done                     12/30/2018 12:11:50
00035 suncat0074 pw.x -in pw.inp   Done                     12/30/2018 12:11:50
00036 suncat0074 pw.x -in pw.inp   Done                     12/30/2018 12:11:50
00037 suncat0074 pw.x -in pw.inp   Done                     12/30/2018 12:11:50
00038 suncat0074 pw.x -in pw.inp   Done                     12/30/2018 12:11:50
00039 suncat0074 pw.x -in pw.inp   Done                     12/30/2018 12:11:50
00040 suncat0073 pw.x -in pw.inp   Done                     12/30/2018 12:11:50
00041 suncat0073 pw.x -in pw.inp   Done                     12/30/2018 12:11:50
00042 suncat0073 pw.x -in pw.inp   Done                     12/30/2018 12:11:50
00043 suncat0073 pw.x -in pw.inp   Done                     12/30/2018 12:11:50
00044 suncat0073 pw.x -in pw.inp   Done                     12/30/2018 12:11:50
00045 suncat0073 pw.x -in pw.inp   Done                     12/30/2018 12:11:50
00046 suncat0073 pw.x -in pw.inp   Done                     12/30/2018 12:11:50
00047 suncat0073 pw.x -in pw.inp   Done                     12/30/2018 12:11:50
00048 suncat0065 pw.x -in pw.inp   Done                     12/30/2018 12:11:50
00049 suncat0065 pw.x -in pw.inp   Done                     12/30/2018 12:11:50
00050 suncat0065 pw.x -in pw.inp   Done                     12/30/2018 12:11:50
00051 suncat0065 pw.x -in pw.inp   Done                     12/30/2018 12:11:50
00052 suncat0065 pw.x -in pw.inp   Done                     12/30/2018 12:11:50
00053 suncat0065 pw.x -in pw.inp   Done                     12/30/2018 12:11:50
00054 suncat0065 pw.x -in pw.inp   Done                     12/30/2018 12:11:50
00055 suncat0065 pw.x -in pw.inp   Done                     12/30/2018 12:11:50
00056 suncat0064 pw.x -in pw.inp   Done                     12/30/2018 12:11:50
00057 suncat0064 pw.x -in pw.inp   Done                     12/30/2018 12:11:50
00058 suncat0064 pw.x -in pw.inp   Done                     12/30/2018 12:11:50
00059 suncat0064 pw.x -in pw.inp   Done                     12/30/2018 12:11:50
00060 suncat0064 pw.x -in pw.inp   Done                     12/30/2018 12:11:50
00061 suncat0064 pw.x -in pw.inp   Done                     12/30/2018 12:11:50
00062 suncat0064 pw.x -in pw.inp   Done                     12/30/2018 12:11:50
00063 suncat0064 pw.x -in pw.inp   Done                     12/30/2018 12:11:50