     Program PWSCF v.5.1rc2 (svn rev. 11289) starts on  1Jan2019 at 20:24: 6

     Current dimensions of program PWSCF are:
     Max number of different atomic species (ntypx) = 10
     Max number of k-points (npk) =  40000
     Max angular momentum in pseudopotentials (lmaxx) =  3
     Presently stress not available with electric field

     IMPORTANT: XC functional enforced from input :
     Exchange-correlation      = BEEF-VDW ( 1  4 27 13 2)
     Any further DFT definition will be discarded
     Please, verify this is what you really want

     Subspace diagonalization in iterative solution of the eigenvalue problem:
     a serial algorithm will be used

     Generating pointlists ...
     new r_m :   0.4125 (alat units)  0.7795 (a.u.) for type    1
     new r_m :   0.4125 (alat units)  0.7795 (a.u.) for type    2

     bravais-lattice index     =            0
     lattice parameter (alat)  =       1.8897  a.u.
     unit-cell volume          =    4094.8525 (a.u.)^3
     number of atoms/cell      =           12
     number of atomic types    =            2
     number of electrons       =       189.00
     number of Kohn-Sham states=          124
     kinetic-energy cutoff     =      36.7493  Ry
     charge density cutoff     =     367.4932  Ry
     convergence threshold     =      1.0E-06
     mixing beta               =       0.1000
     number of iterations used =           10  plain     mixing
     Exchange-correlation      = BEEF-VDW ( 1  4 27 13 2)
     nstep                     =           50

     celldm(1)=   1.889726  celldm(2)=   0.000000  celldm(3)=   0.000000
     celldm(4)=   0.000000  celldm(5)=   0.000000  celldm(6)=   0.000000

     crystal axes: (cart. coord. in units of alat)
               a(1) = (   5.361198   0.000000   0.000000 )
               a(2) = (  -2.680599   4.642933   0.000000 )
               a(3) = (   0.000000   0.000000  24.377400 )

     reciprocal axes: (cart. coord. in units 2 pi/alat)
               b(1) = (  0.186525  0.107691  0.000000 )
               b(2) = (  0.000000  0.215381  0.000000 )
               b(3) = (  0.000000  0.000000  0.041022 )

     PseudoPot. # 1 for Tc read from file:
     /afs/slac.stanford.edu/u/if/mamunm/psp/gbrv1.5pbe/Tc.UPF
     MD5 check sum: 9eb49e5b028550b2339a02317eb7b844
     Pseudo is Ultrasoft + core correction, Zval = 15.0
     Generated by new atomic code, or converted to UPF format
     Using radial grid of  965 points,  6 beta functions with:
                l(1) =   0
                l(2) =   0
                l(3) =   1
                l(4) =   1
                l(5) =   2
                l(6) =   2
     Q(r) pseudized with  8 coefficients,  rinner =    1.300   1.300   1.300
                                                       1.300   1.300

     PseudoPot. # 2 for Ni read from file:
     /afs/slac.stanford.edu/u/if/mamunm/psp/gbrv1.5pbe/Ni.UPF
     MD5 check sum: 1ee80287db30b12d2bc1f57a5b5d6409
     Pseudo is Ultrasoft + core correction, Zval = 18.0
     Generated by new atomic code, or converted to UPF format
     Using radial grid of  865 points,  6 beta functions with:
                l(1) =   0
                l(2) =   0
                l(3) =   1
                l(4) =   1
                l(5) =   2
                l(6) =   2
     Q(r) pseudized with 10 coefficients,  rinner =    0.980   0.980   0.980
                                                       0.980   0.980

     vdW kernel table read from file vdW_kernel_table
     MD5 check sum: 095c7af220d748ca6e76c0b4c6cfb241

     atomic species   valence    mass     pseudopotential
        Tc1           15.00    97.90721     Tc( 1.00)
        Ni1           18.00    58.69340     Ni( 1.00)

     Starting magnetic structure
     atomic species   magnetization
        Tc1          0.133
        Ni1          0.111

     No symmetry found

   Cartesian axes

     site n.     atom                  positions (alat units)
         1           Tc1 tau(   1) = (   0.0000000   0.0000000  10.0000000  )
         2           Tc1 tau(   2) = (  -1.3402994   2.3214667  10.0000000  )
         3           Tc1 tau(   3) = (   1.3402994   2.3214667  10.0000000  )
         4           Ni1 tau(   4) = (   2.6805989   0.0000000  10.0000000  )
         5           Tc1 tau(   5) = (   2.6805989   1.5476445  12.1886998  )
         6           Tc1 tau(   6) = (   1.3402994   3.8691112  12.1886998  )
         7           Tc1 tau(   7) = (  -1.3402994   3.8691112  12.1886998  )
         8           Ni1 tau(   8) = (   0.0000000   1.5476445  12.1886998  )
         9           Tc1 tau(   9) = (  -0.0000000   3.0952890  14.3773996  )
        10           Tc1 tau(  10) = (   1.3402994   0.7738222  14.3773996  )
        11           Tc1 tau(  11) = (   4.0208983   0.7738222  14.3773996  )
        12           Ni1 tau(  12) = (   2.6805989   3.0952890  14.3773996  )

     number of k points=    40  Fermi-Dirac smearing, width (Ry)=  0.0110
                       cart. coord. in units 2pi/alat
        k(    1) = (   0.0000000   0.0000000   0.0000000), wk =   0.0277778
        k(    2) = (   0.0000000   0.0358968   0.0000000), wk =   0.0555556
        k(    3) = (   0.0000000   0.0717937   0.0000000), wk =   0.0555556
        k(    4) = (   0.0000000  -0.1076905   0.0000000), wk =   0.0277778
        k(    5) = (   0.0310876   0.0179484   0.0000000), wk =   0.0555556
        k(    6) = (   0.0310876   0.0538453   0.0000000), wk =   0.0555556
        k(    7) = (   0.0310876   0.0897421   0.0000000), wk =   0.0555556
        k(    8) = (   0.0310876  -0.0897421   0.0000000), wk =   0.0555556
        k(    9) = (   0.0310876  -0.0538453   0.0000000), wk =   0.0555556
        k(   10) = (   0.0310876  -0.0179484   0.0000000), wk =   0.0555556
        k(   11) = (   0.0621752   0.0358968   0.0000000), wk =   0.0555556
        k(   12) = (   0.0621752   0.0717937   0.0000000), wk =   0.0555556
        k(   13) = (   0.0621752   0.1076905   0.0000000), wk =   0.0555556
        k(   14) = (   0.0621752  -0.0717937   0.0000000), wk =   0.0555556
        k(   15) = (   0.0621752  -0.0358968   0.0000000), wk =   0.0555556
        k(   16) = (   0.0621752  -0.0000000   0.0000000), wk =   0.0555556
        k(   17) = (  -0.0932627  -0.0538453   0.0000000), wk =   0.0277778
        k(   18) = (  -0.0932627  -0.0179484   0.0000000), wk =   0.0555556
        k(   19) = (  -0.0932627   0.0179484   0.0000000), wk =   0.0555556
        k(   20) = (  -0.0932627  -0.1615358   0.0000000), wk =   0.0277778
        k(   21) = (   0.0000000   0.0000000   0.0000000), wk =   0.0277778
        k(   22) = (   0.0000000   0.0358968   0.0000000), wk =   0.0555556
        k(   23) = (   0.0000000   0.0717937   0.0000000), wk =   0.0555556
        k(   24) = (   0.0000000  -0.1076905   0.0000000), wk =   0.0277778
        k(   25) = (   0.0310876   0.0179484   0.0000000), wk =   0.0555556
        k(   26) = (   0.0310876   0.0538453   0.0000000), wk =   0.0555556
        k(   27) = (   0.0310876   0.0897421   0.0000000), wk =   0.0555556
        k(   28) = (   0.0310876  -0.0897421   0.0000000), wk =   0.0555556
        k(   29) = (   0.0310876  -0.0538453   0.0000000), wk =   0.0555556
        k(   30) = (   0.0310876  -0.0179484   0.0000000), wk =   0.0555556
        k(   31) = (   0.0621752   0.0358968   0.0000000), wk =   0.0555556
        k(   32) = (   0.0621752   0.0717937   0.0000000), wk =   0.0555556
        k(   33) = (   0.0621752   0.1076905   0.0000000), wk =   0.0555556
        k(   34) = (   0.0621752  -0.0717937   0.0000000), wk =   0.0555556
        k(   35) = (   0.0621752  -0.0358968   0.0000000), wk =   0.0555556
        k(   36) = (   0.0621752  -0.0000000   0.0000000), wk =   0.0555556
        k(   37) = (  -0.0932627  -0.0538453   0.0000000), wk =   0.0277778
        k(   38) = (  -0.0932627  -0.0179484   0.0000000), wk =   0.0555556
        k(   39) = (  -0.0932627   0.0179484   0.0000000), wk =   0.0555556
        k(   40) = (  -0.0932627  -0.1615358   0.0000000), wk =   0.0277778

     Largest allocated arrays     est. size (Mb)     dimensions
     Largest temporary arrays     est. size (Mb)     dimensions

     Check: negative/imaginary core charge=   -0.000019    0.000000

     Initial potential from superposition of free atoms
     Check: negative starting charge=(component1):   -0.640399
     Check: negative starting charge=(component2):   -0.489721

     starting charge  173.99975, renormalised to  189.00000

     negative rho (up, down):  6.956E-01 5.319E-01

     *
     * You are using vdW-DF for exchange-correlation in this calculation.
     * Please cite the following three references that made this development
     * possible:
     *
     *   M. Dion, H. Rydberg, E. Schroder, D. C. Langreth, and
     *   B. I. Lundqvist, Phys. Rev. Lett. 92, 246401 (2004).
     *
     *   T. Thonhauser, V. R. Cooper, S. Li, A. Puzder, P. Hyldgaard, and
     *   D. C. Langreth, Phys. Rev. B 76, 125112 (2007).
     *
     *   G. Roman-Perez and J. M. Soler, Phys. Rev. Lett. 103, 096102 (2009).
     *
     *
     * If you are using vdW-DF2, please also cite:
     *
     *   K. Lee, E. D. Murray, L. Kong, B. I. Lundqvist, and
     *   D. C. Langreth, Phys. Rev. B 82, 081101(R) (2010).
     *
     *
     * If you are calculating the stress with vdW-DF, please also cite:
     *
     *   R. Sabatini, E. Kucukbenli, B. Kolb, T. Thonhauser, and
     *   S. de Gironcoli, J. Phys.: Condens. Matter 24, 424209 (2012).
     *

     Carrying out vdW-DF run using the following parameters:

     Nqs =      20    Nr_points =    1024   r_max =   100.000
     q_mesh =
               0.00001000     0.04494208     0.09755937     0.15916263
               0.23128650     0.31572767     0.41458969     0.53033537
               0.66584808     0.82450364     1.01025438     1.22772762
               1.48234092     1.78043706     2.12944203     2.53805004
               3.01644009     3.57652955     4.23227104     5.00000000

     Gradients computed in reciprocal space

     Adding external electric field

     Computed dipole along edir(3) :
        Dipole                0.0000 Ry au,          0.0000 Debye
        Dipole field          0.0000 Ry au

        Potential amp.       -0.0000 Ry
        Total length         44.9149 bohr

[...]

     Starting wfc are  156 randomized atomic wfcs

     Self-consistent Calculation

     iteration #  1     ecut=    36.75 Ry     beta=0.10
     Davidson diagonalization with overlap
     ethr =  1.00E-02,  avg # of iterations =  7.6

[...]

     Magnetic moment per site:
     atom:    1    charge:    2.4132    magn:    0.3013    constr:    0.0000
     atom:    2    charge:    2.4132    magn:    0.3013    constr:    0.0000
     atom:    3    charge:    2.4132    magn:    0.3013    constr:    0.0000
     atom:    4    charge:    9.6546    magn:    1.0213    constr:    0.0000
     atom:    5    charge:    2.4098    magn:    0.3009    constr:    0.0000
     atom:    6    charge:    2.4098    magn:    0.3009    constr:    0.0000
     atom:    7    charge:    2.4098    magn:    0.3009    constr:    0.0000
     atom:    8    charge:    9.6497    magn:    1.0209    constr:    0.0000
[...]
        k(    3) = (   0.0000000   0.0717937   0.0000000), wk =   0.0555556
        k(    4) = (   0.0000000  -0.1076905   0.0000000), wk =   0.0277778
        k(    5) = (   0.0310876   0.0179484   0.0000000), wk =   0.0555556
        k(    6) = (   0.0310876   0.0538453   0.0000000), wk =   0.0555556
        k(    7) = (   0.0310876   0.0897421   0.0000000), wk =   0.0555556
        k(    8) = (   0.0310876  -0.0897421   0.0000000), wk =   0.0555556
        k(    9) = (   0.0310876  -0.0538453   0.0000000), wk =   0.0555556
        k(   10) = (   0.0310876  -0.0179484   0.0000000), wk =   0.0555556
        k(   11) = (   0.0621752   0.0358968   0.0000000), wk =   0.0555556
        k(   12) = (   0.0621752   0.0717937   0.0000000), wk =   0.0555556
        k(   13) = (   0.0621752   0.1076905   0.0000000), wk =   0.0555556
        k(   14) = (   0.0621752  -0.0717937   0.0000000), wk =   0.0555556
        k(   15) = (   0.0621752  -0.0358968   0.0000000), wk =   0.0555556
        k(   16) = (   0.0621752  -0.0000000   0.0000000), wk =   0.0555556
        k(   17) = (  -0.0932627  -0.0538453   0.0000000), wk =   0.0277778
        k(   18) = (  -0.0932627  -0.0179484   0.0000000), wk =   0.0555556
        k(   19) = (  -0.0932627   0.0179484   0.0000000), wk =   0.0555556
        k(   20) = (  -0.0932627  -0.1615358   0.0000000), wk =   0.0277778
        k(   21) = (   0.0000000   0.0000000   0.0000000), wk =   0.0277778
        k(   22) = (   0.0000000   0.0358968   0.0000000), wk =   0.0555556
        k(   23) = (   0.0000000   0.0717937   0.0000000), wk =   0.0555556
        k(   24) = (   0.0000000  -0.1076905   0.0000000), wk =   0.0277778
        k(   25) = (   0.0310876   0.0179484   0.0000000), wk =   0.0555556
        k(   26) = (   0.0310876   0.0538453   0.0000000), wk =   0.0555556
        k(   27) = (   0.0310876   0.0897421   0.0000000), wk =   0.0555556
        k(   28) = (   0.0310876  -0.0897421   0.0000000), wk =   0.0555556
        k(   29) = (   0.0310876  -0.0538453   0.0000000), wk =   0.0555556
        k(   30) = (   0.0310876  -0.0179484   0.0000000), wk =   0.0555556
        k(   31) = (   0.0621752   0.0358968   0.0000000), wk =   0.0555556
        k(   32) = (   0.0621752   0.0717937   0.0000000), wk =   0.0555556
        k(   33) = (   0.0621752   0.1076905   0.0000000), wk =   0.0555556
        k(   34) = (   0.0621752  -0.0717937   0.0000000), wk =   0.0555556
        k(   35) = (   0.0621752  -0.0358968   0.0000000), wk =   0.0555556
        k(   36) = (   0.0621752  -0.0000000   0.0000000), wk =   0.0555556
        k(   37) = (  -0.0932627  -0.0538453   0.0000000), wk =   0.0277778
        k(   38) = (  -0.0932627  -0.0179484   0.0000000), wk =   0.0555556
        k(   39) = (  -0.0932627   0.0179484   0.0000000), wk =   0.0555556
        k(   40) = (  -0.0932627  -0.1615358   0.0000000), wk =   0.0277778

     Largest allocated arrays     est. size (Mb)     dimensions
     Largest temporary arrays     est. size (Mb)     dimensions

     Check: negative/imaginary core charge=   -0.000020    0.000000

     Initial potential from superposition of free atoms
     Check: negative starting charge=(component1):   -0.640805
     Check: negative starting charge=(component2):   -0.490032

     starting charge  173.99975, renormalised to  189.00000

[...]

     *
     * You are using vdW-DF for exchange-correlation in this calculation.
     * Please cite the following three references that made this development
     * possible:
     *
     *   M. Dion, H. Rydberg, E. Schroder, D. C. Langreth, and
     *   B. I. Lundqvist, Phys. Rev. Lett. 92, 246401 (2004).
     *
     *   T. Thonhauser, V. R. Cooper, S. Li, A. Puzder, P. Hyldgaard, and
     *   D. C. Langreth, Phys. Rev. B 76, 125112 (2007).
     *
     *   G. Roman-Perez and J. M. Soler, Phys. Rev. Lett. 103, 096102 (2009).
     *
     *
     * If you are using vdW-DF2, please also cite:
     *
     *   K. Lee, E. D. Murray, L. Kong, B. I. Lundqvist, and
     *   D. C. Langreth, Phys. Rev. B 82, 081101(R) (2010).
     *
     *
     * If you are calculating the stress with vdW-DF, please also cite:
     *
     *   R. Sabatini, E. Kucukbenli, B. Kolb, T. Thonhauser, and
     *   S. de Gironcoli, J. Phys.: Condens. Matter 24, 424209 (2012).
     *

     Carrying out vdW-DF run using the following parameters:

     Nqs =      20    Nr_points =    1024   r_max =   100.000
     q_mesh =
               0.00001000     0.04494208     0.09755937     0.15916263
               0.23128650     0.31572767     0.41458969     0.53033537
               0.66584808     0.82450364     1.01025438     1.22772762
               1.48234092     1.78043706     2.12944203     2.53805004
               3.01644009     3.57652955     4.23227104     5.00000000

     Gradients computed in reciprocal space

[...]

     Starting wfc are  156 randomized atomic wfcs

     Self-consistent Calculation

[...]

     total energy              =   -2610.75820432 Ry
     Harris-Foulkes estimate   =   -2610.75820281 Ry
     estimated scf accuracy    <       0.00000109 Ry

[...]

     iteration # 33     ecut=    36.75 Ry     beta=0.10
     Davidson diagonalization with overlap
     ethr =  5.76E-10,  avg # of iterations =  1.4

[...]

     negative rho (up, down):  5.948E-01 5.948E-01

[...]

     Adding external electric field

     Computed dipole along edir(3) :
        Dipole                0.0102 Ry au,          0.0258 Debye
        Dipole field          0.0000 Ry au

        Potential amp.       -0.0028 Ry
        Total length         44.9149 bohr

     Magnetic moment per site:
     atom:    1    charge:    2.2648    magn:   -0.0000    constr:    0.0000
     atom:    2    charge:    2.2648    magn:   -0.0000    constr:    0.0000
     atom:    3    charge:    2.2648    magn:   -0.0000    constr:    0.0000
     atom:    4    charge:    9.3433    magn:    0.0006    constr:    0.0000
     atom:    5    charge:    2.2623    magn:   -0.0002    constr:    0.0000
     atom:    6    charge:    2.2623    magn:   -0.0002    constr:    0.0000
     atom:    7    charge:    2.2623    magn:   -0.0002    constr:    0.0000
     atom:    8    charge:    9.3304    magn:   -0.0008    constr:    0.0000
     atom:    9    charge:    2.2595    magn:   -0.0001    constr:    0.0000
     atom:   10    charge:    2.2595    magn:   -0.0001    constr:    0.0000
     atom:   11    charge:    2.2595    magn:   -0.0001    constr:    0.0000
     atom:   12    charge:    9.3423    magn:   -0.0021    constr:    0.0000

     End of self-consistent calculation

 ------ SPIN UP ------------

[...]

 ------ SPIN DOWN ----------

[...]

          k = 0.0622-0.0000 0.0000 ( 15382 PWs)   bands (ev):

[...]

          k =-0.0933-0.1615 0.0000 ( 15386 PWs)   bands (ev):

  -101.7189-101.3832-101.3017 -65.4753 -65.4285 -65.3797 -65.0897 -65.0844
   -65.0425 -65.0297 -65.0000 -64.9925 -62.1111 -62.1104 -62.0403 -61.7751
   -61.7745 -61.7198 -61.7063 -61.7057 -61.6109 -37.9121 -37.7445 -37.6826
   -37.6019 -37.5509 -37.5190 -37.4444 -37.4426 -37.4317 -37.3556 -37.1549
   -37.0946 -37.0894 -37.0685 -37.0664 -37.0520 -37.0059 -36.9954 -36.9907
   -36.9469 -36.9401 -36.9040 -36.8850 -36.8329 -36.8279 -36.6594 -36.6466
    -3.4480  -3.4084  -2.8929  -2.5646  -2.4283  -2.2538  -2.1631  -1.9387
    -1.9145  -1.8989  -1.8116  -1.5449  -1.5044  -1.4356  -1.2699  -1.1638
    -1.0398  -0.8894  -0.8188  -0.7732  -0.6289  -0.4027  -0.1831  -0.1542
     0.0327   0.0692   0.0777   0.1919   0.1987   0.2549   0.2850   0.3863
     0.4377   0.4655   0.5268   0.5422   0.5727   0.5951   0.6759   0.6989
     1.0352   1.1121   1.2577   1.3827   1.3925   1.5299   1.7717   1.7925
     1.8930   1.9368   2.0410   2.5298   2.6014   2.6516   2.7522   2.8289
     2.9106   2.9863   3.0299   3.1494   3.3742   3.8494   4.1999   4.7222
     4.9091   5.1141   5.1336   6.1710   6.7392   7.1150   7.2165   7.2904
     7.8345   7.8681   8.2218   8.3896

     the Fermi energy is     1.9071 ev

!    total energy              =   -2610.75820877 Ry
     Harris-Foulkes estimate   =   -2610.75820434 Ry
     estimated scf accuracy    <       0.00000077 Ry

     The total energy is the sum of the following terms:

     one-electron contribution =  -22377.28237277 Ry
     hartree contribution      =   11189.59854007 Ry
     xc contribution           =    -408.08433880 Ry
     ewald contribution        =    8985.08912453 Ry
     electric field correction =       0.00000032 Ry
     smearing contrib. (-TS)   =      -0.07916211 Ry

     total magnetization       =    -0.01 Bohr mag/cell
     absolute magnetization    =     0.02 Bohr mag/cell

     convergence has been achieved in  33 iterations

 BEEF-vdW xc energy contributions
           1 :   -358.195688782222
           2 :    328.227087431729
           3 :   -275.717760916762
           4 :    212.468290842543
           5 :   -150.521589819338
           6 :    98.4268353642709
           7 :   -59.5580330964080
           8 :    32.6533643999499
           9 :   -14.0141501581617
          10 :  -6.016316689647283E-002
          11 :    11.6074620529199
          12 :   -20.7139729440187
          13 :    26.2551585443911
          14 :   -27.0912056866717
          15 :    22.9548025346672
          16 :   -14.7628642711736
          17 :    4.30564611973847
          18 :    6.32567457395987
          19 :   -15.3202553266347
          20 :    21.4714360239391
          21 :   -24.2738561568908
          22 :    23.8142548871222
          23 :   -20.6144267115124
          24 :    15.4432958625700
          25 :   -9.17104720298926
          26 :    2.61954563140222
          27 :    3.53169787786027
          28 :   -8.80104034992235
          29 :    12.8651496150616
          30 :   -15.4885415301144
          31 :   -32.8331106286421
          32 :   -23.8326127369078

     Forces acting on atoms (Ry/au):

     negative rho (up, down):  5.948E-01 5.948E-01
     atom    1 type  1   force =     0.00000033   -0.01248257    0.01471644
     atom    2 type  1   force =    -0.01081053    0.00624218    0.01471583
     atom    3 type  1   force =     0.01081546    0.00624455    0.01471631
     atom    4 type  2   force =     0.00000002    0.00000046    0.01569398
     atom    5 type  1   force =    -0.00000235   -0.00217944   -0.01623118
     atom    6 type  1   force =    -0.00188958    0.00108801   -0.01623076
     atom    7 type  1   force =     0.00189054    0.00109121   -0.01622712
     atom    8 type  2   force =    -0.00001113   -0.00000764   -0.01048853
     atom    9 type  1   force =     0.00000164   -0.00038679   -0.00013998
     atom   10 type  1   force =    -0.00033484    0.00019489   -0.00014076
     atom   11 type  1   force =     0.00033691    0.00019416   -0.00013991
     atom   12 type  2   force =     0.00000353    0.00000097   -0.00024432

     Total force =     0.047735     Total SCF correction =     0.003314

     entering subroutine stress ...

     negative rho (up, down):  5.948E-01 5.948E-01
          total   stress  (Ry/bohr**3)                   (kbar)     P=  -36.67
  -0.00029058  -0.00000000  -0.00000000        -42.75     -0.00     -0.00
  -0.00000000  -0.00029058  -0.00000000         -0.00    -42.75     -0.00
  -0.00000000  -0.00000000  -0.00016657         -0.00     -0.00    -24.50

 !ASE

     Writing output data file calc.save

     General routines

     Parallel routines

   This run was terminated on:   0: 1:11   2Jan2019

   JOB DONE.
Job  /afs/slac/g/suncat/bin/suncat-tsmpirun -x LD_LIBRARY_PATH -wdir /scratch/qe649164_8FAt3 pw.x -in pw.inp

TID   HOST_NAME   COMMAND_LINE            STATUS            TERMINATION_TIME
00000 suncat0163 pw.x -in pw.inp   Done                     01/02/2019 00:01:11
00001 suncat0163 pw.x -in pw.inp   Done                     01/02/2019 00:01:11
00002 suncat0163 pw.x -in pw.inp   Done                     01/02/2019 00:01:11
00003 suncat0163 pw.x -in pw.inp   Done                     01/02/2019 00:01:11
00004 suncat0163 pw.x -in pw.inp   Done                     01/02/2019 00:01:11
00005 suncat0163 pw.x -in pw.inp   Done                     01/02/2019 00:01:11
00006 suncat0163 pw.x -in pw.inp   Done                     01/02/2019 00:01:11
00007 suncat0163 pw.x -in pw.inp   Done                     01/02/2019 00:01:11
00008 suncat0162 pw.x -in pw.inp   Done                     01/02/2019 00:01:11
00009 suncat0162 pw.x -in pw.inp   Done                     01/02/2019 00:01:11
00010 suncat0162 pw.x -in pw.inp   Done                     01/02/2019 00:01:11
00011 suncat0162 pw.x -in pw.inp   Done                     01/02/2019 00:01:11
00012 suncat0162 pw.x -in pw.inp   Done                     01/02/2019 00:01:11
00013 suncat0162 pw.x -in pw.inp   Done                     01/02/2019 00:01:11
00014 suncat0162 pw.x -in pw.inp   Done                     01/02/2019 00:01:11
00015 suncat0162 pw.x -in pw.inp   Done                     01/02/2019 00:01:11
00016 suncat0139 pw.x -in pw.inp   Done                     01/02/2019 00:01:11
00017 suncat0139 pw.x -in pw.inp   Done                     01/02/2019 00:01:11
00018 suncat0139 pw.x -in pw.inp   Done                     01/02/2019 00:01:11
00019 suncat0139 pw.x -in pw.inp   Done                     01/02/2019 00:01:11
00020 suncat0139 pw.x -in pw.inp   Done                     01/02/2019 00:01:11
00021 suncat0139 pw.x -in pw.inp   Done                     01/02/2019 00:01:11
00022 suncat0139 pw.x -in pw.inp   Done                     01/02/2019 00:01:11
00023 suncat0139 pw.x -in pw.inp   Done                     01/02/2019 00:01:11
00024 suncat0133 pw.x -in pw.inp   Done                     01/02/2019 00:01:11
00025 suncat0133 pw.x -in pw.inp   Done                     01/02/2019 00:01:11
00026 suncat0133 pw.x -in pw.inp   Done                     01/02/2019 00:01:11
00027 suncat0133 pw.x -in pw.inp   Done                     01/02/2019 00:01:11
00028 suncat0133 pw.x -in pw.inp   Done                     01/02/2019 00:01:11
00029 suncat0133 pw.x -in pw.inp   Done                     01/02/2019 00:01:11
00030 suncat0133 pw.x -in pw.inp   Done                     01/02/2019 00:01:11
00031 suncat0133 pw.x -in pw.inp   Done                     01/02/2019 00:01:11
00032 suncat0123 pw.x -in pw.inp   Done                     01/02/2019 00:01:11
00033 suncat0123 pw.x -in pw.inp   Done                     01/02/2019 00:01:11
00034 suncat0123 pw.x -in pw.inp   Done                     01/02/2019 00:01:11
00035 suncat0123 pw.x -in pw.inp   Done                     01/02/2019 00:01:11
00036 suncat0123 pw.x -in pw.inp   Done                     01/02/2019 00:01:11
00037 suncat0123 pw.x -in pw.inp   Done                     01/02/2019 00:01:11
00038 suncat0123 pw.x -in pw.inp   Done                     01/02/2019 00:01:11
00039 suncat0123 pw.x -in pw.inp   Done                     01/02/2019 00:01:11
00040 suncat0122 pw.x -in pw.inp   Done                     01/02/2019 00:01:11
00041 suncat0122 pw.x -in pw.inp   Done                     01/02/2019 00:01:11
00042 suncat0122 pw.x -in pw.inp   Done                     01/02/2019 00:01:11
00043 suncat0122 pw.x -in pw.inp   Done                     01/02/2019 00:01:11
00044 suncat0122 pw.x -in pw.inp   Done                     01/02/2019 00:01:11
00045 suncat0122 pw.x -in pw.inp   Done                     01/02/2019 00:01:11
00046 suncat0122 pw.x -in pw.inp   Done                     01/02/2019 00:01:11
00047 suncat0122 pw.x -in pw.inp   Done                     01/02/2019 00:01:11
00048 suncat0207 pw.x -in pw.inp   Done                     01/02/2019 00:01:11
00049 suncat0207 pw.x -in pw.inp   Done                     01/02/2019 00:01:11
00050 suncat0207 pw.x -in pw.inp   Done                     01/02/2019 00:01:11
00051 suncat0207 pw.x -in pw.inp   Done                     01/02/2019 00:01:11
00052 suncat0207 pw.x -in pw.inp   Done                     01/02/2019 00:01:11
00053 suncat0207 pw.x -in pw.inp   Done                     01/02/2019 00:01:11
00054 suncat0207 pw.x -in pw.inp   Done                     01/02/2019 00:01:11
00055 suncat0207 pw.x -in pw.inp   Done                     01/02/2019 00:01:11
00056 suncat0206 pw.x -in pw.inp   Done                     01/02/2019 00:01:11
00057 suncat0206 pw.x -in pw.inp   Done                     01/02/2019 00:01:11
00058 suncat0206 pw.x -in pw.inp   Done                     01/02/2019 00:01:11
00059 suncat0206 pw.x -in pw.inp   Done                     01/02/2019 00:01:11
00060 suncat0206 pw.x -in pw.inp   Done                     01/02/2019 00:01:11
00061 suncat0206 pw.x -in pw.inp   Done                     01/02/2019 00:01:11
00062 suncat0206 pw.x -in pw.inp   Done                     01/02/2019 00:01:11
00063 suncat0206 pw.x -in pw.inp   Done                     01/02/2019 00:01:11