     Program PWSCF v.5.1rc2 (svn rev. 11289) starts on 30Dec2018 at 10:40:23

     Current dimensions of program PWSCF are:
     Max number of different atomic species (ntypx) = 10
     Max number of k-points (npk) =  40000
     Max angular momentum in pseudopotentials (lmaxx) =  3
     Presently stress not available with electric field

     IMPORTANT: XC functional enforced from input :
     Exchange-correlation      = BEEF-VDW ( 1  4 27 13 2)
     Any further DFT definition will be discarded
     Please, verify this is what you really want

     Subspace diagonalization in iterative solution of the eigenvalue problem:
     a serial algorithm will be used

     bravais-lattice index     =            0
     lattice parameter (alat)  =       1.8897  a.u.
     unit-cell volume          =    4488.0641 (a.u.)^3
     number of atoms/cell      =           12
     number of atomic types    =            2
     number of electrons       =       168.00
     number of Kohn-Sham states=          114
     kinetic-energy cutoff     =      36.7493  Ry
     charge density cutoff     =     367.4932  Ry
     convergence threshold     =      1.0E-06
     mixing beta               =       0.1000
     number of iterations used =           10  plain     mixing
     Exchange-correlation      = BEEF-VDW ( 1  4 27 13 2)
     nstep                     =           50

     celldm(1)=   1.889726  celldm(2)=   0.000000  celldm(3)=   0.000000
     celldm(4)=   0.000000  celldm(5)=   0.000000  celldm(6)=   0.000000

     crystal axes: (cart. coord. in units of alat)
               a(1) = (   5.591209   0.000000   0.000000 )
               a(2) = (  -2.795605   4.842129   0.000000 )
               a(3) = (   0.000000   0.000000  24.565203 )

     reciprocal axes: (cart. coord. in units 2 pi/alat)
               b(1) = (  0.178852  0.103260  0.000000 )
               b(2) = (  0.000000  0.206521  0.000000 )
               b(3) = (  0.000000  0.000000  0.040708 )

     PseudoPot. # 1 for Ir read from file:
     /afs/slac.stanford.edu/u/if/mamunm/psp/gbrv1.5pbe/Ir.UPF
     MD5 check sum: 8836f839c3459d2b385c504ce6d91f2c
     Pseudo is Ultrasoft + core correction, Zval = 15.0
     Generated by new atomic code, or converted to UPF format
     Using radial grid of  983 points,  7 beta functions with:
                l(1) =   0
                l(2) =   0
                l(3) =   1
                l(4) =   1
                l(5) =   1
                l(6) =   2
                l(7) =   2
     Q(r) pseudized with  8 coefficients,  rinner =    1.400   1.400   1.400
                                                       1.400   1.400

     PseudoPot. # 2 for Au read from file:
     /afs/slac.stanford.edu/u/if/mamunm/psp/gbrv1.5pbe/Au.UPF
     MD5 check sum: 9d7f43293ad2c663164586bc4b293ffc
     Pseudo is Ultrasoft + core correction, Zval = 11.0
     Generated by new atomic code, or converted to UPF format
     Using radial grid of  985 points,  7 beta functions with:
                l(1) =   0
                l(2) =   0
                l(3) =   1
                l(4) =   1
                l(5) =   2
                l(6) =   2
                l(7) =   3
     Q(r) pseudized with  6 coefficients,  rinner =    1.900   1.900   1.900
                                                       1.900   1.900   1.900
                                                       1.900

     vdW kernel table read from file vdW_kernel_table
     MD5 check sum: 095c7af220d748ca6e76c0b4c6cfb241

     atomic species   valence    mass     pseudopotential
        Ir1           15.00   192.21700     Ir( 1.00)
        Au1           11.00   196.96657     Au( 1.00)

     No symmetry found

   Cartesian axes

     site n.     atom                  positions (alat units)
         1           Ir1 tau(   1) = (   0.0000000   0.0000000  10.0000000  )
         2           Ir1 tau(   2) = (  -1.3978023   2.4210645  10.0000000  )
         3           Ir1 tau(   3) = (   1.3978023   2.4210645  10.0000000  )
         4           Au1 tau(   4) = (   2.7956045   0.0000000  10.0000000  )
         5           Ir1 tau(   5) = (   2.7956045   1.6140430  12.2826015  )
         6           Ir1 tau(   6) = (   1.3978023   4.0351075  12.2826015  )
         7           Ir1 tau(   7) = (  -1.3978023   4.0351075  12.2826015  )
         8           Au1 tau(   8) = (   0.0000000   1.6140430  12.2826015  )
         9           Ir1 tau(   9) = (  -0.0000000   3.2280860  14.5652031  )
        10           Ir1 tau(  10) = (   1.3978023   0.8070215  14.5652031  )
        11           Ir1 tau(  11) = (   4.1934068   0.8070215  14.5652031  )
        12           Au1 tau(  12) = (   2.7956045   3.2280860  14.5652031  )

     number of k points=    20  Fermi-Dirac smearing, width (Ry)=  0.0110
                       cart. coord. in units 2pi/alat
        k(    1) = (   0.0000000   0.0000000   0.0000000), wk =   0.0555556
        k(    2) = (   0.0000000   0.0344201   0.0000000), wk =   0.1111111
        k(    3) = (   0.0000000   0.0688402   0.0000000), wk =   0.1111111
        k(    4) = (   0.0000000  -0.1032604   0.0000000), wk =   0.0555556
        k(    5) = (   0.0298087   0.0172101   0.0000000), wk =   0.1111111
        k(    6) = (   0.0298087   0.0516302   0.0000000), wk =   0.1111111
        k(    7) = (   0.0298087   0.0860503   0.0000000), wk =   0.1111111
        k(    8) = (   0.0298087  -0.0860503   0.0000000), wk =   0.1111111
        k(    9) = (   0.0298087  -0.0516302   0.0000000), wk =   0.1111111
        k(   10) = (   0.0298087  -0.0172101   0.0000000), wk =   0.1111111
        k(   11) = (   0.0596174   0.0344201   0.0000000), wk =   0.1111111
        k(   12) = (   0.0596174   0.0688402   0.0000000), wk =   0.1111111
        k(   13) = (   0.0596174   0.1032604   0.0000000), wk =   0.1111111
        k(   14) = (   0.0596174  -0.0688402   0.0000000), wk =   0.1111111
        k(   15) = (   0.0596174  -0.0344201   0.0000000), wk =   0.1111111
        k(   16) = (   0.0596174  -0.0000000   0.0000000), wk =   0.1111111
        k(   17) = (  -0.0894261  -0.0516302   0.0000000), wk =   0.0555556
        k(   18) = (  -0.0894261  -0.0172101   0.0000000), wk =   0.1111111
        k(   19) = (  -0.0894261   0.0172101   0.0000000), wk =   0.1111111
        k(   20) = (  -0.0894261  -0.1548905   0.0000000), wk =   0.0555556

     Largest allocated arrays     est. size (Mb)     dimensions
     Largest temporary arrays     est. size (Mb)     dimensions

     Check: negative/imaginary core charge=   -0.000001    0.000000

     Initial potential from superposition of free atoms
     Check: negative starting charge=   -3.289957

     starting charge  163.49935, renormalised to  168.00000

     negative rho (up, down):  3.381E+00 0.000E+00

     *
     * You are using vdW-DF for exchange-correlation in this calculation.
     * Please cite the following three references that made this development
     * possible:
     *
     *   M. Dion, H. Rydberg, E. Schroder, D. C. Langreth, and
     *   B. I. Lundqvist, Phys. Rev. Lett. 92, 246401 (2004).
     *
     *   T. Thonhauser, V. R. Cooper, S. Li, A. Puzder, P. Hyldgaard, and
     *   D. C. Langreth, Phys. Rev. B 76, 125112 (2007).
     *
     *   G. Roman-Perez and J. M. Soler, Phys. Rev. Lett. 103, 096102 (2009).
     *
     *
     * If you are using vdW-DF2, please also cite:
     *
     *   K. Lee, E. D. Murray, L. Kong, B. I. Lundqvist, and
     *   D. C. Langreth, Phys. Rev. B 82, 081101(R) (2010).
     *
     *
     * If you are calculating the stress with vdW-DF, please also cite:
     *
     *   R. Sabatini, E. Kucukbenli, B. Kolb, T. Thonhauser, and
     *   S. de Gironcoli, J. Phys.: Condens. Matter 24, 424209 (2012).
     *

     Carrying out vdW-DF run using the following parameters:

     Nqs =      20    Nr_points =    1024   r_max =   100.000
     q_mesh =
               0.00001000     0.04494208     0.09755937     0.15916263
               0.23128650     0.31572767     0.41458969     0.53033537
               0.66584808     0.82450364     1.01025438     1.22772762
               1.48234092     1.78043706     2.12944203     2.53805004
               3.01644009     3.57652955     4.23227104     5.00000000

     Gradients computed in reciprocal space

     Adding external electric field

     Computed dipole along edir(3) :
        Dipole                0.0000 Ry au,          0.0000 Debye
        Dipole field          0.0000 Ry au

        Potential amp.       -0.0000 Ry
        Total length         45.2610 bohr

     Starting wfc are  135 randomized atomic wfcs

     Self-consistent Calculation

     iteration #  1     ecut=    36.75 Ry     beta=0.10
     Davidson diagonalization with overlap
     ethr =  1.00E-02,  avg # of iterations =  7.8

[...]

     total energy              =   -2000.15918011 Ry
     Harris-Foulkes estimate   =   -2001.66342511 Ry
     estimated scf accuracy    <       9.65081605 Ry

[...]

     End of self-consistent calculation

          k = 0.0000 0.0000 0.0000 ( 16811 PWs)   bands (ev):

   -47.8192 -47.7116 -47.7116 -47.6274 -47.6226 -47.6226 -47.5126 -47.5117
   -47.4895 -47.3687 -47.3687 -47.3335 -47.3335 -47.3068 -47.3068 -47.1371
   -47.1296 -47.1259 -47.1259 -47.1239 -47.1175 -47.1175 -47.1005 -47.0792
   -47.0792 -47.0651 -47.0651  -7.3526  -5.6190  -5.2598  -5.0497  -5.0497
    -4.8391  -4.8391  -4.6804  -4.4549  -4.3393  -4.3393  -4.2476  -4.2476
    -4.1554  -3.7113  -3.0515  -3.0515  -2.8491  -2.8491  -2.3491  -2.2860
    -2.0730  -1.9749  -1.8055  -1.8054  -1.5253  -1.5253  -1.2763  -1.2763
    -1.2649  -1.2649  -0.8747  -0.7780  -0.4891  -0.4891  -0.1481  -0.1481
    -0.1109  -0.1109   0.1936   0.6249   0.6249   0.7165   0.8790   1.1956
     1.3833   1.3833   1.5979   1.5979   1.6571   1.6571   1.9473   1.9473
     2.0736   2.0736   2.1404   2.1404   2.2945   2.2993   2.4817   2.4818
     2.8238   2.8353   2.8353   2.9285   3.1683   3.2321   4.4719   4.4892
     4.7478   4.7478   4.9005   4.9005   6.3147   6.5887   6.9275   7.3533
     7.4423   7.8732   7.9977   7.9977   8.0484   8.0484   8.5172   8.6973
     9.0321   9.0322

[...]

          k =-0.0894-0.0516 0.0000 ( 16912 PWs)   bands (ev):

[...]

     the Fermi energy is     1.6750 ev

!    total energy              =   -1999.60921782 Ry
     Harris-Foulkes estimate   =   -1999.62294006 Ry
     estimated scf accuracy    <       0.00000040 Ry

     The total energy is the sum of the following terms:

     one-electron contribution =  -15267.16186158 Ry
     hartree contribution      =    7679.30191471 Ry
     xc contribution           =    -659.45289235 Ry
     ewald contribution        =    6247.81490219 Ry
     electric field correction =       0.00000000 Ry
     smearing contrib. (-TS)   =      -0.11128078 Ry

     convergence has been achieved in  17 iterations

 BEEF-vdW xc energy contributions
           1 :   -585.381385662465
           2 :    544.517074847150
           3 :   -471.345514433851
           4 :    380.099012183348
           5 :   -286.459649747915
           6 :    203.503723922778
           7 :   -138.979572363311
           8 :    94.5140373749955
           9 :   -66.7320657326871
[...]
     Generated by new atomic code, or converted to UPF format
     Using radial grid of  983 points,  7 beta functions with:
                l(1) =   0
                l(2) =   0
                l(3) =   1
                l(4) =   1
                l(5) =   1
                l(6) =   2
                l(7) =   2
     Q(r) pseudized with  8 coefficients,  rinner =    1.400   1.400   1.400
                                                       1.400   1.400

     PseudoPot. # 2 for Au read from file:
     /afs/slac.stanford.edu/u/if/mamunm/psp/gbrv1.5pbe/Au.UPF
     MD5 check sum: 9d7f43293ad2c663164586bc4b293ffc
     Pseudo is Ultrasoft + core correction, Zval = 11.0
     Generated by new atomic code, or converted to UPF format
     Using radial grid of  985 points,  7 beta functions with:
                l(1) =   0
                l(2) =   0
                l(3) =   1
                l(4) =   1
                l(5) =   2
                l(6) =   2
                l(7) =   3
     Q(r) pseudized with  6 coefficients,  rinner =    1.900   1.900   1.900
                                                       1.900   1.900   1.900
                                                       1.900

     vdW kernel table read from file vdW_kernel_table
     MD5 check sum: 095c7af220d748ca6e76c0b4c6cfb241

     atomic species   valence    mass     pseudopotential
        Ir1           15.00   192.21700     Ir( 1.00)
        Au1           11.00   196.96657     Au( 1.00)

     No symmetry found

   Cartesian axes

     site n.     atom                  positions (alat units)
         1           Ir1 tau(   1) = (   0.0000000   0.0000000  10.0000000  )
         2           Ir1 tau(   2) = (  -1.3978023   2.4210645  10.0000000  )
         3           Ir1 tau(   3) = (   1.3978023   2.4210645  10.0000000  )
         4           Au1 tau(   4) = (   2.7956045   0.0000000  10.0000000  )
         5           Ir1 tau(   5) = (   2.7956045   1.6140430  12.2826015  )
         6           Ir1 tau(   6) = (   1.3978023   4.0351075  12.2826015  )
         7           Ir1 tau(   7) = (  -1.3978023   4.0351075  12.2826015  )
         8           Au1 tau(   8) = (   0.0000000   1.6140430  12.2826015  )
         9           Ir1 tau(   9) = (  -0.0000024   3.2738465  14.4793136  )
        10           Ir1 tau(  10) = (   1.4374309   0.7841393  14.4793151  )
        11           Ir1 tau(  11) = (   4.1537774   0.7841417  14.4793164  )
        12           Au1 tau(  12) = (   2.7956015   3.2280924  14.7838225  )

     number of k points=    20  Fermi-Dirac smearing, width (Ry)=  0.0110
                       cart. coord. in units 2pi/alat
        k(    1) = (   0.0000000   0.0000000   0.0000000), wk =   0.0555556
        k(    2) = (   0.0000000   0.0344201   0.0000000), wk =   0.1111111
        k(    3) = (   0.0000000   0.0688402   0.0000000), wk =   0.1111111
        k(    4) = (   0.0000000  -0.1032604   0.0000000), wk =   0.0555556
        k(    5) = (   0.0298087   0.0172101   0.0000000), wk =   0.1111111
        k(    6) = (   0.0298087   0.0516302   0.0000000), wk =   0.1111111
        k(    7) = (   0.0298087   0.0860503   0.0000000), wk =   0.1111111
        k(    8) = (   0.0298087  -0.0860503   0.0000000), wk =   0.1111111
        k(    9) = (   0.0298087  -0.0516302   0.0000000), wk =   0.1111111
        k(   10) = (   0.0298087  -0.0172101   0.0000000), wk =   0.1111111
        k(   11) = (   0.0596174   0.0344201   0.0000000), wk =   0.1111111
        k(   12) = (   0.0596174   0.0688402   0.0000000), wk =   0.1111111
        k(   13) = (   0.0596174   0.1032604   0.0000000), wk =   0.1111111
        k(   14) = (   0.0596174  -0.0688402   0.0000000), wk =   0.1111111
        k(   15) = (   0.0596174  -0.0344201   0.0000000), wk =   0.1111111
        k(   16) = (   0.0596174  -0.0000000   0.0000000), wk =   0.1111111
        k(   17) = (  -0.0894261  -0.0516302   0.0000000), wk =   0.0555556
        k(   18) = (  -0.0894261  -0.0172101   0.0000000), wk =   0.1111111
        k(   19) = (  -0.0894261   0.0172101   0.0000000), wk =   0.1111111
        k(   20) = (  -0.0894261  -0.1548905   0.0000000), wk =   0.0555556

     Largest allocated arrays     est. size (Mb)     dimensions
     Largest temporary arrays     est. size (Mb)     dimensions

     Check: negative/imaginary core charge=   -0.000001    0.000000

     Initial potential from superposition of free atoms
     Check: negative starting charge=   -3.282563

     starting charge  163.49935, renormalised to  168.00000

[...]

     *
     * You are using vdW-DF for exchange-correlation in this calculation.
     * Please cite the following three references that made this development
     * possible:
     *
     *   M. Dion, H. Rydberg, E. Schroder, D. C. Langreth, and
     *   B. I. Lundqvist, Phys. Rev. Lett. 92, 246401 (2004).
     *
     *   T. Thonhauser, V. R. Cooper, S. Li, A. Puzder, P. Hyldgaard, and
     *   D. C. Langreth, Phys. Rev. B 76, 125112 (2007).
     *
     *   G. Roman-Perez and J. M. Soler, Phys. Rev. Lett. 103, 096102 (2009).
     *
     *
     * If you are using vdW-DF2, please also cite:
     *
     *   K. Lee, E. D. Murray, L. Kong, B. I. Lundqvist, and
     *   D. C. Langreth, Phys. Rev. B 82, 081101(R) (2010).
     *
     *
     * If you are calculating the stress with vdW-DF, please also cite:
     *
     *   R. Sabatini, E. Kucukbenli, B. Kolb, T. Thonhauser, and
     *   S. de Gironcoli, J. Phys.: Condens. Matter 24, 424209 (2012).
     *

     Carrying out vdW-DF run using the following parameters:

     Nqs =      20    Nr_points =    1024   r_max =   100.000
     q_mesh =
               0.00001000     0.04494208     0.09755937     0.15916263
               0.23128650     0.31572767     0.41458969     0.53033537
               0.66584808     0.82450364     1.01025438     1.22772762
               1.48234092     1.78043706     2.12944203     2.53805004
               3.01644009     3.57652955     4.23227104     5.00000000

     Gradients computed in reciprocal space

[...]

     Starting wfc are  135 randomized atomic wfcs

     Self-consistent Calculation

[...]

     total energy              =   -1999.64128658 Ry
     Harris-Foulkes estimate   =   -1999.64128153 Ry
     estimated scf accuracy    <       0.00000152 Ry

     iteration # 18     ecut=    36.75 Ry     beta=0.10
     Davidson diagonalization with overlap
     ethr =  9.03E-10,  avg # of iterations =  2.3

[...]

     negative rho (up, down):  2.951E+00 0.000E+00

     Adding external electric field

     Computed dipole along edir(3) :
        Dipole                0.0045 Ry au,          0.0114 Debye
        Dipole field          0.0000 Ry au

        Potential amp.       -0.0011 Ry
        Total length         45.2610 bohr

     End of self-consistent calculation

[...]

          k = 0.0596-0.0000 0.0000 ( 16880 PWs)   bands (ev):

[...]

          k =-0.0894-0.1549 0.0000 ( 16912 PWs)   bands (ev):

   -47.7887 -47.7203 -47.6752 -47.6741 -47.6301 -47.5828 -47.5144 -47.4923
   -47.4475 -47.3906 -47.3563 -47.3441 -47.3057 -47.2848 -47.2619 -47.2571
   -47.2305 -47.2095 -47.1996 -47.1973 -47.1929 -47.1884 -47.1645 -47.0977
   -47.0785 -47.0641 -47.0483  -5.7307  -5.4651  -4.4875  -4.3860  -4.3313
    -4.1815  -3.9266  -3.8630  -3.8263  -3.7094  -3.6340  -3.5758  -3.5523
    -3.1599  -3.1037  -2.9694  -2.9005  -2.7750  -2.6020  -2.5122  -2.4569
    -2.3925  -2.3093  -2.2487  -2.0665  -1.8839  -1.7794  -1.6433  -1.6132
    -1.3978  -1.2715  -1.1586  -1.0469  -0.9617  -0.8774  -0.8444  -0.7985
    -0.7483  -0.7074  -0.6077  -0.4421  -0.2570  -0.1096   0.0125   0.0536
     0.1181   0.4221   0.4615   0.4800   0.5605   0.6089   0.8265   0.9506
     1.1025   1.1456   1.2137   1.2287   1.5651   1.6212   1.6668   1.7136
     2.0837   2.3717   2.8825   3.3229   3.4772   3.6389   4.5677   4.6740
     5.2396   6.0376   6.3176   6.6047   6.8489   7.7558   7.7720   8.3577
     8.4014   8.4367   8.4578   9.0711   9.4459   9.4959   9.5571   9.5964
     9.6189   9.6918

     the Fermi energy is     1.6810 ev

!    total energy              =   -1999.64129713 Ry
     Harris-Foulkes estimate   =   -1999.64128673 Ry
     estimated scf accuracy    <       0.00000025 Ry

     The total energy is the sum of the following terms:

     one-electron contribution =  -15320.91081005 Ry
     hartree contribution      =    7706.18816507 Ry
     xc contribution           =    -659.53229157 Ry
     ewald contribution        =    6274.72180908 Ry
     electric field correction =       0.00000006 Ry
     smearing contrib. (-TS)   =      -0.10816971 Ry

     convergence has been achieved in  18 iterations

 BEEF-vdW xc energy contributions
           1 :   -585.854382484052
           2 :    544.997781106477
           3 :   -471.839191300775
           4 :    380.602029495276
           5 :   -286.954619304590
           6 :    203.962132097810
           7 :   -139.373869103936
           8 :    94.8329680923133
           9 :   -66.9905442087405
          10 :    49.8701941938200
          11 :   -37.4943696661666
          12 :    25.8272778007264
          13 :   -13.5142732656431
          14 :    1.42724289248281
          15 :    8.53335446976314
          16 :   -14.7579048037582
          17 :    16.8155433225991
          18 :   -15.6363183289747
          19 :    13.0368009571645
          20 :   -10.9022269856072
          21 :    10.4228211061376
          22 :   -11.7074198374182
          23 :    13.8966710553993
          24 :   -15.6790635812445
          25 :    15.9465687253049
          26 :   -14.2964034515912
          27 :    11.1746293743993
          28 :   -7.63299998059153
          29 :    4.83858633181273
          30 :   -3.57347531578762
          31 :   -48.9741996014061
          32 :   -36.4311029345890

     Forces acting on atoms (Ry/au):

     negative rho (up, down):  2.951E+00 0.000E+00
     atom    1 type  1   force =     0.00000038   -0.01710866    0.02113596
     atom    2 type  1   force =    -0.01481602    0.00855492    0.02113505
     atom    3 type  1   force =     0.01481548    0.00855452    0.02113586
     atom    4 type  2   force =    -0.00000159   -0.00000321   -0.05269206
     atom    5 type  1   force =    -0.00000275    0.01942051   -0.00101037
     atom    6 type  1   force =     0.01681797   -0.00971010   -0.00101333
     atom    7 type  1   force =    -0.01681881   -0.00970744   -0.00101087
     atom    8 type  2   force =     0.00000655   -0.00000307   -0.01241894
     atom    9 type  1   force =    -0.00000097   -0.00014527    0.00097124
     atom   10 type  1   force =    -0.00012664    0.00007315    0.00097141
     atom   11 type  1   force =     0.00012583    0.00007380    0.00097138
     atom   12 type  2   force =     0.00000057    0.00000085    0.00182466

     Total force =     0.079307     Total SCF correction =     0.002469

     entering subroutine stress ...

     negative rho (up, down):  2.951E+00 0.000E+00
          total   stress  (Ry/bohr**3)                   (kbar)     P=  -25.79
  -0.00024406  -0.00000000   0.00000000        -35.90     -0.00      0.00
  -0.00000000  -0.00024406   0.00000000         -0.00    -35.90      0.00
   0.00000000   0.00000000  -0.00003776          0.00      0.00     -5.55

 !ASE

     Writing output data file calc.save

     General routines

     Parallel routines

   This run was terminated on:  12:12:18  30Dec2018

   JOB DONE.
Job  /afs/slac/g/suncat/bin/suncat-tsmpirun -x LD_LIBRARY_PATH -wdir /scratch/qe648517_z91lW pw.x -in pw.inp

TID   HOST_NAME   COMMAND_LINE            STATUS            TERMINATION_TIME
00000 suncat0096 pw.x -in pw.inp   Done                     12/30/2018 12:12:18
00001 suncat0096 pw.x -in pw.inp   Done                     12/30/2018 12:12:18
00002 suncat0096 pw.x -in pw.inp   Done                     12/30/2018 12:12:18
00003 suncat0096 pw.x -in pw.inp   Done                     12/30/2018 12:12:18
00004 suncat0096 pw.x -in pw.inp   Done                     12/30/2018 12:12:18
00005 suncat0096 pw.x -in pw.inp   Done                     12/30/2018 12:12:18
00006 suncat0096 pw.x -in pw.inp   Done                     12/30/2018 12:12:18
00007 suncat0096 pw.x -in pw.inp   Done                     12/30/2018 12:12:18
00008 suncat0093 pw.x -in pw.inp   Done                     12/30/2018 12:12:18
00009 suncat0093 pw.x -in pw.inp   Done                     12/30/2018 12:12:18
00010 suncat0093 pw.x -in pw.inp   Done                     12/30/2018 12:12:18
00011 suncat0093 pw.x -in pw.inp   Done                     12/30/2018 12:12:18
00012 suncat0093 pw.x -in pw.inp   Done                     12/30/2018 12:12:18
00013 suncat0093 pw.x -in pw.inp   Done                     12/30/2018 12:12:18
00014 suncat0093 pw.x -in pw.inp   Done                     12/30/2018 12:12:18
00015 suncat0093 pw.x -in pw.inp   Done                     12/30/2018 12:12:18
00016 suncat0092 pw.x -in pw.inp   Done                     12/30/2018 12:12:18
00017 suncat0092 pw.x -in pw.inp   Done                     12/30/2018 12:12:18
00018 suncat0092 pw.x -in pw.inp   Done                     12/30/2018 12:12:18
00019 suncat0092 pw.x -in pw.inp   Done                     12/30/2018 12:12:18
00020 suncat0092 pw.x -in pw.inp   Done                     12/30/2018 12:12:18
00021 suncat0092 pw.x -in pw.inp   Done                     12/30/2018 12:12:18
00022 suncat0092 pw.x -in pw.inp   Done                     12/30/2018 12:12:18
00023 suncat0092 pw.x -in pw.inp   Done                     12/30/2018 12:12:18
00024 suncat0089 pw.x -in pw.inp   Done                     12/30/2018 12:12:18
00025 suncat0089 pw.x -in pw.inp   Done                     12/30/2018 12:12:18
00026 suncat0089 pw.x -in pw.inp   Done                     12/30/2018 12:12:18
00027 suncat0089 pw.x -in pw.inp   Done                     12/30/2018 12:12:18
00028 suncat0089 pw.x -in pw.inp   Done                     12/30/2018 12:12:18
00029 suncat0089 pw.x -in pw.inp   Done                     12/30/2018 12:12:18
00030 suncat0089 pw.x -in pw.inp   Done                     12/30/2018 12:12:18
00031 suncat0089 pw.x -in pw.inp   Done                     12/30/2018 12:12:18
00032 suncat0088 pw.x -in pw.inp   Done                     12/30/2018 12:12:18
00033 suncat0088 pw.x -in pw.inp   Done                     12/30/2018 12:12:18
00034 suncat0088 pw.x -in pw.inp   Done                     12/30/2018 12:12:18
00035 suncat0088 pw.x -in pw.inp   Done                     12/30/2018 12:12:18
00036 suncat0088 pw.x -in pw.inp   Done                     12/30/2018 12:12:18
00037 suncat0088 pw.x -in pw.inp   Done                     12/30/2018 12:12:18
00038 suncat0088 pw.x -in pw.inp   Done                     12/30/2018 12:12:18
00039 suncat0088 pw.x -in pw.inp   Done                     12/30/2018 12:12:18
00040 suncat0087 pw.x -in pw.inp   Done                     12/30/2018 12:12:18
00041 suncat0087 pw.x -in pw.inp   Done                     12/30/2018 12:12:18
00042 suncat0087 pw.x -in pw.inp   Done                     12/30/2018 12:12:18
00043 suncat0087 pw.x -in pw.inp   Done                     12/30/2018 12:12:18
00044 suncat0087 pw.x -in pw.inp   Done                     12/30/2018 12:12:18
00045 suncat0087 pw.x -in pw.inp   Done                     12/30/2018 12:12:18
00046 suncat0087 pw.x -in pw.inp   Done                     12/30/2018 12:12:18
00047 suncat0087 pw.x -in pw.inp   Done                     12/30/2018 12:12:18
00048 suncat0086 pw.x -in pw.inp   Done                     12/30/2018 12:12:18
00049 suncat0086 pw.x -in pw.inp   Done                     12/30/2018 12:12:18
00050 suncat0086 pw.x -in pw.inp   Done                     12/30/2018 12:12:18
00051 suncat0086 pw.x -in pw.inp   Done                     12/30/2018 12:12:18
00052 suncat0086 pw.x -in pw.inp   Done                     12/30/2018 12:12:18
00053 suncat0086 pw.x -in pw.inp   Done                     12/30/2018 12:12:18
00054 suncat0086 pw.x -in pw.inp   Done                     12/30/2018 12:12:18
00055 suncat0086 pw.x -in pw.inp   Done                     12/30/2018 12:12:18
00056 suncat0084 pw.x -in pw.inp   Done                     12/30/2018 12:12:18
00057 suncat0084 pw.x -in pw.inp   Done                     12/30/2018 12:12:18
00058 suncat0084 pw.x -in pw.inp   Done                     12/30/2018 12:12:18
00059 suncat0084 pw.x -in pw.inp   Done                     12/30/2018 12:12:18
00060 suncat0084 pw.x -in pw.inp   Done                     12/30/2018 12:12:18
00061 suncat0084 pw.x -in pw.inp   Done                     12/30/2018 12:12:18
00062 suncat0084 pw.x -in pw.inp   Done                     12/30/2018 12:12:18
00063 suncat0084 pw.x -in pw.inp   Done                     12/30/2018 12:12:18