     Program PWSCF v.5.1rc2 (svn rev. 11289) starts on 20Dec2018 at  8:56:41

     Current dimensions of program PWSCF are:
     Max number of different atomic species (ntypx) = 10
     Max number of k-points (npk) =  40000
     Max angular momentum in pseudopotentials (lmaxx) =  3
     Presently stress not available with electric field

     IMPORTANT: XC functional enforced from input :
     Exchange-correlation      = BEEF-VDW ( 1  4 27 13 2)
     Any further DFT definition will be discarded
     Please, verify this is what you really want

     Subspace diagonalization in iterative solution of the eigenvalue problem:
     a serial algorithm will be used

     Generating pointlists ...
     new r_m :   0.4125 (alat units)  0.7795 (a.u.) for type    1
     new r_m :   0.4125 (alat units)  0.7795 (a.u.) for type    2

     bravais-lattice index     =            0
     lattice parameter (alat)  =       1.8897  a.u.
     unit-cell volume          =    3855.8358 (a.u.)^3
     number of atoms/cell      =           12
     number of atomic types    =            2
     number of electrons       =       186.00
     number of Kohn-Sham states=          123
     kinetic-energy cutoff     =      36.7493  Ry
     charge density cutoff     =     367.4932  Ry
     convergence threshold     =      1.0E-06
     mixing beta               =       0.1000
     number of iterations used =           10  plain     mixing
     Exchange-correlation      = BEEF-VDW ( 1  4 27 13 2)
     nstep                     =           50

     celldm(1)=   1.889726  celldm(2)=   0.000000  celldm(3)=   0.000000
     celldm(4)=   0.000000  celldm(5)=   0.000000  celldm(6)=   0.000000

     crystal axes: (cart. coord. in units of alat)
               a(1) = (   5.215150   0.000000   0.000000 )
               a(2) = (  -2.607575   4.516452   0.000000 )
               a(3) = (   0.000000   0.000000  24.258152 )

     reciprocal axes: (cart. coord. in units 2 pi/alat)
               b(1) = (  0.191749  0.110706  0.000000 )
               b(2) = (  0.000000  0.221413  0.000000 )
               b(3) = (  0.000000  0.000000  0.041223 )

     PseudoPot. # 1 for Co read from file:
     /afs/slac.stanford.edu/u/if/mamunm/psp/gbrv1.5pbe/Co.UPF
     MD5 check sum: 5f91765df6ddd3222702df6e7b74a16d
     Pseudo is Ultrasoft + core correction, Zval = 17.0
     Generated by new atomic code, or converted to UPF format
     Using radial grid of  863 points,  6 beta functions with:
                l(1) =   0
                l(2) =   0
                l(3) =   1
                l(4) =   1
                l(5) =   2
                l(6) =   2
     Q(r) pseudized with  8 coefficients,  rinner =    1.200   1.200   1.200
                                                       1.200   1.200

     PseudoPot. # 2 for Sc read from file:
     /afs/slac.stanford.edu/u/if/mamunm/psp/gbrv1.5pbe/Sc.UPF
     MD5 check sum: db30a2753ba66ef00f23801d899b7e7f
     Pseudo is Ultrasoft + core correction, Zval = 11.0
     Generated by new atomic code, or converted to UPF format
     Using radial grid of  849 points,  6 beta functions with:
                l(1) =   0
                l(2) =   0
                l(3) =   1
                l(4) =   1
                l(5) =   2
                l(6) =   2
     Q(r) pseudized with  6 coefficients,  rinner =    1.200   1.200   1.200
                                                       1.200   1.200

     vdW kernel table read from file vdW_kernel_table
     MD5 check sum: 095c7af220d748ca6e76c0b4c6cfb241

     atomic species   valence    mass     pseudopotential
        Co1           17.00    58.93319     Co( 1.00)
        Sc1           11.00    44.95591     Sc( 1.00)

     Starting magnetic structure
     atomic species   magnetization
        Co1          0.118
        Sc1          0.182

     No symmetry found

   Cartesian axes

     site n.     atom                  positions (alat units)
         1           Co1 tau(   1) = (   0.0000000   0.0000000  10.0000000  )
         2           Co1 tau(   2) = (  -1.3037875   2.2582261  10.0000000  )
         3           Co1 tau(   3) = (   1.3037875   2.2582261  10.0000000  )
         4           Sc1 tau(   4) = (   2.6075749   0.0000000  10.0000000  )
         5           Co1 tau(   5) = (   2.6075749   1.5054841  12.1290760  )
         6           Co1 tau(   6) = (   1.3037875   3.7637102  12.1290760  )
         7           Co1 tau(   7) = (  -1.3037875   3.7637102  12.1290760  )
         8           Sc1 tau(   8) = (   0.0000000   1.5054841  12.1290760  )
         9           Co1 tau(   9) = (  -0.0000000   3.0109682  14.2581521  )
        10           Co1 tau(  10) = (   1.3037875   0.7527420  14.2581521  )
        11           Co1 tau(  11) = (   3.9113624   0.7527420  14.2581521  )
        12           Sc1 tau(  12) = (   2.6075749   3.0109682  14.2581521  )

     number of k points=    40  Fermi-Dirac smearing, width (Ry)=  0.0110
                       cart. coord. in units 2pi/alat
        k(    1) = (   0.0000000   0.0000000   0.0000000), wk =   0.0277778
        k(    2) = (   0.0000000   0.0369021   0.0000000), wk =   0.0555556
        k(    3) = (   0.0000000   0.0738042   0.0000000), wk =   0.0555556
        k(    4) = (   0.0000000  -0.1107064   0.0000000), wk =   0.0277778
        k(    5) = (   0.0319582   0.0184511   0.0000000), wk =   0.0555556
        k(    6) = (   0.0319582   0.0553532   0.0000000), wk =   0.0555556
        k(    7) = (   0.0319582   0.0922553   0.0000000), wk =   0.0555556
        k(    8) = (   0.0319582  -0.0922553   0.0000000), wk =   0.0555556
        k(    9) = (   0.0319582  -0.0553532   0.0000000), wk =   0.0555556
        k(   10) = (   0.0319582  -0.0184511   0.0000000), wk =   0.0555556
        k(   11) = (   0.0639163   0.0369021   0.0000000), wk =   0.0555556
        k(   12) = (   0.0639163   0.0738042   0.0000000), wk =   0.0555556
        k(   13) = (   0.0639163   0.1107064   0.0000000), wk =   0.0555556
        k(   14) = (   0.0639163  -0.0738042   0.0000000), wk =   0.0555556
        k(   15) = (   0.0639163  -0.0369021   0.0000000), wk =   0.0555556
        k(   16) = (   0.0639163   0.0000000   0.0000000), wk =   0.0555556
        k(   17) = (  -0.0958745  -0.0553532   0.0000000), wk =   0.0277778
        k(   18) = (  -0.0958745  -0.0184511   0.0000000), wk =   0.0555556
        k(   19) = (  -0.0958745   0.0184511   0.0000000), wk =   0.0555556
        k(   20) = (  -0.0958745  -0.1660595   0.0000000), wk =   0.0277778
        k(   21) = (   0.0000000   0.0000000   0.0000000), wk =   0.0277778
        k(   22) = (   0.0000000   0.0369021   0.0000000), wk =   0.0555556
        k(   23) = (   0.0000000   0.0738042   0.0000000), wk =   0.0555556
        k(   24) = (   0.0000000  -0.1107064   0.0000000), wk =   0.0277778
        k(   25) = (   0.0319582   0.0184511   0.0000000), wk =   0.0555556
        k(   26) = (   0.0319582   0.0553532   0.0000000), wk =   0.0555556
        k(   27) = (   0.0319582   0.0922553   0.0000000), wk =   0.0555556
        k(   28) = (   0.0319582  -0.0922553   0.0000000), wk =   0.0555556
        k(   29) = (   0.0319582  -0.0553532   0.0000000), wk =   0.0555556
        k(   30) = (   0.0319582  -0.0184511   0.0000000), wk =   0.0555556
        k(   31) = (   0.0639163   0.0369021   0.0000000), wk =   0.0555556
        k(   32) = (   0.0639163   0.0738042   0.0000000), wk =   0.0555556
        k(   33) = (   0.0639163   0.1107064   0.0000000), wk =   0.0555556
        k(   34) = (   0.0639163  -0.0738042   0.0000000), wk =   0.0555556
        k(   35) = (   0.0639163  -0.0369021   0.0000000), wk =   0.0555556
        k(   36) = (   0.0639163   0.0000000   0.0000000), wk =   0.0555556
        k(   37) = (  -0.0958745  -0.0553532   0.0000000), wk =   0.0277778
        k(   38) = (  -0.0958745  -0.0184511   0.0000000), wk =   0.0555556
        k(   39) = (  -0.0958745   0.0184511   0.0000000), wk =   0.0555556
        k(   40) = (  -0.0958745  -0.1660595   0.0000000), wk =   0.0277778

     Largest allocated arrays     est. size (Mb)     dimensions
     Largest temporary arrays     est. size (Mb)     dimensions

     Check: negative/imaginary core charge=   -0.000005    0.000000

     Initial potential from superposition of free atoms
     Check: negative starting charge=(component1):   -0.000182
     Check: negative starting charge=(component2):   -0.000140

     starting charge  176.99273, renormalised to  186.00000

     negative rho (up, down):  1.911E-04 1.471E-04

     *
     * You are using vdW-DF for exchange-correlation in this calculation.
     * Please cite the following three references that made this development
     * possible:
     *
     *   M. Dion, H. Rydberg, E. Schroder, D. C. Langreth, and
     *   B. I. Lundqvist, Phys. Rev. Lett. 92, 246401 (2004).
     *
     *   T. Thonhauser, V. R. Cooper, S. Li, A. Puzder, P. Hyldgaard, and
     *   D. C. Langreth, Phys. Rev. B 76, 125112 (2007).
     *
     *   G. Roman-Perez and J. M. Soler, Phys. Rev. Lett. 103, 096102 (2009).
     *
     *
     * If you are using vdW-DF2, please also cite:
     *
     *   K. Lee, E. D. Murray, L. Kong, B. I. Lundqvist, and
     *   D. C. Langreth, Phys. Rev. B 82, 081101(R) (2010).
     *
     *
     * If you are calculating the stress with vdW-DF, please also cite:
     *
     *   R. Sabatini, E. Kucukbenli, B. Kolb, T. Thonhauser, and
     *   S. de Gironcoli, J. Phys.: Condens. Matter 24, 424209 (2012).
     *

     Carrying out vdW-DF run using the following parameters:

     Nqs =      20    Nr_points =    1024   r_max =   100.000
     q_mesh =
               0.00001000     0.04494208     0.09755937     0.15916263
               0.23128650     0.31572767     0.41458969     0.53033537
               0.66584808     0.82450364     1.01025438     1.22772762
               1.48234092     1.78043706     2.12944203     2.53805004
               3.01644009     3.57652955     4.23227104     5.00000000

     Gradients computed in reciprocal space

     Adding external electric field

     Computed dipole along edir(3) :
        Dipole                0.0000 Ry au,          0.0000 Debye
        Dipole field          0.0000 Ry au

        Potential amp.       -0.0000 Ry
        Total length         44.6952 bohr

[...]

     Starting wfc are  156 randomized atomic wfcs

     Self-consistent Calculation

     iteration #  1     ecut=    36.75 Ry     beta=0.10
     Davidson diagonalization with overlap
     ethr =  1.00E-02,  avg # of iterations =  6.8

[...]

     Magnetic moment per site:
     atom:    1    charge:    8.4065    magn:    0.9583    constr:    0.0000
     atom:    2    charge:    8.4065    magn:    0.9583    constr:    0.0000
     atom:    3    charge:    8.4065    magn:    0.9583    constr:    0.0000
     atom:    4    charge:    2.5497    magn:    0.4263    constr:    0.0000
     atom:    5    charge:    8.4467    magn:    0.9634    constr:    0.0000
     atom:    6    charge:    8.4467    magn:    0.9634    constr:    0.0000
     atom:    7    charge:    8.4467    magn:    0.9634    constr:    0.0000
     atom:    8    charge:    2.5695    magn:    0.4288    constr:    0.0000
[...]
        k(    3) = (   0.0000000   0.0738042   0.0000000), wk =   0.0555556
        k(    4) = (   0.0000000  -0.1107064   0.0000000), wk =   0.0277778
        k(    5) = (   0.0319582   0.0184511   0.0000000), wk =   0.0555556
        k(    6) = (   0.0319582   0.0553532   0.0000000), wk =   0.0555556
        k(    7) = (   0.0319582   0.0922553   0.0000000), wk =   0.0555556
        k(    8) = (   0.0319582  -0.0922553   0.0000000), wk =   0.0555556
        k(    9) = (   0.0319582  -0.0553532   0.0000000), wk =   0.0555556
        k(   10) = (   0.0319582  -0.0184511   0.0000000), wk =   0.0555556
        k(   11) = (   0.0639163   0.0369021   0.0000000), wk =   0.0555556
        k(   12) = (   0.0639163   0.0738042   0.0000000), wk =   0.0555556
        k(   13) = (   0.0639163   0.1107064   0.0000000), wk =   0.0555556
        k(   14) = (   0.0639163  -0.0738042   0.0000000), wk =   0.0555556
        k(   15) = (   0.0639163  -0.0369021   0.0000000), wk =   0.0555556
        k(   16) = (   0.0639163   0.0000000   0.0000000), wk =   0.0555556
        k(   17) = (  -0.0958745  -0.0553532   0.0000000), wk =   0.0277778
        k(   18) = (  -0.0958745  -0.0184511   0.0000000), wk =   0.0555556
        k(   19) = (  -0.0958745   0.0184511   0.0000000), wk =   0.0555556
        k(   20) = (  -0.0958745  -0.1660595   0.0000000), wk =   0.0277778
        k(   21) = (   0.0000000   0.0000000   0.0000000), wk =   0.0277778
        k(   22) = (   0.0000000   0.0369021   0.0000000), wk =   0.0555556
        k(   23) = (   0.0000000   0.0738042   0.0000000), wk =   0.0555556
        k(   24) = (   0.0000000  -0.1107064   0.0000000), wk =   0.0277778
        k(   25) = (   0.0319582   0.0184511   0.0000000), wk =   0.0555556
        k(   26) = (   0.0319582   0.0553532   0.0000000), wk =   0.0555556
        k(   27) = (   0.0319582   0.0922553   0.0000000), wk =   0.0555556
        k(   28) = (   0.0319582  -0.0922553   0.0000000), wk =   0.0555556
        k(   29) = (   0.0319582  -0.0553532   0.0000000), wk =   0.0555556
        k(   30) = (   0.0319582  -0.0184511   0.0000000), wk =   0.0555556
        k(   31) = (   0.0639163   0.0369021   0.0000000), wk =   0.0555556
        k(   32) = (   0.0639163   0.0738042   0.0000000), wk =   0.0555556
        k(   33) = (   0.0639163   0.1107064   0.0000000), wk =   0.0555556
        k(   34) = (   0.0639163  -0.0738042   0.0000000), wk =   0.0555556
        k(   35) = (   0.0639163  -0.0369021   0.0000000), wk =   0.0555556
        k(   36) = (   0.0639163   0.0000000   0.0000000), wk =   0.0555556
        k(   37) = (  -0.0958745  -0.0553532   0.0000000), wk =   0.0277778
        k(   38) = (  -0.0958745  -0.0184511   0.0000000), wk =   0.0555556
        k(   39) = (  -0.0958745   0.0184511   0.0000000), wk =   0.0555556
        k(   40) = (  -0.0958745  -0.1660595   0.0000000), wk =   0.0277778

     Largest allocated arrays     est. size (Mb)     dimensions
     Largest temporary arrays     est. size (Mb)     dimensions

     Check: negative/imaginary core charge=   -0.000005    0.000000

     Initial potential from superposition of free atoms
     Check: negative starting charge=(component1):   -0.000171
     Check: negative starting charge=(component2):   -0.000131

     starting charge  176.99273, renormalised to  186.00000

[...]

     *
     * You are using vdW-DF for exchange-correlation in this calculation.
     * Please cite the following three references that made this development
     * possible:
     *
     *   M. Dion, H. Rydberg, E. Schroder, D. C. Langreth, and
     *   B. I. Lundqvist, Phys. Rev. Lett. 92, 246401 (2004).
     *
     *   T. Thonhauser, V. R. Cooper, S. Li, A. Puzder, P. Hyldgaard, and
     *   D. C. Langreth, Phys. Rev. B 76, 125112 (2007).
     *
     *   G. Roman-Perez and J. M. Soler, Phys. Rev. Lett. 103, 096102 (2009).
     *
     *
     * If you are using vdW-DF2, please also cite:
     *
     *   K. Lee, E. D. Murray, L. Kong, B. I. Lundqvist, and
     *   D. C. Langreth, Phys. Rev. B 82, 081101(R) (2010).
     *
     *
     * If you are calculating the stress with vdW-DF, please also cite:
     *
     *   R. Sabatini, E. Kucukbenli, B. Kolb, T. Thonhauser, and
     *   S. de Gironcoli, J. Phys.: Condens. Matter 24, 424209 (2012).
     *

     Carrying out vdW-DF run using the following parameters:

     Nqs =      20    Nr_points =    1024   r_max =   100.000
     q_mesh =
               0.00001000     0.04494208     0.09755937     0.15916263
               0.23128650     0.31572767     0.41458969     0.53033537
               0.66584808     0.82450364     1.01025438     1.22772762
               1.48234092     1.78043706     2.12944203     2.53805004
               3.01644009     3.57652955     4.23227104     5.00000000

     Gradients computed in reciprocal space

[...]

     Starting wfc are  156 randomized atomic wfcs

     Self-consistent Calculation

[...]

     total energy              =   -2980.22387474 Ry
     Harris-Foulkes estimate   =   -2980.22387469 Ry
     estimated scf accuracy    <       0.00000137 Ry

[...]

     iteration # 38     ecut=    36.75 Ry     beta=0.10
     Davidson diagonalization with overlap
     ethr =  7.04E-10,  avg # of iterations =  1.0

[...]

     negative rho (up, down):  4.747E-04 2.784E-04

[...]

     Adding external electric field

     Computed dipole along edir(3) :
        Dipole                0.1156 Ry au,          0.2938 Debye
        Dipole field          0.0004 Ry au

        Potential amp.       -0.0337 Ry
        Total length         44.6952 bohr

     Magnetic moment per site:
     atom:    1    charge:    8.2773    magn:    0.7921    constr:    0.0000
     atom:    2    charge:    8.2773    magn:    0.7920    constr:    0.0000
     atom:    3    charge:    8.2773    magn:    0.7920    constr:    0.0000
     atom:    4    charge:    2.4012    magn:   -0.0497    constr:    0.0000
     atom:    5    charge:    8.2930    magn:    0.7895    constr:    0.0000
     atom:    6    charge:    8.2929    magn:    0.7896    constr:    0.0000
     atom:    7    charge:    8.2928    magn:    0.7896    constr:    0.0000
     atom:    8    charge:    2.4160    magn:   -0.0447    constr:    0.0000
     atom:    9    charge:    8.2884    magn:    0.7832    constr:    0.0000
     atom:   10    charge:    8.2883    magn:    0.7833    constr:    0.0000
     atom:   11    charge:    8.2883    magn:    0.7833    constr:    0.0000
     atom:   12    charge:    2.4086    magn:   -0.0511    constr:    0.0000

     End of self-consistent calculation

 ------ SPIN UP ------------

[...]

 ------ SPIN DOWN ----------

[...]

          k = 0.0639 0.0000 0.0000 ( 14513 PWs)   bands (ev):

[...]

          k =-0.0959-0.1661 0.0000 ( 14430 PWs)   bands (ev):

   -92.8134 -92.8081 -92.8029 -92.6773 -92.6666 -92.6631 -92.6156 -92.6106
   -92.6055 -56.2099 -56.1805 -56.1760 -56.1707 -56.1670 -56.1646 -56.1592
   -56.1425 -56.0924 -56.0842 -56.0585 -56.0526 -56.0281 -56.0263 -55.9955
   -55.9954 -55.9860 -55.9855 -55.9782 -55.9780 -55.9751 -55.9572 -55.9572
   -55.9335 -55.9288 -55.9266 -55.9035 -48.5944 -48.1378 -47.5553 -27.3023
   -27.1784 -27.1712 -26.8516 -26.7833 -26.7735 -26.2761 -26.2658 -26.2510
    -4.1842  -3.9546  -2.5973  -2.4420  -1.7888  -1.7062  -1.4258  -1.4046
    -1.2764  -1.1493  -0.8379  -0.8378  -0.7138  -0.6414  -0.6120  -0.4629
    -0.3438  -0.3233  -0.3097  -0.2101  -0.1953  -0.1148   0.0298   0.1027
     0.1632   0.2076   0.2446   0.3109   0.3437   0.3607   0.3964   0.5190
     0.5588   0.6198   0.8040   0.8252   0.9361   0.9525   1.0536   1.0794
     1.1086   1.1766   1.2891   1.3441   1.4062   1.4307   1.6295   1.6659
     1.7200   1.7724   1.9511   2.1574   2.2914   2.6122   3.1092   3.1440
     3.3025   3.4079   3.5050   3.5974   3.6930   3.7860   3.8576   3.9435
     4.0101   4.4897   4.8265   5.3949   5.6948   5.9077   6.1409   6.3331
     6.5300   6.5540   6.8082

     the Fermi energy is     1.1509 ev

!    total energy              =   -2980.22387566 Ry
     Harris-Foulkes estimate   =   -2980.22387422 Ry
     estimated scf accuracy    <       0.00000058 Ry

     The total energy is the sum of the following terms:

     one-electron contribution =  -23737.50084480 Ry
     hartree contribution      =   11873.76040491 Ry
     xc contribution           =    -345.96065967 Ry
     ewald contribution        =    9229.56850587 Ry
     electric field correction =       0.00004353 Ry
     smearing contrib. (-TS)   =      -0.09132550 Ry

     total magnetization       =    11.29 Bohr mag/cell
     absolute magnetization    =    15.18 Bohr mag/cell

     convergence has been achieved in  38 iterations

 BEEF-vdW xc energy contributions
           1 :   -303.403633811625
           2 :    274.210308385290
           3 :   -224.937359285283
           4 :    169.402398603062
           5 :   -120.068160824377
           6 :    83.5408667254217
           7 :   -59.6044110791499
           8 :    43.5690419493395
           9 :   -30.1228909421758
          10 :    16.4149371550463
          11 :   -2.93650146957935
          12 :   -7.81042324739576
          13 :    13.5933468870822
          14 :   -14.1178270324683
          15 :    11.1677678660960
          16 :   -7.42211550860361
          17 :    4.89999346296088
          18 :   -4.05811916640550
          19 :    3.97373329839394
          20 :   -3.32664107294994
          21 :    1.43289995583268
          22 :    1.31628450042302
          23 :   -3.80106911371513
          24 :    4.96440263575903
          25 :   -4.49274205166012
          26 :    2.96041364151091
          27 :   -1.41155034500008
          28 :   0.695033701135571
          29 :  -0.997013321383008
          30 :    1.83076121528973
          31 :   -26.8303491685479
          32 :   -18.6861888758614

     Forces acting on atoms (Ry/au):

     negative rho (up, down):  4.747E-04 2.784E-04
     atom    1 type  1   force =     0.00001709   -0.01435722    0.00507073
     atom    2 type  1   force =    -0.01241114    0.00718969    0.00504984
     atom    3 type  1   force =     0.01241164    0.00717020    0.00502984
     atom    4 type  2   force =    -0.00000723   -0.00001044   -0.04176693
     atom    5 type  1   force =     0.00000546    0.01570082    0.01184833
     atom    6 type  1   force =     0.01364087   -0.00782481    0.01182381
     atom    7 type  1   force =    -0.01364146   -0.00783262    0.01180481
     atom    8 type  2   force =    -0.00000445   -0.00001872   -0.00776116
     atom    9 type  1   force =     0.00000855   -0.00029308   -0.00023612
     atom   10 type  1   force =    -0.00029414    0.00012102   -0.00019911
     atom   11 type  1   force =     0.00029826    0.00011366   -0.00019004
     atom   12 type  2   force =    -0.00002347    0.00004149   -0.00047401

     Total force =     0.060498     Total SCF correction =     0.002315

     entering subroutine stress ...

     negative rho (up, down):  4.747E-04 2.784E-04
          total   stress  (Ry/bohr**3)                   (kbar)     P=   -7.26
  -0.00007090  -0.00000000  -0.00000000        -10.43     -0.00     -0.00
  -0.00000000  -0.00007091   0.00000001         -0.00    -10.43      0.00
  -0.00000000   0.00000001  -0.00000631         -0.00      0.00     -0.93

 !ASE

     Writing output data file calc.save

     General routines

     Parallel routines

   This run was terminated on:  12:15:29  20Dec2018

   JOB DONE.
Job  /afs/slac/g/suncat/bin/suncat-tsmpirun -x LD_LIBRARY_PATH -wdir /scratch/qe773538_aYxiG pw.x -in pw.inp

TID   HOST_NAME   COMMAND_LINE            STATUS            TERMINATION_TIME
00000 suncat0133 pw.x -in pw.inp   Done                     12/20/2018 12:15:29
00001 suncat0133 pw.x -in pw.inp   Done                     12/20/2018 12:15:29
00002 suncat0133 pw.x -in pw.inp   Done                     12/20/2018 12:15:29
00003 suncat0133 pw.x -in pw.inp   Done                     12/20/2018 12:15:29
00004 suncat0133 pw.x -in pw.inp   Done                     12/20/2018 12:15:29
00005 suncat0133 pw.x -in pw.inp   Done                     12/20/2018 12:15:29
00006 suncat0133 pw.x -in pw.inp   Done                     12/20/2018 12:15:29
00007 suncat0133 pw.x -in pw.inp   Done                     12/20/2018 12:15:29
00008 suncat0132 pw.x -in pw.inp   Done                     12/20/2018 12:15:29
00009 suncat0132 pw.x -in pw.inp   Done                     12/20/2018 12:15:29
00010 suncat0132 pw.x -in pw.inp   Done                     12/20/2018 12:15:29
00011 suncat0132 pw.x -in pw.inp   Done                     12/20/2018 12:15:29
00012 suncat0132 pw.x -in pw.inp   Done                     12/20/2018 12:15:29
00013 suncat0132 pw.x -in pw.inp   Done                     12/20/2018 12:15:29
00014 suncat0132 pw.x -in pw.inp   Done                     12/20/2018 12:15:29
00015 suncat0132 pw.x -in pw.inp   Done                     12/20/2018 12:15:29
00016 suncat0131 pw.x -in pw.inp   Done                     12/20/2018 12:15:29
00017 suncat0131 pw.x -in pw.inp   Done                     12/20/2018 12:15:29
00018 suncat0131 pw.x -in pw.inp   Done                     12/20/2018 12:15:29
00019 suncat0131 pw.x -in pw.inp   Done                     12/20/2018 12:15:29
00020 suncat0131 pw.x -in pw.inp   Done                     12/20/2018 12:15:29
00021 suncat0131 pw.x -in pw.inp   Done                     12/20/2018 12:15:29
00022 suncat0131 pw.x -in pw.inp   Done                     12/20/2018 12:15:29
00023 suncat0131 pw.x -in pw.inp   Done                     12/20/2018 12:15:29
00024 suncat0130 pw.x -in pw.inp   Done                     12/20/2018 12:15:29
00025 suncat0130 pw.x -in pw.inp   Done                     12/20/2018 12:15:29
00026 suncat0130 pw.x -in pw.inp   Done                     12/20/2018 12:15:29
00027 suncat0130 pw.x -in pw.inp   Done                     12/20/2018 12:15:29
00028 suncat0130 pw.x -in pw.inp   Done                     12/20/2018 12:15:29
00029 suncat0130 pw.x -in pw.inp   Done                     12/20/2018 12:15:29
00030 suncat0130 pw.x -in pw.inp   Done                     12/20/2018 12:15:29
00031 suncat0130 pw.x -in pw.inp   Done                     12/20/2018 12:15:29
00032 suncat0108 pw.x -in pw.inp   Done                     12/20/2018 12:15:29
00033 suncat0108 pw.x -in pw.inp   Done                     12/20/2018 12:15:29
00034 suncat0108 pw.x -in pw.inp   Done                     12/20/2018 12:15:29
00035 suncat0108 pw.x -in pw.inp   Done                     12/20/2018 12:15:29
00036 suncat0108 pw.x -in pw.inp   Done                     12/20/2018 12:15:29
00037 suncat0108 pw.x -in pw.inp   Done                     12/20/2018 12:15:29
00038 suncat0108 pw.x -in pw.inp   Done                     12/20/2018 12:15:29
00039 suncat0108 pw.x -in pw.inp   Done                     12/20/2018 12:15:29
00040 suncat0107 pw.x -in pw.inp   Done                     12/20/2018 12:15:29
00041 suncat0107 pw.x -in pw.inp   Done                     12/20/2018 12:15:29
00042 suncat0107 pw.x -in pw.inp   Done                     12/20/2018 12:15:29
00043 suncat0107 pw.x -in pw.inp   Done                     12/20/2018 12:15:29
00044 suncat0107 pw.x -in pw.inp   Done                     12/20/2018 12:15:29
00045 suncat0107 pw.x -in pw.inp   Done                     12/20/2018 12:15:29
00046 suncat0107 pw.x -in pw.inp   Done                     12/20/2018 12:15:29
00047 suncat0107 pw.x -in pw.inp   Done                     12/20/2018 12:15:29
00048 suncat0106 pw.x -in pw.inp   Done                     12/20/2018 12:15:29
00049 suncat0106 pw.x -in pw.inp   Done                     12/20/2018 12:15:29
00050 suncat0106 pw.x -in pw.inp   Done                     12/20/2018 12:15:29
00051 suncat0106 pw.x -in pw.inp   Done                     12/20/2018 12:15:29
00052 suncat0106 pw.x -in pw.inp   Done                     12/20/2018 12:15:29
00053 suncat0106 pw.x -in pw.inp   Done                     12/20/2018 12:15:29
00054 suncat0106 pw.x -in pw.inp   Done                     12/20/2018 12:15:29
00055 suncat0106 pw.x -in pw.inp   Done                     12/20/2018 12:15:29
00056 suncat0105 pw.x -in pw.inp   Done                     12/20/2018 12:15:29
00057 suncat0105 pw.x -in pw.inp   Done                     12/20/2018 12:15:29
00058 suncat0105 pw.x -in pw.inp   Done                     12/20/2018 12:15:29
00059 suncat0105 pw.x -in pw.inp   Done                     12/20/2018 12:15:29
00060 suncat0105 pw.x -in pw.inp   Done                     12/20/2018 12:15:29
00061 suncat0105 pw.x -in pw.inp   Done                     12/20/2018 12:15:29
00062 suncat0105 pw.x -in pw.inp   Done                     12/20/2018 12:15:29
00063 suncat0105 pw.x -in pw.inp   Done                     12/20/2018 12:15:29