     Program PWSCF v.5.1rc2 (svn rev. 11289) starts on 19Dec2018 at 18:56:43

     Current dimensions of program PWSCF are:
     Max number of different atomic species (ntypx) = 10
     Max number of k-points (npk) =  40000
     Max angular momentum in pseudopotentials (lmaxx) =  3
     Presently stress not available with electric field

     IMPORTANT: XC functional enforced from input :
     Exchange-correlation      = BEEF-VDW ( 1  4 27 13 2)
     Any further DFT definition will be discarded
     Please, verify this is what you really want

     Subspace diagonalization in iterative solution of the eigenvalue problem:
     a serial algorithm will be used

     bravais-lattice index     =            0
     lattice parameter (alat)  =       1.8897  a.u.
     unit-cell volume          =    5342.2639 (a.u.)^3
     number of atoms/cell      =           12
     number of atomic types    =            2
     number of electrons       =       135.00
     number of Kohn-Sham states=           97
     kinetic-energy cutoff     =      36.7493  Ry
     charge density cutoff     =     367.4932  Ry
     convergence threshold     =      1.0E-06
     mixing beta               =       0.1000
     number of iterations used =           10  plain     mixing
     Exchange-correlation      = BEEF-VDW ( 1  4 27 13 2)
     nstep                     =           50

     celldm(1)=   1.889726  celldm(2)=   0.000000  celldm(3)=   0.000000
     celldm(4)=   0.000000  celldm(5)=   0.000000  celldm(6)=   0.000000

     crystal axes: (cart. coord. in units of alat)
               a(1) = (   6.053768   0.000000   0.000000 )
               a(2) = (  -3.026884   5.242717   0.000000 )
               a(3) = (   0.000000   0.000000  24.942881 )

     reciprocal axes: (cart. coord. in units 2 pi/alat)
               b(1) = (  0.165186  0.095370  0.000000 )
               b(2) = (  0.000000  0.190741  0.000000 )
               b(3) = (  0.000000  0.000000  0.040092 )

     PseudoPot. # 1 for Au read from file:
     /afs/slac.stanford.edu/u/if/mamunm/psp/gbrv1.5pbe/Au.UPF
     MD5 check sum: 9d7f43293ad2c663164586bc4b293ffc
     Pseudo is Ultrasoft + core correction, Zval = 11.0
     Generated by new atomic code, or converted to UPF format
     Using radial grid of  985 points,  7 beta functions with:
                l(1) =   0
                l(2) =   0
                l(3) =   1
                l(4) =   1
                l(5) =   2
                l(6) =   2
                l(7) =   3
     Q(r) pseudized with  6 coefficients,  rinner =    1.900   1.900   1.900
                                                       1.900   1.900   1.900
                                                       1.900

     PseudoPot. # 2 for Hg read from file:
     /afs/slac.stanford.edu/u/if/mamunm/psp/gbrv1.5pbe/Hg.UPF
     MD5 check sum: 8f42caffe07f7fd9c0a564347f8c5498
     Pseudo is Ultrasoft + core correction, Zval = 12.0
     Generated by new atomic code, or converted to UPF format
     Using radial grid of  985 points,  6 beta functions with:
                l(1) =   0
                l(2) =   0
                l(3) =   1
                l(4) =   1
                l(5) =   2
                l(6) =   2
     Q(r) pseudized with  8 coefficients,  rinner =    2.000   2.000   2.000
                                                       2.000   2.000

     vdW kernel table read from file vdW_kernel_table
     MD5 check sum: 095c7af220d748ca6e76c0b4c6cfb241

     atomic species   valence    mass     pseudopotential
        Au1           11.00   196.96657     Au( 1.00)
        Hg1           12.00   200.59200     Hg( 1.00)

     No symmetry found

   Cartesian axes

     site n.     atom                  positions (alat units)
         1           Au1 tau(   1) = (   0.0000000   0.0000000  10.0000000  )
         2           Au1 tau(   2) = (  -1.5134419   2.6213583  10.0000000  )
         3           Au1 tau(   3) = (   1.5134419   2.6213583  10.0000000  )
         4           Hg1 tau(   4) = (   3.0268838   0.0000000  10.0000000  )
         5           Au1 tau(   5) = (   3.0268838   1.7475722  12.4714403  )
         6           Au1 tau(   6) = (   1.5134419   4.3689305  12.4714403  )
         7           Au1 tau(   7) = (  -1.5134419   4.3689305  12.4714403  )
         8           Hg1 tau(   8) = (   0.0000000   1.7475722  12.4714403  )
         9           Au1 tau(   9) = (  -0.0000000   3.4951444  14.9428806  )
        10           Au1 tau(  10) = (   1.5134419   0.8737861  14.9428806  )
        11           Au1 tau(  11) = (   4.5403258   0.8737861  14.9428806  )
        12           Hg1 tau(  12) = (   3.0268838   3.4951444  14.9428806  )

     number of k points=    20  Fermi-Dirac smearing, width (Ry)=  0.0110
                       cart. coord. in units 2pi/alat
        k(    1) = (   0.0000000   0.0000000   0.0000000), wk =   0.0555556
        k(    2) = (   0.0000000   0.0317901   0.0000000), wk =   0.1111111
        k(    3) = (   0.0000000   0.0635803   0.0000000), wk =   0.1111111
        k(    4) = (   0.0000000  -0.0953704   0.0000000), wk =   0.0555556
        k(    5) = (   0.0275311   0.0158951   0.0000000), wk =   0.1111111
        k(    6) = (   0.0275311   0.0476852   0.0000000), wk =   0.1111111
        k(    7) = (   0.0275311   0.0794753   0.0000000), wk =   0.1111111
        k(    8) = (   0.0275311  -0.0794753   0.0000000), wk =   0.1111111
        k(    9) = (   0.0275311  -0.0476852   0.0000000), wk =   0.1111111
        k(   10) = (   0.0275311  -0.0158951   0.0000000), wk =   0.1111111
        k(   11) = (   0.0550621   0.0317901   0.0000000), wk =   0.1111111
        k(   12) = (   0.0550621   0.0635803   0.0000000), wk =   0.1111111
        k(   13) = (   0.0550621   0.0953704   0.0000000), wk =   0.1111111
        k(   14) = (   0.0550621  -0.0635803   0.0000000), wk =   0.1111111
        k(   15) = (   0.0550621  -0.0317901   0.0000000), wk =   0.1111111
        k(   16) = (   0.0550621   0.0000000   0.0000000), wk =   0.1111111
        k(   17) = (  -0.0825932  -0.0476852   0.0000000), wk =   0.0555556
        k(   18) = (  -0.0825932  -0.0158951   0.0000000), wk =   0.1111111
        k(   19) = (  -0.0825932   0.0158951   0.0000000), wk =   0.1111111
        k(   20) = (  -0.0825932  -0.1430556   0.0000000), wk =   0.0555556

     Largest allocated arrays     est. size (Mb)     dimensions
     Largest temporary arrays     est. size (Mb)     dimensions

     Check: negative/imaginary core charge=   -0.000002    0.000000

     Initial potential from superposition of free atoms

     starting charge  134.99872, renormalised to  135.00000

     negative rho (up, down):  7.452E-05 0.000E+00

     *
     * You are using vdW-DF for exchange-correlation in this calculation.
     * Please cite the following three references that made this development
     * possible:
     *
     *   M. Dion, H. Rydberg, E. Schroder, D. C. Langreth, and
     *   B. I. Lundqvist, Phys. Rev. Lett. 92, 246401 (2004).
     *
     *   T. Thonhauser, V. R. Cooper, S. Li, A. Puzder, P. Hyldgaard, and
     *   D. C. Langreth, Phys. Rev. B 76, 125112 (2007).
     *
     *   G. Roman-Perez and J. M. Soler, Phys. Rev. Lett. 103, 096102 (2009).
     *
     *
     * If you are using vdW-DF2, please also cite:
     *
     *   K. Lee, E. D. Murray, L. Kong, B. I. Lundqvist, and
     *   D. C. Langreth, Phys. Rev. B 82, 081101(R) (2010).
     *
     *
     * If you are calculating the stress with vdW-DF, please also cite:
     *
     *   R. Sabatini, E. Kucukbenli, B. Kolb, T. Thonhauser, and
     *   S. de Gironcoli, J. Phys.: Condens. Matter 24, 424209 (2012).
     *

     Carrying out vdW-DF run using the following parameters:

     Nqs =      20    Nr_points =    1024   r_max =   100.000
     q_mesh =
               0.00001000     0.04494208     0.09755937     0.15916263
               0.23128650     0.31572767     0.41458969     0.53033537
               0.66584808     0.82450364     1.01025438     1.22772762
               1.48234092     1.78043706     2.12944203     2.53805004
               3.01644009     3.57652955     4.23227104     5.00000000

     Gradients computed in reciprocal space

     Adding external electric field

     Computed dipole along edir(3) :
        Dipole                0.0000 Ry au,          0.0000 Debye
        Dipole field          0.0000 Ry au

        Potential amp.       -0.0000 Ry
        Total length         45.9568 bohr

     Starting wfc are  108 randomized atomic wfcs

     Self-consistent Calculation

     iteration #  1     ecut=    36.75 Ry     beta=0.10
     Davidson diagonalization with overlap
     ethr =  1.00E-02,  avg # of iterations =  8.3

     Threshold (ethr) on eigenvalues was too large:
     Diagonalizing with lowered threshold

     Davidson diagonalization with overlap
     ethr =  1.27E-04,  avg # of iterations =  7.5

[...]

     total energy              =   -1377.62900257 Ry
     Harris-Foulkes estimate   =   -1377.65070179 Ry
     estimated scf accuracy    <       0.18119179 Ry

[...]

     End of self-consistent calculation

          k = 0.0000 0.0000 0.0000 ( 19951 PWs)   bands (ev):

    -8.1417  -7.3797  -7.3797  -7.3280  -7.2514  -7.2514  -7.1453  -7.0054
    -7.0054  -6.9990  -6.9887  -6.9887  -6.6403  -6.6403  -6.6210  -6.6210
    -6.1824  -6.0541  -5.5345  -5.1263  -5.0035  -4.6217  -4.6217  -4.5950
    -4.4247  -4.4247  -4.1740  -4.1740  -4.1569  -4.0835  -4.0835  -3.8518
    -3.8518  -3.6870  -3.5261  -3.5261  -3.4443  -3.2339  -3.1189  -3.1189
    -3.0389  -3.0100  -3.0100  -2.7510  -2.7510  -2.7440  -2.5321  -2.5321
    -2.5023  -2.5023  -2.4062  -2.4062  -2.3865  -2.3865  -2.2294  -2.2294
    -2.1319  -1.9297  -1.9173  -1.9173  -1.6616  -1.6319  -1.5956   0.0996
     0.1740   0.1740   0.4560   0.5486   0.8204   0.8204   1.1944   1.2056
     1.2056   1.9575   2.6795   2.6795   3.1300   3.6174   3.6174   3.8168
     4.1284   4.2672   4.2672   4.6961   4.8755   5.9317   6.1788   7.4187
     7.5764   7.6957   7.6957   7.9047   8.0592   8.0592   8.1634   9.1885
     9.1888

[...]

          k =-0.0826-0.0477 0.0000 ( 20120 PWs)   bands (ev):

[...]

     the Fermi energy is     0.2617 ev

!    total energy              =   -1377.60445982 Ry
     Harris-Foulkes estimate   =   -1377.60445869 Ry
     estimated scf accuracy    <       0.00000053 Ry

     The total energy is the sum of the following terms:

     one-electron contribution =   -8037.68617180 Ry
     hartree contribution      =    4113.52135239 Ry
     xc contribution           =    -697.42252642 Ry
     ewald contribution        =    3244.00275659 Ry
     electric field correction =       0.00000000 Ry
     smearing contrib. (-TS)   =      -0.01987057 Ry

     convergence has been achieved in  13 iterations

 BEEF-vdW xc energy contributions
           1 :   -620.837194674832
           2 :    576.126411034724
           3 :   -496.572857057010
           4 :    398.254778018444
           5 :   -298.287920722533
           6 :    210.204293757740
           7 :   -141.335716009880
           8 :    92.6438299681843
           9 :   -60.5792565180055
          10 :    39.8536077857447
[...]
     Pseudo is Ultrasoft + core correction, Zval = 11.0
     Generated by new atomic code, or converted to UPF format
     Using radial grid of  985 points,  7 beta functions with:
                l(1) =   0
                l(2) =   0
                l(3) =   1
                l(4) =   1
                l(5) =   2
                l(6) =   2
                l(7) =   3
     Q(r) pseudized with  6 coefficients,  rinner =    1.900   1.900   1.900
                                                       1.900   1.900   1.900
                                                       1.900

     PseudoPot. # 2 for Hg read from file:
     /afs/slac.stanford.edu/u/if/mamunm/psp/gbrv1.5pbe/Hg.UPF
     MD5 check sum: 8f42caffe07f7fd9c0a564347f8c5498
     Pseudo is Ultrasoft + core correction, Zval = 12.0
     Generated by new atomic code, or converted to UPF format
     Using radial grid of  985 points,  6 beta functions with:
                l(1) =   0
                l(2) =   0
                l(3) =   1
                l(4) =   1
                l(5) =   2
                l(6) =   2
     Q(r) pseudized with  8 coefficients,  rinner =    2.000   2.000   2.000
                                                       2.000   2.000

     vdW kernel table read from file vdW_kernel_table
     MD5 check sum: 095c7af220d748ca6e76c0b4c6cfb241

     atomic species   valence    mass     pseudopotential
        Au1           11.00   196.96657     Au( 1.00)
        Hg1           12.00   200.59200     Hg( 1.00)

     No symmetry found

   Cartesian axes

     site n.     atom                  positions (alat units)
         1           Au1 tau(   1) = (   0.0000000   0.0000000  10.0000000  )
         2           Au1 tau(   2) = (  -1.5134419   2.6213583  10.0000000  )
         3           Au1 tau(   3) = (   1.5134419   2.6213583  10.0000000  )
         4           Hg1 tau(   4) = (   3.0268838   0.0000000  10.0000000  )
         5           Au1 tau(   5) = (   3.0268838   1.7475722  12.4714403  )
         6           Au1 tau(   6) = (   1.5134419   4.3689305  12.4714403  )
         7           Au1 tau(   7) = (  -1.5134419   4.3689305  12.4714403  )
         8           Hg1 tau(   8) = (   0.0000000   1.7475722  12.4714403  )
         9           Au1 tau(   9) = (   0.0000516   3.5056519  14.9840192  )
        10           Au1 tau(  10) = (   1.5225149   0.8685043  14.9841993  )
        11           Au1 tau(  11) = (   4.5312675   0.8685674  14.9842664  )
        12           Hg1 tau(  12) = (   3.0268918   3.4951248  15.4908237  )

     number of k points=    20  Fermi-Dirac smearing, width (Ry)=  0.0110
                       cart. coord. in units 2pi/alat
        k(    1) = (   0.0000000   0.0000000   0.0000000), wk =   0.0555556
        k(    2) = (   0.0000000   0.0317901   0.0000000), wk =   0.1111111
        k(    3) = (   0.0000000   0.0635803   0.0000000), wk =   0.1111111
        k(    4) = (   0.0000000  -0.0953704   0.0000000), wk =   0.0555556
        k(    5) = (   0.0275311   0.0158951   0.0000000), wk =   0.1111111
        k(    6) = (   0.0275311   0.0476852   0.0000000), wk =   0.1111111
        k(    7) = (   0.0275311   0.0794753   0.0000000), wk =   0.1111111
        k(    8) = (   0.0275311  -0.0794753   0.0000000), wk =   0.1111111
        k(    9) = (   0.0275311  -0.0476852   0.0000000), wk =   0.1111111
        k(   10) = (   0.0275311  -0.0158951   0.0000000), wk =   0.1111111
        k(   11) = (   0.0550621   0.0317901   0.0000000), wk =   0.1111111
        k(   12) = (   0.0550621   0.0635803   0.0000000), wk =   0.1111111
        k(   13) = (   0.0550621   0.0953704   0.0000000), wk =   0.1111111
        k(   14) = (   0.0550621  -0.0635803   0.0000000), wk =   0.1111111
        k(   15) = (   0.0550621  -0.0317901   0.0000000), wk =   0.1111111
        k(   16) = (   0.0550621   0.0000000   0.0000000), wk =   0.1111111
        k(   17) = (  -0.0825932  -0.0476852   0.0000000), wk =   0.0555556
        k(   18) = (  -0.0825932  -0.0158951   0.0000000), wk =   0.1111111
        k(   19) = (  -0.0825932   0.0158951   0.0000000), wk =   0.1111111
        k(   20) = (  -0.0825932  -0.1430556   0.0000000), wk =   0.0555556

     Largest allocated arrays     est. size (Mb)     dimensions
     Largest temporary arrays     est. size (Mb)     dimensions

     Check: negative/imaginary core charge=   -0.000002    0.000000

     Initial potential from superposition of free atoms

     starting charge  134.99872, renormalised to  135.00000

[...]

     *
     * You are using vdW-DF for exchange-correlation in this calculation.
     * Please cite the following three references that made this development
     * possible:
     *
     *   M. Dion, H. Rydberg, E. Schroder, D. C. Langreth, and
     *   B. I. Lundqvist, Phys. Rev. Lett. 92, 246401 (2004).
     *
     *   T. Thonhauser, V. R. Cooper, S. Li, A. Puzder, P. Hyldgaard, and
     *   D. C. Langreth, Phys. Rev. B 76, 125112 (2007).
     *
     *   G. Roman-Perez and J. M. Soler, Phys. Rev. Lett. 103, 096102 (2009).
     *
     *
     * If you are using vdW-DF2, please also cite:
     *
     *   K. Lee, E. D. Murray, L. Kong, B. I. Lundqvist, and
     *   D. C. Langreth, Phys. Rev. B 82, 081101(R) (2010).
     *
     *
     * If you are calculating the stress with vdW-DF, please also cite:
     *
     *   R. Sabatini, E. Kucukbenli, B. Kolb, T. Thonhauser, and
     *   S. de Gironcoli, J. Phys.: Condens. Matter 24, 424209 (2012).
     *

     Carrying out vdW-DF run using the following parameters:

     Nqs =      20    Nr_points =    1024   r_max =   100.000
     q_mesh =
               0.00001000     0.04494208     0.09755937     0.15916263
               0.23128650     0.31572767     0.41458969     0.53033537
               0.66584808     0.82450364     1.01025438     1.22772762
               1.48234092     1.78043706     2.12944203     2.53805004
               3.01644009     3.57652955     4.23227104     5.00000000

     Gradients computed in reciprocal space

[...]

     Starting wfc are  108 randomized atomic wfcs

     Self-consistent Calculation

[...]

     Threshold (ethr) on eigenvalues was too large:
     Diagonalizing with lowered threshold

     Davidson diagonalization with overlap
     ethr =  1.19E-04,  avg # of iterations =  7.7

[...]

     total energy              =   -1377.63534495 Ry
     Harris-Foulkes estimate   =   -1377.63534445 Ry
     estimated scf accuracy    <       0.00000278 Ry

     iteration # 12     ecut=    36.75 Ry     beta=0.10
     Davidson diagonalization with overlap
     ethr =  2.06E-09,  avg # of iterations =  1.9

[...]

     negative rho (up, down):  1.545E-04 0.000E+00

     Adding external electric field

     Computed dipole along edir(3) :
        Dipole                0.0384 Ry au,          0.0976 Debye
        Dipole field          0.0001 Ry au

        Potential amp.       -0.0083 Ry
        Total length         45.9568 bohr

     End of self-consistent calculation

[...]

          k = 0.0551 0.0000 0.0000 ( 20097 PWs)   bands (ev):

[...]

          k =-0.0826-0.1431 0.0000 ( 20120 PWs)   bands (ev):

    -7.2116  -7.0202  -7.0123  -6.9882  -6.9281  -6.8810  -6.7282  -6.7023
    -6.6720  -6.5717  -6.5202  -6.4191  -6.3430  -6.2833  -6.2408  -6.1055
    -6.0148  -5.2302  -4.9581  -4.9156  -4.7783  -4.5982  -4.4120  -4.3956
    -4.3285  -4.1666  -4.1079  -4.0226  -4.0082  -3.9657  -3.9252  -3.8812
    -3.6341  -3.6127  -3.5034  -3.4788  -3.4142  -3.3933  -3.3225  -3.3179
    -3.2835  -3.2522  -3.2172  -3.2042  -3.1194  -3.0718  -3.0275  -2.9453
    -2.8902  -2.8423  -2.8236  -2.7752  -2.7339  -2.7043  -2.6927  -2.6261
    -2.5765  -2.4663  -2.3795  -2.3349  -2.1595  -2.1142  -1.9537  -1.7376
    -0.9655  -0.5194  -0.4738  -0.0961   0.3847   0.8196   1.8072   2.5054
     2.9465   3.0092   4.7869   4.8064   4.8227   5.1399   5.2868   5.3759
     5.8357   6.0137   6.0596   6.0756   6.1457   6.1724   6.5963   6.6279
     7.1850   7.2461   7.3252   7.3829   7.6030   7.8497   7.9444   7.9954
     8.6581

     the Fermi energy is     0.2560 ev

!    total energy              =   -1377.63534724 Ry
     Harris-Foulkes estimate   =   -1377.63534502 Ry
     estimated scf accuracy    <       0.00000076 Ry

     The total energy is the sum of the following terms:

     one-electron contribution =   -7824.46746657 Ry
     hartree contribution      =    4007.40381728 Ry
     xc contribution           =    -697.32404544 Ry
     ewald contribution        =    3136.77195457 Ry
     electric field correction =       0.00000347 Ry
     smearing contrib. (-TS)   =      -0.01961054 Ry

     convergence has been achieved in  12 iterations

 BEEF-vdW xc energy contributions
           1 :   -621.309308480607
           2 :    576.470781026970
           3 :   -496.763981786936
           4 :    398.397688061451
           5 :   -298.555079111286
           6 :    210.724735492343
           7 :   -142.107355984476
           8 :    93.5259787843534
           9 :   -61.3726509228370
          10 :    40.4191084484032
          11 :   -26.2121415895341
          12 :    16.1891992889147
          13 :   -9.44148176949818
          14 :    5.69274150232059
          15 :   -4.32062103994031
          16 :    3.99818894727252
          17 :   -3.06668898972737
          18 :   0.297693205865357
          19 :    4.46950749717860
          20 :   -10.2214996546963
          21 :    15.2662387830613
          22 :   -18.0673486478580
          23 :    17.9681210940889
          24 :   -15.4436967110690
          25 :    11.7872418847834
          26 :   -8.44010188775110
          27 :    6.33553839361264
          28 :   -5.58896214060076
          29 :    5.64634766576239
          30 :   -5.75335054186166
          31 :   -50.4907017842901
          32 :   -36.8210644638660

     Forces acting on atoms (Ry/au):

     negative rho (up, down):  1.545E-04 0.000E+00
     atom    1 type  1   force =    -0.00000716   -0.00107180   -0.00234769
     atom    2 type  1   force =    -0.00092146    0.00052782   -0.00233790
     atom    3 type  1   force =     0.00092085    0.00052940   -0.00233631
     atom    4 type  2   force =    -0.00000275    0.00000238   -0.02510110
     atom    5 type  1   force =    -0.00000263    0.00601847    0.00992519
     atom    6 type  1   force =     0.00522317   -0.00300408    0.00991165
     atom    7 type  1   force =    -0.00521802   -0.00300417    0.00990510
     atom    8 type  2   force =     0.00000124   -0.00000167    0.00791242
     atom    9 type  1   force =     0.00000290   -0.00013958   -0.00191091
     atom   10 type  1   force =    -0.00011949    0.00006982   -0.00190873
     atom   11 type  1   force =     0.00012396    0.00007457   -0.00191707
     atom   12 type  2   force =    -0.00000061   -0.00000114    0.00020535

     Total force =     0.033574     Total SCF correction =     0.000891

     entering subroutine stress ...

     negative rho (up, down):  1.545E-04 0.000E+00
          total   stress  (Ry/bohr**3)                   (kbar)     P=  -11.08
  -0.00012285  -0.00000000  -0.00000000        -18.07     -0.00     -0.00
  -0.00000000  -0.00012285   0.00000000         -0.00    -18.07      0.00
  -0.00000000   0.00000000   0.00001972         -0.00      0.00      2.90

 !ASE

     Writing output data file calc.save

     General routines

     Parallel routines

   This run was terminated on:  20:30:26  19Dec2018

   JOB DONE.
Job  /afs/slac/g/suncat/bin/suncat-tsmpirun -x LD_LIBRARY_PATH -wdir /scratch/qe773353_Lki1s pw.x -in pw.inp

TID   HOST_NAME   COMMAND_LINE            STATUS            TERMINATION_TIME
00000 suncat0145 pw.x -in pw.inp   Done                     12/19/2018 20:30:26
00001 suncat0145 pw.x -in pw.inp   Done                     12/19/2018 20:30:26
00002 suncat0145 pw.x -in pw.inp   Done                     12/19/2018 20:30:26
00003 suncat0145 pw.x -in pw.inp   Done                     12/19/2018 20:30:26
00004 suncat0145 pw.x -in pw.inp   Done                     12/19/2018 20:30:26
00005 suncat0145 pw.x -in pw.inp   Done                     12/19/2018 20:30:26
00006 suncat0145 pw.x -in pw.inp   Done                     12/19/2018 20:30:26
00007 suncat0145 pw.x -in pw.inp   Done                     12/19/2018 20:30:26
00008 suncat0144 pw.x -in pw.inp   Done                     12/19/2018 20:30:26
00009 suncat0144 pw.x -in pw.inp   Done                     12/19/2018 20:30:26
00010 suncat0144 pw.x -in pw.inp   Done                     12/19/2018 20:30:26
00011 suncat0144 pw.x -in pw.inp   Done                     12/19/2018 20:30:26
00012 suncat0144 pw.x -in pw.inp   Done                     12/19/2018 20:30:26
00013 suncat0144 pw.x -in pw.inp   Done                     12/19/2018 20:30:26
00014 suncat0144 pw.x -in pw.inp   Done                     12/19/2018 20:30:26
00015 suncat0144 pw.x -in pw.inp   Done                     12/19/2018 20:30:26
00016 suncat0143 pw.x -in pw.inp   Done                     12/19/2018 20:30:26
00017 suncat0143 pw.x -in pw.inp   Done                     12/19/2018 20:30:26
00018 suncat0143 pw.x -in pw.inp   Done                     12/19/2018 20:30:26
00019 suncat0143 pw.x -in pw.inp   Done                     12/19/2018 20:30:26
00020 suncat0143 pw.x -in pw.inp   Done                     12/19/2018 20:30:26
00021 suncat0143 pw.x -in pw.inp   Done                     12/19/2018 20:30:26
00022 suncat0143 pw.x -in pw.inp   Done                     12/19/2018 20:30:26
00023 suncat0143 pw.x -in pw.inp   Done                     12/19/2018 20:30:26
00024 suncat0142 pw.x -in pw.inp   Done                     12/19/2018 20:30:26
00025 suncat0142 pw.x -in pw.inp   Done                     12/19/2018 20:30:26
00026 suncat0142 pw.x -in pw.inp   Done                     12/19/2018 20:30:26
00027 suncat0142 pw.x -in pw.inp   Done                     12/19/2018 20:30:26
00028 suncat0142 pw.x -in pw.inp   Done                     12/19/2018 20:30:26
00029 suncat0142 pw.x -in pw.inp   Done                     12/19/2018 20:30:26
00030 suncat0142 pw.x -in pw.inp   Done                     12/19/2018 20:30:26
00031 suncat0142 pw.x -in pw.inp   Done                     12/19/2018 20:30:26
00032 suncat0141 pw.x -in pw.inp   Done                     12/19/2018 20:30:26
00033 suncat0141 pw.x -in pw.inp   Done                     12/19/2018 20:30:26
00034 suncat0141 pw.x -in pw.inp   Done                     12/19/2018 20:30:26
00035 suncat0141 pw.x -in pw.inp   Done                     12/19/2018 20:30:26
00036 suncat0141 pw.x -in pw.inp   Done                     12/19/2018 20:30:26
00037 suncat0141 pw.x -in pw.inp   Done                     12/19/2018 20:30:26
00038 suncat0141 pw.x -in pw.inp   Done                     12/19/2018 20:30:26
00039 suncat0141 pw.x -in pw.inp   Done                     12/19/2018 20:30:26
00040 suncat0140 pw.x -in pw.inp   Done                     12/19/2018 20:30:26
00041 suncat0140 pw.x -in pw.inp   Done                     12/19/2018 20:30:26
00042 suncat0140 pw.x -in pw.inp   Done                     12/19/2018 20:30:26
00043 suncat0140 pw.x -in pw.inp   Done                     12/19/2018 20:30:26
00044 suncat0140 pw.x -in pw.inp   Done                     12/19/2018 20:30:26
00045 suncat0140 pw.x -in pw.inp   Done                     12/19/2018 20:30:26
00046 suncat0140 pw.x -in pw.inp   Done                     12/19/2018 20:30:26
00047 suncat0140 pw.x -in pw.inp   Done                     12/19/2018 20:30:26
00048 suncat0139 pw.x -in pw.inp   Done                     12/19/2018 20:30:26
00049 suncat0139 pw.x -in pw.inp   Done                     12/19/2018 20:30:26
00050 suncat0139 pw.x -in pw.inp   Done                     12/19/2018 20:30:26
00051 suncat0139 pw.x -in pw.inp   Done                     12/19/2018 20:30:26
00052 suncat0139 pw.x -in pw.inp   Done                     12/19/2018 20:30:26
00053 suncat0139 pw.x -in pw.inp   Done                     12/19/2018 20:30:26
00054 suncat0139 pw.x -in pw.inp   Done                     12/19/2018 20:30:26
00055 suncat0139 pw.x -in pw.inp   Done                     12/19/2018 20:30:26
00056 suncat0138 pw.x -in pw.inp   Done                     12/19/2018 20:30:26
00057 suncat0138 pw.x -in pw.inp   Done                     12/19/2018 20:30:26
00058 suncat0138 pw.x -in pw.inp   Done                     12/19/2018 20:30:26
00059 suncat0138 pw.x -in pw.inp   Done                     12/19/2018 20:30:26
00060 suncat0138 pw.x -in pw.inp   Done                     12/19/2018 20:30:26
00061 suncat0138 pw.x -in pw.inp   Done                     12/19/2018 20:30:26
00062 suncat0138 pw.x -in pw.inp   Done                     12/19/2018 20:30:26
00063 suncat0138 pw.x -in pw.inp   Done                     12/19/2018 20:30:26