     Program PWSCF v.5.1rc2 (svn rev. 11289) starts on 20Dec2018 at  8:41:59

     Current dimensions of program PWSCF are:
     Max number of different atomic species (ntypx) = 10
     Max number of k-points (npk) =  40000
     Max angular momentum in pseudopotentials (lmaxx) =  3
     Presently stress not available with electric field

     IMPORTANT: XC functional enforced from input :
     Exchange-correlation      = BEEF-VDW ( 1  4 27 13 2)
     Any further DFT definition will be discarded
     Please, verify this is what you really want

     Subspace diagonalization in iterative solution of the eigenvalue problem:
     a serial algorithm will be used

     Found symmetry operation: I + ( -0.5000  0.0000  0.0000)
     This is a supercell, fractional translations are disabled

     bravais-lattice index     =            0
     lattice parameter (alat)  =       1.8897  a.u.
     unit-cell volume          =    4781.5749 (a.u.)^3
     number of atoms/cell      =           12
     number of atomic types    =            2
     number of electrons       =       150.00
     number of Kohn-Sham states=          105
     kinetic-energy cutoff     =      36.7493  Ry
     charge density cutoff     =     367.4932  Ry
     convergence threshold     =      1.0E-06
     mixing beta               =       0.1000
     number of iterations used =           10  plain     mixing
     Exchange-correlation      = BEEF-VDW ( 1  4 27 13 2)
     nstep                     =           50

     celldm(1)=   1.889726  celldm(2)=   0.000000  celldm(3)=   0.000000
     celldm(4)=   0.000000  celldm(5)=   0.000000  celldm(6)=   0.000000

     crystal axes: (cart. coord. in units of alat)
               a(1) = (   5.534213   0.000000   0.000000 )
               a(2) = (  -2.767106   5.187450   0.000000 )
               a(3) = (   0.000000   0.000000  24.681105 )

     reciprocal axes: (cart. coord. in units 2 pi/alat)
               b(1) = (  0.180694  0.096386  0.000000 )
               b(2) = (  0.000000  0.192773  0.000000 )
               b(3) = (  0.000000  0.000000  0.040517 )

     PseudoPot. # 1 for W  read from file:
     /afs/slac.stanford.edu/u/if/mamunm/psp/gbrv1.5pbe/W.UPF
     MD5 check sum: 9c083fa34c2a2ea0f02f1f893e16e1c8
     Pseudo is Ultrasoft + core correction, Zval = 14.0
     Generated by new atomic code, or converted to UPF format
     Using radial grid of  923 points,  8 beta functions with:
                l(1) =   0
                l(2) =   0
                l(3) =   0
                l(4) =   1
                l(5) =   1
                l(6) =   2
                l(7) =   2
                l(8) =   3
     Q(r) pseudized with  6 coefficients,  rinner =    1.350   1.350   1.350
                                                       1.350   1.350   1.350
                                                       1.350

     PseudoPot. # 2 for Au read from file:
     /afs/slac.stanford.edu/u/if/mamunm/psp/gbrv1.5pbe/Au.UPF
     MD5 check sum: 9d7f43293ad2c663164586bc4b293ffc
     Pseudo is Ultrasoft + core correction, Zval = 11.0
     Generated by new atomic code, or converted to UPF format
     Using radial grid of  985 points,  7 beta functions with:
                l(1) =   0
                l(2) =   0
                l(3) =   1
                l(4) =   1
                l(5) =   2
                l(6) =   2
                l(7) =   3
     Q(r) pseudized with  6 coefficients,  rinner =    1.900   1.900   1.900
                                                       1.900   1.900   1.900
                                                       1.900

     vdW kernel table read from file vdW_kernel_table
     MD5 check sum: 095c7af220d748ca6e76c0b4c6cfb241

     atomic species   valence    mass     pseudopotential
        W1            14.00   183.84000     W ( 1.00)
        Au1           11.00   196.96657     Au( 1.00)

     No symmetry found

   Cartesian axes

     site n.     atom                  positions (alat units)
         1           W1  tau(   1) = (   0.0000000   0.0000000  10.0000000  )
         2           W1  tau(   2) = (   2.7671064   0.0000000  10.0000000  )
         3           Au1 tau(   3) = (   1.3835532   2.5937249  10.0000000  )
         4           Au1 tau(   4) = (  -1.3835532   2.5937249  10.0000000  )
         5           W1  tau(   5) = (   2.7671064   1.4760389  12.3405527  )
         6           W1  tau(   6) = (  -0.0000000   1.4760389  12.3405527  )
         7           Au1 tau(   7) = (  -1.3835532   4.0697638  12.3405527  )
         8           Au1 tau(   8) = (   1.3835532   4.0697638  12.3405527  )
         9           W1  tau(   9) = (  -0.0000000   2.9520778  14.6811054  )
        10           W1  tau(  10) = (   2.7671064   2.9520778  14.6811054  )
        11           Au1 tau(  11) = (   4.1506596   0.3583529  14.6811054  )
        12           Au1 tau(  12) = (   1.3835532   0.3583529  14.6811054  )

     number of k points=    20  Fermi-Dirac smearing, width (Ry)=  0.0110
                       cart. coord. in units 2pi/alat
        k(    1) = (   0.0000000   0.0000000   0.0000000), wk =   0.0555556
        k(    2) = (   0.0000000   0.0321288   0.0000000), wk =   0.1111111
        k(    3) = (   0.0000000   0.0642576   0.0000000), wk =   0.1111111
        k(    4) = (   0.0000000  -0.0963865   0.0000000), wk =   0.0555556
        k(    5) = (   0.0301157   0.0160644   0.0000000), wk =   0.1111111
        k(    6) = (   0.0301157   0.0481932   0.0000000), wk =   0.1111111
        k(    7) = (   0.0301157   0.0803221   0.0000000), wk =   0.1111111
        k(    8) = (   0.0301157  -0.0803221   0.0000000), wk =   0.1111111
        k(    9) = (   0.0301157  -0.0481932   0.0000000), wk =   0.1111111
        k(   10) = (   0.0301157  -0.0160644   0.0000000), wk =   0.1111111
        k(   11) = (   0.0602314   0.0321288   0.0000000), wk =   0.1111111
        k(   12) = (   0.0602314   0.0642576   0.0000000), wk =   0.1111111
        k(   13) = (   0.0602314   0.0963865   0.0000000), wk =   0.1111111
        k(   14) = (   0.0602314  -0.0642576   0.0000000), wk =   0.1111111
        k(   15) = (   0.0602314  -0.0321288   0.0000000), wk =   0.1111111
        k(   16) = (   0.0602314   0.0000000   0.0000000), wk =   0.1111111
        k(   17) = (  -0.0903471  -0.0481932   0.0000000), wk =   0.0555556
        k(   18) = (  -0.0903471  -0.0160644   0.0000000), wk =   0.1111111
        k(   19) = (  -0.0903471   0.0160644   0.0000000), wk =   0.1111111
        k(   20) = (  -0.0903471  -0.1445797   0.0000000), wk =   0.0555556

     Largest allocated arrays     est. size (Mb)     dimensions
     Largest temporary arrays     est. size (Mb)     dimensions

     Check: negative/imaginary core charge=   -0.000001    0.000000

     Initial potential from superposition of free atoms
     Check: negative starting charge=   -0.380776

     starting charge  149.39723, renormalised to  150.00000

     negative rho (up, down):  3.823E-01 0.000E+00

     *
     * You are using vdW-DF for exchange-correlation in this calculation.
     * Please cite the following three references that made this development
     * possible:
     *
     *   M. Dion, H. Rydberg, E. Schroder, D. C. Langreth, and
     *   B. I. Lundqvist, Phys. Rev. Lett. 92, 246401 (2004).
     *
     *   T. Thonhauser, V. R. Cooper, S. Li, A. Puzder, P. Hyldgaard, and
     *   D. C. Langreth, Phys. Rev. B 76, 125112 (2007).
     *
     *   G. Roman-Perez and J. M. Soler, Phys. Rev. Lett. 103, 096102 (2009).
     *
     *
     * If you are using vdW-DF2, please also cite:
     *
     *   K. Lee, E. D. Murray, L. Kong, B. I. Lundqvist, and
     *   D. C. Langreth, Phys. Rev. B 82, 081101(R) (2010).
     *
     *
     * If you are calculating the stress with vdW-DF, please also cite:
     *
     *   R. Sabatini, E. Kucukbenli, B. Kolb, T. Thonhauser, and
     *   S. de Gironcoli, J. Phys.: Condens. Matter 24, 424209 (2012).
     *

     Carrying out vdW-DF run using the following parameters:

     Nqs =      20    Nr_points =    1024   r_max =   100.000
     q_mesh =
               0.00001000     0.04494208     0.09755937     0.15916263
               0.23128650     0.31572767     0.41458969     0.53033537
               0.66584808     0.82450364     1.01025438     1.22772762
               1.48234092     1.78043706     2.12944203     2.53805004
               3.01644009     3.57652955     4.23227104     5.00000000

     Gradients computed in reciprocal space

     Adding external electric field

     Computed dipole along edir(3) :
        Dipole                0.0000 Ry au,          0.0000 Debye
        Dipole field          0.0000 Ry au

        Potential amp.       -0.0000 Ry
        Total length         45.4745 bohr

     Starting wfc are  132 randomized atomic wfcs

     Self-consistent Calculation

     iteration #  1     ecut=    36.75 Ry     beta=0.10
     Davidson diagonalization with overlap
     ethr =  1.00E-02,  avg # of iterations =  6.0

[...]

     total energy              =   -1662.19251998 Ry
     Harris-Foulkes estimate   =   -1662.79250157 Ry
     estimated scf accuracy    <       3.51349628 Ry

[...]

     End of self-consistent calculation

          k = 0.0000 0.0000 0.0000 ( 17993 PWs)   bands (ev):

   -73.2329 -73.1834 -73.1132 -73.1106 -73.0646 -73.0621 -37.6227 -37.5084
   -37.4168 -37.4074 -37.3801 -37.3745 -37.3238 -37.2981 -37.2715 -37.2172
   -37.1895 -37.1840 -37.1028 -36.9521 -36.8813 -36.8591 -36.6288 -36.6262
    -7.5123  -5.8362  -5.5571  -5.4335  -5.3295  -5.2566  -5.0650  -4.9902
    -4.8286  -4.6358  -4.6334  -4.6012  -4.5799  -4.3849  -3.9114  -3.8055
    -3.6886  -3.5172  -3.3468  -3.0694  -2.9406  -2.9388  -2.6988  -2.6552
    -2.5630  -2.3785  -2.3554  -2.0723  -2.0588  -1.6715  -1.3987  -1.3185
    -1.2594  -1.0944  -0.7352  -0.7283  -0.3085  -0.2787  -0.2144  -0.1534
     0.1093   0.2765   0.4008   0.8568   0.9799   1.2105   1.3514   1.3783
     1.7447   1.7691   1.9223   2.0978   2.2691   2.5364   2.5511   2.7306
     3.0927   3.1809   3.3518   3.6144   3.6673   3.8188   3.9042   3.9567
     4.2961   4.3040   4.4667   4.5087   4.5462   4.6838   4.9481   5.3105
     5.8456   6.0606   6.2620   6.4893   6.7274   6.8216   6.8390   6.8727
     7.4187

[...]

          k =-0.0903-0.0482 0.0000 ( 17996 PWs)   bands (ev):

[...]

     the Fermi energy is     1.5975 ev

!    total energy              =   -1662.28171572 Ry
     Harris-Foulkes estimate   =   -1662.28171526 Ry
     estimated scf accuracy    <       0.00000045 Ry

     The total energy is the sum of the following terms:

     one-electron contribution =  -11333.75276526 Ry
     hartree contribution      =    5703.53356375 Ry
     xc contribution           =    -638.74103622 Ry
     ewald contribution        =    4606.75062165 Ry
     electric field correction =       0.00000000 Ry
     smearing contrib. (-TS)   =      -0.07209964 Ry

     convergence has been achieved in  16 iterations

 BEEF-vdW xc energy contributions
           1 :   -567.612659253320
           2 :    527.091423144851
           3 :   -454.773191532443
           4 :    365.053248353170
           5 :   -273.515263482906
[...]

[...]

   This run was terminated on:   9: 7:30  20Dec2018

[...]

     Program PWSCF v.5.1rc2 (svn rev. 11289) starts on 20Dec2018 at  9: 7:37

[...]

   This run was terminated on:   9:21: 8  20Dec2018

[...]

     Program PWSCF v.5.1rc2 (svn rev. 11289) starts on 20Dec2018 at  9:34:52

     Current dimensions of program PWSCF are:
     Max number of different atomic species (ntypx) = 10
     Max number of k-points (npk) =  40000
     Max angular momentum in pseudopotentials (lmaxx) =  3
     Presently stress not available with electric field

     IMPORTANT: XC functional enforced from input :
     Exchange-correlation      = BEEF-VDW ( 1  4 27 13 2)
     Any further DFT definition will be discarded
     Please, verify this is what you really want

     Subspace diagonalization in iterative solution of the eigenvalue problem:
     a serial algorithm will be used

     Found symmetry operation: I + ( -0.5000  0.0000  0.0000)
     This is a supercell, fractional translations are disabled

     bravais-lattice index     =            0
     lattice parameter (alat)  =       1.8897  a.u.
     unit-cell volume          =    4781.5749 (a.u.)^3
     number of atoms/cell      =           12
     number of atomic types    =            2
     number of electrons       =       150.00
     number of Kohn-Sham states=          105
     kinetic-energy cutoff     =      36.7493  Ry
     charge density cutoff     =     367.4932  Ry
     convergence threshold     =      1.0E-06
     mixing beta               =       0.1000
     number of iterations used =           10  plain     mixing
     Exchange-correlation      = BEEF-VDW ( 1  4 27 13 2)
     nstep                     =           50

     celldm(1)=   1.889726  celldm(2)=   0.000000  celldm(3)=   0.000000
     celldm(4)=   0.000000  celldm(5)=   0.000000  celldm(6)=   0.000000

     crystal axes: (cart. coord. in units of alat)
               a(1) = (   5.534213   0.000000   0.000000 )
               a(2) = (  -2.767106   5.187450   0.000000 )
               a(3) = (   0.000000   0.000000  24.681105 )

     reciprocal axes: (cart. coord. in units 2 pi/alat)
               b(1) = (  0.180694  0.096386  0.000000 )
               b(2) = (  0.000000  0.192773  0.000000 )
               b(3) = (  0.000000  0.000000  0.040517 )

     PseudoPot. # 1 for W  read from file:
     /afs/slac.stanford.edu/u/if/mamunm/psp/gbrv1.5pbe/W.UPF
     MD5 check sum: 9c083fa34c2a2ea0f02f1f893e16e1c8
     Pseudo is Ultrasoft + core correction, Zval = 14.0
     Generated by new atomic code, or converted to UPF format
     Using radial grid of  923 points,  8 beta functions with:
                l(1) =   0
                l(2) =   0
                l(3) =   0
                l(4) =   1
                l(5) =   1
                l(6) =   2
                l(7) =   2
                l(8) =   3
     Q(r) pseudized with  6 coefficients,  rinner =    1.350   1.350   1.350
                                                       1.350   1.350   1.350
                                                       1.350

     PseudoPot. # 2 for Au read from file:
     /afs/slac.stanford.edu/u/if/mamunm/psp/gbrv1.5pbe/Au.UPF
     MD5 check sum: 9d7f43293ad2c663164586bc4b293ffc
     Pseudo is Ultrasoft + core correction, Zval = 11.0
     Generated by new atomic code, or converted to UPF format
     Using radial grid of  985 points,  7 beta functions with:
                l(1) =   0
                l(2) =   0
                l(3) =   1
                l(4) =   1
                l(5) =   2
                l(6) =   2
                l(7) =   3
     Q(r) pseudized with  6 coefficients,  rinner =    1.900   1.900   1.900
                                                       1.900   1.900   1.900
                                                       1.900

     vdW kernel table read from file vdW_kernel_table
     MD5 check sum: 095c7af220d748ca6e76c0b4c6cfb241

     atomic species   valence    mass     pseudopotential
        W1            14.00   183.84000     W ( 1.00)
        Au1           11.00   196.96657     Au( 1.00)

     No symmetry found

   Cartesian axes

     site n.     atom                  positions (alat units)
         1           W1  tau(   1) = (   0.0000000   0.0000000  10.0000000  )
         2           W1  tau(   2) = (   2.7671064   0.0000000  10.0000000  )
         3           Au1 tau(   3) = (   1.3835532   2.5937249  10.0000000  )
         4           Au1 tau(   4) = (  -1.3835532   2.5937249  10.0000000  )
         5           W1  tau(   5) = (   2.7671064   1.4760389  12.3405527  )
         6           W1  tau(   6) = (  -0.0000000   1.4760389  12.3405527  )
         7           Au1 tau(   7) = (  -1.3835532   4.0697638  12.3405527  )
         8           Au1 tau(   8) = (   1.3835532   4.0697638  12.3405527  )
         9           W1  tau(   9) = (   0.0000436   2.9126263  14.5472193  )
        10           W1  tau(  10) = (   2.7671428   2.9126251  14.5472163  )
        11           Au1 tau(  11) = (   4.1506172   0.3940833  14.8170369  )
        12           Au1 tau(  12) = (   1.3835047   0.3940835  14.8170297  )

     number of k points=    20  Fermi-Dirac smearing, width (Ry)=  0.0110
                       cart. coord. in units 2pi/alat
        k(    1) = (   0.0000000   0.0000000   0.0000000), wk =   0.0555556
        k(    2) = (   0.0000000   0.0321288   0.0000000), wk =   0.1111111
        k(    3) = (   0.0000000   0.0642576   0.0000000), wk =   0.1111111
        k(    4) = (   0.0000000  -0.0963865   0.0000000), wk =   0.0555556
        k(    5) = (   0.0301157   0.0160644   0.0000000), wk =   0.1111111
        k(    6) = (   0.0301157   0.0481932   0.0000000), wk =   0.1111111
        k(    7) = (   0.0301157   0.0803221   0.0000000), wk =   0.1111111
        k(    8) = (   0.0301157  -0.0803221   0.0000000), wk =   0.1111111
        k(    9) = (   0.0301157  -0.0481932   0.0000000), wk =   0.1111111
        k(   10) = (   0.0301157  -0.0160644   0.0000000), wk =   0.1111111
        k(   11) = (   0.0602314   0.0321288   0.0000000), wk =   0.1111111
        k(   12) = (   0.0602314   0.0642576   0.0000000), wk =   0.1111111
        k(   13) = (   0.0602314   0.0963865   0.0000000), wk =   0.1111111
        k(   14) = (   0.0602314  -0.0642576   0.0000000), wk =   0.1111111
        k(   15) = (   0.0602314  -0.0321288   0.0000000), wk =   0.1111111
        k(   16) = (   0.0602314   0.0000000   0.0000000), wk =   0.1111111
        k(   17) = (  -0.0903471  -0.0481932   0.0000000), wk =   0.0555556
        k(   18) = (  -0.0903471  -0.0160644   0.0000000), wk =   0.1111111
        k(   19) = (  -0.0903471   0.0160644   0.0000000), wk =   0.1111111
        k(   20) = (  -0.0903471  -0.1445797   0.0000000), wk =   0.0555556

     Largest allocated arrays     est. size (Mb)     dimensions
     Largest temporary arrays     est. size (Mb)     dimensions

     Check: negative/imaginary core charge=   -0.000001    0.000000

     Initial potential from superposition of free atoms
     Check: negative starting charge=   -0.379538

     starting charge  149.39723, renormalised to  150.00000

[...]

     *
     * You are using vdW-DF for exchange-correlation in this calculation.
     * Please cite the following three references that made this development
     * possible:
     *
     *   M. Dion, H. Rydberg, E. Schroder, D. C. Langreth, and
     *   B. I. Lundqvist, Phys. Rev. Lett. 92, 246401 (2004).
     *
     *   T. Thonhauser, V. R. Cooper, S. Li, A. Puzder, P. Hyldgaard, and
     *   D. C. Langreth, Phys. Rev. B 76, 125112 (2007).
     *
     *   G. Roman-Perez and J. M. Soler, Phys. Rev. Lett. 103, 096102 (2009).
     *
     *
     * If you are using vdW-DF2, please also cite:
     *
     *   K. Lee, E. D. Murray, L. Kong, B. I. Lundqvist, and
     *   D. C. Langreth, Phys. Rev. B 82, 081101(R) (2010).
     *
     *
     * If you are calculating the stress with vdW-DF, please also cite:
     *
     *   R. Sabatini, E. Kucukbenli, B. Kolb, T. Thonhauser, and
     *   S. de Gironcoli, J. Phys.: Condens. Matter 24, 424209 (2012).
     *

     Carrying out vdW-DF run using the following parameters:

     Nqs =      20    Nr_points =    1024   r_max =   100.000
     q_mesh =
               0.00001000     0.04494208     0.09755937     0.15916263
               0.23128650     0.31572767     0.41458969     0.53033537
               0.66584808     0.82450364     1.01025438     1.22772762
               1.48234092     1.78043706     2.12944203     2.53805004
               3.01644009     3.57652955     4.23227104     5.00000000

     Gradients computed in reciprocal space

[...]

     Starting wfc are  132 randomized atomic wfcs

     Self-consistent Calculation

[...]

     total energy              =   -1662.30201748 Ry
     Harris-Foulkes estimate   =   -1662.30201745 Ry
     estimated scf accuracy    <       0.00000106 Ry

     iteration # 16     ecut=    36.75 Ry     beta=0.10
     Davidson diagonalization with overlap
     ethr =  7.10E-10,  avg # of iterations =  1.9

[...]

     negative rho (up, down):  3.943E-01 0.000E+00

     Adding external electric field

     Computed dipole along edir(3) :
        Dipole               -0.0293 Ry au,         -0.0744 Debye
        Dipole field         -0.0001 Ry au

        Potential amp.        0.0070 Ry
        Total length         45.4745 bohr

     End of self-consistent calculation

[...]

          k = 0.0602 0.0000 0.0000 ( 17978 PWs)   bands (ev):

[...]

          k =-0.0903-0.1446 0.0000 ( 17996 PWs)   bands (ev):

   -73.2358 -73.2358 -73.1431 -73.1429 -73.0656 -73.0654 -37.5801 -37.5800
   -37.4052 -37.4052 -37.2994 -37.2992 -37.2850 -37.2850 -37.2196 -37.2194
   -37.1900 -37.1898 -37.0639 -37.0637 -37.0257 -37.0255 -36.8634 -36.8633
    -5.7758  -5.7758  -4.6785  -4.6784  -4.5114  -4.5114  -4.4559  -4.4559
    -4.1296  -4.1296  -4.0404  -4.0404  -3.9456  -3.9456  -3.6859  -3.6859
    -3.3458  -3.3458  -3.2121  -3.2121  -3.0464  -3.0464  -3.0024  -3.0024
    -2.8509  -2.8509  -2.7787  -2.7787  -2.5731  -2.5731  -2.4655  -2.4655
    -2.3216  -2.3216  -1.3484  -1.3484  -0.6454  -0.6454  -0.5519  -0.5518
    -0.0738  -0.0737   0.2824   0.2824   0.9126   0.9126   1.0544   1.0544
     1.2831   1.2831   1.4369   1.4370   1.4950   1.4950   1.7238   1.7238
     1.8281   1.8281   2.7634   2.7634   3.2390   3.2390   3.3587   3.3587
     4.0400   4.0400   4.3143   4.3143   4.8321   4.8321   5.8724   5.8724
     6.2977   6.2977   7.2777   7.2777   7.8517   7.8517   7.9662   7.9663
     8.1905

     the Fermi energy is     1.5543 ev

!    total energy              =   -1662.30201788 Ry
     Harris-Foulkes estimate   =   -1662.30201785 Ry
     estimated scf accuracy    <       0.00000036 Ry

     The total energy is the sum of the following terms:

     one-electron contribution =  -11355.21577010 Ry
     hartree contribution      =    5714.15095624 Ry
     xc contribution           =    -638.82251491 Ry
     ewald contribution        =    4617.65681862 Ry
     electric field correction =       0.00000225 Ry
     smearing contrib. (-TS)   =      -0.07150998 Ry

     convergence has been achieved in  16 iterations

 BEEF-vdW xc energy contributions
           1 :   -567.688148321403
           2 :    527.160564077726
           3 :   -454.836250056962
           4 :    365.111896018318
           5 :   -273.564712693644
           6 :    192.765354097478
           7 :   -129.741078991343
           8 :    85.6140289497844
           9 :   -57.1290812856124
          10 :    39.1225172579839
          11 :   -26.8279784367215
          12 :    17.2082003673067
          13 :   -9.11513103693505
          14 :    2.60839476330534
          15 :    1.97012537872820
          16 :   -4.66084903886440
          17 :    6.05330497139357
          18 :   -7.02615953046359
          19 :    8.30788971632626
          20 :   -10.1417935564411
          21 :    12.2222432721935
          22 :   -13.9077850059999
          23 :    14.5709287507941
          24 :   -13.9049278833122
          25 :    12.0530578930920
          26 :   -9.53288681074241
          27 :    7.01768726096634
          28 :   -5.09004448662904
          29 :    4.06729728403070
          30 :   -3.95069005133860
          31 :   -47.3625529869923
          32 :   -34.9999436574532

     Forces acting on atoms (Ry/au):

     negative rho (up, down):  3.943E-01 0.000E+00
     atom    1 type  1   force =     0.00000396    0.01434297    0.03341943
     atom    2 type  1   force =     0.00000469    0.01433765    0.03341821
     atom    3 type  2   force =    -0.00000179   -0.01848411   -0.03049299
     atom    4 type  2   force =    -0.00000187   -0.01848525   -0.03049410
     atom    5 type  1   force =    -0.00000055   -0.01312549   -0.00500236
     atom    6 type  1   force =    -0.00000058   -0.01312563   -0.00500362
     atom    7 type  2   force =    -0.00000225    0.01930284    0.00264483
     atom    8 type  2   force =    -0.00000573    0.01930419    0.00264366
     atom    9 type  1   force =     0.00000022   -0.00118678   -0.00132323
     atom   10 type  1   force =    -0.00000020   -0.00118122   -0.00132162
     atom   11 type  2   force =    -0.00000244   -0.00084905    0.00075552
     atom   12 type  2   force =     0.00000652   -0.00085010    0.00075629

     Total force =     0.079692     Total SCF correction =     0.002240

     entering subroutine stress ...

     negative rho (up, down):  3.943E-01 0.000E+00
          total   stress  (Ry/bohr**3)                   (kbar)     P=  -26.83
  -0.00024549   0.00000000  -0.00000000        -36.11      0.00     -0.00
   0.00000000  -0.00025664   0.00000333          0.00    -37.75      0.49
  -0.00000000   0.00000333  -0.00004504         -0.00      0.49     -6.63

 !ASE

     Writing output data file calc.save

     General routines

     Parallel routines

   This run was terminated on:   9:47:44  20Dec2018

   JOB DONE.
Job  /afs/slac/g/suncat/bin/suncat-tsmpirun -x LD_LIBRARY_PATH -wdir /scratch/qe530789_9Bh2A pw.x -in pw.inp

TID   HOST_NAME   COMMAND_LINE            STATUS            TERMINATION_TIME
00000 suncat2067 pw.x -in pw.inp   Done                     12/20/2018 09:47:44
00001 suncat2067 pw.x -in pw.inp   Done                     12/20/2018 09:47:44
00002 suncat2067 pw.x -in pw.inp   Done                     12/20/2018 09:47:44
00003 suncat2067 pw.x -in pw.inp   Done                     12/20/2018 09:47:44
00004 suncat2067 pw.x -in pw.inp   Done                     12/20/2018 09:47:44
00005 suncat2067 pw.x -in pw.inp   Done                     12/20/2018 09:47:44
00006 suncat2067 pw.x -in pw.inp   Done                     12/20/2018 09:47:44
00007 suncat2067 pw.x -in pw.inp   Done                     12/20/2018 09:47:44
00008 suncat2067 pw.x -in pw.inp   Done                     12/20/2018 09:47:44
00009 suncat2067 pw.x -in pw.inp   Done                     12/20/2018 09:47:44
00010 suncat2067 pw.x -in pw.inp   Done                     12/20/2018 09:47:44
00011 suncat2067 pw.x -in pw.inp   Done                     12/20/2018 09:47:44
00012 suncat2067 pw.x -in pw.inp   Done                     12/20/2018 09:47:44
00013 suncat2067 pw.x -in pw.inp   Done                     12/20/2018 09:47:44
00014 suncat2067 pw.x -in pw.inp   Done                     12/20/2018 09:47:44
00015 suncat2067 pw.x -in pw.inp   Done                     12/20/2018 09:47:44
00016 suncat2024 pw.x -in pw.inp   Done                     12/20/2018 09:47:44
00017 suncat2024 pw.x -in pw.inp   Done                     12/20/2018 09:47:44
00018 suncat2024 pw.x -in pw.inp   Done                     12/20/2018 09:47:44
00019 suncat2024 pw.x -in pw.inp   Done                     12/20/2018 09:47:44
00020 suncat2024 pw.x -in pw.inp   Done                     12/20/2018 09:47:44
00021 suncat2024 pw.x -in pw.inp   Done                     12/20/2018 09:47:44
00022 suncat2024 pw.x -in pw.inp   Done                     12/20/2018 09:47:44
00023 suncat2024 pw.x -in pw.inp   Done                     12/20/2018 09:47:44
00024 suncat2024 pw.x -in pw.inp   Done                     12/20/2018 09:47:44
00025 suncat2024 pw.x -in pw.inp   Done                     12/20/2018 09:47:44
00026 suncat2024 pw.x -in pw.inp   Done                     12/20/2018 09:47:44
00027 suncat2024 pw.x -in pw.inp   Done                     12/20/2018 09:47:44
00028 suncat2024 pw.x -in pw.inp   Done                     12/20/2018 09:47:44
00029 suncat2024 pw.x -in pw.inp   Done                     12/20/2018 09:47:44
00030 suncat2024 pw.x -in pw.inp   Done                     12/20/2018 09:47:44
00031 suncat2024 pw.x -in pw.inp   Done                     12/20/2018 09:47:44