     Program PWSCF v.5.1rc2 (svn rev. 11289) starts on  2Jan2019 at 19: 1:22

     Current dimensions of program PWSCF are:
     Max number of different atomic species (ntypx) = 10
     Max number of k-points (npk) =  40000
     Max angular momentum in pseudopotentials (lmaxx) =  3
     Presently stress not available with electric field

     IMPORTANT: XC functional enforced from input :
     Exchange-correlation      = BEEF-VDW ( 1  4 27 13 2)
     Any further DFT definition will be discarded
     Please, verify this is what you really want

     Subspace diagonalization in iterative solution of the eigenvalue problem:
     a serial algorithm will be used

     bravais-lattice index     =            0
     lattice parameter (alat)  =       1.8897  a.u.
     unit-cell volume          =    5674.8411 (a.u.)^3
     number of atoms/cell      =           12
     number of atomic types    =            2
     number of electrons       =       141.00
     number of Kohn-Sham states=          100
     kinetic-energy cutoff     =      36.7493  Ry
     charge density cutoff     =     367.4932  Ry
     convergence threshold     =      1.0E-06
     mixing beta               =       0.1000
     number of iterations used =           10  plain     mixing
     Exchange-correlation      = BEEF-VDW ( 1  4 27 13 2)
     nstep                     =           50

     celldm(1)=   1.889726  celldm(2)=   0.000000  celldm(3)=   0.000000
     celldm(4)=   0.000000  celldm(5)=   0.000000  celldm(6)=   0.000000

     crystal axes: (cart. coord. in units of alat)
               a(1) = (   6.222226   0.000000   0.000000 )
               a(2) = (  -3.111113   5.388606   0.000000 )
               a(3) = (   0.000000   0.000000  25.080426 )

     reciprocal axes: (cart. coord. in units 2 pi/alat)
               b(1) = (  0.160714  0.092788  0.000000 )
               b(2) = (  0.000000  0.185577  0.000000 )
               b(3) = (  0.000000  0.000000  0.039872 )

     PseudoPot. # 1 for Zr read from file:
     /afs/slac.stanford.edu/u/if/mamunm/psp/gbrv1.5pbe/Zr.UPF
     MD5 check sum: 5db81b1e868ab7776c4564c113de050b
     Pseudo is Ultrasoft + core correction, Zval = 12.0
     Generated by new atomic code, or converted to UPF format
     Using radial grid of  887 points,  6 beta functions with:
                l(1) =   0
                l(2) =   0
                l(3) =   1
                l(4) =   1
                l(5) =   2
                l(6) =   2
     Q(r) pseudized with  6 coefficients,  rinner =    1.200   1.200   1.200
                                                       1.200   1.200

     PseudoPot. # 2 for Au read from file:
     /afs/slac.stanford.edu/u/if/mamunm/psp/gbrv1.5pbe/Au.UPF
     MD5 check sum: 9d7f43293ad2c663164586bc4b293ffc
     Pseudo is Ultrasoft + core correction, Zval = 11.0
     Generated by new atomic code, or converted to UPF format
     Using radial grid of  985 points,  7 beta functions with:
                l(1) =   0
                l(2) =   0
                l(3) =   1
                l(4) =   1
                l(5) =   2
                l(6) =   2
                l(7) =   3
     Q(r) pseudized with  6 coefficients,  rinner =    1.900   1.900   1.900
                                                       1.900   1.900   1.900
                                                       1.900

     vdW kernel table read from file vdW_kernel_table
     MD5 check sum: 095c7af220d748ca6e76c0b4c6cfb241

     atomic species   valence    mass     pseudopotential
        Zr1           12.00    91.22400     Zr( 1.00)
        Au1           11.00   196.96657     Au( 1.00)

     No symmetry found

   Cartesian axes

     site n.     atom                  positions (alat units)
         1           Zr1 tau(   1) = (   0.0000000   0.0000000  10.0000000  )
         2           Zr1 tau(   2) = (  -1.5555565   2.6943029  10.0000000  )
         3           Zr1 tau(   3) = (   1.5555565   2.6943029  10.0000000  )
         4           Au1 tau(   4) = (   3.1111130   0.0000000  10.0000000  )
         5           Zr1 tau(   5) = (   3.1111130   1.7962019  12.5402131  )
         6           Zr1 tau(   6) = (   1.5555565   4.4905048  12.5402131  )
         7           Zr1 tau(   7) = (  -1.5555565   4.4905048  12.5402131  )
         8           Au1 tau(   8) = (   0.0000000   1.7962019  12.5402131  )
         9           Zr1 tau(   9) = (  -0.0000000   3.5924038  15.0804262  )
        10           Zr1 tau(  10) = (   1.5555565   0.8981010  15.0804262  )
        11           Zr1 tau(  11) = (   4.6666695   0.8981010  15.0804262  )
        12           Au1 tau(  12) = (   3.1111130   3.5924038  15.0804262  )

     number of k points=    20  Fermi-Dirac smearing, width (Ry)=  0.0110
                       cart. coord. in units 2pi/alat
        k(    1) = (   0.0000000   0.0000000   0.0000000), wk =   0.0555556
        k(    2) = (   0.0000000   0.0309295   0.0000000), wk =   0.1111111
        k(    3) = (   0.0000000   0.0618589   0.0000000), wk =   0.1111111
        k(    4) = (   0.0000000  -0.0927884   0.0000000), wk =   0.0555556
        k(    5) = (   0.0267857   0.0154647   0.0000000), wk =   0.1111111
        k(    6) = (   0.0267857   0.0463942   0.0000000), wk =   0.1111111
        k(    7) = (   0.0267857   0.0773237   0.0000000), wk =   0.1111111
        k(    8) = (   0.0267857  -0.0773237   0.0000000), wk =   0.1111111
        k(    9) = (   0.0267857  -0.0463942   0.0000000), wk =   0.1111111
        k(   10) = (   0.0267857  -0.0154647   0.0000000), wk =   0.1111111
        k(   11) = (   0.0535714   0.0309295   0.0000000), wk =   0.1111111
        k(   12) = (   0.0535714   0.0618589   0.0000000), wk =   0.1111111
        k(   13) = (   0.0535714   0.0927884   0.0000000), wk =   0.1111111
        k(   14) = (   0.0535714  -0.0618589   0.0000000), wk =   0.1111111
        k(   15) = (   0.0535714  -0.0309295   0.0000000), wk =   0.1111111
        k(   16) = (   0.0535714   0.0000000   0.0000000), wk =   0.1111111
        k(   17) = (  -0.0803571  -0.0463942   0.0000000), wk =   0.0555556
        k(   18) = (  -0.0803571  -0.0154647   0.0000000), wk =   0.1111111
        k(   19) = (  -0.0803571   0.0154647   0.0000000), wk =   0.1111111
        k(   20) = (  -0.0803571  -0.1391826   0.0000000), wk =   0.0555556

     Largest allocated arrays     est. size (Mb)     dimensions
     Largest temporary arrays     est. size (Mb)     dimensions

     Check: negative/imaginary core charge=   -0.000001    0.000000

     Initial potential from superposition of free atoms
     Check: negative starting charge=   -0.552239

     starting charge  140.98029, renormalised to  141.00000

     negative rho (up, down):  5.523E-01 0.000E+00

     *
     * You are using vdW-DF for exchange-correlation in this calculation.
     * Please cite the following three references that made this development
     * possible:
     *
     *   M. Dion, H. Rydberg, E. Schroder, D. C. Langreth, and
     *   B. I. Lundqvist, Phys. Rev. Lett. 92, 246401 (2004).
     *
     *   T. Thonhauser, V. R. Cooper, S. Li, A. Puzder, P. Hyldgaard, and
     *   D. C. Langreth, Phys. Rev. B 76, 125112 (2007).
     *
     *   G. Roman-Perez and J. M. Soler, Phys. Rev. Lett. 103, 096102 (2009).
     *
     *
     * If you are using vdW-DF2, please also cite:
     *
     *   K. Lee, E. D. Murray, L. Kong, B. I. Lundqvist, and
     *   D. C. Langreth, Phys. Rev. B 82, 081101(R) (2010).
     *
     *
     * If you are calculating the stress with vdW-DF, please also cite:
     *
     *   R. Sabatini, E. Kucukbenli, B. Kolb, T. Thonhauser, and
     *   S. de Gironcoli, J. Phys.: Condens. Matter 24, 424209 (2012).
     *

     Carrying out vdW-DF run using the following parameters:

     Nqs =      20    Nr_points =    1024   r_max =   100.000
     q_mesh =
               0.00001000     0.04494208     0.09755937     0.15916263
               0.23128650     0.31572767     0.41458969     0.53033537
               0.66584808     0.82450364     1.01025438     1.22772762
               1.48234092     1.78043706     2.12944203     2.53805004
               3.01644009     3.57652955     4.23227104     5.00000000

     Gradients computed in reciprocal space

     Adding external electric field

     Computed dipole along edir(3) :
        Dipole               -0.0000 Ry au,         -0.0000 Debye
        Dipole field         -0.0000 Ry au

        Potential amp.        0.0000 Ry
        Total length         46.2103 bohr

     Starting wfc are  144 randomized atomic wfcs

     Self-consistent Calculation

     iteration #  1     ecut=    36.75 Ry     beta=0.10
     Davidson diagonalization with overlap
     ethr =  1.00E-02,  avg # of iterations =  2.0

[...]

     total energy              =   -1247.48724821 Ry
     Harris-Foulkes estimate   =   -1248.58742205 Ry
     estimated scf accuracy    <       6.22359279 Ry

[...]

     End of self-consistent calculation

          k = 0.0000 0.0000 0.0000 ( 21367 PWs)   bands (ev):

   -47.7267 -47.7210 -47.6286 -47.6286 -47.6273 -47.6272 -47.3772 -47.2857
   -47.2857 -26.0718 -26.0285 -25.9477 -25.8732 -25.8732 -25.8262 -25.8262
   -25.8111 -25.8111 -25.8051 -25.7861 -25.7006 -25.7006 -25.4512 -25.4512
   -25.4397 -25.4140 -25.2152 -25.2152 -25.2089 -25.2089 -25.2084 -25.1911
   -25.1911 -25.0858 -24.9399 -24.9399  -4.6064  -3.6288  -3.4257  -3.4257
    -3.4161  -3.2970  -3.2970  -3.1003  -3.1003  -3.0903  -3.0903  -3.0887
    -2.8268  -2.6588  -2.6588  -2.5948  -2.5948  -2.3426  -1.5482  -1.0821
    -0.3642   0.2964   0.4952   0.6274   0.6274   1.0014   1.0014   1.0126
     1.0126   1.3693   1.3694   1.4896   1.5045   1.5716   1.5716   2.0617
     2.0617   2.1632   2.3672   2.3741   2.3741   2.7695   2.7695   2.8214
     2.9699   3.1882   3.1882   3.5392   4.1567   4.4086   4.4086   4.7036
     4.7036   4.7794   4.7794   4.8062   4.9645   4.9645   4.9979   5.1819
     5.1819   5.2295   5.4731   5.4731

[...]

          k =-0.0804-0.0464 0.0000 ( 21348 PWs)   bands (ev):

[...]

     the Fermi energy is     1.6172 ev

!    total energy              =   -1247.91897526 Ry
     Harris-Foulkes estimate   =   -1247.91897531 Ry
     estimated scf accuracy    <       0.00000017 Ry

     The total energy is the sum of the following terms:

     one-electron contribution =   -8367.13725680 Ry
     hartree contribution      =    4201.89062311 Ry
     xc contribution           =    -357.39578243 Ry
     ewald contribution        =    3274.82386106 Ry
     electric field correction =       0.00000000 Ry
     smearing contrib. (-TS)   =      -0.10042020 Ry

     convergence has been achieved in  17 iterations

 BEEF-vdW xc energy contributions
           1 :   -313.213706083080
           2 :    287.922481494526
           3 :   -243.870283064396
           4 :    191.340254289983
           5 :   -140.499507539270
           6 :    98.2740762774642
           7 :   -67.1476163350531
           8 :    45.8945022455899
           9 :   -31.4333828219549
          10 :    20.7208206628625
          11 :   -11.9156245219595
          12 :    4.55621962408333
          13 :    1.00479709904630
          14 :   -4.40565722046381
[...]
     /afs/slac.stanford.edu/u/if/mamunm/psp/gbrv1.5pbe/Zr.UPF
     MD5 check sum: 5db81b1e868ab7776c4564c113de050b
     Pseudo is Ultrasoft + core correction, Zval = 12.0
     Generated by new atomic code, or converted to UPF format
     Using radial grid of  887 points,  6 beta functions with:
                l(1) =   0
                l(2) =   0
                l(3) =   1
                l(4) =   1
                l(5) =   2
                l(6) =   2
     Q(r) pseudized with  6 coefficients,  rinner =    1.200   1.200   1.200
                                                       1.200   1.200

     PseudoPot. # 2 for Au read from file:
     /afs/slac.stanford.edu/u/if/mamunm/psp/gbrv1.5pbe/Au.UPF
     MD5 check sum: 9d7f43293ad2c663164586bc4b293ffc
     Pseudo is Ultrasoft + core correction, Zval = 11.0
     Generated by new atomic code, or converted to UPF format
     Using radial grid of  985 points,  7 beta functions with:
                l(1) =   0
                l(2) =   0
                l(3) =   1
                l(4) =   1
                l(5) =   2
                l(6) =   2
                l(7) =   3
     Q(r) pseudized with  6 coefficients,  rinner =    1.900   1.900   1.900
                                                       1.900   1.900   1.900
                                                       1.900

     vdW kernel table read from file vdW_kernel_table
     MD5 check sum: 095c7af220d748ca6e76c0b4c6cfb241

     atomic species   valence    mass     pseudopotential
        Zr1           12.00    91.22400     Zr( 1.00)
        Au1           11.00   196.96657     Au( 1.00)

     No symmetry found

   Cartesian axes

     site n.     atom                  positions (alat units)
         1           Zr1 tau(   1) = (   0.0000000   0.0000000  10.0000000  )
         2           Zr1 tau(   2) = (  -1.5555565   2.6943029  10.0000000  )
         3           Zr1 tau(   3) = (   1.5555565   2.6943029  10.0000000  )
         4           Au1 tau(   4) = (   3.1111130   0.0000000  10.0000000  )
         5           Zr1 tau(   5) = (   3.1111130   1.7962019  12.5402131  )
         6           Zr1 tau(   6) = (   1.5555565   4.4905048  12.5402131  )
         7           Zr1 tau(   7) = (  -1.5555565   4.4905048  12.5402131  )
         8           Au1 tau(   8) = (   0.0000000   1.7962019  12.5402131  )
         9           Zr1 tau(   9) = (  -0.0000037   3.5544101  15.0649805  )
        10           Zr1 tau(  10) = (   1.5226307   0.9170845  15.0649817  )
        11           Zr1 tau(  11) = (   4.6995916   0.9170881  15.0649920  )
        12           Au1 tau(  12) = (   3.1111073   3.5923760  14.9839650  )

     number of k points=    20  Fermi-Dirac smearing, width (Ry)=  0.0110
                       cart. coord. in units 2pi/alat
        k(    1) = (   0.0000000   0.0000000   0.0000000), wk =   0.0555556
        k(    2) = (   0.0000000   0.0309295   0.0000000), wk =   0.1111111
        k(    3) = (   0.0000000   0.0618589   0.0000000), wk =   0.1111111
        k(    4) = (   0.0000000  -0.0927884   0.0000000), wk =   0.0555556
        k(    5) = (   0.0267857   0.0154647   0.0000000), wk =   0.1111111
        k(    6) = (   0.0267857   0.0463942   0.0000000), wk =   0.1111111
        k(    7) = (   0.0267857   0.0773237   0.0000000), wk =   0.1111111
        k(    8) = (   0.0267857  -0.0773237   0.0000000), wk =   0.1111111
        k(    9) = (   0.0267857  -0.0463942   0.0000000), wk =   0.1111111
        k(   10) = (   0.0267857  -0.0154647   0.0000000), wk =   0.1111111
        k(   11) = (   0.0535714   0.0309295   0.0000000), wk =   0.1111111
        k(   12) = (   0.0535714   0.0618589   0.0000000), wk =   0.1111111
        k(   13) = (   0.0535714   0.0927884   0.0000000), wk =   0.1111111
        k(   14) = (   0.0535714  -0.0618589   0.0000000), wk =   0.1111111
        k(   15) = (   0.0535714  -0.0309295   0.0000000), wk =   0.1111111
        k(   16) = (   0.0535714   0.0000000   0.0000000), wk =   0.1111111
        k(   17) = (  -0.0803571  -0.0463942   0.0000000), wk =   0.0555556
        k(   18) = (  -0.0803571  -0.0154647   0.0000000), wk =   0.1111111
        k(   19) = (  -0.0803571   0.0154647   0.0000000), wk =   0.1111111
        k(   20) = (  -0.0803571  -0.1391826   0.0000000), wk =   0.0555556

     Largest allocated arrays     est. size (Mb)     dimensions
     Largest temporary arrays     est. size (Mb)     dimensions

     Check: negative/imaginary core charge=   -0.000001    0.000000

     Initial potential from superposition of free atoms
     Check: negative starting charge=   -0.551504

     starting charge  140.98029, renormalised to  141.00000

[...]

     *
     * You are using vdW-DF for exchange-correlation in this calculation.
     * Please cite the following three references that made this development
     * possible:
     *
     *   M. Dion, H. Rydberg, E. Schroder, D. C. Langreth, and
     *   B. I. Lundqvist, Phys. Rev. Lett. 92, 246401 (2004).
     *
     *   T. Thonhauser, V. R. Cooper, S. Li, A. Puzder, P. Hyldgaard, and
     *   D. C. Langreth, Phys. Rev. B 76, 125112 (2007).
     *
     *   G. Roman-Perez and J. M. Soler, Phys. Rev. Lett. 103, 096102 (2009).
     *
     *
     * If you are using vdW-DF2, please also cite:
     *
     *   K. Lee, E. D. Murray, L. Kong, B. I. Lundqvist, and
     *   D. C. Langreth, Phys. Rev. B 82, 081101(R) (2010).
     *
     *
     * If you are calculating the stress with vdW-DF, please also cite:
     *
     *   R. Sabatini, E. Kucukbenli, B. Kolb, T. Thonhauser, and
     *   S. de Gironcoli, J. Phys.: Condens. Matter 24, 424209 (2012).
     *

     Carrying out vdW-DF run using the following parameters:

     Nqs =      20    Nr_points =    1024   r_max =   100.000
     q_mesh =
               0.00001000     0.04494208     0.09755937     0.15916263
               0.23128650     0.31572767     0.41458969     0.53033537
               0.66584808     0.82450364     1.01025438     1.22772762
               1.48234092     1.78043706     2.12944203     2.53805004
               3.01644009     3.57652955     4.23227104     5.00000000

     Gradients computed in reciprocal space

[...]

     Starting wfc are  144 randomized atomic wfcs

     Self-consistent Calculation

[...]

     total energy              =   -1247.92967236 Ry
     Harris-Foulkes estimate   =   -1247.92967049 Ry
     estimated scf accuracy    <       0.00000222 Ry

     iteration # 16     ecut=    36.75 Ry     beta=0.10
     Davidson diagonalization with overlap
     ethr =  1.57E-09,  avg # of iterations =  3.0

[...]

     negative rho (up, down):  5.620E-01 0.000E+00

     Adding external electric field

     Computed dipole along edir(3) :
        Dipole                0.0149 Ry au,          0.0378 Debye
        Dipole field          0.0000 Ry au

        Potential amp.       -0.0030 Ry
        Total length         46.2103 bohr

     End of self-consistent calculation

[...]

          k = 0.0536 0.0000 0.0000 ( 21355 PWs)   bands (ev):

[...]

          k =-0.0804-0.1392 0.0000 ( 21348 PWs)   bands (ev):

   -47.6739 -47.6667 -47.6423 -47.6283 -47.6098 -47.5979 -47.3280 -47.2982
   -47.2671 -25.9153 -25.8807 -25.8713 -25.8124 -25.8043 -25.7525 -25.7288
   -25.7149 -25.6737 -25.6594 -25.6393 -25.6202 -25.5853 -25.5781 -25.5494
   -25.5390 -25.5052 -25.3509 -25.2935 -25.2912 -25.2649 -25.2279 -25.1817
   -25.1384 -25.1333 -25.1289 -24.9456  -3.6081  -3.3349  -3.1888  -3.1780
    -3.1473  -2.9934  -2.9932  -2.9455  -2.9156  -2.8780  -2.7745  -2.7198
    -2.7149  -2.6355  -2.5453  -2.5121  -2.4869  -2.1793  -1.3552  -0.8593
    -0.6550  -0.0937  -0.0492   0.4459   0.5811   0.7583   0.8524   0.9968
     1.0237   1.0291   1.0873   1.2249   1.3143   1.4331   1.5566   1.6044
     1.6975   1.8391   1.8502   2.0734   2.1383   2.4810   2.5862   2.6420
     2.7357   2.8572   2.8650   2.9632   3.1967   3.8490   3.8567   3.9946
     4.1117   4.1667   4.2246   4.3660   4.3873   4.4469   4.6257   4.6817
     4.7721   5.0764   5.2530   5.3894

     the Fermi energy is     1.6345 ev

!    total energy              =   -1247.92967267 Ry
     Harris-Foulkes estimate   =   -1247.92967327 Ry
     estimated scf accuracy    <       0.00000061 Ry

     The total energy is the sum of the following terms:

     one-electron contribution =   -8409.03875474 Ry
     hartree contribution      =    4222.90535578 Ry
     xc contribution           =    -357.43928098 Ry
     ewald contribution        =    3295.74284123 Ry
     electric field correction =       0.00000049 Ry
     smearing contrib. (-TS)   =      -0.09983445 Ry

     convergence has been achieved in  16 iterations

 BEEF-vdW xc energy contributions
           1 :   -313.487076158910
           2 :    288.218970619678
           3 :   -244.194186029175
           4 :    191.671688942777
           5 :   -140.805285512072
           6 :    98.5274603399578
           7 :   -67.3449833540398
           8 :    46.0589313182527
           9 :   -31.6026743334083
          10 :    20.9272275708893
          11 :   -12.1695618666915
          12 :    4.84321052020380
          13 :   0.713393172705366
          14 :   -4.13623832677541
          15 :    5.57963791880491
          16 :   -5.76175386138169
          17 :    5.59887392132515
          18 :   -5.75062145251309
          19 :    6.37647791885013
          20 :   -7.20863818172450
          21 :    7.82312809692803
          22 :   -7.91010919863584
          23 :    7.39864080312714
          24 :   -6.42282562305229
          25 :    5.20361821165920
          26 :   -3.94385631397120
          27 :    2.78888712508365
          28 :   -1.84784759692332
          29 :    1.22291152022024
          30 :   -1.00012602774234
          31 :   -29.9407103730894
          32 :   -22.1302972266835

     Forces acting on atoms (Ry/au):

     negative rho (up, down):  5.620E-01 0.000E+00
     atom    1 type  1   force =     0.00000426    0.01254929    0.00106871
     atom    2 type  1   force =     0.01086980   -0.00626967    0.00106925
     atom    3 type  1   force =    -0.01087027   -0.00627469    0.00106756
     atom    4 type  2   force =     0.00000319    0.00000277    0.01527455
     atom    5 type  1   force =    -0.00000104   -0.00208038   -0.00354205
     atom    6 type  1   force =    -0.00180172    0.00103974   -0.00354018
     atom    7 type  1   force =     0.00180083    0.00104036   -0.00354244
     atom    8 type  2   force =    -0.00000185   -0.00000076   -0.00453454
     atom    9 type  1   force =    -0.00000079    0.00114187   -0.00090849
     atom   10 type  1   force =     0.00098731   -0.00057295   -0.00090879
     atom   11 type  1   force =    -0.00098855   -0.00057284   -0.00090783
     atom   12 type  2   force =    -0.00000116   -0.00000273   -0.00059576

     Total force =     0.028056     Total SCF correction =     0.002005

     entering subroutine stress ...

     negative rho (up, down):  5.620E-01 0.000E+00
          total   stress  (Ry/bohr**3)                   (kbar)     P=  -10.30
  -0.00009428  -0.00000000  -0.00000000        -13.87     -0.00     -0.00
  -0.00000000  -0.00009428  -0.00000000         -0.00    -13.87     -0.00
  -0.00000000  -0.00000000  -0.00002154         -0.00     -0.00     -3.17

 !ASE

     Writing output data file calc.save

     General routines

     Parallel routines

   This run was terminated on:  19:53:44   2Jan2019

   JOB DONE.
Job  /afs/slac/g/suncat/bin/suncat-tsmpirun -x LD_LIBRARY_PATH -wdir /scratch/qe649528_htO2g pw.x -in pw.inp

TID   HOST_NAME   COMMAND_LINE            STATUS            TERMINATION_TIME
00000 suncat0059 pw.x -in pw.inp   Done                     01/02/2019 19:53:44
00001 suncat0059 pw.x -in pw.inp   Done                     01/02/2019 19:53:44
00002 suncat0059 pw.x -in pw.inp   Done                     01/02/2019 19:53:44
00003 suncat0059 pw.x -in pw.inp   Done                     01/02/2019 19:53:44
00004 suncat0059 pw.x -in pw.inp   Done                     01/02/2019 19:53:44
00005 suncat0059 pw.x -in pw.inp   Done                     01/02/2019 19:53:44
00006 suncat0059 pw.x -in pw.inp   Done                     01/02/2019 19:53:44
00007 suncat0059 pw.x -in pw.inp   Done                     01/02/2019 19:53:44
00008 suncat0054 pw.x -in pw.inp   Done                     01/02/2019 19:53:44
00009 suncat0054 pw.x -in pw.inp   Done                     01/02/2019 19:53:44
00010 suncat0054 pw.x -in pw.inp   Done                     01/02/2019 19:53:44
00011 suncat0054 pw.x -in pw.inp   Done                     01/02/2019 19:53:44
00012 suncat0054 pw.x -in pw.inp   Done                     01/02/2019 19:53:44
00013 suncat0054 pw.x -in pw.inp   Done                     01/02/2019 19:53:44
00014 suncat0054 pw.x -in pw.inp   Done                     01/02/2019 19:53:44
00015 suncat0054 pw.x -in pw.inp   Done                     01/02/2019 19:53:44
00016 suncat0052 pw.x -in pw.inp   Done                     01/02/2019 19:53:44
00017 suncat0052 pw.x -in pw.inp   Done                     01/02/2019 19:53:44
00018 suncat0052 pw.x -in pw.inp   Done                     01/02/2019 19:53:44
00019 suncat0052 pw.x -in pw.inp   Done                     01/02/2019 19:53:44
00020 suncat0052 pw.x -in pw.inp   Done                     01/02/2019 19:53:44
00021 suncat0052 pw.x -in pw.inp   Done                     01/02/2019 19:53:44
00022 suncat0052 pw.x -in pw.inp   Done                     01/02/2019 19:53:44
00023 suncat0052 pw.x -in pw.inp   Done                     01/02/2019 19:53:44
00024 suncat0048 pw.x -in pw.inp   Done                     01/02/2019 19:53:44
00025 suncat0048 pw.x -in pw.inp   Done                     01/02/2019 19:53:44
00026 suncat0048 pw.x -in pw.inp   Done                     01/02/2019 19:53:44
00027 suncat0048 pw.x -in pw.inp   Done                     01/02/2019 19:53:44
00028 suncat0048 pw.x -in pw.inp   Done                     01/02/2019 19:53:44
00029 suncat0048 pw.x -in pw.inp   Done                     01/02/2019 19:53:44
00030 suncat0048 pw.x -in pw.inp   Done                     01/02/2019 19:53:44
00031 suncat0048 pw.x -in pw.inp   Done                     01/02/2019 19:53:44
00032 suncat0169 pw.x -in pw.inp   Done                     01/02/2019 19:53:44
00033 suncat0169 pw.x -in pw.inp   Done                     01/02/2019 19:53:44
00034 suncat0169 pw.x -in pw.inp   Done                     01/02/2019 19:53:44
00035 suncat0169 pw.x -in pw.inp   Done                     01/02/2019 19:53:44
00036 suncat0169 pw.x -in pw.inp   Done                     01/02/2019 19:53:44
00037 suncat0169 pw.x -in pw.inp   Done                     01/02/2019 19:53:44
00038 suncat0169 pw.x -in pw.inp   Done                     01/02/2019 19:53:44
00039 suncat0169 pw.x -in pw.inp   Done                     01/02/2019 19:53:44
00040 suncat0168 pw.x -in pw.inp   Done                     01/02/2019 19:53:44
00041 suncat0168 pw.x -in pw.inp   Done                     01/02/2019 19:53:44
00042 suncat0168 pw.x -in pw.inp   Done                     01/02/2019 19:53:44
00043 suncat0168 pw.x -in pw.inp   Done                     01/02/2019 19:53:44
00044 suncat0168 pw.x -in pw.inp   Done                     01/02/2019 19:53:44
00045 suncat0168 pw.x -in pw.inp   Done                     01/02/2019 19:53:44
00046 suncat0168 pw.x -in pw.inp   Done                     01/02/2019 19:53:44
00047 suncat0168 pw.x -in pw.inp   Done                     01/02/2019 19:53:44
00048 suncat0156 pw.x -in pw.inp   Done                     01/02/2019 19:53:44
00049 suncat0156 pw.x -in pw.inp   Done                     01/02/2019 19:53:44
00050 suncat0156 pw.x -in pw.inp   Done                     01/02/2019 19:53:44
00051 suncat0156 pw.x -in pw.inp   Done                     01/02/2019 19:53:44
00052 suncat0156 pw.x -in pw.inp   Done                     01/02/2019 19:53:44
00053 suncat0156 pw.x -in pw.inp   Done                     01/02/2019 19:53:44
00054 suncat0156 pw.x -in pw.inp   Done                     01/02/2019 19:53:44
00055 suncat0156 pw.x -in pw.inp   Done                     01/02/2019 19:53:44
00056 suncat0153 pw.x -in pw.inp   Done                     01/02/2019 19:53:44
00057 suncat0153 pw.x -in pw.inp   Done                     01/02/2019 19:53:44
00058 suncat0153 pw.x -in pw.inp   Done                     01/02/2019 19:53:44
00059 suncat0153 pw.x -in pw.inp   Done                     01/02/2019 19:53:44
00060 suncat0153 pw.x -in pw.inp   Done                     01/02/2019 19:53:44
00061 suncat0153 pw.x -in pw.inp   Done                     01/02/2019 19:53:44
00062 suncat0153 pw.x -in pw.inp   Done                     01/02/2019 19:53:44
00063 suncat0153 pw.x -in pw.inp   Done                     01/02/2019 19:53:44