     Program PWSCF v.5.1rc2 (svn rev. 11289) starts on  2Jan2019 at  1:12:44

     Current dimensions of program PWSCF are:
     Max number of different atomic species (ntypx) = 10
     Max number of k-points (npk) =  40000
     Max angular momentum in pseudopotentials (lmaxx) =  3
     Presently stress not available with electric field

     IMPORTANT: XC functional enforced from input :
     Exchange-correlation      = BEEF-VDW ( 1  4 27 13 2)
     Any further DFT definition will be discarded
     Please, verify this is what you really want

     Subspace diagonalization in iterative solution of the eigenvalue problem:
     a serial algorithm will be used

     bravais-lattice index     =            0
     lattice parameter (alat)  =       1.8897  a.u.
     unit-cell volume          =    6313.2258 (a.u.)^3
     number of atoms/cell      =           12
     number of atomic types    =            2
     number of electrons       =       162.00
     number of Kohn-Sham states=          111
     kinetic-energy cutoff     =      36.7493  Ry
     charge density cutoff     =     367.4932  Ry
     convergence threshold     =      1.0E-06
     mixing beta               =       0.1000
     number of iterations used =           10  plain     mixing
     Exchange-correlation      = BEEF-VDW ( 1  4 27 13 2)
     nstep                     =           50

     celldm(1)=   1.889726  celldm(2)=   0.000000  celldm(3)=   0.000000
     celldm(4)=   0.000000  celldm(5)=   0.000000  celldm(6)=   0.000000

     crystal axes: (cart. coord. in units of alat)
               a(1) = (   6.530224   0.000000   0.000000 )
               a(2) = (  -3.265112   5.655340   0.000000 )
               a(3) = (   0.000000   0.000000  25.331906 )

     reciprocal axes: (cart. coord. in units 2 pi/alat)
               b(1) = (  0.153134  0.088412  0.000000 )
               b(2) = (  0.000000  0.176824  0.000000 )
               b(3) = (  0.000000  0.000000  0.039476 )

     PseudoPot. # 1 for Tl read from file:
     /afs/slac.stanford.edu/u/if/mamunm/psp/gbrv1.5pbe/Tl.UPF
     MD5 check sum: b76cf1f7e72655a2b2c53cf6385d7059
     Pseudo is Ultrasoft + core correction, Zval = 13.0
     Generated by new atomic code, or converted to UPF format
     Using radial grid of  899 points,  6 beta functions with:
                l(1) =   0
                l(2) =   0
                l(3) =   1
                l(4) =   1
                l(5) =   2
                l(6) =   2
     Q(r) pseudized with  6 coefficients,  rinner =    1.100   1.100   1.100
                                                       1.100   1.100

     PseudoPot. # 2 for Ir read from file:
     /afs/slac.stanford.edu/u/if/mamunm/psp/gbrv1.5pbe/Ir.UPF
     MD5 check sum: 8836f839c3459d2b385c504ce6d91f2c
     Pseudo is Ultrasoft + core correction, Zval = 15.0
     Generated by new atomic code, or converted to UPF format
     Using radial grid of  983 points,  7 beta functions with:
                l(1) =   0
                l(2) =   0
                l(3) =   1
                l(4) =   1
                l(5) =   1
                l(6) =   2
                l(7) =   2
     Q(r) pseudized with  8 coefficients,  rinner =    1.400   1.400   1.400
                                                       1.400   1.400

     vdW kernel table read from file vdW_kernel_table
     MD5 check sum: 095c7af220d748ca6e76c0b4c6cfb241

     atomic species   valence    mass     pseudopotential
        Tl1           13.00   204.38000     Tl( 1.00)
        Ir1           15.00   192.21700     Ir( 1.00)

     No symmetry found

   Cartesian axes

     site n.     atom                  positions (alat units)
         1           Tl1 tau(   1) = (   0.0000000   0.0000000  10.0000000  )
         2           Tl1 tau(   2) = (  -1.6325561   2.8276701  10.0000000  )
         3           Tl1 tau(   3) = (   1.6325561   2.8276701  10.0000000  )
         4           Ir1 tau(   4) = (   3.2651122   0.0000000  10.0000000  )
         5           Tl1 tau(   5) = (   3.2651122   1.8851134  12.6659530  )
         6           Tl1 tau(   6) = (   1.6325561   4.7127836  12.6659530  )
         7           Tl1 tau(   7) = (  -1.6325561   4.7127836  12.6659530  )
         8           Ir1 tau(   8) = (  -0.0000000   1.8851134  12.6659530  )
         9           Tl1 tau(   9) = (  -0.0000000   3.7702269  15.3319060  )
        10           Tl1 tau(  10) = (   1.6325561   0.9425567  15.3319060  )
        11           Tl1 tau(  11) = (   4.8976684   0.9425567  15.3319060  )
        12           Ir1 tau(  12) = (   3.2651122   3.7702269  15.3319060  )

     number of k points=    20  Fermi-Dirac smearing, width (Ry)=  0.0110
                       cart. coord. in units 2pi/alat
        k(    1) = (   0.0000000   0.0000000   0.0000000), wk =   0.0555556
        k(    2) = (   0.0000000   0.0294707   0.0000000), wk =   0.1111111
        k(    3) = (   0.0000000   0.0589413   0.0000000), wk =   0.1111111
        k(    4) = (   0.0000000  -0.0884120   0.0000000), wk =   0.0555556
        k(    5) = (   0.0255223   0.0147353   0.0000000), wk =   0.1111111
        k(    6) = (   0.0255223   0.0442060   0.0000000), wk =   0.1111111
        k(    7) = (   0.0255223   0.0736767   0.0000000), wk =   0.1111111
        k(    8) = (   0.0255223  -0.0736767   0.0000000), wk =   0.1111111
        k(    9) = (   0.0255223  -0.0442060   0.0000000), wk =   0.1111111
        k(   10) = (   0.0255223  -0.0147353   0.0000000), wk =   0.1111111
        k(   11) = (   0.0510447   0.0294707   0.0000000), wk =   0.1111111
        k(   12) = (   0.0510447   0.0589413   0.0000000), wk =   0.1111111
        k(   13) = (   0.0510447   0.0884120   0.0000000), wk =   0.1111111
        k(   14) = (   0.0510447  -0.0589413   0.0000000), wk =   0.1111111
        k(   15) = (   0.0510447  -0.0294707   0.0000000), wk =   0.1111111
        k(   16) = (   0.0510447   0.0000000   0.0000000), wk =   0.1111111
        k(   17) = (  -0.0765670  -0.0442060   0.0000000), wk =   0.0555556
        k(   18) = (  -0.0765670  -0.0147353   0.0000000), wk =   0.1111111
        k(   19) = (  -0.0765670   0.0147353   0.0000000), wk =   0.1111111
        k(   20) = (  -0.0765670  -0.1326180   0.0000000), wk =   0.0555556

     Largest allocated arrays     est. size (Mb)     dimensions
     Largest temporary arrays     est. size (Mb)     dimensions

     Check: negative/imaginary core charge=   -0.000001    0.000000

     Initial potential from superposition of free atoms
     Check: negative starting charge=   -1.548760

     starting charge  160.45611, renormalised to  162.00000

     negative rho (up, down):  1.564E+00 0.000E+00

     *
     * You are using vdW-DF for exchange-correlation in this calculation.
     * Please cite the following three references that made this development
     * possible:
     *
     *   M. Dion, H. Rydberg, E. Schroder, D. C. Langreth, and
     *   B. I. Lundqvist, Phys. Rev. Lett. 92, 246401 (2004).
     *
     *   T. Thonhauser, V. R. Cooper, S. Li, A. Puzder, P. Hyldgaard, and
     *   D. C. Langreth, Phys. Rev. B 76, 125112 (2007).
     *
     *   G. Roman-Perez and J. M. Soler, Phys. Rev. Lett. 103, 096102 (2009).
     *
     *
     * If you are using vdW-DF2, please also cite:
     *
     *   K. Lee, E. D. Murray, L. Kong, B. I. Lundqvist, and
     *   D. C. Langreth, Phys. Rev. B 82, 081101(R) (2010).
     *
     *
     * If you are calculating the stress with vdW-DF, please also cite:
     *
     *   R. Sabatini, E. Kucukbenli, B. Kolb, T. Thonhauser, and
     *   S. de Gironcoli, J. Phys.: Condens. Matter 24, 424209 (2012).
     *

     Carrying out vdW-DF run using the following parameters:

     Nqs =      20    Nr_points =    1024   r_max =   100.000
     q_mesh =
               0.00001000     0.04494208     0.09755937     0.15916263
               0.23128650     0.31572767     0.41458969     0.53033537
               0.66584808     0.82450364     1.01025438     1.22772762
               1.48234092     1.78043706     2.12944203     2.53805004
               3.01644009     3.57652955     4.23227104     5.00000000

     Gradients computed in reciprocal space

     Adding external electric field

     Computed dipole along edir(3) :
        Dipole                0.0000 Ry au,          0.0000 Debye
        Dipole field          0.0000 Ry au

        Potential amp.       -0.0000 Ry
        Total length         46.6736 bohr

     Starting wfc are  117 randomized atomic wfcs

     Self-consistent Calculation

     iteration #  1     ecut=    36.75 Ry     beta=0.10
     Davidson diagonalization with overlap
     ethr =  1.00E-02,  avg # of iterations =  9.6

     Threshold (ethr) on eigenvalues was too large:
     Diagonalizing with lowered threshold

     Davidson diagonalization with overlap
     ethr =  3.52E-04,  avg # of iterations =  9.1

[...]

     total energy              =   -1870.81450481 Ry
     Harris-Foulkes estimate   =   -1870.89625293 Ry
     estimated scf accuracy    <       0.63875790 Ry

[...]

     iteration #  9     ecut=    36.75 Ry     beta=0.10
     Davidson diagonalization with overlap
     c_bands:  1 eigenvalues not converged
     ethr =  2.85E-06,  avg # of iterations =  7.6

[...]

     End of self-consistent calculation

          k = 0.0000 0.0000 0.0000 ( 23727 PWs)   bands (ev):

   -46.9187 -46.9186 -46.8467 -46.7977 -46.7977 -46.7977 -46.7977 -46.6568
   -46.6567 -11.3660 -11.2737 -11.2601 -11.2432 -11.2431 -11.2338 -11.1076
   -11.1076 -11.0795 -11.0795 -10.9931 -10.9863 -10.9418 -10.9418 -10.9112
   -10.9112 -10.8386 -10.7995 -10.7779 -10.7779 -10.7436 -10.6510 -10.6382
   -10.6381 -10.5948 -10.5948 -10.5825 -10.5825 -10.5569 -10.5550 -10.5549
   -10.5427 -10.5427 -10.5045 -10.5044 -10.4961 -10.4961 -10.3578 -10.3578
   -10.3206 -10.3151 -10.3150 -10.2564 -10.2321 -10.2248  -8.6100  -7.2688
    -5.4270  -4.3761  -4.3760  -3.8057  -3.8057  -2.9426  -2.9425  -1.9703
    -1.6157  -1.0141  -0.7284  -0.7284  -0.3217  -0.2319  -0.2319   0.1821
     0.1939   0.1939   0.3036   0.3036   0.3679   0.4667   0.4667   0.5133
     0.5133   0.6910   0.7147   0.7147   0.9788   0.9788   0.9918   1.6454
     1.6455   2.0881   2.2476   3.2435   4.3722   4.6061   5.0391   5.0392
     5.0901   5.0901   5.3512   5.5235   5.8929   6.3515   6.6278   7.2124
     7.2125   7.2663   7.5084   7.7804   7.7804   7.9275   8.1961

[...]

          k =-0.0766-0.0442 0.0000 ( 23728 PWs)   bands (ev):

[...]

     the Fermi energy is     0.8169 ev

!    total energy              =   -1870.69812813 Ry
     Harris-Foulkes estimate   =   -1870.69809661 Ry
     estimated scf accuracy    <       0.00000028 Ry

     The total energy is the sum of the following terms:

     one-electron contribution =   -9938.43826474 Ry
     hartree contribution      =    5038.81852904 Ry
     xc contribution           =    -731.96013711 Ry
     ewald contribution        =    3760.94662815 Ry
     electric field correction =       0.00000000 Ry
     smearing contrib. (-TS)   =      -0.06488347 Ry

     convergence has been achieved in  16 iterations

 BEEF-vdW xc energy contributions
           1 :   -651.212268310553
           2 :    604.517032325231
[...]
     /afs/slac.stanford.edu/u/if/mamunm/psp/gbrv1.5pbe/Tl.UPF
     MD5 check sum: b76cf1f7e72655a2b2c53cf6385d7059
     Pseudo is Ultrasoft + core correction, Zval = 13.0
     Generated by new atomic code, or converted to UPF format
     Using radial grid of  899 points,  6 beta functions with:
                l(1) =   0
                l(2) =   0
                l(3) =   1
                l(4) =   1
                l(5) =   2
                l(6) =   2
     Q(r) pseudized with  6 coefficients,  rinner =    1.100   1.100   1.100
                                                       1.100   1.100

     PseudoPot. # 2 for Ir read from file:
     /afs/slac.stanford.edu/u/if/mamunm/psp/gbrv1.5pbe/Ir.UPF
     MD5 check sum: 8836f839c3459d2b385c504ce6d91f2c
     Pseudo is Ultrasoft + core correction, Zval = 15.0
     Generated by new atomic code, or converted to UPF format
     Using radial grid of  983 points,  7 beta functions with:
                l(1) =   0
                l(2) =   0
                l(3) =   1
                l(4) =   1
                l(5) =   1
                l(6) =   2
                l(7) =   2
     Q(r) pseudized with  8 coefficients,  rinner =    1.400   1.400   1.400
                                                       1.400   1.400

     vdW kernel table read from file vdW_kernel_table
     MD5 check sum: 095c7af220d748ca6e76c0b4c6cfb241

     atomic species   valence    mass     pseudopotential
        Tl1           13.00   204.38000     Tl( 1.00)
        Ir1           15.00   192.21700     Ir( 1.00)

     No symmetry found

   Cartesian axes

     site n.     atom                  positions (alat units)
         1           Tl1 tau(   1) = (   0.0000000   0.0000000  10.0000000  )
         2           Tl1 tau(   2) = (  -1.6325561   2.8276701  10.0000000  )
         3           Tl1 tau(   3) = (   1.6325561   2.8276701  10.0000000  )
         4           Ir1 tau(   4) = (   3.2651122   0.0000000  10.0000000  )
         5           Tl1 tau(   5) = (   3.2651122   1.8851134  12.6659530  )
         6           Tl1 tau(   6) = (   1.6325561   4.7127836  12.6659530  )
         7           Tl1 tau(   7) = (  -1.6325561   4.7127836  12.6659530  )
         8           Ir1 tau(   8) = (  -0.0000000   1.8851134  12.6659530  )
         9           Tl1 tau(   9) = (  -0.0000079   3.7362084  15.5585171  )
        10           Tl1 tau(  10) = (   1.6029234   0.9595906  15.5577003  )
        11           Tl1 tau(  11) = (   4.9273158   0.9595729  15.5577551  )
        12           Ir1 tau(  12) = (   3.2651186   3.7701478  14.7587287  )

     number of k points=    20  Fermi-Dirac smearing, width (Ry)=  0.0110
                       cart. coord. in units 2pi/alat
        k(    1) = (   0.0000000   0.0000000   0.0000000), wk =   0.0555556
        k(    2) = (   0.0000000   0.0294707   0.0000000), wk =   0.1111111
        k(    3) = (   0.0000000   0.0589413   0.0000000), wk =   0.1111111
        k(    4) = (   0.0000000  -0.0884120   0.0000000), wk =   0.0555556
        k(    5) = (   0.0255223   0.0147353   0.0000000), wk =   0.1111111
        k(    6) = (   0.0255223   0.0442060   0.0000000), wk =   0.1111111
        k(    7) = (   0.0255223   0.0736767   0.0000000), wk =   0.1111111
        k(    8) = (   0.0255223  -0.0736767   0.0000000), wk =   0.1111111
        k(    9) = (   0.0255223  -0.0442060   0.0000000), wk =   0.1111111
        k(   10) = (   0.0255223  -0.0147353   0.0000000), wk =   0.1111111
        k(   11) = (   0.0510447   0.0294707   0.0000000), wk =   0.1111111
        k(   12) = (   0.0510447   0.0589413   0.0000000), wk =   0.1111111
        k(   13) = (   0.0510447   0.0884120   0.0000000), wk =   0.1111111
        k(   14) = (   0.0510447  -0.0589413   0.0000000), wk =   0.1111111
        k(   15) = (   0.0510447  -0.0294707   0.0000000), wk =   0.1111111
        k(   16) = (   0.0510447   0.0000000   0.0000000), wk =   0.1111111
        k(   17) = (  -0.0765670  -0.0442060   0.0000000), wk =   0.0555556
        k(   18) = (  -0.0765670  -0.0147353   0.0000000), wk =   0.1111111
        k(   19) = (  -0.0765670   0.0147353   0.0000000), wk =   0.1111111
        k(   20) = (  -0.0765670  -0.1326180   0.0000000), wk =   0.0555556

     Largest allocated arrays     est. size (Mb)     dimensions
     Largest temporary arrays     est. size (Mb)     dimensions

     Check: negative/imaginary core charge=   -0.000001    0.000000

     Initial potential from superposition of free atoms
     Check: negative starting charge=   -1.548474

     starting charge  160.45611, renormalised to  162.00000

[...]

     *
     * You are using vdW-DF for exchange-correlation in this calculation.
     * Please cite the following three references that made this development
     * possible:
     *
     *   M. Dion, H. Rydberg, E. Schroder, D. C. Langreth, and
     *   B. I. Lundqvist, Phys. Rev. Lett. 92, 246401 (2004).
     *
     *   T. Thonhauser, V. R. Cooper, S. Li, A. Puzder, P. Hyldgaard, and
     *   D. C. Langreth, Phys. Rev. B 76, 125112 (2007).
     *
     *   G. Roman-Perez and J. M. Soler, Phys. Rev. Lett. 103, 096102 (2009).
     *
     *
     * If you are using vdW-DF2, please also cite:
     *
     *   K. Lee, E. D. Murray, L. Kong, B. I. Lundqvist, and
     *   D. C. Langreth, Phys. Rev. B 82, 081101(R) (2010).
     *
     *
     * If you are calculating the stress with vdW-DF, please also cite:
     *
     *   R. Sabatini, E. Kucukbenli, B. Kolb, T. Thonhauser, and
     *   S. de Gironcoli, J. Phys.: Condens. Matter 24, 424209 (2012).
     *

     Carrying out vdW-DF run using the following parameters:

     Nqs =      20    Nr_points =    1024   r_max =   100.000
     q_mesh =
               0.00001000     0.04494208     0.09755937     0.15916263
               0.23128650     0.31572767     0.41458969     0.53033537
               0.66584808     0.82450364     1.01025438     1.22772762
               1.48234092     1.78043706     2.12944203     2.53805004
               3.01644009     3.57652955     4.23227104     5.00000000

     Gradients computed in reciprocal space

[...]

     Starting wfc are  117 randomized atomic wfcs

     Self-consistent Calculation

[...]

     total energy              =   -1870.73939471 Ry
     Harris-Foulkes estimate   =   -1870.73937897 Ry
     estimated scf accuracy    <       0.00000222 Ry

     iteration # 17     ecut=    36.75 Ry     beta=0.10
     Davidson diagonalization with overlap
     ethr =  1.37E-09,  avg # of iterations =  2.0

[...]

     negative rho (up, down):  1.493E+00 0.000E+00

     Adding external electric field

     Computed dipole along edir(3) :
        Dipole                0.1757 Ry au,          0.4467 Debye
        Dipole field          0.0003 Ry au

        Potential amp.       -0.0327 Ry
        Total length         46.6736 bohr

     End of self-consistent calculation

[...]

          k = 0.0510 0.0000 0.0000 ( 23738 PWs)   bands (ev):

[...]

          k =-0.0766-0.1326 0.0000 ( 23728 PWs)   bands (ev):

   -46.7982 -46.7885 -46.7884 -46.7238 -46.7237 -46.7043 -46.7043 -46.6280
   -46.5978 -11.0766 -11.0230 -10.9776 -10.9584 -10.8998 -10.8889 -10.8257
   -10.8129 -10.8042 -10.7714 -10.7676 -10.7296 -10.7041 -10.6845 -10.6691
   -10.6556 -10.6554 -10.6435 -10.6291 -10.6252 -10.5968 -10.5790 -10.5674
   -10.5585 -10.5457 -10.5394 -10.5282 -10.5197 -10.5105 -10.4912 -10.4827
   -10.4787 -10.4520 -10.4400 -10.4323 -10.4282 -10.4237 -10.4038 -10.3870
   -10.3816 -10.3454 -10.3321 -10.2427 -10.2103 -10.1493  -7.3251  -6.9251
    -5.9304  -5.6982  -4.9282  -4.6645  -4.3555  -3.6379  -2.6610  -2.2197
    -1.5858  -0.9069  -0.6581  -0.5077  -0.4584  -0.3844  -0.3098  -0.1593
    -0.0332   0.1036   0.1964   0.3761   0.4155   0.6044   0.6833   0.7284
     1.1217   1.4188   1.7207   2.4513   2.4724   2.5727   2.7927   3.3460
     3.4864   3.5631   3.9133   3.9276   4.2380   4.6599   5.0367   5.2029
     5.2772   5.3684   5.4489   5.4866   5.6966   5.7574   6.2139   6.2628
     6.3704   6.4946   6.5730   6.6960   6.7385   6.8659   6.9593

     the Fermi energy is     0.9779 ev

!    total energy              =   -1870.73942140 Ry
     Harris-Foulkes estimate   =   -1870.73939843 Ry
     estimated scf accuracy    <       0.00000096 Ry

     The total energy is the sum of the following terms:

     one-electron contribution =   -9911.88562103 Ry
     hartree contribution      =    5026.18845686 Ry
     xc contribution           =    -731.98045576 Ry
     ewald contribution        =    3746.99598813 Ry
     electric field correction =       0.00006147 Ry
     smearing contrib. (-TS)   =      -0.05785108 Ry

     convergence has been achieved in  17 iterations

 BEEF-vdW xc energy contributions
           1 :   -651.388695245932
           2 :    604.693666395983
           3 :   -522.409253808773
           4 :    422.394346700133
           5 :   -323.046026158232
           6 :    237.844679060455
           7 :   -172.599657253743
           8 :    125.922490210226
           9 :   -92.1818117204401
          10 :    65.2594192889053
          11 :   -41.3751711528519
          12 :    19.9340834497814
          13 :   -2.49833476938250
          14 :   -9.14108186447561
          15 :    14.5560417815324
          16 :   -15.1569863700773
          17 :    13.5075047260360
          18 :   -12.0658021372342
          19 :    12.1243699741394
          20 :   -13.5044438192401
          21 :    15.0656277834019
          22 :   -15.6416890678073
          23 :    14.8092983872518
          24 :   -13.0716103173739
          25 :    11.4259644204371
          26 :   -10.6627117313487
          27 :    10.8584235704568
          28 :   -11.3671175589933
          29 :    11.2781415515411
          30 :   -10.0302188476223
          31 :   -52.9538190054982
          32 :   -38.8324784927664

     Forces acting on atoms (Ry/au):

     negative rho (up, down):  1.493E+00 0.000E+00
     atom    1 type  1   force =     0.00000426    0.01722094   -0.01722255
     atom    2 type  1   force =     0.01495044   -0.00860311   -0.01714789
     atom    3 type  1   force =    -0.01494833   -0.00860628   -0.01715132
     atom    4 type  2   force =    -0.00000095    0.00000682    0.04593636
     atom    5 type  1   force =     0.00000090   -0.02021870    0.00140438
     atom    6 type  1   force =    -0.01751462    0.01010366    0.00142526
     atom    7 type  1   force =     0.01751493    0.01010177    0.00142502
     atom    8 type  2   force =    -0.00000071   -0.00000986   -0.00134985
     atom    9 type  1   force =    -0.00000312   -0.00046458    0.00046819
     atom   10 type  1   force =    -0.00037711    0.00023964    0.00053775
     atom   11 type  1   force =     0.00037551    0.00023844    0.00052701
     atom   12 type  2   force =    -0.00000120   -0.00000873    0.00114763

     Total force =     0.071580     Total SCF correction =     0.004142

     entering subroutine stress ...

     negative rho (up, down):  1.493E+00 0.000E+00
          total   stress  (Ry/bohr**3)                   (kbar)     P=   -9.32
  -0.00007352   0.00000000  -0.00000000        -10.81      0.00     -0.00
   0.00000000  -0.00007352   0.00000002          0.00    -10.81      0.00
  -0.00000000   0.00000002  -0.00004296         -0.00      0.00     -6.32

 !ASE

     Writing output data file calc.save

     General routines

     Parallel routines

   This run was terminated on:   3:20:47   2Jan2019

   JOB DONE.
Job  /afs/slac/g/suncat/bin/suncat-tsmpirun -x LD_LIBRARY_PATH -wdir /scratch/qe649253_XIETP pw.x -in pw.inp

TID   HOST_NAME   COMMAND_LINE            STATUS            TERMINATION_TIME
00000 suncat0024 pw.x -in pw.inp   Done                     01/02/2019 03:20:47
00001 suncat0024 pw.x -in pw.inp   Done                     01/02/2019 03:20:47
00002 suncat0024 pw.x -in pw.inp   Done                     01/02/2019 03:20:47
00003 suncat0024 pw.x -in pw.inp   Done                     01/02/2019 03:20:47
00004 suncat0024 pw.x -in pw.inp   Done                     01/02/2019 03:20:47
00005 suncat0024 pw.x -in pw.inp   Done                     01/02/2019 03:20:47
00006 suncat0024 pw.x -in pw.inp   Done                     01/02/2019 03:20:47
00007 suncat0024 pw.x -in pw.inp   Done                     01/02/2019 03:20:47
00008 suncat0023 pw.x -in pw.inp   Done                     01/02/2019 03:20:47
00009 suncat0023 pw.x -in pw.inp   Done                     01/02/2019 03:20:47
00010 suncat0023 pw.x -in pw.inp   Done                     01/02/2019 03:20:47
00011 suncat0023 pw.x -in pw.inp   Done                     01/02/2019 03:20:47
00012 suncat0023 pw.x -in pw.inp   Done                     01/02/2019 03:20:47
00013 suncat0023 pw.x -in pw.inp   Done                     01/02/2019 03:20:47
00014 suncat0023 pw.x -in pw.inp   Done                     01/02/2019 03:20:47
00015 suncat0023 pw.x -in pw.inp   Done                     01/02/2019 03:20:47
00016 suncat0190 pw.x -in pw.inp   Done                     01/02/2019 03:20:47
00017 suncat0190 pw.x -in pw.inp   Done                     01/02/2019 03:20:47
00018 suncat0190 pw.x -in pw.inp   Done                     01/02/2019 03:20:47
00019 suncat0190 pw.x -in pw.inp   Done                     01/02/2019 03:20:47
00020 suncat0190 pw.x -in pw.inp   Done                     01/02/2019 03:20:47
00021 suncat0190 pw.x -in pw.inp   Done                     01/02/2019 03:20:47
00022 suncat0190 pw.x -in pw.inp   Done                     01/02/2019 03:20:47
00023 suncat0190 pw.x -in pw.inp   Done                     01/02/2019 03:20:47
00024 suncat0009 pw.x -in pw.inp   Done                     01/02/2019 03:20:47
00025 suncat0009 pw.x -in pw.inp   Done                     01/02/2019 03:20:47
00026 suncat0009 pw.x -in pw.inp   Done                     01/02/2019 03:20:47
00027 suncat0009 pw.x -in pw.inp   Done                     01/02/2019 03:20:47
00028 suncat0009 pw.x -in pw.inp   Done                     01/02/2019 03:20:47
00029 suncat0009 pw.x -in pw.inp   Done                     01/02/2019 03:20:47
00030 suncat0009 pw.x -in pw.inp   Done                     01/02/2019 03:20:47
00031 suncat0009 pw.x -in pw.inp   Done                     01/02/2019 03:20:47
00032 suncat0166 pw.x -in pw.inp   Done                     01/02/2019 03:20:47
00033 suncat0166 pw.x -in pw.inp   Done                     01/02/2019 03:20:47
00034 suncat0166 pw.x -in pw.inp   Done                     01/02/2019 03:20:47
00035 suncat0166 pw.x -in pw.inp   Done                     01/02/2019 03:20:47
00036 suncat0166 pw.x -in pw.inp   Done                     01/02/2019 03:20:47
00037 suncat0166 pw.x -in pw.inp   Done                     01/02/2019 03:20:47
00038 suncat0166 pw.x -in pw.inp   Done                     01/02/2019 03:20:47
00039 suncat0166 pw.x -in pw.inp   Done                     01/02/2019 03:20:47
00040 suncat0149 pw.x -in pw.inp   Done                     01/02/2019 03:20:47
00041 suncat0149 pw.x -in pw.inp   Done                     01/02/2019 03:20:47
00042 suncat0149 pw.x -in pw.inp   Done                     01/02/2019 03:20:47
00043 suncat0149 pw.x -in pw.inp   Done                     01/02/2019 03:20:47
00044 suncat0149 pw.x -in pw.inp   Done                     01/02/2019 03:20:47
00045 suncat0149 pw.x -in pw.inp   Done                     01/02/2019 03:20:47
00046 suncat0149 pw.x -in pw.inp   Done                     01/02/2019 03:20:47
00047 suncat0149 pw.x -in pw.inp   Done                     01/02/2019 03:20:47
00048 suncat0148 pw.x -in pw.inp   Done                     01/02/2019 03:20:47
00049 suncat0148 pw.x -in pw.inp   Done                     01/02/2019 03:20:47
00050 suncat0148 pw.x -in pw.inp   Done                     01/02/2019 03:20:47
00051 suncat0148 pw.x -in pw.inp   Done                     01/02/2019 03:20:47
00052 suncat0148 pw.x -in pw.inp   Done                     01/02/2019 03:20:47
00053 suncat0148 pw.x -in pw.inp   Done                     01/02/2019 03:20:47
00054 suncat0148 pw.x -in pw.inp   Done                     01/02/2019 03:20:47
00055 suncat0148 pw.x -in pw.inp   Done                     01/02/2019 03:20:47
00056 suncat0142 pw.x -in pw.inp   Done                     01/02/2019 03:20:47
00057 suncat0142 pw.x -in pw.inp   Done                     01/02/2019 03:20:47
00058 suncat0142 pw.x -in pw.inp   Done                     01/02/2019 03:20:47
00059 suncat0142 pw.x -in pw.inp   Done                     01/02/2019 03:20:47
00060 suncat0142 pw.x -in pw.inp   Done                     01/02/2019 03:20:47
00061 suncat0142 pw.x -in pw.inp   Done                     01/02/2019 03:20:47
00062 suncat0142 pw.x -in pw.inp   Done                     01/02/2019 03:20:47
00063 suncat0142 pw.x -in pw.inp   Done                     01/02/2019 03:20:47