     Program PWSCF v.5.1rc2 (svn rev. 11289) starts on  1Jan2019 at  3:41:45

     Current dimensions of program PWSCF are:
     Max number of different atomic species (ntypx) = 10
     Max number of k-points (npk) =  40000
     Max angular momentum in pseudopotentials (lmaxx) =  3
     Presently stress not available with electric field

     IMPORTANT: XC functional enforced from input :
     Exchange-correlation      = BEEF-VDW ( 1  4 27 13 2)
     Any further DFT definition will be discarded
     Please, verify this is what you really want

     Subspace diagonalization in iterative solution of the eigenvalue problem:
     a serial algorithm will be used

     bravais-lattice index     =            0
     lattice parameter (alat)  =       1.8897  a.u.
     unit-cell volume          =    4192.9219 (a.u.)^3
     number of atoms/cell      =           12
     number of atomic types    =            2
     number of electrons       =       192.00
     number of Kohn-Sham states=          126
     kinetic-energy cutoff     =      36.7493  Ry
     charge density cutoff     =     367.4932  Ry
     convergence threshold     =      1.0E-06
     mixing beta               =       0.1000
     number of iterations used =           10  plain     mixing
     Exchange-correlation      = BEEF-VDW ( 1  4 27 13 2)
     nstep                     =           50

     celldm(1)=   1.889726  celldm(2)=   0.000000  celldm(3)=   0.000000
     celldm(4)=   0.000000  celldm(5)=   0.000000  celldm(6)=   0.000000

     crystal axes: (cart. coord. in units of alat)
               a(1) = (   5.419709   0.000000   0.000000 )
               a(2) = (  -2.709854   4.693605   0.000000 )
               a(3) = (   0.000000   0.000000  24.425174 )

     reciprocal axes: (cart. coord. in units 2 pi/alat)
               b(1) = (  0.184512  0.106528  0.000000 )
               b(2) = (  0.000000  0.213056  0.000000 )
               b(3) = (  0.000000  0.000000  0.040941 )

     PseudoPot. # 1 for Ru read from file:
     /afs/slac.stanford.edu/u/if/mamunm/psp/gbrv1.5pbe/Ru.UPF
     MD5 check sum: 7158a806dd851261a58e6920c40ebe78
     Pseudo is Ultrasoft + core correction, Zval = 16.0
     Generated by new atomic code, or converted to UPF format
     Using radial grid of  967 points,  6 beta functions with:
                l(1) =   0
                l(2) =   0
                l(3) =   1
                l(4) =   1
                l(5) =   2
                l(6) =   2
     Q(r) pseudized with  8 coefficients,  rinner =    1.300   1.300   1.300
                                                       1.300   1.300

     PseudoPot. # 2 for Os read from file:
     /afs/slac.stanford.edu/u/if/mamunm/psp/gbrv1.5pbe/Os.UPF
     MD5 check sum: a3fb40a04f0c37c25c34bbc47164c9a8
     Pseudo is Ultrasoft + core correction, Zval = 16.0
     Generated by new atomic code, or converted to UPF format
     Using radial grid of  983 points,  8 beta functions with:
                l(1) =   0
                l(2) =   0
                l(3) =   1
                l(4) =   1
                l(5) =   2
                l(6) =   2
                l(7) =   3
                l(8) =   3
     Q(r) pseudized with  8 coefficients,  rinner =    1.150   1.150   1.150
                                                       1.150   1.150   1.150
                                                       1.150

     vdW kernel table read from file vdW_kernel_table
     MD5 check sum: 095c7af220d748ca6e76c0b4c6cfb241

     atomic species   valence    mass     pseudopotential
        Ru1           16.00   101.07000     Ru( 1.00)
        Os1           16.00   190.23000     Os( 1.00)

     No symmetry found

   Cartesian axes

     site n.     atom                  positions (alat units)
         1           Ru1 tau(   1) = (   0.0000000   0.0000000  10.0000000  )
         2           Ru1 tau(   2) = (  -1.3549272   2.3468027  10.0000000  )
         3           Ru1 tau(   3) = (   1.3549272   2.3468027  10.0000000  )
         4           Os1 tau(   4) = (   2.7098543   0.0000000  10.0000000  )
         5           Ru1 tau(   5) = (   2.7098543   1.5645351  12.2125868  )
         6           Ru1 tau(   6) = (   1.3549272   3.9113378  12.2125868  )
         7           Ru1 tau(   7) = (  -1.3549272   3.9113378  12.2125868  )
         8           Os1 tau(   8) = (   0.0000000   1.5645351  12.2125868  )
         9           Ru1 tau(   9) = (   0.0000000   3.1290703  14.4251736  )
        10           Ru1 tau(  10) = (   1.3549272   0.7822676  14.4251736  )
        11           Ru1 tau(  11) = (   4.0647815   0.7822676  14.4251736  )
        12           Os1 tau(  12) = (   2.7098543   3.1290703  14.4251736  )

     number of k points=    20  Fermi-Dirac smearing, width (Ry)=  0.0110
                       cart. coord. in units 2pi/alat
        k(    1) = (   0.0000000   0.0000000   0.0000000), wk =   0.0555556
        k(    2) = (   0.0000000   0.0355093   0.0000000), wk =   0.1111111
        k(    3) = (   0.0000000   0.0710186   0.0000000), wk =   0.1111111
        k(    4) = (   0.0000000  -0.1065279   0.0000000), wk =   0.0555556
        k(    5) = (   0.0307520   0.0177547   0.0000000), wk =   0.1111111
        k(    6) = (   0.0307520   0.0532640   0.0000000), wk =   0.1111111
        k(    7) = (   0.0307520   0.0887733   0.0000000), wk =   0.1111111
        k(    8) = (   0.0307520  -0.0887733   0.0000000), wk =   0.1111111
        k(    9) = (   0.0307520  -0.0532640   0.0000000), wk =   0.1111111
        k(   10) = (   0.0307520  -0.0177547   0.0000000), wk =   0.1111111
        k(   11) = (   0.0615039   0.0355093   0.0000000), wk =   0.1111111
        k(   12) = (   0.0615039   0.0710186   0.0000000), wk =   0.1111111
        k(   13) = (   0.0615039   0.1065279   0.0000000), wk =   0.1111111
        k(   14) = (   0.0615039  -0.0710186   0.0000000), wk =   0.1111111
        k(   15) = (   0.0615039  -0.0355093   0.0000000), wk =   0.1111111
        k(   16) = (   0.0615039   0.0000000   0.0000000), wk =   0.1111111
        k(   17) = (  -0.0922559  -0.0532640   0.0000000), wk =   0.0555556
        k(   18) = (  -0.0922559  -0.0177547   0.0000000), wk =   0.1111111
        k(   19) = (  -0.0922559   0.0177547   0.0000000), wk =   0.1111111
        k(   20) = (  -0.0922559  -0.1597919   0.0000000), wk =   0.0555556

     Largest allocated arrays     est. size (Mb)     dimensions
     Largest temporary arrays     est. size (Mb)     dimensions

     Initial potential from superposition of free atoms
     Check: negative starting charge=   -1.029938

     starting charge  181.49975, renormalised to  192.00000

     negative rho (up, down):  1.090E+00 0.000E+00

     *
     * You are using vdW-DF for exchange-correlation in this calculation.
     * Please cite the following three references that made this development
     * possible:
     *
     *   M. Dion, H. Rydberg, E. Schroder, D. C. Langreth, and
     *   B. I. Lundqvist, Phys. Rev. Lett. 92, 246401 (2004).
     *
     *   T. Thonhauser, V. R. Cooper, S. Li, A. Puzder, P. Hyldgaard, and
     *   D. C. Langreth, Phys. Rev. B 76, 125112 (2007).
     *
     *   G. Roman-Perez and J. M. Soler, Phys. Rev. Lett. 103, 096102 (2009).
     *
     *
     * If you are using vdW-DF2, please also cite:
     *
     *   K. Lee, E. D. Murray, L. Kong, B. I. Lundqvist, and
     *   D. C. Langreth, Phys. Rev. B 82, 081101(R) (2010).
     *
     *
     * If you are calculating the stress with vdW-DF, please also cite:
     *
     *   R. Sabatini, E. Kucukbenli, B. Kolb, T. Thonhauser, and
     *   S. de Gironcoli, J. Phys.: Condens. Matter 24, 424209 (2012).
     *

     Carrying out vdW-DF run using the following parameters:

     Nqs =      20    Nr_points =    1024   r_max =   100.000
     q_mesh =
               0.00001000     0.04494208     0.09755937     0.15916263
               0.23128650     0.31572767     0.41458969     0.53033537
               0.66584808     0.82450364     1.01025438     1.22772762
               1.48234092     1.78043706     2.12944203     2.53805004
               3.01644009     3.57652955     4.23227104     5.00000000

     Gradients computed in reciprocal space

     Adding external electric field

     Computed dipole along edir(3) :
        Dipole               -0.0000 Ry au,         -0.0000 Debye
        Dipole field         -0.0000 Ry au

        Potential amp.        0.0000 Ry
        Total length         45.0030 bohr

     Starting wfc are  156 randomized atomic wfcs

     Self-consistent Calculation

     iteration #  1     ecut=    36.75 Ry     beta=0.10
     Davidson diagonalization with overlap
     ethr =  1.00E-02,  avg # of iterations =  8.7

[...]

     total energy              =   -2356.71307703 Ry
     Harris-Foulkes estimate   =   -2358.90795565 Ry
     estimated scf accuracy    <      13.82703840 Ry

[...]

     End of self-consistent calculation

          k = 0.0000 0.0000 0.0000 ( 15665 PWs)   bands (ev):

   -84.4423 -83.9399 -83.9399 -70.8457 -70.7682 -70.7682 -70.3401 -70.3373
   -70.2646 -70.2646 -70.2639 -70.2639 -43.7298 -43.7298 -43.7098 -43.2347
   -43.2347 -43.2278 -43.2278 -43.2220 -43.1964 -41.1088 -40.8962 -40.8962
   -40.8730 -40.7718 -40.7718 -40.6017 -40.6015 -40.5657 -40.4761 -40.4761
   -40.3868 -40.3868 -40.3326 -40.3326 -40.2797 -40.2050 -40.2050 -40.1748
   -40.1513 -40.1513 -40.1104 -40.0986 -39.9647 -39.9646 -39.9615 -39.9615
    -5.1480  -3.6342  -3.5383  -3.4192  -3.4192  -3.2426  -2.9796  -2.9796
    -2.9582  -2.6837  -2.6766  -2.6766  -2.3159  -2.3159  -2.2016  -1.1301
    -1.1301  -0.9609  -0.4473  -0.4473  -0.4055  -0.1907  -0.0427  -0.0427
     0.0453   0.4221   0.4221   0.4355   0.4423   0.4423   0.7076   0.7076
     1.0375   1.1331   1.1331   2.0461   2.0968   2.1924   2.1924   2.2128
     2.2129   2.3241   2.3241   2.3594   3.0080   3.0080   3.3499   3.4601
     3.4601   3.4714   3.6697   3.7979   3.7979   3.8886   3.8886   3.9784
     4.3614   4.3614   4.4581   4.5115   4.5419   4.5419   4.8231   4.8495
     4.8495   4.9238   4.9238   6.7287   6.7287   6.8826   6.8832   6.8832
     6.9315   7.1511   7.1626   7.6732   8.5746   9.4996

[...]

          k =-0.0923-0.0533 0.0000 ( 15792 PWs)   bands (ev):

[...]

     the Fermi energy is     2.4801 ev

!    total energy              =   -2355.22514020 Ry
     Harris-Foulkes estimate   =   -2355.22514061 Ry
     estimated scf accuracy    <       0.00000097 Ry

     The total energy is the sum of the following terms:

     one-electron contribution =  -21769.61336632 Ry
     hartree contribution      =   10879.66731826 Ry
     xc contribution           =    -357.34609141 Ry
     ewald contribution        =    8892.14712506 Ry
     electric field correction =       0.00000000 Ry
     smearing contrib. (-TS)   =      -0.08012580 Ry

     convergence has been achieved in  16 iterations

 BEEF-vdW xc energy contributions
           1 :   -311.020528593379
           2 :    286.496692855727
           3 :   -243.718626328615
           4 :    192.835386370679
           5 :   -144.409448582395
           6 :    106.273582044451
           7 :   -81.7331411602350
           8 :    69.5205350941036
[...]
     Generated by new atomic code, or converted to UPF format
     Using radial grid of  967 points,  6 beta functions with:
                l(1) =   0
                l(2) =   0
                l(3) =   1
                l(4) =   1
                l(5) =   2
                l(6) =   2
     Q(r) pseudized with  8 coefficients,  rinner =    1.300   1.300   1.300
                                                       1.300   1.300

     PseudoPot. # 2 for Os read from file:
     /afs/slac.stanford.edu/u/if/mamunm/psp/gbrv1.5pbe/Os.UPF
     MD5 check sum: a3fb40a04f0c37c25c34bbc47164c9a8
     Pseudo is Ultrasoft + core correction, Zval = 16.0
     Generated by new atomic code, or converted to UPF format
     Using radial grid of  983 points,  8 beta functions with:
                l(1) =   0
                l(2) =   0
                l(3) =   1
                l(4) =   1
                l(5) =   2
                l(6) =   2
                l(7) =   3
                l(8) =   3
     Q(r) pseudized with  8 coefficients,  rinner =    1.150   1.150   1.150
                                                       1.150   1.150   1.150
                                                       1.150

     vdW kernel table read from file vdW_kernel_table
     MD5 check sum: 095c7af220d748ca6e76c0b4c6cfb241

     atomic species   valence    mass     pseudopotential
        Ru1           16.00   101.07000     Ru( 1.00)
        Os1           16.00   190.23000     Os( 1.00)

     No symmetry found

   Cartesian axes

     site n.     atom                  positions (alat units)
         1           Ru1 tau(   1) = (   0.0000000   0.0000000  10.0000000  )
         2           Ru1 tau(   2) = (  -1.3549272   2.3468027  10.0000000  )
         3           Ru1 tau(   3) = (   1.3549272   2.3468027  10.0000000  )
         4           Os1 tau(   4) = (   2.7098543   0.0000000  10.0000000  )
         5           Ru1 tau(   5) = (   2.7098543   1.5645351  12.2125868  )
         6           Ru1 tau(   6) = (   1.3549272   3.9113378  12.2125868  )
         7           Ru1 tau(   7) = (  -1.3549272   3.9113378  12.2125868  )
         8           Os1 tau(   8) = (   0.0000000   1.5645351  12.2125868  )
         9           Ru1 tau(   9) = (   0.0000027   3.1100099  14.3263824  )
        10           Ru1 tau(  10) = (   1.3384140   0.7917975  14.3263975  )
        11           Ru1 tau(  11) = (   4.0812908   0.7917935  14.3263904  )
        12           Os1 tau(  12) = (   2.7098415   3.1290880  14.3107606  )

     number of k points=    20  Fermi-Dirac smearing, width (Ry)=  0.0110
                       cart. coord. in units 2pi/alat
        k(    1) = (   0.0000000   0.0000000   0.0000000), wk =   0.0555556
        k(    2) = (   0.0000000   0.0355093   0.0000000), wk =   0.1111111
        k(    3) = (   0.0000000   0.0710186   0.0000000), wk =   0.1111111
        k(    4) = (   0.0000000  -0.1065279   0.0000000), wk =   0.0555556
        k(    5) = (   0.0307520   0.0177547   0.0000000), wk =   0.1111111
        k(    6) = (   0.0307520   0.0532640   0.0000000), wk =   0.1111111
        k(    7) = (   0.0307520   0.0887733   0.0000000), wk =   0.1111111
        k(    8) = (   0.0307520  -0.0887733   0.0000000), wk =   0.1111111
        k(    9) = (   0.0307520  -0.0532640   0.0000000), wk =   0.1111111
        k(   10) = (   0.0307520  -0.0177547   0.0000000), wk =   0.1111111
        k(   11) = (   0.0615039   0.0355093   0.0000000), wk =   0.1111111
        k(   12) = (   0.0615039   0.0710186   0.0000000), wk =   0.1111111
        k(   13) = (   0.0615039   0.1065279   0.0000000), wk =   0.1111111
        k(   14) = (   0.0615039  -0.0710186   0.0000000), wk =   0.1111111
        k(   15) = (   0.0615039  -0.0355093   0.0000000), wk =   0.1111111
        k(   16) = (   0.0615039   0.0000000   0.0000000), wk =   0.1111111
        k(   17) = (  -0.0922559  -0.0532640   0.0000000), wk =   0.0555556
        k(   18) = (  -0.0922559  -0.0177547   0.0000000), wk =   0.1111111
        k(   19) = (  -0.0922559   0.0177547   0.0000000), wk =   0.1111111
        k(   20) = (  -0.0922559  -0.1597919   0.0000000), wk =   0.0555556

     Largest allocated arrays     est. size (Mb)     dimensions
     Largest temporary arrays     est. size (Mb)     dimensions

     Initial potential from superposition of free atoms
     Check: negative starting charge=   -1.028999

     starting charge  181.49975, renormalised to  192.00000

[...]

     *
     * You are using vdW-DF for exchange-correlation in this calculation.
     * Please cite the following three references that made this development
     * possible:
     *
     *   M. Dion, H. Rydberg, E. Schroder, D. C. Langreth, and
     *   B. I. Lundqvist, Phys. Rev. Lett. 92, 246401 (2004).
     *
     *   T. Thonhauser, V. R. Cooper, S. Li, A. Puzder, P. Hyldgaard, and
     *   D. C. Langreth, Phys. Rev. B 76, 125112 (2007).
     *
     *   G. Roman-Perez and J. M. Soler, Phys. Rev. Lett. 103, 096102 (2009).
     *
     *
     * If you are using vdW-DF2, please also cite:
     *
     *   K. Lee, E. D. Murray, L. Kong, B. I. Lundqvist, and
     *   D. C. Langreth, Phys. Rev. B 82, 081101(R) (2010).
     *
     *
     * If you are calculating the stress with vdW-DF, please also cite:
     *
     *   R. Sabatini, E. Kucukbenli, B. Kolb, T. Thonhauser, and
     *   S. de Gironcoli, J. Phys.: Condens. Matter 24, 424209 (2012).
     *

     Carrying out vdW-DF run using the following parameters:

     Nqs =      20    Nr_points =    1024   r_max =   100.000
     q_mesh =
               0.00001000     0.04494208     0.09755937     0.15916263
               0.23128650     0.31572767     0.41458969     0.53033537
               0.66584808     0.82450364     1.01025438     1.22772762
               1.48234092     1.78043706     2.12944203     2.53805004
               3.01644009     3.57652955     4.23227104     5.00000000

     Gradients computed in reciprocal space

[...]

     Starting wfc are  156 randomized atomic wfcs

     Self-consistent Calculation

[...]

     total energy              =   -2355.23951474 Ry
     Harris-Foulkes estimate   =   -2355.23951492 Ry
     estimated scf accuracy    <       0.00000497 Ry

     iteration # 19     ecut=    36.75 Ry     beta=0.10
     Davidson diagonalization with overlap
     ethr =  5.72E-10,  avg # of iterations =  1.5

[...]

     negative rho (up, down):  1.060E+00 0.000E+00

     Adding external electric field

     Computed dipole along edir(3) :
        Dipole                0.0268 Ry au,          0.0681 Debye
        Dipole field          0.0001 Ry au

        Potential amp.       -0.0072 Ry
        Total length         45.0030 bohr

     End of self-consistent calculation

[...]

          k = 0.0615 0.0000 0.0000 ( 15760 PWs)   bands (ev):

[...]

          k =-0.0923-0.1598 0.0000 ( 15792 PWs)   bands (ev):

   -84.4662 -83.9742 -83.8748 -70.8508 -70.8246 -70.7982 -70.3438 -70.3158
   -70.2922 -70.2579 -70.2329 -70.2079 -43.7594 -43.7537 -43.7342 -43.2795
   -43.2677 -43.2490 -43.1603 -43.1413 -43.1410 -41.0360 -40.8940 -40.8790
   -40.8332 -40.8266 -40.7916 -40.7771 -40.7682 -40.5322 -40.4967 -40.4092
   -40.3214 -40.2794 -40.2637 -40.2511 -40.2382 -40.2278 -40.2118 -40.1914
   -40.1833 -40.1751 -40.1620 -40.1470 -40.1114 -40.1060 -40.0216 -39.9359
    -3.7817  -3.3867  -2.6300  -2.6005  -2.5665  -2.4017  -2.3629  -2.1931
    -2.1147  -1.9627  -1.9366  -1.8168  -1.6262  -1.4430  -1.4102  -1.2991
    -1.0881  -1.0032  -0.9808  -0.7994  -0.5859  -0.5239  -0.1042  -0.0579
     0.1991   0.2306   0.2796   0.3275   0.3982   0.4535   0.5471   0.6086
     0.6308   0.6395   0.6861   0.7265   0.7853   0.8322   0.8510   0.9097
     1.3931   1.4658   1.6915   1.7624   1.8483   1.8884   2.0529   2.2381
     2.2697   2.4180   2.5154   2.5939   2.7732   2.8503   2.8849   2.9439
     3.0959   3.1373   3.6336   3.7494   4.0319   4.1201   4.2110   4.5604
     5.4427   5.4535   6.5106   6.8464   7.1799   7.4171   7.5533   7.6780
     8.6501   8.6677   8.9228   8.9872   9.3215   9.3553

     the Fermi energy is     2.5049 ev

!    total energy              =   -2355.23951484 Ry
     Harris-Foulkes estimate   =   -2355.23951460 Ry
     estimated scf accuracy    <       0.00000014 Ry

     The total energy is the sum of the following terms:

     one-electron contribution =  -22089.39222341 Ry
     hartree contribution      =   11039.51528206 Ry
     xc contribution           =    -357.59264648 Ry
     ewald contribution        =    9052.30540123 Ry
     electric field correction =       0.00000215 Ry
     smearing contrib. (-TS)   =      -0.07533039 Ry

     convergence has been achieved in  19 iterations

 BEEF-vdW xc energy contributions
           1 :   -311.274823250188
           2 :    286.852596809938
           3 :   -244.214756422595
           4 :    193.417844691682
           5 :   -144.951274782296
           6 :    106.634817528297
           7 :   -81.8316023069621
           8 :    69.3776974808359
           9 :   -65.0000876479866
          10 :    63.4855364704785
          11 :   -60.7054063809235
          12 :    54.7940681489810
          13 :   -46.2239544670453
          14 :    36.9735742123223
          15 :   -29.2907641540097
          16 :    24.6075926981427
          17 :   -23.0093307123149
          18 :    23.3768367187819
          19 :   -24.0395578445230
          20 :    23.5831048276075
          21 :   -21.4351428071014
          22 :    17.9935533607889
          23 :   -14.2976823144664
          24 :    11.4481878728683
          25 :   -10.0726810885054
          26 :    10.0768520063871
          27 :   -10.7653504708094
          28 :    11.2347147721567
          29 :   -10.8243316220245
          30 :    9.40419690581854
          31 :   -31.3346857095555
          32 :   -23.8485737344150

     Forces acting on atoms (Ry/au):

     negative rho (up, down):  1.060E+00 0.000E+00
     atom    1 type  1   force =     0.00000012    0.00693427    0.02211565
     atom    2 type  1   force =     0.00600552   -0.00346725    0.02211828
     atom    3 type  1   force =    -0.00600476   -0.00346705    0.02211618
     atom    4 type  2   force =    -0.00000069    0.00000059    0.03219374
     atom    5 type  1   force =     0.00000002   -0.00132264   -0.02517593
     atom    6 type  1   force =    -0.00114611    0.00066241   -0.02517603
     atom    7 type  1   force =     0.00114556    0.00066181   -0.02517678
     atom    8 type  2   force =    -0.00000117   -0.00000017   -0.02796780
     atom    9 type  1   force =    -0.00000135    0.00029204    0.00168749
     atom   10 type  1   force =     0.00025434   -0.00014531    0.00168081
     atom   11 type  1   force =    -0.00025425   -0.00014374    0.00168399
     atom   12 type  2   force =     0.00000279   -0.00000495   -0.00009960

     Total force =     0.073116     Total SCF correction =     0.001821

     entering subroutine stress ...

     negative rho (up, down):  1.060E+00 0.000E+00
          total   stress  (Ry/bohr**3)                   (kbar)     P=  -21.65
  -0.00017095  -0.00000000   0.00000000        -25.15     -0.00      0.00
  -0.00000000  -0.00017095  -0.00000000         -0.00    -25.15     -0.00
   0.00000000  -0.00000000  -0.00009953          0.00     -0.00    -14.64

 !ASE

     Writing output data file calc.save

     General routines

     Parallel routines

   This run was terminated on:   4:16:38   1Jan2019

   JOB DONE.
Job  /afs/slac/g/suncat/bin/suncat-tsmpirun -x LD_LIBRARY_PATH -wdir /scratch/qe648938_R4ZLf pw.x -in pw.inp

TID   HOST_NAME   COMMAND_LINE            STATUS            TERMINATION_TIME
00000 suncat0068 pw.x -in pw.inp   Done                     01/01/2019 04:16:38
00001 suncat0068 pw.x -in pw.inp   Done                     01/01/2019 04:16:38
00002 suncat0068 pw.x -in pw.inp   Done                     01/01/2019 04:16:38
00003 suncat0068 pw.x -in pw.inp   Done                     01/01/2019 04:16:38
00004 suncat0068 pw.x -in pw.inp   Done                     01/01/2019 04:16:38
00005 suncat0068 pw.x -in pw.inp   Done                     01/01/2019 04:16:38
00006 suncat0068 pw.x -in pw.inp   Done                     01/01/2019 04:16:38
00007 suncat0068 pw.x -in pw.inp   Done                     01/01/2019 04:16:38
00008 suncat0059 pw.x -in pw.inp   Done                     01/01/2019 04:16:38
00009 suncat0059 pw.x -in pw.inp   Done                     01/01/2019 04:16:38
00010 suncat0059 pw.x -in pw.inp   Done                     01/01/2019 04:16:38
00011 suncat0059 pw.x -in pw.inp   Done                     01/01/2019 04:16:38
00012 suncat0059 pw.x -in pw.inp   Done                     01/01/2019 04:16:38
00013 suncat0059 pw.x -in pw.inp   Done                     01/01/2019 04:16:38
00014 suncat0059 pw.x -in pw.inp   Done                     01/01/2019 04:16:38
00015 suncat0059 pw.x -in pw.inp   Done                     01/01/2019 04:16:38
00016 suncat0031 pw.x -in pw.inp   Done                     01/01/2019 04:16:38
00017 suncat0031 pw.x -in pw.inp   Done                     01/01/2019 04:16:38
00018 suncat0031 pw.x -in pw.inp   Done                     01/01/2019 04:16:38
00019 suncat0031 pw.x -in pw.inp   Done                     01/01/2019 04:16:38
00020 suncat0031 pw.x -in pw.inp   Done                     01/01/2019 04:16:38
00021 suncat0031 pw.x -in pw.inp   Done                     01/01/2019 04:16:38
00022 suncat0031 pw.x -in pw.inp   Done                     01/01/2019 04:16:38
00023 suncat0031 pw.x -in pw.inp   Done                     01/01/2019 04:16:38
00024 suncat0030 pw.x -in pw.inp   Done                     01/01/2019 04:16:38
00025 suncat0030 pw.x -in pw.inp   Done                     01/01/2019 04:16:38
00026 suncat0030 pw.x -in pw.inp   Done                     01/01/2019 04:16:38
00027 suncat0030 pw.x -in pw.inp   Done                     01/01/2019 04:16:38
00028 suncat0030 pw.x -in pw.inp   Done                     01/01/2019 04:16:38
00029 suncat0030 pw.x -in pw.inp   Done                     01/01/2019 04:16:38
00030 suncat0030 pw.x -in pw.inp   Done                     01/01/2019 04:16:38
00031 suncat0030 pw.x -in pw.inp   Done                     01/01/2019 04:16:38
00032 suncat0280 pw.x -in pw.inp   Done                     01/01/2019 04:16:38
00033 suncat0280 pw.x -in pw.inp   Done                     01/01/2019 04:16:38
00034 suncat0280 pw.x -in pw.inp   Done                     01/01/2019 04:16:38
00035 suncat0280 pw.x -in pw.inp   Done                     01/01/2019 04:16:38
00036 suncat0280 pw.x -in pw.inp   Done                     01/01/2019 04:16:38
00037 suncat0280 pw.x -in pw.inp   Done                     01/01/2019 04:16:38
00038 suncat0280 pw.x -in pw.inp   Done                     01/01/2019 04:16:38
00039 suncat0280 pw.x -in pw.inp   Done                     01/01/2019 04:16:38
00040 suncat0279 pw.x -in pw.inp   Done                     01/01/2019 04:16:38
00041 suncat0279 pw.x -in pw.inp   Done                     01/01/2019 04:16:38
00042 suncat0279 pw.x -in pw.inp   Done                     01/01/2019 04:16:38
00043 suncat0279 pw.x -in pw.inp   Done                     01/01/2019 04:16:38
00044 suncat0279 pw.x -in pw.inp   Done                     01/01/2019 04:16:38
00045 suncat0279 pw.x -in pw.inp   Done                     01/01/2019 04:16:38
00046 suncat0279 pw.x -in pw.inp   Done                     01/01/2019 04:16:38
00047 suncat0279 pw.x -in pw.inp   Done                     01/01/2019 04:16:38
00048 suncat0278 pw.x -in pw.inp   Done                     01/01/2019 04:16:38
00049 suncat0278 pw.x -in pw.inp   Done                     01/01/2019 04:16:38
00050 suncat0278 pw.x -in pw.inp   Done                     01/01/2019 04:16:38
00051 suncat0278 pw.x -in pw.inp   Done                     01/01/2019 04:16:38
00052 suncat0278 pw.x -in pw.inp   Done                     01/01/2019 04:16:38
00053 suncat0278 pw.x -in pw.inp   Done                     01/01/2019 04:16:38
00054 suncat0278 pw.x -in pw.inp   Done                     01/01/2019 04:16:38
00055 suncat0278 pw.x -in pw.inp   Done                     01/01/2019 04:16:38
00056 suncat0099 pw.x -in pw.inp   Done                     01/01/2019 04:16:38
00057 suncat0099 pw.x -in pw.inp   Done                     01/01/2019 04:16:38
00058 suncat0099 pw.x -in pw.inp   Done                     01/01/2019 04:16:38
00059 suncat0099 pw.x -in pw.inp   Done                     01/01/2019 04:16:38
00060 suncat0099 pw.x -in pw.inp   Done                     01/01/2019 04:16:38
00061 suncat0099 pw.x -in pw.inp   Done                     01/01/2019 04:16:38
00062 suncat0099 pw.x -in pw.inp   Done                     01/01/2019 04:16:38
00063 suncat0099 pw.x -in pw.inp   Done                     01/01/2019 04:16:38