     Program PWSCF v.5.1rc2 (svn rev. 11289) starts on  2Jan2019 at 20:46:24

     Current dimensions of program PWSCF are:
     Max number of different atomic species (ntypx) = 10
     Max number of k-points (npk) =  40000
     Max angular momentum in pseudopotentials (lmaxx) =  3
     Presently stress not available with electric field

     IMPORTANT: XC functional enforced from input :
     Exchange-correlation      = BEEF-VDW ( 1  4 27 13 2)
     Any further DFT definition will be discarded
     Please, verify this is what you really want

     Subspace diagonalization in iterative solution of the eigenvalue problem:
     a serial algorithm will be used

     Generating pointlists ...
     new r_m :   0.4125 (alat units)  0.7795 (a.u.) for type    1
     new r_m :   0.4125 (alat units)  0.7795 (a.u.) for type    2

     bravais-lattice index     =            0
     lattice parameter (alat)  =       1.8897  a.u.
     unit-cell volume          =    5377.5322 (a.u.)^3
     number of atoms/cell      =           12
     number of atomic types    =            2
     number of electrons       =       162.00
     number of Kohn-Sham states=          111
     kinetic-energy cutoff     =      36.7493  Ry
     charge density cutoff     =     367.4932  Ry
     convergence threshold     =      1.0E-06
     mixing beta               =       0.1000
     number of iterations used =           10  plain     mixing
     Exchange-correlation      = BEEF-VDW ( 1  4 27 13 2)
     nstep                     =           50

     celldm(1)=   1.889726  celldm(2)=   0.000000  celldm(3)=   0.000000
     celldm(4)=   0.000000  celldm(5)=   0.000000  celldm(6)=   0.000000

     crystal axes: (cart. coord. in units of alat)
               a(1) = (   6.071914   0.000000   0.000000 )
               a(2) = (  -3.035957   5.258432   0.000000 )
               a(3) = (   0.000000   0.000000  24.957697 )

     reciprocal axes: (cart. coord. in units 2 pi/alat)
               b(1) = (  0.164693  0.095085  0.000000 )
               b(2) = (  0.000000  0.190171  0.000000 )
               b(3) = (  0.000000  0.000000  0.040068 )

     PseudoPot. # 1 for Zr read from file:
     /afs/slac.stanford.edu/u/if/mamunm/psp/gbrv1.5pbe/Zr.UPF
     MD5 check sum: 5db81b1e868ab7776c4564c113de050b
     Pseudo is Ultrasoft + core correction, Zval = 12.0
     Generated by new atomic code, or converted to UPF format
     Using radial grid of  887 points,  6 beta functions with:
                l(1) =   0
                l(2) =   0
                l(3) =   1
                l(4) =   1
                l(5) =   2
                l(6) =   2
     Q(r) pseudized with  6 coefficients,  rinner =    1.200   1.200   1.200
                                                       1.200   1.200

     PseudoPot. # 2 for Ni read from file:
     /afs/slac.stanford.edu/u/if/mamunm/psp/gbrv1.5pbe/Ni.UPF
     MD5 check sum: 1ee80287db30b12d2bc1f57a5b5d6409
     Pseudo is Ultrasoft + core correction, Zval = 18.0
     Generated by new atomic code, or converted to UPF format
     Using radial grid of  865 points,  6 beta functions with:
                l(1) =   0
                l(2) =   0
                l(3) =   1
                l(4) =   1
                l(5) =   2
                l(6) =   2
     Q(r) pseudized with 10 coefficients,  rinner =    0.980   0.980   0.980
                                                       0.980   0.980

     vdW kernel table read from file vdW_kernel_table
     MD5 check sum: 095c7af220d748ca6e76c0b4c6cfb241

     atomic species   valence    mass     pseudopotential
        Zr1           12.00    91.22400     Zr( 1.00)
        Ni1           18.00    58.69340     Ni( 1.00)

     Starting magnetic structure
     atomic species   magnetization
        Zr1          0.167
        Ni1          0.111

     No symmetry found

   Cartesian axes

     site n.     atom                  positions (alat units)
         1           Zr1 tau(   1) = (   0.0000000   0.0000000  10.0000000  )
         2           Zr1 tau(   2) = (  -1.5179786   2.6292160  10.0000000  )
         3           Zr1 tau(   3) = (   1.5179786   2.6292160  10.0000000  )
         4           Ni1 tau(   4) = (   3.0359572   0.0000000  10.0000000  )
         5           Zr1 tau(   5) = (   3.0359572   1.7528107  12.4788486  )
         6           Zr1 tau(   6) = (   1.5179786   4.3820267  12.4788486  )
         7           Zr1 tau(   7) = (  -1.5179786   4.3820267  12.4788486  )
         8           Ni1 tau(   8) = (   0.0000000   1.7528107  12.4788486  )
         9           Zr1 tau(   9) = (  -0.0000000   3.5056214  14.9576973  )
        10           Zr1 tau(  10) = (   1.5179786   0.8764053  14.9576973  )
        11           Zr1 tau(  11) = (   4.5539357   0.8764053  14.9576973  )
        12           Ni1 tau(  12) = (   3.0359572   3.5056214  14.9576973  )

     number of k points=    40  Fermi-Dirac smearing, width (Ry)=  0.0110
                       cart. coord. in units 2pi/alat
        k(    1) = (   0.0000000   0.0000000   0.0000000), wk =   0.0277778
        k(    2) = (   0.0000000   0.0316951   0.0000000), wk =   0.0555556
        k(    3) = (   0.0000000   0.0633903   0.0000000), wk =   0.0555556
        k(    4) = (   0.0000000  -0.0950854   0.0000000), wk =   0.0277778
        k(    5) = (   0.0274488   0.0158476   0.0000000), wk =   0.0555556
        k(    6) = (   0.0274488   0.0475427   0.0000000), wk =   0.0555556
        k(    7) = (   0.0274488   0.0792378   0.0000000), wk =   0.0555556
        k(    8) = (   0.0274488  -0.0792378   0.0000000), wk =   0.0555556
        k(    9) = (   0.0274488  -0.0475427   0.0000000), wk =   0.0555556
        k(   10) = (   0.0274488  -0.0158476   0.0000000), wk =   0.0555556
        k(   11) = (   0.0548976   0.0316951   0.0000000), wk =   0.0555556
        k(   12) = (   0.0548976   0.0633903   0.0000000), wk =   0.0555556
        k(   13) = (   0.0548976   0.0950854   0.0000000), wk =   0.0555556
        k(   14) = (   0.0548976  -0.0633903   0.0000000), wk =   0.0555556
        k(   15) = (   0.0548976  -0.0316951   0.0000000), wk =   0.0555556
        k(   16) = (   0.0548976   0.0000000   0.0000000), wk =   0.0555556
        k(   17) = (  -0.0823464  -0.0475427   0.0000000), wk =   0.0277778
        k(   18) = (  -0.0823464  -0.0158476   0.0000000), wk =   0.0555556
        k(   19) = (  -0.0823464   0.0158476   0.0000000), wk =   0.0555556
        k(   20) = (  -0.0823464  -0.1426281   0.0000000), wk =   0.0277778
        k(   21) = (   0.0000000   0.0000000   0.0000000), wk =   0.0277778
        k(   22) = (   0.0000000   0.0316951   0.0000000), wk =   0.0555556
        k(   23) = (   0.0000000   0.0633903   0.0000000), wk =   0.0555556
        k(   24) = (   0.0000000  -0.0950854   0.0000000), wk =   0.0277778
        k(   25) = (   0.0274488   0.0158476   0.0000000), wk =   0.0555556
        k(   26) = (   0.0274488   0.0475427   0.0000000), wk =   0.0555556
        k(   27) = (   0.0274488   0.0792378   0.0000000), wk =   0.0555556
        k(   28) = (   0.0274488  -0.0792378   0.0000000), wk =   0.0555556
        k(   29) = (   0.0274488  -0.0475427   0.0000000), wk =   0.0555556
        k(   30) = (   0.0274488  -0.0158476   0.0000000), wk =   0.0555556
        k(   31) = (   0.0548976   0.0316951   0.0000000), wk =   0.0555556
        k(   32) = (   0.0548976   0.0633903   0.0000000), wk =   0.0555556
        k(   33) = (   0.0548976   0.0950854   0.0000000), wk =   0.0555556
        k(   34) = (   0.0548976  -0.0633903   0.0000000), wk =   0.0555556
        k(   35) = (   0.0548976  -0.0316951   0.0000000), wk =   0.0555556
        k(   36) = (   0.0548976   0.0000000   0.0000000), wk =   0.0555556
        k(   37) = (  -0.0823464  -0.0475427   0.0000000), wk =   0.0277778
        k(   38) = (  -0.0823464  -0.0158476   0.0000000), wk =   0.0555556
        k(   39) = (  -0.0823464   0.0158476   0.0000000), wk =   0.0555556
        k(   40) = (  -0.0823464  -0.1426281   0.0000000), wk =   0.0277778

     Largest allocated arrays     est. size (Mb)     dimensions
     Largest temporary arrays     est. size (Mb)     dimensions

     Initial potential from superposition of free atoms
     Check: negative starting charge=(component1):   -0.320624
     Check: negative starting charge=(component2):   -0.229031

     starting charge  155.98066, renormalised to  162.00000

     negative rho (up, down):  3.330E-01 2.379E-01

     *
     * You are using vdW-DF for exchange-correlation in this calculation.
     * Please cite the following three references that made this development
     * possible:
     *
     *   M. Dion, H. Rydberg, E. Schroder, D. C. Langreth, and
     *   B. I. Lundqvist, Phys. Rev. Lett. 92, 246401 (2004).
     *
     *   T. Thonhauser, V. R. Cooper, S. Li, A. Puzder, P. Hyldgaard, and
     *   D. C. Langreth, Phys. Rev. B 76, 125112 (2007).
     *
     *   G. Roman-Perez and J. M. Soler, Phys. Rev. Lett. 103, 096102 (2009).
     *
     *
     * If you are using vdW-DF2, please also cite:
     *
     *   K. Lee, E. D. Murray, L. Kong, B. I. Lundqvist, and
     *   D. C. Langreth, Phys. Rev. B 82, 081101(R) (2010).
     *
     *
     * If you are calculating the stress with vdW-DF, please also cite:
     *
     *   R. Sabatini, E. Kucukbenli, B. Kolb, T. Thonhauser, and
     *   S. de Gironcoli, J. Phys.: Condens. Matter 24, 424209 (2012).
     *

     Carrying out vdW-DF run using the following parameters:

     Nqs =      20    Nr_points =    1024   r_max =   100.000
     q_mesh =
               0.00001000     0.04494208     0.09755937     0.15916263
               0.23128650     0.31572767     0.41458969     0.53033537
               0.66584808     0.82450364     1.01025438     1.22772762
               1.48234092     1.78043706     2.12944203     2.53805004
               3.01644009     3.57652955     4.23227104     5.00000000

     Gradients computed in reciprocal space

     Adding external electric field

     Computed dipole along edir(3) :
        Dipole                0.0000 Ry au,          0.0000 Debye
        Dipole field          0.0000 Ry au

        Potential amp.       -0.0000 Ry
        Total length         45.9841 bohr

[...]

     Starting wfc are  156 randomized atomic wfcs

     Self-consistent Calculation

     iteration #  1     ecut=    36.75 Ry     beta=0.10
     Davidson diagonalization with overlap
     ethr =  1.00E-02,  avg # of iterations =  2.0

[...]

     Magnetic moment per site:
     atom:    1    charge:    1.1431    magn:    0.1750    constr:    0.0000
     atom:    2    charge:    1.1430    magn:    0.1750    constr:    0.0000
     atom:    3    charge:    1.1430    magn:    0.1750    constr:    0.0000
     atom:    4    charge:    9.4638    magn:    1.0715    constr:    0.0000
     atom:    5    charge:    1.1566    magn:    0.1767    constr:    0.0000
     atom:    6    charge:    1.1566    magn:    0.1767    constr:    0.0000
     atom:    7    charge:    1.1566    magn:    0.1767    constr:    0.0000
     atom:    8    charge:    9.4691    magn:    1.0597    constr:    0.0000
[...]
        k(    4) = (   0.0000000  -0.0950854   0.0000000), wk =   0.0277778
        k(    5) = (   0.0274488   0.0158476   0.0000000), wk =   0.0555556
        k(    6) = (   0.0274488   0.0475427   0.0000000), wk =   0.0555556
        k(    7) = (   0.0274488   0.0792378   0.0000000), wk =   0.0555556
        k(    8) = (   0.0274488  -0.0792378   0.0000000), wk =   0.0555556
        k(    9) = (   0.0274488  -0.0475427   0.0000000), wk =   0.0555556
        k(   10) = (   0.0274488  -0.0158476   0.0000000), wk =   0.0555556
        k(   11) = (   0.0548976   0.0316951   0.0000000), wk =   0.0555556
        k(   12) = (   0.0548976   0.0633903   0.0000000), wk =   0.0555556
        k(   13) = (   0.0548976   0.0950854   0.0000000), wk =   0.0555556
        k(   14) = (   0.0548976  -0.0633903   0.0000000), wk =   0.0555556
        k(   15) = (   0.0548976  -0.0316951   0.0000000), wk =   0.0555556
        k(   16) = (   0.0548976   0.0000000   0.0000000), wk =   0.0555556
        k(   17) = (  -0.0823464  -0.0475427   0.0000000), wk =   0.0277778
        k(   18) = (  -0.0823464  -0.0158476   0.0000000), wk =   0.0555556
        k(   19) = (  -0.0823464   0.0158476   0.0000000), wk =   0.0555556
        k(   20) = (  -0.0823464  -0.1426281   0.0000000), wk =   0.0277778
        k(   21) = (   0.0000000   0.0000000   0.0000000), wk =   0.0277778
        k(   22) = (   0.0000000   0.0316951   0.0000000), wk =   0.0555556
        k(   23) = (   0.0000000   0.0633903   0.0000000), wk =   0.0555556
        k(   24) = (   0.0000000  -0.0950854   0.0000000), wk =   0.0277778
        k(   25) = (   0.0274488   0.0158476   0.0000000), wk =   0.0555556
        k(   26) = (   0.0274488   0.0475427   0.0000000), wk =   0.0555556
        k(   27) = (   0.0274488   0.0792378   0.0000000), wk =   0.0555556
        k(   28) = (   0.0274488  -0.0792378   0.0000000), wk =   0.0555556
        k(   29) = (   0.0274488  -0.0475427   0.0000000), wk =   0.0555556
        k(   30) = (   0.0274488  -0.0158476   0.0000000), wk =   0.0555556
        k(   31) = (   0.0548976   0.0316951   0.0000000), wk =   0.0555556
        k(   32) = (   0.0548976   0.0633903   0.0000000), wk =   0.0555556
        k(   33) = (   0.0548976   0.0950854   0.0000000), wk =   0.0555556
        k(   34) = (   0.0548976  -0.0633903   0.0000000), wk =   0.0555556
        k(   35) = (   0.0548976  -0.0316951   0.0000000), wk =   0.0555556
        k(   36) = (   0.0548976   0.0000000   0.0000000), wk =   0.0555556
        k(   37) = (  -0.0823464  -0.0475427   0.0000000), wk =   0.0277778
        k(   38) = (  -0.0823464  -0.0158476   0.0000000), wk =   0.0555556
        k(   39) = (  -0.0823464   0.0158476   0.0000000), wk =   0.0555556
        k(   40) = (  -0.0823464  -0.1426281   0.0000000), wk =   0.0277778

     Largest allocated arrays     est. size (Mb)     dimensions
     Largest temporary arrays     est. size (Mb)     dimensions

     Initial potential from superposition of free atoms
     Check: negative starting charge=(component1):   -0.320135
     Check: negative starting charge=(component2):   -0.228682

     starting charge  155.98066, renormalised to  162.00000

[...]

     *
     * You are using vdW-DF for exchange-correlation in this calculation.
     * Please cite the following three references that made this development
     * possible:
     *
     *   M. Dion, H. Rydberg, E. Schroder, D. C. Langreth, and
     *   B. I. Lundqvist, Phys. Rev. Lett. 92, 246401 (2004).
     *
     *   T. Thonhauser, V. R. Cooper, S. Li, A. Puzder, P. Hyldgaard, and
     *   D. C. Langreth, Phys. Rev. B 76, 125112 (2007).
     *
     *   G. Roman-Perez and J. M. Soler, Phys. Rev. Lett. 103, 096102 (2009).
     *
     *
     * If you are using vdW-DF2, please also cite:
     *
     *   K. Lee, E. D. Murray, L. Kong, B. I. Lundqvist, and
     *   D. C. Langreth, Phys. Rev. B 82, 081101(R) (2010).
     *
     *
     * If you are calculating the stress with vdW-DF, please also cite:
     *
     *   R. Sabatini, E. Kucukbenli, B. Kolb, T. Thonhauser, and
     *   S. de Gironcoli, J. Phys.: Condens. Matter 24, 424209 (2012).
     *

     Carrying out vdW-DF run using the following parameters:

     Nqs =      20    Nr_points =    1024   r_max =   100.000
     q_mesh =
               0.00001000     0.04494208     0.09755937     0.15916263
               0.23128650     0.31572767     0.41458969     0.53033537
               0.66584808     0.82450364     1.01025438     1.22772762
               1.48234092     1.78043706     2.12944203     2.53805004
               3.01644009     3.57652955     4.23227104     5.00000000

     Gradients computed in reciprocal space

[...]

     Starting wfc are  156 randomized atomic wfcs

     Self-consistent Calculation

[...]

     iteration # 24     ecut=    36.75 Ry     beta=0.10
     Davidson diagonalization with overlap
     c_bands:  1 eigenvalues not converged
     ethr =  5.99E-07,  avg # of iterations =  2.5

[...]

     total energy              =   -1930.91260126 Ry
     Harris-Foulkes estimate   =   -1930.91259700 Ry
     estimated scf accuracy    <       0.00000101 Ry

[...]

     iteration # 36     ecut=    36.75 Ry     beta=0.10
     Davidson diagonalization with overlap
     ethr =  6.22E-10,  avg # of iterations =  4.0

[...]

     negative rho (up, down):  2.798E-01 2.799E-01

[...]

     Adding external electric field

     Computed dipole along edir(3) :
        Dipole                0.0462 Ry au,          0.1174 Debye
        Dipole field          0.0001 Ry au

        Potential amp.       -0.0099 Ry
        Total length         45.9841 bohr

     Magnetic moment per site:
     atom:    1    charge:    1.1045    magn:    0.0004    constr:    0.0000
     atom:    2    charge:    1.1045    magn:    0.0004    constr:    0.0000
     atom:    3    charge:    1.1045    magn:    0.0004    constr:    0.0000
     atom:    4    charge:    9.3379    magn:   -0.0054    constr:    0.0000
     atom:    5    charge:    1.1143    magn:   -0.0001    constr:    0.0000
     atom:    6    charge:    1.1143    magn:   -0.0001    constr:    0.0000
     atom:    7    charge:    1.1143    magn:   -0.0001    constr:    0.0000
     atom:    8    charge:    9.3436    magn:    0.0021    constr:    0.0000
     atom:    9    charge:    1.1078    magn:    0.0007    constr:    0.0000
     atom:   10    charge:    1.1078    magn:    0.0007    constr:    0.0000
     atom:   11    charge:    1.1078    magn:    0.0007    constr:    0.0000
     atom:   12    charge:    9.3467    magn:   -0.0049    constr:    0.0000

     End of self-consistent calculation

 ------ SPIN UP ------------

[...]

 ------ SPIN DOWN ----------

[...]

          k = 0.0549 0.0000 0.0000 ( 20241 PWs)   bands (ev):

[...]

          k =-0.0823-0.1426 0.0000 ( 20276 PWs)   bands (ev):

  -101.5734-101.4976-101.3097 -61.9594 -61.9236 -61.9233 -61.9070 -61.8559
   -61.8557 -61.6898 -61.6849 -61.6846 -47.6171 -47.6047 -47.5637 -47.5553
   -47.5195 -47.5169 -47.2426 -47.2039 -47.1626 -25.9734 -25.9162 -25.8832
   -25.7894 -25.7761 -25.7116 -25.6686 -25.6664 -25.6362 -25.6182 -25.5978
   -25.5599 -25.5512 -25.5062 -25.4960 -25.4635 -25.4435 -25.2651 -25.1828
   -25.1814 -25.1432 -25.1099 -25.0536 -25.0509 -25.0267 -25.0043 -24.8227
    -2.4314  -2.3440  -1.3976  -1.2714  -0.9637  -0.7242  -0.6451  -0.5773
    -0.5686  -0.5106  -0.3273  -0.2579  -0.2478  -0.1381  -0.1248  -0.0992
     0.0620   0.0788   0.1309   0.1971   0.2040   0.2448   0.4172   0.4531
     0.6416   0.7631   0.9515   1.0357   1.1742   1.2014   1.2579   1.2704
     1.3983   1.5521   1.6396   1.6717   1.7097   1.8657   1.8661   2.1083
     2.1480   2.5501   2.6687   2.7122   2.7736   2.8641   2.9121   3.0129
     3.2808   3.9756   4.0190   4.1348   4.1441   4.2433   4.3433   4.4355
     4.5607   4.5841   4.8002   4.8260   4.9719   5.3248   5.3265

     the Fermi energy is     1.5474 ev

!    total energy              =   -1930.91260841 Ry
     Harris-Foulkes estimate   =   -1930.91260615 Ry
     estimated scf accuracy    <       0.00000078 Ry

     The total energy is the sum of the following terms:

     one-electron contribution =  -12735.98655876 Ry
     hartree contribution      =    6366.69961722 Ry
     xc contribution           =    -275.90968289 Ry
     ewald contribution        =    4714.39197832 Ry
     electric field correction =       0.00000498 Ry
     smearing contrib. (-TS)   =      -0.10796728 Ry

     total magnetization       =     0.15 Bohr mag/cell
     absolute magnetization    =     0.22 Bohr mag/cell

     convergence has been achieved in  36 iterations

 BEEF-vdW xc energy contributions
           1 :   -239.108737168967
           2 :    216.651913132977
           3 :   -178.742510112289
           4 :    136.087145909609
           5 :   -98.4965291975298
           6 :    71.3674105072456
           7 :   -54.7554628168226
           8 :    44.9910977279840
           9 :   -37.5461439609907
          10 :    29.4827041210191
          11 :   -20.3939274638362
          12 :    11.7417430846547
          13 :   -5.34894306404817
          14 :    2.06849459234638
          15 :   -1.34547426395471
          16 :    1.73344243699700
          17 :   -1.86645479765718
          18 :    1.19702044625325
          19 :  -8.389691040571279E-002
          20 :  -0.706503544360885
          21 :   0.649556214991208
          22 :   0.186016855511525
          23 :   -1.25911200114575
          24 :    1.97482113644804
          25 :   -2.06779119948317
          26 :    1.70065433579538
          27 :   -1.26835489336310
          28 :    1.08986514580448
          29 :   -1.21418237573556
          30 :    1.44718327602800
          31 :   -24.4573925310166
          32 :   -17.8610078653638

     Forces acting on atoms (Ry/au):

     negative rho (up, down):  2.798E-01 2.799E-01
     atom    1 type  1   force =     0.00000012    0.02533764   -0.00394852
     atom    2 type  1   force =     0.02194315   -0.01266875   -0.00394855
     atom    3 type  1   force =    -0.02194313   -0.01266888   -0.00394864
     atom    4 type  2   force =     0.00000026    0.00000025    0.03250803
     atom    5 type  1   force =     0.00000002   -0.00415612   -0.00431332
     atom    6 type  1   force =    -0.00359936    0.00207816   -0.00431345
     atom    7 type  1   force =     0.00359933    0.00207806   -0.00431330
     atom    8 type  2   force =    -0.00000002    0.00000016   -0.00430256
     atom    9 type  1   force =    -0.00000012   -0.00083284   -0.00095933
     atom   10 type  1   force =    -0.00072160    0.00041631   -0.00095932
     atom   11 type  1   force =     0.00072147    0.00041640   -0.00095940
     atom   12 type  2   force =    -0.00000012   -0.00000039   -0.00054164

     Total force =     0.056221     Total SCF correction =     0.003207

     entering subroutine stress ...

     negative rho (up, down):  2.798E-01 2.799E-01
          total   stress  (Ry/bohr**3)                   (kbar)     P=  -19.72
  -0.00015294   0.00000000  -0.00000000        -22.50      0.00     -0.00
   0.00000000  -0.00015294  -0.00000000          0.00    -22.50     -0.00
  -0.00000000  -0.00000000  -0.00009622         -0.00     -0.00    -14.15

 !ASE

     Writing output data file calc.save

     General routines

     Parallel routines

   This run was terminated on:   4:16:20   3Jan2019

   JOB DONE.
Job  /afs/slac/g/suncat/bin/suncat-tsmpirun -x LD_LIBRARY_PATH -wdir /scratch/qe649553_hxFwv pw.x -in pw.inp

TID   HOST_NAME   COMMAND_LINE            STATUS            TERMINATION_TIME
00000 suncat0159 pw.x -in pw.inp   Done                     01/03/2019 04:16:20
00001 suncat0159 pw.x -in pw.inp   Done                     01/03/2019 04:16:20
00002 suncat0159 pw.x -in pw.inp   Done                     01/03/2019 04:16:20
00003 suncat0159 pw.x -in pw.inp   Done                     01/03/2019 04:16:20
00004 suncat0159 pw.x -in pw.inp   Done                     01/03/2019 04:16:20
00005 suncat0159 pw.x -in pw.inp   Done                     01/03/2019 04:16:20
00006 suncat0159 pw.x -in pw.inp   Done                     01/03/2019 04:16:20
00007 suncat0159 pw.x -in pw.inp   Done                     01/03/2019 04:16:20
00008 suncat0155 pw.x -in pw.inp   Done                     01/03/2019 04:16:20
00009 suncat0155 pw.x -in pw.inp   Done                     01/03/2019 04:16:20
00010 suncat0155 pw.x -in pw.inp   Done                     01/03/2019 04:16:20
00011 suncat0155 pw.x -in pw.inp   Done                     01/03/2019 04:16:20
00012 suncat0155 pw.x -in pw.inp   Done                     01/03/2019 04:16:20
00013 suncat0155 pw.x -in pw.inp   Done                     01/03/2019 04:16:20
00014 suncat0155 pw.x -in pw.inp   Done                     01/03/2019 04:16:20
00015 suncat0155 pw.x -in pw.inp   Done                     01/03/2019 04:16:20
00016 suncat0106 pw.x -in pw.inp   Done                     01/03/2019 04:16:20
00017 suncat0106 pw.x -in pw.inp   Done                     01/03/2019 04:16:20
00018 suncat0106 pw.x -in pw.inp   Done                     01/03/2019 04:16:20
00019 suncat0106 pw.x -in pw.inp   Done                     01/03/2019 04:16:20
00020 suncat0106 pw.x -in pw.inp   Done                     01/03/2019 04:16:20
00021 suncat0106 pw.x -in pw.inp   Done                     01/03/2019 04:16:20
00022 suncat0106 pw.x -in pw.inp   Done                     01/03/2019 04:16:20
00023 suncat0106 pw.x -in pw.inp   Done                     01/03/2019 04:16:20
00024 suncat0105 pw.x -in pw.inp   Done                     01/03/2019 04:16:20
00025 suncat0105 pw.x -in pw.inp   Done                     01/03/2019 04:16:20
00026 suncat0105 pw.x -in pw.inp   Done                     01/03/2019 04:16:20
00027 suncat0105 pw.x -in pw.inp   Done                     01/03/2019 04:16:20
00028 suncat0105 pw.x -in pw.inp   Done                     01/03/2019 04:16:20
00029 suncat0105 pw.x -in pw.inp   Done                     01/03/2019 04:16:20
00030 suncat0105 pw.x -in pw.inp   Done                     01/03/2019 04:16:20
00031 suncat0105 pw.x -in pw.inp   Done                     01/03/2019 04:16:20
00032 suncat0277 pw.x -in pw.inp   Done                     01/03/2019 04:16:20
00033 suncat0277 pw.x -in pw.inp   Done                     01/03/2019 04:16:20
00034 suncat0277 pw.x -in pw.inp   Done                     01/03/2019 04:16:20
00035 suncat0277 pw.x -in pw.inp   Done                     01/03/2019 04:16:20
00036 suncat0277 pw.x -in pw.inp   Done                     01/03/2019 04:16:20
00037 suncat0277 pw.x -in pw.inp   Done                     01/03/2019 04:16:20
00038 suncat0277 pw.x -in pw.inp   Done                     01/03/2019 04:16:20
00039 suncat0277 pw.x -in pw.inp   Done                     01/03/2019 04:16:20
00040 suncat0276 pw.x -in pw.inp   Done                     01/03/2019 04:16:20
00041 suncat0276 pw.x -in pw.inp   Done                     01/03/2019 04:16:20
00042 suncat0276 pw.x -in pw.inp   Done                     01/03/2019 04:16:20
00043 suncat0276 pw.x -in pw.inp   Done                     01/03/2019 04:16:20
00044 suncat0276 pw.x -in pw.inp   Done                     01/03/2019 04:16:20
00045 suncat0276 pw.x -in pw.inp   Done                     01/03/2019 04:16:20
00046 suncat0276 pw.x -in pw.inp   Done                     01/03/2019 04:16:20
00047 suncat0276 pw.x -in pw.inp   Done                     01/03/2019 04:16:20
00048 suncat0217 pw.x -in pw.inp   Done                     01/03/2019 04:16:20
00049 suncat0217 pw.x -in pw.inp   Done                     01/03/2019 04:16:20
00050 suncat0217 pw.x -in pw.inp   Done                     01/03/2019 04:16:20
00051 suncat0217 pw.x -in pw.inp   Done                     01/03/2019 04:16:20
00052 suncat0217 pw.x -in pw.inp   Done                     01/03/2019 04:16:20
00053 suncat0217 pw.x -in pw.inp   Done                     01/03/2019 04:16:20
00054 suncat0217 pw.x -in pw.inp   Done                     01/03/2019 04:16:20
00055 suncat0217 pw.x -in pw.inp   Done                     01/03/2019 04:16:20
00056 suncat0216 pw.x -in pw.inp   Done                     01/03/2019 04:16:20
00057 suncat0216 pw.x -in pw.inp   Done                     01/03/2019 04:16:20
00058 suncat0216 pw.x -in pw.inp   Done                     01/03/2019 04:16:20
00059 suncat0216 pw.x -in pw.inp   Done                     01/03/2019 04:16:20
00060 suncat0216 pw.x -in pw.inp   Done                     01/03/2019 04:16:20
00061 suncat0216 pw.x -in pw.inp   Done                     01/03/2019 04:16:20
00062 suncat0216 pw.x -in pw.inp   Done                     01/03/2019 04:16:20
00063 suncat0216 pw.x -in pw.inp   Done                     01/03/2019 04:16:20