     Program PWSCF v.5.1rc2 (svn rev. 11289) starts on 30Dec2018 at  0: 3:26

     Current dimensions of program PWSCF are:
     Max number of different atomic species (ntypx) = 10
     Max number of k-points (npk) =  40000
     Max angular momentum in pseudopotentials (lmaxx) =  3
     Presently stress not available with electric field

     IMPORTANT: XC functional enforced from input :
     Exchange-correlation      = BEEF-VDW ( 1  4 27 13 2)
     Any further DFT definition will be discarded
     Please, verify this is what you really want

     Subspace diagonalization in iterative solution of the eigenvalue problem:
     a serial algorithm will be used

     bravais-lattice index     =            0
     lattice parameter (alat)  =       1.8897  a.u.
     unit-cell volume          =    5866.8725 (a.u.)^3
     number of atoms/cell      =           12
     number of atomic types    =            2
     number of electrons       =       117.00
     number of Kohn-Sham states=           88
     kinetic-energy cutoff     =      36.7493  Ry
     charge density cutoff     =     367.4932  Ry
     convergence threshold     =      1.0E-06
     mixing beta               =       0.1000
     number of iterations used =           10  plain     mixing
     Exchange-correlation      = BEEF-VDW ( 1  4 27 13 2)
     nstep                     =           50

     celldm(1)=   1.889726  celldm(2)=   0.000000  celldm(3)=   0.000000
     celldm(4)=   0.000000  celldm(5)=   0.000000  celldm(6)=   0.000000

     crystal axes: (cart. coord. in units of alat)
               a(1) = (   6.316900   0.000000   0.000000 )
               a(2) = (  -3.158450   5.470596   0.000000 )
               a(3) = (   0.000000   0.000000  25.157727 )

     reciprocal axes: (cart. coord. in units 2 pi/alat)
               b(1) = (  0.158305  0.091398  0.000000 )
               b(2) = (  0.000000  0.182795  0.000000 )
               b(3) = (  0.000000  0.000000  0.039749 )

     PseudoPot. # 1 for Cd read from file:
     /afs/slac.stanford.edu/u/if/mamunm/psp/gbrv1.5pbe/Cd.UPF
     MD5 check sum: 17164a7926edb8e0dc231208abae86a6
     Pseudo is Ultrasoft + core correction, Zval = 12.0
     Generated by new atomic code, or converted to UPF format
     Using radial grid of  889 points,  6 beta functions with:
                l(1) =   0
                l(2) =   0
                l(3) =   1
                l(4) =   1
                l(5) =   2
                l(6) =   2
     Q(r) pseudized with  6 coefficients,  rinner =    1.000   1.000   1.000
                                                       1.000   1.000

     PseudoPot. # 2 for Al read from file:
     /afs/slac.stanford.edu/u/if/mamunm/psp/gbrv1.5pbe/Al.UPF
     MD5 check sum: 0a6289f5291fc8f409219462bc851e1f
     Pseudo is Ultrasoft + core correction, Zval =  3.0
     Generated by new atomic code, or converted to UPF format
     Using radial grid of  893 points,  3 beta functions with:
                l(1) =   0
                l(2) =   1
                l(3) =   2
     Q(r) pseudized with  8 coefficients,  rinner =    0.900   0.900   0.900
                                                       0.900   0.900

     vdW kernel table read from file vdW_kernel_table
     MD5 check sum: 095c7af220d748ca6e76c0b4c6cfb241

     atomic species   valence    mass     pseudopotential
        Cd1           12.00   112.41400     Cd( 1.00)
        Al1            3.00    26.98154     Al( 1.00)

     No symmetry found

   Cartesian axes

     site n.     atom                  positions (alat units)
         1           Cd1 tau(   1) = (   0.0000000   0.0000000  10.0000000  )
         2           Cd1 tau(   2) = (  -1.5792250   2.7352980  10.0000000  )
         3           Cd1 tau(   3) = (   1.5792250   2.7352980  10.0000000  )
         4           Al1 tau(   4) = (   3.1584500   0.0000000  10.0000000  )
         5           Cd1 tau(   5) = (   3.1584500   1.8235320  12.5788637  )
         6           Cd1 tau(   6) = (   1.5792250   4.5588300  12.5788637  )
         7           Cd1 tau(   7) = (  -1.5792250   4.5588300  12.5788637  )
         8           Al1 tau(   8) = (   0.0000000   1.8235320  12.5788637  )
         9           Cd1 tau(   9) = (  -0.0000000   3.6470640  15.1577273  )
        10           Cd1 tau(  10) = (   1.5792250   0.9117660  15.1577273  )
        11           Cd1 tau(  11) = (   4.7376751   0.9117660  15.1577273  )
        12           Al1 tau(  12) = (   3.1584500   3.6470640  15.1577273  )

     number of k points=    20  Fermi-Dirac smearing, width (Ry)=  0.0110
                       cart. coord. in units 2pi/alat
        k(    1) = (   0.0000000   0.0000000   0.0000000), wk =   0.0555556
        k(    2) = (   0.0000000   0.0304659   0.0000000), wk =   0.1111111
        k(    3) = (   0.0000000   0.0609318   0.0000000), wk =   0.1111111
        k(    4) = (   0.0000000  -0.0913977   0.0000000), wk =   0.0555556
        k(    5) = (   0.0263842   0.0152330   0.0000000), wk =   0.1111111
        k(    6) = (   0.0263842   0.0456989   0.0000000), wk =   0.1111111
        k(    7) = (   0.0263842   0.0761648   0.0000000), wk =   0.1111111
        k(    8) = (   0.0263842  -0.0761648   0.0000000), wk =   0.1111111
        k(    9) = (   0.0263842  -0.0456989   0.0000000), wk =   0.1111111
        k(   10) = (   0.0263842  -0.0152330   0.0000000), wk =   0.1111111
        k(   11) = (   0.0527685   0.0304659   0.0000000), wk =   0.1111111
        k(   12) = (   0.0527685   0.0609318   0.0000000), wk =   0.1111111
        k(   13) = (   0.0527685   0.0913977   0.0000000), wk =   0.1111111
        k(   14) = (   0.0527685  -0.0609318   0.0000000), wk =   0.1111111
        k(   15) = (   0.0527685  -0.0304659   0.0000000), wk =   0.1111111
        k(   16) = (   0.0527685   0.0000000   0.0000000), wk =   0.1111111
        k(   17) = (  -0.0791527  -0.0456989   0.0000000), wk =   0.0555556
        k(   18) = (  -0.0791527  -0.0152330   0.0000000), wk =   0.1111111
        k(   19) = (  -0.0791527   0.0152330   0.0000000), wk =   0.1111111
        k(   20) = (  -0.0791527  -0.1370966   0.0000000), wk =   0.0555556

     Largest allocated arrays     est. size (Mb)     dimensions
     Largest temporary arrays     est. size (Mb)     dimensions

     Initial potential from superposition of free atoms
     Check: negative starting charge=   -0.195955

     starting charge  112.49223, renormalised to  117.00000

     negative rho (up, down):  2.038E-01 0.000E+00

     *
     * You are using vdW-DF for exchange-correlation in this calculation.
     * Please cite the following three references that made this development
     * possible:
     *
     *   M. Dion, H. Rydberg, E. Schroder, D. C. Langreth, and
     *   B. I. Lundqvist, Phys. Rev. Lett. 92, 246401 (2004).
     *
     *   T. Thonhauser, V. R. Cooper, S. Li, A. Puzder, P. Hyldgaard, and
     *   D. C. Langreth, Phys. Rev. B 76, 125112 (2007).
     *
     *   G. Roman-Perez and J. M. Soler, Phys. Rev. Lett. 103, 096102 (2009).
     *
     *
     * If you are using vdW-DF2, please also cite:
     *
     *   K. Lee, E. D. Murray, L. Kong, B. I. Lundqvist, and
     *   D. C. Langreth, Phys. Rev. B 82, 081101(R) (2010).
     *
     *
     * If you are calculating the stress with vdW-DF, please also cite:
     *
     *   R. Sabatini, E. Kucukbenli, B. Kolb, T. Thonhauser, and
     *   S. de Gironcoli, J. Phys.: Condens. Matter 24, 424209 (2012).
     *

     Carrying out vdW-DF run using the following parameters:

     Nqs =      20    Nr_points =    1024   r_max =   100.000
     q_mesh =
               0.00001000     0.04494208     0.09755937     0.15916263
               0.23128650     0.31572767     0.41458969     0.53033537
               0.66584808     0.82450364     1.01025438     1.22772762
               1.48234092     1.78043706     2.12944203     2.53805004
               3.01644009     3.57652955     4.23227104     5.00000000

     Gradients computed in reciprocal space

     Adding external electric field

     Computed dipole along edir(3) :
        Dipole               -0.0000 Ry au,         -0.0000 Debye
        Dipole field         -0.0000 Ry au

        Potential amp.        0.0000 Ry
        Total length         46.3527 bohr

     Starting wfc are   93 randomized atomic wfcs

     Self-consistent Calculation

     iteration #  1     ecut=    36.75 Ry     beta=0.10
     Davidson diagonalization with overlap
     ethr =  1.00E-02,  avg # of iterations =  8.2

     Threshold (ethr) on eigenvalues was too large:
     Diagonalizing with lowered threshold

     Davidson diagonalization with overlap
     ethr =  8.69E-04,  avg # of iterations =  2.6

[...]

     total energy              =   -1065.41016005 Ry
     Harris-Foulkes estimate   =   -1065.57060411 Ry
     estimated scf accuracy    <       0.98624855 Ry

[...]

     End of self-consistent calculation

          k = 0.0000 0.0000 0.0000 ( 22099 PWs)   bands (ev):

    -9.6139  -9.5575  -9.4956  -9.4750  -9.4750  -9.4248  -9.3927  -9.2980
    -9.2980  -9.2526  -9.2525  -9.2506  -9.2506  -9.1615  -9.1524  -9.1358
    -9.1357  -9.0638  -8.9825  -8.9825  -8.9299  -8.9040  -8.8538  -8.8537
    -8.7987  -8.7986  -8.7625  -8.7625  -8.7216  -8.7207  -8.7206  -8.6639
    -8.6639  -8.6368  -8.6368  -8.5987  -8.5987  -8.5255  -8.5255  -8.5018
    -8.4267  -8.4158  -8.4158  -8.3217  -8.3137  -8.2332  -6.6491  -4.2133
    -2.7713  -2.7256  -2.6022  -2.6022  -2.3319  -2.3319  -1.5621  -1.4635
    -1.4634  -1.1395  -1.1105  -0.6515  -0.6515   0.5608   0.8745   0.9357
     0.9357   1.3368   1.3368   1.8241   3.1273   3.5386   3.6677   3.8949
     4.3160   4.3160   4.3699   4.3699   4.5028   4.7867   5.9206   5.9207
     6.2720   6.2911   6.6147   6.9632   6.9632   6.9637   6.9638   7.2276

[...]

          k =-0.0792-0.0457 0.0000 ( 22000 PWs)   bands (ev):

[...]

     the Fermi energy is    -0.0450 ev

!    total energy              =   -1065.25648299 Ry
     Harris-Foulkes estimate   =   -1065.25650017 Ry
     estimated scf accuracy    <       0.00000053 Ry

     The total energy is the sum of the following terms:

     one-electron contribution =   -5736.50023613 Ry
     hartree contribution      =    2937.75850775 Ry
     xc contribution           =    -380.04109724 Ry
     ewald contribution        =    2113.55413100 Ry
     electric field correction =       0.00000000 Ry
     smearing contrib. (-TS)   =      -0.02778837 Ry

     convergence has been achieved in  13 iterations

 BEEF-vdW xc energy contributions
           1 :   -332.272701659734
           2 :    303.211332378826
           3 :   -254.452996772311
           4 :    200.189560554983
           5 :   -153.201947376107
           6 :    120.232849846041
           7 :   -100.934482187847
           8 :    90.2438445350768
           9 :   -82.2944724071253
          10 :    73.5369845519307
          11 :   -63.6719567985194
          12 :    54.5079962470115
          13 :   -47.9709793260726
          14 :    44.6427690859091
          15 :   -43.5380263277050
          16 :    42.9271131612840
          17 :   -41.4577003834930
          18 :    38.8372895007323
          19 :   -35.7623096785241
[...]
               b(3) = (  0.000000  0.000000  0.039749 )

     PseudoPot. # 1 for Cd read from file:
     /afs/slac.stanford.edu/u/if/mamunm/psp/gbrv1.5pbe/Cd.UPF
     MD5 check sum: 17164a7926edb8e0dc231208abae86a6
     Pseudo is Ultrasoft + core correction, Zval = 12.0
     Generated by new atomic code, or converted to UPF format
     Using radial grid of  889 points,  6 beta functions with:
                l(1) =   0
                l(2) =   0
                l(3) =   1
                l(4) =   1
                l(5) =   2
                l(6) =   2
     Q(r) pseudized with  6 coefficients,  rinner =    1.000   1.000   1.000
                                                       1.000   1.000

     PseudoPot. # 2 for Al read from file:
     /afs/slac.stanford.edu/u/if/mamunm/psp/gbrv1.5pbe/Al.UPF
     MD5 check sum: 0a6289f5291fc8f409219462bc851e1f
     Pseudo is Ultrasoft + core correction, Zval =  3.0
     Generated by new atomic code, or converted to UPF format
     Using radial grid of  893 points,  3 beta functions with:
                l(1) =   0
                l(2) =   1
                l(3) =   2
     Q(r) pseudized with  8 coefficients,  rinner =    0.900   0.900   0.900
                                                       0.900   0.900

     vdW kernel table read from file vdW_kernel_table
     MD5 check sum: 095c7af220d748ca6e76c0b4c6cfb241

     atomic species   valence    mass     pseudopotential
        Cd1           12.00   112.41400     Cd( 1.00)
        Al1            3.00    26.98154     Al( 1.00)

     No symmetry found

   Cartesian axes

     site n.     atom                  positions (alat units)
         1           Cd1 tau(   1) = (   0.0000000   0.0000000  10.0000000  )
         2           Cd1 tau(   2) = (  -1.5792250   2.7352980  10.0000000  )
         3           Cd1 tau(   3) = (   1.5792250   2.7352980  10.0000000  )
         4           Al1 tau(   4) = (   3.1584500   0.0000000  10.0000000  )
         5           Cd1 tau(   5) = (   3.1584500   1.8235320  12.5788637  )
         6           Cd1 tau(   6) = (   1.5792250   4.5588300  12.5788637  )
         7           Cd1 tau(   7) = (  -1.5792250   4.5588300  12.5788637  )
         8           Al1 tau(   8) = (   0.0000000   1.8235320  12.5788637  )
         9           Cd1 tau(   9) = (  -0.0000583   3.6327427  15.3436038  )
        10           Cd1 tau(  10) = (   1.5669296   0.9187898  15.3435533  )
        11           Cd1 tau(  11) = (   4.7501462   0.9187659  15.3436957  )
        12           Al1 tau(  12) = (   3.1584456   3.6469803  15.0532859  )

     number of k points=    20  Fermi-Dirac smearing, width (Ry)=  0.0110
                       cart. coord. in units 2pi/alat
        k(    1) = (   0.0000000   0.0000000   0.0000000), wk =   0.0555556
        k(    2) = (   0.0000000   0.0304659   0.0000000), wk =   0.1111111
        k(    3) = (   0.0000000   0.0609318   0.0000000), wk =   0.1111111
        k(    4) = (   0.0000000  -0.0913977   0.0000000), wk =   0.0555556
        k(    5) = (   0.0263842   0.0152330   0.0000000), wk =   0.1111111
        k(    6) = (   0.0263842   0.0456989   0.0000000), wk =   0.1111111
        k(    7) = (   0.0263842   0.0761648   0.0000000), wk =   0.1111111
        k(    8) = (   0.0263842  -0.0761648   0.0000000), wk =   0.1111111
        k(    9) = (   0.0263842  -0.0456989   0.0000000), wk =   0.1111111
        k(   10) = (   0.0263842  -0.0152330   0.0000000), wk =   0.1111111
        k(   11) = (   0.0527685   0.0304659   0.0000000), wk =   0.1111111
        k(   12) = (   0.0527685   0.0609318   0.0000000), wk =   0.1111111
        k(   13) = (   0.0527685   0.0913977   0.0000000), wk =   0.1111111
        k(   14) = (   0.0527685  -0.0609318   0.0000000), wk =   0.1111111
        k(   15) = (   0.0527685  -0.0304659   0.0000000), wk =   0.1111111
        k(   16) = (   0.0527685   0.0000000   0.0000000), wk =   0.1111111
        k(   17) = (  -0.0791527  -0.0456989   0.0000000), wk =   0.0555556
        k(   18) = (  -0.0791527  -0.0152330   0.0000000), wk =   0.1111111
        k(   19) = (  -0.0791527   0.0152330   0.0000000), wk =   0.1111111
        k(   20) = (  -0.0791527  -0.1370966   0.0000000), wk =   0.0555556

     Largest allocated arrays     est. size (Mb)     dimensions
     Largest temporary arrays     est. size (Mb)     dimensions

     Initial potential from superposition of free atoms
     Check: negative starting charge=   -0.197633

     starting charge  112.49223, renormalised to  117.00000

[...]

     *
     * You are using vdW-DF for exchange-correlation in this calculation.
     * Please cite the following three references that made this development
     * possible:
     *
     *   M. Dion, H. Rydberg, E. Schroder, D. C. Langreth, and
     *   B. I. Lundqvist, Phys. Rev. Lett. 92, 246401 (2004).
     *
     *   T. Thonhauser, V. R. Cooper, S. Li, A. Puzder, P. Hyldgaard, and
     *   D. C. Langreth, Phys. Rev. B 76, 125112 (2007).
     *
     *   G. Roman-Perez and J. M. Soler, Phys. Rev. Lett. 103, 096102 (2009).
     *
     *
     * If you are using vdW-DF2, please also cite:
     *
     *   K. Lee, E. D. Murray, L. Kong, B. I. Lundqvist, and
     *   D. C. Langreth, Phys. Rev. B 82, 081101(R) (2010).
     *
     *
     * If you are calculating the stress with vdW-DF, please also cite:
     *
     *   R. Sabatini, E. Kucukbenli, B. Kolb, T. Thonhauser, and
     *   S. de Gironcoli, J. Phys.: Condens. Matter 24, 424209 (2012).
     *

     Carrying out vdW-DF run using the following parameters:

     Nqs =      20    Nr_points =    1024   r_max =   100.000
     q_mesh =
               0.00001000     0.04494208     0.09755937     0.15916263
               0.23128650     0.31572767     0.41458969     0.53033537
               0.66584808     0.82450364     1.01025438     1.22772762
               1.48234092     1.78043706     2.12944203     2.53805004
               3.01644009     3.57652955     4.23227104     5.00000000

     Gradients computed in reciprocal space

[...]

     Starting wfc are   93 randomized atomic wfcs

     Self-consistent Calculation

[...]

     Threshold (ethr) on eigenvalues was too large:
     Diagonalizing with lowered threshold

     Davidson diagonalization with overlap
     ethr =  8.71E-04,  avg # of iterations =  2.9

[...]

     total energy              =   -1065.26234425 Ry
     Harris-Foulkes estimate   =   -1065.26234936 Ry
     estimated scf accuracy    <       0.00000131 Ry

     iteration # 13     ecut=    36.75 Ry     beta=0.10
     Davidson diagonalization with overlap
     ethr =  1.12E-09,  avg # of iterations =  4.2

[...]

     negative rho (up, down):  2.040E-01 0.000E+00

     Adding external electric field

     Computed dipole along edir(3) :
        Dipole                0.0113 Ry au,          0.0286 Debye
        Dipole field          0.0000 Ry au

        Potential amp.       -0.0022 Ry
        Total length         46.3527 bohr

     End of self-consistent calculation

[...]

          k = 0.0528 0.0000 0.0000 ( 22081 PWs)   bands (ev):

[...]

          k =-0.0792-0.1371 0.0000 ( 22000 PWs)   bands (ev):

    -9.4042  -9.3312  -9.3068  -9.2529  -9.2209  -9.1881  -9.1708  -9.1703
    -9.1347  -9.1325  -9.1109  -9.1080  -9.0932  -9.0388  -8.9945  -8.9845
    -8.9305  -8.9295  -8.8947  -8.8871  -8.8650  -8.8634  -8.8368  -8.8258
    -8.8256  -8.8226  -8.7991  -8.7849  -8.7758  -8.7640  -8.7631  -8.7542
    -8.7531  -8.7351  -8.7185  -8.7109  -8.7004  -8.6603  -8.6547  -8.6192
    -8.5901  -8.5780  -8.5205  -8.4271  -8.3705  -6.7682  -6.6469  -5.3624
    -5.0939  -4.0106  -3.6237  -3.0536  -2.9943  -2.4625  -2.2970  -0.6627
    -0.2731   0.0816   0.0989   1.2912   1.5576   1.5590   1.7464   2.1925
     2.5782   2.6839   2.7710   3.0628   3.0680   3.3607   3.3731   4.0861
     4.1640   4.2846   4.3465   4.7195   4.8506   4.9628   5.0045   5.0190
     5.1134   5.2749   5.3856   5.6287   5.6483   5.8510   5.9610   6.0206

     the Fermi energy is    -0.0259 ev

!    total energy              =   -1065.26232411 Ry
     Harris-Foulkes estimate   =   -1065.26234451 Ry
     estimated scf accuracy    <       0.00000090 Ry

     The total energy is the sum of the following terms:

     one-electron contribution =   -5606.45369490 Ry
     hartree contribution      =    2872.87796740 Ry
     xc contribution           =    -379.98442461 Ry
     ewald contribution        =    2048.32576133 Ry
     electric field correction =       0.00000027 Ry
     smearing contrib. (-TS)   =      -0.02793361 Ry

     convergence has been achieved in  13 iterations

 BEEF-vdW xc energy contributions
           1 :   -332.242204544310
           2 :    303.127926063280
           3 :   -254.312457713968
           4 :    200.042680221282
           5 :   -153.113947127188
           6 :    120.230515847824
           7 :   -100.983650423693
           8 :    90.2743883156247
           9 :   -82.2525906066210
          10 :    73.4246930116841
          11 :   -63.5444999968826
          12 :    54.4325359143241
          13 :   -47.9784589531962
          14 :    44.7088838389258
          15 :   -43.6063523153990
          16 :    42.9544781956738
          17 :   -41.4462703463547
          18 :    38.8296147872881
          19 :   -35.8039626068909
          20 :    33.3749816778603
          21 :   -32.1455023411380
          22 :    31.9750734140768
          23 :   -32.1559327554032
          24 :    31.9197435716995
          25 :   -30.9129037061675
          26 :    29.3461400456500
          27 :   -27.7688293190948
          28 :    26.6669768839103
          29 :   -26.1731849027540
          30 :    26.0577485328216
          31 :   -30.5222703310083
          32 :   -22.2211850950496

     Forces acting on atoms (Ry/au):

     negative rho (up, down):  2.040E-01 0.000E+00
     atom    1 type  1   force =    -0.00000205    0.00236012   -0.00907857
     atom    2 type  1   force =     0.00204168   -0.00117929   -0.00909243
     atom    3 type  1   force =    -0.00204330   -0.00117175   -0.00909062
     atom    4 type  2   force =     0.00000093    0.00000343    0.00530639
     atom    5 type  1   force =     0.00000374   -0.00478419    0.00538822
     atom    6 type  1   force =    -0.00414123    0.00240221    0.00538565
     atom    7 type  1   force =     0.00414324    0.00239365    0.00537844
     atom    8 type  2   force =     0.00000081    0.00000323    0.00436347
     atom    9 type  1   force =    -0.00000182    0.00120808    0.00017609
     atom   10 type  1   force =     0.00105660   -0.00060748    0.00016815
     atom   11 type  1   force =    -0.00105902   -0.00061631    0.00016852
     atom   12 type  2   force =     0.00000043   -0.00001170    0.00092669

     Total force =     0.021741     Total SCF correction =     0.002460
     SCF correction compared to forces is large: reduce conv_thr to get better values

     entering subroutine stress ...

     negative rho (up, down):  2.040E-01 0.000E+00
          total   stress  (Ry/bohr**3)                   (kbar)     P=   -8.97
  -0.00008973   0.00000000  -0.00000000        -13.20      0.00     -0.00
   0.00000000  -0.00008977   0.00000000          0.00    -13.20      0.00
  -0.00000000   0.00000000  -0.00000342         -0.00      0.00     -0.50

 !ASE

     Writing output data file calc.save

     General routines

     Parallel routines

   This run was terminated on:   1:13:25  30Dec2018

   JOB DONE.
Job  /afs/slac/g/suncat/bin/suncat-tsmpirun -x LD_LIBRARY_PATH -wdir /scratch/qe648388_qcRiQ pw.x -in pw.inp

TID   HOST_NAME   COMMAND_LINE            STATUS            TERMINATION_TIME
00000 suncat0046 pw.x -in pw.inp   Done                     12/30/2018 01:13:25
00001 suncat0046 pw.x -in pw.inp   Done                     12/30/2018 01:13:25
00002 suncat0046 pw.x -in pw.inp   Done                     12/30/2018 01:13:25
00003 suncat0046 pw.x -in pw.inp   Done                     12/30/2018 01:13:25
00004 suncat0046 pw.x -in pw.inp   Done                     12/30/2018 01:13:25
00005 suncat0046 pw.x -in pw.inp   Done                     12/30/2018 01:13:25
00006 suncat0046 pw.x -in pw.inp   Done                     12/30/2018 01:13:25
00007 suncat0046 pw.x -in pw.inp   Done                     12/30/2018 01:13:25
00008 suncat0044 pw.x -in pw.inp   Done                     12/30/2018 01:13:25
00009 suncat0044 pw.x -in pw.inp   Done                     12/30/2018 01:13:25
00010 suncat0044 pw.x -in pw.inp   Done                     12/30/2018 01:13:25
00011 suncat0044 pw.x -in pw.inp   Done                     12/30/2018 01:13:25
00012 suncat0044 pw.x -in pw.inp   Done                     12/30/2018 01:13:25
00013 suncat0044 pw.x -in pw.inp   Done                     12/30/2018 01:13:25
00014 suncat0044 pw.x -in pw.inp   Done                     12/30/2018 01:13:25
00015 suncat0044 pw.x -in pw.inp   Done                     12/30/2018 01:13:25
00016 suncat0043 pw.x -in pw.inp   Done                     12/30/2018 01:13:25
00017 suncat0043 pw.x -in pw.inp   Done                     12/30/2018 01:13:25
00018 suncat0043 pw.x -in pw.inp   Done                     12/30/2018 01:13:25
00019 suncat0043 pw.x -in pw.inp   Done                     12/30/2018 01:13:25
00020 suncat0043 pw.x -in pw.inp   Done                     12/30/2018 01:13:25
00021 suncat0043 pw.x -in pw.inp   Done                     12/30/2018 01:13:25
00022 suncat0043 pw.x -in pw.inp   Done                     12/30/2018 01:13:25
00023 suncat0043 pw.x -in pw.inp   Done                     12/30/2018 01:13:25
00024 suncat0025 pw.x -in pw.inp   Done                     12/30/2018 01:13:25
00025 suncat0025 pw.x -in pw.inp   Done                     12/30/2018 01:13:25
00026 suncat0025 pw.x -in pw.inp   Done                     12/30/2018 01:13:25
00027 suncat0025 pw.x -in pw.inp   Done                     12/30/2018 01:13:25
00028 suncat0025 pw.x -in pw.inp   Done                     12/30/2018 01:13:25
00029 suncat0025 pw.x -in pw.inp   Done                     12/30/2018 01:13:25
00030 suncat0025 pw.x -in pw.inp   Done                     12/30/2018 01:13:25
00031 suncat0025 pw.x -in pw.inp   Done                     12/30/2018 01:13:25
00032 suncat0013 pw.x -in pw.inp   Done                     12/30/2018 01:13:25
00033 suncat0013 pw.x -in pw.inp   Done                     12/30/2018 01:13:25
00034 suncat0013 pw.x -in pw.inp   Done                     12/30/2018 01:13:25
00035 suncat0013 pw.x -in pw.inp   Done                     12/30/2018 01:13:25
00036 suncat0013 pw.x -in pw.inp   Done                     12/30/2018 01:13:25
00037 suncat0013 pw.x -in pw.inp   Done                     12/30/2018 01:13:25
00038 suncat0013 pw.x -in pw.inp   Done                     12/30/2018 01:13:25
00039 suncat0013 pw.x -in pw.inp   Done                     12/30/2018 01:13:25
00040 suncat0008 pw.x -in pw.inp   Done                     12/30/2018 01:13:25
00041 suncat0008 pw.x -in pw.inp   Done                     12/30/2018 01:13:25
00042 suncat0008 pw.x -in pw.inp   Done                     12/30/2018 01:13:25
00043 suncat0008 pw.x -in pw.inp   Done                     12/30/2018 01:13:25
00044 suncat0008 pw.x -in pw.inp   Done                     12/30/2018 01:13:25
00045 suncat0008 pw.x -in pw.inp   Done                     12/30/2018 01:13:25
00046 suncat0008 pw.x -in pw.inp   Done                     12/30/2018 01:13:25
00047 suncat0008 pw.x -in pw.inp   Done                     12/30/2018 01:13:25
00048 suncat0178 pw.x -in pw.inp   Done                     12/30/2018 01:13:25
00049 suncat0178 pw.x -in pw.inp   Done                     12/30/2018 01:13:25
00050 suncat0178 pw.x -in pw.inp   Done                     12/30/2018 01:13:25
00051 suncat0178 pw.x -in pw.inp   Done                     12/30/2018 01:13:25
00052 suncat0178 pw.x -in pw.inp   Done                     12/30/2018 01:13:25
00053 suncat0178 pw.x -in pw.inp   Done                     12/30/2018 01:13:25
00054 suncat0178 pw.x -in pw.inp   Done                     12/30/2018 01:13:25
00055 suncat0178 pw.x -in pw.inp   Done                     12/30/2018 01:13:25
00056 suncat0177 pw.x -in pw.inp   Done                     12/30/2018 01:13:25
00057 suncat0177 pw.x -in pw.inp   Done                     12/30/2018 01:13:25
00058 suncat0177 pw.x -in pw.inp   Done                     12/30/2018 01:13:25
00059 suncat0177 pw.x -in pw.inp   Done                     12/30/2018 01:13:25
00060 suncat0177 pw.x -in pw.inp   Done                     12/30/2018 01:13:25
00061 suncat0177 pw.x -in pw.inp   Done                     12/30/2018 01:13:25
00062 suncat0177 pw.x -in pw.inp   Done                     12/30/2018 01:13:25
00063 suncat0177 pw.x -in pw.inp   Done                     12/30/2018 01:13:25