     Program PWSCF v.5.1rc2 (svn rev. 11289) starts on 19Dec2018 at  9:57:20

     Current dimensions of program PWSCF are:
     Max number of different atomic species (ntypx) = 10
     Max number of k-points (npk) =  40000
     Max angular momentum in pseudopotentials (lmaxx) =  3
     Presently stress not available with electric field

     IMPORTANT: XC functional enforced from input :
     Exchange-correlation      = BEEF-VDW ( 1  4 27 13 2)
     Any further DFT definition will be discarded
     Please, verify this is what you really want

     Subspace diagonalization in iterative solution of the eigenvalue problem:
     a serial algorithm will be used

     Found symmetry operation: I + ( -0.5000 -0.5000  0.0000)
     This is a supercell, fractional translations are disabled

     bravais-lattice index     =            0
     lattice parameter (alat)  =       1.8897  a.u.
     unit-cell volume          =    4190.9882 (a.u.)^3
     number of atoms/cell      =           12
     number of atomic types    =            2
     number of electrons       =       174.00
     number of Kohn-Sham states=          117
     kinetic-energy cutoff     =      36.7493  Ry
     charge density cutoff     =     367.4932  Ry
     convergence threshold     =      1.0E-06
     mixing beta               =       0.1000
     number of iterations used =           10  plain     mixing
     Exchange-correlation      = BEEF-VDW ( 1  4 27 13 2)
     nstep                     =           50

     celldm(1)=   1.889726  celldm(2)=   0.000000  celldm(3)=   0.000000
     celldm(4)=   0.000000  celldm(5)=   0.000000  celldm(6)=   0.000000

     crystal axes: (cart. coord. in units of alat)
               a(1) = (   5.213578   0.000000   0.000000 )
               a(2) = (   1.753616   4.909809   0.000000 )
               a(3) = (   0.000000   0.000000  24.261593 )

     reciprocal axes: (cart. coord. in units 2 pi/alat)
               b(1) = (  0.191807 -0.068507  0.000000 )
               b(2) = (  0.000000  0.203674  0.000000 )
               b(3) = (  0.000000  0.000000  0.041217 )

     PseudoPot. # 1 for V  read from file:
     /afs/slac.stanford.edu/u/if/mamunm/psp/gbrv1.5pbe/V.UPF
     MD5 check sum: 22b79981416ebb76fdaf5b1b8640f6fb
     Pseudo is Ultrasoft + core correction, Zval = 13.0
     Generated by new atomic code, or converted to UPF format
     Using radial grid of  853 points,  6 beta functions with:
                l(1) =   0
                l(2) =   0
                l(3) =   1
                l(4) =   1
                l(5) =   2
                l(6) =   2
     Q(r) pseudized with  8 coefficients,  rinner =    1.100   1.100   1.100
                                                       1.100   1.100

     PseudoPot. # 2 for Ru read from file:
     /afs/slac.stanford.edu/u/if/mamunm/psp/gbrv1.5pbe/Ru.UPF
     MD5 check sum: 7158a806dd851261a58e6920c40ebe78
     Pseudo is Ultrasoft + core correction, Zval = 16.0
     Generated by new atomic code, or converted to UPF format
     Using radial grid of  967 points,  6 beta functions with:
                l(1) =   0
                l(2) =   0
                l(3) =   1
                l(4) =   1
                l(5) =   2
                l(6) =   2
     Q(r) pseudized with  8 coefficients,  rinner =    1.300   1.300   1.300
                                                       1.300   1.300

     vdW kernel table read from file vdW_kernel_table
     MD5 check sum: 095c7af220d748ca6e76c0b4c6cfb241

     atomic species   valence    mass     pseudopotential
        V1            13.00    50.94150     V ( 1.00)
        Ru1           16.00   101.07000     Ru( 1.00)

     No symmetry found

   Cartesian axes

     site n.     atom                  positions (alat units)
         1           V1  tau(   1) = (   0.0000000   0.0000000  10.0000000  )
         2           V1  tau(   2) = (   3.4835973   2.4549047  10.0000000  )
         3           Ru1 tau(   3) = (   2.6067891   0.0000000  10.0000000  )
         4           Ru1 tau(   4) = (   0.8768082   2.4549047  10.0000000  )
         5           V1  tau(   5) = (   5.2135783   3.6740291  12.1307963  )
         6           V1  tau(   6) = (   1.7299810   1.2191244  12.1307963  )
         7           Ru1 tau(   7) = (   2.6067891   3.6740291  12.1307963  )
         8           Ru1 tau(   8) = (   4.3367701   1.2191244  12.1307963  )
         9           V1  tau(   9) = (   3.4599620   2.4382488  14.2615926  )
        10           V1  tau(  10) = (   6.9435593   4.8931535  14.2615926  )
        11           Ru1 tau(  11) = (   6.0667511   2.4382488  14.2615926  )
        12           Ru1 tau(  12) = (   4.3367701   4.8931535  14.2615926  )

     number of k points=    20  Fermi-Dirac smearing, width (Ry)=  0.0110
                       cart. coord. in units 2pi/alat
        k(    1) = (   0.0000000   0.0000000   0.0000000), wk =   0.0555556
        k(    2) = (   0.0000000   0.0339456   0.0000000), wk =   0.1111111
        k(    3) = (   0.0000000   0.0678913   0.0000000), wk =   0.1111111
        k(    4) = (   0.0000000  -0.1018369   0.0000000), wk =   0.0555556
        k(    5) = (   0.0319678  -0.0114178   0.0000000), wk =   0.1111111
        k(    6) = (   0.0319678   0.0225278   0.0000000), wk =   0.1111111
        k(    7) = (   0.0319678   0.0564735   0.0000000), wk =   0.1111111
        k(    8) = (   0.0319678  -0.1132548   0.0000000), wk =   0.1111111
        k(    9) = (   0.0319678  -0.0793091   0.0000000), wk =   0.1111111
        k(   10) = (   0.0319678  -0.0453635   0.0000000), wk =   0.1111111
        k(   11) = (   0.0639356  -0.0228356   0.0000000), wk =   0.1111111
        k(   12) = (   0.0639356   0.0111100   0.0000000), wk =   0.1111111
        k(   13) = (   0.0639356   0.0450557   0.0000000), wk =   0.1111111
        k(   14) = (   0.0639356  -0.1246726   0.0000000), wk =   0.1111111
        k(   15) = (   0.0639356  -0.0907269   0.0000000), wk =   0.1111111
        k(   16) = (   0.0639356  -0.0567813   0.0000000), wk =   0.1111111
        k(   17) = (  -0.0959034   0.0342534   0.0000000), wk =   0.0555556
        k(   18) = (  -0.0959034   0.0681991   0.0000000), wk =   0.1111111
        k(   19) = (  -0.0959034   0.1021447   0.0000000), wk =   0.1111111
        k(   20) = (  -0.0959034  -0.0675835   0.0000000), wk =   0.0555556

     Largest allocated arrays     est. size (Mb)     dimensions
     Largest temporary arrays     est. size (Mb)     dimensions

     Initial potential from superposition of free atoms
     Check: negative starting charge=   -0.437727

     starting charge  167.99254, renormalised to  174.00000

     negative rho (up, down):  4.534E-01 0.000E+00

     *
     * You are using vdW-DF for exchange-correlation in this calculation.
     * Please cite the following three references that made this development
     * possible:
     *
     *   M. Dion, H. Rydberg, E. Schroder, D. C. Langreth, and
     *   B. I. Lundqvist, Phys. Rev. Lett. 92, 246401 (2004).
     *
     *   T. Thonhauser, V. R. Cooper, S. Li, A. Puzder, P. Hyldgaard, and
     *   D. C. Langreth, Phys. Rev. B 76, 125112 (2007).
     *
     *   G. Roman-Perez and J. M. Soler, Phys. Rev. Lett. 103, 096102 (2009).
     *
     *
     * If you are using vdW-DF2, please also cite:
     *
     *   K. Lee, E. D. Murray, L. Kong, B. I. Lundqvist, and
     *   D. C. Langreth, Phys. Rev. B 82, 081101(R) (2010).
     *
     *
     * If you are calculating the stress with vdW-DF, please also cite:
     *
     *   R. Sabatini, E. Kucukbenli, B. Kolb, T. Thonhauser, and
     *   S. de Gironcoli, J. Phys.: Condens. Matter 24, 424209 (2012).
     *

     Carrying out vdW-DF run using the following parameters:

     Nqs =      20    Nr_points =    1024   r_max =   100.000
     q_mesh =
               0.00001000     0.04494208     0.09755937     0.15916263
               0.23128650     0.31572767     0.41458969     0.53033537
               0.66584808     0.82450364     1.01025438     1.22772762
               1.48234092     1.78043706     2.12944203     2.53805004
               3.01644009     3.57652955     4.23227104     5.00000000

     Gradients computed in reciprocal space

     Adding external electric field

     Computed dipole along edir(3) :
        Dipole               -0.0000 Ry au,         -0.0000 Debye
        Dipole field         -0.0000 Ry au

        Potential amp.        0.0000 Ry
        Total length         44.7016 bohr

     Starting wfc are  138 randomized atomic wfcs

     Self-consistent Calculation

     iteration #  1     ecut=    36.75 Ry     beta=0.10
     Davidson diagonalization with overlap
     ethr =  1.00E-02,  avg # of iterations =  2.6

[...]

     total energy              =   -2046.10868508 Ry
     Harris-Foulkes estimate   =   -2047.28805688 Ry
     estimated scf accuracy    <       7.42070402 Ry

[...]

     End of self-consistent calculation

          k = 0.0000 0.0000 0.0000 ( 15717 PWs)   bands (ev):

   -71.5806 -71.5656 -70.9834 -70.9832 -70.9690 -70.9688 -63.3305 -63.3169
   -63.1436 -63.1425 -63.1303 -63.1301 -41.7115 -41.5717 -41.5496 -41.5430
   -41.5275 -41.5104 -41.0829 -41.0712 -41.0332 -41.0258 -41.0083 -40.9948
   -40.9104 -40.9002 -40.8842 -40.8831 -40.8804 -40.8784 -37.1931 -37.1080
   -37.1013 -37.0751 -37.0654 -37.0481 -37.0174 -37.0048 -36.9777 -36.9760
   -36.9258 -36.9119 -36.8651 -36.8645 -36.8580 -36.8579 -36.7997 -36.7957
    -5.0772  -3.3337  -3.2933  -3.2763  -3.2367  -3.1127  -2.9414  -2.7473
    -2.7150  -2.6252  -2.2147  -2.2030  -1.6754  -1.5519  -1.5247  -1.4651
    -1.4265  -1.2231  -1.2135  -1.1841  -1.0375  -0.8589  -0.6254  -0.2237
    -0.1943  -0.0963  -0.0517   0.5107   0.8163   0.8326   1.0428   1.0845
     1.2015   1.7176   1.8676   2.1019   2.1023   2.2191   2.2736   2.4113
     2.4439   2.4521   2.5124   2.5235   2.5580   2.5588   2.6264   2.6630
     2.7394   2.8748   2.9875   3.0142   3.0191   3.0252   3.1359   3.3075
     3.3831   3.4340   3.5313   3.5842   3.7993   3.8377   3.8865   3.9881
     4.2592   4.4247   4.4870   4.8596   4.9793

[...]

          k =-0.0959 0.0343 0.0000 ( 15756 PWs)   bands (ev):

[...]

     the Fermi energy is     1.6989 ev

!    total energy              =   -2045.34522538 Ry
     Harris-Foulkes estimate   =   -2045.34522610 Ry
     estimated scf accuracy    <       0.00000085 Ry

     The total energy is the sum of the following terms:

     one-electron contribution =  -18206.31760306 Ry
     hartree contribution      =    9093.89704413 Ry
     xc contribution           =    -283.05950776 Ry
     ewald contribution        =    7350.23085073 Ry
     electric field correction =       0.00000006 Ry
     smearing contrib. (-TS)   =      -0.09600947 Ry

     convergence has been achieved in  20 iterations

 BEEF-vdW xc energy contributions
           1 :   -244.889933917984
           2 :    222.716258808616
           3 :   -185.148433840973
           4 :    142.646219419299
           5 :   -105.053453530959
           6 :    78.2337809962380
           7 :   -62.9677049328909
           8 :    56.1148983886104
           9 :   -53.0360477921157
          10 :    49.9227092464767
[...]
00030 suncat2025 pw.x -in pw.inp   Done                     12/19/2018 10:11:26
00031 suncat2025 pw.x -in pw.inp   Done                     12/19/2018 10:11:26

[...]

   This run was terminated on:  10:26: 2  19Dec2018

[...]

     Total force =     0.062972     Total SCF correction =     0.002227

[...]

     Program PWSCF v.5.1rc2 (svn rev. 11289) starts on 19Dec2018 at 10:41:15

     Current dimensions of program PWSCF are:
     Max number of different atomic species (ntypx) = 10
     Max number of k-points (npk) =  40000
     Max angular momentum in pseudopotentials (lmaxx) =  3
     Presently stress not available with electric field

     IMPORTANT: XC functional enforced from input :
     Exchange-correlation      = BEEF-VDW ( 1  4 27 13 2)
     Any further DFT definition will be discarded
     Please, verify this is what you really want

     Subspace diagonalization in iterative solution of the eigenvalue problem:
     a serial algorithm will be used

     Found symmetry operation: I + ( -0.5000 -0.5000  0.0000)
     This is a supercell, fractional translations are disabled

     bravais-lattice index     =            0
     lattice parameter (alat)  =       1.8897  a.u.
     unit-cell volume          =    4190.9882 (a.u.)^3
     number of atoms/cell      =           12
     number of atomic types    =            2
     number of electrons       =       174.00
     number of Kohn-Sham states=          117
     kinetic-energy cutoff     =      36.7493  Ry
     charge density cutoff     =     367.4932  Ry
     convergence threshold     =      1.0E-06
     mixing beta               =       0.1000
     number of iterations used =           10  plain     mixing
     Exchange-correlation      = BEEF-VDW ( 1  4 27 13 2)
     nstep                     =           50

     celldm(1)=   1.889726  celldm(2)=   0.000000  celldm(3)=   0.000000
     celldm(4)=   0.000000  celldm(5)=   0.000000  celldm(6)=   0.000000

     crystal axes: (cart. coord. in units of alat)
               a(1) = (   5.213578   0.000000   0.000000 )
               a(2) = (   1.753616   4.909809   0.000000 )
               a(3) = (   0.000000   0.000000  24.261593 )

     reciprocal axes: (cart. coord. in units 2 pi/alat)
               b(1) = (  0.191807 -0.068507  0.000000 )
               b(2) = (  0.000000  0.203674  0.000000 )
               b(3) = (  0.000000  0.000000  0.041217 )

     PseudoPot. # 1 for V  read from file:
     /afs/slac.stanford.edu/u/if/mamunm/psp/gbrv1.5pbe/V.UPF
     MD5 check sum: 22b79981416ebb76fdaf5b1b8640f6fb
     Pseudo is Ultrasoft + core correction, Zval = 13.0
     Generated by new atomic code, or converted to UPF format
     Using radial grid of  853 points,  6 beta functions with:
                l(1) =   0
                l(2) =   0
                l(3) =   1
                l(4) =   1
                l(5) =   2
                l(6) =   2
     Q(r) pseudized with  8 coefficients,  rinner =    1.100   1.100   1.100
                                                       1.100   1.100

     PseudoPot. # 2 for Ru read from file:
     /afs/slac.stanford.edu/u/if/mamunm/psp/gbrv1.5pbe/Ru.UPF
     MD5 check sum: 7158a806dd851261a58e6920c40ebe78
     Pseudo is Ultrasoft + core correction, Zval = 16.0
     Generated by new atomic code, or converted to UPF format
     Using radial grid of  967 points,  6 beta functions with:
                l(1) =   0
                l(2) =   0
                l(3) =   1
                l(4) =   1
                l(5) =   2
                l(6) =   2
     Q(r) pseudized with  8 coefficients,  rinner =    1.300   1.300   1.300
                                                       1.300   1.300

     vdW kernel table read from file vdW_kernel_table
     MD5 check sum: 095c7af220d748ca6e76c0b4c6cfb241

     atomic species   valence    mass     pseudopotential
        V1            13.00    50.94150     V ( 1.00)
        Ru1           16.00   101.07000     Ru( 1.00)

     No symmetry found

   Cartesian axes

     site n.     atom                  positions (alat units)
         1           V1  tau(   1) = (   0.0000000   0.0000000  10.0000000  )
         2           V1  tau(   2) = (   3.4835973   2.4549047  10.0000000  )
         3           Ru1 tau(   3) = (   2.6067891   0.0000000  10.0000000  )
         4           Ru1 tau(   4) = (   0.8768082   2.4549047  10.0000000  )
         5           V1  tau(   5) = (   5.2135783   3.6740291  12.1307963  )
         6           V1  tau(   6) = (   1.7299810   1.2191244  12.1307963  )
         7           Ru1 tau(   7) = (   2.6067891   3.6740291  12.1307963  )
         8           Ru1 tau(   8) = (   4.3367701   1.2191244  12.1307963  )
         9           V1  tau(   9) = (   3.4642554   2.4412744  14.2990175  )
        10           V1  tau(  10) = (   6.9478552   4.8961807  14.2990199  )
        11           Ru1 tau(  11) = (   6.0711216   2.4413043  14.1246019  )
        12           Ru1 tau(  12) = (   4.3411184   4.8962421  14.1246012  )

     number of k points=    20  Fermi-Dirac smearing, width (Ry)=  0.0110
                       cart. coord. in units 2pi/alat
        k(    1) = (   0.0000000   0.0000000   0.0000000), wk =   0.0555556
        k(    2) = (   0.0000000   0.0339456   0.0000000), wk =   0.1111111
        k(    3) = (   0.0000000   0.0678913   0.0000000), wk =   0.1111111
        k(    4) = (   0.0000000  -0.1018369   0.0000000), wk =   0.0555556
        k(    5) = (   0.0319678  -0.0114178   0.0000000), wk =   0.1111111
        k(    6) = (   0.0319678   0.0225278   0.0000000), wk =   0.1111111
        k(    7) = (   0.0319678   0.0564735   0.0000000), wk =   0.1111111
        k(    8) = (   0.0319678  -0.1132548   0.0000000), wk =   0.1111111
        k(    9) = (   0.0319678  -0.0793091   0.0000000), wk =   0.1111111
        k(   10) = (   0.0319678  -0.0453635   0.0000000), wk =   0.1111111
        k(   11) = (   0.0639356  -0.0228356   0.0000000), wk =   0.1111111
        k(   12) = (   0.0639356   0.0111100   0.0000000), wk =   0.1111111
        k(   13) = (   0.0639356   0.0450557   0.0000000), wk =   0.1111111
        k(   14) = (   0.0639356  -0.1246726   0.0000000), wk =   0.1111111
        k(   15) = (   0.0639356  -0.0907269   0.0000000), wk =   0.1111111
        k(   16) = (   0.0639356  -0.0567813   0.0000000), wk =   0.1111111
        k(   17) = (  -0.0959034   0.0342534   0.0000000), wk =   0.0555556
        k(   18) = (  -0.0959034   0.0681991   0.0000000), wk =   0.1111111
        k(   19) = (  -0.0959034   0.1021447   0.0000000), wk =   0.1111111
        k(   20) = (  -0.0959034  -0.0675835   0.0000000), wk =   0.0555556

     Largest allocated arrays     est. size (Mb)     dimensions
     Largest temporary arrays     est. size (Mb)     dimensions

     Initial potential from superposition of free atoms
     Check: negative starting charge=   -0.438901

     starting charge  167.99254, renormalised to  174.00000

[...]

     *
     * You are using vdW-DF for exchange-correlation in this calculation.
     * Please cite the following three references that made this development
     * possible:
     *
     *   M. Dion, H. Rydberg, E. Schroder, D. C. Langreth, and
     *   B. I. Lundqvist, Phys. Rev. Lett. 92, 246401 (2004).
     *
     *   T. Thonhauser, V. R. Cooper, S. Li, A. Puzder, P. Hyldgaard, and
     *   D. C. Langreth, Phys. Rev. B 76, 125112 (2007).
     *
     *   G. Roman-Perez and J. M. Soler, Phys. Rev. Lett. 103, 096102 (2009).
     *
     *
     * If you are using vdW-DF2, please also cite:
     *
     *   K. Lee, E. D. Murray, L. Kong, B. I. Lundqvist, and
     *   D. C. Langreth, Phys. Rev. B 82, 081101(R) (2010).
     *
     *
     * If you are calculating the stress with vdW-DF, please also cite:
     *
     *   R. Sabatini, E. Kucukbenli, B. Kolb, T. Thonhauser, and
     *   S. de Gironcoli, J. Phys.: Condens. Matter 24, 424209 (2012).
     *

     Carrying out vdW-DF run using the following parameters:

     Nqs =      20    Nr_points =    1024   r_max =   100.000
     q_mesh =
               0.00001000     0.04494208     0.09755937     0.15916263
               0.23128650     0.31572767     0.41458969     0.53033537
               0.66584808     0.82450364     1.01025438     1.22772762
               1.48234092     1.78043706     2.12944203     2.53805004
               3.01644009     3.57652955     4.23227104     5.00000000

     Gradients computed in reciprocal space

[...]

     Starting wfc are  138 randomized atomic wfcs

     Self-consistent Calculation

[...]

     total energy              =   -2045.35686090 Ry
     Harris-Foulkes estimate   =   -2045.35686071 Ry
     estimated scf accuracy    <       0.00000136 Ry

     iteration # 21     ecut=    36.75 Ry     beta=0.10
     Davidson diagonalization with overlap
     ethr =  7.79E-10,  avg # of iterations =  2.0

[...]

     negative rho (up, down):  4.591E-01 0.000E+00

     Adding external electric field

     Computed dipole along edir(3) :
        Dipole                0.0569 Ry au,          0.1446 Debye
        Dipole field          0.0002 Ry au

        Potential amp.       -0.0152 Ry
        Total length         44.7016 bohr

     End of self-consistent calculation

[...]

          k = 0.0639-0.0568 0.0000 ( 15790 PWs)   bands (ev):

[...]

          k =-0.0959-0.0676 0.0000 ( 15682 PWs)   bands (ev):

   -71.4956 -71.4816 -70.9933 -70.9787 -70.9149 -70.9009 -63.2911 -63.2773
   -63.0826 -63.0768 -63.0681 -63.0622 -41.6077 -41.4695 -41.4547 -41.4520
   -41.4280 -41.4223 -41.1002 -40.9869 -40.9773 -40.9622 -40.9421 -40.9321
   -40.9272 -40.9182 -40.9133 -40.8308 -40.8146 -40.8072 -37.1821 -37.1120
   -37.0872 -37.0481 -37.0325 -37.0286 -36.9564 -36.9442 -36.9296 -36.9164
   -36.8838 -36.8660 -36.8444 -36.8316 -36.8276 -36.8228 -36.7373 -36.7247
    -3.3553  -2.9703  -2.4419  -2.4094  -2.3534  -2.1896  -2.1460  -2.0967
    -2.0650  -1.8248  -1.6096  -1.5183  -1.4838  -1.3502  -1.2117  -1.0976
    -0.8492  -0.6807  -0.5747  -0.5461  -0.4447  -0.3540  -0.3326  -0.3044
    -0.2830   0.0132   0.2581   0.2791   0.3852   0.5005   0.5402   0.5726
     0.7604   0.8814   0.9199   0.9211   0.9947   1.0444   1.1028   1.2518
     1.2851   1.5848   1.6973   1.8418   1.8763   1.9047   1.9855   2.0283
     2.0431   2.1693   2.2507   2.3545   2.4699   2.5040   2.5741   2.6623
     2.6856   3.0643   3.0690   3.2580   3.3232   3.4920   3.6899   3.8273
     4.1347   4.5000   4.9942   5.0013   5.3424

     the Fermi energy is     1.7579 ev

!    total energy              =   -2045.35686007 Ry
     Harris-Foulkes estimate   =   -2045.35685921 Ry
     estimated scf accuracy    <       0.00000098 Ry

     The total energy is the sum of the following terms:

     one-electron contribution =  -18353.06116214 Ry
     hartree contribution      =    9167.60334405 Ry
     xc contribution           =    -283.15469606 Ry
     ewald contribution        =    7423.34551729 Ry
     electric field correction =       0.00000970 Ry
     smearing contrib. (-TS)   =      -0.08987291 Ry

     convergence has been achieved in  21 iterations

 BEEF-vdW xc energy contributions
           1 :   -244.989977768824
           2 :    222.862792353947
           3 :   -185.357026083390
           4 :    142.882829136404
           5 :   -105.243271097830
           6 :    78.3020930353794
           7 :   -62.8913717170482
           8 :    55.9440298648844
           9 :   -52.8640738702377
          10 :    49.8269384395892
          11 :   -45.0590813205715
          12 :    38.8162364230608
          13 :   -32.4466192010618
          14 :    27.2565214608364
          15 :   -23.8103890288209
          16 :    21.8781377758970
          17 :   -20.8213178307819
          18 :    20.0276501428693
          19 :   -19.1303470192487
          20 :    17.9913291334489
          21 :   -16.5943096784702
          22 :    14.9841983808461
          23 :   -13.2839561961485
          24 :    11.7171865279973
          25 :   -10.5561613380083
          26 :    9.98248032301308
          27 :   -9.94412874270756
          28 :    10.1261380461686
          29 :   -10.0914309812633
          30 :    9.52425896239095
          31 :   -25.3500129474487
          32 :   -18.8353193469996

     Forces acting on atoms (Ry/au):

     negative rho (up, down):  4.591E-01 0.000E+00
     atom    1 type  1   force =    -0.00062938   -0.00044343   -0.01213574
     atom    2 type  1   force =    -0.00062498   -0.00044048   -0.01213469
     atom    3 type  2   force =    -0.00022860   -0.00019818    0.03730952
     atom    4 type  2   force =    -0.00026368   -0.00014882    0.03730937
     atom    5 type  1   force =     0.00012526    0.00008830   -0.01796787
     atom    6 type  1   force =     0.00012312    0.00008679   -0.01796169
     atom    7 type  2   force =    -0.00024126   -0.00015435   -0.00709153
     atom    8 type  2   force =    -0.00022669   -0.00017543   -0.00709158
     atom    9 type  1   force =     0.00045530    0.00032082    0.00001514
     atom   10 type  1   force =     0.00044860    0.00031620    0.00001468
     atom   11 type  2   force =     0.00050586    0.00041014   -0.00013285
     atom   12 type  2   force =     0.00055644    0.00033845   -0.00013276

     Total force =     0.061868     Total SCF correction =     0.006813
     SCF correction compared to forces is large: reduce conv_thr to get better values

     entering subroutine stress ...

     negative rho (up, down):  4.591E-01 0.000E+00
          total   stress  (Ry/bohr**3)                   (kbar)     P=  -22.23
  -0.00018597   0.00003871   0.00000357        -27.36      5.70      0.52
   0.00003871  -0.00021362   0.00000251          5.70    -31.43      0.37
   0.00000357   0.00000251  -0.00005377          0.52      0.37     -7.91

 !ASE

     Writing output data file calc.save

     General routines

     Parallel routines

   This run was terminated on:  10:55:39  19Dec2018

   JOB DONE.
Job  /afs/slac/g/suncat/bin/suncat-tsmpirun -x LD_LIBRARY_PATH -wdir /scratch/qe530773_S1ANW pw.x -in pw.inp

TID   HOST_NAME   COMMAND_LINE            STATUS            TERMINATION_TIME
00000 suncat2026 pw.x -in pw.inp   Done                     12/19/2018 10:55:39
00001 suncat2026 pw.x -in pw.inp   Done                     12/19/2018 10:55:39
00002 suncat2026 pw.x -in pw.inp   Done                     12/19/2018 10:55:39
00003 suncat2026 pw.x -in pw.inp   Done                     12/19/2018 10:55:39
00004 suncat2026 pw.x -in pw.inp   Done                     12/19/2018 10:55:39
00005 suncat2026 pw.x -in pw.inp   Done                     12/19/2018 10:55:39
00006 suncat2026 pw.x -in pw.inp   Done                     12/19/2018 10:55:39
00007 suncat2026 pw.x -in pw.inp   Done                     12/19/2018 10:55:39
00008 suncat2026 pw.x -in pw.inp   Done                     12/19/2018 10:55:39
00009 suncat2026 pw.x -in pw.inp   Done                     12/19/2018 10:55:39
00010 suncat2026 pw.x -in pw.inp   Done                     12/19/2018 10:55:39
00011 suncat2026 pw.x -in pw.inp   Done                     12/19/2018 10:55:39
00012 suncat2026 pw.x -in pw.inp   Done                     12/19/2018 10:55:39
00013 suncat2026 pw.x -in pw.inp   Done                     12/19/2018 10:55:39
00014 suncat2026 pw.x -in pw.inp   Done                     12/19/2018 10:55:39
00015 suncat2026 pw.x -in pw.inp   Done                     12/19/2018 10:55:39
00016 suncat2025 pw.x -in pw.inp   Done                     12/19/2018 10:55:39
00017 suncat2025 pw.x -in pw.inp   Done                     12/19/2018 10:55:39
00018 suncat2025 pw.x -in pw.inp   Done                     12/19/2018 10:55:39
00019 suncat2025 pw.x -in pw.inp   Done                     12/19/2018 10:55:39
00020 suncat2025 pw.x -in pw.inp   Done                     12/19/2018 10:55:39
00021 suncat2025 pw.x -in pw.inp   Done                     12/19/2018 10:55:39
00022 suncat2025 pw.x -in pw.inp   Done                     12/19/2018 10:55:39
00023 suncat2025 pw.x -in pw.inp   Done                     12/19/2018 10:55:39
00024 suncat2025 pw.x -in pw.inp   Done                     12/19/2018 10:55:39
00025 suncat2025 pw.x -in pw.inp   Done                     12/19/2018 10:55:39
00026 suncat2025 pw.x -in pw.inp   Done                     12/19/2018 10:55:39
00027 suncat2025 pw.x -in pw.inp   Done                     12/19/2018 10:55:39
00028 suncat2025 pw.x -in pw.inp   Done                     12/19/2018 10:55:39
00029 suncat2025 pw.x -in pw.inp   Done                     12/19/2018 10:55:39
00030 suncat2025 pw.x -in pw.inp   Done                     12/19/2018 10:55:39
00031 suncat2025 pw.x -in pw.inp   Done                     12/19/2018 10:55:39