     Program PWSCF v.5.1rc2 (svn rev. 11289) starts on 31Dec2018 at 15:18: 6

     Current dimensions of program PWSCF are:
     Max number of different atomic species (ntypx) = 10
     Max number of k-points (npk) =  40000
     Max angular momentum in pseudopotentials (lmaxx) =  3
     Presently stress not available with electric field

     IMPORTANT: XC functional enforced from input :
     Exchange-correlation      = BEEF-VDW ( 1  4 27 13 2)
     Any further DFT definition will be discarded
     Please, verify this is what you really want

     Subspace diagonalization in iterative solution of the eigenvalue problem:
     a serial algorithm will be used

     bravais-lattice index     =            0
     lattice parameter (alat)  =       1.8897  a.u.
     unit-cell volume          =    4502.1068 (a.u.)^3
     number of atoms/cell      =           12
     number of atomic types    =            2
     number of electrons       =       201.00
     number of Kohn-Sham states=          130
     kinetic-energy cutoff     =      36.7493  Ry
     charge density cutoff     =     367.4932  Ry
     convergence threshold     =      1.0E-06
     mixing beta               =       0.1000
     number of iterations used =           10  plain     mixing
     Exchange-correlation      = BEEF-VDW ( 1  4 27 13 2)
     nstep                     =           50

     celldm(1)=   1.889726  celldm(2)=   0.000000  celldm(3)=   0.000000
     celldm(4)=   0.000000  celldm(5)=   0.000000  celldm(6)=   0.000000

     crystal axes: (cart. coord. in units of alat)
               a(1) = (   5.599205   0.000000   0.000000 )
               a(2) = (  -2.799603   4.849054   0.000000 )
               a(3) = (   0.000000   0.000000  24.571732 )

     reciprocal axes: (cart. coord. in units 2 pi/alat)
               b(1) = (  0.178597  0.103113  0.000000 )
               b(2) = (  0.000000  0.206226  0.000000 )
               b(3) = (  0.000000  0.000000  0.040697 )

     PseudoPot. # 1 for Pt read from file:
     /afs/slac.stanford.edu/u/if/mamunm/psp/gbrv1.5pbe/Pt.UPF
     MD5 check sum: f09d6de1a584b5a045c4fc126da2d0c4
     Pseudo is Ultrasoft + core correction, Zval = 16.0
     Generated by new atomic code, or converted to UPF format
     Using radial grid of  985 points,  6 beta functions with:
                l(1) =   0
                l(2) =   0
                l(3) =   1
                l(4) =   1
                l(5) =   2
                l(6) =   2
     Q(r) pseudized with  8 coefficients,  rinner =    1.300   1.300   1.300
                                                       1.300   1.300

     PseudoPot. # 2 for Ga read from file:
     /afs/slac.stanford.edu/u/if/mamunm/psp/gbrv1.5pbe/Ga.UPF
     MD5 check sum: ccd671392a58a050fbb373893b4fcd66
     Pseudo is Ultrasoft + core correction, Zval = 19.0
     Generated by new atomic code, or converted to UPF format
     Using radial grid of  871 points,  6 beta functions with:
                l(1) =   0
                l(2) =   0
                l(3) =   1
                l(4) =   1
                l(5) =   2
                l(6) =   2
     Q(r) pseudized with  8 coefficients,  rinner =    1.250   1.250   1.250
                                                       1.250   1.250

     vdW kernel table read from file vdW_kernel_table
     MD5 check sum: 095c7af220d748ca6e76c0b4c6cfb241

     atomic species   valence    mass     pseudopotential
        Pt1           16.00   195.08400     Pt( 1.00)
        Ga1           19.00    69.72300     Ga( 1.00)

     No symmetry found

   Cartesian axes

     site n.     atom                  positions (alat units)
         1           Pt1 tau(   1) = (   0.0000000   0.0000000  10.0000000  )
         2           Pt1 tau(   2) = (  -1.3998013   2.4245270  10.0000000  )
         3           Pt1 tau(   3) = (   1.3998013   2.4245270  10.0000000  )
         4           Ga1 tau(   4) = (   2.7996027   0.0000000  10.0000000  )
         5           Pt1 tau(   5) = (   2.7996027   1.6163514  12.2858660  )
         6           Pt1 tau(   6) = (   1.3998013   4.0408784  12.2858660  )
         7           Pt1 tau(   7) = (  -1.3998013   4.0408784  12.2858660  )
         8           Ga1 tau(   8) = (   0.0000000   1.6163514  12.2858660  )
         9           Pt1 tau(   9) = (  -0.0000000   3.2327027  14.5717320  )
        10           Pt1 tau(  10) = (   1.3998013   0.8081757  14.5717320  )
        11           Pt1 tau(  11) = (   4.1994040   0.8081757  14.5717320  )
        12           Ga1 tau(  12) = (   2.7996027   3.2327027  14.5717320  )

     number of k points=    20  Fermi-Dirac smearing, width (Ry)=  0.0110
                       cart. coord. in units 2pi/alat
        k(    1) = (   0.0000000   0.0000000   0.0000000), wk =   0.0555556
        k(    2) = (   0.0000000   0.0343710   0.0000000), wk =   0.1111111
        k(    3) = (   0.0000000   0.0687419   0.0000000), wk =   0.1111111
        k(    4) = (   0.0000000  -0.1031129   0.0000000), wk =   0.0555556
        k(    5) = (   0.0297661   0.0171855   0.0000000), wk =   0.1111111
        k(    6) = (   0.0297661   0.0515564   0.0000000), wk =   0.1111111
        k(    7) = (   0.0297661   0.0859274   0.0000000), wk =   0.1111111
        k(    8) = (   0.0297661  -0.0859274   0.0000000), wk =   0.1111111
        k(    9) = (   0.0297661  -0.0515564   0.0000000), wk =   0.1111111
        k(   10) = (   0.0297661  -0.0171855   0.0000000), wk =   0.1111111
        k(   11) = (   0.0595323   0.0343710   0.0000000), wk =   0.1111111
        k(   12) = (   0.0595323   0.0687419   0.0000000), wk =   0.1111111
        k(   13) = (   0.0595323   0.1031129   0.0000000), wk =   0.1111111
        k(   14) = (   0.0595323  -0.0687419   0.0000000), wk =   0.1111111
        k(   15) = (   0.0595323  -0.0343710   0.0000000), wk =   0.1111111
        k(   16) = (   0.0595323   0.0000000   0.0000000), wk =   0.1111111
        k(   17) = (  -0.0892984  -0.0515564   0.0000000), wk =   0.0555556
        k(   18) = (  -0.0892984  -0.0171855   0.0000000), wk =   0.1111111
        k(   19) = (  -0.0892984   0.0171855   0.0000000), wk =   0.1111111
        k(   20) = (  -0.0892984  -0.1546693   0.0000000), wk =   0.0555556

     Largest allocated arrays     est. size (Mb)     dimensions
     Largest temporary arrays     est. size (Mb)     dimensions

     Initial potential from superposition of free atoms
     Check: negative starting charge=   -1.647567

     starting charge  193.49990, renormalised to  201.00000

     negative rho (up, down):  1.711E+00 0.000E+00

     *
     * You are using vdW-DF for exchange-correlation in this calculation.
     * Please cite the following three references that made this development
     * possible:
     *
     *   M. Dion, H. Rydberg, E. Schroder, D. C. Langreth, and
     *   B. I. Lundqvist, Phys. Rev. Lett. 92, 246401 (2004).
     *
     *   T. Thonhauser, V. R. Cooper, S. Li, A. Puzder, P. Hyldgaard, and
     *   D. C. Langreth, Phys. Rev. B 76, 125112 (2007).
     *
     *   G. Roman-Perez and J. M. Soler, Phys. Rev. Lett. 103, 096102 (2009).
     *
     *
     * If you are using vdW-DF2, please also cite:
     *
     *   K. Lee, E. D. Murray, L. Kong, B. I. Lundqvist, and
     *   D. C. Langreth, Phys. Rev. B 82, 081101(R) (2010).
     *
     *
     * If you are calculating the stress with vdW-DF, please also cite:
     *
     *   R. Sabatini, E. Kucukbenli, B. Kolb, T. Thonhauser, and
     *   S. de Gironcoli, J. Phys.: Condens. Matter 24, 424209 (2012).
     *

     Carrying out vdW-DF run using the following parameters:

     Nqs =      20    Nr_points =    1024   r_max =   100.000
     q_mesh =
               0.00001000     0.04494208     0.09755937     0.15916263
               0.23128650     0.31572767     0.41458969     0.53033537
               0.66584808     0.82450364     1.01025438     1.22772762
               1.48234092     1.78043706     2.12944203     2.53805004
               3.01644009     3.57652955     4.23227104     5.00000000

     Gradients computed in reciprocal space

     Adding external electric field

     Computed dipole along edir(3) :
        Dipole               -0.0000 Ry au,         -0.0000 Debye
        Dipole field         -0.0000 Ry au

        Potential amp.        0.0000 Ry
        Total length         45.2730 bohr

     Starting wfc are  144 randomized atomic wfcs

     Self-consistent Calculation

     iteration #  1     ecut=    36.75 Ry     beta=0.10
     Davidson diagonalization with overlap
     ethr =  1.00E-02,  avg # of iterations =  7.1

[...]

     total energy              =   -3161.64154677 Ry
     Harris-Foulkes estimate   =   -3166.63874549 Ry
     estimated scf accuracy    <      29.90313257 Ry

[...]

     End of self-consistent calculation

          k = 0.0000 0.0000 0.0000 ( 16859 PWs)   bands (ev):

   -93.3664 -93.3664 -93.3494 -92.9546 -92.9543 -92.8998 -92.8998 -92.8996
   -92.8996 -51.3806 -51.2419 -51.2402 -51.2402 -51.2041 -51.2041 -51.0751
   -51.0707 -51.0707 -50.9974 -50.9891 -50.8780 -50.8780 -50.8649 -50.8649
   -50.7320 -50.7285 -50.7074 -50.7074 -50.7056 -50.7056 -50.6824 -50.6627
   -50.6501 -50.6501 -50.6396 -50.6396 -13.7456 -13.7456 -13.7242 -13.7111
   -13.7111 -13.3071 -13.2982 -13.2770 -13.2770 -13.2665 -13.2665 -13.2536
   -13.2536 -13.2527 -13.2527  -8.1816  -6.3855  -6.0911  -4.7520  -4.3597
    -4.1728  -3.7390  -3.7390  -3.4001  -3.3142  -3.3142  -3.1509  -3.1509
    -2.8851  -2.8851  -2.6706  -1.9486  -1.9486  -1.8591  -1.8591  -1.5770
    -1.5322  -1.3547  -1.0472  -1.0472  -0.9105  -0.7240  -0.7240  -0.3864
    -0.3864   0.0613   0.0613   0.1219   0.1219   0.1379   0.3173   0.5223
     0.5223   0.6257   0.6257   0.7849   0.7849   0.9938   1.1505   1.1505
     1.3428   1.4395   1.4395   1.7592   1.8702   2.1070   2.1607   2.2705
     2.7608   3.0000   3.0000   3.0711   3.0711   3.8266   4.5352   5.4643
     6.0214   6.1774   6.3791   6.3791   6.5159   6.7763   6.7763   7.4069
     7.5433   7.5433   7.9776   8.8135   8.8438   9.7053  10.0424  10.1793
    10.1793  10.7979

[...]

          k =-0.0893-0.0516 0.0000 ( 16944 PWs)   bands (ev):

[...]

     the Fermi energy is     1.5110 ev

!    total energy              =   -3161.16155536 Ry
     Harris-Foulkes estimate   =   -3161.16154811 Ry
     estimated scf accuracy    <       0.00000035 Ry

     The total energy is the sum of the following terms:

     one-electron contribution =  -22865.14172555 Ry
     hartree contribution      =   11463.48486089 Ry
     xc contribution           =    -677.13626842 Ry
     ewald contribution        =    8917.68984440 Ry
     electric field correction =       0.00000001 Ry
     smearing contrib. (-TS)   =      -0.05826668 Ry

     convergence has been achieved in  17 iterations

 BEEF-vdW xc energy contributions
           1 :   -603.056342719584
           2 :    558.432974176057
           3 :   -479.775173806999
           4 :    384.036252166239
           5 :   -288.540870546248
           6 :    205.898946414280
           7 :   -141.680900944144
           8 :    95.1538510139430
           9 :   -62.0391908289173
          10 :    37.5666691181956
[...]
     Generated by new atomic code, or converted to UPF format
     Using radial grid of  985 points,  6 beta functions with:
                l(1) =   0
                l(2) =   0
                l(3) =   1
                l(4) =   1
                l(5) =   2
                l(6) =   2
     Q(r) pseudized with  8 coefficients,  rinner =    1.300   1.300   1.300
                                                       1.300   1.300

     PseudoPot. # 2 for Ga read from file:
     /afs/slac.stanford.edu/u/if/mamunm/psp/gbrv1.5pbe/Ga.UPF
     MD5 check sum: ccd671392a58a050fbb373893b4fcd66
     Pseudo is Ultrasoft + core correction, Zval = 19.0
     Generated by new atomic code, or converted to UPF format
     Using radial grid of  871 points,  6 beta functions with:
                l(1) =   0
                l(2) =   0
                l(3) =   1
                l(4) =   1
                l(5) =   2
                l(6) =   2
     Q(r) pseudized with  8 coefficients,  rinner =    1.250   1.250   1.250
                                                       1.250   1.250

     vdW kernel table read from file vdW_kernel_table
     MD5 check sum: 095c7af220d748ca6e76c0b4c6cfb241

     atomic species   valence    mass     pseudopotential
        Pt1           16.00   195.08400     Pt( 1.00)
        Ga1           19.00    69.72300     Ga( 1.00)

     No symmetry found

   Cartesian axes

     site n.     atom                  positions (alat units)
         1           Pt1 tau(   1) = (   0.0000000   0.0000000  10.0000000  )
         2           Pt1 tau(   2) = (  -1.3998013   2.4245270  10.0000000  )
         3           Pt1 tau(   3) = (   1.3998013   2.4245270  10.0000000  )
         4           Ga1 tau(   4) = (   2.7996027   0.0000000  10.0000000  )
         5           Pt1 tau(   5) = (   2.7996027   1.6163514  12.2858660  )
         6           Pt1 tau(   6) = (   1.3998013   4.0408784  12.2858660  )
         7           Pt1 tau(   7) = (  -1.3998013   4.0408784  12.2858660  )
         8           Ga1 tau(   8) = (   0.0000000   1.6163514  12.2858660  )
         9           Pt1 tau(   9) = (  -0.0000002   3.2139478  14.5396903  )
        10           Pt1 tau(  10) = (   1.3835636   0.8175512  14.5396908  )
        11           Pt1 tau(  11) = (   4.2156418   0.8175513  14.5396914  )
        12           Ga1 tau(  12) = (   2.7996023   3.2327310  14.5867310  )

     number of k points=    20  Fermi-Dirac smearing, width (Ry)=  0.0110
                       cart. coord. in units 2pi/alat
        k(    1) = (   0.0000000   0.0000000   0.0000000), wk =   0.0555556
        k(    2) = (   0.0000000   0.0343710   0.0000000), wk =   0.1111111
        k(    3) = (   0.0000000   0.0687419   0.0000000), wk =   0.1111111
        k(    4) = (   0.0000000  -0.1031129   0.0000000), wk =   0.0555556
        k(    5) = (   0.0297661   0.0171855   0.0000000), wk =   0.1111111
        k(    6) = (   0.0297661   0.0515564   0.0000000), wk =   0.1111111
        k(    7) = (   0.0297661   0.0859274   0.0000000), wk =   0.1111111
        k(    8) = (   0.0297661  -0.0859274   0.0000000), wk =   0.1111111
        k(    9) = (   0.0297661  -0.0515564   0.0000000), wk =   0.1111111
        k(   10) = (   0.0297661  -0.0171855   0.0000000), wk =   0.1111111
        k(   11) = (   0.0595323   0.0343710   0.0000000), wk =   0.1111111
        k(   12) = (   0.0595323   0.0687419   0.0000000), wk =   0.1111111
        k(   13) = (   0.0595323   0.1031129   0.0000000), wk =   0.1111111
        k(   14) = (   0.0595323  -0.0687419   0.0000000), wk =   0.1111111
        k(   15) = (   0.0595323  -0.0343710   0.0000000), wk =   0.1111111
        k(   16) = (   0.0595323   0.0000000   0.0000000), wk =   0.1111111
        k(   17) = (  -0.0892984  -0.0515564   0.0000000), wk =   0.0555556
        k(   18) = (  -0.0892984  -0.0171855   0.0000000), wk =   0.1111111
        k(   19) = (  -0.0892984   0.0171855   0.0000000), wk =   0.1111111
        k(   20) = (  -0.0892984  -0.1546693   0.0000000), wk =   0.0555556

     Largest allocated arrays     est. size (Mb)     dimensions
     Largest temporary arrays     est. size (Mb)     dimensions

     Initial potential from superposition of free atoms
     Check: negative starting charge=   -1.645119

     starting charge  193.49990, renormalised to  201.00000

[...]

     *
     * You are using vdW-DF for exchange-correlation in this calculation.
     * Please cite the following three references that made this development
     * possible:
     *
     *   M. Dion, H. Rydberg, E. Schroder, D. C. Langreth, and
     *   B. I. Lundqvist, Phys. Rev. Lett. 92, 246401 (2004).
     *
     *   T. Thonhauser, V. R. Cooper, S. Li, A. Puzder, P. Hyldgaard, and
     *   D. C. Langreth, Phys. Rev. B 76, 125112 (2007).
     *
     *   G. Roman-Perez and J. M. Soler, Phys. Rev. Lett. 103, 096102 (2009).
     *
     *
     * If you are using vdW-DF2, please also cite:
     *
     *   K. Lee, E. D. Murray, L. Kong, B. I. Lundqvist, and
     *   D. C. Langreth, Phys. Rev. B 82, 081101(R) (2010).
     *
     *
     * If you are calculating the stress with vdW-DF, please also cite:
     *
     *   R. Sabatini, E. Kucukbenli, B. Kolb, T. Thonhauser, and
     *   S. de Gironcoli, J. Phys.: Condens. Matter 24, 424209 (2012).
     *

     Carrying out vdW-DF run using the following parameters:

     Nqs =      20    Nr_points =    1024   r_max =   100.000
     q_mesh =
               0.00001000     0.04494208     0.09755937     0.15916263
               0.23128650     0.31572767     0.41458969     0.53033537
               0.66584808     0.82450364     1.01025438     1.22772762
               1.48234092     1.78043706     2.12944203     2.53805004
               3.01644009     3.57652955     4.23227104     5.00000000

     Gradients computed in reciprocal space

[...]

     Starting wfc are  144 randomized atomic wfcs

     Self-consistent Calculation

[...]

     total energy              =   -3161.18229451 Ry
     Harris-Foulkes estimate   =   -3161.18228898 Ry
     estimated scf accuracy    <       0.00000130 Ry

     iteration # 16     ecut=    36.75 Ry     beta=0.10
     Davidson diagonalization with overlap
     ethr =  6.48E-10,  avg # of iterations =  2.0

[...]

     negative rho (up, down):  1.582E+00 0.000E+00

     Adding external electric field

     Computed dipole along edir(3) :
        Dipole                0.0030 Ry au,          0.0075 Debye
        Dipole field          0.0000 Ry au

        Potential amp.       -0.0007 Ry
        Total length         45.2730 bohr

     End of self-consistent calculation

[...]

          k = 0.0595 0.0000 0.0000 ( 16930 PWs)   bands (ev):

[...]

          k =-0.0893-0.1547 0.0000 ( 16944 PWs)   bands (ev):

   -93.3636 -93.3635 -93.3444 -92.9527 -92.9438 -92.8960 -92.8960 -92.8887
   -92.8887 -51.3127 -51.2402 -51.2276 -51.2146 -51.1902 -51.1687 -51.1552
   -51.1478 -51.0706 -50.9540 -50.9194 -50.8610 -50.8326 -50.8290 -50.8207
   -50.8104 -50.8048 -50.7903 -50.7857 -50.7363 -50.7041 -50.6943 -50.6843
   -50.6736 -50.6549 -50.6446 -50.6364 -13.7377 -13.7267 -13.7126 -13.7075
   -13.7061 -13.2922 -13.2844 -13.2692 -13.2653 -13.2580 -13.2572 -13.2396
   -13.2330 -13.2304 -13.2238  -6.7300  -6.3395  -5.3042  -4.7164  -4.1999
    -4.1423  -3.7351  -3.5573  -3.1650  -2.9373  -2.9170  -2.7515  -2.7185
    -2.7149  -2.6612  -2.4816  -2.2782  -2.2150  -1.9871  -1.8552  -1.8402
    -1.5527  -1.4899  -1.4897  -1.3857  -1.3359  -1.1969  -1.1462  -1.0901
    -0.8981  -0.8596  -0.8522  -0.7877  -0.4571  -0.4207  -0.3046  -0.2233
    -0.2156  -0.1797  -0.0865   0.0954   0.2129   0.2861   0.3255   0.4168
     0.7402   0.8742   0.9747   1.3768   1.7439   1.7749   1.7939   2.8060
     3.2307   3.6743   3.7556   4.4853   4.8470   5.0827   6.5568   6.7522
     6.9523   7.2589   7.5081   7.7412   7.7554   7.7807   7.8540   7.9764
     7.9782   8.3245   8.4136   8.9405   8.9784   9.2089   9.2676   9.5261
     9.7086   9.9812

     the Fermi energy is     1.5236 ev

!    total energy              =   -3161.18230439 Ry
     Harris-Foulkes estimate   =   -3161.18229473 Ry
     estimated scf accuracy    <       0.00000062 Ry

     The total energy is the sum of the following terms:

     one-electron contribution =  -22924.37759700 Ry
     hartree contribution      =   11493.07011637 Ry
     xc contribution           =    -677.18455589 Ry
     ewald contribution        =    8947.36779629 Ry
     electric field correction =       0.00000002 Ry
     smearing contrib. (-TS)   =      -0.05806417 Ry

     convergence has been achieved in  16 iterations

 BEEF-vdW xc energy contributions
           1 :   -603.666210326485
           2 :    559.062670301373
           3 :   -480.430134610890
           4 :    384.703064246333
           5 :   -289.194339689729
           6 :    206.515946205936
           7 :   -142.252832137870
           8 :    95.6915875115665
           9 :   -62.5679825769722
          10 :    38.1143810367017
          11 :   -19.0177933602669
          12 :    3.82367238871041
          13 :    7.72823389114751
          14 :   -15.5897370067496
          15 :    19.9073291704860
          16 :   -21.0854209722598
          17 :    19.6886629627327
          18 :   -16.4460557234767
          19 :    12.3450456842970
          20 :   -8.60398033287015
          21 :    6.35751880218686
          22 :   -6.16552494895836
          23 :    7.67615926307508
          24 :   -9.75230658209648
          25 :    11.0675244104642
          26 :   -10.8375434430369
          27 :    9.22247056222636
          28 :   -7.14575570385068
          29 :    5.66309003040942
          30 :   -5.31198795113733
          31 :   -48.2941856085290
          32 :   -35.1765447817187

     Forces acting on atoms (Ry/au):

     negative rho (up, down):  1.582E+00 0.000E+00
     atom    1 type  1   force =     0.00000027    0.00996822    0.00743569
     atom    2 type  1   force =     0.00863283   -0.00498447    0.00743595
     atom    3 type  1   force =    -0.00863364   -0.00498511    0.00743516
     atom    4 type  2   force =    -0.00000023    0.00000085   -0.00381111
     atom    5 type  1   force =    -0.00000050    0.00168277   -0.00434812
     atom    6 type  1   force =     0.00145665   -0.00084153   -0.00434908
     atom    7 type  1   force =    -0.00145740   -0.00084126   -0.00434883
     atom    8 type  2   force =     0.00000052   -0.00000413   -0.00460130
     atom    9 type  1   force =    -0.00000019    0.00078278   -0.00080901
     atom   10 type  1   force =     0.00067780   -0.00039083   -0.00080866
     atom   11 type  1   force =    -0.00067797   -0.00039039   -0.00080865
     atom   12 type  2   force =     0.00000186    0.00000309    0.00157798

     Total force =     0.023900     Total SCF correction =     0.004215
     SCF correction compared to forces is large: reduce conv_thr to get better values

     entering subroutine stress ...

     negative rho (up, down):  1.582E+00 0.000E+00
          total   stress  (Ry/bohr**3)                   (kbar)     P=  -16.64
  -0.00015191   0.00000000   0.00000000        -22.35      0.00      0.00
   0.00000000  -0.00015191  -0.00000000          0.00    -22.35     -0.00
   0.00000000  -0.00000000  -0.00003549          0.00     -0.00     -5.22

 !ASE

     Writing output data file calc.save

     General routines

     Parallel routines

   This run was terminated on:  16:12:18  31Dec2018

   JOB DONE.
Job  /afs/slac/g/suncat/bin/suncat-tsmpirun -x LD_LIBRARY_PATH -wdir /scratch/qe648800_MBBzq pw.x -in pw.inp

TID   HOST_NAME   COMMAND_LINE            STATUS            TERMINATION_TIME
00000 suncat0169 pw.x -in pw.inp   Done                     12/31/2018 16:12:18
00001 suncat0169 pw.x -in pw.inp   Done                     12/31/2018 16:12:18
00002 suncat0169 pw.x -in pw.inp   Done                     12/31/2018 16:12:18
00003 suncat0169 pw.x -in pw.inp   Done                     12/31/2018 16:12:18
00004 suncat0169 pw.x -in pw.inp   Done                     12/31/2018 16:12:18
00005 suncat0169 pw.x -in pw.inp   Done                     12/31/2018 16:12:18
00006 suncat0169 pw.x -in pw.inp   Done                     12/31/2018 16:12:18
00007 suncat0169 pw.x -in pw.inp   Done                     12/31/2018 16:12:18
00008 suncat0168 pw.x -in pw.inp   Done                     12/31/2018 16:12:18
00009 suncat0168 pw.x -in pw.inp   Done                     12/31/2018 16:12:18
00010 suncat0168 pw.x -in pw.inp   Done                     12/31/2018 16:12:18
00011 suncat0168 pw.x -in pw.inp   Done                     12/31/2018 16:12:18
00012 suncat0168 pw.x -in pw.inp   Done                     12/31/2018 16:12:18
00013 suncat0168 pw.x -in pw.inp   Done                     12/31/2018 16:12:18
00014 suncat0168 pw.x -in pw.inp   Done                     12/31/2018 16:12:18
00015 suncat0168 pw.x -in pw.inp   Done                     12/31/2018 16:12:18
00016 suncat0161 pw.x -in pw.inp   Done                     12/31/2018 16:12:18
00017 suncat0161 pw.x -in pw.inp   Done                     12/31/2018 16:12:18
00018 suncat0161 pw.x -in pw.inp   Done                     12/31/2018 16:12:18
00019 suncat0161 pw.x -in pw.inp   Done                     12/31/2018 16:12:18
00020 suncat0161 pw.x -in pw.inp   Done                     12/31/2018 16:12:18
00021 suncat0161 pw.x -in pw.inp   Done                     12/31/2018 16:12:18
00022 suncat0161 pw.x -in pw.inp   Done                     12/31/2018 16:12:18
00023 suncat0161 pw.x -in pw.inp   Done                     12/31/2018 16:12:18
00024 suncat0137 pw.x -in pw.inp   Done                     12/31/2018 16:12:18
00025 suncat0137 pw.x -in pw.inp   Done                     12/31/2018 16:12:18
00026 suncat0137 pw.x -in pw.inp   Done                     12/31/2018 16:12:18
00027 suncat0137 pw.x -in pw.inp   Done                     12/31/2018 16:12:18
00028 suncat0137 pw.x -in pw.inp   Done                     12/31/2018 16:12:18
00029 suncat0137 pw.x -in pw.inp   Done                     12/31/2018 16:12:18
00030 suncat0137 pw.x -in pw.inp   Done                     12/31/2018 16:12:18
00031 suncat0137 pw.x -in pw.inp   Done                     12/31/2018 16:12:18
00032 suncat0117 pw.x -in pw.inp   Done                     12/31/2018 16:12:18
00033 suncat0117 pw.x -in pw.inp   Done                     12/31/2018 16:12:18
00034 suncat0117 pw.x -in pw.inp   Done                     12/31/2018 16:12:18
00035 suncat0117 pw.x -in pw.inp   Done                     12/31/2018 16:12:18
00036 suncat0117 pw.x -in pw.inp   Done                     12/31/2018 16:12:18
00037 suncat0117 pw.x -in pw.inp   Done                     12/31/2018 16:12:18
00038 suncat0117 pw.x -in pw.inp   Done                     12/31/2018 16:12:18
00039 suncat0117 pw.x -in pw.inp   Done                     12/31/2018 16:12:18
00040 suncat0250 pw.x -in pw.inp   Done                     12/31/2018 16:12:18
00041 suncat0250 pw.x -in pw.inp   Done                     12/31/2018 16:12:18
00042 suncat0250 pw.x -in pw.inp   Done                     12/31/2018 16:12:18
00043 suncat0250 pw.x -in pw.inp   Done                     12/31/2018 16:12:18
00044 suncat0250 pw.x -in pw.inp   Done                     12/31/2018 16:12:18
00045 suncat0250 pw.x -in pw.inp   Done                     12/31/2018 16:12:18
00046 suncat0250 pw.x -in pw.inp   Done                     12/31/2018 16:12:18
00047 suncat0250 pw.x -in pw.inp   Done                     12/31/2018 16:12:18
00048 suncat0249 pw.x -in pw.inp   Done                     12/31/2018 16:12:18
00049 suncat0249 pw.x -in pw.inp   Done                     12/31/2018 16:12:18
00050 suncat0249 pw.x -in pw.inp   Done                     12/31/2018 16:12:18
00051 suncat0249 pw.x -in pw.inp   Done                     12/31/2018 16:12:18
00052 suncat0249 pw.x -in pw.inp   Done                     12/31/2018 16:12:18
00053 suncat0249 pw.x -in pw.inp   Done                     12/31/2018 16:12:18
00054 suncat0249 pw.x -in pw.inp   Done                     12/31/2018 16:12:18
00055 suncat0249 pw.x -in pw.inp   Done                     12/31/2018 16:12:18
00056 suncat0231 pw.x -in pw.inp   Done                     12/31/2018 16:12:18
00057 suncat0231 pw.x -in pw.inp   Done                     12/31/2018 16:12:18
00058 suncat0231 pw.x -in pw.inp   Done                     12/31/2018 16:12:18
00059 suncat0231 pw.x -in pw.inp   Done                     12/31/2018 16:12:18
00060 suncat0231 pw.x -in pw.inp   Done                     12/31/2018 16:12:18
00061 suncat0231 pw.x -in pw.inp   Done                     12/31/2018 16:12:18
00062 suncat0231 pw.x -in pw.inp   Done                     12/31/2018 16:12:18
00063 suncat0231 pw.x -in pw.inp   Done                     12/31/2018 16:12:18