     Program PWSCF v.5.1rc2 (svn rev. 11289) starts on 19Dec2018 at 19:46:32

     Current dimensions of program PWSCF are:
     Max number of different atomic species (ntypx) = 10
     Max number of k-points (npk) =  40000
     Max angular momentum in pseudopotentials (lmaxx) =  3
     Presently stress not available with electric field

     IMPORTANT: XC functional enforced from input :
     Exchange-correlation      = BEEF-VDW ( 1  4 27 13 2)
     Any further DFT definition will be discarded
     Please, verify this is what you really want

     Subspace diagonalization in iterative solution of the eigenvalue problem:
     a serial algorithm will be used

     bravais-lattice index     =            0
     lattice parameter (alat)  =       1.8897  a.u.
     unit-cell volume          =    5482.8807 (a.u.)^3
     number of atoms/cell      =           12
     number of atomic types    =            2
     number of electrons       =       141.00
     number of Kohn-Sham states=          100
     kinetic-energy cutoff     =      36.7493  Ry
     charge density cutoff     =     367.4932  Ry
     convergence threshold     =      1.0E-06
     mixing beta               =       0.1000
     number of iterations used =           10  plain     mixing
     Exchange-correlation      = BEEF-VDW ( 1  4 27 13 2)
     nstep                     =           50

     celldm(1)=   1.889726  celldm(2)=   0.000000  celldm(3)=   0.000000
     celldm(4)=   0.000000  celldm(5)=   0.000000  celldm(6)=   0.000000

     crystal axes: (cart. coord. in units of alat)
               a(1) = (   6.125713   0.000000   0.000000 )
               a(2) = (  -3.062857   5.305023   0.000000 )
               a(3) = (   0.000000   0.000000  25.001624 )

     reciprocal axes: (cart. coord. in units 2 pi/alat)
               b(1) = (  0.163246  0.094250  0.000000 )
               b(2) = (  0.000000  0.188501  0.000000 )
               b(3) = (  0.000000  0.000000  0.039997 )

     PseudoPot. # 1 for Au read from file:
     /afs/slac.stanford.edu/u/if/mamunm/psp/gbrv1.5pbe/Au.UPF
     MD5 check sum: 9d7f43293ad2c663164586bc4b293ffc
     Pseudo is Ultrasoft + core correction, Zval = 11.0
     Generated by new atomic code, or converted to UPF format
     Using radial grid of  985 points,  7 beta functions with:
                l(1) =   0
                l(2) =   0
                l(3) =   1
                l(4) =   1
                l(5) =   2
                l(6) =   2
                l(7) =   3
     Q(r) pseudized with  6 coefficients,  rinner =    1.900   1.900   1.900
                                                       1.900   1.900   1.900
                                                       1.900

     PseudoPot. # 2 for Sn read from file:
     /afs/slac.stanford.edu/u/if/mamunm/psp/gbrv1.5pbe/Sn.UPF
     MD5 check sum: 469debedee59599fedebd795477fea03
     Pseudo is Ultrasoft + core correction, Zval = 14.0
     Generated by new atomic code, or converted to UPF format
     Using radial grid of  891 points,  6 beta functions with:
                l(1) =   0
                l(2) =   0
                l(3) =   1
                l(4) =   1
                l(5) =   2
                l(6) =   2
     Q(r) pseudized with  8 coefficients,  rinner =    1.350   1.350   1.350
                                                       1.350   1.350

     vdW kernel table read from file vdW_kernel_table
     MD5 check sum: 095c7af220d748ca6e76c0b4c6cfb241

     atomic species   valence    mass     pseudopotential
        Au1           11.00   196.96657     Au( 1.00)
        Sn1           14.00   118.71000     Sn( 1.00)

     No symmetry found

   Cartesian axes

     site n.     atom                  positions (alat units)
         1           Au1 tau(   1) = (   0.0000000   0.0000000  10.0000000  )
         2           Au1 tau(   2) = (  -1.5314283   2.6525117  10.0000000  )
         3           Au1 tau(   3) = (   1.5314283   2.6525117  10.0000000  )
         4           Sn1 tau(   4) = (   3.0628567   0.0000000  10.0000000  )
         5           Au1 tau(   5) = (   3.0628567   1.7683411  12.5008120  )
         6           Au1 tau(   6) = (   1.5314283   4.4208528  12.5008120  )
         7           Au1 tau(   7) = (  -1.5314283   4.4208528  12.5008120  )
         8           Sn1 tau(   8) = (   0.0000000   1.7683411  12.5008120  )
         9           Au1 tau(   9) = (  -0.0000000   3.5366823  15.0016240  )
        10           Au1 tau(  10) = (   1.5314283   0.8841706  15.0016240  )
        11           Au1 tau(  11) = (   4.5942850   0.8841706  15.0016240  )
        12           Sn1 tau(  12) = (   3.0628567   3.5366823  15.0016240  )

     number of k points=    20  Fermi-Dirac smearing, width (Ry)=  0.0110
                       cart. coord. in units 2pi/alat
        k(    1) = (   0.0000000   0.0000000   0.0000000), wk =   0.0555556
        k(    2) = (   0.0000000   0.0314168   0.0000000), wk =   0.1111111
        k(    3) = (   0.0000000   0.0628335   0.0000000), wk =   0.1111111
        k(    4) = (   0.0000000  -0.0942503   0.0000000), wk =   0.0555556
        k(    5) = (   0.0272077   0.0157084   0.0000000), wk =   0.1111111
        k(    6) = (   0.0272077   0.0471251   0.0000000), wk =   0.1111111
        k(    7) = (   0.0272077   0.0785419   0.0000000), wk =   0.1111111
        k(    8) = (   0.0272077  -0.0785419   0.0000000), wk =   0.1111111
        k(    9) = (   0.0272077  -0.0471251   0.0000000), wk =   0.1111111
        k(   10) = (   0.0272077  -0.0157084   0.0000000), wk =   0.1111111
        k(   11) = (   0.0544154   0.0314168   0.0000000), wk =   0.1111111
        k(   12) = (   0.0544154   0.0628335   0.0000000), wk =   0.1111111
        k(   13) = (   0.0544154   0.0942503   0.0000000), wk =   0.1111111
        k(   14) = (   0.0544154  -0.0628335   0.0000000), wk =   0.1111111
        k(   15) = (   0.0544154  -0.0314168   0.0000000), wk =   0.1111111
        k(   16) = (   0.0544154  -0.0000000   0.0000000), wk =   0.1111111
        k(   17) = (  -0.0816231  -0.0471251   0.0000000), wk =   0.0555556
        k(   18) = (  -0.0816231  -0.0157084   0.0000000), wk =   0.1111111
        k(   19) = (  -0.0816231   0.0157084   0.0000000), wk =   0.1111111
        k(   20) = (  -0.0816231  -0.1413754   0.0000000), wk =   0.0555556

     Largest allocated arrays     est. size (Mb)     dimensions
     Largest temporary arrays     est. size (Mb)     dimensions

     Check: negative/imaginary core charge=   -0.000002    0.000000

     Initial potential from superposition of free atoms
     Check: negative starting charge=   -0.000635

     starting charge  137.99876, renormalised to  141.00000

     negative rho (up, down):  6.491E-04 0.000E+00

     *
     * You are using vdW-DF for exchange-correlation in this calculation.
     * Please cite the following three references that made this development
     * possible:
     *
     *   M. Dion, H. Rydberg, E. Schroder, D. C. Langreth, and
     *   B. I. Lundqvist, Phys. Rev. Lett. 92, 246401 (2004).
     *
     *   T. Thonhauser, V. R. Cooper, S. Li, A. Puzder, P. Hyldgaard, and
     *   D. C. Langreth, Phys. Rev. B 76, 125112 (2007).
     *
     *   G. Roman-Perez and J. M. Soler, Phys. Rev. Lett. 103, 096102 (2009).
     *
     *
     * If you are using vdW-DF2, please also cite:
     *
     *   K. Lee, E. D. Murray, L. Kong, B. I. Lundqvist, and
     *   D. C. Langreth, Phys. Rev. B 82, 081101(R) (2010).
     *
     *
     * If you are calculating the stress with vdW-DF, please also cite:
     *
     *   R. Sabatini, E. Kucukbenli, B. Kolb, T. Thonhauser, and
     *   S. de Gironcoli, J. Phys.: Condens. Matter 24, 424209 (2012).
     *

     Carrying out vdW-DF run using the following parameters:

     Nqs =      20    Nr_points =    1024   r_max =   100.000
     q_mesh =
               0.00001000     0.04494208     0.09755937     0.15916263
               0.23128650     0.31572767     0.41458969     0.53033537
               0.66584808     0.82450364     1.01025438     1.22772762
               1.48234092     1.78043706     2.12944203     2.53805004
               3.01644009     3.57652955     4.23227104     5.00000000

     Gradients computed in reciprocal space

     Adding external electric field

     Computed dipole along edir(3) :
        Dipole               -0.0000 Ry au,         -0.0000 Debye
        Dipole field         -0.0000 Ry au

        Potential amp.        0.0000 Ry
        Total length         46.0651 bohr

     Starting wfc are  108 randomized atomic wfcs

     Self-consistent Calculation

     iteration #  1     ecut=    36.75 Ry     beta=0.10
     Davidson diagonalization with overlap
     ethr =  1.00E-02,  avg # of iterations =  8.0

[...]

     total energy              =   -1532.67413235 Ry
     Harris-Foulkes estimate   =   -1533.03831515 Ry
     estimated scf accuracy    <       2.26512232 Ry

[...]

     End of self-consistent calculation

          k = 0.0000 0.0000 0.0000 ( 20647 PWs)   bands (ev):

   -21.6330 -21.6228 -21.6228 -21.6071 -21.6071 -21.5133 -21.5119 -21.5002
   -21.5002 -21.4986 -21.4986 -21.4825 -21.4825 -21.4825 -21.4825  -9.1598
    -7.8713  -7.5860  -5.5202  -5.2801  -5.2236  -4.9702  -4.9702  -4.6939
    -4.6939  -4.6795  -4.6285  -4.6285  -4.3879  -4.3879  -4.1509  -3.8730
    -3.8730  -3.7833  -3.7833  -3.7215  -3.6336  -3.4676  -3.3264  -3.3264
    -3.2750  -3.2166  -3.2166  -3.0894  -3.0894  -2.8205  -2.8205  -2.7690
    -2.7690  -2.7105  -2.4588  -2.4588  -2.4372  -2.4372  -2.3138  -2.3138
    -2.1713  -2.1653  -1.9545  -1.9163  -1.9163  -1.6603  -1.6307  -1.4372
    -1.2191  -1.2191  -1.0415  -0.8385  -0.3360  -0.3360  -0.1192  -0.1192
    -0.0409   0.8048   1.7630   1.8390   1.8390   2.5287   2.7126   2.7126
     3.3115   3.3115   3.7614   4.5155   4.6587   5.0682   5.4402   5.8800
     6.1827   6.8410   6.8410   7.1287   7.1287   7.5914   7.8245   7.8245
     7.9629   8.3864   8.6813   8.6813

[...]

          k =-0.0816-0.0471 0.0000 ( 20656 PWs)   bands (ev):

[...]

     the Fermi energy is     0.3971 ev

!    total energy              =   -1532.48463371 Ry
     Harris-Foulkes estimate   =   -1532.48463249 Ry
     estimated scf accuracy    <       0.00000027 Ry

     The total energy is the sum of the following terms:

     one-electron contribution =   -8657.87848933 Ry
     hartree contribution      =    4416.64728973 Ry
     xc contribution           =    -709.54495682 Ry
     ewald contribution        =    3418.31333326 Ry
     electric field correction =       0.00000000 Ry
     smearing contrib. (-TS)   =      -0.02181055 Ry

     convergence has been achieved in  15 iterations

 BEEF-vdW xc energy contributions
           1 :   -631.757499873556
           2 :    585.600227223108
           3 :   -503.964933589240
           4 :    404.121211345407
           5 :   -304.111644774361
           6 :    217.624335298196
           7 :   -151.303601165411
           8 :    104.986329530558
           9 :   -74.1996575375870
          10 :    53.4182249396612
          11 :   -38.5505635282634
          12 :    27.7658132226403
          13 :   -20.7917535709263
          14 :    17.5430522253524
[...]
     MD5 check sum: 9d7f43293ad2c663164586bc4b293ffc
     Pseudo is Ultrasoft + core correction, Zval = 11.0
     Generated by new atomic code, or converted to UPF format
     Using radial grid of  985 points,  7 beta functions with:
                l(1) =   0
                l(2) =   0
                l(3) =   1
                l(4) =   1
                l(5) =   2
                l(6) =   2
                l(7) =   3
     Q(r) pseudized with  6 coefficients,  rinner =    1.900   1.900   1.900
                                                       1.900   1.900   1.900
                                                       1.900

     PseudoPot. # 2 for Sn read from file:
     /afs/slac.stanford.edu/u/if/mamunm/psp/gbrv1.5pbe/Sn.UPF
     MD5 check sum: 469debedee59599fedebd795477fea03
     Pseudo is Ultrasoft + core correction, Zval = 14.0
     Generated by new atomic code, or converted to UPF format
     Using radial grid of  891 points,  6 beta functions with:
                l(1) =   0
                l(2) =   0
                l(3) =   1
                l(4) =   1
                l(5) =   2
                l(6) =   2
     Q(r) pseudized with  8 coefficients,  rinner =    1.350   1.350   1.350
                                                       1.350   1.350

     vdW kernel table read from file vdW_kernel_table
     MD5 check sum: 095c7af220d748ca6e76c0b4c6cfb241

     atomic species   valence    mass     pseudopotential
        Au1           11.00   196.96657     Au( 1.00)
        Sn1           14.00   118.71000     Sn( 1.00)

     No symmetry found

   Cartesian axes

     site n.     atom                  positions (alat units)
         1           Au1 tau(   1) = (   0.0000000   0.0000000  10.0000000  )
         2           Au1 tau(   2) = (  -1.5314283   2.6525117  10.0000000  )
         3           Au1 tau(   3) = (   1.5314283   2.6525117  10.0000000  )
         4           Sn1 tau(   4) = (   3.0628567   0.0000000  10.0000000  )
         5           Au1 tau(   5) = (   3.0628567   1.7683411  12.5008120  )
         6           Au1 tau(   6) = (   1.5314283   4.4208528  12.5008120  )
         7           Au1 tau(   7) = (  -1.5314283   4.4208528  12.5008120  )
         8           Sn1 tau(   8) = (   0.0000000   1.7683411  12.5008120  )
         9           Au1 tau(   9) = (   0.0000279   3.5392796  15.0482546  )
        10           Au1 tau(  10) = (   1.5336569   0.8828758  15.0483009  )
        11           Au1 tau(  11) = (   4.5920368   0.8828660  15.0482722  )
        12           Sn1 tau(  12) = (   3.0628288   3.5367086  15.1341847  )

     number of k points=    20  Fermi-Dirac smearing, width (Ry)=  0.0110
                       cart. coord. in units 2pi/alat
        k(    1) = (   0.0000000   0.0000000   0.0000000), wk =   0.0555556
        k(    2) = (   0.0000000   0.0314168   0.0000000), wk =   0.1111111
        k(    3) = (   0.0000000   0.0628335   0.0000000), wk =   0.1111111
        k(    4) = (   0.0000000  -0.0942503   0.0000000), wk =   0.0555556
        k(    5) = (   0.0272077   0.0157084   0.0000000), wk =   0.1111111
        k(    6) = (   0.0272077   0.0471251   0.0000000), wk =   0.1111111
        k(    7) = (   0.0272077   0.0785419   0.0000000), wk =   0.1111111
        k(    8) = (   0.0272077  -0.0785419   0.0000000), wk =   0.1111111
        k(    9) = (   0.0272077  -0.0471251   0.0000000), wk =   0.1111111
        k(   10) = (   0.0272077  -0.0157084   0.0000000), wk =   0.1111111
        k(   11) = (   0.0544154   0.0314168   0.0000000), wk =   0.1111111
        k(   12) = (   0.0544154   0.0628335   0.0000000), wk =   0.1111111
        k(   13) = (   0.0544154   0.0942503   0.0000000), wk =   0.1111111
        k(   14) = (   0.0544154  -0.0628335   0.0000000), wk =   0.1111111
        k(   15) = (   0.0544154  -0.0314168   0.0000000), wk =   0.1111111
        k(   16) = (   0.0544154  -0.0000000   0.0000000), wk =   0.1111111
        k(   17) = (  -0.0816231  -0.0471251   0.0000000), wk =   0.0555556
        k(   18) = (  -0.0816231  -0.0157084   0.0000000), wk =   0.1111111
        k(   19) = (  -0.0816231   0.0157084   0.0000000), wk =   0.1111111
        k(   20) = (  -0.0816231  -0.1413754   0.0000000), wk =   0.0555556

     Largest allocated arrays     est. size (Mb)     dimensions
     Largest temporary arrays     est. size (Mb)     dimensions

     Check: negative/imaginary core charge=   -0.000002    0.000000

     Initial potential from superposition of free atoms
     Check: negative starting charge=   -0.000634

     starting charge  137.99876, renormalised to  141.00000

[...]

     *
     * You are using vdW-DF for exchange-correlation in this calculation.
     * Please cite the following three references that made this development
     * possible:
     *
     *   M. Dion, H. Rydberg, E. Schroder, D. C. Langreth, and
     *   B. I. Lundqvist, Phys. Rev. Lett. 92, 246401 (2004).
     *
     *   T. Thonhauser, V. R. Cooper, S. Li, A. Puzder, P. Hyldgaard, and
     *   D. C. Langreth, Phys. Rev. B 76, 125112 (2007).
     *
     *   G. Roman-Perez and J. M. Soler, Phys. Rev. Lett. 103, 096102 (2009).
     *
     *
     * If you are using vdW-DF2, please also cite:
     *
     *   K. Lee, E. D. Murray, L. Kong, B. I. Lundqvist, and
     *   D. C. Langreth, Phys. Rev. B 82, 081101(R) (2010).
     *
     *
     * If you are calculating the stress with vdW-DF, please also cite:
     *
     *   R. Sabatini, E. Kucukbenli, B. Kolb, T. Thonhauser, and
     *   S. de Gironcoli, J. Phys.: Condens. Matter 24, 424209 (2012).
     *

     Carrying out vdW-DF run using the following parameters:

     Nqs =      20    Nr_points =    1024   r_max =   100.000
     q_mesh =
               0.00001000     0.04494208     0.09755937     0.15916263
               0.23128650     0.31572767     0.41458969     0.53033537
               0.66584808     0.82450364     1.01025438     1.22772762
               1.48234092     1.78043706     2.12944203     2.53805004
               3.01644009     3.57652955     4.23227104     5.00000000

     Gradients computed in reciprocal space

[...]

     Starting wfc are  108 randomized atomic wfcs

     Self-consistent Calculation

[...]

     total energy              =   -1532.50637200 Ry
     Harris-Foulkes estimate   =   -1532.50636979 Ry
     estimated scf accuracy    <       0.00000307 Ry

     iteration # 14     ecut=    36.75 Ry     beta=0.10
     Davidson diagonalization with overlap
     ethr =  2.17E-09,  avg # of iterations =  2.0

[...]

     negative rho (up, down):  2.603E-04 0.000E+00

     Adding external electric field

     Computed dipole along edir(3) :
        Dipole                0.0135 Ry au,          0.0343 Debye
        Dipole field          0.0000 Ry au

        Potential amp.       -0.0028 Ry
        Total length         46.0651 bohr

     End of self-consistent calculation

[...]

          k = 0.0544-0.0000 0.0000 ( 20575 PWs)   bands (ev):

[...]

          k =-0.0816-0.1414 0.0000 ( 20656 PWs)   bands (ev):

   -21.6085 -21.5980 -21.5977 -21.5782 -21.5763 -21.5290 -21.5116 -21.5115
   -21.4988 -21.4867 -21.4866 -21.4814 -21.4794 -21.4677 -21.4657  -8.0487
    -7.6565  -7.1470  -5.7595  -5.2523  -5.2191  -4.9205  -4.6361  -4.5668
    -4.3782  -4.3010  -4.2676  -4.2654  -4.2327  -4.1997  -4.0773  -3.9851
    -3.9351  -3.8137  -3.7652  -3.7425  -3.5627  -3.5344  -3.4873  -3.4656
    -3.3632  -3.2689  -3.2386  -3.2116  -3.2011  -3.1474  -3.1267  -3.0465
    -3.0057  -2.9848  -2.9582  -2.9575  -2.8572  -2.8161  -2.7715  -2.7637
    -2.6485  -2.6196  -2.5182  -2.4540  -2.3429  -2.2395  -2.2022  -1.9950
    -1.8052  -1.4565  -1.1297  -0.6527  -0.3523  -0.0517   0.1182   1.4480
     1.5981   1.8604   3.2227   3.3674   3.5493   3.7499   3.8624   4.2251
     4.6582   4.8535   5.2526   5.3280   5.3884   5.7585   5.8513   5.9683
     6.0172   6.1052   6.2906   6.3833   6.5929   6.9924   7.0418   7.1802
     7.2451   7.2921   7.5583   7.6827

     the Fermi energy is     0.4134 ev

!    total energy              =   -1532.50637404 Ry
     Harris-Foulkes estimate   =   -1532.50637226 Ry
     estimated scf accuracy    <       0.00000056 Ry

     The total energy is the sum of the following terms:

     one-electron contribution =   -8567.70761235 Ry
     hartree contribution      =    4371.73451581 Ry
     xc contribution           =    -709.50463470 Ry
     ewald contribution        =    3372.99300617 Ry
     electric field correction =       0.00000042 Ry
     smearing contrib. (-TS)   =      -0.02164939 Ry

     convergence has been achieved in  14 iterations

 BEEF-vdW xc energy contributions
           1 :   -632.289342246782
           2 :    586.086270372655
           3 :   -504.392154597862
           4 :    404.522396707846
           5 :   -304.548974258050
           6 :    218.152451352946
           7 :   -151.934515338926
           8 :    105.678647873248
           9 :   -74.8799979962108
          10 :    54.0227603078101
          11 :   -39.0619845206777
          12 :    28.2236002571047
          13 :   -21.2694063806533
          14 :    18.1052762447470
          15 :   -17.7629298475939
          16 :    18.3222947666633
          17 :   -17.6799513523434
          18 :    14.5632859961053
          19 :   -9.13459321589528
          20 :    2.83494043619714
          21 :    2.40319299731800
          22 :   -5.11481769276259
          23 :    4.92140079109265
          24 :   -2.54706417384818
          25 :  -0.685455257227204
          26 :    3.53472253341704
          27 :   -5.32945207110686
          28 :    6.06635564476494
          29 :   -6.16465579080761
          30 :    6.08672957203214
          31 :   -50.8570230296388
          32 :   -37.0255714322867

     Forces acting on atoms (Ry/au):

     negative rho (up, down):  2.603E-04 0.000E+00
     atom    1 type  1   force =     0.00000030   -0.00015998   -0.00329912
     atom    2 type  1   force =    -0.00013519    0.00008066   -0.00330052
     atom    3 type  1   force =     0.00014001    0.00008216   -0.00330329
     atom    4 type  2   force =     0.00000019    0.00000090   -0.00789836
     atom    5 type  1   force =    -0.00000231    0.00165470    0.00480176
     atom    6 type  1   force =     0.00143213   -0.00082716    0.00480204
     atom    7 type  1   force =    -0.00143173   -0.00082677    0.00480397
     atom    8 type  2   force =     0.00000359   -0.00000186    0.00311932
     atom    9 type  1   force =    -0.00000519    0.00056897    0.00003954
     atom   10 type  1   force =     0.00049317   -0.00028461    0.00003531
     atom   11 type  1   force =    -0.00049752   -0.00028212    0.00003735
     atom   12 type  2   force =     0.00000255   -0.00000488    0.00016201

     Total force =     0.013538     Total SCF correction =     0.002703
     SCF correction compared to forces is large: reduce conv_thr to get better values

     entering subroutine stress ...

     negative rho (up, down):  2.603E-04 0.000E+00
          total   stress  (Ry/bohr**3)                   (kbar)     P=  -11.84
  -0.00012422  -0.00000000   0.00000000        -18.27     -0.00      0.00
  -0.00000000  -0.00012422  -0.00000000         -0.00    -18.27     -0.00
   0.00000000  -0.00000000   0.00000692          0.00     -0.00      1.02

 !ASE

     Writing output data file calc.save

     General routines

     Parallel routines

   This run was terminated on:  20:58:33  19Dec2018

   JOB DONE.
Job  /afs/slac/g/suncat/bin/suncat-tsmpirun -x LD_LIBRARY_PATH -wdir /scratch/qe773392_lpYVY pw.x -in pw.inp

TID   HOST_NAME   COMMAND_LINE            STATUS            TERMINATION_TIME
00000 suncat0218 pw.x -in pw.inp   Done                     12/19/2018 20:58:33
00001 suncat0218 pw.x -in pw.inp   Done                     12/19/2018 20:58:33
00002 suncat0218 pw.x -in pw.inp   Done                     12/19/2018 20:58:33
00003 suncat0218 pw.x -in pw.inp   Done                     12/19/2018 20:58:33
00004 suncat0218 pw.x -in pw.inp   Done                     12/19/2018 20:58:33
00005 suncat0218 pw.x -in pw.inp   Done                     12/19/2018 20:58:33
00006 suncat0218 pw.x -in pw.inp   Done                     12/19/2018 20:58:33
00007 suncat0218 pw.x -in pw.inp   Done                     12/19/2018 20:58:33
00008 suncat0212 pw.x -in pw.inp   Done                     12/19/2018 20:58:33
00009 suncat0212 pw.x -in pw.inp   Done                     12/19/2018 20:58:33
00010 suncat0212 pw.x -in pw.inp   Done                     12/19/2018 20:58:33
00011 suncat0212 pw.x -in pw.inp   Done                     12/19/2018 20:58:33
00012 suncat0212 pw.x -in pw.inp   Done                     12/19/2018 20:58:33
00013 suncat0212 pw.x -in pw.inp   Done                     12/19/2018 20:58:33
00014 suncat0212 pw.x -in pw.inp   Done                     12/19/2018 20:58:33
00015 suncat0212 pw.x -in pw.inp   Done                     12/19/2018 20:58:33
00016 suncat0211 pw.x -in pw.inp   Done                     12/19/2018 20:58:33
00017 suncat0211 pw.x -in pw.inp   Done                     12/19/2018 20:58:33
00018 suncat0211 pw.x -in pw.inp   Done                     12/19/2018 20:58:33
00019 suncat0211 pw.x -in pw.inp   Done                     12/19/2018 20:58:33
00020 suncat0211 pw.x -in pw.inp   Done                     12/19/2018 20:58:33
00021 suncat0211 pw.x -in pw.inp   Done                     12/19/2018 20:58:33
00022 suncat0211 pw.x -in pw.inp   Done                     12/19/2018 20:58:33
00023 suncat0211 pw.x -in pw.inp   Done                     12/19/2018 20:58:33
00024 suncat0208 pw.x -in pw.inp   Done                     12/19/2018 20:58:33
00025 suncat0208 pw.x -in pw.inp   Done                     12/19/2018 20:58:33
00026 suncat0208 pw.x -in pw.inp   Done                     12/19/2018 20:58:33
00027 suncat0208 pw.x -in pw.inp   Done                     12/19/2018 20:58:33
00028 suncat0208 pw.x -in pw.inp   Done                     12/19/2018 20:58:33
00029 suncat0208 pw.x -in pw.inp   Done                     12/19/2018 20:58:33
00030 suncat0208 pw.x -in pw.inp   Done                     12/19/2018 20:58:33
00031 suncat0208 pw.x -in pw.inp   Done                     12/19/2018 20:58:33
00032 suncat0207 pw.x -in pw.inp   Done                     12/19/2018 20:58:33
00033 suncat0207 pw.x -in pw.inp   Done                     12/19/2018 20:58:33
00034 suncat0207 pw.x -in pw.inp   Done                     12/19/2018 20:58:33
00035 suncat0207 pw.x -in pw.inp   Done                     12/19/2018 20:58:33
00036 suncat0207 pw.x -in pw.inp   Done                     12/19/2018 20:58:33
00037 suncat0207 pw.x -in pw.inp   Done                     12/19/2018 20:58:33
00038 suncat0207 pw.x -in pw.inp   Done                     12/19/2018 20:58:33
00039 suncat0207 pw.x -in pw.inp   Done                     12/19/2018 20:58:33
00040 suncat0206 pw.x -in pw.inp   Done                     12/19/2018 20:58:33
00041 suncat0206 pw.x -in pw.inp   Done                     12/19/2018 20:58:33
00042 suncat0206 pw.x -in pw.inp   Done                     12/19/2018 20:58:33
00043 suncat0206 pw.x -in pw.inp   Done                     12/19/2018 20:58:33
00044 suncat0206 pw.x -in pw.inp   Done                     12/19/2018 20:58:33
00045 suncat0206 pw.x -in pw.inp   Done                     12/19/2018 20:58:33
00046 suncat0206 pw.x -in pw.inp   Done                     12/19/2018 20:58:33
00047 suncat0206 pw.x -in pw.inp   Done                     12/19/2018 20:58:33
00048 suncat0205 pw.x -in pw.inp   Done                     12/19/2018 20:58:33
00049 suncat0205 pw.x -in pw.inp   Done                     12/19/2018 20:58:33
00050 suncat0205 pw.x -in pw.inp   Done                     12/19/2018 20:58:33
00051 suncat0205 pw.x -in pw.inp   Done                     12/19/2018 20:58:33
00052 suncat0205 pw.x -in pw.inp   Done                     12/19/2018 20:58:33
00053 suncat0205 pw.x -in pw.inp   Done                     12/19/2018 20:58:33
00054 suncat0205 pw.x -in pw.inp   Done                     12/19/2018 20:58:33
00055 suncat0205 pw.x -in pw.inp   Done                     12/19/2018 20:58:33
00056 suncat0204 pw.x -in pw.inp   Done                     12/19/2018 20:58:33
00057 suncat0204 pw.x -in pw.inp   Done                     12/19/2018 20:58:33
00058 suncat0204 pw.x -in pw.inp   Done                     12/19/2018 20:58:33
00059 suncat0204 pw.x -in pw.inp   Done                     12/19/2018 20:58:33
00060 suncat0204 pw.x -in pw.inp   Done                     12/19/2018 20:58:33
00061 suncat0204 pw.x -in pw.inp   Done                     12/19/2018 20:58:33
00062 suncat0204 pw.x -in pw.inp   Done                     12/19/2018 20:58:33
00063 suncat0204 pw.x -in pw.inp   Done                     12/19/2018 20:58:33