     Program PWSCF v.5.1rc2 (svn rev. 11289) starts on 18Dec2018 at 19:31:41

     Current dimensions of program PWSCF are:
     Max number of different atomic species (ntypx) = 10
     Max number of k-points (npk) =  40000
     Max angular momentum in pseudopotentials (lmaxx) =  3
     Presently stress not available with electric field

     IMPORTANT: XC functional enforced from input :
     Exchange-correlation      = BEEF-VDW ( 1  4 27 13 2)
     Any further DFT definition will be discarded
     Please, verify this is what you really want

     Subspace diagonalization in iterative solution of the eigenvalue problem:
     a serial algorithm will be used

     Found symmetry operation: I + ( -0.5000  0.0000  0.0000)
     This is a supercell, fractional translations are disabled

     bravais-lattice index     =            0
     lattice parameter (alat)  =       1.8897  a.u.
     unit-cell volume          =    5748.1539 (a.u.)^3
     number of atoms/cell      =           12
     number of atomic types    =            2
     number of electrons       =       150.00
     number of Kohn-Sham states=          105
     kinetic-energy cutoff     =      36.7493  Ry
     charge density cutoff     =     367.4932  Ry
     convergence threshold     =      1.0E-06
     mixing beta               =       0.1000
     number of iterations used =           10  plain     mixing
     Exchange-correlation      = BEEF-VDW ( 1  4 27 13 2)
     nstep                     =           50

     celldm(1)=   1.889726  celldm(2)=   0.000000  celldm(3)=   0.000000
     celldm(4)=   0.000000  celldm(5)=   0.000000  celldm(6)=   0.000000

     crystal axes: (cart. coord. in units of alat)
               a(1) = (   5.906800   0.000000   0.000000 )
               a(2) = (  -2.953400   5.752352   0.000000 )
               a(3) = (   0.000000   0.000000  25.068830 )

     reciprocal axes: (cart. coord. in units 2 pi/alat)
               b(1) = (  0.169296  0.086921  0.000000 )
               b(2) = (  0.000000  0.173842  0.000000 )
               b(3) = (  0.000000  0.000000  0.039890 )

     PseudoPot. # 1 for Mo read from file:
     /afs/slac.stanford.edu/u/if/mamunm/psp/gbrv1.5pbe/Mo.UPF
     MD5 check sum: 30c4dcd161f5d35cd49bb5239c51a633
     Pseudo is Ultrasoft + core correction, Zval = 14.0
     Generated by new atomic code, or converted to UPF format
     Using radial grid of  889 points,  6 beta functions with:
                l(1) =   0
                l(2) =   0
                l(3) =   1
                l(4) =   1
                l(5) =   2
                l(6) =   2
     Q(r) pseudized with  6 coefficients,  rinner =    1.000   1.000   1.000
                                                       1.000   1.000

     PseudoPot. # 2 for Y  read from file:
     /afs/slac.stanford.edu/u/if/mamunm/psp/gbrv1.5pbe/Y.UPF
     MD5 check sum: d034151ed7554c50b6e82763ed42c788
     Pseudo is Ultrasoft + core correction, Zval = 11.0
     Generated by new atomic code, or converted to UPF format
     Using radial grid of  885 points,  6 beta functions with:
                l(1) =   0
                l(2) =   0
                l(3) =   1
                l(4) =   1
                l(5) =   2
                l(6) =   2
     Q(r) pseudized with  8 coefficients,  rinner =    1.200   1.200   1.200
                                                       1.200   1.200

     vdW kernel table read from file vdW_kernel_table
     MD5 check sum: 095c7af220d748ca6e76c0b4c6cfb241

     atomic species   valence    mass     pseudopotential
        Mo1           14.00    95.95000     Mo( 1.00)
        Y1            11.00    88.90584     Y ( 1.00)

     No symmetry found

   Cartesian axes

     site n.     atom                  positions (alat units)
         1           Mo1 tau(   1) = (   0.0000000   0.0000000  10.0000000  )
         2           Mo1 tau(   2) = (   2.9534002   0.0000000  10.0000000  )
         3           Y1  tau(   3) = (   1.4767001   2.8761758  10.0000000  )
         4           Y1  tau(   4) = (  -1.4767001   2.8761758  10.0000000  )
         5           Mo1 tau(   5) = (   2.9534002   1.5163490  12.5344148  )
         6           Mo1 tau(   6) = (   0.0000000   1.5163490  12.5344148  )
         7           Y1  tau(   7) = (  -1.4767001   4.3925248  12.5344148  )
         8           Y1  tau(   8) = (   1.4767001   4.3925248  12.5344148  )
         9           Mo1 tau(   9) = (   0.0000000   3.0326980  15.0688296  )
        10           Mo1 tau(  10) = (   2.9534002   3.0326980  15.0688296  )
        11           Y1  tau(  11) = (   4.4301003   0.1565222  15.0688296  )
        12           Y1  tau(  12) = (   1.4767001   0.1565222  15.0688296  )

     number of k points=    20  Fermi-Dirac smearing, width (Ry)=  0.0110
                       cart. coord. in units 2pi/alat
        k(    1) = (   0.0000000   0.0000000   0.0000000), wk =   0.0555556
        k(    2) = (   0.0000000   0.0289737   0.0000000), wk =   0.1111111
        k(    3) = (   0.0000000   0.0579473   0.0000000), wk =   0.1111111
        k(    4) = (   0.0000000  -0.0869210   0.0000000), wk =   0.0555556
        k(    5) = (   0.0282161   0.0144868   0.0000000), wk =   0.1111111
        k(    6) = (   0.0282161   0.0434605   0.0000000), wk =   0.1111111
        k(    7) = (   0.0282161   0.0724341   0.0000000), wk =   0.1111111
        k(    8) = (   0.0282161  -0.0724341   0.0000000), wk =   0.1111111
        k(    9) = (   0.0282161  -0.0434605   0.0000000), wk =   0.1111111
        k(   10) = (   0.0282161  -0.0144868   0.0000000), wk =   0.1111111
        k(   11) = (   0.0564321   0.0289737   0.0000000), wk =   0.1111111
        k(   12) = (   0.0564321   0.0579473   0.0000000), wk =   0.1111111
        k(   13) = (   0.0564321   0.0869210   0.0000000), wk =   0.1111111
        k(   14) = (   0.0564321  -0.0579473   0.0000000), wk =   0.1111111
        k(   15) = (   0.0564321  -0.0289737   0.0000000), wk =   0.1111111
        k(   16) = (   0.0564321   0.0000000   0.0000000), wk =   0.1111111
        k(   17) = (  -0.0846482  -0.0434605   0.0000000), wk =   0.0555556
        k(   18) = (  -0.0846482  -0.0144868   0.0000000), wk =   0.1111111
        k(   19) = (  -0.0846482   0.0144868   0.0000000), wk =   0.1111111
        k(   20) = (  -0.0846482  -0.1303815   0.0000000), wk =   0.0555556

     Largest allocated arrays     est. size (Mb)     dimensions
     Largest temporary arrays     est. size (Mb)     dimensions

     Initial potential from superposition of free atoms
     Check: negative starting charge=   -0.003789

     starting charge  149.96680, renormalised to  150.00000

     negative rho (up, down):  3.790E-03 0.000E+00

     *
     * You are using vdW-DF for exchange-correlation in this calculation.
     * Please cite the following three references that made this development
     * possible:
     *
     *   M. Dion, H. Rydberg, E. Schroder, D. C. Langreth, and
     *   B. I. Lundqvist, Phys. Rev. Lett. 92, 246401 (2004).
     *
     *   T. Thonhauser, V. R. Cooper, S. Li, A. Puzder, P. Hyldgaard, and
     *   D. C. Langreth, Phys. Rev. B 76, 125112 (2007).
     *
     *   G. Roman-Perez and J. M. Soler, Phys. Rev. Lett. 103, 096102 (2009).
     *
     *
     * If you are using vdW-DF2, please also cite:
     *
     *   K. Lee, E. D. Murray, L. Kong, B. I. Lundqvist, and
     *   D. C. Langreth, Phys. Rev. B 82, 081101(R) (2010).
     *
     *
     * If you are calculating the stress with vdW-DF, please also cite:
     *
     *   R. Sabatini, E. Kucukbenli, B. Kolb, T. Thonhauser, and
     *   S. de Gironcoli, J. Phys.: Condens. Matter 24, 424209 (2012).
     *

     Carrying out vdW-DF run using the following parameters:

     Nqs =      20    Nr_points =    1024   r_max =   100.000
     q_mesh =
               0.00001000     0.04494208     0.09755937     0.15916263
               0.23128650     0.31572767     0.41458969     0.53033537
               0.66584808     0.82450364     1.01025438     1.22772762
               1.48234092     1.78043706     2.12944203     2.53805004
               3.01644009     3.57652955     4.23227104     5.00000000

     Gradients computed in reciprocal space

     Adding external electric field

     Computed dipole along edir(3) :
        Dipole               -0.0000 Ry au,         -0.0000 Debye
        Dipole field         -0.0000 Ry au

        Potential amp.        0.0000 Ry
        Total length         46.1889 bohr

     Starting wfc are  156 randomized atomic wfcs

     Self-consistent Calculation

     iteration #  1     ecut=    36.75 Ry     beta=0.10
     Davidson diagonalization with overlap
     ethr =  1.00E-02,  avg # of iterations =  2.0

[...]

     total energy              =   -1400.90513074 Ry
     Harris-Foulkes estimate   =   -1402.01309318 Ry
     estimated scf accuracy    <       6.21233021 Ry

[...]

     End of self-consistent calculation

          k = 0.0000 0.0000 0.0000 ( 21589 PWs)   bands (ev):

   -59.4281 -59.3860 -59.2303 -59.2291 -59.1881 -59.1869 -41.2322 -41.2235
   -41.0379 -41.0296 -40.7290 -40.5343 -33.6265 -33.5397 -33.4884 -33.4303
   -33.4289 -33.4018 -33.3527 -33.2731 -33.2395 -33.2391 -33.2275 -33.1920
   -33.1908 -33.1903 -33.1807 -33.1393 -32.9956 -32.9947 -22.0042 -21.9931
   -21.6673 -21.5257 -21.4413 -21.3108 -21.1120 -21.0812 -21.0690 -20.8861
   -20.8712 -20.5682 -20.5250 -20.5134 -20.5083 -20.3662 -20.3566 -20.0393
    -3.2554  -2.0918  -1.5324  -1.2444  -1.2361  -1.1591  -1.1138  -0.9537
    -0.9525  -0.5781  -0.5541  -0.5458  -0.5379  -0.5261  -0.4846   0.1768
     0.4444   0.4664   0.5512   0.7938   0.9803   1.4001   1.5301   1.6638
     1.7675   1.8947   2.0275   2.1527   2.2353   2.3688   2.3872   2.5333
     2.7460   2.7921   2.7925   2.8095   2.8388   2.9556   2.9934   3.0085
     3.2050   3.3925   3.4741   3.7668   3.8096   3.9205   4.0422   4.2874
     4.3320   4.4719   4.6196   4.8873   5.0278   5.0913   5.3216   5.3839
     5.4051

[...]

          k =-0.0846-0.0435 0.0000 ( 21682 PWs)   bands (ev):

[...]

     the Fermi energy is     1.6231 ev

!    total energy              =   -1401.38488424 Ry
     Harris-Foulkes estimate   =   -1401.38488405 Ry
     estimated scf accuracy    <       0.00000099 Ry

     The total energy is the sum of the following terms:

     one-electron contribution =   -9507.08680943 Ry
     hartree contribution      =    4747.36140872 Ry
     xc contribution           =    -289.67008077 Ry
     ewald contribution        =    3648.11766508 Ry
     electric field correction =       0.00000012 Ry
     smearing contrib. (-TS)   =      -0.10706796 Ry

     convergence has been achieved in  19 iterations

 BEEF-vdW xc energy contributions
           1 :   -251.113222871798
           2 :    227.061484531720
           3 :   -185.534685164907
           4 :    136.874323273310
           5 :   -91.2912821915755
           6 :    55.6866346539590
           7 :   -32.4210437234542
           8 :    20.0474316285714
           9 :   -15.1973423035641
          10 :    14.5013192293768
          11 :   -15.7403288500091
          12 :    17.9559067803082
          13 :   -20.8282053576476
[...]

[...]

   This run was terminated on:  20: 2:11  18Dec2018

[...]

     Program PWSCF v.5.1rc2 (svn rev. 11289) starts on 18Dec2018 at 20: 2:21

[...]

   This run was terminated on:  20: 7:25  18Dec2018

[...]

     Program PWSCF v.5.1rc2 (svn rev. 11289) starts on 18Dec2018 at 20: 7:31

[...]

     Found symmetry operation: I + ( -0.5000  0.0000  0.0000)
     This is a supercell, fractional translations are disabled

[...]

     Program PWSCF v.5.1rc2 (svn rev. 11289) starts on 18Dec2018 at 20:17:49

     Current dimensions of program PWSCF are:
     Max number of different atomic species (ntypx) = 10
     Max number of k-points (npk) =  40000
     Max angular momentum in pseudopotentials (lmaxx) =  3
     Presently stress not available with electric field

     IMPORTANT: XC functional enforced from input :
     Exchange-correlation      = BEEF-VDW ( 1  4 27 13 2)
     Any further DFT definition will be discarded
     Please, verify this is what you really want

     Subspace diagonalization in iterative solution of the eigenvalue problem:
     a serial algorithm will be used

     bravais-lattice index     =            0
     lattice parameter (alat)  =       1.8897  a.u.
     unit-cell volume          =    5748.1539 (a.u.)^3
     number of atoms/cell      =           12
     number of atomic types    =            2
     number of electrons       =       150.00
     number of Kohn-Sham states=          105
     kinetic-energy cutoff     =      36.7493  Ry
     charge density cutoff     =     367.4932  Ry
     convergence threshold     =      1.0E-06
     mixing beta               =       0.1000
     number of iterations used =           10  plain     mixing
     Exchange-correlation      = BEEF-VDW ( 1  4 27 13 2)
     nstep                     =           50

     celldm(1)=   1.889726  celldm(2)=   0.000000  celldm(3)=   0.000000
     celldm(4)=   0.000000  celldm(5)=   0.000000  celldm(6)=   0.000000

     crystal axes: (cart. coord. in units of alat)
               a(1) = (   5.906800   0.000000   0.000000 )
               a(2) = (  -2.953400   5.752352   0.000000 )
               a(3) = (   0.000000   0.000000  25.068830 )

     reciprocal axes: (cart. coord. in units 2 pi/alat)
               b(1) = (  0.169296  0.086921  0.000000 )
               b(2) = (  0.000000  0.173842  0.000000 )
               b(3) = (  0.000000  0.000000  0.039890 )

     PseudoPot. # 1 for Mo read from file:
     /afs/slac.stanford.edu/u/if/mamunm/psp/gbrv1.5pbe/Mo.UPF
     MD5 check sum: 30c4dcd161f5d35cd49bb5239c51a633
     Pseudo is Ultrasoft + core correction, Zval = 14.0
     Generated by new atomic code, or converted to UPF format
     Using radial grid of  889 points,  6 beta functions with:
                l(1) =   0
                l(2) =   0
                l(3) =   1
                l(4) =   1
                l(5) =   2
                l(6) =   2
     Q(r) pseudized with  6 coefficients,  rinner =    1.000   1.000   1.000
                                                       1.000   1.000

     PseudoPot. # 2 for Y  read from file:
     /afs/slac.stanford.edu/u/if/mamunm/psp/gbrv1.5pbe/Y.UPF
     MD5 check sum: d034151ed7554c50b6e82763ed42c788
     Pseudo is Ultrasoft + core correction, Zval = 11.0
     Generated by new atomic code, or converted to UPF format
     Using radial grid of  885 points,  6 beta functions with:
                l(1) =   0
                l(2) =   0
                l(3) =   1
                l(4) =   1
                l(5) =   2
                l(6) =   2
     Q(r) pseudized with  8 coefficients,  rinner =    1.200   1.200   1.200
                                                       1.200   1.200

     vdW kernel table read from file vdW_kernel_table
     MD5 check sum: 095c7af220d748ca6e76c0b4c6cfb241

     atomic species   valence    mass     pseudopotential
        Mo1           14.00    95.95000     Mo( 1.00)
        Y1            11.00    88.90584     Y ( 1.00)

     No symmetry found

   Cartesian axes

     site n.     atom                  positions (alat units)
         1           Mo1 tau(   1) = (   0.0000000   0.0000000  10.0000000  )
         2           Mo1 tau(   2) = (   2.9534002   0.0000000  10.0000000  )
         3           Y1  tau(   3) = (   1.4767001   2.8761758  10.0000000  )
         4           Y1  tau(   4) = (  -1.4767001   2.8761758  10.0000000  )
         5           Mo1 tau(   5) = (   2.9534002   1.5163490  12.5344148  )
         6           Mo1 tau(   6) = (   0.0000000   1.5163490  12.5344148  )
         7           Y1  tau(   7) = (  -1.4767001   4.3925248  12.5344148  )
         8           Y1  tau(   8) = (   1.4767001   4.3925248  12.5344148  )
         9           Mo1 tau(   9) = (   0.0002742   2.7706065  14.6248909  )
        10           Mo1 tau(  10) = (   2.9537385   2.7706156  14.6248763  )
        11           Y1  tau(  11) = (   4.4300304   0.2173528  15.2847772  )
        12           Y1  tau(  12) = (   1.4766182   0.2173883  15.2847188  )

     number of k points=    20  Fermi-Dirac smearing, width (Ry)=  0.0110
                       cart. coord. in units 2pi/alat
        k(    1) = (   0.0000000   0.0000000   0.0000000), wk =   0.0555556
        k(    2) = (   0.0000000   0.0289737   0.0000000), wk =   0.1111111
        k(    3) = (   0.0000000   0.0579473   0.0000000), wk =   0.1111111
        k(    4) = (   0.0000000  -0.0869210   0.0000000), wk =   0.0555556
        k(    5) = (   0.0282161   0.0144868   0.0000000), wk =   0.1111111
        k(    6) = (   0.0282161   0.0434605   0.0000000), wk =   0.1111111
        k(    7) = (   0.0282161   0.0724341   0.0000000), wk =   0.1111111
        k(    8) = (   0.0282161  -0.0724341   0.0000000), wk =   0.1111111
        k(    9) = (   0.0282161  -0.0434605   0.0000000), wk =   0.1111111
        k(   10) = (   0.0282161  -0.0144868   0.0000000), wk =   0.1111111
        k(   11) = (   0.0564321   0.0289737   0.0000000), wk =   0.1111111
        k(   12) = (   0.0564321   0.0579473   0.0000000), wk =   0.1111111
        k(   13) = (   0.0564321   0.0869210   0.0000000), wk =   0.1111111
        k(   14) = (   0.0564321  -0.0579473   0.0000000), wk =   0.1111111
        k(   15) = (   0.0564321  -0.0289737   0.0000000), wk =   0.1111111
        k(   16) = (   0.0564321   0.0000000   0.0000000), wk =   0.1111111
        k(   17) = (  -0.0846482  -0.0434605   0.0000000), wk =   0.0555556
        k(   18) = (  -0.0846482  -0.0144868   0.0000000), wk =   0.1111111
        k(   19) = (  -0.0846482   0.0144868   0.0000000), wk =   0.1111111
        k(   20) = (  -0.0846482  -0.1303815   0.0000000), wk =   0.0555556

     Largest allocated arrays     est. size (Mb)     dimensions
     Largest temporary arrays     est. size (Mb)     dimensions

     Initial potential from superposition of free atoms
     Check: negative starting charge=   -0.003691

     starting charge  149.96680, renormalised to  150.00000

[...]

     *
     * You are using vdW-DF for exchange-correlation in this calculation.
     * Please cite the following three references that made this development
     * possible:
     *
     *   M. Dion, H. Rydberg, E. Schroder, D. C. Langreth, and
     *   B. I. Lundqvist, Phys. Rev. Lett. 92, 246401 (2004).
     *
     *   T. Thonhauser, V. R. Cooper, S. Li, A. Puzder, P. Hyldgaard, and
     *   D. C. Langreth, Phys. Rev. B 76, 125112 (2007).
     *
     *   G. Roman-Perez and J. M. Soler, Phys. Rev. Lett. 103, 096102 (2009).
     *
     *
     * If you are using vdW-DF2, please also cite:
     *
     *   K. Lee, E. D. Murray, L. Kong, B. I. Lundqvist, and
     *   D. C. Langreth, Phys. Rev. B 82, 081101(R) (2010).
     *
     *
     * If you are calculating the stress with vdW-DF, please also cite:
     *
     *   R. Sabatini, E. Kucukbenli, B. Kolb, T. Thonhauser, and
     *   S. de Gironcoli, J. Phys.: Condens. Matter 24, 424209 (2012).
     *

     Carrying out vdW-DF run using the following parameters:

     Nqs =      20    Nr_points =    1024   r_max =   100.000
     q_mesh =
               0.00001000     0.04494208     0.09755937     0.15916263
               0.23128650     0.31572767     0.41458969     0.53033537
               0.66584808     0.82450364     1.01025438     1.22772762
               1.48234092     1.78043706     2.12944203     2.53805004
               3.01644009     3.57652955     4.23227104     5.00000000

     Gradients computed in reciprocal space

[...]

     Starting wfc are  156 randomized atomic wfcs

     Self-consistent Calculation

[...]

     iteration # 11     ecut=    36.75 Ry     beta=0.10
     Davidson diagonalization with overlap
     c_bands:  1 eigenvalues not converged
     c_bands:  1 eigenvalues not converged
     ethr =  2.63E-06,  avg # of iterations =  6.0

[...]

     total energy              =   -1401.48338101 Ry
     Harris-Foulkes estimate   =   -1401.48337977 Ry
     estimated scf accuracy    <       0.00000283 Ry

     iteration # 18     ecut=    36.75 Ry     beta=0.10
     Davidson diagonalization with overlap
     ethr =  1.89E-09,  avg # of iterations =  2.4

[...]

     negative rho (up, down):  3.178E-03 0.000E+00

     Adding external electric field

     Computed dipole along edir(3) :
        Dipole                0.2820 Ry au,          0.7168 Debye
        Dipole field          0.0006 Ry au

        Potential amp.       -0.0570 Ry
        Total length         46.1889 bohr

     End of self-consistent calculation

[...]

          k = 0.0564 0.0000 0.0000 ( 21579 PWs)   bands (ev):

[...]

          k =-0.0846-0.1304 0.0000 ( 21682 PWs)   bands (ev):

   -59.0571 -59.0571 -58.9488 -58.9488 -58.7678 -58.7678 -41.0328 -41.0327
   -40.8694 -40.8694 -40.2837 -40.2837 -33.6059 -33.6059 -33.0586 -33.0586
   -33.0483 -33.0483 -33.0039 -33.0039 -32.9717 -32.9717 -32.9272 -32.9272
   -32.8112 -32.8112 -32.8083 -32.8082 -32.4218 -32.4218 -21.2175 -21.2175
   -21.1429 -21.1429 -21.0544 -21.0544 -21.0345 -21.0345 -20.9133 -20.9133
   -20.7183 -20.7183 -20.4971 -20.4971 -20.1825 -20.1825 -20.1696 -20.1696
    -1.5009  -1.5009  -0.7184  -0.7184  -0.4182  -0.4182  -0.2431  -0.2430
    -0.1067  -0.1067   0.1569   0.1569   0.4623   0.4623   0.5463   0.5463
     0.8099   0.8100   1.0178   1.0178   1.2915   1.2916   1.3529   1.3529
     1.4394   1.4394   1.5585   1.5585   1.9729   1.9730   2.1018   2.1018
     2.3413   2.3413   2.4919   2.4919   2.8357   2.8357   3.1994   3.1994
     3.5770   3.5770   3.6838   3.6839   4.0218   4.0218   4.1193   4.1193
     4.4323   4.4324   4.6379   4.6379   4.7677   4.7677   5.1201   5.1201
     5.5030

     the Fermi energy is     1.8838 ev

!    total energy              =   -1401.48338219 Ry
     Harris-Foulkes estimate   =   -1401.48337875 Ry
     estimated scf accuracy    <       0.00000061 Ry

     The total energy is the sum of the following terms:

     one-electron contribution =   -9713.67692285 Ry
     hartree contribution      =    4852.12877024 Ry
     xc contribution           =    -290.00860115 Ry
     ewald contribution        =    3750.17331225 Ry
     electric field correction =       0.00017387 Ry
     smearing contrib. (-TS)   =      -0.10011455 Ry

     convergence has been achieved in  18 iterations

 BEEF-vdW xc energy contributions
           1 :   -251.462561800234
           2 :    227.518101882335
           3 :   -186.125795718097
           4 :    137.504861291518
           5 :   -91.7644562479147
           6 :    55.7944638537506
           7 :   -32.0681416053355
           8 :    19.3274325738290
           9 :   -14.3607352049967
          10 :    13.8290650836789
          11 :   -15.4057318764973
          12 :    17.9562071122573
          13 :   -21.0110746688246
          14 :    24.0699814664415
          15 :   -26.2670440047300
          16 :    26.5694964192058
          17 :   -24.2966151704589
          18 :    19.5479390162593
          19 :   -13.2588427161828
          20 :    6.85800564520702
          21 :   -1.73135803220720
          22 :   -1.25074136874463
          23 :    1.95112008789386
          24 :  -0.887390620189080
          25 :   -1.05585363442219
          26 :    2.96328237531259
          27 :   -4.14452739307035
          28 :    4.25383189759111
          29 :   -3.29390425180111
          30 :    1.54142811275028
          31 :   -25.8961733685827
          32 :   -18.6586316419462

     Forces acting on atoms (Ry/au):

     negative rho (up, down):  3.178E-03 0.000E+00
     atom    1 type  1   force =     0.00000662    0.01526294    0.05032535
     atom    2 type  1   force =     0.00000700    0.01525968    0.05032688
     atom    3 type  2   force =     0.00001099   -0.02444229   -0.03830662
     atom    4 type  2   force =     0.00000362   -0.02444029   -0.03830573
     atom    5 type  1   force =     0.00000308   -0.01326839   -0.00557160
     atom    6 type  1   force =     0.00000375   -0.01326714   -0.00557056
     atom    7 type  2   force =     0.00000857    0.02276546   -0.00662919
     atom    8 type  2   force =     0.00001120    0.02276395   -0.00662636
     atom    9 type  1   force =    -0.00003530    0.00058512    0.00027021
     atom   10 type  1   force =    -0.00002699    0.00058261    0.00027503
     atom   11 type  2   force =    -0.00000007   -0.00090202   -0.00009253
     atom   12 type  2   force =     0.00000752   -0.00089963   -0.00009487

     Total force =     0.105838     Total SCF correction =     0.002862

     entering subroutine stress ...

     negative rho (up, down):  3.178E-03 0.000E+00
          total   stress  (Ry/bohr**3)                   (kbar)     P=   -5.70
   0.00000929   0.00000001   0.00000001          1.37      0.00      0.00
   0.00000001  -0.00010348   0.00001452          0.00    -15.22      2.14
   0.00000001   0.00001452  -0.00002209          0.00      2.14     -3.25

 !ASE

     Writing output data file calc.save

     General routines

     Parallel routines

   This run was terminated on:  20:22:50  18Dec2018

   JOB DONE.
Job  /afs/slac/g/suncat/bin/suncat-tsmpirun -x LD_LIBRARY_PATH -wdir /scratch/qe530286_XYrWo pw.x -in pw.inp

TID   HOST_NAME   COMMAND_LINE            STATUS            TERMINATION_TIME
00000 suncat2052 pw.x -in pw.inp   Done                     12/18/2018 20:22:50
00001 suncat2052 pw.x -in pw.inp   Done                     12/18/2018 20:22:50
00002 suncat2052 pw.x -in pw.inp   Done                     12/18/2018 20:22:50
00003 suncat2052 pw.x -in pw.inp   Done                     12/18/2018 20:22:50
00004 suncat2052 pw.x -in pw.inp   Done                     12/18/2018 20:22:50
00005 suncat2052 pw.x -in pw.inp   Done                     12/18/2018 20:22:50
00006 suncat2052 pw.x -in pw.inp   Done                     12/18/2018 20:22:50
00007 suncat2052 pw.x -in pw.inp   Done                     12/18/2018 20:22:50
00008 suncat2052 pw.x -in pw.inp   Done                     12/18/2018 20:22:50
00009 suncat2052 pw.x -in pw.inp   Done                     12/18/2018 20:22:50
00010 suncat2052 pw.x -in pw.inp   Done                     12/18/2018 20:22:50
00011 suncat2052 pw.x -in pw.inp   Done                     12/18/2018 20:22:50
00012 suncat2052 pw.x -in pw.inp   Done                     12/18/2018 20:22:50
00013 suncat2052 pw.x -in pw.inp   Done                     12/18/2018 20:22:50
00014 suncat2052 pw.x -in pw.inp   Done                     12/18/2018 20:22:50
00015 suncat2052 pw.x -in pw.inp   Done                     12/18/2018 20:22:50
00016 suncat2051 pw.x -in pw.inp   Done                     12/18/2018 20:22:50
00017 suncat2051 pw.x -in pw.inp   Done                     12/18/2018 20:22:50
00018 suncat2051 pw.x -in pw.inp   Done                     12/18/2018 20:22:50
00019 suncat2051 pw.x -in pw.inp   Done                     12/18/2018 20:22:50
00020 suncat2051 pw.x -in pw.inp   Done                     12/18/2018 20:22:50
00021 suncat2051 pw.x -in pw.inp   Done                     12/18/2018 20:22:50
00022 suncat2051 pw.x -in pw.inp   Done                     12/18/2018 20:22:50
00023 suncat2051 pw.x -in pw.inp   Done                     12/18/2018 20:22:50
00024 suncat2051 pw.x -in pw.inp   Done                     12/18/2018 20:22:50
00025 suncat2051 pw.x -in pw.inp   Done                     12/18/2018 20:22:50
00026 suncat2051 pw.x -in pw.inp   Done                     12/18/2018 20:22:50
00027 suncat2051 pw.x -in pw.inp   Done                     12/18/2018 20:22:50
00028 suncat2051 pw.x -in pw.inp   Done                     12/18/2018 20:22:50
00029 suncat2051 pw.x -in pw.inp   Done                     12/18/2018 20:22:50
00030 suncat2051 pw.x -in pw.inp   Done                     12/18/2018 20:22:50
00031 suncat2051 pw.x -in pw.inp   Done                     12/18/2018 20:22:50