     Program PWSCF v.5.1rc2 (svn rev. 11289) starts on  2Jan2019 at  1:25:34

     Current dimensions of program PWSCF are:
     Max number of different atomic species (ntypx) = 10
     Max number of k-points (npk) =  40000
     Max angular momentum in pseudopotentials (lmaxx) =  3
     Presently stress not available with electric field

     IMPORTANT: XC functional enforced from input :
     Exchange-correlation      = BEEF-VDW ( 1  4 27 13 2)
     Any further DFT definition will be discarded
     Please, verify this is what you really want

     Subspace diagonalization in iterative solution of the eigenvalue problem:
     a serial algorithm will be used

     Generating pointlists ...
     new r_m :   0.4125 (alat units)  0.7795 (a.u.) for type    1
     new r_m :   0.4125 (alat units)  0.7795 (a.u.) for type    2

     bravais-lattice index     =            0
     lattice parameter (alat)  =       1.8897  a.u.
     unit-cell volume          =    6896.5025 (a.u.)^3
     number of atoms/cell      =           12
     number of atomic types    =            2
     number of electrons       =       162.00
     number of Kohn-Sham states=          111
     kinetic-energy cutoff     =      36.7493  Ry
     charge density cutoff     =     367.4932  Ry
     convergence threshold     =      1.0E-06
     mixing beta               =       0.1000
     number of iterations used =           10  plain     mixing
     Exchange-correlation      = BEEF-VDW ( 1  4 27 13 2)
     nstep                     =           50

     celldm(1)=   1.889726  celldm(2)=   0.000000  celldm(3)=   0.000000
     celldm(4)=   0.000000  celldm(5)=   0.000000  celldm(6)=   0.000000

     crystal axes: (cart. coord. in units of alat)
               a(1) = (   6.796159   0.000000   0.000000 )
               a(2) = (  -3.398080   5.885646   0.000000 )
               a(3) = (   0.000000   0.000000  25.549041 )

     reciprocal axes: (cart. coord. in units 2 pi/alat)
               b(1) = (  0.147142  0.084952  0.000000 )
               b(2) = (  0.000000  0.169905  0.000000 )
               b(3) = (  0.000000  0.000000  0.039140 )

     PseudoPot. # 1 for Tl read from file:
     /afs/slac.stanford.edu/u/if/mamunm/psp/gbrv1.5pbe/Tl.UPF
     MD5 check sum: b76cf1f7e72655a2b2c53cf6385d7059
     Pseudo is Ultrasoft + core correction, Zval = 13.0
     Generated by new atomic code, or converted to UPF format
     Using radial grid of  899 points,  6 beta functions with:
                l(1) =   0
                l(2) =   0
                l(3) =   1
                l(4) =   1
                l(5) =   2
                l(6) =   2
     Q(r) pseudized with  6 coefficients,  rinner =    1.100   1.100   1.100
                                                       1.100   1.100

     PseudoPot. # 2 for Mn read from file:
     /afs/slac.stanford.edu/u/if/mamunm/psp/gbrv1.5pbe/Mn.UPF
     MD5 check sum: 82ef2b46521d7a7d9e736dc3972e4928
     Pseudo is Ultrasoft + core correction, Zval = 15.0
     Generated by new atomic code, or converted to UPF format
     Using radial grid of  859 points,  6 beta functions with:
                l(1) =   0
                l(2) =   0
                l(3) =   1
                l(4) =   1
                l(5) =   2
                l(6) =   2
     Q(r) pseudized with  8 coefficients,  rinner =    0.950   0.950   0.950
                                                       0.950   0.950

     vdW kernel table read from file vdW_kernel_table
     MD5 check sum: 095c7af220d748ca6e76c0b4c6cfb241

     atomic species   valence    mass     pseudopotential
        Tl1           13.00   204.38000     Tl( 1.00)
        Mn1           15.00    54.93804     Mn( 1.00)

     Starting magnetic structure
     atomic species   magnetization
        Tl1          0.154
        Mn1          0.133

     No symmetry found

   Cartesian axes

     site n.     atom                  positions (alat units)
         1           Tl1 tau(   1) = (   0.0000000   0.0000000  10.0000000  )
         2           Tl1 tau(   2) = (  -1.6990398   2.9428232  10.0000000  )
         3           Tl1 tau(   3) = (   1.6990398   2.9428232  10.0000000  )
         4           Mn1 tau(   4) = (   3.3980795   0.0000000  10.0000000  )
         5           Tl1 tau(   5) = (   3.3980795   1.9618821  12.7745203  )
         6           Tl1 tau(   6) = (   1.6990398   4.9047053  12.7745203  )
         7           Tl1 tau(   7) = (  -1.6990398   4.9047053  12.7745203  )
         8           Mn1 tau(   8) = (   0.0000000   1.9618821  12.7745203  )
         9           Tl1 tau(   9) = (  -0.0000000   3.9237643  15.5490406  )
        10           Tl1 tau(  10) = (   1.6990398   0.9809411  15.5490406  )
        11           Tl1 tau(  11) = (   5.0971193   0.9809411  15.5490406  )
        12           Mn1 tau(  12) = (   3.3980795   3.9237643  15.5490406  )

     number of k points=    40  Fermi-Dirac smearing, width (Ry)=  0.0110
                       cart. coord. in units 2pi/alat
        k(    1) = (   0.0000000   0.0000000   0.0000000), wk =   0.0277778
        k(    2) = (   0.0000000   0.0283175   0.0000000), wk =   0.0555556
        k(    3) = (   0.0000000   0.0566350   0.0000000), wk =   0.0555556
        k(    4) = (   0.0000000  -0.0849524   0.0000000), wk =   0.0277778
        k(    5) = (   0.0245237   0.0141587   0.0000000), wk =   0.0555556
        k(    6) = (   0.0245237   0.0424762   0.0000000), wk =   0.0555556
        k(    7) = (   0.0245237   0.0707937   0.0000000), wk =   0.0555556
        k(    8) = (   0.0245237  -0.0707937   0.0000000), wk =   0.0555556
        k(    9) = (   0.0245237  -0.0424762   0.0000000), wk =   0.0555556
        k(   10) = (   0.0245237  -0.0141587   0.0000000), wk =   0.0555556
        k(   11) = (   0.0490473   0.0283175   0.0000000), wk =   0.0555556
        k(   12) = (   0.0490473   0.0566350   0.0000000), wk =   0.0555556
        k(   13) = (   0.0490473   0.0849524   0.0000000), wk =   0.0555556
        k(   14) = (   0.0490473  -0.0566350   0.0000000), wk =   0.0555556
        k(   15) = (   0.0490473  -0.0283175   0.0000000), wk =   0.0555556
        k(   16) = (   0.0490473   0.0000000   0.0000000), wk =   0.0555556
        k(   17) = (  -0.0735710  -0.0424762   0.0000000), wk =   0.0277778
        k(   18) = (  -0.0735710  -0.0141587   0.0000000), wk =   0.0555556
        k(   19) = (  -0.0735710   0.0141587   0.0000000), wk =   0.0555556
        k(   20) = (  -0.0735710  -0.1274287   0.0000000), wk =   0.0277778
        k(   21) = (   0.0000000   0.0000000   0.0000000), wk =   0.0277778
        k(   22) = (   0.0000000   0.0283175   0.0000000), wk =   0.0555556
        k(   23) = (   0.0000000   0.0566350   0.0000000), wk =   0.0555556
        k(   24) = (   0.0000000  -0.0849524   0.0000000), wk =   0.0277778
        k(   25) = (   0.0245237   0.0141587   0.0000000), wk =   0.0555556
        k(   26) = (   0.0245237   0.0424762   0.0000000), wk =   0.0555556
        k(   27) = (   0.0245237   0.0707937   0.0000000), wk =   0.0555556
        k(   28) = (   0.0245237  -0.0707937   0.0000000), wk =   0.0555556
        k(   29) = (   0.0245237  -0.0424762   0.0000000), wk =   0.0555556
        k(   30) = (   0.0245237  -0.0141587   0.0000000), wk =   0.0555556
        k(   31) = (   0.0490473   0.0283175   0.0000000), wk =   0.0555556
        k(   32) = (   0.0490473   0.0566350   0.0000000), wk =   0.0555556
        k(   33) = (   0.0490473   0.0849524   0.0000000), wk =   0.0555556
        k(   34) = (   0.0490473  -0.0566350   0.0000000), wk =   0.0555556
        k(   35) = (   0.0490473  -0.0283175   0.0000000), wk =   0.0555556
        k(   36) = (   0.0490473   0.0000000   0.0000000), wk =   0.0555556
        k(   37) = (  -0.0735710  -0.0424762   0.0000000), wk =   0.0277778
        k(   38) = (  -0.0735710  -0.0141587   0.0000000), wk =   0.0555556
        k(   39) = (  -0.0735710   0.0141587   0.0000000), wk =   0.0555556
        k(   40) = (  -0.0735710  -0.1274287   0.0000000), wk =   0.0277778

     Largest allocated arrays     est. size (Mb)     dimensions
     Largest temporary arrays     est. size (Mb)     dimensions

     Check: negative/imaginary core charge=   -0.000003    0.000000

     Initial potential from superposition of free atoms
     Check: negative starting charge=(component1):   -0.263941
     Check: negative starting charge=(component2):   -0.193556

     starting charge  160.45595, renormalised to  162.00000

     negative rho (up, down):  2.665E-01 1.954E-01

     *
     * You are using vdW-DF for exchange-correlation in this calculation.
     * Please cite the following three references that made this development
     * possible:
     *
     *   M. Dion, H. Rydberg, E. Schroder, D. C. Langreth, and
     *   B. I. Lundqvist, Phys. Rev. Lett. 92, 246401 (2004).
     *
     *   T. Thonhauser, V. R. Cooper, S. Li, A. Puzder, P. Hyldgaard, and
     *   D. C. Langreth, Phys. Rev. B 76, 125112 (2007).
     *
     *   G. Roman-Perez and J. M. Soler, Phys. Rev. Lett. 103, 096102 (2009).
     *
     *
     * If you are using vdW-DF2, please also cite:
     *
     *   K. Lee, E. D. Murray, L. Kong, B. I. Lundqvist, and
     *   D. C. Langreth, Phys. Rev. B 82, 081101(R) (2010).
     *
     *
     * If you are calculating the stress with vdW-DF, please also cite:
     *
     *   R. Sabatini, E. Kucukbenli, B. Kolb, T. Thonhauser, and
     *   S. de Gironcoli, J. Phys.: Condens. Matter 24, 424209 (2012).
     *

     Carrying out vdW-DF run using the following parameters:

     Nqs =      20    Nr_points =    1024   r_max =   100.000
     q_mesh =
               0.00001000     0.04494208     0.09755937     0.15916263
               0.23128650     0.31572767     0.41458969     0.53033537
               0.66584808     0.82450364     1.01025438     1.22772762
               1.48234092     1.78043706     2.12944203     2.53805004
               3.01644009     3.57652955     4.23227104     5.00000000

     Gradients computed in reciprocal space

     Adding external electric field

     Computed dipole along edir(3) :
        Dipole                0.0000 Ry au,          0.0000 Debye
        Dipole field          0.0000 Ry au

        Potential amp.       -0.0000 Ry
        Total length         47.0737 bohr

[...]

     Starting wfc are  120 randomized atomic wfcs

     Self-consistent Calculation

     iteration #  1     ecut=    36.75 Ry     beta=0.10
     Davidson diagonalization with overlap
     ethr =  1.00E-02,  avg # of iterations =  4.7

[...]

     Magnetic moment per site:
     atom:    1    charge:    1.4238    magn:    0.1987    constr:    0.0000
     atom:    2    charge:    1.4238    magn:    0.1987    constr:    0.0000
     atom:    3    charge:    1.4238    magn:    0.1987    constr:    0.0000
     atom:    4    charge:    6.0964    magn:    0.8053    constr:    0.0000
     atom:    5    charge:    1.4232    magn:    0.1987    constr:    0.0000
     atom:    6    charge:    1.4232    magn:    0.1987    constr:    0.0000
     atom:    7    charge:    1.4232    magn:    0.1987    constr:    0.0000
     atom:    8    charge:    6.1056    magn:    0.7884    constr:    0.0000
[...]
        k(    3) = (   0.0000000   0.0566350   0.0000000), wk =   0.0555556
        k(    4) = (   0.0000000  -0.0849524   0.0000000), wk =   0.0277778
        k(    5) = (   0.0245237   0.0141587   0.0000000), wk =   0.0555556
        k(    6) = (   0.0245237   0.0424762   0.0000000), wk =   0.0555556
        k(    7) = (   0.0245237   0.0707937   0.0000000), wk =   0.0555556
        k(    8) = (   0.0245237  -0.0707937   0.0000000), wk =   0.0555556
        k(    9) = (   0.0245237  -0.0424762   0.0000000), wk =   0.0555556
        k(   10) = (   0.0245237  -0.0141587   0.0000000), wk =   0.0555556
        k(   11) = (   0.0490473   0.0283175   0.0000000), wk =   0.0555556
        k(   12) = (   0.0490473   0.0566350   0.0000000), wk =   0.0555556
        k(   13) = (   0.0490473   0.0849524   0.0000000), wk =   0.0555556
        k(   14) = (   0.0490473  -0.0566350   0.0000000), wk =   0.0555556
        k(   15) = (   0.0490473  -0.0283175   0.0000000), wk =   0.0555556
        k(   16) = (   0.0490473   0.0000000   0.0000000), wk =   0.0555556
        k(   17) = (  -0.0735710  -0.0424762   0.0000000), wk =   0.0277778
        k(   18) = (  -0.0735710  -0.0141587   0.0000000), wk =   0.0555556
        k(   19) = (  -0.0735710   0.0141587   0.0000000), wk =   0.0555556
        k(   20) = (  -0.0735710  -0.1274287   0.0000000), wk =   0.0277778
        k(   21) = (   0.0000000   0.0000000   0.0000000), wk =   0.0277778
        k(   22) = (   0.0000000   0.0283175   0.0000000), wk =   0.0555556
        k(   23) = (   0.0000000   0.0566350   0.0000000), wk =   0.0555556
        k(   24) = (   0.0000000  -0.0849524   0.0000000), wk =   0.0277778
        k(   25) = (   0.0245237   0.0141587   0.0000000), wk =   0.0555556
        k(   26) = (   0.0245237   0.0424762   0.0000000), wk =   0.0555556
        k(   27) = (   0.0245237   0.0707937   0.0000000), wk =   0.0555556
        k(   28) = (   0.0245237  -0.0707937   0.0000000), wk =   0.0555556
        k(   29) = (   0.0245237  -0.0424762   0.0000000), wk =   0.0555556
        k(   30) = (   0.0245237  -0.0141587   0.0000000), wk =   0.0555556
        k(   31) = (   0.0490473   0.0283175   0.0000000), wk =   0.0555556
        k(   32) = (   0.0490473   0.0566350   0.0000000), wk =   0.0555556
        k(   33) = (   0.0490473   0.0849524   0.0000000), wk =   0.0555556
        k(   34) = (   0.0490473  -0.0566350   0.0000000), wk =   0.0555556
        k(   35) = (   0.0490473  -0.0283175   0.0000000), wk =   0.0555556
        k(   36) = (   0.0490473   0.0000000   0.0000000), wk =   0.0555556
        k(   37) = (  -0.0735710  -0.0424762   0.0000000), wk =   0.0277778
        k(   38) = (  -0.0735710  -0.0141587   0.0000000), wk =   0.0555556
        k(   39) = (  -0.0735710   0.0141587   0.0000000), wk =   0.0555556
        k(   40) = (  -0.0735710  -0.1274287   0.0000000), wk =   0.0277778

     Largest allocated arrays     est. size (Mb)     dimensions
     Largest temporary arrays     est. size (Mb)     dimensions

     Check: negative/imaginary core charge=   -0.000003    0.000000

     Initial potential from superposition of free atoms
     Check: negative starting charge=(component1):   -0.262993
     Check: negative starting charge=(component2):   -0.192863

     starting charge  160.45595, renormalised to  162.00000

[...]

     *
     * You are using vdW-DF for exchange-correlation in this calculation.
     * Please cite the following three references that made this development
     * possible:
     *
     *   M. Dion, H. Rydberg, E. Schroder, D. C. Langreth, and
     *   B. I. Lundqvist, Phys. Rev. Lett. 92, 246401 (2004).
     *
     *   T. Thonhauser, V. R. Cooper, S. Li, A. Puzder, P. Hyldgaard, and
     *   D. C. Langreth, Phys. Rev. B 76, 125112 (2007).
     *
     *   G. Roman-Perez and J. M. Soler, Phys. Rev. Lett. 103, 096102 (2009).
     *
     *
     * If you are using vdW-DF2, please also cite:
     *
     *   K. Lee, E. D. Murray, L. Kong, B. I. Lundqvist, and
     *   D. C. Langreth, Phys. Rev. B 82, 081101(R) (2010).
     *
     *
     * If you are calculating the stress with vdW-DF, please also cite:
     *
     *   R. Sabatini, E. Kucukbenli, B. Kolb, T. Thonhauser, and
     *   S. de Gironcoli, J. Phys.: Condens. Matter 24, 424209 (2012).
     *

     Carrying out vdW-DF run using the following parameters:

     Nqs =      20    Nr_points =    1024   r_max =   100.000
     q_mesh =
               0.00001000     0.04494208     0.09755937     0.15916263
               0.23128650     0.31572767     0.41458969     0.53033537
               0.66584808     0.82450364     1.01025438     1.22772762
               1.48234092     1.78043706     2.12944203     2.53805004
               3.01644009     3.57652955     4.23227104     5.00000000

     Gradients computed in reciprocal space

[...]

     Starting wfc are  120 randomized atomic wfcs

     Self-consistent Calculation

[...]

     total energy              =   -1957.31627219 Ry
     Harris-Foulkes estimate   =   -1957.31626833 Ry
     estimated scf accuracy    <       0.00000138 Ry

[...]

     iteration # 21     ecut=    36.75 Ry     beta=0.10
     Davidson diagonalization with overlap
     ethr =  8.51E-10,  avg # of iterations =  3.0

[...]

     negative rho (up, down):  2.382E-01 2.390E-01

[...]

     Adding external electric field

     Computed dipole along edir(3) :
        Dipole                0.0230 Ry au,          0.0584 Debye
        Dipole field          0.0000 Ry au

        Potential amp.       -0.0039 Ry
        Total length         47.0737 bohr

     Magnetic moment per site:
     atom:    1    charge:    1.4249    magn:   -0.0009    constr:    0.0000
     atom:    2    charge:    1.4249    magn:   -0.0009    constr:    0.0000
     atom:    3    charge:    1.4249    magn:   -0.0009    constr:    0.0000
     atom:    4    charge:    6.0186    magn:    1.6697    constr:    0.0000
     atom:    5    charge:    1.4242    magn:   -0.0007    constr:    0.0000
     atom:    6    charge:    1.4242    magn:   -0.0007    constr:    0.0000
     atom:    7    charge:    1.4242    magn:   -0.0007    constr:    0.0000
     atom:    8    charge:    6.0134    magn:    1.6483    constr:    0.0000
     atom:    9    charge:    1.4266    magn:   -0.0009    constr:    0.0000
     atom:   10    charge:    1.4266    magn:   -0.0009    constr:    0.0000
     atom:   11    charge:    1.4266    magn:   -0.0009    constr:    0.0000
     atom:   12    charge:    6.0278    magn:    1.6482    constr:    0.0000

     End of self-consistent calculation

 ------ SPIN UP ------------

[...]

 ------ SPIN DOWN ----------

[...]

          k = 0.0490 0.0000 0.0000 ( 25929 PWs)   bands (ev):

[...]

          k =-0.0736-0.1274 0.0000 ( 25918 PWs)   bands (ev):

   -76.9479 -76.9274 -76.8969 -45.7695 -45.7338 -45.7338 -45.7264 -45.7168
   -45.7168 -45.7151 -45.6848 -45.6848 -11.4253 -11.3984 -11.3505 -11.3299
   -11.3132 -11.2752 -11.2560 -11.2419 -11.2349 -11.2248 -11.2231 -11.2049
   -11.1855 -11.1621 -11.1538 -11.1490 -11.1349 -11.1337 -11.1218 -11.1191
   -11.1091 -11.1073 -11.0968 -11.0907 -11.0858 -11.0769 -11.0391 -11.0362
   -11.0334 -11.0323 -11.0280 -11.0141 -10.9942 -10.9872 -10.9787 -10.9710
   -10.9622 -10.9571 -10.9481 -10.9331 -10.9277 -10.9068 -10.8368 -10.8167
   -10.7449  -7.4496  -7.1308  -6.3171  -5.9677  -5.2391  -5.2299  -4.8691
    -4.3403  -3.3358  -2.0306  -1.4470  -0.5719   0.1038   0.1718   0.4006
     0.5590   0.5904   0.7610   0.9270   1.1172   1.1374   1.3710   1.3877
     1.4951   1.5183   1.5599   1.5751   1.6704   1.6978   1.7277   1.9074
     1.9101   2.1106   2.4262   2.4700   2.5811   2.8618   3.1082   3.1389
     3.5344   3.9969   4.0546   4.1325   4.1826   4.5324   4.5668   4.8675
     4.9475   4.9500   4.9960   5.2400   5.3043   5.3998   5.7055

     the Fermi energy is     0.6347 ev

!    total energy              =   -1957.31627364 Ry
     Harris-Foulkes estimate   =   -1957.31627231 Ry
     estimated scf accuracy    <       0.00000081 Ry

     The total energy is the sum of the following terms:

     one-electron contribution =   -9350.69838114 Ry
     hartree contribution      =    4732.40885355 Ry
     xc contribution           =    -658.84034764 Ry
     ewald contribution        =    3319.86571131 Ry
     electric field correction =       0.00000096 Ry
     smearing contrib. (-TS)   =      -0.05211067 Ry

     total magnetization       =    12.67 Bohr mag/cell
     absolute magnetization    =    14.65 Bohr mag/cell

     convergence has been achieved in  21 iterations

 BEEF-vdW xc energy contributions
           1 :   -585.574422896117
           2 :    541.298820420122
           3 :   -464.655118544918
           4 :    373.862845020141
           5 :   -286.178391144086
           6 :    212.732402902934
           7 :   -157.109078129426
           8 :    116.902246670705
           9 :   -86.7751878491217
          10 :    61.6394816604335
          11 :   -38.8787559211358
          12 :    18.8034243696652
          13 :   -3.36496430761065
          14 :   -5.90419117172360
          15 :    9.31046647673054
          16 :   -8.99406337337075
          17 :    7.73863380011198
          18 :   -7.57290514790748
          19 :    9.01287587871639
          20 :   -11.2401132975244
          21 :    12.9144531294779
          22 :   -13.1055569993562
          23 :    11.8336912556134
          24 :   -9.97874115950890
          25 :    8.65020202200969
          26 :   -8.46429393880476
          27 :    9.19359676678857
          28 :   -9.99066254817535
          29 :    9.96541153429007
          30 :   -8.73172628218958
          31 :   -47.5351400179316
          32 :   -34.4693480818667

     Forces acting on atoms (Ry/au):

     negative rho (up, down):  2.382E-01 2.390E-01
     atom    1 type  1   force =    -0.00000142    0.00731516   -0.00888780
     atom    2 type  1   force =     0.00633062   -0.00365508   -0.00889053
     atom    3 type  1   force =    -0.00633356   -0.00365996   -0.00888237
     atom    4 type  2   force =     0.00000068    0.00000086    0.01552116
     atom    5 type  1   force =     0.00000217   -0.00687590    0.00431511
     atom    6 type  1   force =    -0.00595262    0.00343949    0.00431610
     atom    7 type  1   force =     0.00595410    0.00343565    0.00432018
     atom    8 type  2   force =     0.00000075    0.00000035    0.00210583
     atom    9 type  1   force =    -0.00000124    0.00025195   -0.00068868
     atom   10 type  1   force =     0.00021838   -0.00012805   -0.00068965
     atom   11 type  1   force =    -0.00021802   -0.00012447   -0.00069385
     atom   12 type  2   force =     0.00000015   -0.00000001   -0.00184549

     Total force =     0.029077     Total SCF correction =     0.003499
     SCF correction compared to forces is large: reduce conv_thr to get better values

     entering subroutine stress ...

     negative rho (up, down):  2.382E-01 2.390E-01
          total   stress  (Ry/bohr**3)                   (kbar)     P=   -8.75
  -0.00007193   0.00000000  -0.00000000        -10.58      0.00     -0.00
   0.00000000  -0.00007193  -0.00000000          0.00    -10.58     -0.00
  -0.00000000  -0.00000000  -0.00003457         -0.00     -0.00     -5.09

 !ASE

     Writing output data file calc.save

     General routines

     Parallel routines

   This run was terminated on:   4:30:42   2Jan2019

   JOB DONE.
Job  /afs/slac/g/suncat/bin/suncat-tsmpirun -x LD_LIBRARY_PATH -wdir /scratch/qe649257_6xk7X pw.x -in pw.inp

TID   HOST_NAME   COMMAND_LINE            STATUS            TERMINATION_TIME
00000 suncat0163 pw.x -in pw.inp   Done                     01/02/2019 04:30:42
00001 suncat0163 pw.x -in pw.inp   Done                     01/02/2019 04:30:42
00002 suncat0163 pw.x -in pw.inp   Done                     01/02/2019 04:30:42
00003 suncat0163 pw.x -in pw.inp   Done                     01/02/2019 04:30:42
00004 suncat0163 pw.x -in pw.inp   Done                     01/02/2019 04:30:42
00005 suncat0163 pw.x -in pw.inp   Done                     01/02/2019 04:30:42
00006 suncat0163 pw.x -in pw.inp   Done                     01/02/2019 04:30:42
00007 suncat0163 pw.x -in pw.inp   Done                     01/02/2019 04:30:42
00008 suncat0162 pw.x -in pw.inp   Done                     01/02/2019 04:30:42
00009 suncat0162 pw.x -in pw.inp   Done                     01/02/2019 04:30:42
00010 suncat0162 pw.x -in pw.inp   Done                     01/02/2019 04:30:42
00011 suncat0162 pw.x -in pw.inp   Done                     01/02/2019 04:30:42
00012 suncat0162 pw.x -in pw.inp   Done                     01/02/2019 04:30:42
00013 suncat0162 pw.x -in pw.inp   Done                     01/02/2019 04:30:42
00014 suncat0162 pw.x -in pw.inp   Done                     01/02/2019 04:30:42
00015 suncat0162 pw.x -in pw.inp   Done                     01/02/2019 04:30:42
00016 suncat0139 pw.x -in pw.inp   Done                     01/02/2019 04:30:42
00017 suncat0139 pw.x -in pw.inp   Done                     01/02/2019 04:30:42
00018 suncat0139 pw.x -in pw.inp   Done                     01/02/2019 04:30:42
00019 suncat0139 pw.x -in pw.inp   Done                     01/02/2019 04:30:42
00020 suncat0139 pw.x -in pw.inp   Done                     01/02/2019 04:30:42
00021 suncat0139 pw.x -in pw.inp   Done                     01/02/2019 04:30:42
00022 suncat0139 pw.x -in pw.inp   Done                     01/02/2019 04:30:42
00023 suncat0139 pw.x -in pw.inp   Done                     01/02/2019 04:30:42
00024 suncat0133 pw.x -in pw.inp   Done                     01/02/2019 04:30:42
00025 suncat0133 pw.x -in pw.inp   Done                     01/02/2019 04:30:42
00026 suncat0133 pw.x -in pw.inp   Done                     01/02/2019 04:30:42
00027 suncat0133 pw.x -in pw.inp   Done                     01/02/2019 04:30:42
00028 suncat0133 pw.x -in pw.inp   Done                     01/02/2019 04:30:42
00029 suncat0133 pw.x -in pw.inp   Done                     01/02/2019 04:30:42
00030 suncat0133 pw.x -in pw.inp   Done                     01/02/2019 04:30:42
00031 suncat0133 pw.x -in pw.inp   Done                     01/02/2019 04:30:42
00032 suncat0123 pw.x -in pw.inp   Done                     01/02/2019 04:30:42
00033 suncat0123 pw.x -in pw.inp   Done                     01/02/2019 04:30:42
00034 suncat0123 pw.x -in pw.inp   Done                     01/02/2019 04:30:42
00035 suncat0123 pw.x -in pw.inp   Done                     01/02/2019 04:30:42
00036 suncat0123 pw.x -in pw.inp   Done                     01/02/2019 04:30:42
00037 suncat0123 pw.x -in pw.inp   Done                     01/02/2019 04:30:42
00038 suncat0123 pw.x -in pw.inp   Done                     01/02/2019 04:30:42
00039 suncat0123 pw.x -in pw.inp   Done                     01/02/2019 04:30:42
00040 suncat0122 pw.x -in pw.inp   Done                     01/02/2019 04:30:42
00041 suncat0122 pw.x -in pw.inp   Done                     01/02/2019 04:30:42
00042 suncat0122 pw.x -in pw.inp   Done                     01/02/2019 04:30:42
00043 suncat0122 pw.x -in pw.inp   Done                     01/02/2019 04:30:42
00044 suncat0122 pw.x -in pw.inp   Done                     01/02/2019 04:30:42
00045 suncat0122 pw.x -in pw.inp   Done                     01/02/2019 04:30:42
00046 suncat0122 pw.x -in pw.inp   Done                     01/02/2019 04:30:42
00047 suncat0122 pw.x -in pw.inp   Done                     01/02/2019 04:30:42
00048 suncat0207 pw.x -in pw.inp   Done                     01/02/2019 04:30:42
00049 suncat0207 pw.x -in pw.inp   Done                     01/02/2019 04:30:42
00050 suncat0207 pw.x -in pw.inp   Done                     01/02/2019 04:30:42
00051 suncat0207 pw.x -in pw.inp   Done                     01/02/2019 04:30:42
00052 suncat0207 pw.x -in pw.inp   Done                     01/02/2019 04:30:42
00053 suncat0207 pw.x -in pw.inp   Done                     01/02/2019 04:30:42
00054 suncat0207 pw.x -in pw.inp   Done                     01/02/2019 04:30:42
00055 suncat0207 pw.x -in pw.inp   Done                     01/02/2019 04:30:42
00056 suncat0206 pw.x -in pw.inp   Done                     01/02/2019 04:30:42
00057 suncat0206 pw.x -in pw.inp   Done                     01/02/2019 04:30:42
00058 suncat0206 pw.x -in pw.inp   Done                     01/02/2019 04:30:42
00059 suncat0206 pw.x -in pw.inp   Done                     01/02/2019 04:30:42
00060 suncat0206 pw.x -in pw.inp   Done                     01/02/2019 04:30:42
00061 suncat0206 pw.x -in pw.inp   Done                     01/02/2019 04:30:42
00062 suncat0206 pw.x -in pw.inp   Done                     01/02/2019 04:30:42
00063 suncat0206 pw.x -in pw.inp   Done                     01/02/2019 04:30:42