     Program PWSCF v.5.1rc2 (svn rev. 11289) starts on 27Dec2018 at 13:30:44

     Current dimensions of program PWSCF are:
     Max number of different atomic species (ntypx) = 10
     Max number of k-points (npk) =  40000
     Max angular momentum in pseudopotentials (lmaxx) =  3
     Presently stress not available with electric field

     IMPORTANT: XC functional enforced from input :
     Exchange-correlation      = BEEF-VDW ( 1  4 27 13 2)
     Any further DFT definition will be discarded
     Please, verify this is what you really want

     Subspace diagonalization in iterative solution of the eigenvalue problem:
     a serial algorithm will be used

     bravais-lattice index     =            0
     lattice parameter (alat)  =       1.8897  a.u.
     unit-cell volume          =    4242.4895 (a.u.)^3
     number of atoms/cell      =           12
     number of atomic types    =            2
     number of electrons       =       189.00
     number of Kohn-Sham states=          124
     kinetic-energy cutoff     =      36.7493  Ry
     charge density cutoff     =     367.4932  Ry
     convergence threshold     =      1.0E-06
     mixing beta               =       0.1000
     number of iterations used =           10  plain     mixing
     Exchange-correlation      = BEEF-VDW ( 1  4 27 13 2)
     nstep                     =           50

     celldm(1)=   1.889726  celldm(2)=   0.000000  celldm(3)=   0.000000
     celldm(4)=   0.000000  celldm(5)=   0.000000  celldm(6)=   0.000000

     crystal axes: (cart. coord. in units of alat)
               a(1) = (   5.448984   0.000000   0.000000 )
               a(2) = (  -2.724492   4.718959   0.000000 )
               a(3) = (   0.000000   0.000000  24.449077 )

     reciprocal axes: (cart. coord. in units 2 pi/alat)
               b(1) = (  0.183520  0.105956  0.000000 )
               b(2) = (  0.000000  0.211911  0.000000 )
               b(3) = (  0.000000  0.000000  0.040901 )

     PseudoPot. # 1 for Os read from file:
     /afs/slac.stanford.edu/u/if/mamunm/psp/gbrv1.5pbe/Os.UPF
     MD5 check sum: a3fb40a04f0c37c25c34bbc47164c9a8
     Pseudo is Ultrasoft + core correction, Zval = 16.0
     Generated by new atomic code, or converted to UPF format
     Using radial grid of  983 points,  8 beta functions with:
                l(1) =   0
                l(2) =   0
                l(3) =   1
                l(4) =   1
                l(5) =   2
                l(6) =   2
                l(7) =   3
                l(8) =   3
     Q(r) pseudized with  8 coefficients,  rinner =    1.150   1.150   1.150
                                                       1.150   1.150   1.150
                                                       1.150

     PseudoPot. # 2 for Rh read from file:
     /afs/slac.stanford.edu/u/if/mamunm/psp/gbrv1.5pbe/Rh.UPF
     MD5 check sum: 761627e959a2e3a1f56b0b5fe687810e
     Pseudo is Ultrasoft + core correction, Zval = 15.0
     Generated by new atomic code, or converted to UPF format
     Using radial grid of  969 points,  7 beta functions with:
                l(1) =   0
                l(2) =   0
                l(3) =   1
                l(4) =   1
                l(5) =   2
                l(6) =   2
                l(7) =   2
     Q(r) pseudized with  8 coefficients,  rinner =    1.200   1.200   1.200
                                                       1.200   1.200

     vdW kernel table read from file vdW_kernel_table
     MD5 check sum: 095c7af220d748ca6e76c0b4c6cfb241

     atomic species   valence    mass     pseudopotential
        Os1           16.00   190.23000     Os( 1.00)
        Rh1           15.00   102.90550     Rh( 1.00)

     No symmetry found

   Cartesian axes

     site n.     atom                  positions (alat units)
         1           Os1 tau(   1) = (   0.0000000   0.0000000  10.0000000  )
         2           Os1 tau(   2) = (  -1.3622460   2.3594793  10.0000000  )
         3           Os1 tau(   3) = (   1.3622460   2.3594793  10.0000000  )
         4           Rh1 tau(   4) = (   2.7244920   0.0000000  10.0000000  )
         5           Os1 tau(   5) = (   2.7244920   1.5729862  12.2245384  )
         6           Os1 tau(   6) = (   1.3622460   3.9324655  12.2245384  )
         7           Os1 tau(   7) = (  -1.3622460   3.9324655  12.2245384  )
         8           Rh1 tau(   8) = (   0.0000000   1.5729862  12.2245384  )
         9           Os1 tau(   9) = (  -0.0000000   3.1459724  14.4490769  )
        10           Os1 tau(  10) = (   1.3622460   0.7864931  14.4490769  )
        11           Os1 tau(  11) = (   4.0867381   0.7864931  14.4490769  )
        12           Rh1 tau(  12) = (   2.7244920   3.1459724  14.4490769  )

     number of k points=    20  Fermi-Dirac smearing, width (Ry)=  0.0110
                       cart. coord. in units 2pi/alat
        k(    1) = (   0.0000000   0.0000000   0.0000000), wk =   0.0555556
        k(    2) = (   0.0000000   0.0353185   0.0000000), wk =   0.1111111
        k(    3) = (   0.0000000   0.0706371   0.0000000), wk =   0.1111111
        k(    4) = (   0.0000000  -0.1059556   0.0000000), wk =   0.0555556
        k(    5) = (   0.0305867   0.0176593   0.0000000), wk =   0.1111111
        k(    6) = (   0.0305867   0.0529778   0.0000000), wk =   0.1111111
        k(    7) = (   0.0305867   0.0882963   0.0000000), wk =   0.1111111
        k(    8) = (   0.0305867  -0.0882963   0.0000000), wk =   0.1111111
        k(    9) = (   0.0305867  -0.0529778   0.0000000), wk =   0.1111111
        k(   10) = (   0.0305867  -0.0176593   0.0000000), wk =   0.1111111
        k(   11) = (   0.0611735   0.0353185   0.0000000), wk =   0.1111111
        k(   12) = (   0.0611735   0.0706371   0.0000000), wk =   0.1111111
        k(   13) = (   0.0611735   0.1059556   0.0000000), wk =   0.1111111
        k(   14) = (   0.0611735  -0.0706371   0.0000000), wk =   0.1111111
        k(   15) = (   0.0611735  -0.0353185   0.0000000), wk =   0.1111111
        k(   16) = (   0.0611735  -0.0000000   0.0000000), wk =   0.1111111
        k(   17) = (  -0.0917602  -0.0529778   0.0000000), wk =   0.0555556
        k(   18) = (  -0.0917602  -0.0176593   0.0000000), wk =   0.1111111
        k(   19) = (  -0.0917602   0.0176593   0.0000000), wk =   0.1111111
        k(   20) = (  -0.0917602  -0.1589334   0.0000000), wk =   0.0555556

     Largest allocated arrays     est. size (Mb)     dimensions
     Largest temporary arrays     est. size (Mb)     dimensions

     Initial potential from superposition of free atoms
     Check: negative starting charge=   -1.284642

     starting charge  182.99938, renormalised to  189.00000

     negative rho (up, down):  1.327E+00 0.000E+00

     *
     * You are using vdW-DF for exchange-correlation in this calculation.
     * Please cite the following three references that made this development
     * possible:
     *
     *   M. Dion, H. Rydberg, E. Schroder, D. C. Langreth, and
     *   B. I. Lundqvist, Phys. Rev. Lett. 92, 246401 (2004).
     *
     *   T. Thonhauser, V. R. Cooper, S. Li, A. Puzder, P. Hyldgaard, and
     *   D. C. Langreth, Phys. Rev. B 76, 125112 (2007).
     *
     *   G. Roman-Perez and J. M. Soler, Phys. Rev. Lett. 103, 096102 (2009).
     *
     *
     * If you are using vdW-DF2, please also cite:
     *
     *   K. Lee, E. D. Murray, L. Kong, B. I. Lundqvist, and
     *   D. C. Langreth, Phys. Rev. B 82, 081101(R) (2010).
     *
     *
     * If you are calculating the stress with vdW-DF, please also cite:
     *
     *   R. Sabatini, E. Kucukbenli, B. Kolb, T. Thonhauser, and
     *   S. de Gironcoli, J. Phys.: Condens. Matter 24, 424209 (2012).
     *

     Carrying out vdW-DF run using the following parameters:

     Nqs =      20    Nr_points =    1024   r_max =   100.000
     q_mesh =
               0.00001000     0.04494208     0.09755937     0.15916263
               0.23128650     0.31572767     0.41458969     0.53033537
               0.66584808     0.82450364     1.01025438     1.22772762
               1.48234092     1.78043706     2.12944203     2.53805004
               3.01644009     3.57652955     4.23227104     5.00000000

     Gradients computed in reciprocal space

     Adding external electric field

     Computed dipole along edir(3) :
        Dipole               -0.0000 Ry au,         -0.0000 Debye
        Dipole field         -0.0000 Ry au

        Potential amp.        0.0000 Ry
        Total length         45.0470 bohr

     Starting wfc are  153 randomized atomic wfcs

     Self-consistent Calculation

     iteration #  1     ecut=    36.75 Ry     beta=0.10
     Davidson diagonalization with overlap
     ethr =  1.00E-02,  avg # of iterations =  9.1

[...]

     total energy              =   -2314.64962692 Ry
     Harris-Foulkes estimate   =   -2315.63222680 Ry
     estimated scf accuracy    <       5.95671906 Ry

[...]

     End of self-consistent calculation

          k = 0.0000 0.0000 0.0000 ( 15869 PWs)   bands (ev):

   -84.4663 -84.4219 -84.4219 -83.9594 -83.9585 -83.9158 -83.9158 -83.9155
   -83.9155 -44.6159 -44.6159 -44.5394 -44.2050 -44.1913 -44.1913 -44.1559
   -44.1559 -44.0483 -44.0211 -43.7992 -43.7992 -43.7377 -43.6880 -43.6880
   -43.6077 -43.5434 -43.5173 -43.4115 -43.4115 -43.2688 -43.2688 -43.2302
   -43.2302 -43.2289 -43.1544 -43.1544 -43.1205 -43.0987 -43.0987 -42.9923
   -42.9801 -42.9182 -42.9182 -42.9139 -42.9139  -6.4373  -4.5702  -4.2773
    -3.9415  -3.9415  -3.8928  -3.6231  -3.6231  -3.4213  -3.1042  -3.1042
    -3.0962  -2.8090  -2.8090  -2.6946  -1.4490  -1.3519  -1.3519  -0.7509
    -0.7021  -0.7021  -0.4892  -0.3034  -0.3034  -0.2869   0.0986   0.0986
     0.1782   0.1782   0.3857   0.4625   0.4625   0.6002   0.7540   0.7540
     1.7584   1.8221   1.8221   1.9105   2.0574   2.0574   2.2121   2.2121
     2.4136   3.1065   3.1281   3.1281   3.1609   3.5904   3.5904   3.6677
     3.6677   4.0185   4.0323   4.0323   4.1716   4.1716   4.2591   4.2591
     4.2759   4.5813   4.5813   4.7284   4.7284   4.9856   5.5084   5.5884
     6.1638   6.4219   6.5004   6.5004   7.0051   7.0051   7.1787   7.3761
     7.8596   8.7531   9.6764   9.9992

[...]

          k =-0.0918-0.0530 0.0000 ( 15984 PWs)   bands (ev):

[...]

     the Fermi energy is     2.6324 ev

!    total energy              =   -2314.51265281 Ry
     Harris-Foulkes estimate   =   -2314.51264578 Ry
     estimated scf accuracy    <       0.00000063 Ry

     The total energy is the sum of the following terms:

     one-electron contribution =  -20721.82340483 Ry
     hartree contribution      =   10356.57630920 Ry
     xc contribution           =    -440.99452214 Ry
     ewald contribution        =    8491.79468080 Ry
     electric field correction =       0.00000000 Ry
     smearing contrib. (-TS)   =      -0.06571585 Ry

     convergence has been achieved in  15 iterations

 BEEF-vdW xc energy contributions
           1 :   -385.956541372560
           2 :    357.065562218940
           3 :   -306.215842867153
           4 :    244.771569622459
           5 :   -184.865728253758
           6 :    135.950146458577
           7 :   -102.644543073773
           8 :    84.3895828464272
[...]
     Using radial grid of  983 points,  8 beta functions with:
                l(1) =   0
                l(2) =   0
                l(3) =   1
                l(4) =   1
                l(5) =   2
                l(6) =   2
                l(7) =   3
                l(8) =   3
     Q(r) pseudized with  8 coefficients,  rinner =    1.150   1.150   1.150
                                                       1.150   1.150   1.150
                                                       1.150

     PseudoPot. # 2 for Rh read from file:
     /afs/slac.stanford.edu/u/if/mamunm/psp/gbrv1.5pbe/Rh.UPF
     MD5 check sum: 761627e959a2e3a1f56b0b5fe687810e
     Pseudo is Ultrasoft + core correction, Zval = 15.0
     Generated by new atomic code, or converted to UPF format
     Using radial grid of  969 points,  7 beta functions with:
                l(1) =   0
                l(2) =   0
                l(3) =   1
                l(4) =   1
                l(5) =   2
                l(6) =   2
                l(7) =   2
     Q(r) pseudized with  8 coefficients,  rinner =    1.200   1.200   1.200
                                                       1.200   1.200

     vdW kernel table read from file vdW_kernel_table
     MD5 check sum: 095c7af220d748ca6e76c0b4c6cfb241

     atomic species   valence    mass     pseudopotential
        Os1           16.00   190.23000     Os( 1.00)
        Rh1           15.00   102.90550     Rh( 1.00)

     No symmetry found

   Cartesian axes

     site n.     atom                  positions (alat units)
         1           Os1 tau(   1) = (   0.0000000   0.0000000  10.0000000  )
         2           Os1 tau(   2) = (  -1.3622460   2.3594793  10.0000000  )
         3           Os1 tau(   3) = (   1.3622460   2.3594793  10.0000000  )
         4           Rh1 tau(   4) = (   2.7244920   0.0000000  10.0000000  )
         5           Os1 tau(   5) = (   2.7244920   1.5729862  12.2245384  )
         6           Os1 tau(   6) = (   1.3622460   3.9324655  12.2245384  )
         7           Os1 tau(   7) = (  -1.3622460   3.9324655  12.2245384  )
         8           Rh1 tau(   8) = (   0.0000000   1.5729862  12.2245384  )
         9           Os1 tau(   9) = (  -0.0000018   3.2124524  14.3582311  )
        10           Os1 tau(  10) = (   1.4198183   0.7532549  14.3582304  )
        11           Os1 tau(  11) = (   4.0291651   0.7532558  14.3582302  )
        12           Rh1 tau(  12) = (   2.7244908   3.1459733  14.3684944  )

     number of k points=    20  Fermi-Dirac smearing, width (Ry)=  0.0110
                       cart. coord. in units 2pi/alat
        k(    1) = (   0.0000000   0.0000000   0.0000000), wk =   0.0555556
        k(    2) = (   0.0000000   0.0353185   0.0000000), wk =   0.1111111
        k(    3) = (   0.0000000   0.0706371   0.0000000), wk =   0.1111111
        k(    4) = (   0.0000000  -0.1059556   0.0000000), wk =   0.0555556
        k(    5) = (   0.0305867   0.0176593   0.0000000), wk =   0.1111111
        k(    6) = (   0.0305867   0.0529778   0.0000000), wk =   0.1111111
        k(    7) = (   0.0305867   0.0882963   0.0000000), wk =   0.1111111
        k(    8) = (   0.0305867  -0.0882963   0.0000000), wk =   0.1111111
        k(    9) = (   0.0305867  -0.0529778   0.0000000), wk =   0.1111111
        k(   10) = (   0.0305867  -0.0176593   0.0000000), wk =   0.1111111
        k(   11) = (   0.0611735   0.0353185   0.0000000), wk =   0.1111111
        k(   12) = (   0.0611735   0.0706371   0.0000000), wk =   0.1111111
        k(   13) = (   0.0611735   0.1059556   0.0000000), wk =   0.1111111
        k(   14) = (   0.0611735  -0.0706371   0.0000000), wk =   0.1111111
        k(   15) = (   0.0611735  -0.0353185   0.0000000), wk =   0.1111111
        k(   16) = (   0.0611735  -0.0000000   0.0000000), wk =   0.1111111
        k(   17) = (  -0.0917602  -0.0529778   0.0000000), wk =   0.0555556
        k(   18) = (  -0.0917602  -0.0176593   0.0000000), wk =   0.1111111
        k(   19) = (  -0.0917602   0.0176593   0.0000000), wk =   0.1111111
        k(   20) = (  -0.0917602  -0.1589334   0.0000000), wk =   0.0555556

     Largest allocated arrays     est. size (Mb)     dimensions
     Largest temporary arrays     est. size (Mb)     dimensions

     Initial potential from superposition of free atoms
     Check: negative starting charge=   -1.284593

     starting charge  182.99938, renormalised to  189.00000

[...]

     *
     * You are using vdW-DF for exchange-correlation in this calculation.
     * Please cite the following three references that made this development
     * possible:
     *
     *   M. Dion, H. Rydberg, E. Schroder, D. C. Langreth, and
     *   B. I. Lundqvist, Phys. Rev. Lett. 92, 246401 (2004).
     *
     *   T. Thonhauser, V. R. Cooper, S. Li, A. Puzder, P. Hyldgaard, and
     *   D. C. Langreth, Phys. Rev. B 76, 125112 (2007).
     *
     *   G. Roman-Perez and J. M. Soler, Phys. Rev. Lett. 103, 096102 (2009).
     *
     *
     * If you are using vdW-DF2, please also cite:
     *
     *   K. Lee, E. D. Murray, L. Kong, B. I. Lundqvist, and
     *   D. C. Langreth, Phys. Rev. B 82, 081101(R) (2010).
     *
     *
     * If you are calculating the stress with vdW-DF, please also cite:
     *
     *   R. Sabatini, E. Kucukbenli, B. Kolb, T. Thonhauser, and
     *   S. de Gironcoli, J. Phys.: Condens. Matter 24, 424209 (2012).
     *

     Carrying out vdW-DF run using the following parameters:

     Nqs =      20    Nr_points =    1024   r_max =   100.000
     q_mesh =
               0.00001000     0.04494208     0.09755937     0.15916263
               0.23128650     0.31572767     0.41458969     0.53033537
               0.66584808     0.82450364     1.01025438     1.22772762
               1.48234092     1.78043706     2.12944203     2.53805004
               3.01644009     3.57652955     4.23227104     5.00000000

     Gradients computed in reciprocal space

[...]

     Starting wfc are  153 randomized atomic wfcs

     Self-consistent Calculation

[...]

     total energy              =   -2314.53079180 Ry
     Harris-Foulkes estimate   =   -2314.53079172 Ry
     estimated scf accuracy    <       0.00000544 Ry

     iteration # 15     ecut=    36.75 Ry     beta=0.10
     Davidson diagonalization with overlap
     ethr =  2.88E-09,  avg # of iterations =  2.0

[...]

     negative rho (up, down):  1.305E+00 0.000E+00

     Adding external electric field

     Computed dipole along edir(3) :
        Dipole                0.0186 Ry au,          0.0472 Debye
        Dipole field          0.0001 Ry au

        Potential amp.       -0.0050 Ry
        Total length         45.0470 bohr

     End of self-consistent calculation

[...]

          k = 0.0612-0.0000 0.0000 ( 15958 PWs)   bands (ev):

[...]

          k =-0.0918-0.1589 0.0000 ( 15984 PWs)   bands (ev):

   -84.4859 -84.4709 -84.4558 -84.0101 -83.9807 -83.9703 -83.8764 -83.8619
   -83.8474 -44.5777 -44.5278 -44.5210 -44.2161 -44.2023 -44.1725 -44.0874
   -44.0456 -44.0383 -44.0222 -43.8903 -43.8168 -43.8075 -43.7107 -43.6909
   -43.6818 -43.6739 -43.5404 -43.4810 -43.3867 -43.3265 -43.2510 -43.2100
   -43.2004 -43.1708 -43.1609 -43.1456 -43.1207 -43.1114 -43.0765 -43.0741
   -43.0556 -43.0527 -43.0330 -42.9835 -42.8821  -4.8870  -4.4933  -3.2446
    -3.2034  -3.0509  -2.9819  -2.9138  -2.8486  -2.7591  -2.5164  -2.3138
    -2.2613  -1.9624  -1.8854  -1.7579  -1.7552  -1.4525  -1.3933  -1.3659
    -1.3167  -0.9739  -0.9025  -0.4842  -0.3308  -0.2171  -0.1307  -0.1028
     0.0420   0.0729   0.0929   0.2397   0.2947   0.3323   0.3611   0.3955
     0.4329   0.4544   0.5092   0.5471   0.6755   1.0892   1.4310   1.4486
     1.5147   1.7310   1.8021   1.9240   1.9973   2.1328   2.3575   2.3754
     2.4925   2.7229   2.8457   2.9327   2.9640   3.1501   3.3862   3.5974
     3.7352   4.0440   4.2047   4.3759   4.9799   5.2409   5.3629   6.1384
     6.8661   7.0394   7.4867   7.5504   7.8575   8.7490   8.8135   8.8415
     8.8481   9.4316   9.4949   9.5077

     the Fermi energy is     2.6625 ev

!    total energy              =   -2314.53080008 Ry
     Harris-Foulkes estimate   =   -2314.53079273 Ry
     estimated scf accuracy    <       0.00000073 Ry

     The total energy is the sum of the following terms:

     one-electron contribution =  -20987.14438164 Ry
     hartree contribution      =   10489.14682818 Ry
     xc contribution           =    -441.24909488 Ry
     ewald contribution        =    8624.77636757 Ry
     electric field correction =       0.00000102 Ry
     smearing contrib. (-TS)   =      -0.06052033 Ry

     convergence has been achieved in  15 iterations

 BEEF-vdW xc energy contributions
           1 :   -386.216021185035
           2 :    357.420345458144
           3 :   -306.706626919357
           4 :    245.356466191830
           5 :   -185.432974846519
           6 :    136.367024097921
           7 :   -102.819565945608
           8 :    84.3188237563475
           9 :   -76.5619695210784
          10 :    73.6907098488030
          11 :   -70.6021186079230
          12 :    64.4713519900811
          13 :   -55.1079365024029
          14 :    44.2608441931991
          15 :   -34.3615212606902
          16 :    27.2953868088666
          17 :   -23.6686668531891
          18 :    22.7555209866645
          19 :   -23.0204638325312
          20 :    22.8939205283072
          21 :   -21.4294127666683
          22 :    18.5781954446457
          23 :   -15.0303926220484
          24 :    11.7614180165075
          25 :   -9.53043168756989
          26 :    8.55704665720793
          27 :   -8.49609916999873
          28 :    8.67921227648083
          29 :   -8.47643128877905
          30 :    7.59046807036339
          31 :   -36.8794318703924
          32 :   -28.0752633094329

     Forces acting on atoms (Ry/au):

     negative rho (up, down):  1.305E+00 0.000E+00
     atom    1 type  1   force =     0.00000051   -0.02691490    0.02645328
     atom    2 type  1   force =    -0.02330966    0.01345786    0.02645537
     atom    3 type  1   force =     0.02330931    0.01345623    0.02645347
     atom    4 type  2   force =     0.00000000   -0.00000020    0.01597759
     atom    5 type  1   force =    -0.00000005    0.00213614   -0.02632181
     atom    6 type  1   force =     0.00184974   -0.00106789   -0.02632099
     atom    7 type  1   force =    -0.00184937   -0.00106831   -0.02632164
     atom    8 type  2   force =    -0.00000004   -0.00000000   -0.01637358
     atom    9 type  1   force =    -0.00000068   -0.00006820    0.00000589
     atom   10 type  1   force =    -0.00005989    0.00003413    0.00000478
     atom   11 type  1   force =     0.00006003    0.00003506    0.00000559
     atom   12 type  2   force =     0.00000010    0.00000008   -0.00001795

     Total force =     0.082995     Total SCF correction =     0.003769

     entering subroutine stress ...

     negative rho (up, down):  1.305E+00 0.000E+00
          total   stress  (Ry/bohr**3)                   (kbar)     P=  -31.68
  -0.00025111  -0.00000000   0.00000000        -36.94     -0.00      0.00
  -0.00000000  -0.00025111  -0.00000000         -0.00    -36.94     -0.00
   0.00000000  -0.00000000  -0.00014387          0.00     -0.00    -21.16

 !ASE

     Writing output data file calc.save

     General routines

     Parallel routines

   This run was terminated on:  14:14:56  27Dec2018

   JOB DONE.
Job  /afs/slac/g/suncat/bin/suncat-tsmpirun -x LD_LIBRARY_PATH -wdir /scratch/qe110346_MNvNZ pw.x -in pw.inp

TID   HOST_NAME   COMMAND_LINE            STATUS            TERMINATION_TIME
00000 suncat0092 pw.x -in pw.inp   Done                     12/27/2018 14:14:56
00001 suncat0092 pw.x -in pw.inp   Done                     12/27/2018 14:14:56
00002 suncat0092 pw.x -in pw.inp   Done                     12/27/2018 14:14:56
00003 suncat0092 pw.x -in pw.inp   Done                     12/27/2018 14:14:56
00004 suncat0092 pw.x -in pw.inp   Done                     12/27/2018 14:14:56
00005 suncat0092 pw.x -in pw.inp   Done                     12/27/2018 14:14:56
00006 suncat0092 pw.x -in pw.inp   Done                     12/27/2018 14:14:56
00007 suncat0092 pw.x -in pw.inp   Done                     12/27/2018 14:14:56
00008 suncat0075 pw.x -in pw.inp   Done                     12/27/2018 14:14:56
00009 suncat0075 pw.x -in pw.inp   Done                     12/27/2018 14:14:56
00010 suncat0075 pw.x -in pw.inp   Done                     12/27/2018 14:14:56
00011 suncat0075 pw.x -in pw.inp   Done                     12/27/2018 14:14:56
00012 suncat0075 pw.x -in pw.inp   Done                     12/27/2018 14:14:56
00013 suncat0075 pw.x -in pw.inp   Done                     12/27/2018 14:14:56
00014 suncat0075 pw.x -in pw.inp   Done                     12/27/2018 14:14:56
00015 suncat0075 pw.x -in pw.inp   Done                     12/27/2018 14:14:56
00016 suncat0074 pw.x -in pw.inp   Done                     12/27/2018 14:14:56
00017 suncat0074 pw.x -in pw.inp   Done                     12/27/2018 14:14:56
00018 suncat0074 pw.x -in pw.inp   Done                     12/27/2018 14:14:56
00019 suncat0074 pw.x -in pw.inp   Done                     12/27/2018 14:14:56
00020 suncat0074 pw.x -in pw.inp   Done                     12/27/2018 14:14:56
00021 suncat0074 pw.x -in pw.inp   Done                     12/27/2018 14:14:56
00022 suncat0074 pw.x -in pw.inp   Done                     12/27/2018 14:14:56
00023 suncat0074 pw.x -in pw.inp   Done                     12/27/2018 14:14:56
00024 suncat0195 pw.x -in pw.inp   Done                     12/27/2018 14:14:56
00025 suncat0195 pw.x -in pw.inp   Done                     12/27/2018 14:14:56
00026 suncat0195 pw.x -in pw.inp   Done                     12/27/2018 14:14:56
00027 suncat0195 pw.x -in pw.inp   Done                     12/27/2018 14:14:56
00028 suncat0195 pw.x -in pw.inp   Done                     12/27/2018 14:14:56
00029 suncat0195 pw.x -in pw.inp   Done                     12/27/2018 14:14:56
00030 suncat0195 pw.x -in pw.inp   Done                     12/27/2018 14:14:56
00031 suncat0195 pw.x -in pw.inp   Done                     12/27/2018 14:14:56
00032 suncat0003 pw.x -in pw.inp   Done                     12/27/2018 14:14:56
00033 suncat0003 pw.x -in pw.inp   Done                     12/27/2018 14:14:56
00034 suncat0003 pw.x -in pw.inp   Done                     12/27/2018 14:14:56
00035 suncat0003 pw.x -in pw.inp   Done                     12/27/2018 14:14:56
00036 suncat0003 pw.x -in pw.inp   Done                     12/27/2018 14:14:56
00037 suncat0003 pw.x -in pw.inp   Done                     12/27/2018 14:14:56
00038 suncat0003 pw.x -in pw.inp   Done                     12/27/2018 14:14:56
00039 suncat0003 pw.x -in pw.inp   Done                     12/27/2018 14:14:56
00040 suncat0002 pw.x -in pw.inp   Done                     12/27/2018 14:14:56
00041 suncat0002 pw.x -in pw.inp   Done                     12/27/2018 14:14:56
00042 suncat0002 pw.x -in pw.inp   Done                     12/27/2018 14:14:56
00043 suncat0002 pw.x -in pw.inp   Done                     12/27/2018 14:14:56
00044 suncat0002 pw.x -in pw.inp   Done                     12/27/2018 14:14:56
00045 suncat0002 pw.x -in pw.inp   Done                     12/27/2018 14:14:56
00046 suncat0002 pw.x -in pw.inp   Done                     12/27/2018 14:14:56
00047 suncat0002 pw.x -in pw.inp   Done                     12/27/2018 14:14:56
00048 suncat0283 pw.x -in pw.inp   Done                     12/27/2018 14:14:56
00049 suncat0283 pw.x -in pw.inp   Done                     12/27/2018 14:14:56
00050 suncat0283 pw.x -in pw.inp   Done                     12/27/2018 14:14:56
00051 suncat0283 pw.x -in pw.inp   Done                     12/27/2018 14:14:56
00052 suncat0283 pw.x -in pw.inp   Done                     12/27/2018 14:14:56
00053 suncat0283 pw.x -in pw.inp   Done                     12/27/2018 14:14:56
00054 suncat0283 pw.x -in pw.inp   Done                     12/27/2018 14:14:56
00055 suncat0283 pw.x -in pw.inp   Done                     12/27/2018 14:14:56
00056 suncat0282 pw.x -in pw.inp   Done                     12/27/2018 14:14:56
00057 suncat0282 pw.x -in pw.inp   Done                     12/27/2018 14:14:56
00058 suncat0282 pw.x -in pw.inp   Done                     12/27/2018 14:14:56
00059 suncat0282 pw.x -in pw.inp   Done                     12/27/2018 14:14:56
00060 suncat0282 pw.x -in pw.inp   Done                     12/27/2018 14:14:56
00061 suncat0282 pw.x -in pw.inp   Done                     12/27/2018 14:14:56
00062 suncat0282 pw.x -in pw.inp   Done                     12/27/2018 14:14:56
00063 suncat0282 pw.x -in pw.inp   Done                     12/27/2018 14:14:56