     Program PWSCF v.5.1rc2 (svn rev. 11289) starts on 26Dec2018 at 13:11:33

     Current dimensions of program PWSCF are:
     Max number of different atomic species (ntypx) = 10
     Max number of k-points (npk) =  40000
     Max angular momentum in pseudopotentials (lmaxx) =  3
     Presently stress not available with electric field

     IMPORTANT: XC functional enforced from input :
     Exchange-correlation      = BEEF-VDW ( 1  4 27 13 2)
     Any further DFT definition will be discarded
     Please, verify this is what you really want

     Subspace diagonalization in iterative solution of the eigenvalue problem:
     a serial algorithm will be used

     bravais-lattice index     =            0
     lattice parameter (alat)  =       1.8897  a.u.
     unit-cell volume          =    7055.7592 (a.u.)^3
     number of atoms/cell      =           12
     number of atomic types    =            2
     number of electrons       =       159.00
     number of Kohn-Sham states=          109
     kinetic-energy cutoff     =      36.7493  Ry
     charge density cutoff     =     367.4932  Ry
     convergence threshold     =      1.0E-06
     mixing beta               =       0.1000
     number of iterations used =           10  plain     mixing
     Exchange-correlation      = BEEF-VDW ( 1  4 27 13 2)
     nstep                     =           50

     celldm(1)=   1.889726  celldm(2)=   0.000000  celldm(3)=   0.000000
     celldm(4)=   0.000000  celldm(5)=   0.000000  celldm(6)=   0.000000

     crystal axes: (cart. coord. in units of alat)
               a(1) = (   6.866471   0.000000   0.000000 )
               a(2) = (  -3.433235   5.946538   0.000000 )
               a(3) = (   0.000000   0.000000  25.606450 )

     reciprocal axes: (cart. coord. in units 2 pi/alat)
               b(1) = (  0.145635  0.084083  0.000000 )
               b(2) = (  0.000000  0.168165  0.000000 )
               b(3) = (  0.000000  0.000000  0.039053 )

     PseudoPot. # 1 for In read from file:
     /afs/slac.stanford.edu/u/if/mamunm/psp/gbrv1.5pbe/In.UPF
     MD5 check sum: 90777abd96fbb83f2e67db2a40c566b9
     Pseudo is Ultrasoft + core correction, Zval = 13.0
     Generated by new atomic code, or converted to UPF format
     Using radial grid of  889 points,  6 beta functions with:
                l(1) =   0
                l(2) =   0
                l(3) =   1
                l(4) =   1
                l(5) =   2
                l(6) =   2
     Q(r) pseudized with  6 coefficients,  rinner =    1.400   1.400   1.400
                                                       1.400   1.400

     PseudoPot. # 2 for Sn read from file:
     /afs/slac.stanford.edu/u/if/mamunm/psp/gbrv1.5pbe/Sn.UPF
     MD5 check sum: 469debedee59599fedebd795477fea03
     Pseudo is Ultrasoft + core correction, Zval = 14.0
     Generated by new atomic code, or converted to UPF format
     Using radial grid of  891 points,  6 beta functions with:
                l(1) =   0
                l(2) =   0
                l(3) =   1
                l(4) =   1
                l(5) =   2
                l(6) =   2
     Q(r) pseudized with  8 coefficients,  rinner =    1.350   1.350   1.350
                                                       1.350   1.350

     vdW kernel table read from file vdW_kernel_table
     MD5 check sum: 095c7af220d748ca6e76c0b4c6cfb241

     atomic species   valence    mass     pseudopotential
        In1           13.00   114.81800     In( 1.00)
        Sn1           14.00   118.71000     Sn( 1.00)

     No symmetry found

   Cartesian axes

     site n.     atom                  positions (alat units)
         1           In1 tau(   1) = (   0.0000000   0.0000000  10.0000000  )
         2           In1 tau(   2) = (  -1.7166177   2.9732690  10.0000000  )
         3           In1 tau(   3) = (   1.7166177   2.9732690  10.0000000  )
         4           Sn1 tau(   4) = (   3.4332354   0.0000000  10.0000000  )
         5           In1 tau(   5) = (   3.4332354   1.9821794  12.8032249  )
         6           In1 tau(   6) = (   1.7166177   4.9554484  12.8032249  )
         7           In1 tau(   7) = (  -1.7166177   4.9554484  12.8032249  )
         8           Sn1 tau(   8) = (   0.0000000   1.9821794  12.8032249  )
         9           In1 tau(   9) = (  -0.0000000   3.9643587  15.6064499  )
        10           In1 tau(  10) = (   1.7166177   0.9910897  15.6064499  )
        11           In1 tau(  11) = (   5.1498530   0.9910897  15.6064499  )
        12           Sn1 tau(  12) = (   3.4332354   3.9643587  15.6064499  )

     number of k points=    20  Fermi-Dirac smearing, width (Ry)=  0.0110
                       cart. coord. in units 2pi/alat
        k(    1) = (   0.0000000   0.0000000   0.0000000), wk =   0.0555556
        k(    2) = (   0.0000000   0.0280275   0.0000000), wk =   0.1111111
        k(    3) = (   0.0000000   0.0560550   0.0000000), wk =   0.1111111
        k(    4) = (   0.0000000  -0.0840825   0.0000000), wk =   0.0555556
        k(    5) = (   0.0242725   0.0140138   0.0000000), wk =   0.1111111
        k(    6) = (   0.0242725   0.0420413   0.0000000), wk =   0.1111111
        k(    7) = (   0.0242725   0.0700688   0.0000000), wk =   0.1111111
        k(    8) = (   0.0242725  -0.0700688   0.0000000), wk =   0.1111111
        k(    9) = (   0.0242725  -0.0420413   0.0000000), wk =   0.1111111
        k(   10) = (   0.0242725  -0.0140138   0.0000000), wk =   0.1111111
        k(   11) = (   0.0485451   0.0280275   0.0000000), wk =   0.1111111
        k(   12) = (   0.0485451   0.0560550   0.0000000), wk =   0.1111111
        k(   13) = (   0.0485451   0.0840825   0.0000000), wk =   0.1111111
        k(   14) = (   0.0485451  -0.0560550   0.0000000), wk =   0.1111111
        k(   15) = (   0.0485451  -0.0280275   0.0000000), wk =   0.1111111
        k(   16) = (   0.0485451   0.0000000   0.0000000), wk =   0.1111111
        k(   17) = (  -0.0728176  -0.0420413   0.0000000), wk =   0.0555556
        k(   18) = (  -0.0728176  -0.0140138   0.0000000), wk =   0.1111111
        k(   19) = (  -0.0728176   0.0140138   0.0000000), wk =   0.1111111
        k(   20) = (  -0.0728176  -0.1261238   0.0000000), wk =   0.0555556

     Largest allocated arrays     est. size (Mb)     dimensions
     Largest temporary arrays     est. size (Mb)     dimensions

     Initial potential from superposition of free atoms
     Check: negative starting charge=   -0.000884

     starting charge  142.49986, renormalised to  159.00000

     negative rho (up, down):  9.858E-04 0.000E+00

     *
     * You are using vdW-DF for exchange-correlation in this calculation.
     * Please cite the following three references that made this development
     * possible:
     *
     *   M. Dion, H. Rydberg, E. Schroder, D. C. Langreth, and
     *   B. I. Lundqvist, Phys. Rev. Lett. 92, 246401 (2004).
     *
     *   T. Thonhauser, V. R. Cooper, S. Li, A. Puzder, P. Hyldgaard, and
     *   D. C. Langreth, Phys. Rev. B 76, 125112 (2007).
     *
     *   G. Roman-Perez and J. M. Soler, Phys. Rev. Lett. 103, 096102 (2009).
     *
     *
     * If you are using vdW-DF2, please also cite:
     *
     *   K. Lee, E. D. Murray, L. Kong, B. I. Lundqvist, and
     *   D. C. Langreth, Phys. Rev. B 82, 081101(R) (2010).
     *
     *
     * If you are calculating the stress with vdW-DF, please also cite:
     *
     *   R. Sabatini, E. Kucukbenli, B. Kolb, T. Thonhauser, and
     *   S. de Gironcoli, J. Phys.: Condens. Matter 24, 424209 (2012).
     *

     Carrying out vdW-DF run using the following parameters:

     Nqs =      20    Nr_points =    1024   r_max =   100.000
     q_mesh =
               0.00001000     0.04494208     0.09755937     0.15916263
               0.23128650     0.31572767     0.41458969     0.53033537
               0.66584808     0.82450364     1.01025438     1.22772762
               1.48234092     1.78043706     2.12944203     2.53805004
               3.01644009     3.57652955     4.23227104     5.00000000

     Gradients computed in reciprocal space

     Adding external electric field

     Computed dipole along edir(3) :
        Dipole               -0.0000 Ry au,         -0.0000 Debye
        Dipole field         -0.0000 Ry au

        Potential amp.        0.0000 Ry
        Total length         47.1794 bohr

     Starting wfc are  108 randomized atomic wfcs +    1 random wfc

     Self-consistent Calculation

     iteration #  1     ecut=    36.75 Ry     beta=0.10
     Davidson diagonalization with overlap
     ethr =  1.00E-02,  avg # of iterations = 10.8

[...]

     total energy              =   -1700.03148973 Ry
     Harris-Foulkes estimate   =   -1708.19013167 Ry
     estimated scf accuracy    <      48.07156329 Ry

[...]

     End of self-consistent calculation

          k = 0.0000 0.0000 0.0000 ( 26649 PWs)   bands (ev):

   -21.5921 -21.5919 -21.5863 -21.5863 -21.5860 -21.5860 -21.5810 -21.5810
   -21.5809 -21.5809 -21.4135 -21.4135 -21.3869 -21.3869 -21.3794 -14.6364
   -14.6218 -14.6182 -14.6182 -14.6075 -14.5845 -14.5845 -14.5684 -14.5614
   -14.5481 -14.5462 -14.5462 -14.5354 -14.5354 -14.5217 -14.5070 -14.5018
   -14.5018 -14.5017 -14.5017 -14.4438 -14.4438 -14.4430 -14.4403 -14.4378
   -14.4378 -14.4320 -14.4304 -14.4304 -14.4131 -14.4131 -14.3890 -14.3890
   -14.3798 -14.3798 -14.3705 -14.3705 -14.3347 -14.3347 -14.3306 -14.3086
   -14.3050 -14.2962 -14.2962 -14.2729  -8.7410  -7.6689  -6.3592  -4.8013
    -4.7627  -4.0048  -4.0023  -4.0023  -3.7263  -3.7263  -2.6924  -2.6924
    -2.3559  -2.3559  -2.2225  -1.8039  -1.0023  -0.9180  -0.9180  -0.7957
    -0.7957  -0.7569   0.7285   2.0140   2.0660   2.7042   2.7042   2.8054
     2.8054   2.9601   3.6756   3.9851   3.9851   4.3259   4.3618   4.6054
     4.6141   5.0375   5.0375   5.0621   5.0621   5.9744   6.1270   6.1515
     6.1515   6.1736   6.3653   6.3653   6.8594

[...]

          k =-0.0728-0.0420 0.0000 ( 26494 PWs)   bands (ev):

[...]

     the Fermi energy is     0.3578 ev

!    total energy              =   -1695.06447236 Ry
     Harris-Foulkes estimate   =   -1695.06446098 Ry
     estimated scf accuracy    <       0.00000063 Ry

     The total energy is the sum of the following terms:

     one-electron contribution =   -8820.09590304 Ry
     hartree contribution      =    4483.99425363 Ry
     xc contribution           =    -485.20367739 Ry
     ewald contribution        =    3126.27361235 Ry
     electric field correction =       0.00000000 Ry
     smearing contrib. (-TS)   =      -0.03275792 Ry

     convergence has been achieved in  16 iterations

 BEEF-vdW xc energy contributions
           1 :   -425.418414175522
           2 :    388.793120618359
           3 :   -326.975020262916
           4 :    257.474448409816
           5 :   -196.382401930336
           6 :    152.492583395575
           7 :   -125.560739242814
           8 :    108.927736901084
           9 :   -94.5680262321791
          10 :    77.6124828638541
          11 :   -58.1036198991500
          12 :    39.5851627444733
          13 :   -25.9666212065858
          14 :    18.8256502004531
          15 :   -16.6699866307392
[...]
     /afs/slac.stanford.edu/u/if/mamunm/psp/gbrv1.5pbe/In.UPF
     MD5 check sum: 90777abd96fbb83f2e67db2a40c566b9
     Pseudo is Ultrasoft + core correction, Zval = 13.0
     Generated by new atomic code, or converted to UPF format
     Using radial grid of  889 points,  6 beta functions with:
                l(1) =   0
                l(2) =   0
                l(3) =   1
                l(4) =   1
                l(5) =   2
                l(6) =   2
     Q(r) pseudized with  6 coefficients,  rinner =    1.400   1.400   1.400
                                                       1.400   1.400

     PseudoPot. # 2 for Sn read from file:
     /afs/slac.stanford.edu/u/if/mamunm/psp/gbrv1.5pbe/Sn.UPF
     MD5 check sum: 469debedee59599fedebd795477fea03
     Pseudo is Ultrasoft + core correction, Zval = 14.0
     Generated by new atomic code, or converted to UPF format
     Using radial grid of  891 points,  6 beta functions with:
                l(1) =   0
                l(2) =   0
                l(3) =   1
                l(4) =   1
                l(5) =   2
                l(6) =   2
     Q(r) pseudized with  8 coefficients,  rinner =    1.350   1.350   1.350
                                                       1.350   1.350

     vdW kernel table read from file vdW_kernel_table
     MD5 check sum: 095c7af220d748ca6e76c0b4c6cfb241

     atomic species   valence    mass     pseudopotential
        In1           13.00   114.81800     In( 1.00)
        Sn1           14.00   118.71000     Sn( 1.00)

     No symmetry found

   Cartesian axes

     site n.     atom                  positions (alat units)
         1           In1 tau(   1) = (   0.0000000   0.0000000  10.0000000  )
         2           In1 tau(   2) = (  -1.7166177   2.9732690  10.0000000  )
         3           In1 tau(   3) = (   1.7166177   2.9732690  10.0000000  )
         4           Sn1 tau(   4) = (   3.4332354   0.0000000  10.0000000  )
         5           In1 tau(   5) = (   3.4332354   1.9821794  12.8032249  )
         6           In1 tau(   6) = (   1.7166177   4.9554484  12.8032249  )
         7           In1 tau(   7) = (  -1.7166177   4.9554484  12.8032249  )
         8           Sn1 tau(   8) = (   0.0000000   1.9821794  12.8032249  )
         9           In1 tau(   9) = (  -0.0000060   3.9546152  15.5720190  )
        10           In1 tau(  10) = (   1.7081855   0.9959554  15.5720361  )
        11           In1 tau(  11) = (   5.1582965   0.9959593  15.5720223  )
        12           Sn1 tau(  12) = (   3.4332198   3.9643112  15.4080993  )

     number of k points=    20  Fermi-Dirac smearing, width (Ry)=  0.0110
                       cart. coord. in units 2pi/alat
        k(    1) = (   0.0000000   0.0000000   0.0000000), wk =   0.0555556
        k(    2) = (   0.0000000   0.0280275   0.0000000), wk =   0.1111111
        k(    3) = (   0.0000000   0.0560550   0.0000000), wk =   0.1111111
        k(    4) = (   0.0000000  -0.0840825   0.0000000), wk =   0.0555556
        k(    5) = (   0.0242725   0.0140138   0.0000000), wk =   0.1111111
        k(    6) = (   0.0242725   0.0420413   0.0000000), wk =   0.1111111
        k(    7) = (   0.0242725   0.0700688   0.0000000), wk =   0.1111111
        k(    8) = (   0.0242725  -0.0700688   0.0000000), wk =   0.1111111
        k(    9) = (   0.0242725  -0.0420413   0.0000000), wk =   0.1111111
        k(   10) = (   0.0242725  -0.0140138   0.0000000), wk =   0.1111111
        k(   11) = (   0.0485451   0.0280275   0.0000000), wk =   0.1111111
        k(   12) = (   0.0485451   0.0560550   0.0000000), wk =   0.1111111
        k(   13) = (   0.0485451   0.0840825   0.0000000), wk =   0.1111111
        k(   14) = (   0.0485451  -0.0560550   0.0000000), wk =   0.1111111
        k(   15) = (   0.0485451  -0.0280275   0.0000000), wk =   0.1111111
        k(   16) = (   0.0485451   0.0000000   0.0000000), wk =   0.1111111
        k(   17) = (  -0.0728176  -0.0420413   0.0000000), wk =   0.0555556
        k(   18) = (  -0.0728176  -0.0140138   0.0000000), wk =   0.1111111
        k(   19) = (  -0.0728176   0.0140138   0.0000000), wk =   0.1111111
        k(   20) = (  -0.0728176  -0.1261238   0.0000000), wk =   0.0555556

     Largest allocated arrays     est. size (Mb)     dimensions
     Largest temporary arrays     est. size (Mb)     dimensions

     Initial potential from superposition of free atoms
     Check: negative starting charge=   -0.000893

     starting charge  142.49986, renormalised to  159.00000

[...]

     *
     * You are using vdW-DF for exchange-correlation in this calculation.
     * Please cite the following three references that made this development
     * possible:
     *
     *   M. Dion, H. Rydberg, E. Schroder, D. C. Langreth, and
     *   B. I. Lundqvist, Phys. Rev. Lett. 92, 246401 (2004).
     *
     *   T. Thonhauser, V. R. Cooper, S. Li, A. Puzder, P. Hyldgaard, and
     *   D. C. Langreth, Phys. Rev. B 76, 125112 (2007).
     *
     *   G. Roman-Perez and J. M. Soler, Phys. Rev. Lett. 103, 096102 (2009).
     *
     *
     * If you are using vdW-DF2, please also cite:
     *
     *   K. Lee, E. D. Murray, L. Kong, B. I. Lundqvist, and
     *   D. C. Langreth, Phys. Rev. B 82, 081101(R) (2010).
     *
     *
     * If you are calculating the stress with vdW-DF, please also cite:
     *
     *   R. Sabatini, E. Kucukbenli, B. Kolb, T. Thonhauser, and
     *   S. de Gironcoli, J. Phys.: Condens. Matter 24, 424209 (2012).
     *

     Carrying out vdW-DF run using the following parameters:

     Nqs =      20    Nr_points =    1024   r_max =   100.000
     q_mesh =
               0.00001000     0.04494208     0.09755937     0.15916263
               0.23128650     0.31572767     0.41458969     0.53033537
               0.66584808     0.82450364     1.01025438     1.22772762
               1.48234092     1.78043706     2.12944203     2.53805004
               3.01644009     3.57652955     4.23227104     5.00000000

     Gradients computed in reciprocal space

[...]

     Starting wfc are  108 randomized atomic wfcs +    1 random wfc

     Self-consistent Calculation

[...]

     total energy              =   -1695.06648407 Ry
     Harris-Foulkes estimate   =   -1695.06648065 Ry
     estimated scf accuracy    <       0.00000172 Ry

     iteration # 16     ecut=    36.75 Ry     beta=0.10
     Davidson diagonalization with overlap
     ethr =  1.08E-09,  avg # of iterations =  2.0

[...]

     negative rho (up, down):  1.078E-03 0.000E+00

     Adding external electric field

     Computed dipole along edir(3) :
        Dipole               -0.0097 Ry au,         -0.0246 Debye
        Dipole field         -0.0000 Ry au

        Potential amp.        0.0016 Ry
        Total length         47.1794 bohr

     End of self-consistent calculation

[...]

          k = 0.0485 0.0000 0.0000 ( 26559 PWs)   bands (ev):

[...]

          k =-0.0728-0.1261 0.0000 ( 26494 PWs)   bands (ev):

   -21.6304 -21.6236 -21.6235 -21.6148 -21.6144 -21.5571 -21.5544 -21.5544
   -21.5506 -21.5501 -21.4257 -21.4252 -21.3994 -21.3994 -21.3912 -14.6285
   -14.6055 -14.5880 -14.5773 -14.5663 -14.5579 -14.5544 -14.5530 -14.5407
   -14.5354 -14.5288 -14.5240 -14.5212 -14.5135 -14.5030 -14.4977 -14.4960
   -14.4945 -14.4930 -14.4871 -14.4840 -14.4788 -14.4766 -14.4758 -14.4726
   -14.4661 -14.4569 -14.4534 -14.4421 -14.4393 -14.4341 -14.4327 -14.4268
   -14.4235 -14.4085 -14.4041 -14.4026 -14.3965 -14.3948 -14.3903 -14.3868
   -14.3800 -14.3436 -14.3419 -14.3028  -7.9063  -7.7176  -6.9825  -6.2396
    -5.5805  -5.0030  -4.9051  -4.3772  -3.9992  -3.8371  -3.1347  -2.2089
    -0.8424  -0.7740  -0.6334  -0.3481  -0.3049  -0.2301   0.3821   0.6848
     0.7091   1.1009   1.3168   1.5536   1.6732   2.0835   2.1182   2.2178
     2.3520   2.8142   2.9275   3.0765   3.1353   3.2538   3.6933   3.8929
     4.0268   4.0484   4.5246   4.6474   4.7208   4.8637   5.2633   5.2662
     5.3648   5.3716   5.4023   5.6566   5.6955

     the Fermi energy is     0.3474 ev

!    total energy              =   -1695.06649645 Ry
     Harris-Foulkes estimate   =   -1695.06648422 Ry
     estimated scf accuracy    <       0.00000061 Ry

     The total energy is the sum of the following terms:

     one-electron contribution =   -8914.47298419 Ry
     hartree contribution      =    4531.14244964 Ry
     xc contribution           =    -485.25255857 Ry
     ewald contribution        =    3173.54830244 Ry
     electric field correction =       0.00000017 Ry
     smearing contrib. (-TS)   =      -0.03170594 Ry

     convergence has been achieved in  16 iterations

 BEEF-vdW xc energy contributions
           1 :   -425.470372119952
           2 :    388.876350994649
           3 :   -327.095909963764
           4 :    257.606640230017
           5 :   -196.482663578817
           6 :    152.529326504512
           7 :   -125.534665956900
           8 :    108.870932724032
           9 :   -94.5228793780810
          10 :    77.6054530618958
          11 :   -58.1313232740138
          12 :    39.6208794759469
          13 :   -25.9813286587023
          14 :    18.8081916327556
          15 :   -16.6327646904406
          16 :    16.1963221254122
          17 :   -14.6004201847016
          18 :    10.8587489196690
          19 :   -6.01540891893302
          20 :    2.01743085202020
          21 :  -0.265003834957213
          22 :   0.791398052620252
          23 :   -2.46126319864902
          24 :    3.85954909541420
          25 :   -4.17337509208244
          26 :    3.51230834733599
          27 :   -2.59212771511102
          28 :    2.12965298687129
          29 :   -2.40331612231944
          30 :    3.21135125562012
          31 :   -38.1590258584007
          32 :   -27.6611468113267

     Forces acting on atoms (Ry/au):

     negative rho (up, down):  1.078E-03 0.000E+00
     atom    1 type  1   force =    -0.00000062    0.00032015    0.00161115
     atom    2 type  1   force =     0.00027726   -0.00015998    0.00161174
     atom    3 type  1   force =    -0.00027760   -0.00015985    0.00161057
     atom    4 type  2   force =     0.00000043   -0.00000146    0.01031574
     atom    5 type  1   force =     0.00000014   -0.00231511   -0.00504957
     atom    6 type  1   force =    -0.00200424    0.00115744   -0.00504841
     atom    7 type  1   force =     0.00200405    0.00115745   -0.00504847
     atom    8 type  2   force =     0.00000031    0.00000035   -0.00277201
     atom    9 type  1   force =    -0.00000007    0.00074532    0.00091318
     atom   10 type  1   force =     0.00064335   -0.00037377    0.00091189
     atom   11 type  1   force =    -0.00064381   -0.00037342    0.00091447
     atom   12 type  2   force =     0.00000080    0.00000290    0.00002971

     Total force =     0.014795     Total SCF correction =     0.001622
     SCF correction compared to forces is large: reduce conv_thr to get better values

     entering subroutine stress ...

     negative rho (up, down):  1.078E-03 0.000E+00
          total   stress  (Ry/bohr**3)                   (kbar)     P=   -3.50
  -0.00002781   0.00000000   0.00000000         -4.09      0.00      0.00
   0.00000000  -0.00002781   0.00000000          0.00     -4.09      0.00
   0.00000000   0.00000000  -0.00001576          0.00      0.00     -2.32

 !ASE

     Writing output data file calc.save

     General routines

     Parallel routines

   This run was terminated on:  14:30:15  26Dec2018

   JOB DONE.
Job  /afs/slac/g/suncat/bin/suncat-tsmpirun -x LD_LIBRARY_PATH -wdir /scratch/qe109898_1cKOu pw.x -in pw.inp

TID   HOST_NAME   COMMAND_LINE            STATUS            TERMINATION_TIME
00000 suncat0089 pw.x -in pw.inp   Done                     12/26/2018 14:30:15
00001 suncat0089 pw.x -in pw.inp   Done                     12/26/2018 14:30:15
00002 suncat0089 pw.x -in pw.inp   Done                     12/26/2018 14:30:15
00003 suncat0089 pw.x -in pw.inp   Done                     12/26/2018 14:30:15
00004 suncat0089 pw.x -in pw.inp   Done                     12/26/2018 14:30:15
00005 suncat0089 pw.x -in pw.inp   Done                     12/26/2018 14:30:15
00006 suncat0089 pw.x -in pw.inp   Done                     12/26/2018 14:30:15
00007 suncat0089 pw.x -in pw.inp   Done                     12/26/2018 14:30:15
00008 suncat0088 pw.x -in pw.inp   Done                     12/26/2018 14:30:15
00009 suncat0088 pw.x -in pw.inp   Done                     12/26/2018 14:30:15
00010 suncat0088 pw.x -in pw.inp   Done                     12/26/2018 14:30:15
00011 suncat0088 pw.x -in pw.inp   Done                     12/26/2018 14:30:15
00012 suncat0088 pw.x -in pw.inp   Done                     12/26/2018 14:30:15
00013 suncat0088 pw.x -in pw.inp   Done                     12/26/2018 14:30:15
00014 suncat0088 pw.x -in pw.inp   Done                     12/26/2018 14:30:15
00015 suncat0088 pw.x -in pw.inp   Done                     12/26/2018 14:30:15
00016 suncat0087 pw.x -in pw.inp   Done                     12/26/2018 14:30:15
00017 suncat0087 pw.x -in pw.inp   Done                     12/26/2018 14:30:15
00018 suncat0087 pw.x -in pw.inp   Done                     12/26/2018 14:30:15
00019 suncat0087 pw.x -in pw.inp   Done                     12/26/2018 14:30:15
00020 suncat0087 pw.x -in pw.inp   Done                     12/26/2018 14:30:15
00021 suncat0087 pw.x -in pw.inp   Done                     12/26/2018 14:30:15
00022 suncat0087 pw.x -in pw.inp   Done                     12/26/2018 14:30:15
00023 suncat0087 pw.x -in pw.inp   Done                     12/26/2018 14:30:15
00024 suncat0086 pw.x -in pw.inp   Done                     12/26/2018 14:30:15
00025 suncat0086 pw.x -in pw.inp   Done                     12/26/2018 14:30:15
00026 suncat0086 pw.x -in pw.inp   Done                     12/26/2018 14:30:15
00027 suncat0086 pw.x -in pw.inp   Done                     12/26/2018 14:30:15
00028 suncat0086 pw.x -in pw.inp   Done                     12/26/2018 14:30:15
00029 suncat0086 pw.x -in pw.inp   Done                     12/26/2018 14:30:15
00030 suncat0086 pw.x -in pw.inp   Done                     12/26/2018 14:30:15
00031 suncat0086 pw.x -in pw.inp   Done                     12/26/2018 14:30:15
00032 suncat0085 pw.x -in pw.inp   Done                     12/26/2018 14:30:15
00033 suncat0085 pw.x -in pw.inp   Done                     12/26/2018 14:30:15
00034 suncat0085 pw.x -in pw.inp   Done                     12/26/2018 14:30:15
00035 suncat0085 pw.x -in pw.inp   Done                     12/26/2018 14:30:15
00036 suncat0085 pw.x -in pw.inp   Done                     12/26/2018 14:30:15
00037 suncat0085 pw.x -in pw.inp   Done                     12/26/2018 14:30:15
00038 suncat0085 pw.x -in pw.inp   Done                     12/26/2018 14:30:15
00039 suncat0085 pw.x -in pw.inp   Done                     12/26/2018 14:30:15
00040 suncat0084 pw.x -in pw.inp   Done                     12/26/2018 14:30:15
00041 suncat0084 pw.x -in pw.inp   Done                     12/26/2018 14:30:15
00042 suncat0084 pw.x -in pw.inp   Done                     12/26/2018 14:30:15
00043 suncat0084 pw.x -in pw.inp   Done                     12/26/2018 14:30:15
00044 suncat0084 pw.x -in pw.inp   Done                     12/26/2018 14:30:15
00045 suncat0084 pw.x -in pw.inp   Done                     12/26/2018 14:30:15
00046 suncat0084 pw.x -in pw.inp   Done                     12/26/2018 14:30:15
00047 suncat0084 pw.x -in pw.inp   Done                     12/26/2018 14:30:15
00048 suncat0073 pw.x -in pw.inp   Done                     12/26/2018 14:30:15
00049 suncat0073 pw.x -in pw.inp   Done                     12/26/2018 14:30:15
00050 suncat0073 pw.x -in pw.inp   Done                     12/26/2018 14:30:15
00051 suncat0073 pw.x -in pw.inp   Done                     12/26/2018 14:30:15
00052 suncat0073 pw.x -in pw.inp   Done                     12/26/2018 14:30:15
00053 suncat0073 pw.x -in pw.inp   Done                     12/26/2018 14:30:15
00054 suncat0073 pw.x -in pw.inp   Done                     12/26/2018 14:30:15
00055 suncat0073 pw.x -in pw.inp   Done                     12/26/2018 14:30:15
00056 suncat0068 pw.x -in pw.inp   Done                     12/26/2018 14:30:15
00057 suncat0068 pw.x -in pw.inp   Done                     12/26/2018 14:30:15
00058 suncat0068 pw.x -in pw.inp   Done                     12/26/2018 14:30:15
00059 suncat0068 pw.x -in pw.inp   Done                     12/26/2018 14:30:15
00060 suncat0068 pw.x -in pw.inp   Done                     12/26/2018 14:30:15
00061 suncat0068 pw.x -in pw.inp   Done                     12/26/2018 14:30:15
00062 suncat0068 pw.x -in pw.inp   Done                     12/26/2018 14:30:15
00063 suncat0068 pw.x -in pw.inp   Done                     12/26/2018 14:30:15