     Program PWSCF v.5.1rc2 (svn rev. 11289) starts on 25Dec2018 at  2: 6:47

     Current dimensions of program PWSCF are:
     Max number of different atomic species (ntypx) = 10
     Max number of k-points (npk) =  40000
     Max angular momentum in pseudopotentials (lmaxx) =  3
     Presently stress not available with electric field

     IMPORTANT: XC functional enforced from input :
     Exchange-correlation      = BEEF-VDW ( 1  4 27 13 2)
     Any further DFT definition will be discarded
     Please, verify this is what you really want

     Subspace diagonalization in iterative solution of the eigenvalue problem:
     a serial algorithm will be used

     Found symmetry operation: I + (  0.5000  0.5000  0.0000)
     This is a supercell, fractional translations are disabled

     bravais-lattice index     =            0
     lattice parameter (alat)  =       1.8897  a.u.
     unit-cell volume          =    8162.3719 (a.u.)^3
     number of atoms/cell      =           12
     number of atomic types    =            2
     number of electrons       =       132.00
     number of Kohn-Sham states=           96
     kinetic-energy cutoff     =      36.7493  Ry
     charge density cutoff     =     367.4932  Ry
     convergence threshold     =      1.0E-06
     mixing beta               =       0.1000
     number of iterations used =           10  plain     mixing
     Exchange-correlation      = BEEF-VDW ( 1  4 27 13 2)
     nstep                     =           50

     celldm(1)=   1.889726  celldm(2)=   0.000000  celldm(3)=   0.000000
     celldm(4)=   0.000000  celldm(5)=   0.000000  celldm(6)=   0.000000

     crystal axes: (cart. coord. in units of alat)
               a(1) = (   7.312741   0.000000   0.000000 )
               a(2) = (   3.600141   6.365152   0.000000 )
               a(3) = (   0.000000   0.000000  25.985483 )

     reciprocal axes: (cart. coord. in units 2 pi/alat)
               b(1) = (  0.136748 -0.077345  0.000000 )
               b(2) = (  0.000000  0.157105  0.000000 )
               b(3) = (  0.000000  0.000000  0.038483 )

     PseudoPot. # 1 for La read from file:
     /afs/slac.stanford.edu/u/if/mamunm/psp/gbrv1.5pbe/La.UPF
     MD5 check sum: 5937b0c7494ba0601a847275249473aa
     Pseudo is Ultrasoft + core correction, Zval = 11.0
     Generated by new atomic code, or converted to UPF format
     Using radial grid of  995 points,  8 beta functions with:
                l(1) =   0
                l(2) =   0
                l(3) =   1
                l(4) =   1
                l(5) =   2
                l(6) =   2
                l(7) =   3
                l(8) =   3
     Q(r) pseudized with  8 coefficients,  rinner =    1.700   1.700   1.700
                                                       1.700   1.700   1.700
                                                       1.700

     PseudoPot. # 2 for Y  read from file:
     /afs/slac.stanford.edu/u/if/mamunm/psp/gbrv1.5pbe/Y.UPF
     MD5 check sum: d034151ed7554c50b6e82763ed42c788
     Pseudo is Ultrasoft + core correction, Zval = 11.0
     Generated by new atomic code, or converted to UPF format
     Using radial grid of  885 points,  6 beta functions with:
                l(1) =   0
                l(2) =   0
                l(3) =   1
                l(4) =   1
                l(5) =   2
                l(6) =   2
     Q(r) pseudized with  8 coefficients,  rinner =    1.200   1.200   1.200
                                                       1.200   1.200

     vdW kernel table read from file vdW_kernel_table
     MD5 check sum: 095c7af220d748ca6e76c0b4c6cfb241

     atomic species   valence    mass     pseudopotential
        La1           11.00   138.90547     La( 1.00)
        Y1            11.00    88.90584     Y ( 1.00)

     No symmetry found

   Cartesian axes

     site n.     atom                  positions (alat units)
         1           La1 tau(   1) = (   0.0000000   0.0000000  10.0000000  )
         2           La1 tau(   2) = (   5.4564410   3.1825762  10.0000000  )
         3           Y1  tau(   3) = (   3.6563705   0.0000000  10.0000000  )
         4           Y1  tau(   4) = (   1.8000705   3.1825762  10.0000000  )
         5           La1 tau(   5) = (   7.3127409   4.2652995  12.9927414  )
         6           La1 tau(   6) = (   1.8562999   1.0827233  12.9927414  )
         7           Y1  tau(   7) = (   3.6563705   4.2652995  12.9927414  )
         8           Y1  tau(   8) = (   5.5126704   1.0827233  12.9927414  )
         9           La1 tau(   9) = (   3.7125999   2.1654467  15.9854829  )
        10           La1 tau(  10) = (   9.1690409   5.3480228  15.9854829  )
        11           Y1  tau(  11) = (   7.3689703   2.1654467  15.9854829  )
        12           Y1  tau(  12) = (   5.5126704   5.3480228  15.9854829  )

     number of k points=    20  Fermi-Dirac smearing, width (Ry)=  0.0110
                       cart. coord. in units 2pi/alat
        k(    1) = (   0.0000000   0.0000000   0.0000000), wk =   0.0555556
        k(    2) = (   0.0000000   0.0261842   0.0000000), wk =   0.1111111
        k(    3) = (   0.0000000   0.0523685   0.0000000), wk =   0.1111111
        k(    4) = (   0.0000000  -0.0785527   0.0000000), wk =   0.0555556
        k(    5) = (   0.0227913  -0.0128908   0.0000000), wk =   0.1111111
        k(    6) = (   0.0227913   0.0132935   0.0000000), wk =   0.1111111
        k(    7) = (   0.0227913   0.0394777   0.0000000), wk =   0.1111111
        k(    8) = (   0.0227913  -0.0914435   0.0000000), wk =   0.1111111
        k(    9) = (   0.0227913  -0.0652593   0.0000000), wk =   0.1111111
        k(   10) = (   0.0227913  -0.0390750   0.0000000), wk =   0.1111111
        k(   11) = (   0.0455825  -0.0257816   0.0000000), wk =   0.1111111
        k(   12) = (   0.0455825   0.0004027   0.0000000), wk =   0.1111111
        k(   13) = (   0.0455825   0.0265869   0.0000000), wk =   0.1111111
        k(   14) = (   0.0455825  -0.1043343   0.0000000), wk =   0.1111111
        k(   15) = (   0.0455825  -0.0781500   0.0000000), wk =   0.1111111
        k(   16) = (   0.0455825  -0.0519658   0.0000000), wk =   0.1111111
        k(   17) = (  -0.0683738   0.0386723   0.0000000), wk =   0.0555556
        k(   18) = (  -0.0683738   0.0648566   0.0000000), wk =   0.1111111
        k(   19) = (  -0.0683738   0.0910408   0.0000000), wk =   0.1111111
        k(   20) = (  -0.0683738  -0.0398804   0.0000000), wk =   0.0555556

     Largest allocated arrays     est. size (Mb)     dimensions
     Largest temporary arrays     est. size (Mb)     dimensions

     Initial potential from superposition of free atoms
     Check: negative starting charge=   -0.420133

     starting charge  131.78077, renormalised to  132.00000

     negative rho (up, down):  4.208E-01 0.000E+00

     *
     * You are using vdW-DF for exchange-correlation in this calculation.
     * Please cite the following three references that made this development
     * possible:
     *
     *   M. Dion, H. Rydberg, E. Schroder, D. C. Langreth, and
     *   B. I. Lundqvist, Phys. Rev. Lett. 92, 246401 (2004).
     *
     *   T. Thonhauser, V. R. Cooper, S. Li, A. Puzder, P. Hyldgaard, and
     *   D. C. Langreth, Phys. Rev. B 76, 125112 (2007).
     *
     *   G. Roman-Perez and J. M. Soler, Phys. Rev. Lett. 103, 096102 (2009).
     *
     *
     * If you are using vdW-DF2, please also cite:
     *
     *   K. Lee, E. D. Murray, L. Kong, B. I. Lundqvist, and
     *   D. C. Langreth, Phys. Rev. B 82, 081101(R) (2010).
     *
     *
     * If you are calculating the stress with vdW-DF, please also cite:
     *
     *   R. Sabatini, E. Kucukbenli, B. Kolb, T. Thonhauser, and
     *   S. de Gironcoli, J. Phys.: Condens. Matter 24, 424209 (2012).
     *

     Carrying out vdW-DF run using the following parameters:

     Nqs =      20    Nr_points =    1024   r_max =   100.000
     q_mesh =
               0.00001000     0.04494208     0.09755937     0.15916263
               0.23128650     0.31572767     0.41458969     0.53033537
               0.66584808     0.82450364     1.01025438     1.22772762
               1.48234092     1.78043706     2.12944203     2.53805004
               3.01644009     3.57652955     4.23227104     5.00000000

     Gradients computed in reciprocal space

     Adding external electric field

     Computed dipole along edir(3) :
        Dipole               -0.0000 Ry au,         -0.0000 Debye
        Dipole field         -0.0000 Ry au

        Potential amp.        0.0000 Ry
        Total length         47.8778 bohr

     Starting wfc are  198 randomized atomic wfcs

     Self-consistent Calculation

     iteration #  1     ecut=    36.75 Ry     beta=0.10
     Davidson diagonalization with overlap
     ethr =  1.00E-02,  avg # of iterations =  1.8

[...]

     total energy              =   -1185.44287312 Ry
     Harris-Foulkes estimate   =   -1186.98304228 Ry
     estimated scf accuracy    <       8.56121055 Ry

[...]

     iteration #  8     ecut=    36.75 Ry     beta=0.10
     Davidson diagonalization with overlap
     c_bands:  1 eigenvalues not converged
     ethr =  1.63E-05,  avg # of iterations = 13.7

[...]

     End of self-consistent calculation

          k = 0.0000 0.0000 0.0000 ( 30761 PWs)   bands (ev):

   -41.9664 -41.9662 -41.9519 -41.9516 -41.4538 -41.4389 -31.7753 -31.7742
   -31.7009 -31.6997 -31.3102 -31.2341 -21.9721 -21.9631 -21.9618 -21.9608
   -21.9471 -21.9402 -21.8982 -21.8922 -21.8697 -21.8643 -21.7410 -21.7406
   -21.4957 -21.4494 -21.4198 -21.3776 -21.3531 -21.2679 -15.7233 -15.7187
   -15.5400 -15.4402 -15.4314 -15.3488 -15.3434 -15.3314 -15.3219 -15.2624
   -15.2531 -14.9244 -14.9240 -14.9184 -14.8213 -14.8204 -14.7333 -14.5099
    -2.1301  -1.3440  -0.7323  -0.4571  -0.3685  -0.0431  -0.0054   0.1775
     0.1999   0.3506   0.3751   0.5562   0.5682   0.5954   0.7075   1.0157
     1.1657   1.3404   1.6737   1.6739   2.0294   2.1230   2.1832   2.3077
     2.3580   2.4708   2.5588   2.6080   2.6203   2.7350   2.7873   2.7903
     2.8473   2.8589   2.8745   2.8877   2.9026   2.9181   2.9446   2.9733
     2.9833   2.9860   3.0147   3.0255   3.0343   3.0488   3.0666   3.0694

[...]

          k =-0.0684 0.0387 0.0000 ( 30702 PWs)   bands (ev):

[...]

     the Fermi energy is     1.4457 ev

!    total energy              =   -1186.18229666 Ry
     Harris-Foulkes estimate   =   -1186.18230537 Ry
     estimated scf accuracy    <       0.00000019 Ry

     The total energy is the sum of the following terms:

     one-electron contribution =   -4960.06685473 Ry
     hartree contribution      =    2481.55713508 Ry
     xc contribution           =    -473.52622628 Ry
     ewald contribution        =    1765.98600398 Ry
     electric field correction =       0.00000001 Ry
     smearing contrib. (-TS)   =      -0.13235471 Ry

     convergence has been achieved in  20 iterations

 BEEF-vdW xc energy contributions
           1 :   -417.360789247631
           2 :    380.877495972100
           3 :   -316.948228610331
           4 :    239.957269332109
           5 :   -164.466472382790
           6 :    101.099150196764
           7 :   -54.9201575010142
[...]
     Generated by new atomic code, or converted to UPF format
     Using radial grid of  995 points,  8 beta functions with:
                l(1) =   0
                l(2) =   0
                l(3) =   1
                l(4) =   1
                l(5) =   2
                l(6) =   2
                l(7) =   3
                l(8) =   3
     Q(r) pseudized with  8 coefficients,  rinner =    1.700   1.700   1.700
                                                       1.700   1.700   1.700
                                                       1.700

     PseudoPot. # 2 for Y  read from file:
     /afs/slac.stanford.edu/u/if/mamunm/psp/gbrv1.5pbe/Y.UPF
     MD5 check sum: d034151ed7554c50b6e82763ed42c788
     Pseudo is Ultrasoft + core correction, Zval = 11.0
     Generated by new atomic code, or converted to UPF format
     Using radial grid of  885 points,  6 beta functions with:
                l(1) =   0
                l(2) =   0
                l(3) =   1
                l(4) =   1
                l(5) =   2
                l(6) =   2
     Q(r) pseudized with  8 coefficients,  rinner =    1.200   1.200   1.200
                                                       1.200   1.200

     vdW kernel table read from file vdW_kernel_table
     MD5 check sum: 095c7af220d748ca6e76c0b4c6cfb241

     atomic species   valence    mass     pseudopotential
        La1           11.00   138.90547     La( 1.00)
        Y1            11.00    88.90584     Y ( 1.00)

     No symmetry found

   Cartesian axes

     site n.     atom                  positions (alat units)
         1           La1 tau(   1) = (   0.0000000   0.0000000  10.0000000  )
         2           La1 tau(   2) = (   5.4564410   3.1825762  10.0000000  )
         3           Y1  tau(   3) = (   3.6563705   0.0000000  10.0000000  )
         4           Y1  tau(   4) = (   1.8000705   3.1825762  10.0000000  )
         5           La1 tau(   5) = (   7.3127409   4.2652995  12.9927414  )
         6           La1 tau(   6) = (   1.8562999   1.0827233  12.9927414  )
         7           Y1  tau(   7) = (   3.6563705   4.2652995  12.9927414  )
         8           Y1  tau(   8) = (   5.5126704   1.0827233  12.9927414  )
         9           La1 tau(   9) = (   3.7009792   2.1586559  15.9979764  )
        10           La1 tau(  10) = (   9.1574063   5.3412501  15.9979850  )
        11           Y1  tau(  11) = (   7.3659913   2.1637504  15.8504956  )
        12           Y1  tau(  12) = (   5.5097333   5.3462784  15.8504100  )

     number of k points=    20  Fermi-Dirac smearing, width (Ry)=  0.0110
                       cart. coord. in units 2pi/alat
        k(    1) = (   0.0000000   0.0000000   0.0000000), wk =   0.0555556
        k(    2) = (   0.0000000   0.0261842   0.0000000), wk =   0.1111111
        k(    3) = (   0.0000000   0.0523685   0.0000000), wk =   0.1111111
        k(    4) = (   0.0000000  -0.0785527   0.0000000), wk =   0.0555556
        k(    5) = (   0.0227913  -0.0128908   0.0000000), wk =   0.1111111
        k(    6) = (   0.0227913   0.0132935   0.0000000), wk =   0.1111111
        k(    7) = (   0.0227913   0.0394777   0.0000000), wk =   0.1111111
        k(    8) = (   0.0227913  -0.0914435   0.0000000), wk =   0.1111111
        k(    9) = (   0.0227913  -0.0652593   0.0000000), wk =   0.1111111
        k(   10) = (   0.0227913  -0.0390750   0.0000000), wk =   0.1111111
        k(   11) = (   0.0455825  -0.0257816   0.0000000), wk =   0.1111111
        k(   12) = (   0.0455825   0.0004027   0.0000000), wk =   0.1111111
        k(   13) = (   0.0455825   0.0265869   0.0000000), wk =   0.1111111
        k(   14) = (   0.0455825  -0.1043343   0.0000000), wk =   0.1111111
        k(   15) = (   0.0455825  -0.0781500   0.0000000), wk =   0.1111111
        k(   16) = (   0.0455825  -0.0519658   0.0000000), wk =   0.1111111
        k(   17) = (  -0.0683738   0.0386723   0.0000000), wk =   0.0555556
        k(   18) = (  -0.0683738   0.0648566   0.0000000), wk =   0.1111111
        k(   19) = (  -0.0683738   0.0910408   0.0000000), wk =   0.1111111
        k(   20) = (  -0.0683738  -0.0398804   0.0000000), wk =   0.0555556

     Largest allocated arrays     est. size (Mb)     dimensions
     Largest temporary arrays     est. size (Mb)     dimensions

     Initial potential from superposition of free atoms
     Check: negative starting charge=   -0.419916

     starting charge  131.78077, renormalised to  132.00000

[...]

     *
     * You are using vdW-DF for exchange-correlation in this calculation.
     * Please cite the following three references that made this development
     * possible:
     *
     *   M. Dion, H. Rydberg, E. Schroder, D. C. Langreth, and
     *   B. I. Lundqvist, Phys. Rev. Lett. 92, 246401 (2004).
     *
     *   T. Thonhauser, V. R. Cooper, S. Li, A. Puzder, P. Hyldgaard, and
     *   D. C. Langreth, Phys. Rev. B 76, 125112 (2007).
     *
     *   G. Roman-Perez and J. M. Soler, Phys. Rev. Lett. 103, 096102 (2009).
     *
     *
     * If you are using vdW-DF2, please also cite:
     *
     *   K. Lee, E. D. Murray, L. Kong, B. I. Lundqvist, and
     *   D. C. Langreth, Phys. Rev. B 82, 081101(R) (2010).
     *
     *
     * If you are calculating the stress with vdW-DF, please also cite:
     *
     *   R. Sabatini, E. Kucukbenli, B. Kolb, T. Thonhauser, and
     *   S. de Gironcoli, J. Phys.: Condens. Matter 24, 424209 (2012).
     *

     Carrying out vdW-DF run using the following parameters:

     Nqs =      20    Nr_points =    1024   r_max =   100.000
     q_mesh =
               0.00001000     0.04494208     0.09755937     0.15916263
               0.23128650     0.31572767     0.41458969     0.53033537
               0.66584808     0.82450364     1.01025438     1.22772762
               1.48234092     1.78043706     2.12944203     2.53805004
               3.01644009     3.57652955     4.23227104     5.00000000

     Gradients computed in reciprocal space

[...]

     Starting wfc are  198 randomized atomic wfcs

     Self-consistent Calculation

[...]

     iteration # 16     ecut=    36.75 Ry     beta=0.10
     Davidson diagonalization with overlap
     c_bands:  1 eigenvalues not converged
     ethr =  5.01E-08,  avg # of iterations =  6.8

[...]

     total energy              =   -1186.18433343 Ry
     Harris-Foulkes estimate   =   -1186.18433431 Ry
     estimated scf accuracy    <       0.00000119 Ry

     iteration # 21     ecut=    36.75 Ry     beta=0.10
     Davidson diagonalization with overlap
     ethr =  9.00E-10,  avg # of iterations =  4.2

[...]

     negative rho (up, down):  3.018E-01 0.000E+00

     Adding external electric field

     Computed dipole along edir(3) :
        Dipole                0.0166 Ry au,          0.0421 Debye
        Dipole field          0.0000 Ry au

        Potential amp.       -0.0024 Ry
        Total length         47.8778 bohr

     End of self-consistent calculation

[...]

          k = 0.0456-0.0520 0.0000 ( 30670 PWs)   bands (ev):

[...]

          k =-0.0684-0.0399 0.0000 ( 30742 PWs)   bands (ev):

   -41.9696 -41.9551 -41.8661 -41.8515 -41.4300 -41.4151 -31.7953 -31.7733
   -31.7204 -31.6984 -31.2634 -31.1862 -21.9717 -21.9602 -21.9489 -21.8883
   -21.8779 -21.8706 -21.8666 -21.8554 -21.7937 -21.7721 -21.7430 -21.6509
   -21.4707 -21.4165 -21.3934 -21.3495 -21.3262 -21.2469 -15.7554 -15.7320
   -15.5663 -15.4534 -15.4307 -15.4009 -15.3749 -15.3356 -15.2945 -15.2901
   -15.2690 -14.9444 -14.9232 -14.9035 -14.8003 -14.7939 -14.7029 -14.4671
    -0.9274  -0.8898  -0.1458  -0.1186   0.2865   0.3462   0.4492   0.5391
     0.5516   0.8107   0.9234   1.0515   1.1920   1.2447   1.2996   1.3165
     1.3488   1.3874   1.4413   1.5257   1.5979   1.6335   1.6429   1.7233
     1.8616   1.9152   1.9844   1.9885   2.0031   2.1163   2.1429   2.2364
     2.3149   2.3452   2.5199   2.5825   2.7652   2.8232   2.8421   2.8659
     2.8905   2.8980   2.9241   2.9308   2.9525   3.0025   3.0256   3.0269

     the Fermi energy is     1.4497 ev

!    total energy              =   -1186.18432392 Ry
     Harris-Foulkes estimate   =   -1186.18433357 Ry
     estimated scf accuracy    <       0.00000072 Ry

     The total energy is the sum of the following terms:

     one-electron contribution =   -5004.01401091 Ry
     hartree contribution      =    2503.64115595 Ry
     xc contribution           =    -473.58226590 Ry
     ewald contribution        =    1787.90212908 Ry
     electric field correction =       0.00000042 Ry
     smearing contrib. (-TS)   =      -0.13133256 Ry

     convergence has been achieved in  21 iterations

 BEEF-vdW xc energy contributions
           1 :   -417.417002446832
           2 :    380.952560484187
           3 :   -317.039459870860
           4 :    240.038673777924
           5 :   -164.507971242719
           6 :    101.090234210595
           7 :   -54.8783581872941
           8 :    26.0972610535006
           9 :   -11.9525211384800
          10 :    8.42681810443787
          11 :   -11.3889102022816
          12 :    17.0333456046528
          13 :   -22.0540683283156
          14 :    23.9233073234195
          15 :   -21.3386695042140
          16 :    14.5621836491002
          17 :   -5.30208949989122
          18 :   -3.96812494203135
          19 :    10.9821038812852
          20 :   -14.4803724509137
          21 :    14.4856563397362
          22 :   -12.0207024281818
          23 :    8.51322756008159
          24 :   -5.22158237160750
          25 :    2.90277971206382
          26 :   -1.76182755280490
          27 :    1.58639014325587
          28 :   -1.94933668249155
          29 :    2.40525767989993
          30 :   -2.65000236190582
          31 :   -36.9607950510877
          32 :   -26.0735192455859

     Forces acting on atoms (Ry/au):

     negative rho (up, down):  3.018E-01 0.000E+00
     atom    1 type  1   force =     0.00049803    0.00028908   -0.00144596
     atom    2 type  1   force =     0.00050036    0.00029021   -0.00144779
     atom    3 type  2   force =     0.00015762    0.00008970    0.00684156
     atom    4 type  2   force =     0.00015658    0.00009376    0.00684908
     atom    5 type  1   force =     0.00085160    0.00049446   -0.00568856
     atom    6 type  1   force =     0.00084784    0.00049734   -0.00568865
     atom    7 type  2   force =    -0.00091640   -0.00053060   -0.00081818
     atom    8 type  2   force =    -0.00091028   -0.00053367   -0.00081322
     atom    9 type  1   force =    -0.00020447   -0.00011768    0.00025508
     atom   10 type  1   force =    -0.00020271   -0.00012070    0.00025220
     atom   11 type  2   force =    -0.00038686   -0.00022517    0.00084870
     atom   12 type  2   force =    -0.00039131   -0.00022673    0.00085574

     Total force =     0.013075     Total SCF correction =     0.002214
     SCF correction compared to forces is large: reduce conv_thr to get better values

     entering subroutine stress ...

     negative rho (up, down):  3.018E-01 0.000E+00
          total   stress  (Ry/bohr**3)                   (kbar)     P=   -1.86
  -0.00001579  -0.00000171  -0.00000166         -2.32     -0.25     -0.24
  -0.00000171  -0.00001386  -0.00000097         -0.25     -2.04     -0.14
  -0.00000166  -0.00000097  -0.00000831         -0.24     -0.14     -1.22

 !ASE

     Writing output data file calc.save

     General routines

     Parallel routines

   This run was terminated on:   4: 4:15  25Dec2018

   JOB DONE.
Job  /afs/slac/g/suncat/bin/suncat-tsmpirun -x LD_LIBRARY_PATH -wdir /scratch/qe109091_ZWcIy pw.x -in pw.inp

TID   HOST_NAME   COMMAND_LINE            STATUS            TERMINATION_TIME
00000 suncat0075 pw.x -in pw.inp   Done                     12/25/2018 04:04:15
00001 suncat0075 pw.x -in pw.inp   Done                     12/25/2018 04:04:15
00002 suncat0075 pw.x -in pw.inp   Done                     12/25/2018 04:04:15
00003 suncat0075 pw.x -in pw.inp   Done                     12/25/2018 04:04:15
00004 suncat0075 pw.x -in pw.inp   Done                     12/25/2018 04:04:15
00005 suncat0075 pw.x -in pw.inp   Done                     12/25/2018 04:04:15
00006 suncat0075 pw.x -in pw.inp   Done                     12/25/2018 04:04:15
00007 suncat0075 pw.x -in pw.inp   Done                     12/25/2018 04:04:15
00008 suncat0074 pw.x -in pw.inp   Done                     12/25/2018 04:04:15
00009 suncat0074 pw.x -in pw.inp   Done                     12/25/2018 04:04:15
00010 suncat0074 pw.x -in pw.inp   Done                     12/25/2018 04:04:15
00011 suncat0074 pw.x -in pw.inp   Done                     12/25/2018 04:04:15
00012 suncat0074 pw.x -in pw.inp   Done                     12/25/2018 04:04:15
00013 suncat0074 pw.x -in pw.inp   Done                     12/25/2018 04:04:15
00014 suncat0074 pw.x -in pw.inp   Done                     12/25/2018 04:04:15
00015 suncat0074 pw.x -in pw.inp   Done                     12/25/2018 04:04:15
00016 suncat0071 pw.x -in pw.inp   Done                     12/25/2018 04:04:15
00017 suncat0071 pw.x -in pw.inp   Done                     12/25/2018 04:04:15
00018 suncat0071 pw.x -in pw.inp   Done                     12/25/2018 04:04:15
00019 suncat0071 pw.x -in pw.inp   Done                     12/25/2018 04:04:15
00020 suncat0071 pw.x -in pw.inp   Done                     12/25/2018 04:04:15
00021 suncat0071 pw.x -in pw.inp   Done                     12/25/2018 04:04:15
00022 suncat0071 pw.x -in pw.inp   Done                     12/25/2018 04:04:15
00023 suncat0071 pw.x -in pw.inp   Done                     12/25/2018 04:04:15
00024 suncat0020 pw.x -in pw.inp   Done                     12/25/2018 04:04:15
00025 suncat0020 pw.x -in pw.inp   Done                     12/25/2018 04:04:15
00026 suncat0020 pw.x -in pw.inp   Done                     12/25/2018 04:04:15
00027 suncat0020 pw.x -in pw.inp   Done                     12/25/2018 04:04:15
00028 suncat0020 pw.x -in pw.inp   Done                     12/25/2018 04:04:15
00029 suncat0020 pw.x -in pw.inp   Done                     12/25/2018 04:04:15
00030 suncat0020 pw.x -in pw.inp   Done                     12/25/2018 04:04:15
00031 suncat0020 pw.x -in pw.inp   Done                     12/25/2018 04:04:15
00032 suncat0121 pw.x -in pw.inp   Done                     12/25/2018 04:04:15
00033 suncat0121 pw.x -in pw.inp   Done                     12/25/2018 04:04:15
00034 suncat0121 pw.x -in pw.inp   Done                     12/25/2018 04:04:15
00035 suncat0121 pw.x -in pw.inp   Done                     12/25/2018 04:04:15
00036 suncat0121 pw.x -in pw.inp   Done                     12/25/2018 04:04:15
00037 suncat0121 pw.x -in pw.inp   Done                     12/25/2018 04:04:15
00038 suncat0121 pw.x -in pw.inp   Done                     12/25/2018 04:04:15
00039 suncat0121 pw.x -in pw.inp   Done                     12/25/2018 04:04:15
00040 suncat0115 pw.x -in pw.inp   Done                     12/25/2018 04:04:15
00041 suncat0115 pw.x -in pw.inp   Done                     12/25/2018 04:04:15
00042 suncat0115 pw.x -in pw.inp   Done                     12/25/2018 04:04:15
00043 suncat0115 pw.x -in pw.inp   Done                     12/25/2018 04:04:15
00044 suncat0115 pw.x -in pw.inp   Done                     12/25/2018 04:04:15
00045 suncat0115 pw.x -in pw.inp   Done                     12/25/2018 04:04:15
00046 suncat0115 pw.x -in pw.inp   Done                     12/25/2018 04:04:15
00047 suncat0115 pw.x -in pw.inp   Done                     12/25/2018 04:04:15
00048 suncat0228 pw.x -in pw.inp   Done                     12/25/2018 04:04:15
00049 suncat0228 pw.x -in pw.inp   Done                     12/25/2018 04:04:15
00050 suncat0228 pw.x -in pw.inp   Done                     12/25/2018 04:04:15
00051 suncat0228 pw.x -in pw.inp   Done                     12/25/2018 04:04:15
00052 suncat0228 pw.x -in pw.inp   Done                     12/25/2018 04:04:15
00053 suncat0228 pw.x -in pw.inp   Done                     12/25/2018 04:04:15
00054 suncat0228 pw.x -in pw.inp   Done                     12/25/2018 04:04:15
00055 suncat0228 pw.x -in pw.inp   Done                     12/25/2018 04:04:15
00056 suncat0227 pw.x -in pw.inp   Done                     12/25/2018 04:04:15
00057 suncat0227 pw.x -in pw.inp   Done                     12/25/2018 04:04:15
00058 suncat0227 pw.x -in pw.inp   Done                     12/25/2018 04:04:15
00059 suncat0227 pw.x -in pw.inp   Done                     12/25/2018 04:04:15
00060 suncat0227 pw.x -in pw.inp   Done                     12/25/2018 04:04:15
00061 suncat0227 pw.x -in pw.inp   Done                     12/25/2018 04:04:15
00062 suncat0227 pw.x -in pw.inp   Done                     12/25/2018 04:04:15
00063 suncat0227 pw.x -in pw.inp   Done                     12/25/2018 04:04:15