     Program PWSCF v.5.1rc2 (svn rev. 11289) starts on 19Dec2018 at 18:30:17

     Current dimensions of program PWSCF are:
     Max number of different atomic species (ntypx) = 10
     Max number of k-points (npk) =  40000
     Max angular momentum in pseudopotentials (lmaxx) =  3
     Presently stress not available with electric field

     IMPORTANT: XC functional enforced from input :
     Exchange-correlation      = BEEF-VDW ( 1  4 27 13 2)
     Any further DFT definition will be discarded
     Please, verify this is what you really want

     Subspace diagonalization in iterative solution of the eigenvalue problem:
     a serial algorithm will be used

     bravais-lattice index     =            0
     lattice parameter (alat)  =       1.8897  a.u.
     unit-cell volume          =    4655.8926 (a.u.)^3
     number of atoms/cell      =           12
     number of atomic types    =            2
     number of electrons       =        87.00
     number of Kohn-Sham states=           73
     kinetic-energy cutoff     =      36.7493  Ry
     charge density cutoff     =     367.4932  Ry
     convergence threshold     =      1.0E-06
     mixing beta               =       0.1000
     number of iterations used =           10  plain     mixing
     Exchange-correlation      = BEEF-VDW ( 1  4 27 13 2)
     nstep                     =           50

     celldm(1)=   1.889726  celldm(2)=   0.000000  celldm(3)=   0.000000
     celldm(4)=   0.000000  celldm(5)=   0.000000  celldm(6)=   0.000000

     crystal axes: (cart. coord. in units of alat)
               a(1) = (   5.685853   0.000000   0.000000 )
               a(2) = (  -2.842927   4.924093   0.000000 )
               a(3) = (   0.000000   0.000000  24.642480 )

     reciprocal axes: (cart. coord. in units 2 pi/alat)
               b(1) = (  0.175875  0.101542  0.000000 )
               b(2) = (  0.000000  0.203083  0.000000 )
               b(3) = (  0.000000  0.000000  0.040580 )

     PseudoPot. # 1 for Al read from file:
     /afs/slac.stanford.edu/u/if/mamunm/psp/gbrv1.5pbe/Al.UPF
     MD5 check sum: 0a6289f5291fc8f409219462bc851e1f
     Pseudo is Ultrasoft + core correction, Zval =  3.0
     Generated by new atomic code, or converted to UPF format
     Using radial grid of  893 points,  3 beta functions with:
                l(1) =   0
                l(2) =   1
                l(3) =   2
     Q(r) pseudized with  8 coefficients,  rinner =    0.900   0.900   0.900
                                                       0.900   0.900

     PseudoPot. # 2 for Zn read from file:
     /afs/slac.stanford.edu/u/if/mamunm/psp/gbrv1.5pbe/Zn.UPF
     MD5 check sum: df62231357ef9e81f77b2b3087fa5675
     Pseudo is Ultrasoft, Zval = 20.0
     Generated by new atomic code, or converted to UPF format
     Using radial grid of  943 points,  6 beta functions with:
                l(1) =   0
                l(2) =   0
                l(3) =   1
                l(4) =   1
                l(5) =   2
                l(6) =   2
     Q(r) pseudized with  8 coefficients,  rinner =    1.100   1.100   1.100
                                                       1.100   1.100

     vdW kernel table read from file vdW_kernel_table
     MD5 check sum: 095c7af220d748ca6e76c0b4c6cfb241

     atomic species   valence    mass     pseudopotential
        Al1            3.00    26.98154     Al( 1.00)
        Zn1           20.00    65.38000     Zn( 1.00)

     No symmetry found

   Cartesian axes

     site n.     atom                  positions (alat units)
         1           Al1 tau(   1) = (   0.0000000   0.0000000  10.0000000  )
         2           Al1 tau(   2) = (  -1.4214633   2.4620467  10.0000000  )
         3           Al1 tau(   3) = (   1.4214633   2.4620467  10.0000000  )
         4           Zn1 tau(   4) = (   2.8429267   0.0000000  10.0000000  )
         5           Al1 tau(   5) = (   2.8429267   1.6413645  12.3212399  )
         6           Al1 tau(   6) = (   1.4214633   4.1034112  12.3212399  )
         7           Al1 tau(   7) = (  -1.4214633   4.1034112  12.3212399  )
         8           Zn1 tau(   8) = (   0.0000000   1.6413645  12.3212399  )
         9           Al1 tau(   9) = (  -0.0000000   3.2827290  14.6424798  )
        10           Al1 tau(  10) = (   1.4214633   0.8206822  14.6424798  )
        11           Al1 tau(  11) = (   4.2643900   0.8206822  14.6424798  )
        12           Zn1 tau(  12) = (   2.8429267   3.2827290  14.6424798  )

     number of k points=    20  Fermi-Dirac smearing, width (Ry)=  0.0110
                       cart. coord. in units 2pi/alat
        k(    1) = (   0.0000000   0.0000000   0.0000000), wk =   0.0555556
        k(    2) = (   0.0000000   0.0338472   0.0000000), wk =   0.1111111
        k(    3) = (   0.0000000   0.0676944   0.0000000), wk =   0.1111111
        k(    4) = (   0.0000000  -0.1015415   0.0000000), wk =   0.0555556
        k(    5) = (   0.0293125   0.0169236   0.0000000), wk =   0.1111111
        k(    6) = (   0.0293125   0.0507708   0.0000000), wk =   0.1111111
        k(    7) = (   0.0293125   0.0846179   0.0000000), wk =   0.1111111
        k(    8) = (   0.0293125  -0.0846179   0.0000000), wk =   0.1111111
        k(    9) = (   0.0293125  -0.0507708   0.0000000), wk =   0.1111111
        k(   10) = (   0.0293125  -0.0169236   0.0000000), wk =   0.1111111
        k(   11) = (   0.0586250   0.0338472   0.0000000), wk =   0.1111111
        k(   12) = (   0.0586250   0.0676944   0.0000000), wk =   0.1111111
        k(   13) = (   0.0586250   0.1015415   0.0000000), wk =   0.1111111
        k(   14) = (   0.0586250  -0.0676944   0.0000000), wk =   0.1111111
        k(   15) = (   0.0586250  -0.0338472   0.0000000), wk =   0.1111111
        k(   16) = (   0.0586250   0.0000000   0.0000000), wk =   0.1111111
        k(   17) = (  -0.0879375  -0.0507708   0.0000000), wk =   0.0555556
        k(   18) = (  -0.0879375  -0.0169236   0.0000000), wk =   0.1111111
        k(   19) = (  -0.0879375   0.0169236   0.0000000), wk =   0.1111111
        k(   20) = (  -0.0879375  -0.1523123   0.0000000), wk =   0.0555556

     Largest allocated arrays     est. size (Mb)     dimensions
     Largest temporary arrays     est. size (Mb)     dimensions

     Initial potential from superposition of free atoms
     Check: negative starting charge=   -0.000444

     starting charge   86.97739, renormalised to   87.00000

     negative rho (up, down):  4.442E-04 0.000E+00

     *
     * You are using vdW-DF for exchange-correlation in this calculation.
     * Please cite the following three references that made this development
     * possible:
     *
     *   M. Dion, H. Rydberg, E. Schroder, D. C. Langreth, and
     *   B. I. Lundqvist, Phys. Rev. Lett. 92, 246401 (2004).
     *
     *   T. Thonhauser, V. R. Cooper, S. Li, A. Puzder, P. Hyldgaard, and
     *   D. C. Langreth, Phys. Rev. B 76, 125112 (2007).
     *
     *   G. Roman-Perez and J. M. Soler, Phys. Rev. Lett. 103, 096102 (2009).
     *
     *
     * If you are using vdW-DF2, please also cite:
     *
     *   K. Lee, E. D. Murray, L. Kong, B. I. Lundqvist, and
     *   D. C. Langreth, Phys. Rev. B 82, 081101(R) (2010).
     *
     *
     * If you are calculating the stress with vdW-DF, please also cite:
     *
     *   R. Sabatini, E. Kucukbenli, B. Kolb, T. Thonhauser, and
     *   S. de Gironcoli, J. Phys.: Condens. Matter 24, 424209 (2012).
     *

     Carrying out vdW-DF run using the following parameters:

     Nqs =      20    Nr_points =    1024   r_max =   100.000
     q_mesh =
               0.00001000     0.04494208     0.09755937     0.15916263
               0.23128650     0.31572767     0.41458969     0.53033537
               0.66584808     0.82450364     1.01025438     1.22772762
               1.48234092     1.78043706     2.12944203     2.53805004
               3.01644009     3.57652955     4.23227104     5.00000000

     Gradients computed in reciprocal space

     Adding external electric field

     Computed dipole along edir(3) :
        Dipole               -0.0000 Ry au,         -0.0000 Debye
        Dipole field         -0.0000 Ry au

        Potential amp.        0.0000 Ry
        Total length         45.4033 bohr

     Starting wfc are   75 randomized atomic wfcs

     Self-consistent Calculation

     iteration #  1     ecut=    36.75 Ry     beta=0.10
     Davidson diagonalization with overlap
     ethr =  1.00E-02,  avg # of iterations =  6.5

     Threshold (ethr) on eigenvalues was too large:
     Diagonalizing with lowered threshold

     Davidson diagonalization with overlap
     ethr =  8.33E-04,  avg # of iterations =  4.2

[...]

     total energy              =   -1450.08487617 Ry
     Harris-Foulkes estimate   =   -1450.19690408 Ry
     estimated scf accuracy    <       0.73040872 Ry

[...]

     End of self-consistent calculation

          k = 0.0000 0.0000 0.0000 ( 17579 PWs)   bands (ev):

  -127.2059-127.0283-127.0283 -81.3825 -81.3781 -81.3781 -81.2064 -81.2064
   -81.2010 -81.2010 -81.2009 -81.2009 -10.8124  -9.1603  -8.3346  -8.2670
    -8.2670  -8.1883  -8.1883  -8.0222  -8.0222  -7.9944  -7.9849  -7.9849
    -7.9307  -7.9307  -7.9053  -7.9053  -7.8763  -6.1263  -4.8782  -4.5936
    -4.5936  -4.5782  -4.4657  -4.4657  -3.4715  -3.2127  -3.2127  -3.1737
    -2.7408  -2.4616  -2.4616  -0.4140  -0.4020  -0.4020  -0.2893  -0.0478
    -0.0478   0.3864   2.3132   2.7457   2.7457   2.7470   2.7470   2.7921
     2.8491   3.2377   3.8373   4.1500   5.5889   5.6365   5.8651   5.8899
     5.8899   6.3250   6.3527   6.3704   6.3704   6.5973   6.5973   7.3679
     7.7687

[...]

          k =-0.0879-0.0508 0.0000 ( 17472 PWs)   bands (ev):

[...]

     the Fermi energy is    -0.4221 ev

!    total energy              =   -1450.06208317 Ry
     Harris-Foulkes estimate   =   -1450.06208056 Ry
     estimated scf accuracy    <       0.00000085 Ry

     The total energy is the sum of the following terms:

     one-electron contribution =   -5392.81274239 Ry
     hartree contribution      =    2694.44137047 Ry
     xc contribution           =    -169.89001966 Ry
     ewald contribution        =    1418.22678536 Ry
     electric field correction =       0.00000000 Ry
     smearing contrib. (-TS)   =      -0.02747694 Ry

     convergence has been achieved in  13 iterations

 BEEF-vdW xc energy contributions
           1 :   -148.123403655615
           2 :    132.686980993501
           3 :   -107.452092153821
           4 :    80.5040010478537
           5 :   -58.3172257937068
           6 :    43.2896820868230
           7 :   -33.9685251297388
           8 :    27.2671986528715
           9 :   -20.8845396032746
          10 :    14.3932550202310
          11 :   -8.70900423924624
          12 :    4.80063339696210
          13 :   -2.78100425866984
          14 :    1.91149181111427
          15 :   -1.24061490214837
          16 :   0.226767499160417
          17 :    1.08635175261219
          18 :   -2.31374357070786
          19 :    3.08759471006701
          20 :   -3.28019090952131
          21 :    3.03302240292098
          22 :   -2.65505362996268
          23 :    2.45826865655289
[...]

     reciprocal axes: (cart. coord. in units 2 pi/alat)
               b(1) = (  0.175875  0.101542  0.000000 )
               b(2) = (  0.000000  0.203083  0.000000 )
               b(3) = (  0.000000  0.000000  0.040580 )

     PseudoPot. # 1 for Al read from file:
     /afs/slac.stanford.edu/u/if/mamunm/psp/gbrv1.5pbe/Al.UPF
     MD5 check sum: 0a6289f5291fc8f409219462bc851e1f
     Pseudo is Ultrasoft + core correction, Zval =  3.0
     Generated by new atomic code, or converted to UPF format
     Using radial grid of  893 points,  3 beta functions with:
                l(1) =   0
                l(2) =   1
                l(3) =   2
     Q(r) pseudized with  8 coefficients,  rinner =    0.900   0.900   0.900
                                                       0.900   0.900

     PseudoPot. # 2 for Zn read from file:
     /afs/slac.stanford.edu/u/if/mamunm/psp/gbrv1.5pbe/Zn.UPF
     MD5 check sum: df62231357ef9e81f77b2b3087fa5675
     Pseudo is Ultrasoft, Zval = 20.0
     Generated by new atomic code, or converted to UPF format
     Using radial grid of  943 points,  6 beta functions with:
                l(1) =   0
                l(2) =   0
                l(3) =   1
                l(4) =   1
                l(5) =   2
                l(6) =   2
     Q(r) pseudized with  8 coefficients,  rinner =    1.100   1.100   1.100
                                                       1.100   1.100

     vdW kernel table read from file vdW_kernel_table
     MD5 check sum: 095c7af220d748ca6e76c0b4c6cfb241

     atomic species   valence    mass     pseudopotential
        Al1            3.00    26.98154     Al( 1.00)
        Zn1           20.00    65.38000     Zn( 1.00)

     No symmetry found

   Cartesian axes

     site n.     atom                  positions (alat units)
         1           Al1 tau(   1) = (   0.0000000   0.0000000  10.0000000  )
         2           Al1 tau(   2) = (  -1.4214633   2.4620467  10.0000000  )
         3           Al1 tau(   3) = (   1.4214633   2.4620467  10.0000000  )
         4           Zn1 tau(   4) = (   2.8429267   0.0000000  10.0000000  )
         5           Al1 tau(   5) = (   2.8429267   1.6413645  12.3212399  )
         6           Al1 tau(   6) = (   1.4214633   4.1034112  12.3212399  )
         7           Al1 tau(   7) = (  -1.4214633   4.1034112  12.3212399  )
         8           Zn1 tau(   8) = (   0.0000000   1.6413645  12.3212399  )
         9           Al1 tau(   9) = (   0.0000012   3.2734862  14.6446871  )
        10           Al1 tau(  10) = (   1.4134585   0.8253052  14.6446872  )
        11           Al1 tau(  11) = (   4.2723955   0.8253043  14.6446872  )
        12           Zn1 tau(  12) = (   2.8429328   3.2827315  14.6700121  )

     number of k points=    20  Fermi-Dirac smearing, width (Ry)=  0.0110
                       cart. coord. in units 2pi/alat
        k(    1) = (   0.0000000   0.0000000   0.0000000), wk =   0.0555556
        k(    2) = (   0.0000000   0.0338472   0.0000000), wk =   0.1111111
        k(    3) = (   0.0000000   0.0676944   0.0000000), wk =   0.1111111
        k(    4) = (   0.0000000  -0.1015415   0.0000000), wk =   0.0555556
        k(    5) = (   0.0293125   0.0169236   0.0000000), wk =   0.1111111
        k(    6) = (   0.0293125   0.0507708   0.0000000), wk =   0.1111111
        k(    7) = (   0.0293125   0.0846179   0.0000000), wk =   0.1111111
        k(    8) = (   0.0293125  -0.0846179   0.0000000), wk =   0.1111111
        k(    9) = (   0.0293125  -0.0507708   0.0000000), wk =   0.1111111
        k(   10) = (   0.0293125  -0.0169236   0.0000000), wk =   0.1111111
        k(   11) = (   0.0586250   0.0338472   0.0000000), wk =   0.1111111
        k(   12) = (   0.0586250   0.0676944   0.0000000), wk =   0.1111111
        k(   13) = (   0.0586250   0.1015415   0.0000000), wk =   0.1111111
        k(   14) = (   0.0586250  -0.0676944   0.0000000), wk =   0.1111111
        k(   15) = (   0.0586250  -0.0338472   0.0000000), wk =   0.1111111
        k(   16) = (   0.0586250   0.0000000   0.0000000), wk =   0.1111111
        k(   17) = (  -0.0879375  -0.0507708   0.0000000), wk =   0.0555556
        k(   18) = (  -0.0879375  -0.0169236   0.0000000), wk =   0.1111111
        k(   19) = (  -0.0879375   0.0169236   0.0000000), wk =   0.1111111
        k(   20) = (  -0.0879375  -0.1523123   0.0000000), wk =   0.0555556

     Largest allocated arrays     est. size (Mb)     dimensions
     Largest temporary arrays     est. size (Mb)     dimensions

     Initial potential from superposition of free atoms
     Check: negative starting charge=   -0.000445

     starting charge   86.97739, renormalised to   87.00000

[...]

     *
     * You are using vdW-DF for exchange-correlation in this calculation.
     * Please cite the following three references that made this development
     * possible:
     *
     *   M. Dion, H. Rydberg, E. Schroder, D. C. Langreth, and
     *   B. I. Lundqvist, Phys. Rev. Lett. 92, 246401 (2004).
     *
     *   T. Thonhauser, V. R. Cooper, S. Li, A. Puzder, P. Hyldgaard, and
     *   D. C. Langreth, Phys. Rev. B 76, 125112 (2007).
     *
     *   G. Roman-Perez and J. M. Soler, Phys. Rev. Lett. 103, 096102 (2009).
     *
     *
     * If you are using vdW-DF2, please also cite:
     *
     *   K. Lee, E. D. Murray, L. Kong, B. I. Lundqvist, and
     *   D. C. Langreth, Phys. Rev. B 82, 081101(R) (2010).
     *
     *
     * If you are calculating the stress with vdW-DF, please also cite:
     *
     *   R. Sabatini, E. Kucukbenli, B. Kolb, T. Thonhauser, and
     *   S. de Gironcoli, J. Phys.: Condens. Matter 24, 424209 (2012).
     *

     Carrying out vdW-DF run using the following parameters:

     Nqs =      20    Nr_points =    1024   r_max =   100.000
     q_mesh =
               0.00001000     0.04494208     0.09755937     0.15916263
               0.23128650     0.31572767     0.41458969     0.53033537
               0.66584808     0.82450364     1.01025438     1.22772762
               1.48234092     1.78043706     2.12944203     2.53805004
               3.01644009     3.57652955     4.23227104     5.00000000

     Gradients computed in reciprocal space

[...]

     Starting wfc are   75 randomized atomic wfcs

     Self-consistent Calculation

[...]

     Threshold (ethr) on eigenvalues was too large:
     Diagonalizing with lowered threshold

     Davidson diagonalization with overlap
     ethr =  8.30E-04,  avg # of iterations =  3.6

[...]

     total energy              =   -1450.06768424 Ry
     Harris-Foulkes estimate   =   -1450.06768433 Ry
     estimated scf accuracy    <       0.00000367 Ry

     iteration # 13     ecut=    36.75 Ry     beta=0.10
     Davidson diagonalization with overlap
     ethr =  4.22E-09,  avg # of iterations =  2.0

[...]

     negative rho (up, down):  6.416E-04 0.000E+00

     Adding external electric field

     Computed dipole along edir(3) :
        Dipole                0.0006 Ry au,          0.0015 Debye
        Dipole field          0.0000 Ry au

        Potential amp.       -0.0001 Ry
        Total length         45.4033 bohr

     End of self-consistent calculation

[...]

          k = 0.0586 0.0000 0.0000 ( 17543 PWs)   bands (ev):

[...]

          k =-0.0879-0.1523 0.0000 ( 17472 PWs)   bands (ev):

  -127.2050-127.0281-127.0140 -81.3810 -81.3767 -81.3767 -81.2061 -81.2006
   -81.2006 -81.1923 -81.1868 -81.1867  -9.3360  -9.3099  -8.4280  -8.2621
    -8.2015  -8.1695  -8.1636  -8.0645  -8.0103  -7.9900  -7.9670  -7.9641
    -7.9523  -7.9520  -7.9136  -7.8948  -7.8558  -7.4955  -7.1817  -6.1241
    -5.9486  -4.7897  -4.7589  -4.4187  -4.3879  -2.0785  -1.8808  -1.7120
    -1.5358  -0.2996  -0.1667  -0.0445  -0.0406   1.0537   1.1138   1.2422
     1.7223   1.7405   1.7441   1.7994   1.8442   2.7933   2.9895   3.7953
     3.8736   3.8997   4.0408   4.0987   4.2148   4.5326   4.5729   4.6054
     4.6883   4.7019   4.9326   5.3469   5.3585   5.6721   5.7126   6.5618
     6.6139

     the Fermi energy is    -0.4187 ev

!    total energy              =   -1450.06768685 Ry
     Harris-Foulkes estimate   =   -1450.06768462 Ry
     estimated scf accuracy    <       0.00000073 Ry

     The total energy is the sum of the following terms:

     one-electron contribution =   -5382.30338979 Ry
     hartree contribution      =    2689.19788270 Ry
     xc contribution           =    -169.89041754 Ry
     ewald contribution        =    1412.95573103 Ry
     electric field correction =       0.00000000 Ry
     smearing contrib. (-TS)   =      -0.02749325 Ry

     convergence has been achieved in  13 iterations

 BEEF-vdW xc energy contributions
           1 :   -148.279793283882
           2 :    132.840606833512
           3 :   -107.602940880234
           4 :    80.6548561656584
           5 :   -58.4709655335192
           6 :    43.4463855185642
           7 :   -34.1249199012039
           8 :    27.4189843402662
           9 :   -21.0296092363115
          10 :    14.5331451501307
          11 :   -8.84749193434703
          12 :    4.94079872576651
          13 :   -2.92304903792029
          14 :    2.05302900094034
          15 :   -1.37902337794833
          16 :   0.361464535926785
          17 :   0.953348993810152
          18 :   -2.17914272792558
          19 :    2.94899073611427
          20 :   -3.13754058257626
          21 :    2.88839306710719
          22 :   -2.51072911612465
          23 :    2.31454657162507
          24 :   -2.44479577560429
          25 :    2.79197693186191
          26 :   -3.05575278922902
          27 :    2.95583868813881
          28 :   -2.45726161208188
          29 :    1.82428795087378
          30 :   -1.43155959369082
          31 :   -13.8150186708763
          32 :   -9.66442883516962

     Forces acting on atoms (Ry/au):

     negative rho (up, down):  6.416E-04 0.000E+00
     atom    1 type  1   force =    -0.00000002    0.00195799   -0.00038412
     atom    2 type  1   force =     0.00169575   -0.00097915   -0.00038412
     atom    3 type  1   force =    -0.00169573   -0.00097914   -0.00038410
     atom    4 type  2   force =    -0.00000006    0.00000006   -0.00316585
     atom    5 type  1   force =    -0.00000001    0.00037368    0.00103233
     atom    6 type  1   force =     0.00032369   -0.00018698    0.00103239
     atom    7 type  1   force =    -0.00032362   -0.00018691    0.00103219
     atom    8 type  2   force =     0.00000003    0.00000023   -0.00006607
     atom    9 type  1   force =     0.00000028    0.00109030    0.00006247
     atom   10 type  1   force =     0.00094450   -0.00054508    0.00006247
     atom   11 type  1   force =    -0.00094438   -0.00054537    0.00006246
     atom   12 type  2   force =    -0.00000043    0.00000035    0.00109996

     Total force =     0.005512     Total SCF correction =     0.001566
     SCF correction compared to forces is large: reduce conv_thr to get better values

     entering subroutine stress ...

     negative rho (up, down):  6.416E-04 0.000E+00
          total   stress  (Ry/bohr**3)                   (kbar)     P=  -11.16
  -0.00010830   0.00000000  -0.00000000        -15.93      0.00     -0.00
   0.00000000  -0.00010830  -0.00000000          0.00    -15.93     -0.00
  -0.00000000  -0.00000000  -0.00001097         -0.00     -0.00     -1.61

 !ASE

     Writing output data file calc.save

     General routines

     Parallel routines

   This run was terminated on:  19:19:27  19Dec2018

   JOB DONE.
Job  /afs/slac/g/suncat/bin/suncat-tsmpirun -x LD_LIBRARY_PATH -wdir /scratch/qe773325_pg6bm pw.x -in pw.inp

TID   HOST_NAME   COMMAND_LINE            STATUS            TERMINATION_TIME
00000 suncat0054 pw.x -in pw.inp   Done                     12/19/2018 19:19:27
00001 suncat0054 pw.x -in pw.inp   Done                     12/19/2018 19:19:27
00002 suncat0054 pw.x -in pw.inp   Done                     12/19/2018 19:19:27
00003 suncat0054 pw.x -in pw.inp   Done                     12/19/2018 19:19:27
00004 suncat0054 pw.x -in pw.inp   Done                     12/19/2018 19:19:27
00005 suncat0054 pw.x -in pw.inp   Done                     12/19/2018 19:19:27
00006 suncat0054 pw.x -in pw.inp   Done                     12/19/2018 19:19:27
00007 suncat0054 pw.x -in pw.inp   Done                     12/19/2018 19:19:27
00008 suncat0053 pw.x -in pw.inp   Done                     12/19/2018 19:19:27
00009 suncat0053 pw.x -in pw.inp   Done                     12/19/2018 19:19:27
00010 suncat0053 pw.x -in pw.inp   Done                     12/19/2018 19:19:27
00011 suncat0053 pw.x -in pw.inp   Done                     12/19/2018 19:19:27
00012 suncat0053 pw.x -in pw.inp   Done                     12/19/2018 19:19:27
00013 suncat0053 pw.x -in pw.inp   Done                     12/19/2018 19:19:27
00014 suncat0053 pw.x -in pw.inp   Done                     12/19/2018 19:19:27
00015 suncat0053 pw.x -in pw.inp   Done                     12/19/2018 19:19:27
00016 suncat0052 pw.x -in pw.inp   Done                     12/19/2018 19:19:27
00017 suncat0052 pw.x -in pw.inp   Done                     12/19/2018 19:19:27
00018 suncat0052 pw.x -in pw.inp   Done                     12/19/2018 19:19:27
00019 suncat0052 pw.x -in pw.inp   Done                     12/19/2018 19:19:27
00020 suncat0052 pw.x -in pw.inp   Done                     12/19/2018 19:19:27
00021 suncat0052 pw.x -in pw.inp   Done                     12/19/2018 19:19:27
00022 suncat0052 pw.x -in pw.inp   Done                     12/19/2018 19:19:27
00023 suncat0052 pw.x -in pw.inp   Done                     12/19/2018 19:19:27
00024 suncat0051 pw.x -in pw.inp   Done                     12/19/2018 19:19:27
00025 suncat0051 pw.x -in pw.inp   Done                     12/19/2018 19:19:27
00026 suncat0051 pw.x -in pw.inp   Done                     12/19/2018 19:19:27
00027 suncat0051 pw.x -in pw.inp   Done                     12/19/2018 19:19:27
00028 suncat0051 pw.x -in pw.inp   Done                     12/19/2018 19:19:27
00029 suncat0051 pw.x -in pw.inp   Done                     12/19/2018 19:19:27
00030 suncat0051 pw.x -in pw.inp   Done                     12/19/2018 19:19:27
00031 suncat0051 pw.x -in pw.inp   Done                     12/19/2018 19:19:27
00032 suncat0050 pw.x -in pw.inp   Done                     12/19/2018 19:19:27
00033 suncat0050 pw.x -in pw.inp   Done                     12/19/2018 19:19:27
00034 suncat0050 pw.x -in pw.inp   Done                     12/19/2018 19:19:27
00035 suncat0050 pw.x -in pw.inp   Done                     12/19/2018 19:19:27
00036 suncat0050 pw.x -in pw.inp   Done                     12/19/2018 19:19:27
00037 suncat0050 pw.x -in pw.inp   Done                     12/19/2018 19:19:27
00038 suncat0050 pw.x -in pw.inp   Done                     12/19/2018 19:19:27
00039 suncat0050 pw.x -in pw.inp   Done                     12/19/2018 19:19:27
00040 suncat0049 pw.x -in pw.inp   Done                     12/19/2018 19:19:27
00041 suncat0049 pw.x -in pw.inp   Done                     12/19/2018 19:19:27
00042 suncat0049 pw.x -in pw.inp   Done                     12/19/2018 19:19:27
00043 suncat0049 pw.x -in pw.inp   Done                     12/19/2018 19:19:27
00044 suncat0049 pw.x -in pw.inp   Done                     12/19/2018 19:19:27
00045 suncat0049 pw.x -in pw.inp   Done                     12/19/2018 19:19:27
00046 suncat0049 pw.x -in pw.inp   Done                     12/19/2018 19:19:27
00047 suncat0049 pw.x -in pw.inp   Done                     12/19/2018 19:19:27
00048 suncat0048 pw.x -in pw.inp   Done                     12/19/2018 19:19:27
00049 suncat0048 pw.x -in pw.inp   Done                     12/19/2018 19:19:27
00050 suncat0048 pw.x -in pw.inp   Done                     12/19/2018 19:19:27
00051 suncat0048 pw.x -in pw.inp   Done                     12/19/2018 19:19:27
00052 suncat0048 pw.x -in pw.inp   Done                     12/19/2018 19:19:27
00053 suncat0048 pw.x -in pw.inp   Done                     12/19/2018 19:19:27
00054 suncat0048 pw.x -in pw.inp   Done                     12/19/2018 19:19:27
00055 suncat0048 pw.x -in pw.inp   Done                     12/19/2018 19:19:27
00056 suncat0047 pw.x -in pw.inp   Done                     12/19/2018 19:19:27
00057 suncat0047 pw.x -in pw.inp   Done                     12/19/2018 19:19:27
00058 suncat0047 pw.x -in pw.inp   Done                     12/19/2018 19:19:27
00059 suncat0047 pw.x -in pw.inp   Done                     12/19/2018 19:19:27
00060 suncat0047 pw.x -in pw.inp   Done                     12/19/2018 19:19:27
00061 suncat0047 pw.x -in pw.inp   Done                     12/19/2018 19:19:27
00062 suncat0047 pw.x -in pw.inp   Done                     12/19/2018 19:19:27
00063 suncat0047 pw.x -in pw.inp   Done                     12/19/2018 19:19:27