     Program PWSCF v.5.1rc2 (svn rev. 11289) starts on 26Dec2018 at  5:23:48

     Current dimensions of program PWSCF are:
     Max number of different atomic species (ntypx) = 10
     Max number of k-points (npk) =  40000
     Max angular momentum in pseudopotentials (lmaxx) =  3
     Presently stress not available with electric field

     IMPORTANT: XC functional enforced from input :
     Exchange-correlation      = BEEF-VDW ( 1  4 27 13 2)
     Any further DFT definition will be discarded
     Please, verify this is what you really want

     Subspace diagonalization in iterative solution of the eigenvalue problem:
     a serial algorithm will be used

     bravais-lattice index     =            0
     lattice parameter (alat)  =       1.8897  a.u.
     unit-cell volume          =    5117.3053 (a.u.)^3
     number of atoms/cell      =           12
     number of atomic types    =            2
     number of electrons       =       231.00
     number of Kohn-Sham states=          145
     kinetic-energy cutoff     =      36.7493  Ry
     charge density cutoff     =     367.4932  Ry
     convergence threshold     =      1.0E-06
     mixing beta               =       0.1000
     number of iterations used =           10  plain     mixing
     Exchange-correlation      = BEEF-VDW ( 1  4 27 13 2)
     nstep                     =           50

     celldm(1)=   1.889726  celldm(2)=   0.000000  celldm(3)=   0.000000
     celldm(4)=   0.000000  celldm(5)=   0.000000  celldm(6)=   0.000000

     crystal axes: (cart. coord. in units of alat)
               a(1) = (   5.936356   0.000000   0.000000 )
               a(2) = (  -2.968178   5.141035   0.000000 )
               a(3) = (   0.000000   0.000000  24.847014 )

     reciprocal axes: (cart. coord. in units 2 pi/alat)
               b(1) = (  0.168454  0.097257  0.000000 )
               b(2) = (  0.000000  0.194513  0.000000 )
               b(3) = (  0.000000  0.000000  0.040246 )

     PseudoPot. # 1 for Ga read from file:
     /afs/slac.stanford.edu/u/if/mamunm/psp/gbrv1.5pbe/Ga.UPF
     MD5 check sum: ccd671392a58a050fbb373893b4fcd66
     Pseudo is Ultrasoft + core correction, Zval = 19.0
     Generated by new atomic code, or converted to UPF format
     Using radial grid of  871 points,  6 beta functions with:
                l(1) =   0
                l(2) =   0
                l(3) =   1
                l(4) =   1
                l(5) =   2
                l(6) =   2
     Q(r) pseudized with  8 coefficients,  rinner =    1.250   1.250   1.250
                                                       1.250   1.250

     PseudoPot. # 2 for Zn read from file:
     /afs/slac.stanford.edu/u/if/mamunm/psp/gbrv1.5pbe/Zn.UPF
     MD5 check sum: df62231357ef9e81f77b2b3087fa5675
     Pseudo is Ultrasoft, Zval = 20.0
     Generated by new atomic code, or converted to UPF format
     Using radial grid of  943 points,  6 beta functions with:
                l(1) =   0
                l(2) =   0
                l(3) =   1
                l(4) =   1
                l(5) =   2
                l(6) =   2
     Q(r) pseudized with  8 coefficients,  rinner =    1.100   1.100   1.100
                                                       1.100   1.100

     vdW kernel table read from file vdW_kernel_table
     MD5 check sum: 095c7af220d748ca6e76c0b4c6cfb241

     atomic species   valence    mass     pseudopotential
        Ga1           19.00    69.72300     Ga( 1.00)
        Zn1           20.00    65.38000     Zn( 1.00)

     No symmetry found

   Cartesian axes

     site n.     atom                  positions (alat units)
         1           Ga1 tau(   1) = (   0.0000000   0.0000000  10.0000000  )
         2           Ga1 tau(   2) = (  -1.4840890   2.5705176  10.0000000  )
         3           Ga1 tau(   3) = (   1.4840890   2.5705176  10.0000000  )
         4           Zn1 tau(   4) = (   2.9681780   0.0000000  10.0000000  )
         5           Ga1 tau(   5) = (   2.9681780   1.7136784  12.4235072  )
         6           Ga1 tau(   6) = (   1.4840890   4.2841960  12.4235072  )
         7           Ga1 tau(   7) = (  -1.4840890   4.2841960  12.4235072  )
         8           Zn1 tau(   8) = (   0.0000000   1.7136784  12.4235072  )
         9           Ga1 tau(   9) = (  -0.0000000   3.4273568  14.8470144  )
        10           Ga1 tau(  10) = (   1.4840890   0.8568392  14.8470144  )
        11           Ga1 tau(  11) = (   4.4522670   0.8568392  14.8470144  )
        12           Zn1 tau(  12) = (   2.9681780   3.4273568  14.8470144  )

     number of k points=    20  Fermi-Dirac smearing, width (Ry)=  0.0110
                       cart. coord. in units 2pi/alat
        k(    1) = (   0.0000000   0.0000000   0.0000000), wk =   0.0555556
        k(    2) = (   0.0000000   0.0324189   0.0000000), wk =   0.1111111
        k(    3) = (   0.0000000   0.0648378   0.0000000), wk =   0.1111111
        k(    4) = (   0.0000000  -0.0972567   0.0000000), wk =   0.0555556
        k(    5) = (   0.0280756   0.0162094   0.0000000), wk =   0.1111111
        k(    6) = (   0.0280756   0.0486283   0.0000000), wk =   0.1111111
        k(    7) = (   0.0280756   0.0810472   0.0000000), wk =   0.1111111
        k(    8) = (   0.0280756  -0.0810472   0.0000000), wk =   0.1111111
        k(    9) = (   0.0280756  -0.0486283   0.0000000), wk =   0.1111111
        k(   10) = (   0.0280756  -0.0162094   0.0000000), wk =   0.1111111
        k(   11) = (   0.0561512   0.0324189   0.0000000), wk =   0.1111111
        k(   12) = (   0.0561512   0.0648378   0.0000000), wk =   0.1111111
        k(   13) = (   0.0561512   0.0972567   0.0000000), wk =   0.1111111
        k(   14) = (   0.0561512  -0.0648378   0.0000000), wk =   0.1111111
        k(   15) = (   0.0561512  -0.0324189   0.0000000), wk =   0.1111111
        k(   16) = (   0.0561512   0.0000000   0.0000000), wk =   0.1111111
        k(   17) = (  -0.0842268  -0.0486283   0.0000000), wk =   0.0555556
        k(   18) = (  -0.0842268  -0.0162094   0.0000000), wk =   0.1111111
        k(   19) = (  -0.0842268   0.0162094   0.0000000), wk =   0.1111111
        k(   20) = (  -0.0842268  -0.1458850   0.0000000), wk =   0.0555556

     Largest allocated arrays     est. size (Mb)     dimensions
     Largest temporary arrays     est. size (Mb)     dimensions

     Initial potential from superposition of free atoms
     Check: negative starting charge=   -0.001205

     starting charge  221.99957, renormalised to  231.00000

     negative rho (up, down):  1.254E-03 0.000E+00

     *
     * You are using vdW-DF for exchange-correlation in this calculation.
     * Please cite the following three references that made this development
     * possible:
     *
     *   M. Dion, H. Rydberg, E. Schroder, D. C. Langreth, and
     *   B. I. Lundqvist, Phys. Rev. Lett. 92, 246401 (2004).
     *
     *   T. Thonhauser, V. R. Cooper, S. Li, A. Puzder, P. Hyldgaard, and
     *   D. C. Langreth, Phys. Rev. B 76, 125112 (2007).
     *
     *   G. Roman-Perez and J. M. Soler, Phys. Rev. Lett. 103, 096102 (2009).
     *
     *
     * If you are using vdW-DF2, please also cite:
     *
     *   K. Lee, E. D. Murray, L. Kong, B. I. Lundqvist, and
     *   D. C. Langreth, Phys. Rev. B 82, 081101(R) (2010).
     *
     *
     * If you are calculating the stress with vdW-DF, please also cite:
     *
     *   R. Sabatini, E. Kucukbenli, B. Kolb, T. Thonhauser, and
     *   S. de Gironcoli, J. Phys.: Condens. Matter 24, 424209 (2012).
     *

     Carrying out vdW-DF run using the following parameters:

     Nqs =      20    Nr_points =    1024   r_max =   100.000
     q_mesh =
               0.00001000     0.04494208     0.09755937     0.15916263
               0.23128650     0.31572767     0.41458969     0.53033537
               0.66584808     0.82450364     1.01025438     1.22772762
               1.48234092     1.78043706     2.12944203     2.53805004
               3.01644009     3.57652955     4.23227104     5.00000000

     Gradients computed in reciprocal space

     Adding external electric field

     Computed dipole along edir(3) :
        Dipole               -0.0000 Ry au,         -0.0000 Debye
        Dipole field         -0.0000 Ry au

        Potential amp.        0.0000 Ry
        Total length         45.7802 bohr

     Starting wfc are  147 randomized atomic wfcs

     Self-consistent Calculation

     iteration #  1     ecut=    36.75 Ry     beta=0.10
     Davidson diagonalization with overlap
     ethr =  1.00E-02,  avg # of iterations =  6.8

[...]

     total energy              =   -5091.71151890 Ry
     Harris-Foulkes estimate   =   -5157.35733723 Ry
     estimated scf accuracy    <     367.28136477 Ry

[...]

     End of self-consistent calculation

          k = 0.0000 0.0000 0.0000 ( 19267 PWs)   bands (ev):

  -126.3580-126.1617-126.1614 -94.6250 -94.6234 -94.6234 -94.6187 -94.6187
   -94.6179 -94.6129 -94.6125 -94.6125 -94.5472 -94.5472 -94.5470 -94.5470
   -94.5470 -94.5470 -94.5329 -94.5328 -94.5312 -94.5312 -94.5312 -94.5312
   -94.5294 -94.5294 -94.5294 -94.5294 -94.5288 -94.5288 -80.5390 -80.5390
   -80.5358 -80.3496 -80.3494 -80.3398 -80.3398 -80.3395 -80.3395 -15.1182
   -15.0896 -15.0896 -15.0788 -15.0338 -15.0174 -15.0174 -15.0143 -15.0102
   -14.9958 -14.9958 -14.9742 -14.9742 -14.9644 -14.9530 -14.9530 -14.9389
   -14.9190 -14.9190 -14.9124 -14.8946 -14.8945 -14.8940 -14.8882 -14.8882
   -14.8819 -14.8342 -14.8342 -14.8305 -14.8299 -14.8299 -14.8144 -14.8144
   -14.8115 -14.8115 -14.8084 -14.7935 -14.7935 -14.7771 -14.7771 -14.7768
   -14.7467 -14.7467 -14.7078 -14.7064  -9.9991  -8.4578  -7.4683  -7.3843
    -7.3843  -7.2954  -7.2954  -7.1312  -7.1312  -7.1215  -7.1007  -7.1007
    -7.0595  -7.0595  -7.0485  -7.0485  -7.0203  -5.7819  -4.4556  -4.4556
    -4.1264  -4.1264  -3.5874  -3.3331  -2.6964  -2.6964  -2.3821  -2.2641
    -2.2641  -1.9709  -1.5683  -0.4052  -0.4052  -0.1133  -0.1133   0.2951
     0.5111   1.3962   3.2482   3.5488   3.5488   3.5925   3.5925   3.8847
     4.1787   4.3221   4.6596   4.9311   5.8995   6.3551   6.3551   6.4068
     6.5903   6.7098   6.7098   7.0763   7.4419   7.7109   7.7110   7.7588
     8.0910

[...]

          k =-0.0842-0.0486 0.0000 ( 19284 PWs)   bands (ev):

[...]

     the Fermi energy is     0.2110 ev

!    total energy              =   -5137.55542032 Ry
     Harris-Foulkes estimate   =   -5137.55541647 Ry
     estimated scf accuracy    <       0.00000075 Ry

     The total energy is the sum of the following terms:

     one-electron contribution =  -29183.21569281 Ry
     hartree contribution      =   14589.36384905 Ry
     xc contribution           =    -577.60789422 Ry
     ewald contribution        =   10033.93746365 Ry
     electric field correction =       0.00000000 Ry
     smearing contrib. (-TS)   =      -0.03314601 Ry

     convergence has been achieved in  16 iterations

 BEEF-vdW xc energy contributions
           1 :   -515.022350374971
           2 :    467.435664431583
           3 :   -387.583962426492
           4 :    298.633332668432
           5 :   -221.158071104840
           6 :    165.370176951167
           7 :   -129.627327343261
[...]
                l(1) =   0
                l(2) =   0
                l(3) =   1
                l(4) =   1
                l(5) =   2
                l(6) =   2
     Q(r) pseudized with  8 coefficients,  rinner =    1.250   1.250   1.250
                                                       1.250   1.250

     PseudoPot. # 2 for Zn read from file:
     /afs/slac.stanford.edu/u/if/mamunm/psp/gbrv1.5pbe/Zn.UPF
     MD5 check sum: df62231357ef9e81f77b2b3087fa5675
     Pseudo is Ultrasoft, Zval = 20.0
     Generated by new atomic code, or converted to UPF format
     Using radial grid of  943 points,  6 beta functions with:
                l(1) =   0
                l(2) =   0
                l(3) =   1
                l(4) =   1
                l(5) =   2
                l(6) =   2
     Q(r) pseudized with  8 coefficients,  rinner =    1.100   1.100   1.100
                                                       1.100   1.100

     vdW kernel table read from file vdW_kernel_table
     MD5 check sum: 095c7af220d748ca6e76c0b4c6cfb241

     atomic species   valence    mass     pseudopotential
        Ga1           19.00    69.72300     Ga( 1.00)
        Zn1           20.00    65.38000     Zn( 1.00)

     No symmetry found

   Cartesian axes

     site n.     atom                  positions (alat units)
         1           Ga1 tau(   1) = (   0.0000000   0.0000000  10.0000000  )
         2           Ga1 tau(   2) = (  -1.4840890   2.5705176  10.0000000  )
         3           Ga1 tau(   3) = (   1.4840890   2.5705176  10.0000000  )
         4           Zn1 tau(   4) = (   2.9681780   0.0000000  10.0000000  )
         5           Ga1 tau(   5) = (   2.9681780   1.7136784  12.4235072  )
         6           Ga1 tau(   6) = (   1.4840890   4.2841960  12.4235072  )
         7           Ga1 tau(   7) = (  -1.4840890   4.2841960  12.4235072  )
         8           Zn1 tau(   8) = (   0.0000000   1.7136784  12.4235072  )
         9           Ga1 tau(   9) = (  -0.0000488   3.4229580  14.9084603  )
        10           Ga1 tau(  10) = (   1.4803976   0.8590376  14.9084429  )
        11           Ga1 tau(  11) = (   4.4561438   0.8590979  14.9085263  )
        12           Zn1 tau(  12) = (   2.9681616   3.4273638  14.8799231  )

     number of k points=    20  Fermi-Dirac smearing, width (Ry)=  0.0110
                       cart. coord. in units 2pi/alat
        k(    1) = (   0.0000000   0.0000000   0.0000000), wk =   0.0555556
        k(    2) = (   0.0000000   0.0324189   0.0000000), wk =   0.1111111
        k(    3) = (   0.0000000   0.0648378   0.0000000), wk =   0.1111111
        k(    4) = (   0.0000000  -0.0972567   0.0000000), wk =   0.0555556
        k(    5) = (   0.0280756   0.0162094   0.0000000), wk =   0.1111111
        k(    6) = (   0.0280756   0.0486283   0.0000000), wk =   0.1111111
        k(    7) = (   0.0280756   0.0810472   0.0000000), wk =   0.1111111
        k(    8) = (   0.0280756  -0.0810472   0.0000000), wk =   0.1111111
        k(    9) = (   0.0280756  -0.0486283   0.0000000), wk =   0.1111111
        k(   10) = (   0.0280756  -0.0162094   0.0000000), wk =   0.1111111
        k(   11) = (   0.0561512   0.0324189   0.0000000), wk =   0.1111111
        k(   12) = (   0.0561512   0.0648378   0.0000000), wk =   0.1111111
        k(   13) = (   0.0561512   0.0972567   0.0000000), wk =   0.1111111
        k(   14) = (   0.0561512  -0.0648378   0.0000000), wk =   0.1111111
        k(   15) = (   0.0561512  -0.0324189   0.0000000), wk =   0.1111111
        k(   16) = (   0.0561512   0.0000000   0.0000000), wk =   0.1111111
        k(   17) = (  -0.0842268  -0.0486283   0.0000000), wk =   0.0555556
        k(   18) = (  -0.0842268  -0.0162094   0.0000000), wk =   0.1111111
        k(   19) = (  -0.0842268   0.0162094   0.0000000), wk =   0.1111111
        k(   20) = (  -0.0842268  -0.1458850   0.0000000), wk =   0.0555556

     Largest allocated arrays     est. size (Mb)     dimensions
     Largest temporary arrays     est. size (Mb)     dimensions

     Initial potential from superposition of free atoms
     Check: negative starting charge=   -0.001142

     starting charge  221.99957, renormalised to  231.00000

[...]

     *
     * You are using vdW-DF for exchange-correlation in this calculation.
     * Please cite the following three references that made this development
     * possible:
     *
     *   M. Dion, H. Rydberg, E. Schroder, D. C. Langreth, and
     *   B. I. Lundqvist, Phys. Rev. Lett. 92, 246401 (2004).
     *
     *   T. Thonhauser, V. R. Cooper, S. Li, A. Puzder, P. Hyldgaard, and
     *   D. C. Langreth, Phys. Rev. B 76, 125112 (2007).
     *
     *   G. Roman-Perez and J. M. Soler, Phys. Rev. Lett. 103, 096102 (2009).
     *
     *
     * If you are using vdW-DF2, please also cite:
     *
     *   K. Lee, E. D. Murray, L. Kong, B. I. Lundqvist, and
     *   D. C. Langreth, Phys. Rev. B 82, 081101(R) (2010).
     *
     *
     * If you are calculating the stress with vdW-DF, please also cite:
     *
     *   R. Sabatini, E. Kucukbenli, B. Kolb, T. Thonhauser, and
     *   S. de Gironcoli, J. Phys.: Condens. Matter 24, 424209 (2012).
     *

     Carrying out vdW-DF run using the following parameters:

     Nqs =      20    Nr_points =    1024   r_max =   100.000
     q_mesh =
               0.00001000     0.04494208     0.09755937     0.15916263
               0.23128650     0.31572767     0.41458969     0.53033537
               0.66584808     0.82450364     1.01025438     1.22772762
               1.48234092     1.78043706     2.12944203     2.53805004
               3.01644009     3.57652955     4.23227104     5.00000000

     Gradients computed in reciprocal space

[...]

     Starting wfc are  147 randomized atomic wfcs

     Self-consistent Calculation

[...]

     total energy              =   -5137.58386675 Ry
     Harris-Foulkes estimate   =   -5137.58386541 Ry
     estimated scf accuracy    <       0.00000123 Ry

     iteration # 16     ecut=    36.75 Ry     beta=0.10
     Davidson diagonalization with overlap
     ethr =  5.34E-10,  avg # of iterations =  2.0

[...]

     negative rho (up, down):  1.014E-03 0.000E+00

     Adding external electric field

     Computed dipole along edir(3) :
        Dipole                0.0073 Ry au,          0.0186 Debye
        Dipole field          0.0000 Ry au

        Potential amp.       -0.0016 Ry
        Total length         45.7802 bohr

     End of self-consistent calculation

[...]

          k = 0.0562 0.0000 0.0000 ( 19249 PWs)   bands (ev):

[...]

          k =-0.0842-0.1459 0.0000 ( 19284 PWs)   bands (ev):

  -126.3251-126.1481-126.1256 -94.5960 -94.5955 -94.5949 -94.5910 -94.5908
   -94.5906 -94.5859 -94.5858 -94.5856 -94.5333 -94.5332 -94.5332 -94.5325
   -94.5324 -94.5323 -94.5178 -94.5172 -94.5167 -94.5153 -94.5152 -94.5149
   -94.5148 -94.5142 -94.5136 -94.5119 -94.5117 -94.5115 -80.5057 -80.5056
   -80.5023 -80.3359 -80.3262 -80.3261 -80.3131 -80.3038 -80.3037 -15.0568
   -15.0153 -14.9947 -14.9928 -14.9824 -14.9739 -14.9691 -14.9681 -14.9589
   -14.9573 -14.9481 -14.9390 -14.9366 -14.9319 -14.9026 -14.8966 -14.8872
   -14.8828 -14.8799 -14.8617 -14.8603 -14.8586 -14.8535 -14.8520 -14.8505
   -14.8499 -14.8457 -14.8445 -14.8425 -14.8399 -14.8376 -14.8354 -14.8320
   -14.8301 -14.8272 -14.8181 -14.8137 -14.8015 -14.7982 -14.7943 -14.7903
   -14.7814 -14.7748 -14.7328 -14.7242  -8.6092  -8.4363  -7.5088  -7.3359
    -7.2809  -7.2468  -7.2460  -7.2172  -7.1191  -7.0940  -7.0735  -7.0637
    -7.0516  -7.0493  -7.0254  -7.0185  -7.0008  -6.9013  -6.4728  -5.6617
    -5.2143  -4.6857  -4.1756  -4.0782  -3.2841  -2.2167  -1.3565  -0.5150
    -0.4307   0.3159   0.3974   0.6640   0.7927   1.4862   1.9931   2.0334
     2.0608   2.5379   2.6224   2.8064   2.9988   3.4372   3.4826   4.0204
     4.3276   4.3671   4.4891   4.5794   4.7111   5.0545   5.0847   5.2726
     5.3596   5.3921   5.4819   5.9538   5.9796   6.3154   6.3225   6.8830
     7.0974

     the Fermi energy is     0.2303 ev

!    total energy              =   -5137.58387212 Ry
     Harris-Foulkes estimate   =   -5137.58386690 Ry
     estimated scf accuracy    <       0.00000030 Ry

     The total energy is the sum of the following terms:

     one-electron contribution =  -28987.57135422 Ry
     hartree contribution      =   14491.68518949 Ry
     xc contribution           =    -577.60224462 Ry
     ewald contribution        =    9935.93737592 Ry
     electric field correction =       0.00000013 Ry
     smearing contrib. (-TS)   =      -0.03283882 Ry

     convergence has been achieved in  16 iterations

 BEEF-vdW xc energy contributions
           1 :   -515.809251792623
           2 :    468.199729079456
           3 :   -388.319388773081
           4 :    299.355867537027
           5 :   -221.893881236295
           6 :    166.138286806197
           7 :   -130.428015134001
           8 :    105.847967137503
           9 :   -83.4210035065332
          10 :    59.3827759166880
          11 :   -35.8755607943443
          12 :    17.6083037953379
          13 :   -7.46989071306575
          14 :    4.24633293227453
          15 :   -3.67530017638637
          16 :    1.59035424628769
          17 :    3.37095139978101
          18 :   -9.38253235654850
          19 :    13.3621414968279
          20 :   -13.5581220392405
          21 :    10.8383241231323
          22 :   -7.87883130124521
          23 :    7.06061195361656
          24 :   -8.75796870587033
          25 :    11.2619621463675
          26 :   -12.2663574528560
          27 :    10.6848842792665
          28 :   -7.41941474417990
          29 :    4.58217235782377
          30 :   -3.86527005117273
          31 :   -38.3596605473841
          32 :   -26.0738426294297

     Forces acting on atoms (Ry/au):

     negative rho (up, down):  1.014E-03 0.000E+00
     atom    1 type  1   force =     0.00000370    0.00065436   -0.00397668
     atom    2 type  1   force =     0.00057034   -0.00032659   -0.00397396
     atom    3 type  1   force =    -0.00057140   -0.00033032   -0.00397324
     atom    4 type  2   force =    -0.00000057    0.00000049   -0.00171771
     atom    5 type  1   force =    -0.00000292   -0.00068704    0.00375591
     atom    6 type  1   force =    -0.00059428    0.00034293    0.00375835
     atom    7 type  1   force =     0.00059429    0.00034268    0.00375517
     atom    8 type  2   force =    -0.00000074   -0.00000038    0.00312548
     atom    9 type  1   force =     0.00000029    0.00034847   -0.00027930
     atom   10 type  1   force =     0.00030454   -0.00017081   -0.00028077
     atom   11 type  1   force =    -0.00030007   -0.00017603   -0.00027651
     atom   12 type  2   force =    -0.00000319    0.00000223    0.00008325

     Total force =     0.010284     Total SCF correction =     0.002477
     SCF correction compared to forces is large: reduce conv_thr to get better values

     entering subroutine stress ...

     negative rho (up, down):  1.014E-03 0.000E+00
          total   stress  (Ry/bohr**3)                   (kbar)     P=   -6.36
  -0.00006511   0.00000000  -0.00000000         -9.58      0.00     -0.00
   0.00000000  -0.00006510   0.00000000          0.00     -9.58      0.00
  -0.00000000   0.00000000   0.00000043         -0.00      0.00      0.06

 !ASE

     Writing output data file calc.save

     General routines

     Parallel routines

   This run was terminated on:   7:54:59  26Dec2018

   JOB DONE.
Job  /afs/slac/g/suncat/bin/suncat-tsmpirun -x LD_LIBRARY_PATH -wdir /scratch/qe109719_vrkSH pw.x -in pw.inp

TID   HOST_NAME   COMMAND_LINE            STATUS            TERMINATION_TIME
00000 suncat0178 pw.x -in pw.inp   Done                     12/26/2018 07:54:59
00001 suncat0178 pw.x -in pw.inp   Done                     12/26/2018 07:54:59
00002 suncat0178 pw.x -in pw.inp   Done                     12/26/2018 07:54:59
00003 suncat0178 pw.x -in pw.inp   Done                     12/26/2018 07:54:59
00004 suncat0178 pw.x -in pw.inp   Done                     12/26/2018 07:54:59
00005 suncat0178 pw.x -in pw.inp   Done                     12/26/2018 07:54:59
00006 suncat0178 pw.x -in pw.inp   Done                     12/26/2018 07:54:59
00007 suncat0178 pw.x -in pw.inp   Done                     12/26/2018 07:54:59
00008 suncat0177 pw.x -in pw.inp   Done                     12/26/2018 07:54:59
00009 suncat0177 pw.x -in pw.inp   Done                     12/26/2018 07:54:59
00010 suncat0177 pw.x -in pw.inp   Done                     12/26/2018 07:54:59
00011 suncat0177 pw.x -in pw.inp   Done                     12/26/2018 07:54:59
00012 suncat0177 pw.x -in pw.inp   Done                     12/26/2018 07:54:59
00013 suncat0177 pw.x -in pw.inp   Done                     12/26/2018 07:54:59
00014 suncat0177 pw.x -in pw.inp   Done                     12/26/2018 07:54:59
00015 suncat0177 pw.x -in pw.inp   Done                     12/26/2018 07:54:59
00016 suncat0129 pw.x -in pw.inp   Done                     12/26/2018 07:54:59
00017 suncat0129 pw.x -in pw.inp   Done                     12/26/2018 07:54:59
00018 suncat0129 pw.x -in pw.inp   Done                     12/26/2018 07:54:59
00019 suncat0129 pw.x -in pw.inp   Done                     12/26/2018 07:54:59
00020 suncat0129 pw.x -in pw.inp   Done                     12/26/2018 07:54:59
00021 suncat0129 pw.x -in pw.inp   Done                     12/26/2018 07:54:59
00022 suncat0129 pw.x -in pw.inp   Done                     12/26/2018 07:54:59
00023 suncat0129 pw.x -in pw.inp   Done                     12/26/2018 07:54:59
00024 suncat0254 pw.x -in pw.inp   Done                     12/26/2018 07:54:59
00025 suncat0254 pw.x -in pw.inp   Done                     12/26/2018 07:54:59
00026 suncat0254 pw.x -in pw.inp   Done                     12/26/2018 07:54:59
00027 suncat0254 pw.x -in pw.inp   Done                     12/26/2018 07:54:59
00028 suncat0254 pw.x -in pw.inp   Done                     12/26/2018 07:54:59
00029 suncat0254 pw.x -in pw.inp   Done                     12/26/2018 07:54:59
00030 suncat0254 pw.x -in pw.inp   Done                     12/26/2018 07:54:59
00031 suncat0254 pw.x -in pw.inp   Done                     12/26/2018 07:54:59
00032 suncat0253 pw.x -in pw.inp   Done                     12/26/2018 07:54:59
00033 suncat0253 pw.x -in pw.inp   Done                     12/26/2018 07:54:59
00034 suncat0253 pw.x -in pw.inp   Done                     12/26/2018 07:54:59
00035 suncat0253 pw.x -in pw.inp   Done                     12/26/2018 07:54:59
00036 suncat0253 pw.x -in pw.inp   Done                     12/26/2018 07:54:59
00037 suncat0253 pw.x -in pw.inp   Done                     12/26/2018 07:54:59
00038 suncat0253 pw.x -in pw.inp   Done                     12/26/2018 07:54:59
00039 suncat0253 pw.x -in pw.inp   Done                     12/26/2018 07:54:59
00040 suncat0244 pw.x -in pw.inp   Done                     12/26/2018 07:54:59
00041 suncat0244 pw.x -in pw.inp   Done                     12/26/2018 07:54:59
00042 suncat0244 pw.x -in pw.inp   Done                     12/26/2018 07:54:59
00043 suncat0244 pw.x -in pw.inp   Done                     12/26/2018 07:54:59
00044 suncat0244 pw.x -in pw.inp   Done                     12/26/2018 07:54:59
00045 suncat0244 pw.x -in pw.inp   Done                     12/26/2018 07:54:59
00046 suncat0244 pw.x -in pw.inp   Done                     12/26/2018 07:54:59
00047 suncat0244 pw.x -in pw.inp   Done                     12/26/2018 07:54:59
00048 suncat0243 pw.x -in pw.inp   Done                     12/26/2018 07:54:59
00049 suncat0243 pw.x -in pw.inp   Done                     12/26/2018 07:54:59
00050 suncat0243 pw.x -in pw.inp   Done                     12/26/2018 07:54:59
00051 suncat0243 pw.x -in pw.inp   Done                     12/26/2018 07:54:59
00052 suncat0243 pw.x -in pw.inp   Done                     12/26/2018 07:54:59
00053 suncat0243 pw.x -in pw.inp   Done                     12/26/2018 07:54:59
00054 suncat0243 pw.x -in pw.inp   Done                     12/26/2018 07:54:59
00055 suncat0243 pw.x -in pw.inp   Done                     12/26/2018 07:54:59
00056 suncat0242 pw.x -in pw.inp   Done                     12/26/2018 07:54:59
00057 suncat0242 pw.x -in pw.inp   Done                     12/26/2018 07:54:59
00058 suncat0242 pw.x -in pw.inp   Done                     12/26/2018 07:54:59
00059 suncat0242 pw.x -in pw.inp   Done                     12/26/2018 07:54:59
00060 suncat0242 pw.x -in pw.inp   Done                     12/26/2018 07:54:59
00061 suncat0242 pw.x -in pw.inp   Done                     12/26/2018 07:54:59
00062 suncat0242 pw.x -in pw.inp   Done                     12/26/2018 07:54:59
00063 suncat0242 pw.x -in pw.inp   Done                     12/26/2018 07:54:59