     Program PWSCF v.5.1rc2 (svn rev. 11289) starts on 30Dec2018 at 19:36:33

     Current dimensions of program PWSCF are:
     Max number of different atomic species (ntypx) = 10
     Max number of k-points (npk) =  40000
     Max angular momentum in pseudopotentials (lmaxx) =  3
     Presently stress not available with electric field

     IMPORTANT: XC functional enforced from input :
     Exchange-correlation      = BEEF-VDW ( 1  4 27 13 2)
     Any further DFT definition will be discarded
     Please, verify this is what you really want

     Subspace diagonalization in iterative solution of the eigenvalue problem:
     a serial algorithm will be used

     bravais-lattice index     =            0
     lattice parameter (alat)  =       1.8897  a.u.
     unit-cell volume          =    4513.2811 (a.u.)^3
     number of atoms/cell      =           12
     number of atomic types    =            2
     number of electrons       =       171.00
     number of Kohn-Sham states=          115
     kinetic-energy cutoff     =      36.7493  Ry
     charge density cutoff     =     367.4932  Ry
     convergence threshold     =      1.0E-06
     mixing beta               =       0.1000
     number of iterations used =           10  plain     mixing
     Exchange-correlation      = BEEF-VDW ( 1  4 27 13 2)
     nstep                     =           50

     celldm(1)=   1.889726  celldm(2)=   0.000000  celldm(3)=   0.000000
     celldm(4)=   0.000000  celldm(5)=   0.000000  celldm(6)=   0.000000

     crystal axes: (cart. coord. in units of alat)
               a(1) = (   5.605558   0.000000   0.000000 )
               a(2) = (  -2.802779   4.854556   0.000000 )
               a(3) = (   0.000000   0.000000  24.576919 )

     reciprocal axes: (cart. coord. in units 2 pi/alat)
               b(1) = (  0.178394  0.102996  0.000000 )
               b(2) = (  0.000000  0.205992  0.000000 )
               b(3) = (  0.000000  0.000000  0.040689 )

     PseudoPot. # 1 for Mo read from file:
     /afs/slac.stanford.edu/u/if/mamunm/psp/gbrv1.5pbe/Mo.UPF
     MD5 check sum: 30c4dcd161f5d35cd49bb5239c51a633
     Pseudo is Ultrasoft + core correction, Zval = 14.0
     Generated by new atomic code, or converted to UPF format
     Using radial grid of  889 points,  6 beta functions with:
                l(1) =   0
                l(2) =   0
                l(3) =   1
                l(4) =   1
                l(5) =   2
                l(6) =   2
     Q(r) pseudized with  6 coefficients,  rinner =    1.000   1.000   1.000
                                                       1.000   1.000

     PseudoPot. # 2 for Ir read from file:
     /afs/slac.stanford.edu/u/if/mamunm/psp/gbrv1.5pbe/Ir.UPF
     MD5 check sum: 8836f839c3459d2b385c504ce6d91f2c
     Pseudo is Ultrasoft + core correction, Zval = 15.0
     Generated by new atomic code, or converted to UPF format
     Using radial grid of  983 points,  7 beta functions with:
                l(1) =   0
                l(2) =   0
                l(3) =   1
                l(4) =   1
                l(5) =   1
                l(6) =   2
                l(7) =   2
     Q(r) pseudized with  8 coefficients,  rinner =    1.400   1.400   1.400
                                                       1.400   1.400

     vdW kernel table read from file vdW_kernel_table
     MD5 check sum: 095c7af220d748ca6e76c0b4c6cfb241

     atomic species   valence    mass     pseudopotential
        Mo1           14.00    95.95000     Mo( 1.00)
        Ir1           15.00   192.21700     Ir( 1.00)

     No symmetry found

   Cartesian axes

     site n.     atom                  positions (alat units)
         1           Mo1 tau(   1) = (   0.0000000   0.0000000  10.0000000  )
         2           Mo1 tau(   2) = (  -1.4013895   2.4272779  10.0000000  )
         3           Mo1 tau(   3) = (   1.4013895   2.4272779  10.0000000  )
         4           Ir1 tau(   4) = (   2.8027790   0.0000000  10.0000000  )
         5           Mo1 tau(   5) = (   2.8027790   1.6181852  12.2884595  )
         6           Mo1 tau(   6) = (   1.4013895   4.0454631  12.2884595  )
         7           Mo1 tau(   7) = (  -1.4013895   4.0454631  12.2884595  )
         8           Ir1 tau(   8) = (   0.0000000   1.6181852  12.2884595  )
         9           Mo1 tau(   9) = (  -0.0000000   3.2363705  14.5769190  )
        10           Mo1 tau(  10) = (   1.4013895   0.8090926  14.5769190  )
        11           Mo1 tau(  11) = (   4.2041686   0.8090926  14.5769190  )
        12           Ir1 tau(  12) = (   2.8027790   3.2363705  14.5769190  )

     number of k points=    20  Fermi-Dirac smearing, width (Ry)=  0.0110
                       cart. coord. in units 2pi/alat
        k(    1) = (   0.0000000   0.0000000   0.0000000), wk =   0.0555556
        k(    2) = (   0.0000000   0.0343320   0.0000000), wk =   0.1111111
        k(    3) = (   0.0000000   0.0686640   0.0000000), wk =   0.1111111
        k(    4) = (   0.0000000  -0.1029960   0.0000000), wk =   0.0555556
        k(    5) = (   0.0297324   0.0171660   0.0000000), wk =   0.1111111
        k(    6) = (   0.0297324   0.0514980   0.0000000), wk =   0.1111111
        k(    7) = (   0.0297324   0.0858300   0.0000000), wk =   0.1111111
        k(    8) = (   0.0297324  -0.0858300   0.0000000), wk =   0.1111111
        k(    9) = (   0.0297324  -0.0514980   0.0000000), wk =   0.1111111
        k(   10) = (   0.0297324  -0.0171660   0.0000000), wk =   0.1111111
        k(   11) = (   0.0594648   0.0343320   0.0000000), wk =   0.1111111
        k(   12) = (   0.0594648   0.0686640   0.0000000), wk =   0.1111111
        k(   13) = (   0.0594648   0.1029960   0.0000000), wk =   0.1111111
        k(   14) = (   0.0594648  -0.0686640   0.0000000), wk =   0.1111111
        k(   15) = (   0.0594648  -0.0343320   0.0000000), wk =   0.1111111
        k(   16) = (   0.0594648   0.0000000   0.0000000), wk =   0.1111111
        k(   17) = (  -0.0891972  -0.0514980   0.0000000), wk =   0.0555556
        k(   18) = (  -0.0891972  -0.0171660   0.0000000), wk =   0.1111111
        k(   19) = (  -0.0891972   0.0171660   0.0000000), wk =   0.1111111
        k(   20) = (  -0.0891972  -0.1544941   0.0000000), wk =   0.0555556

     Largest allocated arrays     est. size (Mb)     dimensions
     Largest temporary arrays     est. size (Mb)     dimensions

     Initial potential from superposition of free atoms
     Check: negative starting charge=   -1.095412

     starting charge  169.49033, renormalised to  171.00000

     negative rho (up, down):  1.105E+00 0.000E+00

     *
     * You are using vdW-DF for exchange-correlation in this calculation.
     * Please cite the following three references that made this development
     * possible:
     *
     *   M. Dion, H. Rydberg, E. Schroder, D. C. Langreth, and
     *   B. I. Lundqvist, Phys. Rev. Lett. 92, 246401 (2004).
     *
     *   T. Thonhauser, V. R. Cooper, S. Li, A. Puzder, P. Hyldgaard, and
     *   D. C. Langreth, Phys. Rev. B 76, 125112 (2007).
     *
     *   G. Roman-Perez and J. M. Soler, Phys. Rev. Lett. 103, 096102 (2009).
     *
     *
     * If you are using vdW-DF2, please also cite:
     *
     *   K. Lee, E. D. Murray, L. Kong, B. I. Lundqvist, and
     *   D. C. Langreth, Phys. Rev. B 82, 081101(R) (2010).
     *
     *
     * If you are calculating the stress with vdW-DF, please also cite:
     *
     *   R. Sabatini, E. Kucukbenli, B. Kolb, T. Thonhauser, and
     *   S. de Gironcoli, J. Phys.: Condens. Matter 24, 424209 (2012).
     *

     Carrying out vdW-DF run using the following parameters:

     Nqs =      20    Nr_points =    1024   r_max =   100.000
     q_mesh =
               0.00001000     0.04494208     0.09755937     0.15916263
               0.23128650     0.31572767     0.41458969     0.53033537
               0.66584808     0.82450364     1.01025438     1.22772762
               1.48234092     1.78043706     2.12944203     2.53805004
               3.01644009     3.57652955     4.23227104     5.00000000

     Gradients computed in reciprocal space

     Adding external electric field

     Computed dipole along edir(3) :
        Dipole               -0.0000 Ry au,         -0.0000 Debye
        Dipole field         -0.0000 Ry au

        Potential amp.        0.0000 Ry
        Total length         45.2826 bohr

     Starting wfc are  153 randomized atomic wfcs

     Self-consistent Calculation

     iteration #  1     ecut=    36.75 Ry     beta=0.10
     Davidson diagonalization with overlap
     ethr =  1.00E-02,  avg # of iterations =  2.0

[...]

     total energy              =   -1808.46116355 Ry
     Harris-Foulkes estimate   =   -1811.00894554 Ry
     estimated scf accuracy    <      14.57724274 Ry

[...]

     End of self-consistent calculation

          k = 0.0000 0.0000 0.0000 ( 16907 PWs)   bands (ev):

   -58.8327 -58.7600 -58.7148 -58.6840 -58.6840 -58.6403 -58.6403 -58.6226
   -58.6226 -46.9486 -46.8945 -46.8945 -46.5543 -46.5543 -46.5537 -46.5537
   -46.5520 -46.5496 -33.3972 -33.2057 -33.1872 -33.1082 -33.1082 -33.0958
   -33.0438 -33.0438 -32.9084 -32.9084 -32.8717 -32.7538 -32.7538 -32.7189
   -32.7189 -32.5908 -32.4736 -32.4729 -32.4729 -32.4568 -32.3687 -32.3445
   -32.3445 -32.2530 -32.2530 -32.2460 -32.2460  -4.6127  -3.1889  -3.1096
    -2.8079  -2.8079  -2.5142  -2.3715  -2.3536  -2.3536  -2.1148  -2.1148
    -2.0781  -1.8823  -1.8823  -1.5625  -0.8106  -0.8106  -0.2885  -0.1755
    -0.1755   0.1433   0.2644   0.5882   1.0220   1.0220   1.2367   1.2367
     1.2941   1.2941   1.4026   1.4767   1.4767   1.9034   1.9801   1.9916
     1.9917   2.6202   2.6202   2.8131   2.9421   2.9421   3.2001   3.2001
     3.2351   3.5312   3.8267   4.2059   4.2059   4.5799   4.5799   4.5812
     4.5812   4.8842   4.9246   4.9246   5.1303   5.1303   5.4231   5.4414
     5.4414   5.6294   5.6294   5.8150   5.8150   6.2871   6.3970   6.4918
     6.6072   6.6239   6.8505

[...]

          k =-0.0892-0.0515 0.0000 ( 17004 PWs)   bands (ev):

[...]

     the Fermi energy is     2.3830 ev

!    total energy              =   -1809.56700448 Ry
     Harris-Foulkes estimate   =   -1809.56789222 Ry
     estimated scf accuracy    <       0.00000094 Ry

     The total energy is the sum of the following terms:

     one-electron contribution =  -15829.20183973 Ry
     hartree contribution      =    7917.46516734 Ry
     xc contribution           =    -335.78850669 Ry
     ewald contribution        =    6438.03888381 Ry
     electric field correction =       0.00000001 Ry
     smearing contrib. (-TS)   =      -0.08070921 Ry

     convergence has been achieved in  17 iterations

 BEEF-vdW xc energy contributions
           1 :   -292.527938234377
           2 :    269.561418139990
           3 :   -229.470268822296
           4 :    181.677294303247
           5 :   -135.967788593646
           6 :    99.5619402649494
           7 :   -75.5132860752678
           8 :    62.7395357442069
           9 :   -57.3998802286100
          10 :    54.8693323469837
          11 :   -51.5207096254336
          12 :    45.7172025436594
          13 :   -37.8416442149795
          14 :    29.5479108821473
[...]
     MD5 check sum: 30c4dcd161f5d35cd49bb5239c51a633
     Pseudo is Ultrasoft + core correction, Zval = 14.0
     Generated by new atomic code, or converted to UPF format
     Using radial grid of  889 points,  6 beta functions with:
                l(1) =   0
                l(2) =   0
                l(3) =   1
                l(4) =   1
                l(5) =   2
                l(6) =   2
     Q(r) pseudized with  6 coefficients,  rinner =    1.000   1.000   1.000
                                                       1.000   1.000

     PseudoPot. # 2 for Ir read from file:
     /afs/slac.stanford.edu/u/if/mamunm/psp/gbrv1.5pbe/Ir.UPF
     MD5 check sum: 8836f839c3459d2b385c504ce6d91f2c
     Pseudo is Ultrasoft + core correction, Zval = 15.0
     Generated by new atomic code, or converted to UPF format
     Using radial grid of  983 points,  7 beta functions with:
                l(1) =   0
                l(2) =   0
                l(3) =   1
                l(4) =   1
                l(5) =   1
                l(6) =   2
                l(7) =   2
     Q(r) pseudized with  8 coefficients,  rinner =    1.400   1.400   1.400
                                                       1.400   1.400

     vdW kernel table read from file vdW_kernel_table
     MD5 check sum: 095c7af220d748ca6e76c0b4c6cfb241

     atomic species   valence    mass     pseudopotential
        Mo1           14.00    95.95000     Mo( 1.00)
        Ir1           15.00   192.21700     Ir( 1.00)

     No symmetry found

   Cartesian axes

     site n.     atom                  positions (alat units)
         1           Mo1 tau(   1) = (   0.0000000   0.0000000  10.0000000  )
         2           Mo1 tau(   2) = (  -1.4013895   2.4272779  10.0000000  )
         3           Mo1 tau(   3) = (   1.4013895   2.4272779  10.0000000  )
         4           Ir1 tau(   4) = (   2.8027790   0.0000000  10.0000000  )
         5           Mo1 tau(   5) = (   2.8027790   1.6181852  12.2884595  )
         6           Mo1 tau(   6) = (   1.4013895   4.0454631  12.2884595  )
         7           Mo1 tau(   7) = (  -1.4013895   4.0454631  12.2884595  )
         8           Ir1 tau(   8) = (   0.0000000   1.6181852  12.2884595  )
         9           Mo1 tau(   9) = (   0.0000001   3.2236498  14.4622280  )
        10           Mo1 tau(  10) = (   1.3903714   0.8154540  14.4622284  )
        11           Mo1 tau(  11) = (   4.2151854   0.8154541  14.4622287  )
        12           Ir1 tau(  12) = (   2.8027791   3.2363699  14.5124612  )

     number of k points=    20  Fermi-Dirac smearing, width (Ry)=  0.0110
                       cart. coord. in units 2pi/alat
        k(    1) = (   0.0000000   0.0000000   0.0000000), wk =   0.0555556
        k(    2) = (   0.0000000   0.0343320   0.0000000), wk =   0.1111111
        k(    3) = (   0.0000000   0.0686640   0.0000000), wk =   0.1111111
        k(    4) = (   0.0000000  -0.1029960   0.0000000), wk =   0.0555556
        k(    5) = (   0.0297324   0.0171660   0.0000000), wk =   0.1111111
        k(    6) = (   0.0297324   0.0514980   0.0000000), wk =   0.1111111
        k(    7) = (   0.0297324   0.0858300   0.0000000), wk =   0.1111111
        k(    8) = (   0.0297324  -0.0858300   0.0000000), wk =   0.1111111
        k(    9) = (   0.0297324  -0.0514980   0.0000000), wk =   0.1111111
        k(   10) = (   0.0297324  -0.0171660   0.0000000), wk =   0.1111111
        k(   11) = (   0.0594648   0.0343320   0.0000000), wk =   0.1111111
        k(   12) = (   0.0594648   0.0686640   0.0000000), wk =   0.1111111
        k(   13) = (   0.0594648   0.1029960   0.0000000), wk =   0.1111111
        k(   14) = (   0.0594648  -0.0686640   0.0000000), wk =   0.1111111
        k(   15) = (   0.0594648  -0.0343320   0.0000000), wk =   0.1111111
        k(   16) = (   0.0594648   0.0000000   0.0000000), wk =   0.1111111
        k(   17) = (  -0.0891972  -0.0514980   0.0000000), wk =   0.0555556
        k(   18) = (  -0.0891972  -0.0171660   0.0000000), wk =   0.1111111
        k(   19) = (  -0.0891972   0.0171660   0.0000000), wk =   0.1111111
        k(   20) = (  -0.0891972  -0.1544941   0.0000000), wk =   0.0555556

     Largest allocated arrays     est. size (Mb)     dimensions
     Largest temporary arrays     est. size (Mb)     dimensions

     Initial potential from superposition of free atoms
     Check: negative starting charge=   -1.096738

     starting charge  169.49033, renormalised to  171.00000

[...]

     *
     * You are using vdW-DF for exchange-correlation in this calculation.
     * Please cite the following three references that made this development
     * possible:
     *
     *   M. Dion, H. Rydberg, E. Schroder, D. C. Langreth, and
     *   B. I. Lundqvist, Phys. Rev. Lett. 92, 246401 (2004).
     *
     *   T. Thonhauser, V. R. Cooper, S. Li, A. Puzder, P. Hyldgaard, and
     *   D. C. Langreth, Phys. Rev. B 76, 125112 (2007).
     *
     *   G. Roman-Perez and J. M. Soler, Phys. Rev. Lett. 103, 096102 (2009).
     *
     *
     * If you are using vdW-DF2, please also cite:
     *
     *   K. Lee, E. D. Murray, L. Kong, B. I. Lundqvist, and
     *   D. C. Langreth, Phys. Rev. B 82, 081101(R) (2010).
     *
     *
     * If you are calculating the stress with vdW-DF, please also cite:
     *
     *   R. Sabatini, E. Kucukbenli, B. Kolb, T. Thonhauser, and
     *   S. de Gironcoli, J. Phys.: Condens. Matter 24, 424209 (2012).
     *

     Carrying out vdW-DF run using the following parameters:

     Nqs =      20    Nr_points =    1024   r_max =   100.000
     q_mesh =
               0.00001000     0.04494208     0.09755937     0.15916263
               0.23128650     0.31572767     0.41458969     0.53033537
               0.66584808     0.82450364     1.01025438     1.22772762
               1.48234092     1.78043706     2.12944203     2.53805004
               3.01644009     3.57652955     4.23227104     5.00000000

     Gradients computed in reciprocal space

[...]

     Starting wfc are  153 randomized atomic wfcs

     Self-consistent Calculation

[...]

     total energy              =   -1809.58297758 Ry
     Harris-Foulkes estimate   =   -1809.58297373 Ry
     estimated scf accuracy    <       0.00000134 Ry

     iteration # 18     ecut=    36.75 Ry     beta=0.10
     Davidson diagonalization with overlap
     ethr =  7.82E-10,  avg # of iterations =  2.0

[...]

     negative rho (up, down):  9.697E-01 0.000E+00

     Adding external electric field

     Computed dipole along edir(3) :
        Dipole                0.0303 Ry au,          0.0771 Debye
        Dipole field          0.0001 Ry au

        Potential amp.       -0.0076 Ry
        Total length         45.2826 bohr

     End of self-consistent calculation

[...]

          k = 0.0595 0.0000 0.0000 ( 16978 PWs)   bands (ev):

[...]

          k =-0.0892-0.1545 0.0000 ( 17004 PWs)   bands (ev):

   -58.7697 -58.7448 -58.6987 -58.6781 -58.6766 -58.6324 -58.6063 -58.5735
   -58.5416 -47.0173 -46.9570 -46.9548 -46.5596 -46.5574 -46.5527 -46.5433
   -46.5410 -46.5394 -33.2317 -33.1613 -33.0954 -32.9978 -32.9914 -32.9570
   -32.9338 -32.9084 -32.8560 -32.8035 -32.7847 -32.7483 -32.6897 -32.6862
   -32.6823 -32.6702 -32.6510 -32.6009 -32.5504 -32.5301 -32.5044 -32.3838
   -32.3792 -32.3178 -32.3067 -32.2862 -32.2009  -3.2727  -2.8554  -2.1881
    -2.0816  -1.9718  -1.8988  -1.6096  -1.5316  -1.4773  -1.4482  -1.3662
    -1.1878  -1.0605  -0.8977  -0.8721  -0.7447  -0.5038  -0.4440  -0.3574
    -0.2297   0.0753   0.1690   0.2223   0.2347   0.2991   0.3823   0.7802
     0.8955   1.0181   1.0501   1.2784   1.3099   1.3422   1.4801   1.4913
     1.5237   1.5600   1.6499   1.6947   1.8022   2.2876   2.3134   2.5041
     2.7099   2.7795   2.9837   3.0152   3.1502   3.2817   3.3490   3.5092
     3.6992   3.7392   3.8392   3.9438   4.0644   4.2309   4.5498   4.6118
     4.7484   5.1695   5.4294   5.5485   5.7153   5.9866   6.2216   7.1151
     7.4117   7.4467   7.6372

     the Fermi energy is     2.3881 ev

!    total energy              =   -1809.58299186 Ry
     Harris-Foulkes estimate   =   -1809.58297667 Ry
     estimated scf accuracy    <       0.00000092 Ry

     The total energy is the sum of the following terms:

     one-electron contribution =  -16060.98059817 Ry
     hartree contribution      =    8033.42057865 Ry
     xc contribution           =    -336.03847281 Ry
     ewald contribution        =    6554.09266429 Ry
     electric field correction =       0.00000256 Ry
     smearing contrib. (-TS)   =      -0.07716639 Ry

     convergence has been achieved in  18 iterations

 BEEF-vdW xc energy contributions
           1 :   -292.888264431730
           2 :    270.004526447159
           3 :   -230.025562349285
           4 :    182.295428211315
           5 :   -136.537819863753
           6 :    99.9645716350874
           7 :   -75.6837159796274
           8 :    62.7059724106201
           9 :   -57.2752306951209
          10 :    54.8003438778960
          11 :   -51.6192859449906
          12 :    46.0086529520899
          13 :   -38.2549564405937
          14 :    29.9519344229722
          15 :   -22.9545683902906
          16 :    18.4554754686096
          17 :   -16.5384421134445
          18 :    16.3009931033796
          19 :   -16.3980788808003
          20 :    15.6907904884740
          21 :   -13.6967214352161
          22 :    10.6718715426218
          23 :   -7.35691046114738
          24 :    4.55456047950383
          25 :   -2.75481430711886
          26 :    1.96015901781163
          27 :   -1.75681701396473
          28 :    1.55908411827852
          29 :  -0.894230737974056
          30 :  -0.407840940030667
          31 :   -29.4400494646750
          32 :   -22.3915459181520

     Forces acting on atoms (Ry/au):

     negative rho (up, down):  9.697E-01 0.000E+00
     atom    1 type  1   force =     0.00000012    0.00727810    0.02402703
     atom    2 type  1   force =     0.00630219   -0.00363880    0.02402696
     atom    3 type  1   force =    -0.00630262   -0.00363911    0.02402656
     atom    4 type  2   force =    -0.00000015    0.00000040    0.00884779
     atom    5 type  1   force =    -0.00000001   -0.00108542   -0.01730968
     atom    6 type  1   force =    -0.00093995    0.00054272   -0.01730998
     atom    7 type  1   force =     0.00093982    0.00054273   -0.01730990
     atom    8 type  2   force =     0.00000006   -0.00000054   -0.02849987
     atom    9 type  1   force =     0.00000007   -0.00005048   -0.00013916
     atom   10 type  1   force =    -0.00004344    0.00002504   -0.00013927
     atom   11 type  1   force =     0.00004372    0.00002510   -0.00013955
     atom   12 type  2   force =     0.00000020    0.00000023   -0.00008093

     Total force =     0.060694     Total SCF correction =     0.006680
     SCF correction compared to forces is large: reduce conv_thr to get better values

     entering subroutine stress ...

     negative rho (up, down):  9.697E-01 0.000E+00
          total   stress  (Ry/bohr**3)                   (kbar)     P=  -24.18
  -0.00020174  -0.00000000  -0.00000000        -29.68     -0.00     -0.00
  -0.00000000  -0.00020174  -0.00000000         -0.00    -29.68     -0.00
  -0.00000000  -0.00000000  -0.00008960         -0.00     -0.00    -13.18

 !ASE

     Writing output data file calc.save

     General routines

     Parallel routines

   This run was terminated on:  20:39:44  30Dec2018

   JOB DONE.
Job  /afs/slac/g/suncat/bin/suncat-tsmpirun -x LD_LIBRARY_PATH -wdir /scratch/qe648607_KnraD pw.x -in pw.inp

TID   HOST_NAME   COMMAND_LINE            STATUS            TERMINATION_TIME
00000 suncat0074 pw.x -in pw.inp   Done                     12/30/2018 20:39:44
00001 suncat0074 pw.x -in pw.inp   Done                     12/30/2018 20:39:44
00002 suncat0074 pw.x -in pw.inp   Done                     12/30/2018 20:39:44
00003 suncat0074 pw.x -in pw.inp   Done                     12/30/2018 20:39:44
00004 suncat0074 pw.x -in pw.inp   Done                     12/30/2018 20:39:44
00005 suncat0074 pw.x -in pw.inp   Done                     12/30/2018 20:39:44
00006 suncat0074 pw.x -in pw.inp   Done                     12/30/2018 20:39:44
00007 suncat0074 pw.x -in pw.inp   Done                     12/30/2018 20:39:44
00008 suncat0073 pw.x -in pw.inp   Done                     12/30/2018 20:39:44
00009 suncat0073 pw.x -in pw.inp   Done                     12/30/2018 20:39:44
00010 suncat0073 pw.x -in pw.inp   Done                     12/30/2018 20:39:44
00011 suncat0073 pw.x -in pw.inp   Done                     12/30/2018 20:39:44
00012 suncat0073 pw.x -in pw.inp   Done                     12/30/2018 20:39:44
00013 suncat0073 pw.x -in pw.inp   Done                     12/30/2018 20:39:44
00014 suncat0073 pw.x -in pw.inp   Done                     12/30/2018 20:39:44
00015 suncat0073 pw.x -in pw.inp   Done                     12/30/2018 20:39:44
00016 suncat0065 pw.x -in pw.inp   Done                     12/30/2018 20:39:44
00017 suncat0065 pw.x -in pw.inp   Done                     12/30/2018 20:39:44
00018 suncat0065 pw.x -in pw.inp   Done                     12/30/2018 20:39:44
00019 suncat0065 pw.x -in pw.inp   Done                     12/30/2018 20:39:44
00020 suncat0065 pw.x -in pw.inp   Done                     12/30/2018 20:39:44
00021 suncat0065 pw.x -in pw.inp   Done                     12/30/2018 20:39:44
00022 suncat0065 pw.x -in pw.inp   Done                     12/30/2018 20:39:44
00023 suncat0065 pw.x -in pw.inp   Done                     12/30/2018 20:39:44
00024 suncat0064 pw.x -in pw.inp   Done                     12/30/2018 20:39:44
00025 suncat0064 pw.x -in pw.inp   Done                     12/30/2018 20:39:44
00026 suncat0064 pw.x -in pw.inp   Done                     12/30/2018 20:39:44
00027 suncat0064 pw.x -in pw.inp   Done                     12/30/2018 20:39:44
00028 suncat0064 pw.x -in pw.inp   Done                     12/30/2018 20:39:44
00029 suncat0064 pw.x -in pw.inp   Done                     12/30/2018 20:39:44
00030 suncat0064 pw.x -in pw.inp   Done                     12/30/2018 20:39:44
00031 suncat0064 pw.x -in pw.inp   Done                     12/30/2018 20:39:44
00032 suncat0062 pw.x -in pw.inp   Done                     12/30/2018 20:39:44
00033 suncat0062 pw.x -in pw.inp   Done                     12/30/2018 20:39:44
00034 suncat0062 pw.x -in pw.inp   Done                     12/30/2018 20:39:44
00035 suncat0062 pw.x -in pw.inp   Done                     12/30/2018 20:39:44
00036 suncat0062 pw.x -in pw.inp   Done                     12/30/2018 20:39:44
00037 suncat0062 pw.x -in pw.inp   Done                     12/30/2018 20:39:44
00038 suncat0062 pw.x -in pw.inp   Done                     12/30/2018 20:39:44
00039 suncat0062 pw.x -in pw.inp   Done                     12/30/2018 20:39:44
00040 suncat0061 pw.x -in pw.inp   Done                     12/30/2018 20:39:44
00041 suncat0061 pw.x -in pw.inp   Done                     12/30/2018 20:39:44
00042 suncat0061 pw.x -in pw.inp   Done                     12/30/2018 20:39:44
00043 suncat0061 pw.x -in pw.inp   Done                     12/30/2018 20:39:44
00044 suncat0061 pw.x -in pw.inp   Done                     12/30/2018 20:39:44
00045 suncat0061 pw.x -in pw.inp   Done                     12/30/2018 20:39:44
00046 suncat0061 pw.x -in pw.inp   Done                     12/30/2018 20:39:44
00047 suncat0061 pw.x -in pw.inp   Done                     12/30/2018 20:39:44
00048 suncat0060 pw.x -in pw.inp   Done                     12/30/2018 20:39:44
00049 suncat0060 pw.x -in pw.inp   Done                     12/30/2018 20:39:44
00050 suncat0060 pw.x -in pw.inp   Done                     12/30/2018 20:39:44
00051 suncat0060 pw.x -in pw.inp   Done                     12/30/2018 20:39:44
00052 suncat0060 pw.x -in pw.inp   Done                     12/30/2018 20:39:44
00053 suncat0060 pw.x -in pw.inp   Done                     12/30/2018 20:39:44
00054 suncat0060 pw.x -in pw.inp   Done                     12/30/2018 20:39:44
00055 suncat0060 pw.x -in pw.inp   Done                     12/30/2018 20:39:44
00056 suncat0057 pw.x -in pw.inp   Done                     12/30/2018 20:39:44
00057 suncat0057 pw.x -in pw.inp   Done                     12/30/2018 20:39:44
00058 suncat0057 pw.x -in pw.inp   Done                     12/30/2018 20:39:44
00059 suncat0057 pw.x -in pw.inp   Done                     12/30/2018 20:39:44
00060 suncat0057 pw.x -in pw.inp   Done                     12/30/2018 20:39:44
00061 suncat0057 pw.x -in pw.inp   Done                     12/30/2018 20:39:44
00062 suncat0057 pw.x -in pw.inp   Done                     12/30/2018 20:39:44
00063 suncat0057 pw.x -in pw.inp   Done                     12/30/2018 20:39:44