     Program PWSCF v.5.1rc2 (svn rev. 11289) starts on  2Jan2019 at 21:44: 7

     Current dimensions of program PWSCF are:
     Max number of different atomic species (ntypx) = 10
     Max number of k-points (npk) =  40000
     Max angular momentum in pseudopotentials (lmaxx) =  3
     Presently stress not available with electric field

     IMPORTANT: XC functional enforced from input :
     Exchange-correlation      = BEEF-VDW ( 1  4 27 13 2)
     Any further DFT definition will be discarded
     Please, verify this is what you really want

     Subspace diagonalization in iterative solution of the eigenvalue problem:
     a serial algorithm will be used

     bravais-lattice index     =            0
     lattice parameter (alat)  =       1.8897  a.u.
     unit-cell volume          =    5787.8258 (a.u.)^3
     number of atoms/cell      =           12
     number of atomic types    =            2
     number of electrons       =       144.00
     number of Kohn-Sham states=          102
     kinetic-energy cutoff     =      36.7493  Ry
     charge density cutoff     =     367.4932  Ry
     convergence threshold     =      1.0E-06
     mixing beta               =       0.1000
     number of iterations used =           10  plain     mixing
     Exchange-correlation      = BEEF-VDW ( 1  4 27 13 2)
     nstep                     =           50

     celldm(1)=   1.889726  celldm(2)=   0.000000  celldm(3)=   0.000000
     celldm(4)=   0.000000  celldm(5)=   0.000000  celldm(6)=   0.000000

     crystal axes: (cart. coord. in units of alat)
               a(1) = (   6.278150   0.000000   0.000000 )
               a(2) = (  -3.139075   5.437037   0.000000 )
               a(3) = (   0.000000   0.000000  25.126088 )

     reciprocal axes: (cart. coord. in units 2 pi/alat)
               b(1) = (  0.159283  0.091962  0.000000 )
               b(2) = (  0.000000  0.183924  0.000000 )
               b(3) = (  0.000000  0.000000  0.039799 )

     PseudoPot. # 1 for Zr read from file:
     /afs/slac.stanford.edu/u/if/mamunm/psp/gbrv1.5pbe/Zr.UPF
     MD5 check sum: 5db81b1e868ab7776c4564c113de050b
     Pseudo is Ultrasoft + core correction, Zval = 12.0
     Generated by new atomic code, or converted to UPF format
     Using radial grid of  887 points,  6 beta functions with:
                l(1) =   0
                l(2) =   0
                l(3) =   1
                l(4) =   1
                l(5) =   2
                l(6) =   2
     Q(r) pseudized with  6 coefficients,  rinner =    1.200   1.200   1.200
                                                       1.200   1.200

     PseudoPot. # 2 for Ti read from file:
     /afs/slac.stanford.edu/u/if/mamunm/psp/gbrv1.5pbe/Ti.UPF
     MD5 check sum: 88a00a6731bd790ddea75d31a80cb452
     Pseudo is Ultrasoft + core correction, Zval = 12.0
     Generated by new atomic code, or converted to UPF format
     Using radial grid of  851 points,  6 beta functions with:
                l(1) =   0
                l(2) =   0
                l(3) =   1
                l(4) =   1
                l(5) =   2
                l(6) =   2
     Q(r) pseudized with  6 coefficients,  rinner =    1.000   1.000   1.000
                                                       1.000   1.000

     vdW kernel table read from file vdW_kernel_table
     MD5 check sum: 095c7af220d748ca6e76c0b4c6cfb241

     atomic species   valence    mass     pseudopotential
        Zr1           12.00    91.22400     Zr( 1.00)
        Ti1           12.00    47.86700     Ti( 1.00)

     No symmetry found

   Cartesian axes

     site n.     atom                  positions (alat units)
         1           Zr1 tau(   1) = (   0.0000000   0.0000000  10.0000000  )
         2           Zr1 tau(   2) = (  -1.5695374   2.7185186  10.0000000  )
         3           Zr1 tau(   3) = (   1.5695374   2.7185186  10.0000000  )
         4           Ti1 tau(   4) = (   3.1390749   0.0000000  10.0000000  )
         5           Zr1 tau(   5) = (   3.1390749   1.8123457  12.5630439  )
         6           Zr1 tau(   6) = (   1.5695374   4.5308643  12.5630439  )
         7           Zr1 tau(   7) = (  -1.5695374   4.5308643  12.5630439  )
         8           Ti1 tau(   8) = (   0.0000000   1.8123457  12.5630439  )
         9           Zr1 tau(   9) = (  -0.0000000   3.6246915  15.1260878  )
        10           Zr1 tau(  10) = (   1.5695374   0.9061729  15.1260878  )
        11           Zr1 tau(  11) = (   4.7086123   0.9061729  15.1260878  )
        12           Ti1 tau(  12) = (   3.1390749   3.6246915  15.1260878  )

     number of k points=    20  Fermi-Dirac smearing, width (Ry)=  0.0110
                       cart. coord. in units 2pi/alat
        k(    1) = (   0.0000000   0.0000000   0.0000000), wk =   0.0555556
        k(    2) = (   0.0000000   0.0306539   0.0000000), wk =   0.1111111
        k(    3) = (   0.0000000   0.0613079   0.0000000), wk =   0.1111111
        k(    4) = (   0.0000000  -0.0919618   0.0000000), wk =   0.0555556
        k(    5) = (   0.0265471   0.0153270   0.0000000), wk =   0.1111111
        k(    6) = (   0.0265471   0.0459809   0.0000000), wk =   0.1111111
        k(    7) = (   0.0265471   0.0766349   0.0000000), wk =   0.1111111
        k(    8) = (   0.0265471  -0.0766349   0.0000000), wk =   0.1111111
        k(    9) = (   0.0265471  -0.0459809   0.0000000), wk =   0.1111111
        k(   10) = (   0.0265471  -0.0153270   0.0000000), wk =   0.1111111
        k(   11) = (   0.0530942   0.0306539   0.0000000), wk =   0.1111111
        k(   12) = (   0.0530942   0.0613079   0.0000000), wk =   0.1111111
        k(   13) = (   0.0530942   0.0919618   0.0000000), wk =   0.1111111
        k(   14) = (   0.0530942  -0.0613079   0.0000000), wk =   0.1111111
        k(   15) = (   0.0530942  -0.0306539   0.0000000), wk =   0.1111111
        k(   16) = (   0.0530942   0.0000000   0.0000000), wk =   0.1111111
        k(   17) = (  -0.0796413  -0.0459809   0.0000000), wk =   0.0555556
        k(   18) = (  -0.0796413  -0.0153270   0.0000000), wk =   0.1111111
        k(   19) = (  -0.0796413   0.0153270   0.0000000), wk =   0.1111111
        k(   20) = (  -0.0796413  -0.1379428   0.0000000), wk =   0.0555556

     Largest allocated arrays     est. size (Mb)     dimensions
     Largest temporary arrays     est. size (Mb)     dimensions

     Check: negative/imaginary core charge=   -0.000003    0.000000

     Initial potential from superposition of free atoms
     Check: negative starting charge=   -0.552114

     starting charge  140.98052, renormalised to  144.00000

     negative rho (up, down):  5.639E-01 0.000E+00

     *
     * You are using vdW-DF for exchange-correlation in this calculation.
     * Please cite the following three references that made this development
     * possible:
     *
     *   M. Dion, H. Rydberg, E. Schroder, D. C. Langreth, and
     *   B. I. Lundqvist, Phys. Rev. Lett. 92, 246401 (2004).
     *
     *   T. Thonhauser, V. R. Cooper, S. Li, A. Puzder, P. Hyldgaard, and
     *   D. C. Langreth, Phys. Rev. B 76, 125112 (2007).
     *
     *   G. Roman-Perez and J. M. Soler, Phys. Rev. Lett. 103, 096102 (2009).
     *
     *
     * If you are using vdW-DF2, please also cite:
     *
     *   K. Lee, E. D. Murray, L. Kong, B. I. Lundqvist, and
     *   D. C. Langreth, Phys. Rev. B 82, 081101(R) (2010).
     *
     *
     * If you are calculating the stress with vdW-DF, please also cite:
     *
     *   R. Sabatini, E. Kucukbenli, B. Kolb, T. Thonhauser, and
     *   S. de Gironcoli, J. Phys.: Condens. Matter 24, 424209 (2012).
     *

     Carrying out vdW-DF run using the following parameters:

     Nqs =      20    Nr_points =    1024   r_max =   100.000
     q_mesh =
               0.00001000     0.04494208     0.09755937     0.15916263
               0.23128650     0.31572767     0.41458969     0.53033537
               0.66584808     0.82450364     1.01025438     1.22772762
               1.48234092     1.78043706     2.12944203     2.53805004
               3.01644009     3.57652955     4.23227104     5.00000000

     Gradients computed in reciprocal space

     Adding external electric field

     Computed dipole along edir(3) :
        Dipole               -0.0000 Ry au,         -0.0000 Debye
        Dipole field         -0.0000 Ry au

        Potential amp.        0.0000 Ry
        Total length         46.2944 bohr

     Starting wfc are  147 randomized atomic wfcs

     Self-consistent Calculation

     iteration #  1     ecut=    36.75 Ry     beta=0.10
     Davidson diagonalization with overlap
     ethr =  1.00E-02,  avg # of iterations =  2.0

[...]

     total energy              =   -1250.88708017 Ry
     Harris-Foulkes estimate   =   -1260.69056995 Ry
     estimated scf accuracy    <      54.44997598 Ry

[...]

     End of self-consistent calculation

          k = 0.0000 0.0000 0.0000 ( 21859 PWs)   bands (ev):

   -55.9800 -55.9799 -55.8438 -47.9160 -47.9112 -47.8268 -47.8267 -47.8256
   -47.8256 -47.5929 -47.5105 -47.5103 -32.2366 -32.2342 -32.1760 -32.1760
   -32.1753 -32.1753 -32.0614 -32.0405 -32.0404 -26.3190 -26.2763 -26.1015
   -26.0544 -26.0544 -25.9949 -25.9949 -25.9602 -25.9601 -25.9350 -25.9328
   -25.8366 -25.8366 -25.6374 -25.6215 -25.6215 -25.6149 -25.5052 -25.5052
   -25.4921 -25.4921 -25.4455 -25.4121 -25.4120 -25.2921 -25.2114 -25.2114
    -3.7859  -2.6469  -1.7719  -1.5584  -1.3606  -1.0536  -1.0536  -0.9745
    -0.9745  -0.9458  -0.5476  -0.5476  -0.5366  -0.4301  -0.4301   0.1325
     0.4161   0.4161   1.1411   1.2696   1.3975   1.4585   1.4585   1.7851
     1.8378   1.8900   1.8900   2.0018   2.0778   2.0778   2.2723   2.2723
     2.2915   2.2915   2.2962   2.2962   2.4483   2.4483   2.5181   2.6108
     3.0278   3.0278   3.1235   3.1235   3.2304   3.6875   3.6875   3.7035
     3.9000   4.4248   4.4248   4.4969   4.4969   4.8652

[...]

          k =-0.0796-0.0460 0.0000 ( 21756 PWs)   bands (ev):

[...]

     the Fermi energy is     1.2611 ev

!    total energy              =   -1257.23191144 Ry
     Harris-Foulkes estimate   =   -1257.23191107 Ry
     estimated scf accuracy    <       0.00000063 Ry

     The total energy is the sum of the following terms:

     one-electron contribution =   -8710.07371644 Ry
     hartree contribution      =    4344.12822385 Ry
     xc contribution           =    -221.48365606 Ry
     ewald contribution        =    3330.32892805 Ry
     electric field correction =       0.00000002 Ry
     smearing contrib. (-TS)   =      -0.13169087 Ry

     convergence has been achieved in  23 iterations

 BEEF-vdW xc energy contributions
           1 :   -189.923543360348
           2 :    171.410230554011
           3 :   -140.420145308052
           4 :    105.997781767073
           5 :   -76.1084178253261
           6 :    54.7086447841440
           7 :   -41.2724752485130
           8 :    32.5087733082361
           9 :   -24.9093783108062
          10 :    16.6146745205580
          11 :   -7.82618938370700
          12 :  -3.974397139359098E-002
          13 :    5.63220388832784
          14 :   -8.55123543910412
          15 :    9.43862284251588
          16 :   -9.42599728584642
[...]
               b(3) = (  0.000000  0.000000  0.039799 )

     PseudoPot. # 1 for Zr read from file:
     /afs/slac.stanford.edu/u/if/mamunm/psp/gbrv1.5pbe/Zr.UPF
     MD5 check sum: 5db81b1e868ab7776c4564c113de050b
     Pseudo is Ultrasoft + core correction, Zval = 12.0
     Generated by new atomic code, or converted to UPF format
     Using radial grid of  887 points,  6 beta functions with:
                l(1) =   0
                l(2) =   0
                l(3) =   1
                l(4) =   1
                l(5) =   2
                l(6) =   2
     Q(r) pseudized with  6 coefficients,  rinner =    1.200   1.200   1.200
                                                       1.200   1.200

     PseudoPot. # 2 for Ti read from file:
     /afs/slac.stanford.edu/u/if/mamunm/psp/gbrv1.5pbe/Ti.UPF
     MD5 check sum: 88a00a6731bd790ddea75d31a80cb452
     Pseudo is Ultrasoft + core correction, Zval = 12.0
     Generated by new atomic code, or converted to UPF format
     Using radial grid of  851 points,  6 beta functions with:
                l(1) =   0
                l(2) =   0
                l(3) =   1
                l(4) =   1
                l(5) =   2
                l(6) =   2
     Q(r) pseudized with  6 coefficients,  rinner =    1.000   1.000   1.000
                                                       1.000   1.000

     vdW kernel table read from file vdW_kernel_table
     MD5 check sum: 095c7af220d748ca6e76c0b4c6cfb241

     atomic species   valence    mass     pseudopotential
        Zr1           12.00    91.22400     Zr( 1.00)
        Ti1           12.00    47.86700     Ti( 1.00)

     No symmetry found

   Cartesian axes

     site n.     atom                  positions (alat units)
         1           Zr1 tau(   1) = (   0.0000000   0.0000000  10.0000000  )
         2           Zr1 tau(   2) = (  -1.5695374   2.7185186  10.0000000  )
         3           Zr1 tau(   3) = (   1.5695374   2.7185186  10.0000000  )
         4           Ti1 tau(   4) = (   3.1390749   0.0000000  10.0000000  )
         5           Zr1 tau(   5) = (   3.1390749   1.8123457  12.5630439  )
         6           Zr1 tau(   6) = (   1.5695374   4.5308643  12.5630439  )
         7           Zr1 tau(   7) = (  -1.5695374   4.5308643  12.5630439  )
         8           Ti1 tau(   8) = (   0.0000000   1.8123457  12.5630439  )
         9           Zr1 tau(   9) = (   0.0000166   3.5676753  15.0257794  )
        10           Zr1 tau(  10) = (   1.5201502   0.9346930  15.0257771  )
        11           Zr1 tau(  11) = (   4.7580099   0.9346869  15.0257855  )
        12           Ti1 tau(  12) = (   3.1390830   3.6247544  14.9364385  )

     number of k points=    20  Fermi-Dirac smearing, width (Ry)=  0.0110
                       cart. coord. in units 2pi/alat
        k(    1) = (   0.0000000   0.0000000   0.0000000), wk =   0.0555556
        k(    2) = (   0.0000000   0.0306539   0.0000000), wk =   0.1111111
        k(    3) = (   0.0000000   0.0613079   0.0000000), wk =   0.1111111
        k(    4) = (   0.0000000  -0.0919618   0.0000000), wk =   0.0555556
        k(    5) = (   0.0265471   0.0153270   0.0000000), wk =   0.1111111
        k(    6) = (   0.0265471   0.0459809   0.0000000), wk =   0.1111111
        k(    7) = (   0.0265471   0.0766349   0.0000000), wk =   0.1111111
        k(    8) = (   0.0265471  -0.0766349   0.0000000), wk =   0.1111111
        k(    9) = (   0.0265471  -0.0459809   0.0000000), wk =   0.1111111
        k(   10) = (   0.0265471  -0.0153270   0.0000000), wk =   0.1111111
        k(   11) = (   0.0530942   0.0306539   0.0000000), wk =   0.1111111
        k(   12) = (   0.0530942   0.0613079   0.0000000), wk =   0.1111111
        k(   13) = (   0.0530942   0.0919618   0.0000000), wk =   0.1111111
        k(   14) = (   0.0530942  -0.0613079   0.0000000), wk =   0.1111111
        k(   15) = (   0.0530942  -0.0306539   0.0000000), wk =   0.1111111
        k(   16) = (   0.0530942   0.0000000   0.0000000), wk =   0.1111111
        k(   17) = (  -0.0796413  -0.0459809   0.0000000), wk =   0.0555556
        k(   18) = (  -0.0796413  -0.0153270   0.0000000), wk =   0.1111111
        k(   19) = (  -0.0796413   0.0153270   0.0000000), wk =   0.1111111
        k(   20) = (  -0.0796413  -0.1379428   0.0000000), wk =   0.0555556

     Largest allocated arrays     est. size (Mb)     dimensions
     Largest temporary arrays     est. size (Mb)     dimensions

     Check: negative/imaginary core charge=   -0.000003    0.000000

     Initial potential from superposition of free atoms
     Check: negative starting charge=   -0.551880

     starting charge  140.98052, renormalised to  144.00000

[...]

     *
     * You are using vdW-DF for exchange-correlation in this calculation.
     * Please cite the following three references that made this development
     * possible:
     *
     *   M. Dion, H. Rydberg, E. Schroder, D. C. Langreth, and
     *   B. I. Lundqvist, Phys. Rev. Lett. 92, 246401 (2004).
     *
     *   T. Thonhauser, V. R. Cooper, S. Li, A. Puzder, P. Hyldgaard, and
     *   D. C. Langreth, Phys. Rev. B 76, 125112 (2007).
     *
     *   G. Roman-Perez and J. M. Soler, Phys. Rev. Lett. 103, 096102 (2009).
     *
     *
     * If you are using vdW-DF2, please also cite:
     *
     *   K. Lee, E. D. Murray, L. Kong, B. I. Lundqvist, and
     *   D. C. Langreth, Phys. Rev. B 82, 081101(R) (2010).
     *
     *
     * If you are calculating the stress with vdW-DF, please also cite:
     *
     *   R. Sabatini, E. Kucukbenli, B. Kolb, T. Thonhauser, and
     *   S. de Gironcoli, J. Phys.: Condens. Matter 24, 424209 (2012).
     *

     Carrying out vdW-DF run using the following parameters:

     Nqs =      20    Nr_points =    1024   r_max =   100.000
     q_mesh =
               0.00001000     0.04494208     0.09755937     0.15916263
               0.23128650     0.31572767     0.41458969     0.53033537
               0.66584808     0.82450364     1.01025438     1.22772762
               1.48234092     1.78043706     2.12944203     2.53805004
               3.01644009     3.57652955     4.23227104     5.00000000

     Gradients computed in reciprocal space

[...]

     Starting wfc are  147 randomized atomic wfcs

     Self-consistent Calculation

[...]

     total energy              =   -1257.24241166 Ry
     Harris-Foulkes estimate   =   -1257.24241128 Ry
     estimated scf accuracy    <       0.00000464 Ry

     iteration # 22     ecut=    36.75 Ry     beta=0.10
     Davidson diagonalization with overlap
     ethr =  3.22E-09,  avg # of iterations =  1.5

[...]

     negative rho (up, down):  5.612E-01 0.000E+00

     Adding external electric field

     Computed dipole along edir(3) :
        Dipole                0.0100 Ry au,          0.0254 Debye
        Dipole field          0.0000 Ry au

        Potential amp.       -0.0020 Ry
        Total length         46.2944 bohr

     End of self-consistent calculation

[...]

          k = 0.0531 0.0000 0.0000 ( 21817 PWs)   bands (ev):

[...]

          k =-0.0796-0.1379 0.0000 ( 21756 PWs)   bands (ev):

   -55.9735 -55.9078 -55.7857 -47.8795 -47.8554 -47.8504 -47.8211 -47.8137
   -47.7869 -47.5107 -47.4838 -47.4560 -32.2296 -32.1686 -32.1673 -32.1654
   -32.1155 -32.1130 -32.0113 -31.9867 -31.9842 -26.1606 -26.1176 -26.0567
   -25.9730 -25.9655 -25.9260 -25.8972 -25.8754 -25.8578 -25.8524 -25.8498
   -25.8293 -25.8160 -25.7850 -25.7543 -25.7437 -25.7156 -25.5371 -25.5083
   -25.4970 -25.4427 -25.4129 -25.3780 -25.3727 -25.3504 -25.3318 -25.1838
    -2.3562  -2.3230  -1.4012  -1.2985  -0.8072  -0.6935  -0.6294  -0.5252
    -0.3614  -0.3310   0.0374   0.1661   0.2761   0.3194   0.3750   0.3794
     0.6064   0.6394   0.7171   0.7219   0.7952   0.9510   1.0539   1.0601
     1.0977   1.1430   1.2457   1.3046   1.3789   1.3940   1.5435   1.6062
     1.7717   1.9164   1.9603   2.0993   2.1497   2.1885   2.5709   2.6032
     2.7488   2.9808   3.0562   3.0928   3.1615   3.2310   3.3306   3.4923
     3.5169   3.6454   3.7320   3.8946   3.9484   4.0379

     the Fermi energy is     1.2592 ev

!    total energy              =   -1257.24241187 Ry
     Harris-Foulkes estimate   =   -1257.24241201 Ry
     estimated scf accuracy    <       0.00000063 Ry

     The total energy is the sum of the following terms:

     one-electron contribution =   -8863.31917912 Ry
     hartree contribution      =    4420.92520394 Ry
     xc contribution           =    -221.65915639 Ry
     ewald contribution        =    3406.93586062 Ry
     electric field correction =       0.00000022 Ry
     smearing contrib. (-TS)   =      -0.12514114 Ry

     convergence has been achieved in  22 iterations

 BEEF-vdW xc energy contributions
           1 :   -190.113595660425
           2 :    171.656166290528
           3 :   -140.719025668454
           4 :    106.279166519286
           5 :   -76.2827856877723
           6 :    54.7330050145620
           7 :   -41.1828850697808
           8 :    32.3981908272071
           9 :   -24.8694444083414
          10 :    16.6808909013978
          11 :   -7.95980626479542
          12 :   7.572342857653780E-002
          13 :    5.61183711839192
          14 :   -8.64466559104650
          15 :    9.59446708125117
          16 :   -9.55784350964325
          17 :    9.46085830875722
          18 :   -9.62447455852401
          19 :    9.78499461158214
          20 :   -9.45876880337840
          21 :    8.35394896611658
          22 :   -6.57051190913029
          23 :    4.51265599307209
          24 :   -2.63432603817952
          25 :    1.20676193259214
          26 :  -0.236870544222683
          27 :  -0.459727759298687
          28 :    1.10877205369275
          29 :   -1.84443661653967
          30 :    2.64811671468303
          31 :   -21.5057138072827
          32 :   -15.8852940482333

     Forces acting on atoms (Ry/au):

     negative rho (up, down):  5.612E-01 0.000E+00
     atom    1 type  1   force =    -0.00000071    0.01038460    0.00874287
     atom    2 type  1   force =     0.00899144   -0.00519263    0.00874488
     atom    3 type  1   force =    -0.00899176   -0.00519241    0.00874476
     atom    4 type  2   force =     0.00000010   -0.00000785    0.01798091
     atom    5 type  1   force =     0.00000104   -0.00236309   -0.01034745
     atom    6 type  1   force =    -0.00204934    0.00118439   -0.01035144
     atom    7 type  1   force =     0.00205072    0.00118347   -0.01035168
     atom    8 type  2   force =    -0.00000003   -0.00000121   -0.00967114
     atom    9 type  1   force =    -0.00000106    0.00065844   -0.00064428
     atom   10 type  1   force =     0.00057299   -0.00032672   -0.00064441
     atom   11 type  1   force =    -0.00057285   -0.00032631   -0.00064574
     atom   12 type  2   force =    -0.00000053   -0.00000065   -0.00155728

     Total force =     0.036233     Total SCF correction =     0.002190

     entering subroutine stress ...

     negative rho (up, down):  5.612E-01 0.000E+00
          total   stress  (Ry/bohr**3)                   (kbar)     P=   -7.08
  -0.00005206   0.00000000  -0.00000000         -7.66      0.00     -0.00
   0.00000000  -0.00005207  -0.00000000          0.00     -7.66     -0.00
  -0.00000000  -0.00000000  -0.00004032         -0.00     -0.00     -5.93

 !ASE

     Writing output data file calc.save

     General routines

     Parallel routines

   This run was terminated on:  23: 3:17   2Jan2019

   JOB DONE.
Job  /afs/slac/g/suncat/bin/suncat-tsmpirun -x LD_LIBRARY_PATH -wdir /scratch/qe649573_eTQoF pw.x -in pw.inp

TID   HOST_NAME   COMMAND_LINE            STATUS            TERMINATION_TIME
00000 suncat0182 pw.x -in pw.inp   Done                     01/02/2019 23:03:17
00001 suncat0182 pw.x -in pw.inp   Done                     01/02/2019 23:03:17
00002 suncat0182 pw.x -in pw.inp   Done                     01/02/2019 23:03:17
00003 suncat0182 pw.x -in pw.inp   Done                     01/02/2019 23:03:17
00004 suncat0182 pw.x -in pw.inp   Done                     01/02/2019 23:03:17
00005 suncat0182 pw.x -in pw.inp   Done                     01/02/2019 23:03:17
00006 suncat0182 pw.x -in pw.inp   Done                     01/02/2019 23:03:17
00007 suncat0182 pw.x -in pw.inp   Done                     01/02/2019 23:03:17
00008 suncat0181 pw.x -in pw.inp   Done                     01/02/2019 23:03:17
00009 suncat0181 pw.x -in pw.inp   Done                     01/02/2019 23:03:17
00010 suncat0181 pw.x -in pw.inp   Done                     01/02/2019 23:03:17
00011 suncat0181 pw.x -in pw.inp   Done                     01/02/2019 23:03:17
00012 suncat0181 pw.x -in pw.inp   Done                     01/02/2019 23:03:17
00013 suncat0181 pw.x -in pw.inp   Done                     01/02/2019 23:03:17
00014 suncat0181 pw.x -in pw.inp   Done                     01/02/2019 23:03:17
00015 suncat0181 pw.x -in pw.inp   Done                     01/02/2019 23:03:17
00016 suncat0132 pw.x -in pw.inp   Done                     01/02/2019 23:03:17
00017 suncat0132 pw.x -in pw.inp   Done                     01/02/2019 23:03:17
00018 suncat0132 pw.x -in pw.inp   Done                     01/02/2019 23:03:17
00019 suncat0132 pw.x -in pw.inp   Done                     01/02/2019 23:03:17
00020 suncat0132 pw.x -in pw.inp   Done                     01/02/2019 23:03:17
00021 suncat0132 pw.x -in pw.inp   Done                     01/02/2019 23:03:17
00022 suncat0132 pw.x -in pw.inp   Done                     01/02/2019 23:03:17
00023 suncat0132 pw.x -in pw.inp   Done                     01/02/2019 23:03:17
00024 suncat0131 pw.x -in pw.inp   Done                     01/02/2019 23:03:17
00025 suncat0131 pw.x -in pw.inp   Done                     01/02/2019 23:03:17
00026 suncat0131 pw.x -in pw.inp   Done                     01/02/2019 23:03:17
00027 suncat0131 pw.x -in pw.inp   Done                     01/02/2019 23:03:17
00028 suncat0131 pw.x -in pw.inp   Done                     01/02/2019 23:03:17
00029 suncat0131 pw.x -in pw.inp   Done                     01/02/2019 23:03:17
00030 suncat0131 pw.x -in pw.inp   Done                     01/02/2019 23:03:17
00031 suncat0131 pw.x -in pw.inp   Done                     01/02/2019 23:03:17
00032 suncat0130 pw.x -in pw.inp   Done                     01/02/2019 23:03:17
00033 suncat0130 pw.x -in pw.inp   Done                     01/02/2019 23:03:17
00034 suncat0130 pw.x -in pw.inp   Done                     01/02/2019 23:03:17
00035 suncat0130 pw.x -in pw.inp   Done                     01/02/2019 23:03:17
00036 suncat0130 pw.x -in pw.inp   Done                     01/02/2019 23:03:17
00037 suncat0130 pw.x -in pw.inp   Done                     01/02/2019 23:03:17
00038 suncat0130 pw.x -in pw.inp   Done                     01/02/2019 23:03:17
00039 suncat0130 pw.x -in pw.inp   Done                     01/02/2019 23:03:17
00040 suncat0124 pw.x -in pw.inp   Done                     01/02/2019 23:03:17
00041 suncat0124 pw.x -in pw.inp   Done                     01/02/2019 23:03:17
00042 suncat0124 pw.x -in pw.inp   Done                     01/02/2019 23:03:17
00043 suncat0124 pw.x -in pw.inp   Done                     01/02/2019 23:03:17
00044 suncat0124 pw.x -in pw.inp   Done                     01/02/2019 23:03:17
00045 suncat0124 pw.x -in pw.inp   Done                     01/02/2019 23:03:17
00046 suncat0124 pw.x -in pw.inp   Done                     01/02/2019 23:03:17
00047 suncat0124 pw.x -in pw.inp   Done                     01/02/2019 23:03:17
00048 suncat0280 pw.x -in pw.inp   Done                     01/02/2019 23:03:17
00049 suncat0280 pw.x -in pw.inp   Done                     01/02/2019 23:03:17
00050 suncat0280 pw.x -in pw.inp   Done                     01/02/2019 23:03:17
00051 suncat0280 pw.x -in pw.inp   Done                     01/02/2019 23:03:17
00052 suncat0280 pw.x -in pw.inp   Done                     01/02/2019 23:03:17
00053 suncat0280 pw.x -in pw.inp   Done                     01/02/2019 23:03:17
00054 suncat0280 pw.x -in pw.inp   Done                     01/02/2019 23:03:17
00055 suncat0280 pw.x -in pw.inp   Done                     01/02/2019 23:03:17
00056 suncat0279 pw.x -in pw.inp   Done                     01/02/2019 23:03:17
00057 suncat0279 pw.x -in pw.inp   Done                     01/02/2019 23:03:17
00058 suncat0279 pw.x -in pw.inp   Done                     01/02/2019 23:03:17
00059 suncat0279 pw.x -in pw.inp   Done                     01/02/2019 23:03:17
00060 suncat0279 pw.x -in pw.inp   Done                     01/02/2019 23:03:17
00061 suncat0279 pw.x -in pw.inp   Done                     01/02/2019 23:03:17
00062 suncat0279 pw.x -in pw.inp   Done                     01/02/2019 23:03:17
00063 suncat0279 pw.x -in pw.inp   Done                     01/02/2019 23:03:17