     Program PWSCF v.5.1rc2 (svn rev. 11289) starts on  2Jan2019 at 22:21: 2

     Current dimensions of program PWSCF are:
     Max number of different atomic species (ntypx) = 10
     Max number of k-points (npk) =  40000
     Max angular momentum in pseudopotentials (lmaxx) =  3
     Presently stress not available with electric field

     IMPORTANT: XC functional enforced from input :
     Exchange-correlation      = BEEF-VDW ( 1  4 27 13 2)
     Any further DFT definition will be discarded
     Please, verify this is what you really want

     Subspace diagonalization in iterative solution of the eigenvalue problem:
     a serial algorithm will be used

     bravais-lattice index     =            0
     lattice parameter (alat)  =       1.8897  a.u.
     unit-cell volume          =    5564.5858 (a.u.)^3
     number of atoms/cell      =           12
     number of atomic types    =            2
     number of electrons       =       168.00
     number of Kohn-Sham states=          114
     kinetic-energy cutoff     =      36.7493  Ry
     charge density cutoff     =     367.4932  Ry
     convergence threshold     =      1.0E-06
     mixing beta               =       0.1000
     number of iterations used =           10  plain     mixing
     Exchange-correlation      = BEEF-VDW ( 1  4 27 13 2)
     nstep                     =           50

     celldm(1)=   1.889726  celldm(2)=   0.000000  celldm(3)=   0.000000
     celldm(4)=   0.000000  celldm(5)=   0.000000  celldm(6)=   0.000000

     crystal axes: (cart. coord. in units of alat)
               a(1) = (   6.167028   0.000000   0.000000 )
               a(2) = (  -3.083514   5.340803   0.000000 )
               a(3) = (   0.000000   0.000000  25.035357 )

     reciprocal axes: (cart. coord. in units 2 pi/alat)
               b(1) = (  0.162153  0.093619  0.000000 )
               b(2) = (  0.000000  0.187238  0.000000 )
               b(3) = (  0.000000  0.000000  0.039944 )

     PseudoPot. # 1 for Zr read from file:
     /afs/slac.stanford.edu/u/if/mamunm/psp/gbrv1.5pbe/Zr.UPF
     MD5 check sum: 5db81b1e868ab7776c4564c113de050b
     Pseudo is Ultrasoft + core correction, Zval = 12.0
     Generated by new atomic code, or converted to UPF format
     Using radial grid of  887 points,  6 beta functions with:
                l(1) =   0
                l(2) =   0
                l(3) =   1
                l(4) =   1
                l(5) =   2
                l(6) =   2
     Q(r) pseudized with  6 coefficients,  rinner =    1.200   1.200   1.200
                                                       1.200   1.200

     PseudoPot. # 2 for Zn read from file:
     /afs/slac.stanford.edu/u/if/mamunm/psp/gbrv1.5pbe/Zn.UPF
     MD5 check sum: df62231357ef9e81f77b2b3087fa5675
     Pseudo is Ultrasoft, Zval = 20.0
     Generated by new atomic code, or converted to UPF format
     Using radial grid of  943 points,  6 beta functions with:
                l(1) =   0
                l(2) =   0
                l(3) =   1
                l(4) =   1
                l(5) =   2
                l(6) =   2
     Q(r) pseudized with  8 coefficients,  rinner =    1.100   1.100   1.100
                                                       1.100   1.100

     vdW kernel table read from file vdW_kernel_table
     MD5 check sum: 095c7af220d748ca6e76c0b4c6cfb241

     atomic species   valence    mass     pseudopotential
        Zr1           12.00    91.22400     Zr( 1.00)
        Zn1           20.00    65.38000     Zn( 1.00)

     No symmetry found

   Cartesian axes

     site n.     atom                  positions (alat units)
         1           Zr1 tau(   1) = (   0.0000000   0.0000000  10.0000000  )
         2           Zr1 tau(   2) = (  -1.5417570   2.6704014  10.0000000  )
         3           Zr1 tau(   3) = (   1.5417570   2.6704014  10.0000000  )
         4           Zn1 tau(   4) = (   3.0835139   0.0000000  10.0000000  )
         5           Zr1 tau(   5) = (   3.0835139   1.7802676  12.5176786  )
         6           Zr1 tau(   6) = (   1.5417570   4.4506690  12.5176786  )
         7           Zr1 tau(   7) = (  -1.5417570   4.4506690  12.5176786  )
         8           Zn1 tau(   8) = (   0.0000000   1.7802676  12.5176786  )
         9           Zr1 tau(   9) = (  -0.0000000   3.5605352  15.0353571  )
        10           Zr1 tau(  10) = (   1.5417570   0.8901338  15.0353571  )
        11           Zr1 tau(  11) = (   4.6252709   0.8901338  15.0353571  )
        12           Zn1 tau(  12) = (   3.0835139   3.5605352  15.0353571  )

     number of k points=    20  Fermi-Dirac smearing, width (Ry)=  0.0110
                       cart. coord. in units 2pi/alat
        k(    1) = (   0.0000000   0.0000000   0.0000000), wk =   0.0555556
        k(    2) = (   0.0000000   0.0312063   0.0000000), wk =   0.1111111
        k(    3) = (   0.0000000   0.0624126   0.0000000), wk =   0.1111111
        k(    4) = (   0.0000000  -0.0936189   0.0000000), wk =   0.0555556
        k(    5) = (   0.0270254   0.0156031   0.0000000), wk =   0.1111111
        k(    6) = (   0.0270254   0.0468094   0.0000000), wk =   0.1111111
        k(    7) = (   0.0270254   0.0780157   0.0000000), wk =   0.1111111
        k(    8) = (   0.0270254  -0.0780157   0.0000000), wk =   0.1111111
        k(    9) = (   0.0270254  -0.0468094   0.0000000), wk =   0.1111111
        k(   10) = (   0.0270254  -0.0156031   0.0000000), wk =   0.1111111
        k(   11) = (   0.0540509   0.0312063   0.0000000), wk =   0.1111111
        k(   12) = (   0.0540509   0.0624126   0.0000000), wk =   0.1111111
        k(   13) = (   0.0540509   0.0936189   0.0000000), wk =   0.1111111
        k(   14) = (   0.0540509  -0.0624126   0.0000000), wk =   0.1111111
        k(   15) = (   0.0540509  -0.0312063   0.0000000), wk =   0.1111111
        k(   16) = (   0.0540509   0.0000000   0.0000000), wk =   0.1111111
        k(   17) = (  -0.0810763  -0.0468094   0.0000000), wk =   0.0555556
        k(   18) = (  -0.0810763  -0.0156031   0.0000000), wk =   0.1111111
        k(   19) = (  -0.0810763   0.0156031   0.0000000), wk =   0.1111111
        k(   20) = (  -0.0810763  -0.1404283   0.0000000), wk =   0.0555556

     Largest allocated arrays     est. size (Mb)     dimensions
     Largest temporary arrays     est. size (Mb)     dimensions

     Initial potential from superposition of free atoms
     Check: negative starting charge=   -0.555588

     starting charge  167.98023, renormalised to  168.00000

     negative rho (up, down):  5.557E-01 0.000E+00

     *
     * You are using vdW-DF for exchange-correlation in this calculation.
     * Please cite the following three references that made this development
     * possible:
     *
     *   M. Dion, H. Rydberg, E. Schroder, D. C. Langreth, and
     *   B. I. Lundqvist, Phys. Rev. Lett. 92, 246401 (2004).
     *
     *   T. Thonhauser, V. R. Cooper, S. Li, A. Puzder, P. Hyldgaard, and
     *   D. C. Langreth, Phys. Rev. B 76, 125112 (2007).
     *
     *   G. Roman-Perez and J. M. Soler, Phys. Rev. Lett. 103, 096102 (2009).
     *
     *
     * If you are using vdW-DF2, please also cite:
     *
     *   K. Lee, E. D. Murray, L. Kong, B. I. Lundqvist, and
     *   D. C. Langreth, Phys. Rev. B 82, 081101(R) (2010).
     *
     *
     * If you are calculating the stress with vdW-DF, please also cite:
     *
     *   R. Sabatini, E. Kucukbenli, B. Kolb, T. Thonhauser, and
     *   S. de Gironcoli, J. Phys.: Condens. Matter 24, 424209 (2012).
     *

     Carrying out vdW-DF run using the following parameters:

     Nqs =      20    Nr_points =    1024   r_max =   100.000
     q_mesh =
               0.00001000     0.04494208     0.09755937     0.15916263
               0.23128650     0.31572767     0.41458969     0.53033537
               0.66584808     0.82450364     1.01025438     1.22772762
               1.48234092     1.78043706     2.12944203     2.53805004
               3.01644009     3.57652955     4.23227104     5.00000000

     Gradients computed in reciprocal space

     Adding external electric field

     Computed dipole along edir(3) :
        Dipole               -0.0000 Ry au,         -0.0000 Debye
        Dipole field         -0.0000 Ry au

        Potential amp.        0.0000 Ry
        Total length         46.1272 bohr

     Starting wfc are  156 randomized atomic wfcs

     Self-consistent Calculation

     iteration #  1     ecut=    36.75 Ry     beta=0.10
     Davidson diagonalization with overlap
     ethr =  1.00E-02,  avg # of iterations =  2.0

[...]

     total energy              =   -2285.62090321 Ry
     Harris-Foulkes estimate   =   -2286.56970242 Ry
     estimated scf accuracy    <       5.39554209 Ry

[...]

     End of self-consistent calculation

          k = 0.0000 0.0000 0.0000 ( 20971 PWs)   bands (ev):

  -124.5839-124.5838-124.3669 -78.7524 -78.7523 -78.7523 -78.7522 -78.7522
   -78.7522 -78.5326 -78.5320 -78.5320 -47.8057 -47.7997 -47.6963 -47.6963
   -47.6950 -47.6949 -47.4001 -47.2979 -47.2978 -26.2219 -26.1761 -26.0359
   -25.9785 -25.9785 -25.9151 -25.9151 -25.8925 -25.8925 -25.8712 -25.8546
   -25.7545 -25.7545 -25.5021 -25.4816 -25.4816 -25.4774 -25.2902 -25.2902
   -25.2761 -25.2761 -25.2333 -25.2042 -25.2042 -25.0818 -24.9565 -24.9564
    -5.5235  -5.5235  -5.5115  -5.5115  -5.5050  -5.4860  -5.4778  -5.4778
    -5.4407  -5.4407  -5.2965  -5.2965  -5.2957  -5.2463  -5.2462  -4.6752
    -3.5355  -3.2249  -1.8036  -1.3528  -1.0803  -0.1870  -0.1870  -0.0864
     0.0050   0.0929   0.0929   0.2858   0.2858   0.3633   0.3633   1.0037
     1.0037   1.2098   1.2592   1.7792   1.8249   1.8249   2.0202   2.0202
     2.1135   2.3370   2.3370   2.4964   2.5857   2.5857   2.7662   3.4049
     4.0445   4.0462   4.0462   4.1180   4.1803   4.1803   4.3484   4.3484
     4.5895   4.5895   4.8196   4.8222   4.8222   4.9590   4.9732   5.2007
     5.2008   5.2867

[...]

          k =-0.0811-0.0468 0.0000 ( 20896 PWs)   bands (ev):

[...]

     the Fermi energy is     1.4256 ev

!    total energy              =   -2286.00343146 Ry
     Harris-Foulkes estimate   =   -2286.00342979 Ry
     estimated scf accuracy    <       0.00000037 Ry

     The total energy is the sum of the following terms:

     one-electron contribution =  -13425.48322344 Ry
     hartree contribution      =    6704.23433456 Ry
     xc contribution           =    -295.82114497 Ry
     ewald contribution        =    4731.16129597 Ry
     electric field correction =       0.00000000 Ry
     smearing contrib. (-TS)   =      -0.09469359 Ry

     convergence has been achieved in  16 iterations

 BEEF-vdW xc energy contributions
           1 :   -257.461302369005
           2 :    233.357260498792
           3 :   -192.691170686704
           4 :    146.932017955707
           5 :   -106.458252032084
           6 :    76.8016996112366
           7 :   -57.7881385942646
           8 :    45.4634545231702
           9 :   -35.2764649859587
          10 :    24.6247334135916
          11 :   -13.6038215322952
          12 :    4.01007930759528
          13 :    2.40750976059530
          14 :   -5.24705878187768
          15 :    5.61287503953150
[...]

     PseudoPot. # 1 for Zr read from file:
     /afs/slac.stanford.edu/u/if/mamunm/psp/gbrv1.5pbe/Zr.UPF
     MD5 check sum: 5db81b1e868ab7776c4564c113de050b
     Pseudo is Ultrasoft + core correction, Zval = 12.0
     Generated by new atomic code, or converted to UPF format
     Using radial grid of  887 points,  6 beta functions with:
                l(1) =   0
                l(2) =   0
                l(3) =   1
                l(4) =   1
                l(5) =   2
                l(6) =   2
     Q(r) pseudized with  6 coefficients,  rinner =    1.200   1.200   1.200
                                                       1.200   1.200

     PseudoPot. # 2 for Zn read from file:
     /afs/slac.stanford.edu/u/if/mamunm/psp/gbrv1.5pbe/Zn.UPF
     MD5 check sum: df62231357ef9e81f77b2b3087fa5675
     Pseudo is Ultrasoft, Zval = 20.0
     Generated by new atomic code, or converted to UPF format
     Using radial grid of  943 points,  6 beta functions with:
                l(1) =   0
                l(2) =   0
                l(3) =   1
                l(4) =   1
                l(5) =   2
                l(6) =   2
     Q(r) pseudized with  8 coefficients,  rinner =    1.100   1.100   1.100
                                                       1.100   1.100

     vdW kernel table read from file vdW_kernel_table
     MD5 check sum: 095c7af220d748ca6e76c0b4c6cfb241

     atomic species   valence    mass     pseudopotential
        Zr1           12.00    91.22400     Zr( 1.00)
        Zn1           20.00    65.38000     Zn( 1.00)

     No symmetry found

   Cartesian axes

     site n.     atom                  positions (alat units)
         1           Zr1 tau(   1) = (   0.0000000   0.0000000  10.0000000  )
         2           Zr1 tau(   2) = (  -1.5417570   2.6704014  10.0000000  )
         3           Zr1 tau(   3) = (   1.5417570   2.6704014  10.0000000  )
         4           Zn1 tau(   4) = (   3.0835139   0.0000000  10.0000000  )
         5           Zr1 tau(   5) = (   3.0835139   1.7802676  12.5176786  )
         6           Zr1 tau(   6) = (   1.5417570   4.4506690  12.5176786  )
         7           Zr1 tau(   7) = (  -1.5417570   4.4506690  12.5176786  )
         8           Zn1 tau(   8) = (   0.0000000   1.7802676  12.5176786  )
         9           Zr1 tau(   9) = (   0.0000110   3.5057757  14.9842939  )
        10           Zr1 tau(  10) = (   1.4943635   0.9174909  14.9842885  )
        11           Zr1 tau(  11) = (   4.6726659   0.9174809  14.9842805  )
        12           Zn1 tau(  12) = (   3.0835490   3.5605497  14.9566501  )

     number of k points=    20  Fermi-Dirac smearing, width (Ry)=  0.0110
                       cart. coord. in units 2pi/alat
        k(    1) = (   0.0000000   0.0000000   0.0000000), wk =   0.0555556
        k(    2) = (   0.0000000   0.0312063   0.0000000), wk =   0.1111111
        k(    3) = (   0.0000000   0.0624126   0.0000000), wk =   0.1111111
        k(    4) = (   0.0000000  -0.0936189   0.0000000), wk =   0.0555556
        k(    5) = (   0.0270254   0.0156031   0.0000000), wk =   0.1111111
        k(    6) = (   0.0270254   0.0468094   0.0000000), wk =   0.1111111
        k(    7) = (   0.0270254   0.0780157   0.0000000), wk =   0.1111111
        k(    8) = (   0.0270254  -0.0780157   0.0000000), wk =   0.1111111
        k(    9) = (   0.0270254  -0.0468094   0.0000000), wk =   0.1111111
        k(   10) = (   0.0270254  -0.0156031   0.0000000), wk =   0.1111111
        k(   11) = (   0.0540509   0.0312063   0.0000000), wk =   0.1111111
        k(   12) = (   0.0540509   0.0624126   0.0000000), wk =   0.1111111
        k(   13) = (   0.0540509   0.0936189   0.0000000), wk =   0.1111111
        k(   14) = (   0.0540509  -0.0624126   0.0000000), wk =   0.1111111
        k(   15) = (   0.0540509  -0.0312063   0.0000000), wk =   0.1111111
        k(   16) = (   0.0540509   0.0000000   0.0000000), wk =   0.1111111
        k(   17) = (  -0.0810763  -0.0468094   0.0000000), wk =   0.0555556
        k(   18) = (  -0.0810763  -0.0156031   0.0000000), wk =   0.1111111
        k(   19) = (  -0.0810763   0.0156031   0.0000000), wk =   0.1111111
        k(   20) = (  -0.0810763  -0.1404283   0.0000000), wk =   0.0555556

     Largest allocated arrays     est. size (Mb)     dimensions
     Largest temporary arrays     est. size (Mb)     dimensions

     Initial potential from superposition of free atoms
     Check: negative starting charge=   -0.551166

     starting charge  167.98023, renormalised to  168.00000

[...]

     *
     * You are using vdW-DF for exchange-correlation in this calculation.
     * Please cite the following three references that made this development
     * possible:
     *
     *   M. Dion, H. Rydberg, E. Schroder, D. C. Langreth, and
     *   B. I. Lundqvist, Phys. Rev. Lett. 92, 246401 (2004).
     *
     *   T. Thonhauser, V. R. Cooper, S. Li, A. Puzder, P. Hyldgaard, and
     *   D. C. Langreth, Phys. Rev. B 76, 125112 (2007).
     *
     *   G. Roman-Perez and J. M. Soler, Phys. Rev. Lett. 103, 096102 (2009).
     *
     *
     * If you are using vdW-DF2, please also cite:
     *
     *   K. Lee, E. D. Murray, L. Kong, B. I. Lundqvist, and
     *   D. C. Langreth, Phys. Rev. B 82, 081101(R) (2010).
     *
     *
     * If you are calculating the stress with vdW-DF, please also cite:
     *
     *   R. Sabatini, E. Kucukbenli, B. Kolb, T. Thonhauser, and
     *   S. de Gironcoli, J. Phys.: Condens. Matter 24, 424209 (2012).
     *

     Carrying out vdW-DF run using the following parameters:

     Nqs =      20    Nr_points =    1024   r_max =   100.000
     q_mesh =
               0.00001000     0.04494208     0.09755937     0.15916263
               0.23128650     0.31572767     0.41458969     0.53033537
               0.66584808     0.82450364     1.01025438     1.22772762
               1.48234092     1.78043706     2.12944203     2.53805004
               3.01644009     3.57652955     4.23227104     5.00000000

     Gradients computed in reciprocal space

[...]

     Starting wfc are  156 randomized atomic wfcs

     Self-consistent Calculation

[...]

     total energy              =   -2286.01447687 Ry
     Harris-Foulkes estimate   =   -2286.01447639 Ry
     estimated scf accuracy    <       0.00000119 Ry

     iteration # 17     ecut=    36.75 Ry     beta=0.10
     Davidson diagonalization with overlap
     ethr =  7.07E-10,  avg # of iterations =  2.0

[...]

     negative rho (up, down):  5.603E-01 0.000E+00

     Adding external electric field

     Computed dipole along edir(3) :
        Dipole                0.0110 Ry au,          0.0279 Debye
        Dipole field          0.0000 Ry au

        Potential amp.       -0.0023 Ry
        Total length         46.1272 bohr

     End of self-consistent calculation

[...]

          k = 0.0541 0.0000 0.0000 ( 20941 PWs)   bands (ev):

[...]

          k =-0.0811-0.1404 0.0000 ( 20896 PWs)   bands (ev):

  -124.6103-124.5810-124.3691 -78.7831 -78.7761 -78.7759 -78.7494 -78.7494
   -78.7493 -78.5354 -78.5323 -78.5322 -47.7635 -47.7284 -47.7269 -47.6921
   -47.6770 -47.6445 -47.3374 -47.3043 -47.2696 -26.0480 -26.0035 -25.9588
   -25.8951 -25.8783 -25.8263 -25.7884 -25.7815 -25.7670 -25.7440 -25.7434
   -25.7118 -25.6697 -25.6653 -25.6162 -25.6096 -25.5765 -25.3677 -25.3426
   -25.2968 -25.2963 -25.2662 -25.2071 -25.1551 -25.1423 -25.1350 -24.9554
    -5.5249  -5.4969  -5.4968  -5.4883  -5.4835  -5.4776  -5.4602  -5.4468
    -5.4456  -5.4400  -5.2898  -5.2663  -5.2651  -5.2487  -5.2302  -3.4401
    -3.3001  -2.6943  -1.7125  -1.2307  -0.9686  -0.5847  -0.4714   0.0578
     0.1941   0.3263   0.3485   0.3503   0.5886   0.6121   0.6809   0.8856
     1.0782   1.1570   1.3187   1.3621   1.3839   1.4465   1.6047   1.6345
     1.7607   1.8057   2.2817   2.2900   2.3954   2.4729   2.5829   2.7588
     3.0255   3.5796   3.6908   3.7933   3.7937   3.8839   4.0239   4.1135
     4.2064   4.2401   4.2974   4.4982   4.5360   4.5944   4.6842   4.9400
     5.2627   5.3884

     the Fermi energy is     1.4323 ev

!    total energy              =   -2286.01447849 Ry
     Harris-Foulkes estimate   =   -2286.01447701 Ry
     estimated scf accuracy    <       0.00000030 Ry

     The total energy is the sum of the following terms:

     one-electron contribution =  -13534.24346725 Ry
     hartree contribution      =    6758.71011740 Ry
     xc contribution           =    -295.90075459 Ry
     ewald contribution        =    4785.51358247 Ry
     electric field correction =       0.00000027 Ry
     smearing contrib. (-TS)   =      -0.09395680 Ry

     convergence has been achieved in  17 iterations

 BEEF-vdW xc energy contributions
           1 :   -257.747514350328
           2 :    233.672271645695
           3 :   -193.036187976324
           4 :    147.274762434691
           5 :   -106.753797932351
           6 :    77.0250923008394
           7 :   -57.9546345349657
           8 :    45.6205828153691
           9 :   -35.4727236103721
          10 :    24.8770087693550
          11 :   -13.8869163735384
          12 :    4.27599281393458
          13 :    2.19487172312523
          14 :   -5.08665718183153
          15 :    5.46810916232016
          16 :   -5.08960149072692
          17 :    5.25891446559206
          18 :   -6.20067283589731
          19 :    7.23412496807225
          20 :   -7.50663164385304
          21 :    6.68985359473606
          22 :   -5.17382924977471
          23 :    3.71760062458287
          24 :   -2.89746934859852
          25 :    2.77220943743214
          26 :   -2.95950260893625
          27 :    2.99568542653435
          28 :   -2.67685904347474
          29 :    2.14576434749762
          30 :   -1.71093709424571
          31 :   -25.3384479925543
          32 :   -18.3552608771328

     Forces acting on atoms (Ry/au):

     negative rho (up, down):  5.603E-01 0.000E+00
     atom    1 type  1   force =    -0.00000098    0.01697328    0.00366234
     atom    2 type  1   force =     0.01470229   -0.00848463    0.00365982
     atom    3 type  1   force =    -0.01470238   -0.00848366    0.00366036
     atom    4 type  2   force =    -0.00000227    0.00001429    0.00799170
     atom    5 type  1   force =     0.00000006    0.00186283   -0.00332262
     atom    6 type  1   force =     0.00161163   -0.00093154   -0.00332194
     atom    7 type  1   force =    -0.00161021   -0.00093096   -0.00332174
     atom    8 type  2   force =     0.00000192   -0.00000103   -0.00633351
     atom    9 type  1   force =     0.00000008    0.00172330   -0.00075325
     atom   10 type  1   force =     0.00148634   -0.00086164   -0.00075043
     atom   11 type  1   force =    -0.00148410   -0.00086067   -0.00074971
     atom   12 type  2   force =    -0.00000238   -0.00001957   -0.00042103

     Total force =     0.032601     Total SCF correction =     0.001593

     entering subroutine stress ...

     negative rho (up, down):  5.603E-01 0.000E+00
          total   stress  (Ry/bohr**3)                   (kbar)     P=   -8.69
  -0.00007307   0.00000000  -0.00000000        -10.75      0.00     -0.00
   0.00000000  -0.00007306  -0.00000000          0.00    -10.75     -0.00
  -0.00000000  -0.00000000  -0.00003110         -0.00     -0.00     -4.57

 !ASE

     Writing output data file calc.save

     General routines

     Parallel routines

   This run was terminated on:  23:33:28   2Jan2019

   JOB DONE.
Job  /afs/slac/g/suncat/bin/suncat-tsmpirun -x LD_LIBRARY_PATH -wdir /scratch/qe649580_kDXI9 pw.x -in pw.inp

TID   HOST_NAME   COMMAND_LINE            STATUS            TERMINATION_TIME
00000 suncat0027 pw.x -in pw.inp   Done                     01/02/2019 23:33:28
00001 suncat0027 pw.x -in pw.inp   Done                     01/02/2019 23:33:28
00002 suncat0027 pw.x -in pw.inp   Done                     01/02/2019 23:33:28
00003 suncat0027 pw.x -in pw.inp   Done                     01/02/2019 23:33:28
00004 suncat0027 pw.x -in pw.inp   Done                     01/02/2019 23:33:28
00005 suncat0027 pw.x -in pw.inp   Done                     01/02/2019 23:33:28
00006 suncat0027 pw.x -in pw.inp   Done                     01/02/2019 23:33:28
00007 suncat0027 pw.x -in pw.inp   Done                     01/02/2019 23:33:28
00008 suncat0026 pw.x -in pw.inp   Done                     01/02/2019 23:33:28
00009 suncat0026 pw.x -in pw.inp   Done                     01/02/2019 23:33:28
00010 suncat0026 pw.x -in pw.inp   Done                     01/02/2019 23:33:28
00011 suncat0026 pw.x -in pw.inp   Done                     01/02/2019 23:33:28
00012 suncat0026 pw.x -in pw.inp   Done                     01/02/2019 23:33:28
00013 suncat0026 pw.x -in pw.inp   Done                     01/02/2019 23:33:28
00014 suncat0026 pw.x -in pw.inp   Done                     01/02/2019 23:33:28
00015 suncat0026 pw.x -in pw.inp   Done                     01/02/2019 23:33:28
00016 suncat0192 pw.x -in pw.inp   Done                     01/02/2019 23:33:28
00017 suncat0192 pw.x -in pw.inp   Done                     01/02/2019 23:33:28
00018 suncat0192 pw.x -in pw.inp   Done                     01/02/2019 23:33:28
00019 suncat0192 pw.x -in pw.inp   Done                     01/02/2019 23:33:28
00020 suncat0192 pw.x -in pw.inp   Done                     01/02/2019 23:33:28
00021 suncat0192 pw.x -in pw.inp   Done                     01/02/2019 23:33:28
00022 suncat0192 pw.x -in pw.inp   Done                     01/02/2019 23:33:28
00023 suncat0192 pw.x -in pw.inp   Done                     01/02/2019 23:33:28
00024 suncat0185 pw.x -in pw.inp   Done                     01/02/2019 23:33:28
00025 suncat0185 pw.x -in pw.inp   Done                     01/02/2019 23:33:28
00026 suncat0185 pw.x -in pw.inp   Done                     01/02/2019 23:33:28
00027 suncat0185 pw.x -in pw.inp   Done                     01/02/2019 23:33:28
00028 suncat0185 pw.x -in pw.inp   Done                     01/02/2019 23:33:28
00029 suncat0185 pw.x -in pw.inp   Done                     01/02/2019 23:33:28
00030 suncat0185 pw.x -in pw.inp   Done                     01/02/2019 23:33:28
00031 suncat0185 pw.x -in pw.inp   Done                     01/02/2019 23:33:28
00032 suncat0184 pw.x -in pw.inp   Done                     01/02/2019 23:33:28
00033 suncat0184 pw.x -in pw.inp   Done                     01/02/2019 23:33:28
00034 suncat0184 pw.x -in pw.inp   Done                     01/02/2019 23:33:28
00035 suncat0184 pw.x -in pw.inp   Done                     01/02/2019 23:33:28
00036 suncat0184 pw.x -in pw.inp   Done                     01/02/2019 23:33:28
00037 suncat0184 pw.x -in pw.inp   Done                     01/02/2019 23:33:28
00038 suncat0184 pw.x -in pw.inp   Done                     01/02/2019 23:33:28
00039 suncat0184 pw.x -in pw.inp   Done                     01/02/2019 23:33:28
00040 suncat0183 pw.x -in pw.inp   Done                     01/02/2019 23:33:28
00041 suncat0183 pw.x -in pw.inp   Done                     01/02/2019 23:33:28
00042 suncat0183 pw.x -in pw.inp   Done                     01/02/2019 23:33:28
00043 suncat0183 pw.x -in pw.inp   Done                     01/02/2019 23:33:28
00044 suncat0183 pw.x -in pw.inp   Done                     01/02/2019 23:33:28
00045 suncat0183 pw.x -in pw.inp   Done                     01/02/2019 23:33:28
00046 suncat0183 pw.x -in pw.inp   Done                     01/02/2019 23:33:28
00047 suncat0183 pw.x -in pw.inp   Done                     01/02/2019 23:33:28
00048 suncat0172 pw.x -in pw.inp   Done                     01/02/2019 23:33:28
00049 suncat0172 pw.x -in pw.inp   Done                     01/02/2019 23:33:28
00050 suncat0172 pw.x -in pw.inp   Done                     01/02/2019 23:33:28
00051 suncat0172 pw.x -in pw.inp   Done                     01/02/2019 23:33:28
00052 suncat0172 pw.x -in pw.inp   Done                     01/02/2019 23:33:28
00053 suncat0172 pw.x -in pw.inp   Done                     01/02/2019 23:33:28
00054 suncat0172 pw.x -in pw.inp   Done                     01/02/2019 23:33:28
00055 suncat0172 pw.x -in pw.inp   Done                     01/02/2019 23:33:28
00056 suncat0171 pw.x -in pw.inp   Done                     01/02/2019 23:33:28
00057 suncat0171 pw.x -in pw.inp   Done                     01/02/2019 23:33:28
00058 suncat0171 pw.x -in pw.inp   Done                     01/02/2019 23:33:28
00059 suncat0171 pw.x -in pw.inp   Done                     01/02/2019 23:33:28
00060 suncat0171 pw.x -in pw.inp   Done                     01/02/2019 23:33:28
00061 suncat0171 pw.x -in pw.inp   Done                     01/02/2019 23:33:28
00062 suncat0171 pw.x -in pw.inp   Done                     01/02/2019 23:33:28
00063 suncat0171 pw.x -in pw.inp   Done                     01/02/2019 23:33:28