     Program PWSCF v.5.1rc2 (svn rev. 11289) starts on 30Dec2018 at 11:21:14

     Current dimensions of program PWSCF are:
     Max number of different atomic species (ntypx) = 10
     Max number of k-points (npk) =  40000
     Max angular momentum in pseudopotentials (lmaxx) =  3
     Presently stress not available with electric field

     IMPORTANT: XC functional enforced from input :
     Exchange-correlation      = BEEF-VDW ( 1  4 27 13 2)
     Any further DFT definition will be discarded
     Please, verify this is what you really want

     Subspace diagonalization in iterative solution of the eigenvalue problem:
     a serial algorithm will be used

     bravais-lattice index     =            0
     lattice parameter (alat)  =       1.8897  a.u.
     unit-cell volume          =    4625.1195 (a.u.)^3
     number of atoms/cell      =           12
     number of atomic types    =            2
     number of electrons       =       171.00
     number of Kohn-Sham states=          115
     kinetic-energy cutoff     =      36.7493  Ry
     charge density cutoff     =     367.4932  Ry
     convergence threshold     =      1.0E-06
     mixing beta               =       0.1000
     number of iterations used =           10  plain     mixing
     Exchange-correlation      = BEEF-VDW ( 1  4 27 13 2)
     nstep                     =           50

     celldm(1)=   1.889726  celldm(2)=   0.000000  celldm(3)=   0.000000
     celldm(4)=   0.000000  celldm(5)=   0.000000  celldm(6)=   0.000000

     crystal axes: (cart. coord. in units of alat)
               a(1) = (   5.668648   0.000000   0.000000 )
               a(2) = (  -2.834324   4.909193   0.000000 )
               a(3) = (   0.000000   0.000000  24.628432 )

     reciprocal axes: (cart. coord. in units 2 pi/alat)
               b(1) = (  0.176409  0.101850  0.000000 )
               b(2) = (  0.000000  0.203699  0.000000 )
               b(3) = (  0.000000  0.000000  0.040603 )

     PseudoPot. # 1 for Ir read from file:
     /afs/slac.stanford.edu/u/if/mamunm/psp/gbrv1.5pbe/Ir.UPF
     MD5 check sum: 8836f839c3459d2b385c504ce6d91f2c
     Pseudo is Ultrasoft + core correction, Zval = 15.0
     Generated by new atomic code, or converted to UPF format
     Using radial grid of  983 points,  7 beta functions with:
                l(1) =   0
                l(2) =   0
                l(3) =   1
                l(4) =   1
                l(5) =   1
                l(6) =   2
                l(7) =   2
     Q(r) pseudized with  8 coefficients,  rinner =    1.400   1.400   1.400
                                                       1.400   1.400

     PseudoPot. # 2 for Hg read from file:
     /afs/slac.stanford.edu/u/if/mamunm/psp/gbrv1.5pbe/Hg.UPF
     MD5 check sum: 8f42caffe07f7fd9c0a564347f8c5498
     Pseudo is Ultrasoft + core correction, Zval = 12.0
     Generated by new atomic code, or converted to UPF format
     Using radial grid of  985 points,  6 beta functions with:
                l(1) =   0
                l(2) =   0
                l(3) =   1
                l(4) =   1
                l(5) =   2
                l(6) =   2
     Q(r) pseudized with  8 coefficients,  rinner =    2.000   2.000   2.000
                                                       2.000   2.000

     vdW kernel table read from file vdW_kernel_table
     MD5 check sum: 095c7af220d748ca6e76c0b4c6cfb241

     atomic species   valence    mass     pseudopotential
        Ir1           15.00   192.21700     Ir( 1.00)
        Hg1           12.00   200.59200     Hg( 1.00)

     No symmetry found

   Cartesian axes

     site n.     atom                  positions (alat units)
         1           Ir1 tau(   1) = (   0.0000000   0.0000000  10.0000000  )
         2           Ir1 tau(   2) = (  -1.4171620   2.4545966  10.0000000  )
         3           Ir1 tau(   3) = (   1.4171620   2.4545966  10.0000000  )
         4           Hg1 tau(   4) = (   2.8343240   0.0000000  10.0000000  )
         5           Ir1 tau(   5) = (   2.8343240   1.6363977  12.3142158  )
         6           Ir1 tau(   6) = (   1.4171620   4.0909943  12.3142158  )
         7           Ir1 tau(   7) = (  -1.4171620   4.0909943  12.3142158  )
         8           Hg1 tau(   8) = (   0.0000000   1.6363977  12.3142158  )
         9           Ir1 tau(   9) = (  -0.0000000   3.2727954  14.6284316  )
        10           Ir1 tau(  10) = (   1.4171620   0.8181989  14.6284316  )
        11           Ir1 tau(  11) = (   4.2514859   0.8181989  14.6284316  )
        12           Hg1 tau(  12) = (   2.8343240   3.2727954  14.6284316  )

     number of k points=    20  Fermi-Dirac smearing, width (Ry)=  0.0110
                       cart. coord. in units 2pi/alat
        k(    1) = (   0.0000000   0.0000000   0.0000000), wk =   0.0555556
        k(    2) = (   0.0000000   0.0339499   0.0000000), wk =   0.1111111
        k(    3) = (   0.0000000   0.0678998   0.0000000), wk =   0.1111111
        k(    4) = (   0.0000000  -0.1018497   0.0000000), wk =   0.0555556
        k(    5) = (   0.0294015   0.0169750   0.0000000), wk =   0.1111111
        k(    6) = (   0.0294015   0.0509249   0.0000000), wk =   0.1111111
        k(    7) = (   0.0294015   0.0848748   0.0000000), wk =   0.1111111
        k(    8) = (   0.0294015  -0.0848748   0.0000000), wk =   0.1111111
        k(    9) = (   0.0294015  -0.0509249   0.0000000), wk =   0.1111111
        k(   10) = (   0.0294015  -0.0169750   0.0000000), wk =   0.1111111
        k(   11) = (   0.0588030   0.0339499   0.0000000), wk =   0.1111111
        k(   12) = (   0.0588030   0.0678998   0.0000000), wk =   0.1111111
        k(   13) = (   0.0588030   0.1018497   0.0000000), wk =   0.1111111
        k(   14) = (   0.0588030  -0.0678998   0.0000000), wk =   0.1111111
        k(   15) = (   0.0588030  -0.0339499   0.0000000), wk =   0.1111111
        k(   16) = (   0.0588030   0.0000000   0.0000000), wk =   0.1111111
        k(   17) = (  -0.0882045  -0.0509249   0.0000000), wk =   0.0555556
        k(   18) = (  -0.0882045  -0.0169750   0.0000000), wk =   0.1111111
        k(   19) = (  -0.0882045   0.0169750   0.0000000), wk =   0.1111111
        k(   20) = (  -0.0882045  -0.1527746   0.0000000), wk =   0.0555556

     Largest allocated arrays     est. size (Mb)     dimensions
     Largest temporary arrays     est. size (Mb)     dimensions

     Initial potential from superposition of free atoms
     Check: negative starting charge=   -3.302095

     starting charge  166.49954, renormalised to  171.00000

     negative rho (up, down):  3.391E+00 0.000E+00

     *
     * You are using vdW-DF for exchange-correlation in this calculation.
     * Please cite the following three references that made this development
     * possible:
     *
     *   M. Dion, H. Rydberg, E. Schroder, D. C. Langreth, and
     *   B. I. Lundqvist, Phys. Rev. Lett. 92, 246401 (2004).
     *
     *   T. Thonhauser, V. R. Cooper, S. Li, A. Puzder, P. Hyldgaard, and
     *   D. C. Langreth, Phys. Rev. B 76, 125112 (2007).
     *
     *   G. Roman-Perez and J. M. Soler, Phys. Rev. Lett. 103, 096102 (2009).
     *
     *
     * If you are using vdW-DF2, please also cite:
     *
     *   K. Lee, E. D. Murray, L. Kong, B. I. Lundqvist, and
     *   D. C. Langreth, Phys. Rev. B 82, 081101(R) (2010).
     *
     *
     * If you are calculating the stress with vdW-DF, please also cite:
     *
     *   R. Sabatini, E. Kucukbenli, B. Kolb, T. Thonhauser, and
     *   S. de Gironcoli, J. Phys.: Condens. Matter 24, 424209 (2012).
     *

     Carrying out vdW-DF run using the following parameters:

     Nqs =      20    Nr_points =    1024   r_max =   100.000
     q_mesh =
               0.00001000     0.04494208     0.09755937     0.15916263
               0.23128650     0.31572767     0.41458969     0.53033537
               0.66584808     0.82450364     1.01025438     1.22772762
               1.48234092     1.78043706     2.12944203     2.53805004
               3.01644009     3.57652955     4.23227104     5.00000000

     Gradients computed in reciprocal space

     Adding external electric field

     Computed dipole along edir(3) :
        Dipole                0.0000 Ry au,          0.0000 Debye
        Dipole field          0.0000 Ry au

        Potential amp.       -0.0000 Ry
        Total length         45.3775 bohr

     Starting wfc are  135 randomized atomic wfcs

     Self-consistent Calculation

     iteration #  1     ecut=    36.75 Ry     beta=0.10
     Davidson diagonalization with overlap
     ethr =  1.00E-02,  avg # of iterations =  8.1

[...]

     total energy              =   -1977.19617202 Ry
     Harris-Foulkes estimate   =   -1978.46220204 Ry
     estimated scf accuracy    <       8.22627285 Ry

[...]

     End of self-consistent calculation

          k = 0.0000 0.0000 0.0000 ( 17471 PWs)   bands (ev):

   -47.5117 -47.4132 -47.4132 -47.3313 -47.3313 -47.3242 -47.2456 -47.2377
   -47.2202 -47.1053 -47.1053 -47.0943 -47.0943 -47.0678 -47.0678 -46.9251
   -46.9251 -46.9176 -46.9174 -46.9161 -46.9160 -46.9124 -46.8872 -46.8545
   -46.8544 -46.8447 -46.8447  -7.4983  -6.3578  -6.3578  -6.3111  -6.2341
    -6.2341  -6.2195  -5.9266  -5.9266  -5.9043  -5.9043  -5.8431  -5.3273
    -5.3273  -5.2877  -5.2877  -4.9930  -4.7159  -4.0109  -3.4093  -2.9694
    -2.2695  -2.2695  -2.2614  -1.9659  -1.9659  -1.8913  -1.6291  -1.6291
    -1.3088  -1.3088  -0.9940  -0.9940  -0.8027  -0.8006  -0.8006  -0.5611
    -0.2311  -0.1991  -0.1991   0.3135   0.4631   0.4632   0.9769   1.0549
     1.1703   1.1703   1.4178   1.4178   1.4444   1.4445   1.6144   1.6144
     1.7403   1.7403   1.9232   1.9233   2.0117   2.3382   2.3918   2.3918
     2.4039   2.4039   2.8276   2.8656   3.1614   3.2234   3.8857   3.8930
     4.3655   4.3656   4.5014   4.5015   5.9603   6.1971   6.2220   6.4901
     6.7501   7.5194   7.5400   7.5400   7.6414   7.6414   7.7063   8.4759
     8.5044   8.5044  10.0066

[...]

          k =-0.0882-0.0509 0.0000 ( 17388 PWs)   bands (ev):

[...]

     the Fermi energy is     1.7146 ev

!    total energy              =   -1976.67981901 Ry
     Harris-Foulkes estimate   =   -1976.67980978 Ry
     estimated scf accuracy    <       0.00000089 Ry

     The total energy is the sum of the following terms:

     one-electron contribution =  -15346.37047745 Ry
     hartree contribution      =    7719.44241942 Ry
     xc contribution           =    -589.01365763 Ry
     ewald contribution        =    6239.35452360 Ry
     electric field correction =       0.00000000 Ry
     smearing contrib. (-TS)   =      -0.09262695 Ry

     convergence has been achieved in  16 iterations

 BEEF-vdW xc energy contributions
           1 :   -520.406803558044
           2 :    483.099838872701
           3 :   -416.710777411055
           4 :    334.805772743905
           5 :   -252.084861484886
           6 :    180.428664747266
           7 :   -126.349460570306
           8 :    90.4229945877373
           9 :   -68.6165302114703
          10 :    54.7867430776156
          11 :   -43.3041404252081
          12 :    30.8593318009256
          13 :   -16.9726602911678
          14 :    3.29661925699588
[...]
     /afs/slac.stanford.edu/u/if/mamunm/psp/gbrv1.5pbe/Ir.UPF
     MD5 check sum: 8836f839c3459d2b385c504ce6d91f2c
     Pseudo is Ultrasoft + core correction, Zval = 15.0
     Generated by new atomic code, or converted to UPF format
     Using radial grid of  983 points,  7 beta functions with:
                l(1) =   0
                l(2) =   0
                l(3) =   1
                l(4) =   1
                l(5) =   1
                l(6) =   2
                l(7) =   2
     Q(r) pseudized with  8 coefficients,  rinner =    1.400   1.400   1.400
                                                       1.400   1.400

     PseudoPot. # 2 for Hg read from file:
     /afs/slac.stanford.edu/u/if/mamunm/psp/gbrv1.5pbe/Hg.UPF
     MD5 check sum: 8f42caffe07f7fd9c0a564347f8c5498
     Pseudo is Ultrasoft + core correction, Zval = 12.0
     Generated by new atomic code, or converted to UPF format
     Using radial grid of  985 points,  6 beta functions with:
                l(1) =   0
                l(2) =   0
                l(3) =   1
                l(4) =   1
                l(5) =   2
                l(6) =   2
     Q(r) pseudized with  8 coefficients,  rinner =    2.000   2.000   2.000
                                                       2.000   2.000

     vdW kernel table read from file vdW_kernel_table
     MD5 check sum: 095c7af220d748ca6e76c0b4c6cfb241

     atomic species   valence    mass     pseudopotential
        Ir1           15.00   192.21700     Ir( 1.00)
        Hg1           12.00   200.59200     Hg( 1.00)

     No symmetry found

   Cartesian axes

     site n.     atom                  positions (alat units)
         1           Ir1 tau(   1) = (   0.0000000   0.0000000  10.0000000  )
         2           Ir1 tau(   2) = (  -1.4171620   2.4545966  10.0000000  )
         3           Ir1 tau(   3) = (   1.4171620   2.4545966  10.0000000  )
         4           Hg1 tau(   4) = (   2.8343240   0.0000000  10.0000000  )
         5           Ir1 tau(   5) = (   2.8343240   1.6363977  12.3142158  )
         6           Ir1 tau(   6) = (   1.4171620   4.0909943  12.3142158  )
         7           Ir1 tau(   7) = (  -1.4171620   4.0909943  12.3142158  )
         8           Hg1 tau(   8) = (   0.0000000   1.6363977  12.3142158  )
         9           Ir1 tau(   9) = (   0.0000285   3.3386256  14.4838004  )
        10           Ir1 tau(  10) = (   1.4741501   0.7852619  14.4838134  )
        11           Ir1 tau(  11) = (   4.1945076   0.7852344  14.4838049  )
        12           Hg1 tau(  12) = (   2.8343309   3.2727895  15.1527911  )

     number of k points=    20  Fermi-Dirac smearing, width (Ry)=  0.0110
                       cart. coord. in units 2pi/alat
        k(    1) = (   0.0000000   0.0000000   0.0000000), wk =   0.0555556
        k(    2) = (   0.0000000   0.0339499   0.0000000), wk =   0.1111111
        k(    3) = (   0.0000000   0.0678998   0.0000000), wk =   0.1111111
        k(    4) = (   0.0000000  -0.1018497   0.0000000), wk =   0.0555556
        k(    5) = (   0.0294015   0.0169750   0.0000000), wk =   0.1111111
        k(    6) = (   0.0294015   0.0509249   0.0000000), wk =   0.1111111
        k(    7) = (   0.0294015   0.0848748   0.0000000), wk =   0.1111111
        k(    8) = (   0.0294015  -0.0848748   0.0000000), wk =   0.1111111
        k(    9) = (   0.0294015  -0.0509249   0.0000000), wk =   0.1111111
        k(   10) = (   0.0294015  -0.0169750   0.0000000), wk =   0.1111111
        k(   11) = (   0.0588030   0.0339499   0.0000000), wk =   0.1111111
        k(   12) = (   0.0588030   0.0678998   0.0000000), wk =   0.1111111
        k(   13) = (   0.0588030   0.1018497   0.0000000), wk =   0.1111111
        k(   14) = (   0.0588030  -0.0678998   0.0000000), wk =   0.1111111
        k(   15) = (   0.0588030  -0.0339499   0.0000000), wk =   0.1111111
        k(   16) = (   0.0588030   0.0000000   0.0000000), wk =   0.1111111
        k(   17) = (  -0.0882045  -0.0509249   0.0000000), wk =   0.0555556
        k(   18) = (  -0.0882045  -0.0169750   0.0000000), wk =   0.1111111
        k(   19) = (  -0.0882045   0.0169750   0.0000000), wk =   0.1111111
        k(   20) = (  -0.0882045  -0.1527746   0.0000000), wk =   0.0555556

     Largest allocated arrays     est. size (Mb)     dimensions
     Largest temporary arrays     est. size (Mb)     dimensions

     Initial potential from superposition of free atoms
     Check: negative starting charge=   -3.290741

     starting charge  166.49954, renormalised to  171.00000

[...]

     *
     * You are using vdW-DF for exchange-correlation in this calculation.
     * Please cite the following three references that made this development
     * possible:
     *
     *   M. Dion, H. Rydberg, E. Schroder, D. C. Langreth, and
     *   B. I. Lundqvist, Phys. Rev. Lett. 92, 246401 (2004).
     *
     *   T. Thonhauser, V. R. Cooper, S. Li, A. Puzder, P. Hyldgaard, and
     *   D. C. Langreth, Phys. Rev. B 76, 125112 (2007).
     *
     *   G. Roman-Perez and J. M. Soler, Phys. Rev. Lett. 103, 096102 (2009).
     *
     *
     * If you are using vdW-DF2, please also cite:
     *
     *   K. Lee, E. D. Murray, L. Kong, B. I. Lundqvist, and
     *   D. C. Langreth, Phys. Rev. B 82, 081101(R) (2010).
     *
     *
     * If you are calculating the stress with vdW-DF, please also cite:
     *
     *   R. Sabatini, E. Kucukbenli, B. Kolb, T. Thonhauser, and
     *   S. de Gironcoli, J. Phys.: Condens. Matter 24, 424209 (2012).
     *

     Carrying out vdW-DF run using the following parameters:

     Nqs =      20    Nr_points =    1024   r_max =   100.000
     q_mesh =
               0.00001000     0.04494208     0.09755937     0.15916263
               0.23128650     0.31572767     0.41458969     0.53033537
               0.66584808     0.82450364     1.01025438     1.22772762
               1.48234092     1.78043706     2.12944203     2.53805004
               3.01644009     3.57652955     4.23227104     5.00000000

     Gradients computed in reciprocal space

[...]

     Starting wfc are  135 randomized atomic wfcs

     Self-consistent Calculation

[...]

     total energy              =   -1976.73289231 Ry
     Harris-Foulkes estimate   =   -1976.73288783 Ry
     estimated scf accuracy    <       0.00000173 Ry

     iteration # 18     ecut=    36.75 Ry     beta=0.10
     Davidson diagonalization with overlap
     ethr =  1.01E-09,  avg # of iterations =  2.4

[...]

     negative rho (up, down):  2.974E+00 0.000E+00

     Adding external electric field

     Computed dipole along edir(3) :
        Dipole                0.0549 Ry au,          0.1395 Debye
        Dipole field          0.0001 Ry au

        Potential amp.       -0.0135 Ry
        Total length         45.3775 bohr

     End of self-consistent calculation

[...]

          k = 0.0588 0.0000 0.0000 ( 17423 PWs)   bands (ev):

[...]

          k =-0.0882-0.1528 0.0000 ( 17388 PWs)   bands (ev):

   -47.4898 -47.4287 -47.3852 -47.3650 -47.3252 -47.2806 -47.2061 -47.1943
   -47.1423 -47.0733 -47.0589 -47.0536 -47.0137 -46.9821 -46.9583 -46.9575
   -46.9455 -46.9273 -46.9269 -46.9092 -46.9033 -46.8921 -46.8752 -46.8123
   -46.7777 -46.7647 -46.7462  -6.3413  -6.0231  -6.0220  -5.9588  -5.8214
    -5.7784  -5.5749  -5.4643  -5.4466  -5.2491  -5.2231  -5.1629  -4.9449
    -4.8765  -4.8093  -4.7730  -4.7348  -3.8809  -3.5042  -3.4712  -3.2108
    -2.8301  -2.7203  -2.2998  -2.0365  -2.0174  -1.8706  -1.7590  -1.6452
    -1.5652  -1.5398  -1.4915  -0.9862  -0.9549  -0.8906  -0.8339  -0.7264
    -0.5638  -0.5368  -0.4901  -0.4457  -0.2954  -0.2418  -0.0517   0.0734
     0.1129   0.2271   0.3357   0.5063   0.6967   0.7716   0.9742   0.9851
     1.0418   1.1610   1.2315   1.2520   1.3350   1.4503   1.5832   1.7991
     2.1226   2.5002   2.6234   2.9437   2.9992   3.1718   4.0544   4.5479
     4.9758   5.2562   5.8674   6.0200   6.4156   7.3178   7.4544   8.0711
     8.1131   8.1657   8.2170   8.3419   8.7027   8.9869   9.0074   9.2130
     9.2765   9.3927   9.4608

     the Fermi energy is     1.7855 ev

!    total energy              =   -1976.73289866 Ry
     Harris-Foulkes estimate   =   -1976.73289224 Ry
     estimated scf accuracy    <       0.00000026 Ry

     The total energy is the sum of the following terms:

     one-electron contribution =  -15334.67438767 Ry
     hartree contribution      =    7713.94967055 Ry
     xc contribution           =    -589.05341588 Ry
     ewald contribution        =    6233.13509497 Ry
     electric field correction =       0.00000818 Ry
     smearing contrib. (-TS)   =      -0.08986880 Ry

     convergence has been achieved in  18 iterations

 BEEF-vdW xc energy contributions
           1 :   -520.733545415293
           2 :    483.402251740495
           3 :   -416.986716340816
           4 :    335.072670418494
           5 :   -252.357117397671
           6 :    180.697667293291
           7 :   -126.582437135549
           8 :    90.5828722053676
           9 :   -68.6915213332153
          10 :    54.8109596170270
          11 :   -43.3537123964406
          12 :    31.0209995576246
          13 :   -17.2984679314379
          14 :    3.76948400017352
          15 :    7.22674714281243
          16 :   -13.9355894289145
          17 :    15.9970055953805
          18 :   -14.5040461522379
          19 :    11.4233135247886
          20 :   -8.73384624532184
          21 :    7.68791007399398
          22 :   -8.47728134666249
          23 :    10.3748187004693
          24 :   -12.2222400853410
          25 :    13.0127825784328
          26 :   -12.3160076670863
          27 :    10.3907220433412
          28 :   -7.98538471566610
          29 :    5.95462824138519
          30 :   -4.88245486927406
          31 :   -45.3279881643014
          32 :   -33.8301894921548

     Forces acting on atoms (Ry/au):

     negative rho (up, down):  2.974E+00 0.000E+00
     atom    1 type  1   force =    -0.00000069   -0.01797205    0.02441882
     atom    2 type  1   force =    -0.01556488    0.00898656    0.02441891
     atom    3 type  1   force =     0.01556462    0.00898656    0.02441865
     atom    4 type  2   force =     0.00000061    0.00000030   -0.06994520
     atom    5 type  1   force =     0.00000030    0.03086955    0.00746765
     atom    6 type  1   force =     0.02673788   -0.01543736    0.00745834
     atom    7 type  1   force =    -0.02673500   -0.01543620    0.00746328
     atom    8 type  2   force =    -0.00000087    0.00000032   -0.02669865
     atom    9 type  1   force =    -0.00000433    0.00050293    0.00016331
     atom   10 type  1   force =     0.00044030   -0.00024686    0.00016094
     atom   11 type  1   force =    -0.00044217   -0.00024281    0.00016193
     atom   12 type  2   force =     0.00000423   -0.00001093    0.00051203

     Total force =     0.106726     Total SCF correction =     0.001670

     entering subroutine stress ...

     negative rho (up, down):  2.974E+00 0.000E+00
          total   stress  (Ry/bohr**3)                   (kbar)     P=  -23.82
  -0.00022624   0.00000000  -0.00000000        -33.28      0.00     -0.00
   0.00000000  -0.00022624  -0.00000000          0.00    -33.28     -0.00
  -0.00000000  -0.00000000  -0.00003322         -0.00     -0.00     -4.89

 !ASE

     Writing output data file calc.save

     General routines

     Parallel routines

   This run was terminated on:  13: 7: 4  30Dec2018

   JOB DONE.
Job  /afs/slac/g/suncat/bin/suncat-tsmpirun -x LD_LIBRARY_PATH -wdir /scratch/qe648535_SdHui pw.x -in pw.inp

TID   HOST_NAME   COMMAND_LINE            STATUS            TERMINATION_TIME
00000 suncat0077 pw.x -in pw.inp   Done                     12/30/2018 13:07:04
00001 suncat0077 pw.x -in pw.inp   Done                     12/30/2018 13:07:04
00002 suncat0077 pw.x -in pw.inp   Done                     12/30/2018 13:07:04
00003 suncat0077 pw.x -in pw.inp   Done                     12/30/2018 13:07:04
00004 suncat0077 pw.x -in pw.inp   Done                     12/30/2018 13:07:04
00005 suncat0077 pw.x -in pw.inp   Done                     12/30/2018 13:07:04
00006 suncat0077 pw.x -in pw.inp   Done                     12/30/2018 13:07:04
00007 suncat0077 pw.x -in pw.inp   Done                     12/30/2018 13:07:04
00008 suncat0069 pw.x -in pw.inp   Done                     12/30/2018 13:07:04
00009 suncat0069 pw.x -in pw.inp   Done                     12/30/2018 13:07:04
00010 suncat0069 pw.x -in pw.inp   Done                     12/30/2018 13:07:04
00011 suncat0069 pw.x -in pw.inp   Done                     12/30/2018 13:07:04
00012 suncat0069 pw.x -in pw.inp   Done                     12/30/2018 13:07:04
00013 suncat0069 pw.x -in pw.inp   Done                     12/30/2018 13:07:04
00014 suncat0069 pw.x -in pw.inp   Done                     12/30/2018 13:07:04
00015 suncat0069 pw.x -in pw.inp   Done                     12/30/2018 13:07:04
00016 suncat0066 pw.x -in pw.inp   Done                     12/30/2018 13:07:04
00017 suncat0066 pw.x -in pw.inp   Done                     12/30/2018 13:07:04
00018 suncat0066 pw.x -in pw.inp   Done                     12/30/2018 13:07:04
00019 suncat0066 pw.x -in pw.inp   Done                     12/30/2018 13:07:04
00020 suncat0066 pw.x -in pw.inp   Done                     12/30/2018 13:07:04
00021 suncat0066 pw.x -in pw.inp   Done                     12/30/2018 13:07:04
00022 suncat0066 pw.x -in pw.inp   Done                     12/30/2018 13:07:04
00023 suncat0066 pw.x -in pw.inp   Done                     12/30/2018 13:07:04
00024 suncat0053 pw.x -in pw.inp   Done                     12/30/2018 13:07:04
00025 suncat0053 pw.x -in pw.inp   Done                     12/30/2018 13:07:04
00026 suncat0053 pw.x -in pw.inp   Done                     12/30/2018 13:07:04
00027 suncat0053 pw.x -in pw.inp   Done                     12/30/2018 13:07:04
00028 suncat0053 pw.x -in pw.inp   Done                     12/30/2018 13:07:04
00029 suncat0053 pw.x -in pw.inp   Done                     12/30/2018 13:07:04
00030 suncat0053 pw.x -in pw.inp   Done                     12/30/2018 13:07:04
00031 suncat0053 pw.x -in pw.inp   Done                     12/30/2018 13:07:04
00032 suncat0163 pw.x -in pw.inp   Done                     12/30/2018 13:07:04
00033 suncat0163 pw.x -in pw.inp   Done                     12/30/2018 13:07:04
00034 suncat0163 pw.x -in pw.inp   Done                     12/30/2018 13:07:04
00035 suncat0163 pw.x -in pw.inp   Done                     12/30/2018 13:07:04
00036 suncat0163 pw.x -in pw.inp   Done                     12/30/2018 13:07:04
00037 suncat0163 pw.x -in pw.inp   Done                     12/30/2018 13:07:04
00038 suncat0163 pw.x -in pw.inp   Done                     12/30/2018 13:07:04
00039 suncat0163 pw.x -in pw.inp   Done                     12/30/2018 13:07:04
00040 suncat0162 pw.x -in pw.inp   Done                     12/30/2018 13:07:04
00041 suncat0162 pw.x -in pw.inp   Done                     12/30/2018 13:07:04
00042 suncat0162 pw.x -in pw.inp   Done                     12/30/2018 13:07:04
00043 suncat0162 pw.x -in pw.inp   Done                     12/30/2018 13:07:04
00044 suncat0162 pw.x -in pw.inp   Done                     12/30/2018 13:07:04
00045 suncat0162 pw.x -in pw.inp   Done                     12/30/2018 13:07:04
00046 suncat0162 pw.x -in pw.inp   Done                     12/30/2018 13:07:04
00047 suncat0162 pw.x -in pw.inp   Done                     12/30/2018 13:07:04
00048 suncat0147 pw.x -in pw.inp   Done                     12/30/2018 13:07:04
00049 suncat0147 pw.x -in pw.inp   Done                     12/30/2018 13:07:04
00050 suncat0147 pw.x -in pw.inp   Done                     12/30/2018 13:07:04
00051 suncat0147 pw.x -in pw.inp   Done                     12/30/2018 13:07:04
00052 suncat0147 pw.x -in pw.inp   Done                     12/30/2018 13:07:04
00053 suncat0147 pw.x -in pw.inp   Done                     12/30/2018 13:07:04
00054 suncat0147 pw.x -in pw.inp   Done                     12/30/2018 13:07:04
00055 suncat0147 pw.x -in pw.inp   Done                     12/30/2018 13:07:04
00056 suncat0138 pw.x -in pw.inp   Done                     12/30/2018 13:07:04
00057 suncat0138 pw.x -in pw.inp   Done                     12/30/2018 13:07:04
00058 suncat0138 pw.x -in pw.inp   Done                     12/30/2018 13:07:04
00059 suncat0138 pw.x -in pw.inp   Done                     12/30/2018 13:07:04
00060 suncat0138 pw.x -in pw.inp   Done                     12/30/2018 13:07:04
00061 suncat0138 pw.x -in pw.inp   Done                     12/30/2018 13:07:04
00062 suncat0138 pw.x -in pw.inp   Done                     12/30/2018 13:07:04
00063 suncat0138 pw.x -in pw.inp   Done                     12/30/2018 13:07:04