     Program PWSCF v.5.1rc2 (svn rev. 11289) starts on 25Dec2018 at 23:48:17

     Current dimensions of program PWSCF are:
     Max number of different atomic species (ntypx) = 10
     Max number of k-points (npk) =  40000
     Max angular momentum in pseudopotentials (lmaxx) =  3
     Presently stress not available with electric field

     IMPORTANT: XC functional enforced from input :
     Exchange-correlation      = BEEF-VDW ( 1  4 27 13 2)
     Any further DFT definition will be discarded
     Please, verify this is what you really want

     Subspace diagonalization in iterative solution of the eigenvalue problem:
     a serial algorithm will be used

     bravais-lattice index     =            0
     lattice parameter (alat)  =       1.8897  a.u.
     unit-cell volume          =    5797.6073 (a.u.)^3
     number of atoms/cell      =           12
     number of atomic types    =            2
     number of electrons       =       210.00
     number of Kohn-Sham states=          135
     kinetic-energy cutoff     =      36.7493  Ry
     charge density cutoff     =     367.4932  Ry
     convergence threshold     =      1.0E-06
     mixing beta               =       0.1000
     number of iterations used =           10  plain     mixing
     Exchange-correlation      = BEEF-VDW ( 1  4 27 13 2)
     nstep                     =           50

     celldm(1)=   1.889726  celldm(2)=   0.000000  celldm(3)=   0.000000
     celldm(4)=   0.000000  celldm(5)=   0.000000  celldm(6)=   0.000000

     crystal axes: (cart. coord. in units of alat)
               a(1) = (   6.282961   0.000000   0.000000 )
               a(2) = (  -3.141481   5.441204   0.000000 )
               a(3) = (   0.000000   0.000000  25.130017 )

     reciprocal axes: (cart. coord. in units 2 pi/alat)
               b(1) = (  0.159161  0.091891  0.000000 )
               b(2) = (  0.000000  0.183783  0.000000 )
               b(3) = (  0.000000  0.000000  0.039793 )

     PseudoPot. # 1 for Ga read from file:
     /afs/slac.stanford.edu/u/if/mamunm/psp/gbrv1.5pbe/Ga.UPF
     MD5 check sum: ccd671392a58a050fbb373893b4fcd66
     Pseudo is Ultrasoft + core correction, Zval = 19.0
     Generated by new atomic code, or converted to UPF format
     Using radial grid of  871 points,  6 beta functions with:
                l(1) =   0
                l(2) =   0
                l(3) =   1
                l(4) =   1
                l(5) =   2
                l(6) =   2
     Q(r) pseudized with  8 coefficients,  rinner =    1.250   1.250   1.250
                                                       1.250   1.250

     PseudoPot. # 2 for In read from file:
     /afs/slac.stanford.edu/u/if/mamunm/psp/gbrv1.5pbe/In.UPF
     MD5 check sum: 90777abd96fbb83f2e67db2a40c566b9
     Pseudo is Ultrasoft + core correction, Zval = 13.0
     Generated by new atomic code, or converted to UPF format
     Using radial grid of  889 points,  6 beta functions with:
                l(1) =   0
                l(2) =   0
                l(3) =   1
                l(4) =   1
                l(5) =   2
                l(6) =   2
     Q(r) pseudized with  6 coefficients,  rinner =    1.400   1.400   1.400
                                                       1.400   1.400

     vdW kernel table read from file vdW_kernel_table
     MD5 check sum: 095c7af220d748ca6e76c0b4c6cfb241

     atomic species   valence    mass     pseudopotential
        Ga1           19.00    69.72300     Ga( 1.00)
        In1           13.00   114.81800     In( 1.00)

     No symmetry found

   Cartesian axes

     site n.     atom                  positions (alat units)
         1           Ga1 tau(   1) = (   0.0000000   0.0000000  10.0000000  )
         2           Ga1 tau(   2) = (  -1.5707404   2.7206021  10.0000000  )
         3           Ga1 tau(   3) = (   1.5707404   2.7206021  10.0000000  )
         4           In1 tau(   4) = (   3.1414807   0.0000000  10.0000000  )
         5           Ga1 tau(   5) = (   3.1414807   1.8137347  12.5650083  )
         6           Ga1 tau(   6) = (   1.5707404   4.5343368  12.5650083  )
         7           Ga1 tau(   7) = (  -1.5707404   4.5343368  12.5650083  )
         8           In1 tau(   8) = (   0.0000000   1.8137347  12.5650083  )
         9           Ga1 tau(   9) = (  -0.0000000   3.6274695  15.1300165  )
        10           Ga1 tau(  10) = (   1.5707404   0.9068674  15.1300165  )
        11           Ga1 tau(  11) = (   4.7122211   0.9068674  15.1300165  )
        12           In1 tau(  12) = (   3.1414807   3.6274695  15.1300165  )

     number of k points=    20  Fermi-Dirac smearing, width (Ry)=  0.0110
                       cart. coord. in units 2pi/alat
        k(    1) = (   0.0000000   0.0000000   0.0000000), wk =   0.0555556
        k(    2) = (   0.0000000   0.0306305   0.0000000), wk =   0.1111111
        k(    3) = (   0.0000000   0.0612609   0.0000000), wk =   0.1111111
        k(    4) = (   0.0000000  -0.0918914   0.0000000), wk =   0.0555556
        k(    5) = (   0.0265268   0.0153152   0.0000000), wk =   0.1111111
        k(    6) = (   0.0265268   0.0459457   0.0000000), wk =   0.1111111
        k(    7) = (   0.0265268   0.0765762   0.0000000), wk =   0.1111111
        k(    8) = (   0.0265268  -0.0765762   0.0000000), wk =   0.1111111
        k(    9) = (   0.0265268  -0.0459457   0.0000000), wk =   0.1111111
        k(   10) = (   0.0265268  -0.0153152   0.0000000), wk =   0.1111111
        k(   11) = (   0.0530535   0.0306305   0.0000000), wk =   0.1111111
        k(   12) = (   0.0530535   0.0612609   0.0000000), wk =   0.1111111
        k(   13) = (   0.0530535   0.0918914   0.0000000), wk =   0.1111111
        k(   14) = (   0.0530535  -0.0612609   0.0000000), wk =   0.1111111
        k(   15) = (   0.0530535  -0.0306305   0.0000000), wk =   0.1111111
        k(   16) = (   0.0530535   0.0000000   0.0000000), wk =   0.1111111
        k(   17) = (  -0.0795803  -0.0459457   0.0000000), wk =   0.0555556
        k(   18) = (  -0.0795803  -0.0153152   0.0000000), wk =   0.1111111
        k(   19) = (  -0.0795803   0.0153152   0.0000000), wk =   0.1111111
        k(   20) = (  -0.0795803  -0.1378371   0.0000000), wk =   0.0555556

     Largest allocated arrays     est. size (Mb)     dimensions
     Largest temporary arrays     est. size (Mb)     dimensions

     Initial potential from superposition of free atoms
     Check: negative starting charge=   -0.001260

     starting charge  196.49999, renormalised to  210.00000

     negative rho (up, down):  1.347E-03 0.000E+00

     *
     * You are using vdW-DF for exchange-correlation in this calculation.
     * Please cite the following three references that made this development
     * possible:
     *
     *   M. Dion, H. Rydberg, E. Schroder, D. C. Langreth, and
     *   B. I. Lundqvist, Phys. Rev. Lett. 92, 246401 (2004).
     *
     *   T. Thonhauser, V. R. Cooper, S. Li, A. Puzder, P. Hyldgaard, and
     *   D. C. Langreth, Phys. Rev. B 76, 125112 (2007).
     *
     *   G. Roman-Perez and J. M. Soler, Phys. Rev. Lett. 103, 096102 (2009).
     *
     *
     * If you are using vdW-DF2, please also cite:
     *
     *   K. Lee, E. D. Murray, L. Kong, B. I. Lundqvist, and
     *   D. C. Langreth, Phys. Rev. B 82, 081101(R) (2010).
     *
     *
     * If you are calculating the stress with vdW-DF, please also cite:
     *
     *   R. Sabatini, E. Kucukbenli, B. Kolb, T. Thonhauser, and
     *   S. de Gironcoli, J. Phys.: Condens. Matter 24, 424209 (2012).
     *

     Carrying out vdW-DF run using the following parameters:

     Nqs =      20    Nr_points =    1024   r_max =   100.000
     q_mesh =
               0.00001000     0.04494208     0.09755937     0.15916263
               0.23128650     0.31572767     0.41458969     0.53033537
               0.66584808     0.82450364     1.01025438     1.22772762
               1.48234092     1.78043706     2.12944203     2.53805004
               3.01644009     3.57652955     4.23227104     5.00000000

     Gradients computed in reciprocal space

     Adding external electric field

     Computed dipole along edir(3) :
        Dipole                0.0000 Ry au,          0.0000 Debye
        Dipole field          0.0000 Ry au

        Potential amp.       -0.0000 Ry
        Total length         46.3016 bohr

     Starting wfc are  135 randomized atomic wfcs

     Self-consistent Calculation

     iteration #  1     ecut=    36.75 Ry     beta=0.10
     Davidson diagonalization with overlap
     ethr =  1.00E-02,  avg # of iterations =  7.3

[...]

     total energy              =   -4015.14945098 Ry
     Harris-Foulkes estimate   =   -4194.73492496 Ry
     estimated scf accuracy    <    1001.79204274 Ry

[...]

     End of self-consistent calculation

          k = 0.0000 0.0000 0.0000 ( 21859 PWs)   bands (ev):

   -94.5909 -94.5909 -94.5908 -94.5907 -94.5907 -94.5906 -94.5717 -94.5717
   -94.5715 -94.5714 -94.5714 -94.5712 -94.5711 -94.5708 -94.5701 -94.5700
   -94.5698 -94.5697 -94.5514 -94.5511 -94.5511 -94.5505 -94.5499 -94.5499
   -94.5453 -94.5451 -94.5451 -15.0329 -15.0328 -15.0305 -14.9942 -14.9942
   -14.9940 -14.9860 -14.9833 -14.9833 -14.9795 -14.9686 -14.9663 -14.9546
   -14.9546 -14.9455 -14.9356 -14.9356 -14.9335 -14.9335 -14.9323 -14.9226
   -14.9199 -14.9198 -14.9178 -14.9134 -14.9133 -14.9119 -14.9119 -14.8932
   -14.8932 -14.8824 -14.8706 -14.8706 -14.8504 -14.8502 -14.8479 -14.8479
   -14.8157 -14.8156 -14.8149 -14.7928 -14.7922 -14.7910 -14.7910 -14.7744
   -14.6153 -14.6153 -14.6117 -14.5995 -14.5882 -14.5882 -14.5780 -14.5780
   -14.5528 -14.5527 -14.5509 -14.5509 -14.5397 -14.5258 -14.5258  -9.5090
    -8.1088  -5.9979  -4.7342  -4.7342  -4.3544  -4.3544  -4.1488  -3.8490
    -3.2471  -3.2471  -2.4880  -2.4792  -2.4792  -2.3293  -2.0502  -0.8768
    -0.8768  -0.7352  -0.7352  -0.5394  -0.2841   0.9441   2.9528   2.9528
     2.9560   2.9560   2.9878   3.2934   3.2982   3.7042   4.3404   4.6773
     4.7752   5.2993   5.2994   5.5946   5.5946   6.0103   6.0253   6.1708
     6.2203   6.6637   6.6637   6.8747   6.8748   7.0382   7.7107

[...]

          k =-0.0796-0.0459 0.0000 ( 21764 PWs)   bands (ev):

[...]

     the Fermi energy is     0.1503 ev

!    total energy              =   -4153.58415769 Ry
     Harris-Foulkes estimate   =   -4153.59156266 Ry
     estimated scf accuracy    <       0.00000061 Ry

     The total energy is the sum of the following terms:

     one-electron contribution =  -21315.73176460 Ry
     hartree contribution      =   10680.36330917 Ry
     xc contribution           =    -564.59149363 Ry
     ewald contribution        =    7046.40989516 Ry
     electric field correction =       0.00000001 Ry
     smearing contrib. (-TS)   =      -0.03410379 Ry

     convergence has been achieved in  17 iterations

 BEEF-vdW xc energy contributions
           1 :   -502.547104030981
           2 :    456.879633726170
           3 :   -380.168538627126
           4 :    294.574513538164
           5 :   -219.900489790443
           6 :    166.147645214828
           7 :   -131.927775101055
           8 :    108.660289163973
           9 :   -87.3862004759302
[...]
     Using radial grid of  871 points,  6 beta functions with:
                l(1) =   0
                l(2) =   0
                l(3) =   1
                l(4) =   1
                l(5) =   2
                l(6) =   2
     Q(r) pseudized with  8 coefficients,  rinner =    1.250   1.250   1.250
                                                       1.250   1.250

     PseudoPot. # 2 for In read from file:
     /afs/slac.stanford.edu/u/if/mamunm/psp/gbrv1.5pbe/In.UPF
     MD5 check sum: 90777abd96fbb83f2e67db2a40c566b9
     Pseudo is Ultrasoft + core correction, Zval = 13.0
     Generated by new atomic code, or converted to UPF format
     Using radial grid of  889 points,  6 beta functions with:
                l(1) =   0
                l(2) =   0
                l(3) =   1
                l(4) =   1
                l(5) =   2
                l(6) =   2
     Q(r) pseudized with  6 coefficients,  rinner =    1.400   1.400   1.400
                                                       1.400   1.400

     vdW kernel table read from file vdW_kernel_table
     MD5 check sum: 095c7af220d748ca6e76c0b4c6cfb241

     atomic species   valence    mass     pseudopotential
        Ga1           19.00    69.72300     Ga( 1.00)
        In1           13.00   114.81800     In( 1.00)

     No symmetry found

   Cartesian axes

     site n.     atom                  positions (alat units)
         1           Ga1 tau(   1) = (   0.0000000   0.0000000  10.0000000  )
         2           Ga1 tau(   2) = (  -1.5707404   2.7206021  10.0000000  )
         3           Ga1 tau(   3) = (   1.5707404   2.7206021  10.0000000  )
         4           In1 tau(   4) = (   3.1414807   0.0000000  10.0000000  )
         5           Ga1 tau(   5) = (   3.1414807   1.8137347  12.5650083  )
         6           Ga1 tau(   6) = (   1.5707404   4.5343368  12.5650083  )
         7           Ga1 tau(   7) = (  -1.5707404   4.5343368  12.5650083  )
         8           In1 tau(   8) = (   0.0000000   1.8137347  12.5650083  )
         9           Ga1 tau(   9) = (   0.0000814   3.6886302  15.0654010  )
        10           Ga1 tau(  10) = (   1.6238958   0.8763143  15.0647938  )
        11           Ga1 tau(  11) = (   4.6591125   0.8762749  15.0648081  )
        12           In1 tau(  12) = (   3.1414556   3.6274334  15.2403787  )

     number of k points=    20  Fermi-Dirac smearing, width (Ry)=  0.0110
                       cart. coord. in units 2pi/alat
        k(    1) = (   0.0000000   0.0000000   0.0000000), wk =   0.0555556
        k(    2) = (   0.0000000   0.0306305   0.0000000), wk =   0.1111111
        k(    3) = (   0.0000000   0.0612609   0.0000000), wk =   0.1111111
        k(    4) = (   0.0000000  -0.0918914   0.0000000), wk =   0.0555556
        k(    5) = (   0.0265268   0.0153152   0.0000000), wk =   0.1111111
        k(    6) = (   0.0265268   0.0459457   0.0000000), wk =   0.1111111
        k(    7) = (   0.0265268   0.0765762   0.0000000), wk =   0.1111111
        k(    8) = (   0.0265268  -0.0765762   0.0000000), wk =   0.1111111
        k(    9) = (   0.0265268  -0.0459457   0.0000000), wk =   0.1111111
        k(   10) = (   0.0265268  -0.0153152   0.0000000), wk =   0.1111111
        k(   11) = (   0.0530535   0.0306305   0.0000000), wk =   0.1111111
        k(   12) = (   0.0530535   0.0612609   0.0000000), wk =   0.1111111
        k(   13) = (   0.0530535   0.0918914   0.0000000), wk =   0.1111111
        k(   14) = (   0.0530535  -0.0612609   0.0000000), wk =   0.1111111
        k(   15) = (   0.0530535  -0.0306305   0.0000000), wk =   0.1111111
        k(   16) = (   0.0530535   0.0000000   0.0000000), wk =   0.1111111
        k(   17) = (  -0.0795803  -0.0459457   0.0000000), wk =   0.0555556
        k(   18) = (  -0.0795803  -0.0153152   0.0000000), wk =   0.1111111
        k(   19) = (  -0.0795803   0.0153152   0.0000000), wk =   0.1111111
        k(   20) = (  -0.0795803  -0.1378371   0.0000000), wk =   0.0555556

     Largest allocated arrays     est. size (Mb)     dimensions
     Largest temporary arrays     est. size (Mb)     dimensions

     Initial potential from superposition of free atoms
     Check: negative starting charge=   -0.001220

     starting charge  196.49999, renormalised to  210.00000

[...]

     *
     * You are using vdW-DF for exchange-correlation in this calculation.
     * Please cite the following three references that made this development
     * possible:
     *
     *   M. Dion, H. Rydberg, E. Schroder, D. C. Langreth, and
     *   B. I. Lundqvist, Phys. Rev. Lett. 92, 246401 (2004).
     *
     *   T. Thonhauser, V. R. Cooper, S. Li, A. Puzder, P. Hyldgaard, and
     *   D. C. Langreth, Phys. Rev. B 76, 125112 (2007).
     *
     *   G. Roman-Perez and J. M. Soler, Phys. Rev. Lett. 103, 096102 (2009).
     *
     *
     * If you are using vdW-DF2, please also cite:
     *
     *   K. Lee, E. D. Murray, L. Kong, B. I. Lundqvist, and
     *   D. C. Langreth, Phys. Rev. B 82, 081101(R) (2010).
     *
     *
     * If you are calculating the stress with vdW-DF, please also cite:
     *
     *   R. Sabatini, E. Kucukbenli, B. Kolb, T. Thonhauser, and
     *   S. de Gironcoli, J. Phys.: Condens. Matter 24, 424209 (2012).
     *

     Carrying out vdW-DF run using the following parameters:

     Nqs =      20    Nr_points =    1024   r_max =   100.000
     q_mesh =
               0.00001000     0.04494208     0.09755937     0.15916263
               0.23128650     0.31572767     0.41458969     0.53033537
               0.66584808     0.82450364     1.01025438     1.22772762
               1.48234092     1.78043706     2.12944203     2.53805004
               3.01644009     3.57652955     4.23227104     5.00000000

     Gradients computed in reciprocal space

[...]

     Starting wfc are  135 randomized atomic wfcs

     Self-consistent Calculation

[...]

     total energy              =   -4153.59293277 Ry
     Harris-Foulkes estimate   =   -4153.59293092 Ry
     estimated scf accuracy    <       0.00000153 Ry

     iteration # 18     ecut=    36.75 Ry     beta=0.10
     Davidson diagonalization with overlap
     ethr =  7.28E-10,  avg # of iterations =  2.0

[...]

     negative rho (up, down):  1.051E-03 0.000E+00

     Adding external electric field

     Computed dipole along edir(3) :
        Dipole                0.0023 Ry au,          0.0059 Debye
        Dipole field          0.0000 Ry au

        Potential amp.       -0.0005 Ry
        Total length         46.3016 bohr

     End of self-consistent calculation

[...]

          k = 0.0531 0.0000 0.0000 ( 21857 PWs)   bands (ev):

[...]

          k =-0.0796-0.1378 0.0000 ( 21764 PWs)   bands (ev):

   -94.5995 -94.5994 -94.5994 -94.5866 -94.5864 -94.5864 -94.5802 -94.5799
   -94.5797 -94.5796 -94.5795 -94.5789 -94.5713 -94.5710 -94.5708 -94.5695
   -94.5690 -94.5687 -94.5552 -94.5548 -94.5546 -94.5545 -94.5545 -94.5541
   -94.5474 -94.5473 -94.5472 -14.9971 -14.9958 -14.9780 -14.9759 -14.9754
   -14.9735 -14.9687 -14.9644 -14.9538 -14.9479 -14.9449 -14.9438 -14.9430
   -14.9407 -14.9346 -14.9322 -14.9292 -14.9223 -14.9219 -14.9211 -14.9151
   -14.9150 -14.9112 -14.9081 -14.9058 -14.9035 -14.9018 -14.8954 -14.8856
   -14.8839 -14.8784 -14.8738 -14.8702 -14.8698 -14.8631 -14.8557 -14.8502
   -14.8502 -14.8473 -14.8431 -14.8408 -14.8374 -14.8137 -14.8084 -14.7849
   -14.6398 -14.6279 -14.6269 -14.6215 -14.6156 -14.6127 -14.6122 -14.6108
   -14.6083 -14.6064 -14.5910 -14.5881 -14.5845 -14.5756 -14.5407  -8.2896
    -8.1708  -6.8771  -6.7884  -5.7870  -5.4261  -4.8515  -4.6387  -4.4732
    -4.0163  -2.7648  -2.1477  -0.7645  -0.6835  -0.4078  -0.1705  -0.0506
     0.1170   1.0483   1.1094   1.2153   1.2323   1.9149   2.2068   2.2458
     2.3263   2.5739   2.6635   3.1829   3.3793   3.4655   3.5774   3.7849
     3.9824   4.2687   4.3269   4.3723   4.5458   4.9311   4.9508   5.5341
     5.5713   5.6476   5.7325   5.9170   5.9585   6.2175   6.4486

     the Fermi energy is     0.1442 ev

!    total energy              =   -4153.59293857 Ry
     Harris-Foulkes estimate   =   -4153.59293284 Ry
     estimated scf accuracy    <       0.00000055 Ry

     The total energy is the sum of the following terms:

     one-electron contribution =  -21401.94460325 Ry
     hartree contribution      =   10723.44973809 Ry
     xc contribution           =    -564.61012959 Ry
     ewald contribution        =    7089.54677746 Ry
     electric field correction =       0.00000001 Ry
     smearing contrib. (-TS)   =      -0.03472129 Ry

     convergence has been achieved in  18 iterations

 BEEF-vdW xc energy contributions
           1 :   -502.779215158510
           2 :    457.117763199050
           3 :   -380.415350366055
           4 :    294.827772048438
           5 :   -220.153670551968
           6 :    166.392701423531
           7 :   -132.158902483383
           8 :    108.876908765145
           9 :   -87.5933420959720
          10 :    64.2047766249742
          11 :   -40.4607779612887
          12 :    21.0264622789775
          13 :   -9.25641718196323
          14 :    4.68202413198333
          15 :   -3.59885765073034
          16 :    1.84658243541344
          17 :    2.47298521487789
          18 :   -8.22758916981229
          19 :    12.7005653556962
          20 :   -13.9340725330932
          21 :    12.1839159873759
          22 :   -9.55370420298584
          23 :    8.29257209547802
          24 :   -9.16149887022493
          25 :    11.0715212197266
          26 :   -12.1386014874970
          27 :    11.2303041482115
          28 :   -8.79671073983980
          29 :    6.41630969788162
          30 :   -5.50604900619635
          31 :   -38.7343707926551
          32 :   -26.7205885402608

     Forces acting on atoms (Ry/au):

     negative rho (up, down):  1.051E-03 0.000E+00
     atom    1 type  1   force =    -0.00000019   -0.00257167    0.00281795
     atom    2 type  1   force =    -0.00222714    0.00128644    0.00285110
     atom    3 type  1   force =     0.00223266    0.00128311    0.00284595
     atom    4 type  2   force =     0.00000139   -0.00000027   -0.00419157
     atom    5 type  1   force =     0.00000293    0.00282850   -0.00021436
     atom    6 type  1   force =     0.00243432   -0.00142012   -0.00020423
     atom    7 type  1   force =    -0.00244751   -0.00141658   -0.00018635
     atom    8 type  2   force =     0.00000004    0.00000866   -0.00095681
     atom    9 type  1   force =    -0.00000871   -0.00092237   -0.00081394
     atom   10 type  1   force =    -0.00070086    0.00045058   -0.00079377
     atom   11 type  1   force =     0.00070319    0.00046019   -0.00080012
     atom   12 type  2   force =     0.00000988    0.00001354   -0.00035384

     Total force =     0.009533     Total SCF correction =     0.004160
     SCF correction compared to forces is large: reduce conv_thr to get better values

     entering subroutine stress ...

     negative rho (up, down):  1.051E-03 0.000E+00
          total   stress  (Ry/bohr**3)                   (kbar)     P=   -4.82
  -0.00004494   0.00000000  -0.00000000         -6.61      0.00     -0.00
   0.00000000  -0.00004496  -0.00000000          0.00     -6.61     -0.00
  -0.00000000  -0.00000000  -0.00000840         -0.00     -0.00     -1.23

 !ASE

     Writing output data file calc.save

     General routines

     Parallel routines

   This run was terminated on:   2:24:36  26Dec2018

   JOB DONE.
Job  /afs/slac/g/suncat/bin/suncat-tsmpirun -x LD_LIBRARY_PATH -wdir /scratch/qe109677_mLoRp pw.x -in pw.inp

TID   HOST_NAME   COMMAND_LINE            STATUS            TERMINATION_TIME
00000 suncat0077 pw.x -in pw.inp   Done                     12/26/2018 02:24:36
00001 suncat0077 pw.x -in pw.inp   Done                     12/26/2018 02:24:36
00002 suncat0077 pw.x -in pw.inp   Done                     12/26/2018 02:24:36
00003 suncat0077 pw.x -in pw.inp   Done                     12/26/2018 02:24:36
00004 suncat0077 pw.x -in pw.inp   Done                     12/26/2018 02:24:36
00005 suncat0077 pw.x -in pw.inp   Done                     12/26/2018 02:24:36
00006 suncat0077 pw.x -in pw.inp   Done                     12/26/2018 02:24:36
00007 suncat0077 pw.x -in pw.inp   Done                     12/26/2018 02:24:36
00008 suncat0069 pw.x -in pw.inp   Done                     12/26/2018 02:24:36
00009 suncat0069 pw.x -in pw.inp   Done                     12/26/2018 02:24:36
00010 suncat0069 pw.x -in pw.inp   Done                     12/26/2018 02:24:36
00011 suncat0069 pw.x -in pw.inp   Done                     12/26/2018 02:24:36
00012 suncat0069 pw.x -in pw.inp   Done                     12/26/2018 02:24:36
00013 suncat0069 pw.x -in pw.inp   Done                     12/26/2018 02:24:36
00014 suncat0069 pw.x -in pw.inp   Done                     12/26/2018 02:24:36
00015 suncat0069 pw.x -in pw.inp   Done                     12/26/2018 02:24:36
00016 suncat0065 pw.x -in pw.inp   Done                     12/26/2018 02:24:36
00017 suncat0065 pw.x -in pw.inp   Done                     12/26/2018 02:24:36
00018 suncat0065 pw.x -in pw.inp   Done                     12/26/2018 02:24:36
00019 suncat0065 pw.x -in pw.inp   Done                     12/26/2018 02:24:36
00020 suncat0065 pw.x -in pw.inp   Done                     12/26/2018 02:24:36
00021 suncat0065 pw.x -in pw.inp   Done                     12/26/2018 02:24:36
00022 suncat0065 pw.x -in pw.inp   Done                     12/26/2018 02:24:36
00023 suncat0065 pw.x -in pw.inp   Done                     12/26/2018 02:24:36
00024 suncat0057 pw.x -in pw.inp   Done                     12/26/2018 02:24:36
00025 suncat0057 pw.x -in pw.inp   Done                     12/26/2018 02:24:36
00026 suncat0057 pw.x -in pw.inp   Done                     12/26/2018 02:24:36
00027 suncat0057 pw.x -in pw.inp   Done                     12/26/2018 02:24:36
00028 suncat0057 pw.x -in pw.inp   Done                     12/26/2018 02:24:36
00029 suncat0057 pw.x -in pw.inp   Done                     12/26/2018 02:24:36
00030 suncat0057 pw.x -in pw.inp   Done                     12/26/2018 02:24:36
00031 suncat0057 pw.x -in pw.inp   Done                     12/26/2018 02:24:36
00032 suncat0051 pw.x -in pw.inp   Done                     12/26/2018 02:24:36
00033 suncat0051 pw.x -in pw.inp   Done                     12/26/2018 02:24:36
00034 suncat0051 pw.x -in pw.inp   Done                     12/26/2018 02:24:36
00035 suncat0051 pw.x -in pw.inp   Done                     12/26/2018 02:24:36
00036 suncat0051 pw.x -in pw.inp   Done                     12/26/2018 02:24:36
00037 suncat0051 pw.x -in pw.inp   Done                     12/26/2018 02:24:36
00038 suncat0051 pw.x -in pw.inp   Done                     12/26/2018 02:24:36
00039 suncat0051 pw.x -in pw.inp   Done                     12/26/2018 02:24:36
00040 suncat0043 pw.x -in pw.inp   Done                     12/26/2018 02:24:36
00041 suncat0043 pw.x -in pw.inp   Done                     12/26/2018 02:24:36
00042 suncat0043 pw.x -in pw.inp   Done                     12/26/2018 02:24:36
00043 suncat0043 pw.x -in pw.inp   Done                     12/26/2018 02:24:36
00044 suncat0043 pw.x -in pw.inp   Done                     12/26/2018 02:24:36
00045 suncat0043 pw.x -in pw.inp   Done                     12/26/2018 02:24:36
00046 suncat0043 pw.x -in pw.inp   Done                     12/26/2018 02:24:36
00047 suncat0043 pw.x -in pw.inp   Done                     12/26/2018 02:24:36
00048 suncat0010 pw.x -in pw.inp   Done                     12/26/2018 02:24:36
00049 suncat0010 pw.x -in pw.inp   Done                     12/26/2018 02:24:36
00050 suncat0010 pw.x -in pw.inp   Done                     12/26/2018 02:24:36
00051 suncat0010 pw.x -in pw.inp   Done                     12/26/2018 02:24:36
00052 suncat0010 pw.x -in pw.inp   Done                     12/26/2018 02:24:36
00053 suncat0010 pw.x -in pw.inp   Done                     12/26/2018 02:24:36
00054 suncat0010 pw.x -in pw.inp   Done                     12/26/2018 02:24:36
00055 suncat0010 pw.x -in pw.inp   Done                     12/26/2018 02:24:36
00056 suncat0100 pw.x -in pw.inp   Done                     12/26/2018 02:24:36
00057 suncat0100 pw.x -in pw.inp   Done                     12/26/2018 02:24:36
00058 suncat0100 pw.x -in pw.inp   Done                     12/26/2018 02:24:36
00059 suncat0100 pw.x -in pw.inp   Done                     12/26/2018 02:24:36
00060 suncat0100 pw.x -in pw.inp   Done                     12/26/2018 02:24:36
00061 suncat0100 pw.x -in pw.inp   Done                     12/26/2018 02:24:36
00062 suncat0100 pw.x -in pw.inp   Done                     12/26/2018 02:24:36
00063 suncat0100 pw.x -in pw.inp   Done                     12/26/2018 02:24:36