     Program PWSCF v.5.1rc2 (svn rev. 11289) starts on 31Dec2018 at 15:20:58

     Current dimensions of program PWSCF are:
     Max number of different atomic species (ntypx) = 10
     Max number of k-points (npk) =  40000
     Max angular momentum in pseudopotentials (lmaxx) =  3
     Presently stress not available with electric field

     IMPORTANT: XC functional enforced from input :
     Exchange-correlation      = BEEF-VDW ( 1  4 27 13 2)
     Any further DFT definition will be discarded
     Please, verify this is what you really want

     Subspace diagonalization in iterative solution of the eigenvalue problem:
     a serial algorithm will be used

     bravais-lattice index     =            0
     lattice parameter (alat)  =       1.8897  a.u.
     unit-cell volume          =    4776.4942 (a.u.)^3
     number of atoms/cell      =           12
     number of atomic types    =            2
     number of electrons       =       183.00
     number of Kohn-Sham states=          121
     kinetic-energy cutoff     =      36.7493  Ry
     charge density cutoff     =     367.4932  Ry
     convergence threshold     =      1.0E-06
     mixing beta               =       0.1000
     number of iterations used =           10  plain     mixing
     Exchange-correlation      = BEEF-VDW ( 1  4 27 13 2)
     nstep                     =           50

     celldm(1)=   1.889726  celldm(2)=   0.000000  celldm(3)=   0.000000
     celldm(4)=   0.000000  celldm(5)=   0.000000  celldm(6)=   0.000000

     crystal axes: (cart. coord. in units of alat)
               a(1) = (   5.752660   0.000000   0.000000 )
               a(2) = (  -2.876330   4.981949   0.000000 )
               a(3) = (   0.000000   0.000000  24.697027 )

     reciprocal axes: (cart. coord. in units 2 pi/alat)
               b(1) = (  0.173833  0.100362  0.000000 )
               b(2) = (  0.000000  0.200725  0.000000 )
               b(3) = (  0.000000  0.000000  0.040491 )

     PseudoPot. # 1 for Pt read from file:
     /afs/slac.stanford.edu/u/if/mamunm/psp/gbrv1.5pbe/Pt.UPF
     MD5 check sum: f09d6de1a584b5a045c4fc126da2d0c4
     Pseudo is Ultrasoft + core correction, Zval = 16.0
     Generated by new atomic code, or converted to UPF format
     Using radial grid of  985 points,  6 beta functions with:
                l(1) =   0
                l(2) =   0
                l(3) =   1
                l(4) =   1
                l(5) =   2
                l(6) =   2
     Q(r) pseudized with  8 coefficients,  rinner =    1.300   1.300   1.300
                                                       1.300   1.300

     PseudoPot. # 2 for In read from file:
     /afs/slac.stanford.edu/u/if/mamunm/psp/gbrv1.5pbe/In.UPF
     MD5 check sum: 90777abd96fbb83f2e67db2a40c566b9
     Pseudo is Ultrasoft + core correction, Zval = 13.0
     Generated by new atomic code, or converted to UPF format
     Using radial grid of  889 points,  6 beta functions with:
                l(1) =   0
                l(2) =   0
                l(3) =   1
                l(4) =   1
                l(5) =   2
                l(6) =   2
     Q(r) pseudized with  6 coefficients,  rinner =    1.400   1.400   1.400
                                                       1.400   1.400

     vdW kernel table read from file vdW_kernel_table
     MD5 check sum: 095c7af220d748ca6e76c0b4c6cfb241

     atomic species   valence    mass     pseudopotential
        Pt1           16.00   195.08400     Pt( 1.00)
        In1           13.00   114.81800     In( 1.00)

     No symmetry found

   Cartesian axes

     site n.     atom                  positions (alat units)
         1           Pt1 tau(   1) = (   0.0000000   0.0000000  10.0000000  )
         2           Pt1 tau(   2) = (  -1.4381649   2.4909747  10.0000000  )
         3           Pt1 tau(   3) = (   1.4381649   2.4909747  10.0000000  )
         4           In1 tau(   4) = (   2.8763298   0.0000000  10.0000000  )
         5           Pt1 tau(   5) = (   2.8763298   1.6606498  12.3485134  )
         6           Pt1 tau(   6) = (   1.4381649   4.1516244  12.3485134  )
         7           Pt1 tau(   7) = (  -1.4381649   4.1516244  12.3485134  )
         8           In1 tau(   8) = (   0.0000000   1.6606498  12.3485134  )
         9           Pt1 tau(   9) = (  -0.0000000   3.3212996  14.6970269  )
        10           Pt1 tau(  10) = (   1.4381649   0.8303249  14.6970269  )
        11           Pt1 tau(  11) = (   4.3144947   0.8303249  14.6970269  )
        12           In1 tau(  12) = (   2.8763298   3.3212996  14.6970269  )

     number of k points=    20  Fermi-Dirac smearing, width (Ry)=  0.0110
                       cart. coord. in units 2pi/alat
        k(    1) = (   0.0000000   0.0000000   0.0000000), wk =   0.0555556
        k(    2) = (   0.0000000   0.0334541   0.0000000), wk =   0.1111111
        k(    3) = (   0.0000000   0.0669082   0.0000000), wk =   0.1111111
        k(    4) = (   0.0000000  -0.1003623   0.0000000), wk =   0.0555556
        k(    5) = (   0.0289721   0.0167271   0.0000000), wk =   0.1111111
        k(    6) = (   0.0289721   0.0501812   0.0000000), wk =   0.1111111
        k(    7) = (   0.0289721   0.0836353   0.0000000), wk =   0.1111111
        k(    8) = (   0.0289721  -0.0836353   0.0000000), wk =   0.1111111
        k(    9) = (   0.0289721  -0.0501812   0.0000000), wk =   0.1111111
        k(   10) = (   0.0289721  -0.0167271   0.0000000), wk =   0.1111111
        k(   11) = (   0.0579442   0.0334541   0.0000000), wk =   0.1111111
        k(   12) = (   0.0579442   0.0669082   0.0000000), wk =   0.1111111
        k(   13) = (   0.0579442   0.1003623   0.0000000), wk =   0.1111111
        k(   14) = (   0.0579442  -0.0669082   0.0000000), wk =   0.1111111
        k(   15) = (   0.0579442  -0.0334541   0.0000000), wk =   0.1111111
        k(   16) = (   0.0579442   0.0000000   0.0000000), wk =   0.1111111
        k(   17) = (  -0.0869163  -0.0501812   0.0000000), wk =   0.0555556
        k(   18) = (  -0.0869163  -0.0167271   0.0000000), wk =   0.1111111
        k(   19) = (  -0.0869163   0.0167271   0.0000000), wk =   0.1111111
        k(   20) = (  -0.0869163  -0.1505435   0.0000000), wk =   0.0555556

     Largest allocated arrays     est. size (Mb)     dimensions
     Largest temporary arrays     est. size (Mb)     dimensions

     Initial potential from superposition of free atoms
     Check: negative starting charge=   -1.648360

     starting charge  173.99990, renormalised to  183.00000

     negative rho (up, down):  1.734E+00 0.000E+00

     *
     * You are using vdW-DF for exchange-correlation in this calculation.
     * Please cite the following three references that made this development
     * possible:
     *
     *   M. Dion, H. Rydberg, E. Schroder, D. C. Langreth, and
     *   B. I. Lundqvist, Phys. Rev. Lett. 92, 246401 (2004).
     *
     *   T. Thonhauser, V. R. Cooper, S. Li, A. Puzder, P. Hyldgaard, and
     *   D. C. Langreth, Phys. Rev. B 76, 125112 (2007).
     *
     *   G. Roman-Perez and J. M. Soler, Phys. Rev. Lett. 103, 096102 (2009).
     *
     *
     * If you are using vdW-DF2, please also cite:
     *
     *   K. Lee, E. D. Murray, L. Kong, B. I. Lundqvist, and
     *   D. C. Langreth, Phys. Rev. B 82, 081101(R) (2010).
     *
     *
     * If you are calculating the stress with vdW-DF, please also cite:
     *
     *   R. Sabatini, E. Kucukbenli, B. Kolb, T. Thonhauser, and
     *   S. de Gironcoli, J. Phys.: Condens. Matter 24, 424209 (2012).
     *

     Carrying out vdW-DF run using the following parameters:

     Nqs =      20    Nr_points =    1024   r_max =   100.000
     q_mesh =
               0.00001000     0.04494208     0.09755937     0.15916263
               0.23128650     0.31572767     0.41458969     0.53033537
               0.66584808     0.82450364     1.01025438     1.22772762
               1.48234092     1.78043706     2.12944203     2.53805004
               3.01644009     3.57652955     4.23227104     5.00000000

     Gradients computed in reciprocal space

     Adding external electric field

     Computed dipole along edir(3) :
        Dipole                0.0000 Ry au,          0.0000 Debye
        Dipole field          0.0000 Ry au

        Potential amp.       -0.0000 Ry
        Total length         45.5039 bohr

     Starting wfc are  135 randomized atomic wfcs

     Self-consistent Calculation

     iteration #  1     ecut=    36.75 Ry     beta=0.10
     Davidson diagonalization with overlap
     ethr =  1.00E-02,  avg # of iterations =  7.2

[...]

     total energy              =   -2311.25349846 Ry
     Harris-Foulkes estimate   =   -2322.17427301 Ry
     estimated scf accuracy    <      62.76685578 Ry

[...]

     End of self-consistent calculation

          k = 0.0000 0.0000 0.0000 ( 18019 PWs)   bands (ev):

   -51.0731 -50.9891 -50.9789 -50.9789 -50.9630 -50.9630 -50.8653 -50.8523
   -50.8523 -50.7566 -50.7520 -50.6888 -50.6888 -50.6799 -50.6799 -50.5863
   -50.5839 -50.5466 -50.5466 -50.5458 -50.5458 -50.4980 -50.4852 -50.4760
   -50.4760 -50.4690 -50.4690 -13.2148 -13.2148 -13.1865 -13.1568 -13.1568
   -12.9448 -12.9264 -12.8957 -12.8957 -12.8783 -12.8783 -12.8626 -12.8626
   -12.8624 -12.8624  -7.5984  -5.8297  -5.3390  -4.0682  -3.8092  -3.6130
    -3.2167  -3.2167  -2.8864  -2.8164  -2.8164  -2.6770  -2.6770  -2.4823
    -2.4823  -2.2495  -1.6375  -1.6375  -1.5943  -1.5943  -1.3095  -1.2556
    -1.1539  -0.8457  -0.8457  -0.6800  -0.5707  -0.5707  -0.2026  -0.2026
     0.1389   0.1389   0.1660   0.1967   0.1967   0.4584   0.5450   0.5450
     0.6422   0.6422   0.7908   0.7908   1.1682   1.2308   1.3132   1.3132
     1.3651   1.3651   1.6321   1.9175   1.9692   2.1500   2.6976   2.8889
     3.0362   3.0362   3.0808   3.0808   4.5347   5.0092   5.6138   5.8937
     5.8937   6.0784   6.1716   6.3325   6.3325   6.4664   7.0752   7.0752
     7.3245   7.8838   9.0499   9.2600   9.6471   9.8030   9.8030   9.9821
    10.4017

[...]

          k =-0.0869-0.0502 0.0000 ( 17940 PWs)   bands (ev):

[...]

     the Fermi energy is     1.4967 ev

!    total energy              =   -2315.68861165 Ry
     Harris-Foulkes estimate   =   -2315.69028201 Ry
     estimated scf accuracy    <       0.00000070 Ry

     The total energy is the sum of the following terms:

     one-electron contribution =  -17167.61567194 Ry
     hartree contribution      =    8633.35060805 Ry
     xc contribution           =    -645.40075333 Ry
     ewald contribution        =    6864.03531094 Ry
     electric field correction =       0.00000004 Ry
     smearing contrib. (-TS)   =      -0.05810541 Ry

     convergence has been achieved in  17 iterations

 BEEF-vdW xc energy contributions
           1 :   -572.639329292184
           2 :    531.354757509734
           3 :   -458.190352472785
           4 :    368.382197859813
           5 :   -277.887635843043
           6 :    198.855316527545
           7 :   -137.218508415652
           8 :    92.8536510895254
           9 :   -61.7357118062196
          10 :    38.8112689742767
          11 :   -20.2884656225460
          12 :    4.57001035214330
          13 :    8.13540558303634
[...]
     Pseudo is Ultrasoft + core correction, Zval = 16.0
     Generated by new atomic code, or converted to UPF format
     Using radial grid of  985 points,  6 beta functions with:
                l(1) =   0
                l(2) =   0
                l(3) =   1
                l(4) =   1
                l(5) =   2
                l(6) =   2
     Q(r) pseudized with  8 coefficients,  rinner =    1.300   1.300   1.300
                                                       1.300   1.300

     PseudoPot. # 2 for In read from file:
     /afs/slac.stanford.edu/u/if/mamunm/psp/gbrv1.5pbe/In.UPF
     MD5 check sum: 90777abd96fbb83f2e67db2a40c566b9
     Pseudo is Ultrasoft + core correction, Zval = 13.0
     Generated by new atomic code, or converted to UPF format
     Using radial grid of  889 points,  6 beta functions with:
                l(1) =   0
                l(2) =   0
                l(3) =   1
                l(4) =   1
                l(5) =   2
                l(6) =   2
     Q(r) pseudized with  6 coefficients,  rinner =    1.400   1.400   1.400
                                                       1.400   1.400

     vdW kernel table read from file vdW_kernel_table
     MD5 check sum: 095c7af220d748ca6e76c0b4c6cfb241

     atomic species   valence    mass     pseudopotential
        Pt1           16.00   195.08400     Pt( 1.00)
        In1           13.00   114.81800     In( 1.00)

     No symmetry found

   Cartesian axes

     site n.     atom                  positions (alat units)
         1           Pt1 tau(   1) = (   0.0000000   0.0000000  10.0000000  )
         2           Pt1 tau(   2) = (  -1.4381649   2.4909747  10.0000000  )
         3           Pt1 tau(   3) = (   1.4381649   2.4909747  10.0000000  )
         4           In1 tau(   4) = (   2.8763298   0.0000000  10.0000000  )
         5           Pt1 tau(   5) = (   2.8763298   1.6606498  12.3485134  )
         6           Pt1 tau(   6) = (   1.4381649   4.1516244  12.3485134  )
         7           Pt1 tau(   7) = (  -1.4381649   4.1516244  12.3485134  )
         8           In1 tau(   8) = (   0.0000000   1.6606498  12.3485134  )
         9           Pt1 tau(   9) = (  -0.0000012   3.3183655  14.6327155  )
        10           Pt1 tau(  10) = (   1.4356264   0.8317910  14.6327157  )
        11           Pt1 tau(  11) = (   4.3170342   0.8317919  14.6327158  )
        12           In1 tau(  12) = (   2.8763301   3.3212991  14.8774451  )

     number of k points=    20  Fermi-Dirac smearing, width (Ry)=  0.0110
                       cart. coord. in units 2pi/alat
        k(    1) = (   0.0000000   0.0000000   0.0000000), wk =   0.0555556
        k(    2) = (   0.0000000   0.0334541   0.0000000), wk =   0.1111111
        k(    3) = (   0.0000000   0.0669082   0.0000000), wk =   0.1111111
        k(    4) = (   0.0000000  -0.1003623   0.0000000), wk =   0.0555556
        k(    5) = (   0.0289721   0.0167271   0.0000000), wk =   0.1111111
        k(    6) = (   0.0289721   0.0501812   0.0000000), wk =   0.1111111
        k(    7) = (   0.0289721   0.0836353   0.0000000), wk =   0.1111111
        k(    8) = (   0.0289721  -0.0836353   0.0000000), wk =   0.1111111
        k(    9) = (   0.0289721  -0.0501812   0.0000000), wk =   0.1111111
        k(   10) = (   0.0289721  -0.0167271   0.0000000), wk =   0.1111111
        k(   11) = (   0.0579442   0.0334541   0.0000000), wk =   0.1111111
        k(   12) = (   0.0579442   0.0669082   0.0000000), wk =   0.1111111
        k(   13) = (   0.0579442   0.1003623   0.0000000), wk =   0.1111111
        k(   14) = (   0.0579442  -0.0669082   0.0000000), wk =   0.1111111
        k(   15) = (   0.0579442  -0.0334541   0.0000000), wk =   0.1111111
        k(   16) = (   0.0579442   0.0000000   0.0000000), wk =   0.1111111
        k(   17) = (  -0.0869163  -0.0501812   0.0000000), wk =   0.0555556
        k(   18) = (  -0.0869163  -0.0167271   0.0000000), wk =   0.1111111
        k(   19) = (  -0.0869163   0.0167271   0.0000000), wk =   0.1111111
        k(   20) = (  -0.0869163  -0.1505435   0.0000000), wk =   0.0555556

     Largest allocated arrays     est. size (Mb)     dimensions
     Largest temporary arrays     est. size (Mb)     dimensions

     Initial potential from superposition of free atoms
     Check: negative starting charge=   -1.648438

     starting charge  173.99990, renormalised to  183.00000

[...]

     *
     * You are using vdW-DF for exchange-correlation in this calculation.
     * Please cite the following three references that made this development
     * possible:
     *
     *   M. Dion, H. Rydberg, E. Schroder, D. C. Langreth, and
     *   B. I. Lundqvist, Phys. Rev. Lett. 92, 246401 (2004).
     *
     *   T. Thonhauser, V. R. Cooper, S. Li, A. Puzder, P. Hyldgaard, and
     *   D. C. Langreth, Phys. Rev. B 76, 125112 (2007).
     *
     *   G. Roman-Perez and J. M. Soler, Phys. Rev. Lett. 103, 096102 (2009).
     *
     *
     * If you are using vdW-DF2, please also cite:
     *
     *   K. Lee, E. D. Murray, L. Kong, B. I. Lundqvist, and
     *   D. C. Langreth, Phys. Rev. B 82, 081101(R) (2010).
     *
     *
     * If you are calculating the stress with vdW-DF, please also cite:
     *
     *   R. Sabatini, E. Kucukbenli, B. Kolb, T. Thonhauser, and
     *   S. de Gironcoli, J. Phys.: Condens. Matter 24, 424209 (2012).
     *

     Carrying out vdW-DF run using the following parameters:

     Nqs =      20    Nr_points =    1024   r_max =   100.000
     q_mesh =
               0.00001000     0.04494208     0.09755937     0.15916263
               0.23128650     0.31572767     0.41458969     0.53033537
               0.66584808     0.82450364     1.01025438     1.22772762
               1.48234092     1.78043706     2.12944203     2.53805004
               3.01644009     3.57652955     4.23227104     5.00000000

     Gradients computed in reciprocal space

[...]

     Starting wfc are  135 randomized atomic wfcs

     Self-consistent Calculation

[...]

     total energy              =   -2315.71070580 Ry
     Harris-Foulkes estimate   =   -2315.71070175 Ry
     estimated scf accuracy    <       0.00000615 Ry

     iteration # 17     ecut=    36.75 Ry     beta=0.10
     Davidson diagonalization with overlap
     ethr =  3.36E-09,  avg # of iterations =  1.9

[...]

     negative rho (up, down):  1.583E+00 0.000E+00

     Adding external electric field

     Computed dipole along edir(3) :
        Dipole                0.0358 Ry au,          0.0910 Debye
        Dipole field          0.0001 Ry au

        Potential amp.       -0.0086 Ry
        Total length         45.5039 bohr

     End of self-consistent calculation

[...]

          k = 0.0579 0.0000 0.0000 ( 17975 PWs)   bands (ev):

[...]

          k =-0.0869-0.1505 0.0000 ( 17940 PWs)   bands (ev):

   -50.9667 -50.9240 -50.9149 -50.9082 -50.8735 -50.8727 -50.8621 -50.8578
   -50.7922 -50.7117 -50.6571 -50.6437 -50.6366 -50.6332 -50.6275 -50.5873
   -50.5800 -50.5784 -50.5725 -50.5564 -50.5041 -50.4998 -50.4979 -50.4914
   -50.4312 -50.4244 -50.4184 -13.1351 -13.1099 -13.0956 -13.0809 -13.0770
   -12.8834 -12.8594 -12.8357 -12.8316 -12.8130 -12.8098 -12.8042 -12.7899
   -12.7851 -12.7703  -6.0137  -5.6723  -4.5074  -4.2027  -3.6928  -3.6241
    -3.3211  -3.0447  -2.6425  -2.5343  -2.4694  -2.3543  -2.2877  -2.2695
    -2.2516  -2.0959  -1.9331  -1.8134  -1.6647  -1.5492  -1.4949  -1.3271
    -1.2298  -1.1687  -1.1258  -1.0346  -0.9529  -0.9110  -0.8336  -0.6918
    -0.6169  -0.6085  -0.5824  -0.2433  -0.2209  -0.0974  -0.0771  -0.0620
    -0.0600   0.1129   0.1624   0.2661   0.3176   0.4260   0.5461   0.7837
     1.0016   1.1287   1.3579   1.7364   1.8906   1.9869   2.7784   3.0990
     3.5475   4.0099   4.6594   4.8351   5.0395   6.6586   6.8888   6.9732
     7.3868   7.4219   7.5658   7.5949   7.6557   7.6873   7.7387   7.8324
     8.1429   8.6753   8.8267   8.8436   9.0409   9.1282   9.2711   9.5147
     9.8161

     the Fermi energy is     1.5602 ev

!    total energy              =   -2315.71072330 Ry
     Harris-Foulkes estimate   =   -2315.71070703 Ry
     estimated scf accuracy    <       0.00000098 Ry

     The total energy is the sum of the following terms:

     one-electron contribution =  -17194.00755959 Ry
     hartree contribution      =    8646.79308327 Ry
     xc contribution           =    -645.40788576 Ry
     ewald contribution        =    6876.97033438 Ry
     electric field correction =       0.00000337 Ry
     smearing contrib. (-TS)   =      -0.05869897 Ry

     convergence has been achieved in  17 iterations

 BEEF-vdW xc energy contributions
           1 :   -573.093068195774
           2 :    531.817398905915
           3 :   -458.661381485888
           4 :    368.851346164033
           5 :   -278.341286829866
           6 :    199.282616819473
           7 :   -137.616758195089
           8 :    93.2322843423201
           9 :   -62.1168735191351
          10 :    39.2220464677749
          11 :   -20.7472379951482
          12 :    5.07461647082187
          13 :    7.60988763270529
          14 :   -16.4117572464445
          15 :    20.7906399278298
          16 :   -21.1110412170236
          17 :    18.5815327337450
          18 :   -14.8012006107215
          19 :    11.2259310327221
          20 :   -8.79825082079594
          21 :    7.82244916664354
          22 :   -8.05356073285850
          23 :    8.91372586044326
          24 :   -9.75538254262642
          25 :    10.0965431622801
          26 :   -9.76658934035277
          27 :    8.91542402156983
          28 :   -7.89067932892362
          29 :    7.04212336778585
          30 :   -6.55282697098880
          31 :   -47.7981864679384
          32 :   -35.2439871423976

     Forces acting on atoms (Ry/au):

     negative rho (up, down):  1.583E+00 0.000E+00
     atom    1 type  1   force =    -0.00000009   -0.00008960    0.01386763
     atom    2 type  1   force =    -0.00007752    0.00004469    0.01386755
     atom    3 type  1   force =     0.00007756    0.00004481    0.01386758
     atom    4 type  2   force =     0.00000033    0.00000013   -0.02414111
     atom    5 type  1   force =     0.00000007    0.00861076   -0.00168384
     atom    6 type  1   force =     0.00745717   -0.00430540   -0.00168354
     atom    7 type  1   force =    -0.00745721   -0.00430529   -0.00168368
     atom    8 type  2   force =     0.00000006   -0.00000012   -0.01277964
     atom    9 type  1   force =     0.00000043    0.00029664   -0.00047061
     atom   10 type  1   force =     0.00025639   -0.00014816   -0.00047070
     atom   11 type  1   force =    -0.00025653   -0.00014872   -0.00047070
     atom   12 type  2   force =    -0.00000067    0.00000026    0.00178106

     Total force =     0.039473     Total SCF correction =     0.004610
     SCF correction compared to forces is large: reduce conv_thr to get better values

     entering subroutine stress ...

     negative rho (up, down):  1.583E+00 0.000E+00
          total   stress  (Ry/bohr**3)                   (kbar)     P=  -16.16
  -0.00014903  -0.00000000  -0.00000000        -21.92     -0.00     -0.00
  -0.00000000  -0.00014903  -0.00000000         -0.00    -21.92     -0.00
  -0.00000000  -0.00000000  -0.00003140         -0.00     -0.00     -4.62

 !ASE

     Writing output data file calc.save

     General routines

     Parallel routines

   This run was terminated on:  17:18:54  31Dec2018

   JOB DONE.
Job  /afs/slac/g/suncat/bin/suncat-tsmpirun -x LD_LIBRARY_PATH -wdir /scratch/qe648804_BOiIz pw.x -in pw.inp

TID   HOST_NAME   COMMAND_LINE            STATUS            TERMINATION_TIME
00000 suncat0146 pw.x -in pw.inp   Done                     12/31/2018 17:18:54
00001 suncat0146 pw.x -in pw.inp   Done                     12/31/2018 17:18:54
00002 suncat0146 pw.x -in pw.inp   Done                     12/31/2018 17:18:54
00003 suncat0146 pw.x -in pw.inp   Done                     12/31/2018 17:18:54
00004 suncat0146 pw.x -in pw.inp   Done                     12/31/2018 17:18:54
00005 suncat0146 pw.x -in pw.inp   Done                     12/31/2018 17:18:54
00006 suncat0146 pw.x -in pw.inp   Done                     12/31/2018 17:18:54
00007 suncat0146 pw.x -in pw.inp   Done                     12/31/2018 17:18:54
00008 suncat0136 pw.x -in pw.inp   Done                     12/31/2018 17:18:54
00009 suncat0136 pw.x -in pw.inp   Done                     12/31/2018 17:18:54
00010 suncat0136 pw.x -in pw.inp   Done                     12/31/2018 17:18:54
00011 suncat0136 pw.x -in pw.inp   Done                     12/31/2018 17:18:54
00012 suncat0136 pw.x -in pw.inp   Done                     12/31/2018 17:18:54
00013 suncat0136 pw.x -in pw.inp   Done                     12/31/2018 17:18:54
00014 suncat0136 pw.x -in pw.inp   Done                     12/31/2018 17:18:54
00015 suncat0136 pw.x -in pw.inp   Done                     12/31/2018 17:18:54
00016 suncat0248 pw.x -in pw.inp   Done                     12/31/2018 17:18:54
00017 suncat0248 pw.x -in pw.inp   Done                     12/31/2018 17:18:54
00018 suncat0248 pw.x -in pw.inp   Done                     12/31/2018 17:18:54
00019 suncat0248 pw.x -in pw.inp   Done                     12/31/2018 17:18:54
00020 suncat0248 pw.x -in pw.inp   Done                     12/31/2018 17:18:54
00021 suncat0248 pw.x -in pw.inp   Done                     12/31/2018 17:18:54
00022 suncat0248 pw.x -in pw.inp   Done                     12/31/2018 17:18:54
00023 suncat0248 pw.x -in pw.inp   Done                     12/31/2018 17:18:54
00024 suncat0247 pw.x -in pw.inp   Done                     12/31/2018 17:18:54
00025 suncat0247 pw.x -in pw.inp   Done                     12/31/2018 17:18:54
00026 suncat0247 pw.x -in pw.inp   Done                     12/31/2018 17:18:54
00027 suncat0247 pw.x -in pw.inp   Done                     12/31/2018 17:18:54
00028 suncat0247 pw.x -in pw.inp   Done                     12/31/2018 17:18:54
00029 suncat0247 pw.x -in pw.inp   Done                     12/31/2018 17:18:54
00030 suncat0247 pw.x -in pw.inp   Done                     12/31/2018 17:18:54
00031 suncat0247 pw.x -in pw.inp   Done                     12/31/2018 17:18:54
00032 suncat0246 pw.x -in pw.inp   Done                     12/31/2018 17:18:54
00033 suncat0246 pw.x -in pw.inp   Done                     12/31/2018 17:18:54
00034 suncat0246 pw.x -in pw.inp   Done                     12/31/2018 17:18:54
00035 suncat0246 pw.x -in pw.inp   Done                     12/31/2018 17:18:54
00036 suncat0246 pw.x -in pw.inp   Done                     12/31/2018 17:18:54
00037 suncat0246 pw.x -in pw.inp   Done                     12/31/2018 17:18:54
00038 suncat0246 pw.x -in pw.inp   Done                     12/31/2018 17:18:54
00039 suncat0246 pw.x -in pw.inp   Done                     12/31/2018 17:18:54
00040 suncat0245 pw.x -in pw.inp   Done                     12/31/2018 17:18:54
00041 suncat0245 pw.x -in pw.inp   Done                     12/31/2018 17:18:54
00042 suncat0245 pw.x -in pw.inp   Done                     12/31/2018 17:18:54
00043 suncat0245 pw.x -in pw.inp   Done                     12/31/2018 17:18:54
00044 suncat0245 pw.x -in pw.inp   Done                     12/31/2018 17:18:54
00045 suncat0245 pw.x -in pw.inp   Done                     12/31/2018 17:18:54
00046 suncat0245 pw.x -in pw.inp   Done                     12/31/2018 17:18:54
00047 suncat0245 pw.x -in pw.inp   Done                     12/31/2018 17:18:54
00048 suncat0214 pw.x -in pw.inp   Done                     12/31/2018 17:18:54
00049 suncat0214 pw.x -in pw.inp   Done                     12/31/2018 17:18:54
00050 suncat0214 pw.x -in pw.inp   Done                     12/31/2018 17:18:54
00051 suncat0214 pw.x -in pw.inp   Done                     12/31/2018 17:18:54
00052 suncat0214 pw.x -in pw.inp   Done                     12/31/2018 17:18:54
00053 suncat0214 pw.x -in pw.inp   Done                     12/31/2018 17:18:54
00054 suncat0214 pw.x -in pw.inp   Done                     12/31/2018 17:18:54
00055 suncat0214 pw.x -in pw.inp   Done                     12/31/2018 17:18:54
00056 suncat0213 pw.x -in pw.inp   Done                     12/31/2018 17:18:54
00057 suncat0213 pw.x -in pw.inp   Done                     12/31/2018 17:18:54
00058 suncat0213 pw.x -in pw.inp   Done                     12/31/2018 17:18:54
00059 suncat0213 pw.x -in pw.inp   Done                     12/31/2018 17:18:54
00060 suncat0213 pw.x -in pw.inp   Done                     12/31/2018 17:18:54
00061 suncat0213 pw.x -in pw.inp   Done                     12/31/2018 17:18:54
00062 suncat0213 pw.x -in pw.inp   Done                     12/31/2018 17:18:54
00063 suncat0213 pw.x -in pw.inp   Done                     12/31/2018 17:18:54