     Program PWSCF v.5.1rc2 (svn rev. 11289) starts on 27Dec2018 at 18:11:50

     Current dimensions of program PWSCF are:
     Max number of different atomic species (ntypx) = 10
     Max number of k-points (npk) =  40000
     Max angular momentum in pseudopotentials (lmaxx) =  3
     Presently stress not available with electric field

     IMPORTANT: XC functional enforced from input :
     Exchange-correlation      = BEEF-VDW ( 1  4 27 13 2)
     Any further DFT definition will be discarded
     Please, verify this is what you really want

     Subspace diagonalization in iterative solution of the eigenvalue problem:
     a serial algorithm will be used

     bravais-lattice index     =            0
     lattice parameter (alat)  =       1.8897  a.u.
     unit-cell volume          =    4478.3654 (a.u.)^3
     number of atoms/cell      =           12
     number of atomic types    =            2
     number of electrons       =       180.00
     number of Kohn-Sham states=          120
     kinetic-energy cutoff     =      36.7493  Ry
     charge density cutoff     =     367.4932  Ry
     convergence threshold     =      1.0E-06
     mixing beta               =       0.1000
     number of iterations used =           10  plain     mixing
     Exchange-correlation      = BEEF-VDW ( 1  4 27 13 2)
     nstep                     =           50

     celldm(1)=   1.889726  celldm(2)=   0.000000  celldm(3)=   0.000000
     celldm(4)=   0.000000  celldm(5)=   0.000000  celldm(6)=   0.000000

     crystal axes: (cart. coord. in units of alat)
               a(1) = (   5.585678   0.000000   0.000000 )
               a(2) = (  -2.792839   4.837339   0.000000 )
               a(3) = (   0.000000   0.000000  24.560687 )

     reciprocal axes: (cart. coord. in units 2 pi/alat)
               b(1) = (  0.179029  0.103363  0.000000 )
               b(2) = (  0.000000  0.206725  0.000000 )
               b(3) = (  0.000000  0.000000  0.040715 )

     PseudoPot. # 1 for Pd read from file:
     /afs/slac.stanford.edu/u/if/mamunm/psp/gbrv1.5pbe/Pd.UPF
     MD5 check sum: 2d733d2bc2cbfd217af676df1668a4bc
     Pseudo is Ultrasoft + core correction, Zval = 16.0
     Generated by new atomic code, or converted to UPF format
     Using radial grid of  887 points,  6 beta functions with:
                l(1) =   0
                l(2) =   0
                l(3) =   1
                l(4) =   1
                l(5) =   2
                l(6) =   2
     Q(r) pseudized with  8 coefficients,  rinner =    1.130   1.130   1.130
                                                       1.130   1.130

     PseudoPot. # 2 for Ti read from file:
     /afs/slac.stanford.edu/u/if/mamunm/psp/gbrv1.5pbe/Ti.UPF
     MD5 check sum: 88a00a6731bd790ddea75d31a80cb452
     Pseudo is Ultrasoft + core correction, Zval = 12.0
     Generated by new atomic code, or converted to UPF format
     Using radial grid of  851 points,  6 beta functions with:
                l(1) =   0
                l(2) =   0
                l(3) =   1
                l(4) =   1
                l(5) =   2
                l(6) =   2
     Q(r) pseudized with  6 coefficients,  rinner =    1.000   1.000   1.000
                                                       1.000   1.000

     vdW kernel table read from file vdW_kernel_table
     MD5 check sum: 095c7af220d748ca6e76c0b4c6cfb241

     atomic species   valence    mass     pseudopotential
        Pd1           16.00   106.42000     Pd( 1.00)
        Ti1           12.00    47.86700     Ti( 1.00)

     No symmetry found

   Cartesian axes

     site n.     atom                  positions (alat units)
         1           Pd1 tau(   1) = (   0.0000000   0.0000000  10.0000000  )
         2           Pd1 tau(   2) = (  -1.3964195   2.4186695  10.0000000  )
         3           Pd1 tau(   3) = (   1.3964195   2.4186695  10.0000000  )
         4           Ti1 tau(   4) = (   2.7928390   0.0000000  10.0000000  )
         5           Pd1 tau(   5) = (   2.7928390   1.6124463  12.2803435  )
         6           Pd1 tau(   6) = (   1.3964195   4.0311158  12.2803435  )
         7           Pd1 tau(   7) = (  -1.3964195   4.0311158  12.2803435  )
         8           Ti1 tau(   8) = (   0.0000000   1.6124463  12.2803435  )
         9           Pd1 tau(   9) = (  -0.0000000   3.2248927  14.5606870  )
        10           Pd1 tau(  10) = (   1.3964195   0.8062232  14.5606870  )
        11           Pd1 tau(  11) = (   4.1892585   0.8062232  14.5606870  )
        12           Ti1 tau(  12) = (   2.7928390   3.2248927  14.5606870  )

     number of k points=    20  Fermi-Dirac smearing, width (Ry)=  0.0110
                       cart. coord. in units 2pi/alat
        k(    1) = (   0.0000000   0.0000000   0.0000000), wk =   0.0555556
        k(    2) = (   0.0000000   0.0344542   0.0000000), wk =   0.1111111
        k(    3) = (   0.0000000   0.0689084   0.0000000), wk =   0.1111111
        k(    4) = (   0.0000000  -0.1033626   0.0000000), wk =   0.0555556
        k(    5) = (   0.0298382   0.0172271   0.0000000), wk =   0.1111111
        k(    6) = (   0.0298382   0.0516813   0.0000000), wk =   0.1111111
        k(    7) = (   0.0298382   0.0861355   0.0000000), wk =   0.1111111
        k(    8) = (   0.0298382  -0.0861355   0.0000000), wk =   0.1111111
        k(    9) = (   0.0298382  -0.0516813   0.0000000), wk =   0.1111111
        k(   10) = (   0.0298382  -0.0172271   0.0000000), wk =   0.1111111
        k(   11) = (   0.0596764   0.0344542   0.0000000), wk =   0.1111111
        k(   12) = (   0.0596764   0.0689084   0.0000000), wk =   0.1111111
        k(   13) = (   0.0596764   0.1033626   0.0000000), wk =   0.1111111
        k(   14) = (   0.0596764  -0.0689084   0.0000000), wk =   0.1111111
        k(   15) = (   0.0596764  -0.0344542   0.0000000), wk =   0.1111111
        k(   16) = (   0.0596764  -0.0000000   0.0000000), wk =   0.1111111
        k(   17) = (  -0.0895146  -0.0516813   0.0000000), wk =   0.0555556
        k(   18) = (  -0.0895146  -0.0172271   0.0000000), wk =   0.1111111
        k(   19) = (  -0.0895146   0.0172271   0.0000000), wk =   0.1111111
        k(   20) = (  -0.0895146  -0.1550439   0.0000000), wk =   0.0555556

     Largest allocated arrays     est. size (Mb)     dimensions
     Largest temporary arrays     est. size (Mb)     dimensions

     Check: negative/imaginary core charge=   -0.000002    0.000000

     Initial potential from superposition of free atoms
     Check: negative starting charge=   -0.685463

     starting charge  172.49981, renormalised to  180.00000

     negative rho (up, down):  7.153E-01 0.000E+00

     *
     * You are using vdW-DF for exchange-correlation in this calculation.
     * Please cite the following three references that made this development
     * possible:
     *
     *   M. Dion, H. Rydberg, E. Schroder, D. C. Langreth, and
     *   B. I. Lundqvist, Phys. Rev. Lett. 92, 246401 (2004).
     *
     *   T. Thonhauser, V. R. Cooper, S. Li, A. Puzder, P. Hyldgaard, and
     *   D. C. Langreth, Phys. Rev. B 76, 125112 (2007).
     *
     *   G. Roman-Perez and J. M. Soler, Phys. Rev. Lett. 103, 096102 (2009).
     *
     *
     * If you are using vdW-DF2, please also cite:
     *
     *   K. Lee, E. D. Murray, L. Kong, B. I. Lundqvist, and
     *   D. C. Langreth, Phys. Rev. B 82, 081101(R) (2010).
     *
     *
     * If you are calculating the stress with vdW-DF, please also cite:
     *
     *   R. Sabatini, E. Kucukbenli, B. Kolb, T. Thonhauser, and
     *   S. de Gironcoli, J. Phys.: Condens. Matter 24, 424209 (2012).
     *

     Carrying out vdW-DF run using the following parameters:

     Nqs =      20    Nr_points =    1024   r_max =   100.000
     q_mesh =
               0.00001000     0.04494208     0.09755937     0.15916263
               0.23128650     0.31572767     0.41458969     0.53033537
               0.66584808     0.82450364     1.01025438     1.22772762
               1.48234092     1.78043706     2.12944203     2.53805004
               3.01644009     3.57652955     4.23227104     5.00000000

     Gradients computed in reciprocal space

     Adding external electric field

     Computed dipole along edir(3) :
        Dipole               -0.0000 Ry au,         -0.0000 Debye
        Dipole field         -0.0000 Ry au

        Potential amp.        0.0000 Ry
        Total length         45.2526 bohr

     Starting wfc are  138 randomized atomic wfcs

     Self-consistent Calculation

     iteration #  1     ecut=    36.75 Ry     beta=0.10
     Davidson diagonalization with overlap
     ethr =  1.00E-02,  avg # of iterations =  8.0

[...]

     total energy              =   -2143.85822439 Ry
     Harris-Foulkes estimate   =   -2171.37795394 Ry
     estimated scf accuracy    <     154.36615414 Ry

[...]

     End of self-consistent calculation

          k = 0.0000 0.0000 0.0000 ( 16787 PWs)   bands (ev):

   -56.7315 -56.7267 -56.7263 -49.2080 -49.1388 -49.1388 -49.0708 -49.0708
   -49.0257 -49.0168 -48.9032 -48.9032 -48.8287 -48.8287 -48.8068 -48.8068
   -48.7635 -48.7626 -48.7272 -48.7244 -48.5807 -48.5807 -48.5764 -48.5764
   -48.5763 -48.5569 -48.5133 -48.5133 -48.5083 -48.5083 -33.0051 -33.0011
   -32.9377 -32.9377 -32.8534 -32.8534 -32.8522 -32.8522 -32.8234  -4.9946
    -3.6264  -3.6142  -3.5728  -3.4598  -3.4445  -3.4445  -3.1634  -3.1634
    -3.0690  -3.0690  -3.0418  -2.9691  -2.7537  -2.7537  -2.0877  -1.8858
    -1.8858  -1.8209  -1.8209  -1.5047  -1.4212  -1.3244  -1.1980  -1.1980
    -1.1539  -1.0323  -1.0323  -0.8442  -0.8442  -0.7165  -0.7165  -0.5927
    -0.5927  -0.3104   0.0620   0.0620   0.0621   0.0621   0.1741   0.1741
     0.4953   0.7536   0.7536   0.7866   0.8308   1.1134   1.1269   1.1685
     1.7700   2.0179   2.0179   2.2335   2.3186   2.3186   2.4594   2.4594
     2.5421   2.5927   2.5927   2.6459   2.6459   2.9638   2.9638   3.1201
     3.1201   3.4140   4.5920   4.5920   4.8220   4.8220   5.0263   5.0745
     5.3832   5.6297   6.0262   6.9656   7.8074   7.9726   7.9729   8.0364

[...]

          k =-0.0895-0.0517 0.0000 ( 16880 PWs)   bands (ev):

[...]

     the Fermi energy is     1.3321 ev

!    total energy              =   -2158.11884598 Ry
     Harris-Foulkes estimate   =   -2158.11884747 Ry
     estimated scf accuracy    <       0.00000032 Ry

     The total energy is the sum of the following terms:

     one-electron contribution =  -18068.26304736 Ry
     hartree contribution      =    9065.83346151 Ry
     xc contribution           =    -348.76094394 Ry
     ewald contribution        =    7193.12065402 Ry
     electric field correction =       0.00000000 Ry
     smearing contrib. (-TS)   =      -0.04897022 Ry

     convergence has been achieved in  21 iterations

 BEEF-vdW xc energy contributions
           1 :   -303.107116413981
           2 :    276.271704133381
           3 :   -230.673102999482
           4 :    178.792430484303
           5 :   -132.444095277229
           6 :    98.7889432536405
           7 :   -78.9844011278076
           8 :    69.4763504354630
           9 :   -64.8002474178838
          10 :    60.3511365790447
          11 :   -53.9673462143358
[...]
     Q(r) pseudized with  8 coefficients,  rinner =    1.130   1.130   1.130
                                                       1.130   1.130

     PseudoPot. # 2 for Ti read from file:
     /afs/slac.stanford.edu/u/if/mamunm/psp/gbrv1.5pbe/Ti.UPF
     MD5 check sum: 88a00a6731bd790ddea75d31a80cb452
     Pseudo is Ultrasoft + core correction, Zval = 12.0
     Generated by new atomic code, or converted to UPF format
     Using radial grid of  851 points,  6 beta functions with:
                l(1) =   0
                l(2) =   0
                l(3) =   1
                l(4) =   1
                l(5) =   2
                l(6) =   2
     Q(r) pseudized with  6 coefficients,  rinner =    1.000   1.000   1.000
                                                       1.000   1.000

     vdW kernel table read from file vdW_kernel_table
     MD5 check sum: 095c7af220d748ca6e76c0b4c6cfb241

     atomic species   valence    mass     pseudopotential
        Pd1           16.00   106.42000     Pd( 1.00)
        Ti1           12.00    47.86700     Ti( 1.00)

     No symmetry found

   Cartesian axes

     site n.     atom                  positions (alat units)
         1           Pd1 tau(   1) = (   0.0000000   0.0000000  10.0000000  )
         2           Pd1 tau(   2) = (  -1.3964195   2.4186695  10.0000000  )
         3           Pd1 tau(   3) = (   1.3964195   2.4186695  10.0000000  )
         4           Ti1 tau(   4) = (   2.7928390   0.0000000  10.0000000  )
         5           Pd1 tau(   5) = (   2.7928390   1.6124463  12.2803435  )
         6           Pd1 tau(   6) = (   1.3964195   4.0311158  12.2803435  )
         7           Pd1 tau(   7) = (  -1.3964195   4.0311158  12.2803435  )
         8           Ti1 tau(   8) = (   0.0000000   1.6124463  12.2803435  )
         9           Pd1 tau(   9) = (  -0.0000004   3.1967667  14.5585716  )
        10           Pd1 tau(  10) = (   1.3720614   0.8202860  14.5585721  )
        11           Pd1 tau(  11) = (   4.2136170   0.8202860  14.5585712  )
        12           Ti1 tau(  12) = (   2.7928385   3.2248926  14.3827511  )

     number of k points=    20  Fermi-Dirac smearing, width (Ry)=  0.0110
                       cart. coord. in units 2pi/alat
        k(    1) = (   0.0000000   0.0000000   0.0000000), wk =   0.0555556
        k(    2) = (   0.0000000   0.0344542   0.0000000), wk =   0.1111111
        k(    3) = (   0.0000000   0.0689084   0.0000000), wk =   0.1111111
        k(    4) = (   0.0000000  -0.1033626   0.0000000), wk =   0.0555556
        k(    5) = (   0.0298382   0.0172271   0.0000000), wk =   0.1111111
        k(    6) = (   0.0298382   0.0516813   0.0000000), wk =   0.1111111
        k(    7) = (   0.0298382   0.0861355   0.0000000), wk =   0.1111111
        k(    8) = (   0.0298382  -0.0861355   0.0000000), wk =   0.1111111
        k(    9) = (   0.0298382  -0.0516813   0.0000000), wk =   0.1111111
        k(   10) = (   0.0298382  -0.0172271   0.0000000), wk =   0.1111111
        k(   11) = (   0.0596764   0.0344542   0.0000000), wk =   0.1111111
        k(   12) = (   0.0596764   0.0689084   0.0000000), wk =   0.1111111
        k(   13) = (   0.0596764   0.1033626   0.0000000), wk =   0.1111111
        k(   14) = (   0.0596764  -0.0689084   0.0000000), wk =   0.1111111
        k(   15) = (   0.0596764  -0.0344542   0.0000000), wk =   0.1111111
        k(   16) = (   0.0596764  -0.0000000   0.0000000), wk =   0.1111111
        k(   17) = (  -0.0895146  -0.0516813   0.0000000), wk =   0.0555556
        k(   18) = (  -0.0895146  -0.0172271   0.0000000), wk =   0.1111111
        k(   19) = (  -0.0895146   0.0172271   0.0000000), wk =   0.1111111
        k(   20) = (  -0.0895146  -0.1550439   0.0000000), wk =   0.0555556

     Largest allocated arrays     est. size (Mb)     dimensions
     Largest temporary arrays     est. size (Mb)     dimensions

     Check: negative/imaginary core charge=   -0.000002    0.000000

     Initial potential from superposition of free atoms
     Check: negative starting charge=   -0.684535

     starting charge  172.49981, renormalised to  180.00000

[...]

     *
     * You are using vdW-DF for exchange-correlation in this calculation.
     * Please cite the following three references that made this development
     * possible:
     *
     *   M. Dion, H. Rydberg, E. Schroder, D. C. Langreth, and
     *   B. I. Lundqvist, Phys. Rev. Lett. 92, 246401 (2004).
     *
     *   T. Thonhauser, V. R. Cooper, S. Li, A. Puzder, P. Hyldgaard, and
     *   D. C. Langreth, Phys. Rev. B 76, 125112 (2007).
     *
     *   G. Roman-Perez and J. M. Soler, Phys. Rev. Lett. 103, 096102 (2009).
     *
     *
     * If you are using vdW-DF2, please also cite:
     *
     *   K. Lee, E. D. Murray, L. Kong, B. I. Lundqvist, and
     *   D. C. Langreth, Phys. Rev. B 82, 081101(R) (2010).
     *
     *
     * If you are calculating the stress with vdW-DF, please also cite:
     *
     *   R. Sabatini, E. Kucukbenli, B. Kolb, T. Thonhauser, and
     *   S. de Gironcoli, J. Phys.: Condens. Matter 24, 424209 (2012).
     *

     Carrying out vdW-DF run using the following parameters:

     Nqs =      20    Nr_points =    1024   r_max =   100.000
     q_mesh =
               0.00001000     0.04494208     0.09755937     0.15916263
               0.23128650     0.31572767     0.41458969     0.53033537
               0.66584808     0.82450364     1.01025438     1.22772762
               1.48234092     1.78043706     2.12944203     2.53805004
               3.01644009     3.57652955     4.23227104     5.00000000

     Gradients computed in reciprocal space

[...]

     Starting wfc are  138 randomized atomic wfcs

     Self-consistent Calculation

[...]

     iteration # 13     ecut=    36.75 Ry     beta=0.10
     Davidson diagonalization with overlap
     c_bands:  1 eigenvalues not converged
     ethr =  7.54E-05,  avg # of iterations =  7.7

[...]

     iteration # 18     ecut=    36.75 Ry     beta=0.10
     Davidson diagonalization with overlap
     c_bands:  1 eigenvalues not converged
     ethr =  4.28E-06,  avg # of iterations =  2.1

[...]

     total energy              =   -2158.12783733 Ry
     Harris-Foulkes estimate   =   -2158.12783740 Ry
     estimated scf accuracy    <       0.00000175 Ry

     iteration # 24     ecut=    36.75 Ry     beta=0.10
     Davidson diagonalization with overlap
     ethr =  9.72E-10,  avg # of iterations =  2.0

[...]

     negative rho (up, down):  7.160E-01 0.000E+00

     Adding external electric field

     Computed dipole along edir(3) :
        Dipole               -0.0265 Ry au,         -0.0675 Debye
        Dipole field         -0.0001 Ry au

        Potential amp.        0.0067 Ry
        Total length         45.2526 bohr

     End of self-consistent calculation

[...]

          k = 0.0597-0.0000 0.0000 ( 16824 PWs)   bands (ev):

[...]

          k =-0.0895-0.1550 0.0000 ( 16880 PWs)   bands (ev):

   -56.7735 -56.7705 -56.7338 -49.3407 -49.2938 -49.2656 -49.2263 -49.1998
   -49.1716 -49.1166 -49.0846 -49.0298 -48.8699 -48.8418 -48.8345 -48.8124
   -48.8078 -48.7773 -48.7390 -48.7275 -48.6862 -48.6612 -48.6340 -48.6101
   -48.6091 -48.5968 -48.5858 -48.5674 -48.5652 -48.5429 -33.0541 -33.0082
   -32.9882 -32.9854 -32.9052 -32.9011 -32.8769 -32.8723 -32.8529  -3.7784
    -3.5758  -3.1208  -3.0894  -2.9981  -2.8950  -2.7948  -2.7778  -2.7628
    -2.7221  -2.5110  -2.4873  -2.3602  -2.3076  -2.2619  -2.1825  -2.1021
    -2.0315  -1.9716  -1.8654  -1.5227  -1.4758  -1.3431  -1.3299  -1.2963
    -1.2393  -1.2200  -1.2027  -1.0939  -1.0692  -1.0668  -1.0413  -1.0029
    -0.9294  -0.9027  -0.8788  -0.7522  -0.6254  -0.5957  -0.5058  -0.4859
    -0.4162  -0.2350  -0.1750   0.1223   0.2039   0.3554   0.4759   0.5870
     0.8296   0.9889   1.0362   1.5694   1.7343   1.7676   1.8611   1.8959
     1.9442   2.1005   2.1813   2.3199   2.3646   2.3896   2.8722   3.3250
     3.3769   3.7251   4.5355   4.5836   5.1133   5.4680   5.6167   6.6003
     6.6707   6.9146   6.9452   7.4668   7.4846   7.5779   7.5962   8.6932

     the Fermi energy is     1.2911 ev

!    total energy              =   -2158.12783691 Ry
     Harris-Foulkes estimate   =   -2158.12783757 Ry
     estimated scf accuracy    <       0.00000071 Ry

     The total energy is the sum of the following terms:

     one-electron contribution =  -18160.96712699 Ry
     hartree contribution      =    9111.76951819 Ry
     xc contribution           =    -348.82864059 Ry
     ewald contribution        =    7239.94498116 Ry
     electric field correction =       0.00000198 Ry
     smearing contrib. (-TS)   =      -0.04657066 Ry

     convergence has been achieved in  24 iterations

 BEEF-vdW xc energy contributions
           1 :   -303.239361033327
           2 :    276.433456602330
           3 :   -230.869396063990
           4 :    178.996869310939
           5 :   -132.615484040782
           6 :    98.8976221271053
           7 :   -79.0289785813832
           8 :    69.4829563399717
           9 :   -64.8086774115712
          10 :    60.3953672981872
          11 :   -54.0591108981923
          12 :    46.0814252400350
          13 :   -38.1312486311439
          14 :    31.8963248500552
          15 :   -28.1624610797251
          16 :    26.6295251565682
          17 :   -26.3072821109971
          18 :    26.1126905042075
          19 :   -25.3473000536869
          20 :    23.8941494054729
          21 :   -22.1328697181638
          22 :    20.6628314656760
          23 :   -19.9737162885617
          24 :    20.1990497663908
          25 :   -21.0552968574453
          26 :    21.9894611561257
          27 :   -22.4657694200725
          28 :    22.2400691484076
          29 :   -21.4667464792850
          30 :    20.5690363330884
          31 :   -29.9087615106418
          32 :   -22.0096634386958

     Forces acting on atoms (Ry/au):

     negative rho (up, down):  7.160E-01 0.000E+00
     atom    1 type  1   force =     0.00000009    0.01662380   -0.00231992
     atom    2 type  1   force =     0.01439664   -0.00831192   -0.00231996
     atom    3 type  1   force =    -0.01439665   -0.00831192   -0.00232006
     atom    4 type  2   force =     0.00000007    0.00000005    0.02479869
     atom    5 type  1   force =     0.00000001   -0.00418598   -0.00555220
     atom    6 type  1   force =    -0.00362510    0.00209296   -0.00555214
     atom    7 type  1   force =     0.00362527    0.00209287   -0.00555183
     atom    8 type  2   force =    -0.00000000    0.00000018    0.00014941
     atom    9 type  1   force =    -0.00000012   -0.00008546   -0.00054676
     atom   10 type  1   force =    -0.00007388    0.00004268   -0.00054654
     atom   11 type  1   force =     0.00007352    0.00004275   -0.00054660
     atom   12 type  2   force =     0.00000015   -0.00000001    0.00030791

     Total force =     0.040078     Total SCF correction =     0.002611

     entering subroutine stress ...

     negative rho (up, down):  7.160E-01 0.000E+00
          total   stress  (Ry/bohr**3)                   (kbar)     P=  -10.39
  -0.00008976  -0.00000000   0.00000000        -13.20     -0.00      0.00
  -0.00000000  -0.00008976  -0.00000000         -0.00    -13.20     -0.00
   0.00000000  -0.00000000  -0.00003236          0.00     -0.00     -4.76

 !ASE

     Writing output data file calc.save

     General routines

     Parallel routines

   This run was terminated on:  19:10:51  27Dec2018

   JOB DONE.
Job  /afs/slac/g/suncat/bin/suncat-tsmpirun -x LD_LIBRARY_PATH -wdir /scratch/qe110485_Wc77n pw.x -in pw.inp

TID   HOST_NAME   COMMAND_LINE            STATUS            TERMINATION_TIME
00000 suncat0096 pw.x -in pw.inp   Done                     12/27/2018 19:10:51
00001 suncat0096 pw.x -in pw.inp   Done                     12/27/2018 19:10:51
00002 suncat0096 pw.x -in pw.inp   Done                     12/27/2018 19:10:51
00003 suncat0096 pw.x -in pw.inp   Done                     12/27/2018 19:10:51
00004 suncat0096 pw.x -in pw.inp   Done                     12/27/2018 19:10:51
00005 suncat0096 pw.x -in pw.inp   Done                     12/27/2018 19:10:51
00006 suncat0096 pw.x -in pw.inp   Done                     12/27/2018 19:10:51
00007 suncat0096 pw.x -in pw.inp   Done                     12/27/2018 19:10:51
00008 suncat0093 pw.x -in pw.inp   Done                     12/27/2018 19:10:51
00009 suncat0093 pw.x -in pw.inp   Done                     12/27/2018 19:10:51
00010 suncat0093 pw.x -in pw.inp   Done                     12/27/2018 19:10:51
00011 suncat0093 pw.x -in pw.inp   Done                     12/27/2018 19:10:51
00012 suncat0093 pw.x -in pw.inp   Done                     12/27/2018 19:10:51
00013 suncat0093 pw.x -in pw.inp   Done                     12/27/2018 19:10:51
00014 suncat0093 pw.x -in pw.inp   Done                     12/27/2018 19:10:51
00015 suncat0093 pw.x -in pw.inp   Done                     12/27/2018 19:10:51
00016 suncat0062 pw.x -in pw.inp   Done                     12/27/2018 19:10:51
00017 suncat0062 pw.x -in pw.inp   Done                     12/27/2018 19:10:51
00018 suncat0062 pw.x -in pw.inp   Done                     12/27/2018 19:10:51
00019 suncat0062 pw.x -in pw.inp   Done                     12/27/2018 19:10:51
00020 suncat0062 pw.x -in pw.inp   Done                     12/27/2018 19:10:51
00021 suncat0062 pw.x -in pw.inp   Done                     12/27/2018 19:10:51
00022 suncat0062 pw.x -in pw.inp   Done                     12/27/2018 19:10:51
00023 suncat0062 pw.x -in pw.inp   Done                     12/27/2018 19:10:51
00024 suncat0060 pw.x -in pw.inp   Done                     12/27/2018 19:10:51
00025 suncat0060 pw.x -in pw.inp   Done                     12/27/2018 19:10:51
00026 suncat0060 pw.x -in pw.inp   Done                     12/27/2018 19:10:51
00027 suncat0060 pw.x -in pw.inp   Done                     12/27/2018 19:10:51
00028 suncat0060 pw.x -in pw.inp   Done                     12/27/2018 19:10:51
00029 suncat0060 pw.x -in pw.inp   Done                     12/27/2018 19:10:51
00030 suncat0060 pw.x -in pw.inp   Done                     12/27/2018 19:10:51
00031 suncat0060 pw.x -in pw.inp   Done                     12/27/2018 19:10:51
00032 suncat0059 pw.x -in pw.inp   Done                     12/27/2018 19:10:51
00033 suncat0059 pw.x -in pw.inp   Done                     12/27/2018 19:10:51
00034 suncat0059 pw.x -in pw.inp   Done                     12/27/2018 19:10:51
00035 suncat0059 pw.x -in pw.inp   Done                     12/27/2018 19:10:51
00036 suncat0059 pw.x -in pw.inp   Done                     12/27/2018 19:10:51
00037 suncat0059 pw.x -in pw.inp   Done                     12/27/2018 19:10:51
00038 suncat0059 pw.x -in pw.inp   Done                     12/27/2018 19:10:51
00039 suncat0059 pw.x -in pw.inp   Done                     12/27/2018 19:10:51
00040 suncat0180 pw.x -in pw.inp   Done                     12/27/2018 19:10:51
00041 suncat0180 pw.x -in pw.inp   Done                     12/27/2018 19:10:51
00042 suncat0180 pw.x -in pw.inp   Done                     12/27/2018 19:10:51
00043 suncat0180 pw.x -in pw.inp   Done                     12/27/2018 19:10:51
00044 suncat0180 pw.x -in pw.inp   Done                     12/27/2018 19:10:51
00045 suncat0180 pw.x -in pw.inp   Done                     12/27/2018 19:10:51
00046 suncat0180 pw.x -in pw.inp   Done                     12/27/2018 19:10:51
00047 suncat0180 pw.x -in pw.inp   Done                     12/27/2018 19:10:51
00048 suncat0167 pw.x -in pw.inp   Done                     12/27/2018 19:10:51
00049 suncat0167 pw.x -in pw.inp   Done                     12/27/2018 19:10:51
00050 suncat0167 pw.x -in pw.inp   Done                     12/27/2018 19:10:51
00051 suncat0167 pw.x -in pw.inp   Done                     12/27/2018 19:10:51
00052 suncat0167 pw.x -in pw.inp   Done                     12/27/2018 19:10:51
00053 suncat0167 pw.x -in pw.inp   Done                     12/27/2018 19:10:51
00054 suncat0167 pw.x -in pw.inp   Done                     12/27/2018 19:10:51
00055 suncat0167 pw.x -in pw.inp   Done                     12/27/2018 19:10:51
00056 suncat0166 pw.x -in pw.inp   Done                     12/27/2018 19:10:51
00057 suncat0166 pw.x -in pw.inp   Done                     12/27/2018 19:10:51
00058 suncat0166 pw.x -in pw.inp   Done                     12/27/2018 19:10:51
00059 suncat0166 pw.x -in pw.inp   Done                     12/27/2018 19:10:51
00060 suncat0166 pw.x -in pw.inp   Done                     12/27/2018 19:10:51
00061 suncat0166 pw.x -in pw.inp   Done                     12/27/2018 19:10:51
00062 suncat0166 pw.x -in pw.inp   Done                     12/27/2018 19:10:51
00063 suncat0166 pw.x -in pw.inp   Done                     12/27/2018 19:10:51