     Program PWSCF v.5.1rc2 (svn rev. 11289) starts on 27Dec2018 at 19:28:27

     Current dimensions of program PWSCF are:
     Max number of different atomic species (ntypx) = 10
     Max number of k-points (npk) =  40000
     Max angular momentum in pseudopotentials (lmaxx) =  3
     Presently stress not available with electric field

     IMPORTANT: XC functional enforced from input :
     Exchange-correlation      = BEEF-VDW ( 1  4 27 13 2)
     Any further DFT definition will be discarded
     Please, verify this is what you really want

     Subspace diagonalization in iterative solution of the eigenvalue problem:
     a serial algorithm will be used

     bravais-lattice index     =            0
     lattice parameter (alat)  =       1.8897  a.u.
     unit-cell volume          =    4467.5036 (a.u.)^3
     number of atoms/cell      =           12
     number of atomic types    =            2
     number of electrons       =       204.00
     number of Kohn-Sham states=          132
     kinetic-energy cutoff     =      36.7493  Ry
     charge density cutoff     =     367.4932  Ry
     convergence threshold     =      1.0E-06
     mixing beta               =       0.1000
     number of iterations used =           10  plain     mixing
     Exchange-correlation      = BEEF-VDW ( 1  4 27 13 2)
     nstep                     =           50

     celldm(1)=   1.889726  celldm(2)=   0.000000  celldm(3)=   0.000000
     celldm(4)=   0.000000  celldm(5)=   0.000000  celldm(6)=   0.000000

     crystal axes: (cart. coord. in units of alat)
               a(1) = (   5.579475   0.000000   0.000000 )
               a(2) = (  -2.789738   4.831967   0.000000 )
               a(3) = (   0.000000   0.000000  24.555623 )

     reciprocal axes: (cart. coord. in units 2 pi/alat)
               b(1) = (  0.179228  0.103478  0.000000 )
               b(2) = (  0.000000  0.206955  0.000000 )
               b(3) = (  0.000000  0.000000  0.040724 )

     PseudoPot. # 1 for Pt read from file:
     /afs/slac.stanford.edu/u/if/mamunm/psp/gbrv1.5pbe/Pt.UPF
     MD5 check sum: f09d6de1a584b5a045c4fc126da2d0c4
     Pseudo is Ultrasoft + core correction, Zval = 16.0
     Generated by new atomic code, or converted to UPF format
     Using radial grid of  985 points,  6 beta functions with:
                l(1) =   0
                l(2) =   0
                l(3) =   1
                l(4) =   1
                l(5) =   2
                l(6) =   2
     Q(r) pseudized with  8 coefficients,  rinner =    1.300   1.300   1.300
                                                       1.300   1.300

     PseudoPot. # 2 for Zn read from file:
     /afs/slac.stanford.edu/u/if/mamunm/psp/gbrv1.5pbe/Zn.UPF
     MD5 check sum: df62231357ef9e81f77b2b3087fa5675
     Pseudo is Ultrasoft, Zval = 20.0
     Generated by new atomic code, or converted to UPF format
     Using radial grid of  943 points,  6 beta functions with:
                l(1) =   0
                l(2) =   0
                l(3) =   1
                l(4) =   1
                l(5) =   2
                l(6) =   2
     Q(r) pseudized with  8 coefficients,  rinner =    1.100   1.100   1.100
                                                       1.100   1.100

     vdW kernel table read from file vdW_kernel_table
     MD5 check sum: 095c7af220d748ca6e76c0b4c6cfb241

     atomic species   valence    mass     pseudopotential
        Pt1           16.00   195.08400     Pt( 1.00)
        Zn1           20.00    65.38000     Zn( 1.00)

     No symmetry found

   Cartesian axes

     site n.     atom                  positions (alat units)
         1           Pt1 tau(   1) = (   0.0000000   0.0000000  10.0000000  )
         2           Pt1 tau(   2) = (  -1.3948688   2.4159837  10.0000000  )
         3           Pt1 tau(   3) = (   1.3948688   2.4159837  10.0000000  )
         4           Zn1 tau(   4) = (   2.7897377   0.0000000  10.0000000  )
         5           Pt1 tau(   5) = (   2.7897377   1.6106558  12.2778113  )
         6           Pt1 tau(   6) = (   1.3948688   4.0266395  12.2778113  )
         7           Pt1 tau(   7) = (  -1.3948688   4.0266395  12.2778113  )
         8           Zn1 tau(   8) = (   0.0000000   1.6106558  12.2778113  )
         9           Pt1 tau(   9) = (  -0.0000000   3.2213116  14.5556226  )
        10           Pt1 tau(  10) = (   1.3948688   0.8053279  14.5556226  )
        11           Pt1 tau(  11) = (   4.1846065   0.8053279  14.5556226  )
        12           Zn1 tau(  12) = (   2.7897377   3.2213116  14.5556226  )

     number of k points=    20  Fermi-Dirac smearing, width (Ry)=  0.0110
                       cart. coord. in units 2pi/alat
        k(    1) = (   0.0000000   0.0000000   0.0000000), wk =   0.0555556
        k(    2) = (   0.0000000   0.0344925   0.0000000), wk =   0.1111111
        k(    3) = (   0.0000000   0.0689850   0.0000000), wk =   0.1111111
        k(    4) = (   0.0000000  -0.1034775   0.0000000), wk =   0.0555556
        k(    5) = (   0.0298714   0.0172463   0.0000000), wk =   0.1111111
        k(    6) = (   0.0298714   0.0517388   0.0000000), wk =   0.1111111
        k(    7) = (   0.0298714   0.0862313   0.0000000), wk =   0.1111111
        k(    8) = (   0.0298714  -0.0862313   0.0000000), wk =   0.1111111
        k(    9) = (   0.0298714  -0.0517388   0.0000000), wk =   0.1111111
        k(   10) = (   0.0298714  -0.0172463   0.0000000), wk =   0.1111111
        k(   11) = (   0.0597428   0.0344925   0.0000000), wk =   0.1111111
        k(   12) = (   0.0597428   0.0689850   0.0000000), wk =   0.1111111
        k(   13) = (   0.0597428   0.1034775   0.0000000), wk =   0.1111111
        k(   14) = (   0.0597428  -0.0689850   0.0000000), wk =   0.1111111
        k(   15) = (   0.0597428  -0.0344925   0.0000000), wk =   0.1111111
        k(   16) = (   0.0597428   0.0000000   0.0000000), wk =   0.1111111
        k(   17) = (  -0.0896142  -0.0517388   0.0000000), wk =   0.0555556
        k(   18) = (  -0.0896142  -0.0172463   0.0000000), wk =   0.1111111
        k(   19) = (  -0.0896142   0.0172463   0.0000000), wk =   0.1111111
        k(   20) = (  -0.0896142  -0.1552163   0.0000000), wk =   0.0555556

     Largest allocated arrays     est. size (Mb)     dimensions
     Largest temporary arrays     est. size (Mb)     dimensions

     Check: negative/imaginary core charge=   -0.000001    0.000000

     Initial potential from superposition of free atoms
     Check: negative starting charge=   -1.651779

     starting charge  199.49948, renormalised to  204.00000

     negative rho (up, down):  1.689E+00 0.000E+00

     *
     * You are using vdW-DF for exchange-correlation in this calculation.
     * Please cite the following three references that made this development
     * possible:
     *
     *   M. Dion, H. Rydberg, E. Schroder, D. C. Langreth, and
     *   B. I. Lundqvist, Phys. Rev. Lett. 92, 246401 (2004).
     *
     *   T. Thonhauser, V. R. Cooper, S. Li, A. Puzder, P. Hyldgaard, and
     *   D. C. Langreth, Phys. Rev. B 76, 125112 (2007).
     *
     *   G. Roman-Perez and J. M. Soler, Phys. Rev. Lett. 103, 096102 (2009).
     *
     *
     * If you are using vdW-DF2, please also cite:
     *
     *   K. Lee, E. D. Murray, L. Kong, B. I. Lundqvist, and
     *   D. C. Langreth, Phys. Rev. B 82, 081101(R) (2010).
     *
     *
     * If you are calculating the stress with vdW-DF, please also cite:
     *
     *   R. Sabatini, E. Kucukbenli, B. Kolb, T. Thonhauser, and
     *   S. de Gironcoli, J. Phys.: Condens. Matter 24, 424209 (2012).
     *

     Carrying out vdW-DF run using the following parameters:

     Nqs =      20    Nr_points =    1024   r_max =   100.000
     q_mesh =
               0.00001000     0.04494208     0.09755937     0.15916263
               0.23128650     0.31572767     0.41458969     0.53033537
               0.66584808     0.82450364     1.01025438     1.22772762
               1.48234092     1.78043706     2.12944203     2.53805004
               3.01644009     3.57652955     4.23227104     5.00000000

     Gradients computed in reciprocal space

     Adding external electric field

     Computed dipole along edir(3) :
        Dipole                0.0000 Ry au,          0.0000 Debye
        Dipole field          0.0000 Ry au

        Potential amp.       -0.0000 Ry
        Total length         45.2433 bohr

     Starting wfc are  147 randomized atomic wfcs

     Self-consistent Calculation

     iteration #  1     ecut=    36.75 Ry     beta=0.10
     Davidson diagonalization with overlap
     ethr =  1.00E-02,  avg # of iterations =  7.2

[...]

     total energy              =   -3298.91658783 Ry
     Harris-Foulkes estimate   =   -3302.69771384 Ry
     estimated scf accuracy    <      21.89433650 Ry

[...]

     End of self-consistent calculation

          k = 0.0000 0.0000 0.0000 ( 16763 PWs)   bands (ev):

  -124.5078-124.4053-124.4048 -78.7025 -78.7025 -78.6924 -78.6104 -78.6099
   -78.5825 -78.5825 -78.5821 -78.5821 -51.3862 -51.2426 -51.2425 -51.2412
   -51.2002 -51.2000 -51.0800 -51.0657 -51.0639 -51.0565 -51.0563 -50.9435
   -50.9435 -50.9261 -50.9261 -50.7876 -50.7829 -50.7778 -50.7777 -50.7746
   -50.7746 -50.7218 -50.7002 -50.6848 -50.6847 -50.6735 -50.6734  -7.3282
    -5.8686  -5.8516  -5.8454  -5.8453  -5.7560  -5.7560  -5.6312  -5.6085
    -5.6085  -5.5744  -5.5744  -5.3815  -5.3815  -5.3802  -5.3802  -5.0726
    -4.9040  -4.5812  -4.0242  -3.8655  -3.3856  -3.3855  -3.2610  -3.0747
    -3.0747  -2.6911  -2.6910  -2.6856  -2.6855  -2.5874  -1.8560  -1.8560
    -1.6661  -1.6661  -1.4652  -1.3430  -1.2136  -0.8991  -0.8991  -0.7454
    -0.4890  -0.4888  -0.1566  -0.1564   0.1312   0.2128   0.2128   0.2742
     0.2742   0.5152   0.5284   0.5285   0.6892   0.6893   0.8893   0.8894
     1.3749   1.4535   1.4535   1.6933   1.8171   1.9742   1.9742   2.0978
     2.1578   2.3933   3.2137   3.3306   3.6887   3.6888   3.7524   3.7524
     5.5945   5.8222   5.9141   6.2067   6.4089   6.6607   6.6607   7.0278
     7.0278   7.1413   7.3967   7.8937   7.8937   8.0629   9.6310   9.8783
     9.9478  10.6169  10.6169  10.6755

[...]

          k =-0.0896-0.0517 0.0000 ( 16832 PWs)   bands (ev):

[...]

     the Fermi energy is     1.4235 ev

!    total energy              =   -3299.64328663 Ry
     Harris-Foulkes estimate   =   -3299.64327579 Ry
     estimated scf accuracy    <       0.00000088 Ry

     The total energy is the sum of the following terms:

     one-electron contribution =  -23873.19268429 Ry
     hartree contribution      =   11961.54712328 Ry
     xc contribution           =    -658.02746977 Ry
     ewald contribution        =    9270.09203718 Ry
     electric field correction =       0.00000000 Ry
     smearing contrib. (-TS)   =      -0.06229304 Ry

     convergence has been achieved in  15 iterations

 BEEF-vdW xc energy contributions
           1 :   -585.258629093021
           2 :    541.898038827662
           3 :   -465.386439105716
           4 :    372.091460721487
           5 :   -278.802499167477
           6 :    197.854546414688
           7 :   -134.860836505180
           8 :    89.3339796553488
[...]
                l(1) =   0
                l(2) =   0
                l(3) =   1
                l(4) =   1
                l(5) =   2
                l(6) =   2
     Q(r) pseudized with  8 coefficients,  rinner =    1.300   1.300   1.300
                                                       1.300   1.300

     PseudoPot. # 2 for Zn read from file:
     /afs/slac.stanford.edu/u/if/mamunm/psp/gbrv1.5pbe/Zn.UPF
     MD5 check sum: df62231357ef9e81f77b2b3087fa5675
     Pseudo is Ultrasoft, Zval = 20.0
     Generated by new atomic code, or converted to UPF format
     Using radial grid of  943 points,  6 beta functions with:
                l(1) =   0
                l(2) =   0
                l(3) =   1
                l(4) =   1
                l(5) =   2
                l(6) =   2
     Q(r) pseudized with  8 coefficients,  rinner =    1.100   1.100   1.100
                                                       1.100   1.100

     vdW kernel table read from file vdW_kernel_table
     MD5 check sum: 095c7af220d748ca6e76c0b4c6cfb241

     atomic species   valence    mass     pseudopotential
        Pt1           16.00   195.08400     Pt( 1.00)
        Zn1           20.00    65.38000     Zn( 1.00)

     No symmetry found

   Cartesian axes

     site n.     atom                  positions (alat units)
         1           Pt1 tau(   1) = (   0.0000000   0.0000000  10.0000000  )
         2           Pt1 tau(   2) = (  -1.3948688   2.4159837  10.0000000  )
         3           Pt1 tau(   3) = (   1.3948688   2.4159837  10.0000000  )
         4           Zn1 tau(   4) = (   2.7897377   0.0000000  10.0000000  )
         5           Pt1 tau(   5) = (   2.7897377   1.6106558  12.2778113  )
         6           Pt1 tau(   6) = (   1.3948688   4.0266395  12.2778113  )
         7           Pt1 tau(   7) = (  -1.3948688   4.0266395  12.2778113  )
         8           Zn1 tau(   8) = (   0.0000000   1.6106558  12.2778113  )
         9           Pt1 tau(   9) = (   0.0000769   3.2033026  14.5240927  )
        10           Pt1 tau(  10) = (   1.3793245   0.8143420  14.5240965  )
        11           Pt1 tau(  11) = (   4.2002409   0.8143046  14.5240949  )
        12           Zn1 tau(  12) = (   2.7898598   3.2213228  14.6330324  )

     number of k points=    20  Fermi-Dirac smearing, width (Ry)=  0.0110
                       cart. coord. in units 2pi/alat
        k(    1) = (   0.0000000   0.0000000   0.0000000), wk =   0.0555556
        k(    2) = (   0.0000000   0.0344925   0.0000000), wk =   0.1111111
        k(    3) = (   0.0000000   0.0689850   0.0000000), wk =   0.1111111
        k(    4) = (   0.0000000  -0.1034775   0.0000000), wk =   0.0555556
        k(    5) = (   0.0298714   0.0172463   0.0000000), wk =   0.1111111
        k(    6) = (   0.0298714   0.0517388   0.0000000), wk =   0.1111111
        k(    7) = (   0.0298714   0.0862313   0.0000000), wk =   0.1111111
        k(    8) = (   0.0298714  -0.0862313   0.0000000), wk =   0.1111111
        k(    9) = (   0.0298714  -0.0517388   0.0000000), wk =   0.1111111
        k(   10) = (   0.0298714  -0.0172463   0.0000000), wk =   0.1111111
        k(   11) = (   0.0597428   0.0344925   0.0000000), wk =   0.1111111
        k(   12) = (   0.0597428   0.0689850   0.0000000), wk =   0.1111111
        k(   13) = (   0.0597428   0.1034775   0.0000000), wk =   0.1111111
        k(   14) = (   0.0597428  -0.0689850   0.0000000), wk =   0.1111111
        k(   15) = (   0.0597428  -0.0344925   0.0000000), wk =   0.1111111
        k(   16) = (   0.0597428   0.0000000   0.0000000), wk =   0.1111111
        k(   17) = (  -0.0896142  -0.0517388   0.0000000), wk =   0.0555556
        k(   18) = (  -0.0896142  -0.0172463   0.0000000), wk =   0.1111111
        k(   19) = (  -0.0896142   0.0172463   0.0000000), wk =   0.1111111
        k(   20) = (  -0.0896142  -0.1552163   0.0000000), wk =   0.0555556

     Largest allocated arrays     est. size (Mb)     dimensions
     Largest temporary arrays     est. size (Mb)     dimensions

     Check: negative/imaginary core charge=   -0.000001    0.000000

     Initial potential from superposition of free atoms
     Check: negative starting charge=   -1.648037

     starting charge  199.49948, renormalised to  204.00000

[...]

     *
     * You are using vdW-DF for exchange-correlation in this calculation.
     * Please cite the following three references that made this development
     * possible:
     *
     *   M. Dion, H. Rydberg, E. Schroder, D. C. Langreth, and
     *   B. I. Lundqvist, Phys. Rev. Lett. 92, 246401 (2004).
     *
     *   T. Thonhauser, V. R. Cooper, S. Li, A. Puzder, P. Hyldgaard, and
     *   D. C. Langreth, Phys. Rev. B 76, 125112 (2007).
     *
     *   G. Roman-Perez and J. M. Soler, Phys. Rev. Lett. 103, 096102 (2009).
     *
     *
     * If you are using vdW-DF2, please also cite:
     *
     *   K. Lee, E. D. Murray, L. Kong, B. I. Lundqvist, and
     *   D. C. Langreth, Phys. Rev. B 82, 081101(R) (2010).
     *
     *
     * If you are calculating the stress with vdW-DF, please also cite:
     *
     *   R. Sabatini, E. Kucukbenli, B. Kolb, T. Thonhauser, and
     *   S. de Gironcoli, J. Phys.: Condens. Matter 24, 424209 (2012).
     *

     Carrying out vdW-DF run using the following parameters:

     Nqs =      20    Nr_points =    1024   r_max =   100.000
     q_mesh =
               0.00001000     0.04494208     0.09755937     0.15916263
               0.23128650     0.31572767     0.41458969     0.53033537
               0.66584808     0.82450364     1.01025438     1.22772762
               1.48234092     1.78043706     2.12944203     2.53805004
               3.01644009     3.57652955     4.23227104     5.00000000

     Gradients computed in reciprocal space

[...]

     Starting wfc are  147 randomized atomic wfcs

     Self-consistent Calculation

[...]

     total energy              =   -3299.66228608 Ry
     Harris-Foulkes estimate   =   -3299.66228085 Ry
     estimated scf accuracy    <       0.00000675 Ry

     iteration # 15     ecut=    36.75 Ry     beta=0.10
     Davidson diagonalization with overlap
     ethr =  3.31E-09,  avg # of iterations =  2.0

[...]

     negative rho (up, down):  1.583E+00 0.000E+00

     Adding external electric field

     Computed dipole along edir(3) :
        Dipole                0.0069 Ry au,          0.0175 Debye
        Dipole field          0.0000 Ry au

        Potential amp.       -0.0017 Ry
        Total length         45.2433 bohr

     End of self-consistent calculation

[...]

          k = 0.0597 0.0000 0.0000 ( 16778 PWs)   bands (ev):

[...]

          k =-0.0896-0.1552 0.0000 ( 16832 PWs)   bands (ev):

  -124.4882-124.3892-124.3756 -78.6830 -78.6828 -78.6730 -78.5942 -78.5840
   -78.5668 -78.5667 -78.5515 -78.5514 -51.3098 -51.2456 -51.2134 -51.2098
   -51.1595 -51.1516 -51.1321 -51.1313 -51.0469 -51.0200 -50.9891 -50.9240
   -50.8931 -50.8845 -50.8805 -50.8612 -50.8596 -50.8489 -50.8376 -50.7929
   -50.7647 -50.7229 -50.7124 -50.6983 -50.6865 -50.6751 -50.6649  -5.8733
    -5.7581  -5.6571  -5.6382  -5.5991  -5.5685  -5.5275  -5.4917  -5.4687
    -5.4598  -5.3681  -5.3668  -5.3516  -5.3463  -5.3027  -5.1761  -5.0995
    -4.1687  -3.9132  -3.8373  -3.7881  -3.3686  -3.2979  -2.9769  -2.8737
    -2.7928  -2.5544  -2.4756  -2.4387  -2.4244  -2.3579  -2.1748  -1.9534
    -1.8660  -1.6129  -1.5374  -1.4235  -1.4230  -1.3410  -1.3206  -1.2432
    -1.1933  -1.0961  -1.0405  -0.8709  -0.8272  -0.7346  -0.6703  -0.3675
    -0.2388  -0.2044  -0.1663  -0.1339  -0.0969   0.0561   0.1341   0.2493
     0.3239   0.3989   0.6547   0.7509   1.0238   1.4013   1.5258   1.8290
     2.1964   2.5234   3.0810   3.5465   4.1067   4.9527   5.1635   5.3388
     5.7594   7.1697   7.1961   7.6308   7.8284   7.8339   7.8948   7.9223
     8.3042   8.4675   8.4731   8.5912   8.7263   8.9984   9.0343   9.2376
     9.4576   9.8474   9.9789  10.0455

     the Fermi energy is     1.4419 ev

!    total energy              =   -3299.66230195 Ry
     Harris-Foulkes estimate   =   -3299.66228711 Ry
     estimated scf accuracy    <       0.00000083 Ry

     The total energy is the sum of the following terms:

     one-electron contribution =  -23871.44084479 Ry
     hartree contribution      =   11960.74416206 Ry
     xc contribution           =    -658.05358768 Ry
     ewald contribution        =    9269.14975511 Ry
     electric field correction =       0.00000013 Ry
     smearing contrib. (-TS)   =      -0.06178678 Ry

     convergence has been achieved in  15 iterations

 BEEF-vdW xc energy contributions
           1 :   -585.792839157438
           2 :    542.442482365582
           3 :   -465.943230374414
           4 :    372.652470999736
           5 :   -279.353122892856
           6 :    198.381120727382
           7 :   -135.358096314853
           8 :    89.8095116305016
           9 :   -57.7094006967465
          10 :    34.3630322060133
          11 :   -16.3392380930220
          12 :    1.99055640367681
          13 :    9.04743963747649
          14 :   -16.6554743259603
          15 :    20.7865981358929
          16 :   -21.6766302709804
          17 :    19.8707590610177
          18 :   -16.2337820631930
          19 :    11.9271724772077
          20 :   -8.23412268425989
          21 :    6.18255645585396
          22 :   -6.12583889340920
          23 :    7.55960716906100
          24 :   -9.36457472454481
          25 :    10.3903665272904
          26 :   -10.0538689273220
          27 :    8.59027486181037
          28 :   -6.81811271945776
          29 :    5.58931018183682
          30 :   -5.28953673783110
          31 :   -47.3932444272415
          32 :   -34.5260698329728

     Forces acting on atoms (Ry/au):

     negative rho (up, down):  1.583E+00 0.000E+00
     atom    1 type  1   force =    -0.00000106    0.01116045    0.00494454
     atom    2 type  1   force =     0.00966467   -0.00557993    0.00494450
     atom    3 type  1   force =    -0.00966602   -0.00557970    0.00494413
     atom    4 type  2   force =    -0.00000316   -0.00000304   -0.00796726
     atom    5 type  1   force =     0.00000199    0.00346570   -0.00191854
     atom    6 type  1   force =     0.00300397   -0.00173324   -0.00192378
     atom    7 type  1   force =    -0.00299828   -0.00173222   -0.00191632
     atom    8 type  2   force =     0.00000362   -0.00000083   -0.00528005
     atom    9 type  1   force =    -0.00000670   -0.00095595    0.00106457
     atom   10 type  1   force =    -0.00082525    0.00047386    0.00106466
     atom   11 type  1   force =     0.00082993    0.00048448    0.00106417
     atom   12 type  2   force =    -0.00000373    0.00000044    0.00097939

     Total force =     0.024342     Total SCF correction =     0.006690
     SCF correction compared to forces is large: reduce conv_thr to get better values

     entering subroutine stress ...

     negative rho (up, down):  1.583E+00 0.000E+00
          total   stress  (Ry/bohr**3)                   (kbar)     P=  -17.28
  -0.00015873   0.00000000  -0.00000000        -23.35      0.00     -0.00
   0.00000000  -0.00015874   0.00000000          0.00    -23.35      0.00
  -0.00000000   0.00000000  -0.00003489         -0.00      0.00     -5.13

 !ASE

     Writing output data file calc.save

     General routines

     Parallel routines

   This run was terminated on:   5:48:58  28Dec2018

   JOB DONE.
Job  /afs/slac/g/suncat/bin/suncat-tsmpirun -x LD_LIBRARY_PATH -wdir /scratch/qe110580_Sq4Lk pw.x -in pw.inp

TID   HOST_NAME   COMMAND_LINE            STATUS            TERMINATION_TIME
00000 suncat0156 pw.x -in pw.inp   Done                     12/28/2018 05:48:58
00001 suncat0156 pw.x -in pw.inp   Done                     12/28/2018 05:48:58
00002 suncat0156 pw.x -in pw.inp   Done                     12/28/2018 05:48:58
00003 suncat0156 pw.x -in pw.inp   Done                     12/28/2018 05:48:58
00004 suncat0156 pw.x -in pw.inp   Done                     12/28/2018 05:48:58
00005 suncat0156 pw.x -in pw.inp   Done                     12/28/2018 05:48:58
00006 suncat0156 pw.x -in pw.inp   Done                     12/28/2018 05:48:58
00007 suncat0156 pw.x -in pw.inp   Done                     12/28/2018 05:48:58
00008 suncat0153 pw.x -in pw.inp   Done                     12/28/2018 05:48:58
00009 suncat0153 pw.x -in pw.inp   Done                     12/28/2018 05:48:58
00010 suncat0153 pw.x -in pw.inp   Done                     12/28/2018 05:48:58
00011 suncat0153 pw.x -in pw.inp   Done                     12/28/2018 05:48:58
00012 suncat0153 pw.x -in pw.inp   Done                     12/28/2018 05:48:58
00013 suncat0153 pw.x -in pw.inp   Done                     12/28/2018 05:48:58
00014 suncat0153 pw.x -in pw.inp   Done                     12/28/2018 05:48:58
00015 suncat0153 pw.x -in pw.inp   Done                     12/28/2018 05:48:58
00016 suncat0145 pw.x -in pw.inp   Done                     12/28/2018 05:48:58
00017 suncat0145 pw.x -in pw.inp   Done                     12/28/2018 05:48:58
00018 suncat0145 pw.x -in pw.inp   Done                     12/28/2018 05:48:58
00019 suncat0145 pw.x -in pw.inp   Done                     12/28/2018 05:48:58
00020 suncat0145 pw.x -in pw.inp   Done                     12/28/2018 05:48:58
00021 suncat0145 pw.x -in pw.inp   Done                     12/28/2018 05:48:58
00022 suncat0145 pw.x -in pw.inp   Done                     12/28/2018 05:48:58
00023 suncat0145 pw.x -in pw.inp   Done                     12/28/2018 05:48:58
00024 suncat0144 pw.x -in pw.inp   Done                     12/28/2018 05:48:58
00025 suncat0144 pw.x -in pw.inp   Done                     12/28/2018 05:48:58
00026 suncat0144 pw.x -in pw.inp   Done                     12/28/2018 05:48:58
00027 suncat0144 pw.x -in pw.inp   Done                     12/28/2018 05:48:58
00028 suncat0144 pw.x -in pw.inp   Done                     12/28/2018 05:48:58
00029 suncat0144 pw.x -in pw.inp   Done                     12/28/2018 05:48:58
00030 suncat0144 pw.x -in pw.inp   Done                     12/28/2018 05:48:58
00031 suncat0144 pw.x -in pw.inp   Done                     12/28/2018 05:48:58
00032 suncat0133 pw.x -in pw.inp   Done                     12/28/2018 05:48:58
00033 suncat0133 pw.x -in pw.inp   Done                     12/28/2018 05:48:58
00034 suncat0133 pw.x -in pw.inp   Done                     12/28/2018 05:48:58
00035 suncat0133 pw.x -in pw.inp   Done                     12/28/2018 05:48:58
00036 suncat0133 pw.x -in pw.inp   Done                     12/28/2018 05:48:58
00037 suncat0133 pw.x -in pw.inp   Done                     12/28/2018 05:48:58
00038 suncat0133 pw.x -in pw.inp   Done                     12/28/2018 05:48:58
00039 suncat0133 pw.x -in pw.inp   Done                     12/28/2018 05:48:58
00040 suncat0132 pw.x -in pw.inp   Done                     12/28/2018 05:48:58
00041 suncat0132 pw.x -in pw.inp   Done                     12/28/2018 05:48:58
00042 suncat0132 pw.x -in pw.inp   Done                     12/28/2018 05:48:58
00043 suncat0132 pw.x -in pw.inp   Done                     12/28/2018 05:48:58
00044 suncat0132 pw.x -in pw.inp   Done                     12/28/2018 05:48:58
00045 suncat0132 pw.x -in pw.inp   Done                     12/28/2018 05:48:58
00046 suncat0132 pw.x -in pw.inp   Done                     12/28/2018 05:48:58
00047 suncat0132 pw.x -in pw.inp   Done                     12/28/2018 05:48:58
00048 suncat0131 pw.x -in pw.inp   Done                     12/28/2018 05:48:58
00049 suncat0131 pw.x -in pw.inp   Done                     12/28/2018 05:48:58
00050 suncat0131 pw.x -in pw.inp   Done                     12/28/2018 05:48:58
00051 suncat0131 pw.x -in pw.inp   Done                     12/28/2018 05:48:58
00052 suncat0131 pw.x -in pw.inp   Done                     12/28/2018 05:48:58
00053 suncat0131 pw.x -in pw.inp   Done                     12/28/2018 05:48:58
00054 suncat0131 pw.x -in pw.inp   Done                     12/28/2018 05:48:58
00055 suncat0131 pw.x -in pw.inp   Done                     12/28/2018 05:48:58
00056 suncat0130 pw.x -in pw.inp   Done                     12/28/2018 05:48:58
00057 suncat0130 pw.x -in pw.inp   Done                     12/28/2018 05:48:58
00058 suncat0130 pw.x -in pw.inp   Done                     12/28/2018 05:48:58
00059 suncat0130 pw.x -in pw.inp   Done                     12/28/2018 05:48:58
00060 suncat0130 pw.x -in pw.inp   Done                     12/28/2018 05:48:58
00061 suncat0130 pw.x -in pw.inp   Done                     12/28/2018 05:48:58
00062 suncat0130 pw.x -in pw.inp   Done                     12/28/2018 05:48:58
00063 suncat0130 pw.x -in pw.inp   Done                     12/28/2018 05:48:58