     Program PWSCF v.5.1rc2 (svn rev. 11289) starts on 30Dec2018 at 20:40:36

     Current dimensions of program PWSCF are:
     Max number of different atomic species (ntypx) = 10
     Max number of k-points (npk) =  40000
     Max angular momentum in pseudopotentials (lmaxx) =  3
     Presently stress not available with electric field

     IMPORTANT: XC functional enforced from input :
     Exchange-correlation      = BEEF-VDW ( 1  4 27 13 2)
     Any further DFT definition will be discarded
     Please, verify this is what you really want

     Subspace diagonalization in iterative solution of the eigenvalue problem:
     a serial algorithm will be used

     Generating pointlists ...
     new r_m :   0.4125 (alat units)  0.7795 (a.u.) for type    1
     new r_m :   0.4125 (alat units)  0.7795 (a.u.) for type    2

     bravais-lattice index     =            0
     lattice parameter (alat)  =       1.8897  a.u.
     unit-cell volume          =    4742.0881 (a.u.)^3
     number of atoms/cell      =           12
     number of atomic types    =            2
     number of electrons       =       165.00
     number of Kohn-Sham states=          112
     kinetic-energy cutoff     =      36.7493  Ry
     charge density cutoff     =     367.4932  Ry
     convergence threshold     =      1.0E-06
     mixing beta               =       0.1000
     number of iterations used =           10  plain     mixing
     Exchange-correlation      = BEEF-VDW ( 1  4 27 13 2)
     nstep                     =           50

     celldm(1)=   1.889726  celldm(2)=   0.000000  celldm(3)=   0.000000
     celldm(4)=   0.000000  celldm(5)=   0.000000  celldm(6)=   0.000000

     crystal axes: (cart. coord. in units of alat)
               a(1) = (   5.733701   0.000000   0.000000 )
               a(2) = (  -2.866850   4.965530   0.000000 )
               a(3) = (   0.000000   0.000000  24.681547 )

     reciprocal axes: (cart. coord. in units 2 pi/alat)
               b(1) = (  0.174407  0.100694  0.000000 )
               b(2) = (  0.000000  0.201388  0.000000 )
               b(3) = (  0.000000  0.000000  0.040516 )

     PseudoPot. # 1 for Nb read from file:
     /afs/slac.stanford.edu/u/if/mamunm/psp/gbrv1.5pbe/Nb.UPF
     MD5 check sum: 573aab8a2fa660278ed4a62cd769473f
     Pseudo is Ultrasoft + core correction, Zval = 13.0
     Generated by new atomic code, or converted to UPF format
     Using radial grid of  887 points,  6 beta functions with:
                l(1) =   0
                l(2) =   0
                l(3) =   1
                l(4) =   1
                l(5) =   2
                l(6) =   2
     Q(r) pseudized with  6 coefficients,  rinner =    1.000   1.000   1.000
                                                       1.000   1.000

     PseudoPot. # 2 for Fe read from file:
     /afs/slac.stanford.edu/u/if/mamunm/psp/gbrv1.5pbe/Fe.UPF
     MD5 check sum: a130daea23fe5165f5d574ae7f82ed95
     Pseudo is Ultrasoft + core correction, Zval = 16.0
     Generated by new atomic code, or converted to UPF format
     Using radial grid of  861 points,  6 beta functions with:
                l(1) =   0
                l(2) =   0
                l(3) =   1
                l(4) =   1
                l(5) =   2
                l(6) =   2
     Q(r) pseudized with  8 coefficients,  rinner =    1.000   1.000   1.000
                                                       1.000   1.000

     vdW kernel table read from file vdW_kernel_table
     MD5 check sum: 095c7af220d748ca6e76c0b4c6cfb241

     atomic species   valence    mass     pseudopotential
        Nb1           13.00    92.90637     Nb( 1.00)
        Fe1           16.00    55.84500     Fe( 1.00)

     Starting magnetic structure
     atomic species   magnetization
        Nb1          0.154
        Fe1          0.125

     No symmetry found

   Cartesian axes

     site n.     atom                  positions (alat units)
         1           Nb1 tau(   1) = (   0.0000000   0.0000000  10.0000000  )
         2           Nb1 tau(   2) = (  -1.4334251   2.4827652  10.0000000  )
         3           Nb1 tau(   3) = (   1.4334251   2.4827652  10.0000000  )
         4           Fe1 tau(   4) = (   2.8668503   0.0000000  10.0000000  )
         5           Nb1 tau(   5) = (   2.8668503   1.6551768  12.3407734  )
         6           Nb1 tau(   6) = (   1.4334251   4.1379419  12.3407734  )
         7           Nb1 tau(   7) = (  -1.4334251   4.1379419  12.3407734  )
         8           Fe1 tau(   8) = (   0.0000000   1.6551768  12.3407734  )
         9           Nb1 tau(   9) = (  -0.0000000   3.3103535  14.6815469  )
        10           Nb1 tau(  10) = (   1.4334251   0.8275884  14.6815469  )
        11           Nb1 tau(  11) = (   4.3002754   0.8275884  14.6815469  )
        12           Fe1 tau(  12) = (   2.8668503   3.3103535  14.6815469  )

     number of k points=    40  Fermi-Dirac smearing, width (Ry)=  0.0110
                       cart. coord. in units 2pi/alat
        k(    1) = (   0.0000000   0.0000000   0.0000000), wk =   0.0277778
        k(    2) = (   0.0000000   0.0335647   0.0000000), wk =   0.0555556
        k(    3) = (   0.0000000   0.0671295   0.0000000), wk =   0.0555556
        k(    4) = (   0.0000000  -0.1006942   0.0000000), wk =   0.0277778
        k(    5) = (   0.0290679   0.0167824   0.0000000), wk =   0.0555556
        k(    6) = (   0.0290679   0.0503471   0.0000000), wk =   0.0555556
        k(    7) = (   0.0290679   0.0839118   0.0000000), wk =   0.0555556
        k(    8) = (   0.0290679  -0.0839118   0.0000000), wk =   0.0555556
        k(    9) = (   0.0290679  -0.0503471   0.0000000), wk =   0.0555556
        k(   10) = (   0.0290679  -0.0167824   0.0000000), wk =   0.0555556
        k(   11) = (   0.0581358   0.0335647   0.0000000), wk =   0.0555556
        k(   12) = (   0.0581358   0.0671295   0.0000000), wk =   0.0555556
        k(   13) = (   0.0581358   0.1006942   0.0000000), wk =   0.0555556
        k(   14) = (   0.0581358  -0.0671295   0.0000000), wk =   0.0555556
        k(   15) = (   0.0581358  -0.0335647   0.0000000), wk =   0.0555556
        k(   16) = (   0.0581358   0.0000000   0.0000000), wk =   0.0555556
        k(   17) = (  -0.0872037  -0.0503471   0.0000000), wk =   0.0277778
        k(   18) = (  -0.0872037  -0.0167824   0.0000000), wk =   0.0555556
        k(   19) = (  -0.0872037   0.0167824   0.0000000), wk =   0.0555556
        k(   20) = (  -0.0872037  -0.1510413   0.0000000), wk =   0.0277778
        k(   21) = (   0.0000000   0.0000000   0.0000000), wk =   0.0277778
        k(   22) = (   0.0000000   0.0335647   0.0000000), wk =   0.0555556
        k(   23) = (   0.0000000   0.0671295   0.0000000), wk =   0.0555556
        k(   24) = (   0.0000000  -0.1006942   0.0000000), wk =   0.0277778
        k(   25) = (   0.0290679   0.0167824   0.0000000), wk =   0.0555556
        k(   26) = (   0.0290679   0.0503471   0.0000000), wk =   0.0555556
        k(   27) = (   0.0290679   0.0839118   0.0000000), wk =   0.0555556
        k(   28) = (   0.0290679  -0.0839118   0.0000000), wk =   0.0555556
        k(   29) = (   0.0290679  -0.0503471   0.0000000), wk =   0.0555556
        k(   30) = (   0.0290679  -0.0167824   0.0000000), wk =   0.0555556
        k(   31) = (   0.0581358   0.0335647   0.0000000), wk =   0.0555556
        k(   32) = (   0.0581358   0.0671295   0.0000000), wk =   0.0555556
        k(   33) = (   0.0581358   0.1006942   0.0000000), wk =   0.0555556
        k(   34) = (   0.0581358  -0.0671295   0.0000000), wk =   0.0555556
        k(   35) = (   0.0581358  -0.0335647   0.0000000), wk =   0.0555556
        k(   36) = (   0.0581358   0.0000000   0.0000000), wk =   0.0555556
        k(   37) = (  -0.0872037  -0.0503471   0.0000000), wk =   0.0277778
        k(   38) = (  -0.0872037  -0.0167824   0.0000000), wk =   0.0555556
        k(   39) = (  -0.0872037   0.0167824   0.0000000), wk =   0.0555556
        k(   40) = (  -0.0872037  -0.1510413   0.0000000), wk =   0.0277778

     Largest allocated arrays     est. size (Mb)     dimensions
     Largest temporary arrays     est. size (Mb)     dimensions

     Check: negative/imaginary core charge=   -0.000003    0.000000

     Initial potential from superposition of free atoms
     Check: negative starting charge=(component1):   -0.002546
     Check: negative starting charge=(component2):   -0.001868

     starting charge  161.97538, renormalised to  165.00000

     negative rho (up, down):  2.594E-03 1.902E-03

     *
     * You are using vdW-DF for exchange-correlation in this calculation.
     * Please cite the following three references that made this development
     * possible:
     *
     *   M. Dion, H. Rydberg, E. Schroder, D. C. Langreth, and
     *   B. I. Lundqvist, Phys. Rev. Lett. 92, 246401 (2004).
     *
     *   T. Thonhauser, V. R. Cooper, S. Li, A. Puzder, P. Hyldgaard, and
     *   D. C. Langreth, Phys. Rev. B 76, 125112 (2007).
     *
     *   G. Roman-Perez and J. M. Soler, Phys. Rev. Lett. 103, 096102 (2009).
     *
     *
     * If you are using vdW-DF2, please also cite:
     *
     *   K. Lee, E. D. Murray, L. Kong, B. I. Lundqvist, and
     *   D. C. Langreth, Phys. Rev. B 82, 081101(R) (2010).
     *
     *
     * If you are calculating the stress with vdW-DF, please also cite:
     *
     *   R. Sabatini, E. Kucukbenli, B. Kolb, T. Thonhauser, and
     *   S. de Gironcoli, J. Phys.: Condens. Matter 24, 424209 (2012).
     *

     Carrying out vdW-DF run using the following parameters:

     Nqs =      20    Nr_points =    1024   r_max =   100.000
     q_mesh =
               0.00001000     0.04494208     0.09755937     0.15916263
               0.23128650     0.31572767     0.41458969     0.53033537
               0.66584808     0.82450364     1.01025438     1.22772762
               1.48234092     1.78043706     2.12944203     2.53805004
               3.01644009     3.57652955     4.23227104     5.00000000

     Gradients computed in reciprocal space

     Adding external electric field

     Computed dipole along edir(3) :
        Dipole               -0.0000 Ry au,         -0.0000 Debye
        Dipole field         -0.0000 Ry au

        Potential amp.        0.0000 Ry
        Total length         45.4753 bohr

[...]

     Starting wfc are  156 randomized atomic wfcs

     Self-consistent Calculation

     iteration #  1     ecut=    36.75 Ry     beta=0.10
     Davidson diagonalization with overlap
     ethr =  1.00E-02,  avg # of iterations =  2.0

[...]

     Magnetic moment per site:
     atom:    1    charge:    1.4883    magn:    0.2108    constr:    0.0000
     atom:    2    charge:    1.4883    magn:    0.2108    constr:    0.0000
     atom:    3    charge:    1.4883    magn:    0.2108    constr:    0.0000
     atom:    4    charge:    7.2609    magn:    0.8114    constr:    0.0000
     atom:    5    charge:    1.4934    magn:    0.2114    constr:    0.0000
     atom:    6    charge:    1.4934    magn:    0.2114    constr:    0.0000
     atom:    7    charge:    1.4934    magn:    0.2114    constr:    0.0000
     atom:    8    charge:    7.2507    magn:    0.8120    constr:    0.0000
[...]
        k(    2) = (   0.0000000   0.0335647   0.0000000), wk =   0.0555556
        k(    3) = (   0.0000000   0.0671295   0.0000000), wk =   0.0555556
        k(    4) = (   0.0000000  -0.1006942   0.0000000), wk =   0.0277778
        k(    5) = (   0.0290679   0.0167824   0.0000000), wk =   0.0555556
        k(    6) = (   0.0290679   0.0503471   0.0000000), wk =   0.0555556
        k(    7) = (   0.0290679   0.0839118   0.0000000), wk =   0.0555556
        k(    8) = (   0.0290679  -0.0839118   0.0000000), wk =   0.0555556
        k(    9) = (   0.0290679  -0.0503471   0.0000000), wk =   0.0555556
        k(   10) = (   0.0290679  -0.0167824   0.0000000), wk =   0.0555556
        k(   11) = (   0.0581358   0.0335647   0.0000000), wk =   0.0555556
        k(   12) = (   0.0581358   0.0671295   0.0000000), wk =   0.0555556
        k(   13) = (   0.0581358   0.1006942   0.0000000), wk =   0.0555556
        k(   14) = (   0.0581358  -0.0671295   0.0000000), wk =   0.0555556
        k(   15) = (   0.0581358  -0.0335647   0.0000000), wk =   0.0555556
        k(   16) = (   0.0581358   0.0000000   0.0000000), wk =   0.0555556
        k(   17) = (  -0.0872037  -0.0503471   0.0000000), wk =   0.0277778
        k(   18) = (  -0.0872037  -0.0167824   0.0000000), wk =   0.0555556
        k(   19) = (  -0.0872037   0.0167824   0.0000000), wk =   0.0555556
        k(   20) = (  -0.0872037  -0.1510413   0.0000000), wk =   0.0277778
        k(   21) = (   0.0000000   0.0000000   0.0000000), wk =   0.0277778
        k(   22) = (   0.0000000   0.0335647   0.0000000), wk =   0.0555556
        k(   23) = (   0.0000000   0.0671295   0.0000000), wk =   0.0555556
        k(   24) = (   0.0000000  -0.1006942   0.0000000), wk =   0.0277778
        k(   25) = (   0.0290679   0.0167824   0.0000000), wk =   0.0555556
        k(   26) = (   0.0290679   0.0503471   0.0000000), wk =   0.0555556
        k(   27) = (   0.0290679   0.0839118   0.0000000), wk =   0.0555556
        k(   28) = (   0.0290679  -0.0839118   0.0000000), wk =   0.0555556
        k(   29) = (   0.0290679  -0.0503471   0.0000000), wk =   0.0555556
        k(   30) = (   0.0290679  -0.0167824   0.0000000), wk =   0.0555556
        k(   31) = (   0.0581358   0.0335647   0.0000000), wk =   0.0555556
        k(   32) = (   0.0581358   0.0671295   0.0000000), wk =   0.0555556
        k(   33) = (   0.0581358   0.1006942   0.0000000), wk =   0.0555556
        k(   34) = (   0.0581358  -0.0671295   0.0000000), wk =   0.0555556
        k(   35) = (   0.0581358  -0.0335647   0.0000000), wk =   0.0555556
        k(   36) = (   0.0581358   0.0000000   0.0000000), wk =   0.0555556
        k(   37) = (  -0.0872037  -0.0503471   0.0000000), wk =   0.0277778
        k(   38) = (  -0.0872037  -0.0167824   0.0000000), wk =   0.0555556
        k(   39) = (  -0.0872037   0.0167824   0.0000000), wk =   0.0555556
        k(   40) = (  -0.0872037  -0.1510413   0.0000000), wk =   0.0277778

     Largest allocated arrays     est. size (Mb)     dimensions
     Largest temporary arrays     est. size (Mb)     dimensions

     Check: negative/imaginary core charge=   -0.000003    0.000000

     Initial potential from superposition of free atoms
     Check: negative starting charge=(component1):   -0.002563
     Check: negative starting charge=(component2):   -0.001879

     starting charge  161.97538, renormalised to  165.00000

[...]

     *
     * You are using vdW-DF for exchange-correlation in this calculation.
     * Please cite the following three references that made this development
     * possible:
     *
     *   M. Dion, H. Rydberg, E. Schroder, D. C. Langreth, and
     *   B. I. Lundqvist, Phys. Rev. Lett. 92, 246401 (2004).
     *
     *   T. Thonhauser, V. R. Cooper, S. Li, A. Puzder, P. Hyldgaard, and
     *   D. C. Langreth, Phys. Rev. B 76, 125112 (2007).
     *
     *   G. Roman-Perez and J. M. Soler, Phys. Rev. Lett. 103, 096102 (2009).
     *
     *
     * If you are using vdW-DF2, please also cite:
     *
     *   K. Lee, E. D. Murray, L. Kong, B. I. Lundqvist, and
     *   D. C. Langreth, Phys. Rev. B 82, 081101(R) (2010).
     *
     *
     * If you are calculating the stress with vdW-DF, please also cite:
     *
     *   R. Sabatini, E. Kucukbenli, B. Kolb, T. Thonhauser, and
     *   S. de Gironcoli, J. Phys.: Condens. Matter 24, 424209 (2012).
     *

     Carrying out vdW-DF run using the following parameters:

     Nqs =      20    Nr_points =    1024   r_max =   100.000
     q_mesh =
               0.00001000     0.04494208     0.09755937     0.15916263
               0.23128650     0.31572767     0.41458969     0.53033537
               0.66584808     0.82450364     1.01025438     1.22772762
               1.48234092     1.78043706     2.12944203     2.53805004
               3.01644009     3.57652955     4.23227104     5.00000000

     Gradients computed in reciprocal space

[...]

     Starting wfc are  156 randomized atomic wfcs

     Self-consistent Calculation

[...]

     total energy              =   -1820.55556945 Ry
     Harris-Foulkes estimate   =   -1820.55556370 Ry
     estimated scf accuracy    <       0.00000122 Ry

[...]

     iteration # 37     ecut=    36.75 Ry     beta=0.10
     Davidson diagonalization with overlap
     ethr =  7.41E-10,  avg # of iterations =  3.4

[...]

     negative rho (up, down):  2.067E-03 2.019E-03

[...]

     Adding external electric field

     Computed dipole along edir(3) :
        Dipole                0.0069 Ry au,          0.0177 Debye
        Dipole field          0.0000 Ry au

        Potential amp.       -0.0017 Ry
        Total length         45.4753 bohr

     Magnetic moment per site:
     atom:    1    charge:    1.4816    magn:   -0.0080    constr:    0.0000
     atom:    2    charge:    1.4816    magn:   -0.0080    constr:    0.0000
     atom:    3    charge:    1.4816    magn:   -0.0080    constr:    0.0000
     atom:    4    charge:    7.0790    magn:    1.1928    constr:    0.0000
     atom:    5    charge:    1.4819    magn:    0.0020    constr:    0.0000
     atom:    6    charge:    1.4819    magn:    0.0020    constr:    0.0000
     atom:    7    charge:    1.4819    magn:    0.0020    constr:    0.0000
     atom:    8    charge:    7.0612    magn:    1.1429    constr:    0.0000
     atom:    9    charge:    1.4825    magn:   -0.0061    constr:    0.0000
     atom:   10    charge:    1.4825    magn:   -0.0061    constr:    0.0000
     atom:   11    charge:    1.4825    magn:   -0.0061    constr:    0.0000
     atom:   12    charge:    7.0801    magn:    1.1639    constr:    0.0000

     End of self-consistent calculation

 ------ SPIN UP ------------

[...]

 ------ SPIN DOWN ----------

[...]

          k = 0.0581 0.0000 0.0000 ( 17845 PWs)   bands (ev):

[...]

          k =-0.0872-0.1510 0.0000 ( 17816 PWs)   bands (ev):

   -83.8156 -83.6869 -83.6761 -53.2320 -53.2157 -53.1710 -53.1547 -53.1148
   -53.1091 -53.0043 -52.9654 -52.9183 -49.8988 -49.8859 -49.8852 -49.7863
   -49.7747 -49.7674 -49.7668 -49.7573 -49.7567 -29.6873 -29.6484 -29.6000
   -29.5040 -29.4535 -29.4043 -29.3669 -29.3455 -29.3193 -29.2869 -29.2849
   -29.2487 -29.2223 -29.1712 -29.1498 -29.1033 -29.1002 -29.0588 -28.9446
   -28.9169 -28.9063 -28.7907 -28.7474 -28.7387 -28.7281 -28.6967 -28.5816
    -2.4456  -2.4257  -1.4393  -1.3226  -1.2270  -1.1365  -0.7214  -0.6104
    -0.3875  -0.3795  -0.3310  -0.0982  -0.0669   0.2172   0.2307   0.2816
     0.3328   0.4371   0.6707   0.7134   0.8065   0.9496   1.0201   1.1746
     1.2382   1.2617   1.3036   1.3458   1.4326   1.4536   1.5580   1.6446
     1.7700   1.8093   1.8497   1.9085   1.9382   2.0081   2.4139   2.4834
     2.5220   2.7659   2.8690   2.9488   3.0663   3.0948   3.1549   3.2602
     3.3715   3.7075   3.7554   3.7632   4.0725   4.0843   4.2521   4.3681
     4.4445   4.5523   4.5900   4.6803   5.0235   5.1433   5.5990   5.6986

     the Fermi energy is     1.8177 ev

!    total energy              =   -1820.55557916 Ry
     Harris-Foulkes estimate   =   -1820.55557106 Ry
     estimated scf accuracy    <       0.00000094 Ry

     The total energy is the sum of the following terms:

     one-electron contribution =  -14362.58958169 Ry
     hartree contribution      =    7176.40107800 Ry
     xc contribution           =    -262.16414073 Ry
     ewald contribution        =    5627.91437492 Ry
     electric field correction =       0.00000013 Ry
     smearing contrib. (-TS)   =      -0.11730979 Ry

     total magnetization       =     6.53 Bohr mag/cell
     absolute magnetization    =     9.58 Bohr mag/cell

     convergence has been achieved in  37 iterations

 BEEF-vdW xc energy contributions
           1 :   -226.494949481482
           2 :    205.702726015572
           3 :   -170.442060748921
           4 :    130.449961083372
           5 :   -94.8847296869528
           6 :    69.1370640765143
           7 :   -53.8021002680609
           8 :    45.8057861690299
           9 :   -40.7492553538609
          10 :    35.1299017242694
          11 :   -27.5369154927416
          12 :    18.5574635489590
          13 :   -9.81940472829132
          14 :    2.82780388210921
          15 :    1.79039687067160
          16 :   -4.40693517761866
          17 :    5.97592711848441
          18 :   -7.43992899758427
          19 :    9.27378095592908
          20 :   -11.3612154262497
          21 :    13.1704574020971
          22 :   -14.1026450905761
          23 :    13.8162737539839
          24 :   -12.3997032639811
          25 :    10.3157157749608
          26 :   -8.17598248898094
          27 :    6.45692378869336
          28 :   -5.31733910336362
          29 :    4.59457666050085
          30 :   -3.97443111748302
          31 :   -23.9171808586654
          32 :   -17.7451185731391

     Forces acting on atoms (Ry/au):

     negative rho (up, down):  2.067E-03 2.019E-03
     atom    1 type  1   force =     0.00000003    0.02130574   -0.00455963
     atom    2 type  1   force =     0.01845142   -0.01065293   -0.00455934
     atom    3 type  1   force =    -0.01845137   -0.01065293   -0.00455945
     atom    4 type  2   force =    -0.00000016   -0.00000021    0.00354534
     atom    5 type  1   force =     0.00000018   -0.00625824    0.00459949
     atom    6 type  1   force =    -0.00542032    0.00312937    0.00459976
     atom    7 type  1   force =     0.00541996    0.00312896    0.00459971
     atom    8 type  2   force =     0.00000112   -0.00000007   -0.00187972
     atom    9 type  1   force =    -0.00000005    0.00062895   -0.00086113
     atom   10 type  1   force =     0.00054426   -0.00031408   -0.00086072
     atom   11 type  1   force =    -0.00054504   -0.00031435   -0.00086071
     atom   12 type  2   force =    -0.00000004   -0.00000022    0.00079639

     Total force =     0.040315     Total SCF correction =     0.001885

     entering subroutine stress ...

     negative rho (up, down):  2.067E-03 2.019E-03
          total   stress  (Ry/bohr**3)                   (kbar)     P=  -13.41
  -0.00013880   0.00000000  -0.00000000        -20.42      0.00     -0.00
   0.00000000  -0.00013879  -0.00000000          0.00    -20.42     -0.00
  -0.00000000  -0.00000000   0.00000410         -0.00     -0.00      0.60

 !ASE

     Writing output data file calc.save

     General routines

     Parallel routines

   This run was terminated on:   0:35:27  31Dec2018

   JOB DONE.
Job  /afs/slac/g/suncat/bin/suncat-tsmpirun -x LD_LIBRARY_PATH -wdir /scratch/qe648625_YQ0OG pw.x -in pw.inp

TID   HOST_NAME   COMMAND_LINE            STATUS            TERMINATION_TIME
00000 suncat0056 pw.x -in pw.inp   Done                     12/31/2018 00:35:27
00001 suncat0056 pw.x -in pw.inp   Done                     12/31/2018 00:35:27
00002 suncat0056 pw.x -in pw.inp   Done                     12/31/2018 00:35:27
00003 suncat0056 pw.x -in pw.inp   Done                     12/31/2018 00:35:27
00004 suncat0056 pw.x -in pw.inp   Done                     12/31/2018 00:35:27
00005 suncat0056 pw.x -in pw.inp   Done                     12/31/2018 00:35:27
00006 suncat0056 pw.x -in pw.inp   Done                     12/31/2018 00:35:27
00007 suncat0056 pw.x -in pw.inp   Done                     12/31/2018 00:35:27
00008 suncat0052 pw.x -in pw.inp   Done                     12/31/2018 00:35:27
00009 suncat0052 pw.x -in pw.inp   Done                     12/31/2018 00:35:27
00010 suncat0052 pw.x -in pw.inp   Done                     12/31/2018 00:35:27
00011 suncat0052 pw.x -in pw.inp   Done                     12/31/2018 00:35:27
00012 suncat0052 pw.x -in pw.inp   Done                     12/31/2018 00:35:27
00013 suncat0052 pw.x -in pw.inp   Done                     12/31/2018 00:35:27
00014 suncat0052 pw.x -in pw.inp   Done                     12/31/2018 00:35:27
00015 suncat0052 pw.x -in pw.inp   Done                     12/31/2018 00:35:27
00016 suncat0048 pw.x -in pw.inp   Done                     12/31/2018 00:35:27
00017 suncat0048 pw.x -in pw.inp   Done                     12/31/2018 00:35:27
00018 suncat0048 pw.x -in pw.inp   Done                     12/31/2018 00:35:27
00019 suncat0048 pw.x -in pw.inp   Done                     12/31/2018 00:35:27
00020 suncat0048 pw.x -in pw.inp   Done                     12/31/2018 00:35:27
00021 suncat0048 pw.x -in pw.inp   Done                     12/31/2018 00:35:27
00022 suncat0048 pw.x -in pw.inp   Done                     12/31/2018 00:35:27
00023 suncat0048 pw.x -in pw.inp   Done                     12/31/2018 00:35:27
00024 suncat0047 pw.x -in pw.inp   Done                     12/31/2018 00:35:27
00025 suncat0047 pw.x -in pw.inp   Done                     12/31/2018 00:35:27
00026 suncat0047 pw.x -in pw.inp   Done                     12/31/2018 00:35:27
00027 suncat0047 pw.x -in pw.inp   Done                     12/31/2018 00:35:27
00028 suncat0047 pw.x -in pw.inp   Done                     12/31/2018 00:35:27
00029 suncat0047 pw.x -in pw.inp   Done                     12/31/2018 00:35:27
00030 suncat0047 pw.x -in pw.inp   Done                     12/31/2018 00:35:27
00031 suncat0047 pw.x -in pw.inp   Done                     12/31/2018 00:35:27
00032 suncat0041 pw.x -in pw.inp   Done                     12/31/2018 00:35:27
00033 suncat0041 pw.x -in pw.inp   Done                     12/31/2018 00:35:27
00034 suncat0041 pw.x -in pw.inp   Done                     12/31/2018 00:35:27
00035 suncat0041 pw.x -in pw.inp   Done                     12/31/2018 00:35:27
00036 suncat0041 pw.x -in pw.inp   Done                     12/31/2018 00:35:27
00037 suncat0041 pw.x -in pw.inp   Done                     12/31/2018 00:35:27
00038 suncat0041 pw.x -in pw.inp   Done                     12/31/2018 00:35:27
00039 suncat0041 pw.x -in pw.inp   Done                     12/31/2018 00:35:27
00040 suncat0039 pw.x -in pw.inp   Done                     12/31/2018 00:35:27
00041 suncat0039 pw.x -in pw.inp   Done                     12/31/2018 00:35:27
00042 suncat0039 pw.x -in pw.inp   Done                     12/31/2018 00:35:27
00043 suncat0039 pw.x -in pw.inp   Done                     12/31/2018 00:35:27
00044 suncat0039 pw.x -in pw.inp   Done                     12/31/2018 00:35:27
00045 suncat0039 pw.x -in pw.inp   Done                     12/31/2018 00:35:27
00046 suncat0039 pw.x -in pw.inp   Done                     12/31/2018 00:35:27
00047 suncat0039 pw.x -in pw.inp   Done                     12/31/2018 00:35:27
00048 suncat0207 pw.x -in pw.inp   Done                     12/31/2018 00:35:27
00049 suncat0207 pw.x -in pw.inp   Done                     12/31/2018 00:35:27
00050 suncat0207 pw.x -in pw.inp   Done                     12/31/2018 00:35:27
00051 suncat0207 pw.x -in pw.inp   Done                     12/31/2018 00:35:27
00052 suncat0207 pw.x -in pw.inp   Done                     12/31/2018 00:35:27
00053 suncat0207 pw.x -in pw.inp   Done                     12/31/2018 00:35:27
00054 suncat0207 pw.x -in pw.inp   Done                     12/31/2018 00:35:27
00055 suncat0207 pw.x -in pw.inp   Done                     12/31/2018 00:35:27
00056 suncat0206 pw.x -in pw.inp   Done                     12/31/2018 00:35:27
00057 suncat0206 pw.x -in pw.inp   Done                     12/31/2018 00:35:27
00058 suncat0206 pw.x -in pw.inp   Done                     12/31/2018 00:35:27
00059 suncat0206 pw.x -in pw.inp   Done                     12/31/2018 00:35:27
00060 suncat0206 pw.x -in pw.inp   Done                     12/31/2018 00:35:27
00061 suncat0206 pw.x -in pw.inp   Done                     12/31/2018 00:35:27
00062 suncat0206 pw.x -in pw.inp   Done                     12/31/2018 00:35:27
00063 suncat0206 pw.x -in pw.inp   Done                     12/31/2018 00:35:27