     Program PWSCF v.5.1rc2 (svn rev. 11289) starts on 27Dec2018 at 14: 2:31

     Current dimensions of program PWSCF are:
     Max number of different atomic species (ntypx) = 10
     Max number of k-points (npk) =  40000
     Max angular momentum in pseudopotentials (lmaxx) =  3
     Presently stress not available with electric field

     IMPORTANT: XC functional enforced from input :
     Exchange-correlation      = BEEF-VDW ( 1  4 27 13 2)
     Any further DFT definition will be discarded
     Please, verify this is what you really want

     Subspace diagonalization in iterative solution of the eigenvalue problem:
     a serial algorithm will be used

     bravais-lattice index     =            0
     lattice parameter (alat)  =       1.8897  a.u.
     unit-cell volume          =    4581.7326 (a.u.)^3
     number of atoms/cell      =           12
     number of atomic types    =            2
     number of electrons       =       186.00
     number of Kohn-Sham states=          123
     kinetic-energy cutoff     =      36.7493  Ry
     charge density cutoff     =     367.4932  Ry
     convergence threshold     =      1.0E-06
     mixing beta               =       0.1000
     number of iterations used =           10  plain     mixing
     Exchange-correlation      = BEEF-VDW ( 1  4 27 13 2)
     nstep                     =           50

     celldm(1)=   1.889726  celldm(2)=   0.000000  celldm(3)=   0.000000
     celldm(4)=   0.000000  celldm(5)=   0.000000  celldm(6)=   0.000000

     crystal axes: (cart. coord. in units of alat)
               a(1) = (   5.644278   0.000000   0.000000 )
               a(2) = (  -2.822139   4.888088   0.000000 )
               a(3) = (   0.000000   0.000000  24.608534 )

     reciprocal axes: (cart. coord. in units 2 pi/alat)
               b(1) = (  0.177171  0.102289  0.000000 )
               b(2) = (  0.000000  0.204579  0.000000 )
               b(3) = (  0.000000  0.000000  0.040636 )

     PseudoPot. # 1 for Os read from file:
     /afs/slac.stanford.edu/u/if/mamunm/psp/gbrv1.5pbe/Os.UPF
     MD5 check sum: a3fb40a04f0c37c25c34bbc47164c9a8
     Pseudo is Ultrasoft + core correction, Zval = 16.0
     Generated by new atomic code, or converted to UPF format
     Using radial grid of  983 points,  8 beta functions with:
                l(1) =   0
                l(2) =   0
                l(3) =   1
                l(4) =   1
                l(5) =   2
                l(6) =   2
                l(7) =   3
                l(8) =   3
     Q(r) pseudized with  8 coefficients,  rinner =    1.150   1.150   1.150
                                                       1.150   1.150   1.150
                                                       1.150

     PseudoPot. # 2 for Sn read from file:
     /afs/slac.stanford.edu/u/if/mamunm/psp/gbrv1.5pbe/Sn.UPF
     MD5 check sum: 469debedee59599fedebd795477fea03
     Pseudo is Ultrasoft + core correction, Zval = 14.0
     Generated by new atomic code, or converted to UPF format
     Using radial grid of  891 points,  6 beta functions with:
                l(1) =   0
                l(2) =   0
                l(3) =   1
                l(4) =   1
                l(5) =   2
                l(6) =   2
     Q(r) pseudized with  8 coefficients,  rinner =    1.350   1.350   1.350
                                                       1.350   1.350

     vdW kernel table read from file vdW_kernel_table
     MD5 check sum: 095c7af220d748ca6e76c0b4c6cfb241

     atomic species   valence    mass     pseudopotential
        Os1           16.00   190.23000     Os( 1.00)
        Sn1           14.00   118.71000     Sn( 1.00)

     No symmetry found

   Cartesian axes

     site n.     atom                  positions (alat units)
         1           Os1 tau(   1) = (   0.0000000   0.0000000  10.0000000  )
         2           Os1 tau(   2) = (  -1.4110695   2.4440440  10.0000000  )
         3           Os1 tau(   3) = (   1.4110695   2.4440440  10.0000000  )
         4           Sn1 tau(   4) = (   2.8221389   0.0000000  10.0000000  )
         5           Os1 tau(   5) = (   2.8221389   1.6293627  12.3042668  )
         6           Os1 tau(   6) = (   1.4110695   4.0734067  12.3042668  )
         7           Os1 tau(   7) = (  -1.4110695   4.0734067  12.3042668  )
         8           Sn1 tau(   8) = (   0.0000000   1.6293627  12.3042668  )
         9           Os1 tau(   9) = (  -0.0000000   3.2587253  14.6085336  )
        10           Os1 tau(  10) = (   1.4110695   0.8146813  14.6085336  )
        11           Os1 tau(  11) = (   4.2332084   0.8146813  14.6085336  )
        12           Sn1 tau(  12) = (   2.8221389   3.2587253  14.6085336  )

     number of k points=    20  Fermi-Dirac smearing, width (Ry)=  0.0110
                       cart. coord. in units 2pi/alat
        k(    1) = (   0.0000000   0.0000000   0.0000000), wk =   0.0555556
        k(    2) = (   0.0000000   0.0340965   0.0000000), wk =   0.1111111
        k(    3) = (   0.0000000   0.0681930   0.0000000), wk =   0.1111111
        k(    4) = (   0.0000000  -0.1022895   0.0000000), wk =   0.0555556
        k(    5) = (   0.0295284   0.0170482   0.0000000), wk =   0.1111111
        k(    6) = (   0.0295284   0.0511447   0.0000000), wk =   0.1111111
        k(    7) = (   0.0295284   0.0852412   0.0000000), wk =   0.1111111
        k(    8) = (   0.0295284  -0.0852412   0.0000000), wk =   0.1111111
        k(    9) = (   0.0295284  -0.0511447   0.0000000), wk =   0.1111111
        k(   10) = (   0.0295284  -0.0170482   0.0000000), wk =   0.1111111
        k(   11) = (   0.0590569   0.0340965   0.0000000), wk =   0.1111111
        k(   12) = (   0.0590569   0.0681930   0.0000000), wk =   0.1111111
        k(   13) = (   0.0590569   0.1022895   0.0000000), wk =   0.1111111
        k(   14) = (   0.0590569  -0.0681930   0.0000000), wk =   0.1111111
        k(   15) = (   0.0590569  -0.0340965   0.0000000), wk =   0.1111111
        k(   16) = (   0.0590569   0.0000000   0.0000000), wk =   0.1111111
        k(   17) = (  -0.0885853  -0.0511447   0.0000000), wk =   0.0555556
        k(   18) = (  -0.0885853  -0.0170482   0.0000000), wk =   0.1111111
        k(   19) = (  -0.0885853   0.0170482   0.0000000), wk =   0.1111111
        k(   20) = (  -0.0885853  -0.1534342   0.0000000), wk =   0.0555556

     Largest allocated arrays     est. size (Mb)     dimensions
     Largest temporary arrays     est. size (Mb)     dimensions

     Initial potential from superposition of free atoms
     Check: negative starting charge=   -1.120831

     starting charge  178.49954, renormalised to  186.00000

     negative rho (up, down):  1.168E+00 0.000E+00

     *
     * You are using vdW-DF for exchange-correlation in this calculation.
     * Please cite the following three references that made this development
     * possible:
     *
     *   M. Dion, H. Rydberg, E. Schroder, D. C. Langreth, and
     *   B. I. Lundqvist, Phys. Rev. Lett. 92, 246401 (2004).
     *
     *   T. Thonhauser, V. R. Cooper, S. Li, A. Puzder, P. Hyldgaard, and
     *   D. C. Langreth, Phys. Rev. B 76, 125112 (2007).
     *
     *   G. Roman-Perez and J. M. Soler, Phys. Rev. Lett. 103, 096102 (2009).
     *
     *
     * If you are using vdW-DF2, please also cite:
     *
     *   K. Lee, E. D. Murray, L. Kong, B. I. Lundqvist, and
     *   D. C. Langreth, Phys. Rev. B 82, 081101(R) (2010).
     *
     *
     * If you are calculating the stress with vdW-DF, please also cite:
     *
     *   R. Sabatini, E. Kucukbenli, B. Kolb, T. Thonhauser, and
     *   S. de Gironcoli, J. Phys.: Condens. Matter 24, 424209 (2012).
     *

     Carrying out vdW-DF run using the following parameters:

     Nqs =      20    Nr_points =    1024   r_max =   100.000
     q_mesh =
               0.00001000     0.04494208     0.09755937     0.15916263
               0.23128650     0.31572767     0.41458969     0.53033537
               0.66584808     0.82450364     1.01025438     1.22772762
               1.48234092     1.78043706     2.12944203     2.53805004
               3.01644009     3.57652955     4.23227104     5.00000000

     Gradients computed in reciprocal space

     Adding external electric field

     Computed dipole along edir(3) :
        Dipole                0.0000 Ry au,          0.0000 Debye
        Dipole field          0.0000 Ry au

        Potential amp.       -0.0000 Ry
        Total length         45.3408 bohr

     Starting wfc are  144 randomized atomic wfcs

     Self-consistent Calculation

     iteration #  1     ecut=    36.75 Ry     beta=0.10
     Davidson diagonalization with overlap
     ethr =  1.00E-02,  avg # of iterations =  7.9

[...]

     total energy              =   -2280.34368123 Ry
     Harris-Foulkes estimate   =   -2280.83720850 Ry
     estimated scf accuracy    <       3.24327539 Ry

[...]

     End of self-consistent calculation

          k = 0.0000 0.0000 0.0000 ( 17303 PWs)   bands (ev):

   -83.9146 -83.8867 -83.8866 -83.7148 -83.7139 -83.6877 -83.6876 -83.6875
   -83.6874 -43.4833 -43.3579 -43.3579 -43.3386 -43.3045 -43.2702 -43.2701
   -43.2381 -43.1080 -43.1014 -43.1013 -43.0361 -43.0360 -42.9791 -42.9645
   -42.9644 -42.9348 -42.9347 -42.8988 -42.8900 -42.8899 -42.8535 -42.8409
   -42.8130 -42.8129 -42.8079 -42.8079 -19.5542 -19.5542 -19.5390 -19.5190
   -19.5190 -19.1553 -19.1467 -19.1139 -19.1139 -19.1031 -19.1031 -19.0854
   -19.0854 -19.0849 -19.0849  -8.4419  -6.6901  -6.3689  -3.6626  -3.3358
    -3.2772  -2.5771  -2.5771  -2.0393  -2.0393  -1.9658  -1.8293  -1.8292
    -1.7771  -1.7771  -1.5847  -0.9235  -0.9235  -0.2826  -0.2300  -0.0437
    -0.0436   0.4085   0.4086   0.5868   0.6461   0.6461   0.8890   1.0401
     1.2290   1.2290   1.6048   1.7493   1.7493   2.1037   2.1037   2.2484
     2.2485   2.2720   2.7433   2.7433   2.7591   2.7591   2.9682   3.1810
     3.1810   3.4044   3.5593   3.8146   3.8146   3.9722   4.1727   4.1727
     4.7118   4.9535   4.9747   5.0643   5.0644   5.0713   5.1476   6.3409
     6.7872   6.9151   7.3568   8.1304   8.5165   8.5166   8.5203   8.5203
     8.9586   9.0099   9.0099

[...]

          k =-0.0886-0.0511 0.0000 ( 17288 PWs)   bands (ev):

[...]

     the Fermi energy is     2.5451 ev

!    total energy              =   -2279.65318093 Ry
     Harris-Foulkes estimate   =   -2279.65317627 Ry
     estimated scf accuracy    <       0.00000057 Ry

     The total energy is the sum of the following terms:

     one-electron contribution =  -18552.28608611 Ry
     hartree contribution      =    9281.14400028 Ry
     xc contribution           =    -482.10335796 Ry
     ewald contribution        =    7473.68875663 Ry
     electric field correction =       0.00000000 Ry
     smearing contrib. (-TS)   =      -0.09649377 Ry

     convergence has been achieved in  16 iterations

 BEEF-vdW xc energy contributions
           1 :   -422.687633673344
           2 :    390.464744033197
           3 :   -334.208919299416
           4 :    267.160108836622
           5 :   -203.038534064158
           6 :    151.901238887819
           7 :   -117.863212561471
           8 :    99.2197064783940
           9 :   -90.5567677505215
[...]
     Generated by new atomic code, or converted to UPF format
     Using radial grid of  983 points,  8 beta functions with:
                l(1) =   0
                l(2) =   0
                l(3) =   1
                l(4) =   1
                l(5) =   2
                l(6) =   2
                l(7) =   3
                l(8) =   3
     Q(r) pseudized with  8 coefficients,  rinner =    1.150   1.150   1.150
                                                       1.150   1.150   1.150
                                                       1.150

     PseudoPot. # 2 for Sn read from file:
     /afs/slac.stanford.edu/u/if/mamunm/psp/gbrv1.5pbe/Sn.UPF
     MD5 check sum: 469debedee59599fedebd795477fea03
     Pseudo is Ultrasoft + core correction, Zval = 14.0
     Generated by new atomic code, or converted to UPF format
     Using radial grid of  891 points,  6 beta functions with:
                l(1) =   0
                l(2) =   0
                l(3) =   1
                l(4) =   1
                l(5) =   2
                l(6) =   2
     Q(r) pseudized with  8 coefficients,  rinner =    1.350   1.350   1.350
                                                       1.350   1.350

     vdW kernel table read from file vdW_kernel_table
     MD5 check sum: 095c7af220d748ca6e76c0b4c6cfb241

     atomic species   valence    mass     pseudopotential
        Os1           16.00   190.23000     Os( 1.00)
        Sn1           14.00   118.71000     Sn( 1.00)

     No symmetry found

   Cartesian axes

     site n.     atom                  positions (alat units)
         1           Os1 tau(   1) = (   0.0000000   0.0000000  10.0000000  )
         2           Os1 tau(   2) = (  -1.4110695   2.4440440  10.0000000  )
         3           Os1 tau(   3) = (   1.4110695   2.4440440  10.0000000  )
         4           Sn1 tau(   4) = (   2.8221389   0.0000000  10.0000000  )
         5           Os1 tau(   5) = (   2.8221389   1.6293627  12.3042668  )
         6           Os1 tau(   6) = (   1.4110695   4.0734067  12.3042668  )
         7           Os1 tau(   7) = (  -1.4110695   4.0734067  12.3042668  )
         8           Sn1 tau(   8) = (   0.0000000   1.6293627  12.3042668  )
         9           Os1 tau(   9) = (  -0.0000337   3.3294353  14.4448316  )
        10           Os1 tau(  10) = (   1.4722854   0.7792591  14.4448343  )
        11           Os1 tau(  11) = (   4.1720228   0.7793010  14.4448533  )
        12           Sn1 tau(  12) = (   2.8221260   3.2586002  14.8781739  )

     number of k points=    20  Fermi-Dirac smearing, width (Ry)=  0.0110
                       cart. coord. in units 2pi/alat
        k(    1) = (   0.0000000   0.0000000   0.0000000), wk =   0.0555556
        k(    2) = (   0.0000000   0.0340965   0.0000000), wk =   0.1111111
        k(    3) = (   0.0000000   0.0681930   0.0000000), wk =   0.1111111
        k(    4) = (   0.0000000  -0.1022895   0.0000000), wk =   0.0555556
        k(    5) = (   0.0295284   0.0170482   0.0000000), wk =   0.1111111
        k(    6) = (   0.0295284   0.0511447   0.0000000), wk =   0.1111111
        k(    7) = (   0.0295284   0.0852412   0.0000000), wk =   0.1111111
        k(    8) = (   0.0295284  -0.0852412   0.0000000), wk =   0.1111111
        k(    9) = (   0.0295284  -0.0511447   0.0000000), wk =   0.1111111
        k(   10) = (   0.0295284  -0.0170482   0.0000000), wk =   0.1111111
        k(   11) = (   0.0590569   0.0340965   0.0000000), wk =   0.1111111
        k(   12) = (   0.0590569   0.0681930   0.0000000), wk =   0.1111111
        k(   13) = (   0.0590569   0.1022895   0.0000000), wk =   0.1111111
        k(   14) = (   0.0590569  -0.0681930   0.0000000), wk =   0.1111111
        k(   15) = (   0.0590569  -0.0340965   0.0000000), wk =   0.1111111
        k(   16) = (   0.0590569   0.0000000   0.0000000), wk =   0.1111111
        k(   17) = (  -0.0885853  -0.0511447   0.0000000), wk =   0.0555556
        k(   18) = (  -0.0885853  -0.0170482   0.0000000), wk =   0.1111111
        k(   19) = (  -0.0885853   0.0170482   0.0000000), wk =   0.1111111
        k(   20) = (  -0.0885853  -0.1534342   0.0000000), wk =   0.0555556

     Largest allocated arrays     est. size (Mb)     dimensions
     Largest temporary arrays     est. size (Mb)     dimensions

     Initial potential from superposition of free atoms
     Check: negative starting charge=   -1.122984

     starting charge  178.49954, renormalised to  186.00000

[...]

     *
     * You are using vdW-DF for exchange-correlation in this calculation.
     * Please cite the following three references that made this development
     * possible:
     *
     *   M. Dion, H. Rydberg, E. Schroder, D. C. Langreth, and
     *   B. I. Lundqvist, Phys. Rev. Lett. 92, 246401 (2004).
     *
     *   T. Thonhauser, V. R. Cooper, S. Li, A. Puzder, P. Hyldgaard, and
     *   D. C. Langreth, Phys. Rev. B 76, 125112 (2007).
     *
     *   G. Roman-Perez and J. M. Soler, Phys. Rev. Lett. 103, 096102 (2009).
     *
     *
     * If you are using vdW-DF2, please also cite:
     *
     *   K. Lee, E. D. Murray, L. Kong, B. I. Lundqvist, and
     *   D. C. Langreth, Phys. Rev. B 82, 081101(R) (2010).
     *
     *
     * If you are calculating the stress with vdW-DF, please also cite:
     *
     *   R. Sabatini, E. Kucukbenli, B. Kolb, T. Thonhauser, and
     *   S. de Gironcoli, J. Phys.: Condens. Matter 24, 424209 (2012).
     *

     Carrying out vdW-DF run using the following parameters:

     Nqs =      20    Nr_points =    1024   r_max =   100.000
     q_mesh =
               0.00001000     0.04494208     0.09755937     0.15916263
               0.23128650     0.31572767     0.41458969     0.53033537
               0.66584808     0.82450364     1.01025438     1.22772762
               1.48234092     1.78043706     2.12944203     2.53805004
               3.01644009     3.57652955     4.23227104     5.00000000

     Gradients computed in reciprocal space

[...]

     Starting wfc are  144 randomized atomic wfcs

     Self-consistent Calculation

[...]

     total energy              =   -2279.69157296 Ry
     Harris-Foulkes estimate   =   -2279.69157262 Ry
     estimated scf accuracy    <       0.00000209 Ry

     iteration # 17     ecut=    36.75 Ry     beta=0.10
     Davidson diagonalization with overlap
     ethr =  1.12E-09,  avg # of iterations =  3.0

[...]

     negative rho (up, down):  1.097E+00 0.000E+00

     Adding external electric field

     Computed dipole along edir(3) :
        Dipole                0.0890 Ry au,          0.2262 Debye
        Dipole field          0.0002 Ry au

        Potential amp.       -0.0221 Ry
        Total length         45.3408 bohr

     End of self-consistent calculation

[...]

          k = 0.0591 0.0000 0.0000 ( 17230 PWs)   bands (ev):

[...]

          k =-0.0886-0.1534 0.0000 ( 17288 PWs)   bands (ev):

   -83.8775 -83.8679 -83.8583 -83.6566 -83.6382 -83.6319 -83.5549 -83.5459
   -83.5369 -43.4430 -43.3692 -43.3033 -43.2982 -43.2311 -43.1887 -43.1790
   -43.1392 -43.1106 -43.0511 -42.9755 -42.9605 -42.9269 -42.9087 -42.8939
   -42.8786 -42.8690 -42.8492 -42.8453 -42.8238 -42.8223 -42.7999 -42.7651
   -42.7572 -42.7429 -42.7369 -42.6822 -19.4408 -19.4289 -19.4073 -19.4021
   -19.4010 -19.1186 -19.0762 -19.0749 -19.0512 -19.0144 -19.0135 -19.0107
   -19.0024 -18.9803 -18.9693  -7.0511  -6.3091  -5.5095  -4.3543  -3.5363
    -3.4910  -3.1889  -2.6298  -1.9368  -1.8099  -1.7705  -1.6618  -1.5712
    -1.5401  -1.4364  -1.0704  -0.8097  -0.7919  -0.7576  -0.6185  -0.4347
    -0.3625  -0.0193   0.1247   0.1880   0.2568   0.5199   0.5240   0.7277
     0.7655   0.8781   0.9459   1.1164   1.6729   1.7055   1.7862   1.8932
     2.0123   2.1195   2.2251   2.2624   2.3136   2.5057   2.6158   2.6533
     2.6824   3.2673   3.3638   3.4871   3.5720   4.0129   4.4679   4.7715
     4.8607   5.3343   5.6627   5.7925   6.0996   6.5215   7.4163   7.5742
     7.7179   8.0508   8.2606   8.3848   8.4806   8.5931   8.7599   9.1161
     9.1617   9.2012   9.3881

     the Fermi energy is     2.6576 ev

!    total energy              =   -2279.69157848 Ry
     Harris-Foulkes estimate   =   -2279.69157396 Ry
     estimated scf accuracy    <       0.00000046 Ry

     The total energy is the sum of the following terms:

     one-electron contribution =  -18717.98139814 Ry
     hartree contribution      =    9364.43800258 Ry
     xc contribution           =    -482.26893462 Ry
     ewald contribution        =    7556.21526334 Ry
     electric field correction =       0.00002172 Ry
     smearing contrib. (-TS)   =      -0.09453335 Ry

     convergence has been achieved in  17 iterations

 BEEF-vdW xc energy contributions
           1 :   -422.984768058116
           2 :    390.824970465437
           3 :   -334.652295966135
           4 :    267.644426579437
           5 :   -203.473506880564
           6 :    152.188944726417
           7 :   -117.945081613217
           8 :    99.1078238800075
           9 :   -90.3348078041054
          10 :    85.4756039723268
          11 :   -80.0009742067883
          12 :    72.0995865950648
          13 :   -62.3550337737278
          14 :    52.5462599689612
          15 :   -44.3624763379848
          16 :    38.6186133478349
          17 :   -35.1490733596000
          18 :    33.1784612903591
          19 :   -31.8226004241039
          20 :    30.4356705209397
          21 :   -28.7132979431526
          22 :    26.6232017075140
          23 :   -24.2956294583918
          24 :    21.9481303353255
          25 :   -19.8384247228275
          26 :    18.1966705215842
          27 :   -17.1272041623172
          28 :    16.5284503990570
          29 :   -16.1068011215174
          30 :    15.5098770985721
          31 :   -39.1576132846373
          32 :   -29.5588024264497

     Forces acting on atoms (Ry/au):

     negative rho (up, down):  1.097E+00 0.000E+00
     atom    1 type  1   force =    -0.00000553   -0.01817574    0.02711621
     atom    2 type  1   force =    -0.01574125    0.00908255    0.02711352
     atom    3 type  1   force =     0.01573547    0.00908693    0.02712166
     atom    4 type  2   force =    -0.00000613    0.00000177   -0.04446216
     atom    5 type  1   force =     0.00000837    0.02665591   -0.00102513
     atom    6 type  1   force =     0.02310046   -0.01331808   -0.00103079
     atom    7 type  1   force =    -0.02310785   -0.01333543   -0.00104892
     atom    8 type  2   force =     0.00002079    0.00002288   -0.03394279
     atom    9 type  1   force =     0.00000523   -0.00006883    0.00010641
     atom   10 type  1   force =    -0.00007326    0.00002594    0.00010499
     atom   11 type  1   force =     0.00007717    0.00002087    0.00011213
     atom   12 type  2   force =    -0.00001347    0.00000123   -0.00016515

     Total force =     0.091992     Total SCF correction =     0.002751

     entering subroutine stress ...

     negative rho (up, down):  1.097E+00 0.000E+00
          total   stress  (Ry/bohr**3)                   (kbar)     P=  -23.80
  -0.00021786   0.00000000  -0.00000000        -32.05      0.00     -0.00
   0.00000000  -0.00021785   0.00000000          0.00    -32.05      0.00
  -0.00000000   0.00000000  -0.00004959         -0.00      0.00     -7.30

 !ASE

     Writing output data file calc.save

     General routines

     Parallel routines

   This run was terminated on:  15:14:50  27Dec2018

   JOB DONE.
Job  /afs/slac/g/suncat/bin/suncat-tsmpirun -x LD_LIBRARY_PATH -wdir /scratch/qe110351_QcRvu pw.x -in pw.inp

TID   HOST_NAME   COMMAND_LINE            STATUS            TERMINATION_TIME
00000 suncat0062 pw.x -in pw.inp   Done                     12/27/2018 15:14:50
00001 suncat0062 pw.x -in pw.inp   Done                     12/27/2018 15:14:50
00002 suncat0062 pw.x -in pw.inp   Done                     12/27/2018 15:14:50
00003 suncat0062 pw.x -in pw.inp   Done                     12/27/2018 15:14:50
00004 suncat0062 pw.x -in pw.inp   Done                     12/27/2018 15:14:50
00005 suncat0062 pw.x -in pw.inp   Done                     12/27/2018 15:14:50
00006 suncat0062 pw.x -in pw.inp   Done                     12/27/2018 15:14:50
00007 suncat0062 pw.x -in pw.inp   Done                     12/27/2018 15:14:50
00008 suncat0042 pw.x -in pw.inp   Done                     12/27/2018 15:14:50
00009 suncat0042 pw.x -in pw.inp   Done                     12/27/2018 15:14:50
00010 suncat0042 pw.x -in pw.inp   Done                     12/27/2018 15:14:50
00011 suncat0042 pw.x -in pw.inp   Done                     12/27/2018 15:14:50
00012 suncat0042 pw.x -in pw.inp   Done                     12/27/2018 15:14:50
00013 suncat0042 pw.x -in pw.inp   Done                     12/27/2018 15:14:50
00014 suncat0042 pw.x -in pw.inp   Done                     12/27/2018 15:14:50
00015 suncat0042 pw.x -in pw.inp   Done                     12/27/2018 15:14:50
00016 suncat0034 pw.x -in pw.inp   Done                     12/27/2018 15:14:50
00017 suncat0034 pw.x -in pw.inp   Done                     12/27/2018 15:14:50
00018 suncat0034 pw.x -in pw.inp   Done                     12/27/2018 15:14:50
00019 suncat0034 pw.x -in pw.inp   Done                     12/27/2018 15:14:50
00020 suncat0034 pw.x -in pw.inp   Done                     12/27/2018 15:14:50
00021 suncat0034 pw.x -in pw.inp   Done                     12/27/2018 15:14:50
00022 suncat0034 pw.x -in pw.inp   Done                     12/27/2018 15:14:50
00023 suncat0034 pw.x -in pw.inp   Done                     12/27/2018 15:14:50
00024 suncat0029 pw.x -in pw.inp   Done                     12/27/2018 15:14:50
00025 suncat0029 pw.x -in pw.inp   Done                     12/27/2018 15:14:50
00026 suncat0029 pw.x -in pw.inp   Done                     12/27/2018 15:14:50
00027 suncat0029 pw.x -in pw.inp   Done                     12/27/2018 15:14:50
00028 suncat0029 pw.x -in pw.inp   Done                     12/27/2018 15:14:50
00029 suncat0029 pw.x -in pw.inp   Done                     12/27/2018 15:14:50
00030 suncat0029 pw.x -in pw.inp   Done                     12/27/2018 15:14:50
00031 suncat0029 pw.x -in pw.inp   Done                     12/27/2018 15:14:50
00032 suncat0020 pw.x -in pw.inp   Done                     12/27/2018 15:14:50
00033 suncat0020 pw.x -in pw.inp   Done                     12/27/2018 15:14:50
00034 suncat0020 pw.x -in pw.inp   Done                     12/27/2018 15:14:50
00035 suncat0020 pw.x -in pw.inp   Done                     12/27/2018 15:14:50
00036 suncat0020 pw.x -in pw.inp   Done                     12/27/2018 15:14:50
00037 suncat0020 pw.x -in pw.inp   Done                     12/27/2018 15:14:50
00038 suncat0020 pw.x -in pw.inp   Done                     12/27/2018 15:14:50
00039 suncat0020 pw.x -in pw.inp   Done                     12/27/2018 15:14:50
00040 suncat0199 pw.x -in pw.inp   Done                     12/27/2018 15:14:50
00041 suncat0199 pw.x -in pw.inp   Done                     12/27/2018 15:14:50
00042 suncat0199 pw.x -in pw.inp   Done                     12/27/2018 15:14:50
00043 suncat0199 pw.x -in pw.inp   Done                     12/27/2018 15:14:50
00044 suncat0199 pw.x -in pw.inp   Done                     12/27/2018 15:14:50
00045 suncat0199 pw.x -in pw.inp   Done                     12/27/2018 15:14:50
00046 suncat0199 pw.x -in pw.inp   Done                     12/27/2018 15:14:50
00047 suncat0199 pw.x -in pw.inp   Done                     12/27/2018 15:14:50
00048 suncat0006 pw.x -in pw.inp   Done                     12/27/2018 15:14:50
00049 suncat0006 pw.x -in pw.inp   Done                     12/27/2018 15:14:50
00050 suncat0006 pw.x -in pw.inp   Done                     12/27/2018 15:14:50
00051 suncat0006 pw.x -in pw.inp   Done                     12/27/2018 15:14:50
00052 suncat0006 pw.x -in pw.inp   Done                     12/27/2018 15:14:50
00053 suncat0006 pw.x -in pw.inp   Done                     12/27/2018 15:14:50
00054 suncat0006 pw.x -in pw.inp   Done                     12/27/2018 15:14:50
00055 suncat0006 pw.x -in pw.inp   Done                     12/27/2018 15:14:50
00056 suncat0005 pw.x -in pw.inp   Done                     12/27/2018 15:14:50
00057 suncat0005 pw.x -in pw.inp   Done                     12/27/2018 15:14:50
00058 suncat0005 pw.x -in pw.inp   Done                     12/27/2018 15:14:50
00059 suncat0005 pw.x -in pw.inp   Done                     12/27/2018 15:14:50
00060 suncat0005 pw.x -in pw.inp   Done                     12/27/2018 15:14:50
00061 suncat0005 pw.x -in pw.inp   Done                     12/27/2018 15:14:50
00062 suncat0005 pw.x -in pw.inp   Done                     12/27/2018 15:14:50
00063 suncat0005 pw.x -in pw.inp   Done                     12/27/2018 15:14:50