     Program PWSCF v.5.1rc2 (svn rev. 11289) starts on 31Dec2018 at 22:27:54

     Current dimensions of program PWSCF are:
     Max number of different atomic species (ntypx) = 10
     Max number of k-points (npk) =  40000
     Max angular momentum in pseudopotentials (lmaxx) =  3
     Presently stress not available with electric field

     IMPORTANT: XC functional enforced from input :
     Exchange-correlation      = BEEF-VDW ( 1  4 27 13 2)
     Any further DFT definition will be discarded
     Please, verify this is what you really want

     Subspace diagonalization in iterative solution of the eigenvalue problem:
     a serial algorithm will be used

     bravais-lattice index     =            0
     lattice parameter (alat)  =       1.8897  a.u.
     unit-cell volume          =    4254.0672 (a.u.)^3
     number of atoms/cell      =           12
     number of atomic types    =            2
     number of electrons       =       180.00
     number of Kohn-Sham states=          120
     kinetic-energy cutoff     =      36.7493  Ry
     charge density cutoff     =     367.4932  Ry
     convergence threshold     =      1.0E-06
     mixing beta               =       0.1000
     number of iterations used =           10  plain     mixing
     Exchange-correlation      = BEEF-VDW ( 1  4 27 13 2)
     nstep                     =           50

     celldm(1)=   1.889726  celldm(2)=   0.000000  celldm(3)=   0.000000
     celldm(4)=   0.000000  celldm(5)=   0.000000  celldm(6)=   0.000000

     crystal axes: (cart. coord. in units of alat)
               a(1) = (   5.455794   0.000000   0.000000 )
               a(2) = (  -2.727897   4.724856   0.000000 )
               a(3) = (   0.000000   0.000000  24.454637 )

     reciprocal axes: (cart. coord. in units 2 pi/alat)
               b(1) = (  0.183291  0.105823  0.000000 )
               b(2) = (  0.000000  0.211647  0.000000 )
               b(3) = (  0.000000  0.000000  0.040892 )

     PseudoPot. # 1 for Rh read from file:
     /afs/slac.stanford.edu/u/if/mamunm/psp/gbrv1.5pbe/Rh.UPF
     MD5 check sum: 761627e959a2e3a1f56b0b5fe687810e
     Pseudo is Ultrasoft + core correction, Zval = 15.0
     Generated by new atomic code, or converted to UPF format
     Using radial grid of  969 points,  7 beta functions with:
                l(1) =   0
                l(2) =   0
                l(3) =   1
                l(4) =   1
                l(5) =   2
                l(6) =   2
                l(7) =   2
     Q(r) pseudized with  8 coefficients,  rinner =    1.200   1.200   1.200
                                                       1.200   1.200

     PseudoPot. # 2 for Ir read from file:
     /afs/slac.stanford.edu/u/if/mamunm/psp/gbrv1.5pbe/Ir.UPF
     MD5 check sum: 8836f839c3459d2b385c504ce6d91f2c
     Pseudo is Ultrasoft + core correction, Zval = 15.0
     Generated by new atomic code, or converted to UPF format
     Using radial grid of  983 points,  7 beta functions with:
                l(1) =   0
                l(2) =   0
                l(3) =   1
                l(4) =   1
                l(5) =   1
                l(6) =   2
                l(7) =   2
     Q(r) pseudized with  8 coefficients,  rinner =    1.400   1.400   1.400
                                                       1.400   1.400

     vdW kernel table read from file vdW_kernel_table
     MD5 check sum: 095c7af220d748ca6e76c0b4c6cfb241

     atomic species   valence    mass     pseudopotential
        Rh1           15.00   102.90550     Rh( 1.00)
        Ir1           15.00   192.21700     Ir( 1.00)

     No symmetry found

   Cartesian axes

     site n.     atom                  positions (alat units)
         1           Rh1 tau(   1) = (   0.0000000   0.0000000  10.0000000  )
         2           Rh1 tau(   2) = (  -1.3639484   2.3624280  10.0000000  )
         3           Rh1 tau(   3) = (   1.3639484   2.3624280  10.0000000  )
         4           Ir1 tau(   4) = (   2.7278969   0.0000000  10.0000000  )
         5           Rh1 tau(   5) = (   2.7278969   1.5749520  12.2273185  )
         6           Rh1 tau(   6) = (   1.3639484   3.9373800  12.2273185  )
         7           Rh1 tau(   7) = (  -1.3639484   3.9373800  12.2273185  )
         8           Ir1 tau(   8) = (   0.0000000   1.5749520  12.2273185  )
         9           Rh1 tau(   9) = (  -0.0000000   3.1499040  14.4546370  )
        10           Rh1 tau(  10) = (   1.3639484   0.7874760  14.4546370  )
        11           Rh1 tau(  11) = (   4.0918453   0.7874760  14.4546370  )
        12           Ir1 tau(  12) = (   2.7278969   3.1499040  14.4546370  )

     number of k points=    20  Fermi-Dirac smearing, width (Ry)=  0.0110
                       cart. coord. in units 2pi/alat
        k(    1) = (   0.0000000   0.0000000   0.0000000), wk =   0.0555556
        k(    2) = (   0.0000000   0.0352744   0.0000000), wk =   0.1111111
        k(    3) = (   0.0000000   0.0705489   0.0000000), wk =   0.1111111
        k(    4) = (   0.0000000  -0.1058233   0.0000000), wk =   0.0555556
        k(    5) = (   0.0305486   0.0176372   0.0000000), wk =   0.1111111
        k(    6) = (   0.0305486   0.0529117   0.0000000), wk =   0.1111111
        k(    7) = (   0.0305486   0.0881861   0.0000000), wk =   0.1111111
        k(    8) = (   0.0305486  -0.0881861   0.0000000), wk =   0.1111111
        k(    9) = (   0.0305486  -0.0529117   0.0000000), wk =   0.1111111
        k(   10) = (   0.0305486  -0.0176372   0.0000000), wk =   0.1111111
        k(   11) = (   0.0610971   0.0352744   0.0000000), wk =   0.1111111
        k(   12) = (   0.0610971   0.0705489   0.0000000), wk =   0.1111111
        k(   13) = (   0.0610971   0.1058233   0.0000000), wk =   0.1111111
        k(   14) = (   0.0610971  -0.0705489   0.0000000), wk =   0.1111111
        k(   15) = (   0.0610971  -0.0352744   0.0000000), wk =   0.1111111
        k(   16) = (   0.0610971   0.0000000   0.0000000), wk =   0.1111111
        k(   17) = (  -0.0916457  -0.0529117   0.0000000), wk =   0.0555556
        k(   18) = (  -0.0916457  -0.0176372   0.0000000), wk =   0.1111111
        k(   19) = (  -0.0916457   0.0176372   0.0000000), wk =   0.1111111
        k(   20) = (  -0.0916457  -0.1587350   0.0000000), wk =   0.0555556

     Largest allocated arrays     est. size (Mb)     dimensions
     Largest temporary arrays     est. size (Mb)     dimensions

     Initial potential from superposition of free atoms
     Check: negative starting charge=   -1.581538

     starting charge  173.99902, renormalised to  180.00000

     negative rho (up, down):  1.636E+00 0.000E+00

     *
     * You are using vdW-DF for exchange-correlation in this calculation.
     * Please cite the following three references that made this development
     * possible:
     *
     *   M. Dion, H. Rydberg, E. Schroder, D. C. Langreth, and
     *   B. I. Lundqvist, Phys. Rev. Lett. 92, 246401 (2004).
     *
     *   T. Thonhauser, V. R. Cooper, S. Li, A. Puzder, P. Hyldgaard, and
     *   D. C. Langreth, Phys. Rev. B 76, 125112 (2007).
     *
     *   G. Roman-Perez and J. M. Soler, Phys. Rev. Lett. 103, 096102 (2009).
     *
     *
     * If you are using vdW-DF2, please also cite:
     *
     *   K. Lee, E. D. Murray, L. Kong, B. I. Lundqvist, and
     *   D. C. Langreth, Phys. Rev. B 82, 081101(R) (2010).
     *
     *
     * If you are calculating the stress with vdW-DF, please also cite:
     *
     *   R. Sabatini, E. Kucukbenli, B. Kolb, T. Thonhauser, and
     *   S. de Gironcoli, J. Phys.: Condens. Matter 24, 424209 (2012).
     *

     Carrying out vdW-DF run using the following parameters:

     Nqs =      20    Nr_points =    1024   r_max =   100.000
     q_mesh =
               0.00001000     0.04494208     0.09755937     0.15916263
               0.23128650     0.31572767     0.41458969     0.53033537
               0.66584808     0.82450364     1.01025438     1.22772762
               1.48234092     1.78043706     2.12944203     2.53805004
               3.01644009     3.57652955     4.23227104     5.00000000

     Gradients computed in reciprocal space

     Adding external electric field

     Computed dipole along edir(3) :
        Dipole               -0.0000 Ry au,         -0.0000 Debye
        Dipole field         -0.0000 Ry au

        Potential amp.        0.0000 Ry
        Total length         45.0573 bohr

     Starting wfc are  144 randomized atomic wfcs

     Self-consistent Calculation

     iteration #  1     ecut=    36.75 Ry     beta=0.10
     Davidson diagonalization with overlap
     ethr =  1.00E-02,  avg # of iterations =  7.2

[...]

     total energy              =   -2099.81631695 Ry
     Harris-Foulkes estimate   =   -2102.16719849 Ry
     estimated scf accuracy    <      14.18270682 Ry

[...]

     End of self-consistent calculation

          k = 0.0000 0.0000 0.0000 ( 15893 PWs)   bands (ev):

   -47.7337 -47.7054 -47.7054 -47.2490 -47.2490 -47.2455 -47.2455 -47.1173
   -47.1032 -45.2631 -45.1192 -45.1191 -45.1011 -45.0450 -45.0449 -44.9217
   -44.8612 -44.8419 -44.8410 -44.8409 -44.7370 -44.7369 -44.7052 -44.7050
   -44.5521 -44.5451 -44.5030 -44.4634 -44.4632 -44.4535 -44.4499 -44.4498
   -44.4307 -44.4306 -44.4177 -44.4175  -5.6652  -4.1616  -4.1384  -3.9563
    -3.9563  -3.7734  -3.6183  -3.6183  -3.5657  -3.3442  -3.3442  -3.3339
    -3.0514  -3.0514  -2.9049  -1.9033  -1.9033  -1.7132  -1.3906  -1.3906
    -1.3483  -1.1669  -1.0602  -1.0602  -0.8019  -0.7137  -0.7137  -0.6511
    -0.6511  -0.6055  -0.4767  -0.4767   0.0202   0.1263   0.1264   0.8227
     0.9027   0.9027   0.9175   0.9175   0.9987   0.9987   1.1111   1.4279
     1.5479   1.5480   1.9189   2.0019   2.0020   2.1647   2.1648   2.1976
     2.2503   2.2503   2.2946   2.5912   2.5912   2.6451   2.6936   2.8161
     2.9657   2.9658   3.0364   3.0365   3.7088   3.7088   3.9482   5.5728
     5.5729   5.6599   5.6600   5.7154   5.7613   6.3322   6.5759   6.9784
     7.8989   8.5433   8.7643   8.9581   9.5237   9.5238   9.5318   9.5318

[...]

          k =-0.0916-0.0529 0.0000 ( 16032 PWs)   bands (ev):

[...]

     the Fermi energy is     1.8047 ev

!    total energy              =   -2099.70618970 Ry
     Harris-Foulkes estimate   =   -2099.70619758 Ry
     estimated scf accuracy    <       0.00000095 Ry

     The total energy is the sum of the following terms:

     one-electron contribution =  -18759.21015243 Ry
     hartree contribution      =    9417.41283991 Ry
     xc contribution           =    -434.83506752 Ry
     ewald contribution        =    7677.04481337 Ry
     electric field correction =       0.00000000 Ry
     smearing contrib. (-TS)   =      -0.11862303 Ry

     convergence has been achieved in  16 iterations

 BEEF-vdW xc energy contributions
           1 :   -381.089905497825
           2 :    351.661416313711
           3 :   -300.173220272271
           4 :    238.530022014152
           5 :   -179.073282676470
           6 :    130.912975670396
           7 :   -97.8863555224003
           8 :    78.6064055155478
           9 :   -68.2605934893355
          10 :    61.2115214476814
          11 :   -53.2894714561410
          12 :    42.9620477704304
[...]
     Generated by new atomic code, or converted to UPF format
     Using radial grid of  969 points,  7 beta functions with:
                l(1) =   0
                l(2) =   0
                l(3) =   1
                l(4) =   1
                l(5) =   2
                l(6) =   2
                l(7) =   2
     Q(r) pseudized with  8 coefficients,  rinner =    1.200   1.200   1.200
                                                       1.200   1.200

     PseudoPot. # 2 for Ir read from file:
     /afs/slac.stanford.edu/u/if/mamunm/psp/gbrv1.5pbe/Ir.UPF
     MD5 check sum: 8836f839c3459d2b385c504ce6d91f2c
     Pseudo is Ultrasoft + core correction, Zval = 15.0
     Generated by new atomic code, or converted to UPF format
     Using radial grid of  983 points,  7 beta functions with:
                l(1) =   0
                l(2) =   0
                l(3) =   1
                l(4) =   1
                l(5) =   1
                l(6) =   2
                l(7) =   2
     Q(r) pseudized with  8 coefficients,  rinner =    1.400   1.400   1.400
                                                       1.400   1.400

     vdW kernel table read from file vdW_kernel_table
     MD5 check sum: 095c7af220d748ca6e76c0b4c6cfb241

     atomic species   valence    mass     pseudopotential
        Rh1           15.00   102.90550     Rh( 1.00)
        Ir1           15.00   192.21700     Ir( 1.00)

     No symmetry found

   Cartesian axes

     site n.     atom                  positions (alat units)
         1           Rh1 tau(   1) = (   0.0000000   0.0000000  10.0000000  )
         2           Rh1 tau(   2) = (  -1.3639484   2.3624280  10.0000000  )
         3           Rh1 tau(   3) = (   1.3639484   2.3624280  10.0000000  )
         4           Ir1 tau(   4) = (   2.7278969   0.0000000  10.0000000  )
         5           Rh1 tau(   5) = (   2.7278969   1.5749520  12.2273185  )
         6           Rh1 tau(   6) = (   1.3639484   3.9373800  12.2273185  )
         7           Rh1 tau(   7) = (  -1.3639484   3.9373800  12.2273185  )
         8           Ir1 tau(   8) = (   0.0000000   1.5749520  12.2273185  )
         9           Rh1 tau(   9) = (   0.0000101   3.1422960  14.4137733  )
        10           Rh1 tau(  10) = (   1.3573672   0.7912728  14.4137800  )
        11           Rh1 tau(  11) = (   4.0984426   0.7912711  14.4137684  )
        12           Ir1 tau(  12) = (   2.7278950   3.1499083  14.3740491  )

     number of k points=    20  Fermi-Dirac smearing, width (Ry)=  0.0110
                       cart. coord. in units 2pi/alat
        k(    1) = (   0.0000000   0.0000000   0.0000000), wk =   0.0555556
        k(    2) = (   0.0000000   0.0352744   0.0000000), wk =   0.1111111
        k(    3) = (   0.0000000   0.0705489   0.0000000), wk =   0.1111111
        k(    4) = (   0.0000000  -0.1058233   0.0000000), wk =   0.0555556
        k(    5) = (   0.0305486   0.0176372   0.0000000), wk =   0.1111111
        k(    6) = (   0.0305486   0.0529117   0.0000000), wk =   0.1111111
        k(    7) = (   0.0305486   0.0881861   0.0000000), wk =   0.1111111
        k(    8) = (   0.0305486  -0.0881861   0.0000000), wk =   0.1111111
        k(    9) = (   0.0305486  -0.0529117   0.0000000), wk =   0.1111111
        k(   10) = (   0.0305486  -0.0176372   0.0000000), wk =   0.1111111
        k(   11) = (   0.0610971   0.0352744   0.0000000), wk =   0.1111111
        k(   12) = (   0.0610971   0.0705489   0.0000000), wk =   0.1111111
        k(   13) = (   0.0610971   0.1058233   0.0000000), wk =   0.1111111
        k(   14) = (   0.0610971  -0.0705489   0.0000000), wk =   0.1111111
        k(   15) = (   0.0610971  -0.0352744   0.0000000), wk =   0.1111111
        k(   16) = (   0.0610971   0.0000000   0.0000000), wk =   0.1111111
        k(   17) = (  -0.0916457  -0.0529117   0.0000000), wk =   0.0555556
        k(   18) = (  -0.0916457  -0.0176372   0.0000000), wk =   0.1111111
        k(   19) = (  -0.0916457   0.0176372   0.0000000), wk =   0.1111111
        k(   20) = (  -0.0916457  -0.1587350   0.0000000), wk =   0.0555556

     Largest allocated arrays     est. size (Mb)     dimensions
     Largest temporary arrays     est. size (Mb)     dimensions

     Initial potential from superposition of free atoms
     Check: negative starting charge=   -1.580480

     starting charge  173.99902, renormalised to  180.00000

[...]

     *
     * You are using vdW-DF for exchange-correlation in this calculation.
     * Please cite the following three references that made this development
     * possible:
     *
     *   M. Dion, H. Rydberg, E. Schroder, D. C. Langreth, and
     *   B. I. Lundqvist, Phys. Rev. Lett. 92, 246401 (2004).
     *
     *   T. Thonhauser, V. R. Cooper, S. Li, A. Puzder, P. Hyldgaard, and
     *   D. C. Langreth, Phys. Rev. B 76, 125112 (2007).
     *
     *   G. Roman-Perez and J. M. Soler, Phys. Rev. Lett. 103, 096102 (2009).
     *
     *
     * If you are using vdW-DF2, please also cite:
     *
     *   K. Lee, E. D. Murray, L. Kong, B. I. Lundqvist, and
     *   D. C. Langreth, Phys. Rev. B 82, 081101(R) (2010).
     *
     *
     * If you are calculating the stress with vdW-DF, please also cite:
     *
     *   R. Sabatini, E. Kucukbenli, B. Kolb, T. Thonhauser, and
     *   S. de Gironcoli, J. Phys.: Condens. Matter 24, 424209 (2012).
     *

     Carrying out vdW-DF run using the following parameters:

     Nqs =      20    Nr_points =    1024   r_max =   100.000
     q_mesh =
               0.00001000     0.04494208     0.09755937     0.15916263
               0.23128650     0.31572767     0.41458969     0.53033537
               0.66584808     0.82450364     1.01025438     1.22772762
               1.48234092     1.78043706     2.12944203     2.53805004
               3.01644009     3.57652955     4.23227104     5.00000000

     Gradients computed in reciprocal space

[...]

     Starting wfc are  144 randomized atomic wfcs

     Self-consistent Calculation

[...]

     total energy              =   -2099.70939979 Ry
     Harris-Foulkes estimate   =   -2099.70940021 Ry
     estimated scf accuracy    <       0.00000134 Ry

     iteration # 17     ecut=    36.75 Ry     beta=0.10
     Davidson diagonalization with overlap
     ethr =  7.46E-10,  avg # of iterations =  4.5

[...]

     negative rho (up, down):  1.488E+00 0.000E+00

     Adding external electric field

     Computed dipole along edir(3) :
        Dipole                0.0010 Ry au,          0.0026 Debye
        Dipole field          0.0000 Ry au

        Potential amp.       -0.0003 Ry
        Total length         45.0573 bohr

     End of self-consistent calculation

[...]

          k = 0.0611 0.0000 0.0000 ( 16002 PWs)   bands (ev):

[...]

          k =-0.0916-0.1587 0.0000 ( 16032 PWs)   bands (ev):

   -47.7634 -47.7123 -47.7024 -47.2957 -47.2857 -47.2068 -47.2061 -47.1950
   -47.0717 -45.2054 -45.1204 -45.1097 -45.0834 -45.0664 -45.0401 -45.0379
   -45.0324 -44.8774 -44.7925 -44.7495 -44.6703 -44.6542 -44.6370 -44.6319
   -44.6235 -44.6106 -44.6008 -44.5865 -44.4951 -44.4875 -44.4833 -44.4557
   -44.4410 -44.4388 -44.4220 -44.4063  -4.3140  -3.9668  -3.2111  -3.1979
    -3.1810  -3.0312  -2.9485  -2.8491  -2.7856  -2.6331  -2.6317  -2.4564
    -2.3983  -2.1942  -2.1384  -2.0743  -1.8922  -1.7822  -1.7212  -1.5676
    -1.5500  -1.4449  -1.1014  -1.0763  -0.7728  -0.7450  -0.7168  -0.6774
    -0.6321  -0.5640  -0.4505  -0.4237  -0.3772  -0.3392  -0.3292  -0.2903
    -0.2398  -0.2239  -0.1826  -0.1573   0.2370   0.2838   0.4976   0.5228
     0.5859   0.6143   0.7624   0.8914   0.8988   0.9746   1.0991   1.1372
     1.3722   1.4420   1.4983   1.5981   1.7062   1.7778   2.0510   2.1791
     2.3044   2.3461   2.4628   2.7512   4.2265   4.2401   4.8537   5.1650
     5.7769   5.9195   6.5457   6.6299   7.7305   7.8285   7.9596   7.9735
     8.5592   8.5745   8.6356   8.6370   9.7761   9.7829   9.9808  10.3338

     the Fermi energy is     1.8239 ev

!    total energy              =   -2099.70939176 Ry
     Harris-Foulkes estimate   =   -2099.70939991 Ry
     estimated scf accuracy    <       0.00000085 Ry

     The total energy is the sum of the following terms:

     one-electron contribution =  -18895.56324235 Ry
     hartree contribution      =    9485.54000361 Ry
     xc contribution           =    -434.93209189 Ry
     ewald contribution        =    7745.36243612 Ry
     electric field correction =       0.00000000 Ry
     smearing contrib. (-TS)   =      -0.11649726 Ry

     convergence has been achieved in  17 iterations

 BEEF-vdW xc energy contributions
           1 :   -381.192774044558
           2 :    351.815026324396
           3 :   -300.395314696413
           4 :    238.791086058207
           5 :   -179.308536618527
           6 :    131.054692317809
           7 :   -97.8999734439054
           8 :    78.5112306480434
           9 :   -68.1233333054818
          10 :    61.1149689896374
          11 :   -53.2922613804534
          12 :    43.0701084796648
          13 :   -31.3248869338324
          14 :    20.2678516904749
          15 :   -12.0203004083968
          16 :    7.55434794229143
          17 :   -6.37857676988017
          18 :    6.95634476338319
          19 :   -7.53578128498236
          20 :    6.93894716161367
          21 :   -4.94998374870340
          22 :    2.19294185166143
          23 :   0.347658127906243
          24 :   -1.87825232596970
          25 :    2.15547063184249
          26 :   -1.52087895280550
          27 :   0.645337846305551
          28 :  -0.152469236952129
          29 :   0.325873944612795
          30 :   -1.03439103472385
          31 :   -35.8052857806574
          32 :   -26.8584674629955

     Forces acting on atoms (Ry/au):

     negative rho (up, down):  1.488E+00 0.000E+00
     atom    1 type  1   force =    -0.00000029    0.00468689    0.00940611
     atom    2 type  1   force =     0.00405465   -0.00234127    0.00939780
     atom    3 type  1   force =    -0.00405752   -0.00234264    0.00940194
     atom    4 type  2   force =     0.00000003   -0.00000101    0.02159178
     atom    5 type  1   force =     0.00000019   -0.00266615   -0.01325354
     atom    6 type  1   force =    -0.00230840    0.00133261   -0.01325617
     atom    7 type  1   force =     0.00230951    0.00133269   -0.01325315
     atom    8 type  2   force =     0.00000318   -0.00000140   -0.01132549
     atom    9 type  1   force =    -0.00000179   -0.00049410   -0.00006308
     atom   10 type  1   force =    -0.00042711    0.00024845   -0.00006375
     atom   11 type  1   force =     0.00042445    0.00024850   -0.00005906
     atom   12 type  2   force =     0.00000310   -0.00000257    0.00147661

     Total force =     0.038429     Total SCF correction =     0.005135
     SCF correction compared to forces is large: reduce conv_thr to get better values

     entering subroutine stress ...

     negative rho (up, down):  1.488E+00 0.000E+00
          total   stress  (Ry/bohr**3)                   (kbar)     P=  -33.95
  -0.00025567  -0.00000000  -0.00000000        -37.61     -0.00     -0.00
  -0.00000000  -0.00025567   0.00000000         -0.00    -37.61      0.00
  -0.00000000   0.00000000  -0.00018110         -0.00      0.00    -26.64

 !ASE

     Writing output data file calc.save

     General routines

     Parallel routines

   This run was terminated on:  23: 4:28  31Dec2018

   JOB DONE.
Job  /afs/slac/g/suncat/bin/suncat-tsmpirun -x LD_LIBRARY_PATH -wdir /scratch/qe648881_8W9dU pw.x -in pw.inp

TID   HOST_NAME   COMMAND_LINE            STATUS            TERMINATION_TIME
00000 suncat0139 pw.x -in pw.inp   Done                     12/31/2018 23:04:28
00001 suncat0139 pw.x -in pw.inp   Done                     12/31/2018 23:04:28
00002 suncat0139 pw.x -in pw.inp   Done                     12/31/2018 23:04:28
00003 suncat0139 pw.x -in pw.inp   Done                     12/31/2018 23:04:28
00004 suncat0139 pw.x -in pw.inp   Done                     12/31/2018 23:04:28
00005 suncat0139 pw.x -in pw.inp   Done                     12/31/2018 23:04:28
00006 suncat0139 pw.x -in pw.inp   Done                     12/31/2018 23:04:28
00007 suncat0139 pw.x -in pw.inp   Done                     12/31/2018 23:04:28
00008 suncat0133 pw.x -in pw.inp   Done                     12/31/2018 23:04:28
00009 suncat0133 pw.x -in pw.inp   Done                     12/31/2018 23:04:28
00010 suncat0133 pw.x -in pw.inp   Done                     12/31/2018 23:04:28
00011 suncat0133 pw.x -in pw.inp   Done                     12/31/2018 23:04:28
00012 suncat0133 pw.x -in pw.inp   Done                     12/31/2018 23:04:28
00013 suncat0133 pw.x -in pw.inp   Done                     12/31/2018 23:04:28
00014 suncat0133 pw.x -in pw.inp   Done                     12/31/2018 23:04:28
00015 suncat0133 pw.x -in pw.inp   Done                     12/31/2018 23:04:28
00016 suncat0132 pw.x -in pw.inp   Done                     12/31/2018 23:04:28
00017 suncat0132 pw.x -in pw.inp   Done                     12/31/2018 23:04:28
00018 suncat0132 pw.x -in pw.inp   Done                     12/31/2018 23:04:28
00019 suncat0132 pw.x -in pw.inp   Done                     12/31/2018 23:04:28
00020 suncat0132 pw.x -in pw.inp   Done                     12/31/2018 23:04:28
00021 suncat0132 pw.x -in pw.inp   Done                     12/31/2018 23:04:28
00022 suncat0132 pw.x -in pw.inp   Done                     12/31/2018 23:04:28
00023 suncat0132 pw.x -in pw.inp   Done                     12/31/2018 23:04:28
00024 suncat0131 pw.x -in pw.inp   Done                     12/31/2018 23:04:28
00025 suncat0131 pw.x -in pw.inp   Done                     12/31/2018 23:04:28
00026 suncat0131 pw.x -in pw.inp   Done                     12/31/2018 23:04:28
00027 suncat0131 pw.x -in pw.inp   Done                     12/31/2018 23:04:28
00028 suncat0131 pw.x -in pw.inp   Done                     12/31/2018 23:04:28
00029 suncat0131 pw.x -in pw.inp   Done                     12/31/2018 23:04:28
00030 suncat0131 pw.x -in pw.inp   Done                     12/31/2018 23:04:28
00031 suncat0131 pw.x -in pw.inp   Done                     12/31/2018 23:04:28
00032 suncat0130 pw.x -in pw.inp   Done                     12/31/2018 23:04:28
00033 suncat0130 pw.x -in pw.inp   Done                     12/31/2018 23:04:28
00034 suncat0130 pw.x -in pw.inp   Done                     12/31/2018 23:04:28
00035 suncat0130 pw.x -in pw.inp   Done                     12/31/2018 23:04:28
00036 suncat0130 pw.x -in pw.inp   Done                     12/31/2018 23:04:28
00037 suncat0130 pw.x -in pw.inp   Done                     12/31/2018 23:04:28
00038 suncat0130 pw.x -in pw.inp   Done                     12/31/2018 23:04:28
00039 suncat0130 pw.x -in pw.inp   Done                     12/31/2018 23:04:28
00040 suncat0124 pw.x -in pw.inp   Done                     12/31/2018 23:04:28
00041 suncat0124 pw.x -in pw.inp   Done                     12/31/2018 23:04:28
00042 suncat0124 pw.x -in pw.inp   Done                     12/31/2018 23:04:28
00043 suncat0124 pw.x -in pw.inp   Done                     12/31/2018 23:04:28
00044 suncat0124 pw.x -in pw.inp   Done                     12/31/2018 23:04:28
00045 suncat0124 pw.x -in pw.inp   Done                     12/31/2018 23:04:28
00046 suncat0124 pw.x -in pw.inp   Done                     12/31/2018 23:04:28
00047 suncat0124 pw.x -in pw.inp   Done                     12/31/2018 23:04:28
00048 suncat0123 pw.x -in pw.inp   Done                     12/31/2018 23:04:28
00049 suncat0123 pw.x -in pw.inp   Done                     12/31/2018 23:04:28
00050 suncat0123 pw.x -in pw.inp   Done                     12/31/2018 23:04:28
00051 suncat0123 pw.x -in pw.inp   Done                     12/31/2018 23:04:28
00052 suncat0123 pw.x -in pw.inp   Done                     12/31/2018 23:04:28
00053 suncat0123 pw.x -in pw.inp   Done                     12/31/2018 23:04:28
00054 suncat0123 pw.x -in pw.inp   Done                     12/31/2018 23:04:28
00055 suncat0123 pw.x -in pw.inp   Done                     12/31/2018 23:04:28
00056 suncat0122 pw.x -in pw.inp   Done                     12/31/2018 23:04:28
00057 suncat0122 pw.x -in pw.inp   Done                     12/31/2018 23:04:28
00058 suncat0122 pw.x -in pw.inp   Done                     12/31/2018 23:04:28
00059 suncat0122 pw.x -in pw.inp   Done                     12/31/2018 23:04:28
00060 suncat0122 pw.x -in pw.inp   Done                     12/31/2018 23:04:28
00061 suncat0122 pw.x -in pw.inp   Done                     12/31/2018 23:04:28
00062 suncat0122 pw.x -in pw.inp   Done                     12/31/2018 23:04:28
00063 suncat0122 pw.x -in pw.inp   Done                     12/31/2018 23:04:28