     Program PWSCF v.5.1rc2 (svn rev. 11289) starts on 19Dec2018 at 18:39:28

     Current dimensions of program PWSCF are:
     Max number of different atomic species (ntypx) = 10
     Max number of k-points (npk) =  40000
     Max angular momentum in pseudopotentials (lmaxx) =  3
     Presently stress not available with electric field

     IMPORTANT: XC functional enforced from input :
     Exchange-correlation      = BEEF-VDW ( 1  4 27 13 2)
     Any further DFT definition will be discarded
     Please, verify this is what you really want

     Subspace diagonalization in iterative solution of the eigenvalue problem:
     a serial algorithm will be used

     bravais-lattice index     =            0
     lattice parameter (alat)  =       1.8897  a.u.
     unit-cell volume          =    4851.8649 (a.u.)^3
     number of atoms/cell      =           12
     number of atomic types    =            2
     number of electrons       =        63.00
     number of Kohn-Sham states=           61
     kinetic-energy cutoff     =      36.7493  Ry
     charge density cutoff     =     367.4932  Ry
     convergence threshold     =      1.0E-06
     mixing beta               =       0.1000
     number of iterations used =           10  plain     mixing
     Exchange-correlation      = BEEF-VDW ( 1  4 27 13 2)
     nstep                     =           50

     celldm(1)=   1.889726  celldm(2)=   0.000000  celldm(3)=   0.000000
     celldm(4)=   0.000000  celldm(5)=   0.000000  celldm(6)=   0.000000

     crystal axes: (cart. coord. in units of alat)
               a(1) = (   5.793919   0.000000   0.000000 )
               a(2) = (  -2.896959   5.017681   0.000000 )
               a(3) = (   0.000000   0.000000  24.730715 )

     reciprocal axes: (cart. coord. in units 2 pi/alat)
               b(1) = (  0.172595  0.099648  0.000000 )
               b(2) = (  0.000000  0.199295  0.000000 )
               b(3) = (  0.000000  0.000000  0.040436 )

     PseudoPot. # 1 for Al read from file:
     /afs/slac.stanford.edu/u/if/mamunm/psp/gbrv1.5pbe/Al.UPF
     MD5 check sum: 0a6289f5291fc8f409219462bc851e1f
     Pseudo is Ultrasoft + core correction, Zval =  3.0
     Generated by new atomic code, or converted to UPF format
     Using radial grid of  893 points,  3 beta functions with:
                l(1) =   0
                l(2) =   1
                l(3) =   2
     Q(r) pseudized with  8 coefficients,  rinner =    0.900   0.900   0.900
                                                       0.900   0.900

     PseudoPot. # 2 for Zr read from file:
     /afs/slac.stanford.edu/u/if/mamunm/psp/gbrv1.5pbe/Zr.UPF
     MD5 check sum: 5db81b1e868ab7776c4564c113de050b
     Pseudo is Ultrasoft + core correction, Zval = 12.0
     Generated by new atomic code, or converted to UPF format
     Using radial grid of  887 points,  6 beta functions with:
                l(1) =   0
                l(2) =   0
                l(3) =   1
                l(4) =   1
                l(5) =   2
                l(6) =   2
     Q(r) pseudized with  6 coefficients,  rinner =    1.200   1.200   1.200
                                                       1.200   1.200

     vdW kernel table read from file vdW_kernel_table
     MD5 check sum: 095c7af220d748ca6e76c0b4c6cfb241

     atomic species   valence    mass     pseudopotential
        Al1            3.00    26.98154     Al( 1.00)
        Zr1           12.00    91.22400     Zr( 1.00)

     No symmetry found

   Cartesian axes

     site n.     atom                  positions (alat units)
         1           Al1 tau(   1) = (   0.0000000   0.0000000  10.0000000  )
         2           Al1 tau(   2) = (  -1.4484797   2.5088404  10.0000000  )
         3           Al1 tau(   3) = (   1.4484797   2.5088404  10.0000000  )
         4           Zr1 tau(   4) = (   2.8969594   0.0000000  10.0000000  )
         5           Al1 tau(   5) = (   2.8969594   1.6725603  12.3653574  )
         6           Al1 tau(   6) = (   1.4484797   4.1814007  12.3653574  )
         7           Al1 tau(   7) = (  -1.4484797   4.1814007  12.3653574  )
         8           Zr1 tau(   8) = (   0.0000000   1.6725603  12.3653574  )
         9           Al1 tau(   9) = (  -0.0000000   3.3451205  14.7307148  )
        10           Al1 tau(  10) = (   1.4484797   0.8362801  14.7307148  )
        11           Al1 tau(  11) = (   4.3454391   0.8362801  14.7307148  )
        12           Zr1 tau(  12) = (   2.8969594   3.3451205  14.7307148  )

     number of k points=    20  Fermi-Dirac smearing, width (Ry)=  0.0110
                       cart. coord. in units 2pi/alat
        k(    1) = (   0.0000000   0.0000000   0.0000000), wk =   0.0555556
        k(    2) = (   0.0000000   0.0332159   0.0000000), wk =   0.1111111
        k(    3) = (   0.0000000   0.0664318   0.0000000), wk =   0.1111111
        k(    4) = (   0.0000000  -0.0996476   0.0000000), wk =   0.0555556
        k(    5) = (   0.0287658   0.0166079   0.0000000), wk =   0.1111111
        k(    6) = (   0.0287658   0.0498238   0.0000000), wk =   0.1111111
        k(    7) = (   0.0287658   0.0830397   0.0000000), wk =   0.1111111
        k(    8) = (   0.0287658  -0.0830397   0.0000000), wk =   0.1111111
        k(    9) = (   0.0287658  -0.0498238   0.0000000), wk =   0.1111111
        k(   10) = (   0.0287658  -0.0166079   0.0000000), wk =   0.1111111
        k(   11) = (   0.0575316   0.0332159   0.0000000), wk =   0.1111111
        k(   12) = (   0.0575316   0.0664318   0.0000000), wk =   0.1111111
        k(   13) = (   0.0575316   0.0996476   0.0000000), wk =   0.1111111
        k(   14) = (   0.0575316  -0.0664318   0.0000000), wk =   0.1111111
        k(   15) = (   0.0575316  -0.0332159   0.0000000), wk =   0.1111111
        k(   16) = (   0.0575316   0.0000000   0.0000000), wk =   0.1111111
        k(   17) = (  -0.0862974  -0.0498238   0.0000000), wk =   0.0555556
        k(   18) = (  -0.0862974  -0.0166079   0.0000000), wk =   0.1111111
        k(   19) = (  -0.0862974   0.0166079   0.0000000), wk =   0.1111111
        k(   20) = (  -0.0862974  -0.1494714   0.0000000), wk =   0.0555556

     Largest allocated arrays     est. size (Mb)     dimensions
     Largest temporary arrays     est. size (Mb)     dimensions

     Initial potential from superposition of free atoms
     Check: negative starting charge=   -0.180122

     starting charge   62.97136, renormalised to   63.00000

     negative rho (up, down):  1.802E-01 0.000E+00

     *
     * You are using vdW-DF for exchange-correlation in this calculation.
     * Please cite the following three references that made this development
     * possible:
     *
     *   M. Dion, H. Rydberg, E. Schroder, D. C. Langreth, and
     *   B. I. Lundqvist, Phys. Rev. Lett. 92, 246401 (2004).
     *
     *   T. Thonhauser, V. R. Cooper, S. Li, A. Puzder, P. Hyldgaard, and
     *   D. C. Langreth, Phys. Rev. B 76, 125112 (2007).
     *
     *   G. Roman-Perez and J. M. Soler, Phys. Rev. Lett. 103, 096102 (2009).
     *
     *
     * If you are using vdW-DF2, please also cite:
     *
     *   K. Lee, E. D. Murray, L. Kong, B. I. Lundqvist, and
     *   D. C. Langreth, Phys. Rev. B 82, 081101(R) (2010).
     *
     *
     * If you are calculating the stress with vdW-DF, please also cite:
     *
     *   R. Sabatini, E. Kucukbenli, B. Kolb, T. Thonhauser, and
     *   S. de Gironcoli, J. Phys.: Condens. Matter 24, 424209 (2012).
     *

     Carrying out vdW-DF run using the following parameters:

     Nqs =      20    Nr_points =    1024   r_max =   100.000
     q_mesh =
               0.00001000     0.04494208     0.09755937     0.15916263
               0.23128650     0.31572767     0.41458969     0.53033537
               0.66584808     0.82450364     1.01025438     1.22772762
               1.48234092     1.78043706     2.12944203     2.53805004
               3.01644009     3.57652955     4.23227104     5.00000000

     Gradients computed in reciprocal space

     Adding external electric field

     Computed dipole along edir(3) :
        Dipole               -0.0000 Ry au,         -0.0000 Debye
        Dipole field         -0.0000 Ry au

        Potential amp.        0.0000 Ry
        Total length         45.5659 bohr

     Starting wfc are   75 randomized atomic wfcs

     Self-consistent Calculation

     iteration #  1     ecut=    36.75 Ry     beta=0.10
     Davidson diagonalization with overlap
     ethr =  1.00E-02,  avg # of iterations =  5.0

[...]

     total energy              =    -361.33784556 Ry
     Harris-Foulkes estimate   =    -361.56870543 Ry
     estimated scf accuracy    <       1.40260270 Ry

[...]

     End of self-consistent calculation

          k = 0.0000 0.0000 0.0000 ( 18283 PWs)   bands (ev):

   -49.3684 -49.3683 -49.0779 -27.5079 -27.5071 -27.3013 -27.3013 -27.3001
   -27.3001 -27.1427 -27.1427 -27.1240  -9.5588  -7.9025  -6.0197  -4.9546
    -4.9546  -4.0686  -4.0686  -4.0293  -3.4086  -3.4086  -3.1959  -2.5902
    -2.3011  -2.3011  -1.9459  -0.9006  -0.6395  -0.6395  -0.4681  -0.4681
     0.1500   0.1500   0.3667   0.3667   0.8690   1.0328   1.8240   1.8240
     1.9650   2.4046   2.4719   3.2185   3.2645   3.2645   3.3361   3.3361
     3.6034   4.1877   4.2964   4.2964   4.3411   4.8035   4.9466   4.9466
     5.1180   5.2805   5.3172   5.7865   5.7865

[...]

          k =-0.0863-0.0498 0.0000 ( 18240 PWs)   bands (ev):

[...]

     the Fermi energy is    -0.2807 ev

!    total energy              =    -361.34904897 Ry
     Harris-Foulkes estimate   =    -361.34904837 Ry
     estimated scf accuracy    <       0.00000029 Ry

     The total energy is the sum of the following terms:

     one-electron contribution =   -2029.74540029 Ry
     hartree contribution      =    1016.29945683 Ry
     xc contribution           =     -95.30560157 Ry
     ewald contribution        =     747.43826153 Ry
     electric field correction =       0.00000000 Ry
     smearing contrib. (-TS)   =      -0.03576547 Ry

     convergence has been achieved in  14 iterations

 BEEF-vdW xc energy contributions
           1 :   -80.2280341344550
           2 :    71.2041250351077
           3 :   -56.6714137437036
           4 :    41.5148137032514
           5 :   -29.4199313861658
           6 :    21.5264302450602
           7 :   -16.8101263005572
           8 :    13.5077970743218
           9 :   -10.4216529298177
          10 :    7.33903804300067
          11 :   -4.62458726223971
          12 :    2.59133515936948
          13 :   -1.21183982107169
          14 :   0.263172572336600
          15 :   0.403867069993396
          16 :  -0.794613392261255
          17 :   0.917216591394379
          18 :  -0.914516884064284
          19 :   0.998025606708865
          20 :   -1.25467165262964
          21 :    1.54832019491610
          22 :   -1.63869267724353
          23 :    1.41102289563078
          24 :  -0.999114120816998
          25 :   0.686853355419643
          26 :  -0.678589414104351
          27 :   0.940309346228702
          28 :   -1.24257559509300
          29 :    1.35356883121734
          30 :   -1.21213414003620
          31 :   -10.3783980223926
[...]
     celldm(1)=   1.889726  celldm(2)=   0.000000  celldm(3)=   0.000000
     celldm(4)=   0.000000  celldm(5)=   0.000000  celldm(6)=   0.000000

     crystal axes: (cart. coord. in units of alat)
               a(1) = (   5.793919   0.000000   0.000000 )
               a(2) = (  -2.896959   5.017681   0.000000 )
               a(3) = (   0.000000   0.000000  24.730715 )

     reciprocal axes: (cart. coord. in units 2 pi/alat)
               b(1) = (  0.172595  0.099648  0.000000 )
               b(2) = (  0.000000  0.199295  0.000000 )
               b(3) = (  0.000000  0.000000  0.040436 )

     PseudoPot. # 1 for Al read from file:
     /afs/slac.stanford.edu/u/if/mamunm/psp/gbrv1.5pbe/Al.UPF
     MD5 check sum: 0a6289f5291fc8f409219462bc851e1f
     Pseudo is Ultrasoft + core correction, Zval =  3.0
     Generated by new atomic code, or converted to UPF format
     Using radial grid of  893 points,  3 beta functions with:
                l(1) =   0
                l(2) =   1
                l(3) =   2
     Q(r) pseudized with  8 coefficients,  rinner =    0.900   0.900   0.900
                                                       0.900   0.900

     PseudoPot. # 2 for Zr read from file:
     /afs/slac.stanford.edu/u/if/mamunm/psp/gbrv1.5pbe/Zr.UPF
     MD5 check sum: 5db81b1e868ab7776c4564c113de050b
     Pseudo is Ultrasoft + core correction, Zval = 12.0
     Generated by new atomic code, or converted to UPF format
     Using radial grid of  887 points,  6 beta functions with:
                l(1) =   0
                l(2) =   0
                l(3) =   1
                l(4) =   1
                l(5) =   2
                l(6) =   2
     Q(r) pseudized with  6 coefficients,  rinner =    1.200   1.200   1.200
                                                       1.200   1.200

     vdW kernel table read from file vdW_kernel_table
     MD5 check sum: 095c7af220d748ca6e76c0b4c6cfb241

     atomic species   valence    mass     pseudopotential
        Al1            3.00    26.98154     Al( 1.00)
        Zr1           12.00    91.22400     Zr( 1.00)

     No symmetry found

   Cartesian axes

     site n.     atom                  positions (alat units)
         1           Al1 tau(   1) = (   0.0000000   0.0000000  10.0000000  )
         2           Al1 tau(   2) = (  -1.4484797   2.5088404  10.0000000  )
         3           Al1 tau(   3) = (   1.4484797   2.5088404  10.0000000  )
         4           Zr1 tau(   4) = (   2.8969594   0.0000000  10.0000000  )
         5           Al1 tau(   5) = (   2.8969594   1.6725603  12.3653574  )
         6           Al1 tau(   6) = (   1.4484797   4.1814007  12.3653574  )
         7           Al1 tau(   7) = (  -1.4484797   4.1814007  12.3653574  )
         8           Zr1 tau(   8) = (   0.0000000   1.6725603  12.3653574  )
         9           Al1 tau(   9) = (   0.0000029   3.3670323  14.9051979  )
        10           Al1 tau(  10) = (   1.4674571   0.8253257  14.9051967  )
        11           Al1 tau(  11) = (   4.3264639   0.8253236  14.9051975  )
        12           Zr1 tau(  12) = (   2.8969552   3.3451200  14.6204694  )

     number of k points=    20  Fermi-Dirac smearing, width (Ry)=  0.0110
                       cart. coord. in units 2pi/alat
        k(    1) = (   0.0000000   0.0000000   0.0000000), wk =   0.0555556
        k(    2) = (   0.0000000   0.0332159   0.0000000), wk =   0.1111111
        k(    3) = (   0.0000000   0.0664318   0.0000000), wk =   0.1111111
        k(    4) = (   0.0000000  -0.0996476   0.0000000), wk =   0.0555556
        k(    5) = (   0.0287658   0.0166079   0.0000000), wk =   0.1111111
        k(    6) = (   0.0287658   0.0498238   0.0000000), wk =   0.1111111
        k(    7) = (   0.0287658   0.0830397   0.0000000), wk =   0.1111111
        k(    8) = (   0.0287658  -0.0830397   0.0000000), wk =   0.1111111
        k(    9) = (   0.0287658  -0.0498238   0.0000000), wk =   0.1111111
        k(   10) = (   0.0287658  -0.0166079   0.0000000), wk =   0.1111111
        k(   11) = (   0.0575316   0.0332159   0.0000000), wk =   0.1111111
        k(   12) = (   0.0575316   0.0664318   0.0000000), wk =   0.1111111
        k(   13) = (   0.0575316   0.0996476   0.0000000), wk =   0.1111111
        k(   14) = (   0.0575316  -0.0664318   0.0000000), wk =   0.1111111
        k(   15) = (   0.0575316  -0.0332159   0.0000000), wk =   0.1111111
        k(   16) = (   0.0575316   0.0000000   0.0000000), wk =   0.1111111
        k(   17) = (  -0.0862974  -0.0498238   0.0000000), wk =   0.0555556
        k(   18) = (  -0.0862974  -0.0166079   0.0000000), wk =   0.1111111
        k(   19) = (  -0.0862974   0.0166079   0.0000000), wk =   0.1111111
        k(   20) = (  -0.0862974  -0.1494714   0.0000000), wk =   0.0555556

     Largest allocated arrays     est. size (Mb)     dimensions
     Largest temporary arrays     est. size (Mb)     dimensions

     Initial potential from superposition of free atoms
     Check: negative starting charge=   -0.180217

     starting charge   62.97136, renormalised to   63.00000

[...]

     *
     * You are using vdW-DF for exchange-correlation in this calculation.
     * Please cite the following three references that made this development
     * possible:
     *
     *   M. Dion, H. Rydberg, E. Schroder, D. C. Langreth, and
     *   B. I. Lundqvist, Phys. Rev. Lett. 92, 246401 (2004).
     *
     *   T. Thonhauser, V. R. Cooper, S. Li, A. Puzder, P. Hyldgaard, and
     *   D. C. Langreth, Phys. Rev. B 76, 125112 (2007).
     *
     *   G. Roman-Perez and J. M. Soler, Phys. Rev. Lett. 103, 096102 (2009).
     *
     *
     * If you are using vdW-DF2, please also cite:
     *
     *   K. Lee, E. D. Murray, L. Kong, B. I. Lundqvist, and
     *   D. C. Langreth, Phys. Rev. B 82, 081101(R) (2010).
     *
     *
     * If you are calculating the stress with vdW-DF, please also cite:
     *
     *   R. Sabatini, E. Kucukbenli, B. Kolb, T. Thonhauser, and
     *   S. de Gironcoli, J. Phys.: Condens. Matter 24, 424209 (2012).
     *

     Carrying out vdW-DF run using the following parameters:

     Nqs =      20    Nr_points =    1024   r_max =   100.000
     q_mesh =
               0.00001000     0.04494208     0.09755937     0.15916263
               0.23128650     0.31572767     0.41458969     0.53033537
               0.66584808     0.82450364     1.01025438     1.22772762
               1.48234092     1.78043706     2.12944203     2.53805004
               3.01644009     3.57652955     4.23227104     5.00000000

     Gradients computed in reciprocal space

[...]

     Starting wfc are   75 randomized atomic wfcs

     Self-consistent Calculation

[...]

     total energy              =    -361.36644194 Ry
     Harris-Foulkes estimate   =    -361.36644236 Ry
     estimated scf accuracy    <       0.00000312 Ry

     iteration # 14     ecut=    36.75 Ry     beta=0.10
     Davidson diagonalization with overlap
     ethr =  4.95E-09,  avg # of iterations =  1.5

[...]

     negative rho (up, down):  1.838E-01 0.000E+00

     Adding external electric field

     Computed dipole along edir(3) :
        Dipole               -0.0144 Ry au,         -0.0366 Debye
        Dipole field         -0.0000 Ry au

        Potential amp.        0.0034 Ry
        Total length         45.5659 bohr

     End of self-consistent calculation

[...]

          k = 0.0575 0.0000 0.0000 ( 18255 PWs)   bands (ev):

[...]

          k =-0.0863-0.1495 0.0000 ( 18240 PWs)   bands (ev):

   -49.3638 -49.1963 -49.1855 -27.4967 -27.3193 -27.3042 -27.3030 -27.2408
   -27.2382 -27.2188 -27.1391 -27.1390  -8.0959  -7.8193  -6.5627  -6.2502
    -5.4401  -5.0575  -4.6156  -3.8605  -3.7485  -3.1453  -2.4366  -2.0866
    -1.7980  -1.6822  -1.6168  -1.3587  -1.1451  -0.6780  -0.4121  -0.0865
     0.3849   1.0063   1.1405   1.4930   1.5853   1.6559   1.8890   2.0345
     2.0646   2.3278   2.4673   2.6704   2.9361   3.0471   3.2946   3.4457
     3.9316   3.9316   4.3938   4.5576   4.5965   4.7152   4.8251   4.9046
     4.9937   5.3470   5.4182   5.7482   5.8591

     the Fermi energy is    -0.3037 ev

!    total energy              =    -361.36644240 Ry
     Harris-Foulkes estimate   =    -361.36644190 Ry
     estimated scf accuracy    <       0.00000058 Ry

     The total energy is the sum of the following terms:

     one-electron contribution =   -2024.74280743 Ry
     hartree contribution      =    1013.81119415 Ry
     xc contribution           =     -95.21653474 Ry
     ewald contribution        =     744.81636266 Ry
     electric field correction =       0.00000054 Ry
     smearing contrib. (-TS)   =      -0.03465757 Ry

     convergence has been achieved in  14 iterations

 BEEF-vdW xc energy contributions
           1 :   -80.1701011802815
           2 :    71.1234310489288
           3 :   -56.5587602341855
           4 :    41.3777416142460
           5 :   -29.2730631737495
           6 :    21.3757906628607
           7 :   -16.6463879810423
           8 :    13.3151239125155
           9 :   -10.1915825025053
          10 :    7.07371008054247
          11 :   -4.32927955843914
          12 :    2.27043667439646
          13 :  -0.874763465780120
          14 :  -7.131945271784446E-002
          15 :   0.716832341305363
          16 :   -1.08301501312786
          17 :    1.19792820765619
          18 :   -1.20817791924834
          19 :    1.30604818172716
          20 :   -1.55145662780578
          21 :    1.79845292813499
          22 :   -1.82583147168027
          23 :    1.55271864790785
          24 :   -1.13324685639148
          25 :   0.840749651686195
          26 :  -0.848205475301540
          27 :    1.09698777224327
          28 :   -1.35848108257400
          29 :    1.42217884122569
          30 :   -1.24897185665567
          31 :   -10.3735683741636
          32 :   -7.68288698591638

     Forces acting on atoms (Ry/au):

     negative rho (up, down):  1.838E-01 0.000E+00
     atom    1 type  1   force =    -0.00000001   -0.00865655   -0.02408359
     atom    2 type  1   force =    -0.00749679    0.00432829   -0.02408355
     atom    3 type  1   force =     0.00749676    0.00432826   -0.02408360
     atom    4 type  2   force =    -0.00000009   -0.00000010    0.05037720
     atom    5 type  1   force =     0.00000002   -0.00697561   -0.00159371
     atom    6 type  1   force =    -0.00604122    0.00348791   -0.00159387
     atom    7 type  1   force =     0.00604087    0.00348768   -0.00159343
     atom    8 type  2   force =     0.00000009   -0.00000003    0.02650830
     atom    9 type  1   force =    -0.00000136   -0.00058745   -0.00009660
     atom   10 type  1   force =    -0.00050930    0.00029302   -0.00009647
     atom   11 type  1   force =     0.00050846    0.00029415   -0.00009654
     atom   12 type  2   force =     0.00000257    0.00000044    0.00043587

     Total force =     0.073214     Total SCF correction =     0.002154

     entering subroutine stress ...

     negative rho (up, down):  1.838E-01 0.000E+00
          total   stress  (Ry/bohr**3)                   (kbar)     P=   -9.50
  -0.00010683  -0.00000000   0.00000000        -15.72     -0.00      0.00
  -0.00000000  -0.00010683  -0.00000000         -0.00    -15.72     -0.00
   0.00000000  -0.00000000   0.00001999          0.00     -0.00      2.94

 !ASE

     Writing output data file calc.save

     General routines

     Parallel routines

   This run was terminated on:  19:44:24  19Dec2018

   JOB DONE.
Job  /afs/slac/g/suncat/bin/suncat-tsmpirun -x LD_LIBRARY_PATH -wdir /scratch/qe773327_yJjlH pw.x -in pw.inp

TID   HOST_NAME   COMMAND_LINE            STATUS            TERMINATION_TIME
00000 suncat0025 pw.x -in pw.inp   Done                     12/19/2018 19:44:24
00001 suncat0025 pw.x -in pw.inp   Done                     12/19/2018 19:44:24
00002 suncat0025 pw.x -in pw.inp   Done                     12/19/2018 19:44:24
00003 suncat0025 pw.x -in pw.inp   Done                     12/19/2018 19:44:24
00004 suncat0025 pw.x -in pw.inp   Done                     12/19/2018 19:44:24
00005 suncat0025 pw.x -in pw.inp   Done                     12/19/2018 19:44:24
00006 suncat0025 pw.x -in pw.inp   Done                     12/19/2018 19:44:24
00007 suncat0025 pw.x -in pw.inp   Done                     12/19/2018 19:44:24
00008 suncat0024 pw.x -in pw.inp   Done                     12/19/2018 19:44:24
00009 suncat0024 pw.x -in pw.inp   Done                     12/19/2018 19:44:24
00010 suncat0024 pw.x -in pw.inp   Done                     12/19/2018 19:44:24
00011 suncat0024 pw.x -in pw.inp   Done                     12/19/2018 19:44:24
00012 suncat0024 pw.x -in pw.inp   Done                     12/19/2018 19:44:24
00013 suncat0024 pw.x -in pw.inp   Done                     12/19/2018 19:44:24
00014 suncat0024 pw.x -in pw.inp   Done                     12/19/2018 19:44:24
00015 suncat0024 pw.x -in pw.inp   Done                     12/19/2018 19:44:24
00016 suncat0023 pw.x -in pw.inp   Done                     12/19/2018 19:44:24
00017 suncat0023 pw.x -in pw.inp   Done                     12/19/2018 19:44:24
00018 suncat0023 pw.x -in pw.inp   Done                     12/19/2018 19:44:24
00019 suncat0023 pw.x -in pw.inp   Done                     12/19/2018 19:44:24
00020 suncat0023 pw.x -in pw.inp   Done                     12/19/2018 19:44:24
00021 suncat0023 pw.x -in pw.inp   Done                     12/19/2018 19:44:24
00022 suncat0023 pw.x -in pw.inp   Done                     12/19/2018 19:44:24
00023 suncat0023 pw.x -in pw.inp   Done                     12/19/2018 19:44:24
00024 suncat0022 pw.x -in pw.inp   Done                     12/19/2018 19:44:24
00025 suncat0022 pw.x -in pw.inp   Done                     12/19/2018 19:44:24
00026 suncat0022 pw.x -in pw.inp   Done                     12/19/2018 19:44:24
00027 suncat0022 pw.x -in pw.inp   Done                     12/19/2018 19:44:24
00028 suncat0022 pw.x -in pw.inp   Done                     12/19/2018 19:44:24
00029 suncat0022 pw.x -in pw.inp   Done                     12/19/2018 19:44:24
00030 suncat0022 pw.x -in pw.inp   Done                     12/19/2018 19:44:24
00031 suncat0022 pw.x -in pw.inp   Done                     12/19/2018 19:44:24
00032 suncat0021 pw.x -in pw.inp   Done                     12/19/2018 19:44:24
00033 suncat0021 pw.x -in pw.inp   Done                     12/19/2018 19:44:24
00034 suncat0021 pw.x -in pw.inp   Done                     12/19/2018 19:44:24
00035 suncat0021 pw.x -in pw.inp   Done                     12/19/2018 19:44:24
00036 suncat0021 pw.x -in pw.inp   Done                     12/19/2018 19:44:24
00037 suncat0021 pw.x -in pw.inp   Done                     12/19/2018 19:44:24
00038 suncat0021 pw.x -in pw.inp   Done                     12/19/2018 19:44:24
00039 suncat0021 pw.x -in pw.inp   Done                     12/19/2018 19:44:24
00040 suncat0016 pw.x -in pw.inp   Done                     12/19/2018 19:44:24
00041 suncat0016 pw.x -in pw.inp   Done                     12/19/2018 19:44:24
00042 suncat0016 pw.x -in pw.inp   Done                     12/19/2018 19:44:24
00043 suncat0016 pw.x -in pw.inp   Done                     12/19/2018 19:44:24
00044 suncat0016 pw.x -in pw.inp   Done                     12/19/2018 19:44:24
00045 suncat0016 pw.x -in pw.inp   Done                     12/19/2018 19:44:24
00046 suncat0016 pw.x -in pw.inp   Done                     12/19/2018 19:44:24
00047 suncat0016 pw.x -in pw.inp   Done                     12/19/2018 19:44:24
00048 suncat0015 pw.x -in pw.inp   Done                     12/19/2018 19:44:24
00049 suncat0015 pw.x -in pw.inp   Done                     12/19/2018 19:44:24
00050 suncat0015 pw.x -in pw.inp   Done                     12/19/2018 19:44:24
00051 suncat0015 pw.x -in pw.inp   Done                     12/19/2018 19:44:24
00052 suncat0015 pw.x -in pw.inp   Done                     12/19/2018 19:44:24
00053 suncat0015 pw.x -in pw.inp   Done                     12/19/2018 19:44:24
00054 suncat0015 pw.x -in pw.inp   Done                     12/19/2018 19:44:24
00055 suncat0015 pw.x -in pw.inp   Done                     12/19/2018 19:44:24
00056 suncat0014 pw.x -in pw.inp   Done                     12/19/2018 19:44:24
00057 suncat0014 pw.x -in pw.inp   Done                     12/19/2018 19:44:24
00058 suncat0014 pw.x -in pw.inp   Done                     12/19/2018 19:44:24
00059 suncat0014 pw.x -in pw.inp   Done                     12/19/2018 19:44:24
00060 suncat0014 pw.x -in pw.inp   Done                     12/19/2018 19:44:24
00061 suncat0014 pw.x -in pw.inp   Done                     12/19/2018 19:44:24
00062 suncat0014 pw.x -in pw.inp   Done                     12/19/2018 19:44:24
00063 suncat0014 pw.x -in pw.inp   Done                     12/19/2018 19:44:24