     Program PWSCF v.5.1rc2 (svn rev. 11289) starts on 26Dec2018 at  4:13:47

     Current dimensions of program PWSCF are:
     Max number of different atomic species (ntypx) = 10
     Max number of k-points (npk) =  40000
     Max angular momentum in pseudopotentials (lmaxx) =  3
     Presently stress not available with electric field

     IMPORTANT: XC functional enforced from input :
     Exchange-correlation      = BEEF-VDW ( 1  4 27 13 2)
     Any further DFT definition will be discarded
     Please, verify this is what you really want

     Subspace diagonalization in iterative solution of the eigenvalue problem:
     a serial algorithm will be used

     bravais-lattice index     =            0
     lattice parameter (alat)  =       1.8897  a.u.
     unit-cell volume          =    6097.0447 (a.u.)^3
     number of atoms/cell      =           12
     number of atomic types    =            2
     number of electrons       =       210.00
     number of Kohn-Sham states=          135
     kinetic-energy cutoff     =      36.7493  Ry
     charge density cutoff     =     367.4932  Ry
     convergence threshold     =      1.0E-06
     mixing beta               =       0.1000
     number of iterations used =           10  plain     mixing
     Exchange-correlation      = BEEF-VDW ( 1  4 27 13 2)
     nstep                     =           50

     celldm(1)=   1.889726  celldm(2)=   0.000000  celldm(3)=   0.000000
     celldm(4)=   0.000000  celldm(5)=   0.000000  celldm(6)=   0.000000

     crystal axes: (cart. coord. in units of alat)
               a(1) = (   6.428039   0.000000   0.000000 )
               a(2) = (  -3.214020   5.566845   0.000000 )
               a(3) = (   0.000000   0.000000  25.248472 )

     reciprocal axes: (cart. coord. in units 2 pi/alat)
               b(1) = (  0.155568  0.089817  0.000000 )
               b(2) = (  0.000000  0.179635  0.000000 )
               b(3) = (  0.000000  0.000000  0.039606 )

     PseudoPot. # 1 for Ga read from file:
     /afs/slac.stanford.edu/u/if/mamunm/psp/gbrv1.5pbe/Ga.UPF
     MD5 check sum: ccd671392a58a050fbb373893b4fcd66
     Pseudo is Ultrasoft + core correction, Zval = 19.0
     Generated by new atomic code, or converted to UPF format
     Using radial grid of  871 points,  6 beta functions with:
                l(1) =   0
                l(2) =   0
                l(3) =   1
                l(4) =   1
                l(5) =   2
                l(6) =   2
     Q(r) pseudized with  8 coefficients,  rinner =    1.250   1.250   1.250
                                                       1.250   1.250

     PseudoPot. # 2 for Tl read from file:
     /afs/slac.stanford.edu/u/if/mamunm/psp/gbrv1.5pbe/Tl.UPF
     MD5 check sum: b76cf1f7e72655a2b2c53cf6385d7059
     Pseudo is Ultrasoft + core correction, Zval = 13.0
     Generated by new atomic code, or converted to UPF format
     Using radial grid of  899 points,  6 beta functions with:
                l(1) =   0
                l(2) =   0
                l(3) =   1
                l(4) =   1
                l(5) =   2
                l(6) =   2
     Q(r) pseudized with  6 coefficients,  rinner =    1.100   1.100   1.100
                                                       1.100   1.100

     vdW kernel table read from file vdW_kernel_table
     MD5 check sum: 095c7af220d748ca6e76c0b4c6cfb241

     atomic species   valence    mass     pseudopotential
        Ga1           19.00    69.72300     Ga( 1.00)
        Tl1           13.00   204.38000     Tl( 1.00)

     No symmetry found

   Cartesian axes

     site n.     atom                  positions (alat units)
         1           Ga1 tau(   1) = (   0.0000000   0.0000000  10.0000000  )
         2           Ga1 tau(   2) = (  -1.6070098   2.7834227  10.0000000  )
         3           Ga1 tau(   3) = (   1.6070098   2.7834227  10.0000000  )
         4           Tl1 tau(   4) = (   3.2140196   0.0000000  10.0000000  )
         5           Ga1 tau(   5) = (   3.2140196   1.8556151  12.6242361  )
         6           Ga1 tau(   6) = (   1.6070098   4.6390378  12.6242361  )
         7           Ga1 tau(   7) = (  -1.6070098   4.6390378  12.6242361  )
         8           Tl1 tau(   8) = (   0.0000000   1.8556151  12.6242361  )
         9           Ga1 tau(   9) = (  -0.0000000   3.7112302  15.2484721  )
        10           Ga1 tau(  10) = (   1.6070098   0.9278076  15.2484721  )
        11           Ga1 tau(  11) = (   4.8210295   0.9278076  15.2484721  )
        12           Tl1 tau(  12) = (   3.2140196   3.7112302  15.2484721  )

     number of k points=    20  Fermi-Dirac smearing, width (Ry)=  0.0110
                       cart. coord. in units 2pi/alat
        k(    1) = (   0.0000000   0.0000000   0.0000000), wk =   0.0555556
        k(    2) = (   0.0000000   0.0299392   0.0000000), wk =   0.1111111
        k(    3) = (   0.0000000   0.0598783   0.0000000), wk =   0.1111111
        k(    4) = (   0.0000000  -0.0898175   0.0000000), wk =   0.0555556
        k(    5) = (   0.0259281   0.0149696   0.0000000), wk =   0.1111111
        k(    6) = (   0.0259281   0.0449087   0.0000000), wk =   0.1111111
        k(    7) = (   0.0259281   0.0748479   0.0000000), wk =   0.1111111
        k(    8) = (   0.0259281  -0.0748479   0.0000000), wk =   0.1111111
        k(    9) = (   0.0259281  -0.0449087   0.0000000), wk =   0.1111111
        k(   10) = (   0.0259281  -0.0149696   0.0000000), wk =   0.1111111
        k(   11) = (   0.0518561   0.0299392   0.0000000), wk =   0.1111111
        k(   12) = (   0.0518561   0.0598783   0.0000000), wk =   0.1111111
        k(   13) = (   0.0518561   0.0898175   0.0000000), wk =   0.1111111
        k(   14) = (   0.0518561  -0.0598783   0.0000000), wk =   0.1111111
        k(   15) = (   0.0518561  -0.0299392   0.0000000), wk =   0.1111111
        k(   16) = (   0.0518561   0.0000000   0.0000000), wk =   0.1111111
        k(   17) = (  -0.0777842  -0.0449087   0.0000000), wk =   0.0555556
        k(   18) = (  -0.0777842  -0.0149696   0.0000000), wk =   0.1111111
        k(   19) = (  -0.0777842   0.0149696   0.0000000), wk =   0.1111111
        k(   20) = (  -0.0777842  -0.1347262   0.0000000), wk =   0.0555556

     Largest allocated arrays     est. size (Mb)     dimensions
     Largest temporary arrays     est. size (Mb)     dimensions

     Check: negative/imaginary core charge=   -0.000001    0.000000

     Initial potential from superposition of free atoms
     Check: negative starting charge=   -0.153468

     starting charge  200.98539, renormalised to  210.00000

     negative rho (up, down):  1.604E-01 0.000E+00

     *
     * You are using vdW-DF for exchange-correlation in this calculation.
     * Please cite the following three references that made this development
     * possible:
     *
     *   M. Dion, H. Rydberg, E. Schroder, D. C. Langreth, and
     *   B. I. Lundqvist, Phys. Rev. Lett. 92, 246401 (2004).
     *
     *   T. Thonhauser, V. R. Cooper, S. Li, A. Puzder, P. Hyldgaard, and
     *   D. C. Langreth, Phys. Rev. B 76, 125112 (2007).
     *
     *   G. Roman-Perez and J. M. Soler, Phys. Rev. Lett. 103, 096102 (2009).
     *
     *
     * If you are using vdW-DF2, please also cite:
     *
     *   K. Lee, E. D. Murray, L. Kong, B. I. Lundqvist, and
     *   D. C. Langreth, Phys. Rev. B 82, 081101(R) (2010).
     *
     *
     * If you are calculating the stress with vdW-DF, please also cite:
     *
     *   R. Sabatini, E. Kucukbenli, B. Kolb, T. Thonhauser, and
     *   S. de Gironcoli, J. Phys.: Condens. Matter 24, 424209 (2012).
     *

     Carrying out vdW-DF run using the following parameters:

     Nqs =      20    Nr_points =    1024   r_max =   100.000
     q_mesh =
               0.00001000     0.04494208     0.09755937     0.15916263
               0.23128650     0.31572767     0.41458969     0.53033537
               0.66584808     0.82450364     1.01025438     1.22772762
               1.48234092     1.78043706     2.12944203     2.53805004
               3.01644009     3.57652955     4.23227104     5.00000000

     Gradients computed in reciprocal space

     Adding external electric field

     Computed dipole along edir(3) :
        Dipole                0.0000 Ry au,          0.0000 Debye
        Dipole field          0.0000 Ry au

        Potential amp.       -0.0000 Ry
        Total length         46.5199 bohr

     Starting wfc are  135 randomized atomic wfcs

     Self-consistent Calculation

     iteration #  1     ecut=    36.75 Ry     beta=0.10
     Davidson diagonalization with overlap
     ethr =  1.00E-02,  avg # of iterations =  8.1

[...]

     total energy              =   -4191.82550370 Ry
     Harris-Foulkes estimate   =   -4200.64442700 Ry
     estimated scf accuracy    <      49.52963733 Ry

[...]

     End of self-consistent calculation

          k = 0.0000 0.0000 0.0000 ( 22971 PWs)   bands (ev):

   -94.6452 -94.6451 -94.6451 -94.6451 -94.6451 -94.6450 -94.6278 -94.6278
   -94.6278 -94.6277 -94.6274 -94.6273 -94.6206 -94.6206 -94.6196 -94.6196
   -94.6196 -94.6195 -94.5598 -94.5596 -94.5586 -94.5572 -94.5567 -94.5559
   -94.5476 -94.5473 -94.5465 -15.0231 -15.0179 -15.0151 -15.0149 -15.0052
   -15.0050 -15.0048 -15.0005 -14.9912 -14.9866 -14.9866 -14.9821 -14.9716
   -14.9716 -14.9595 -14.9588 -14.9584 -14.9518 -14.9433 -14.9431 -14.9403
   -14.9379 -14.9379 -14.9336 -14.9334 -14.9239 -14.9238 -14.9097 -14.9096
   -14.9095 -14.8962 -14.8958 -14.8882 -14.8766 -14.8762 -14.8615 -14.8587
   -14.8557 -14.8557 -14.8399 -14.8396 -14.8395 -14.8132 -14.8126 -14.7945
   -11.5288 -11.5170 -11.5170 -11.4952 -11.4952 -11.4888 -11.4707 -11.4707
   -11.4521 -11.4521 -11.4512 -11.4416 -11.4416 -11.4163 -11.4162  -9.4008
    -8.0838  -6.1308  -4.9310  -4.5840  -4.5840  -4.4693  -4.2447  -4.2446
    -3.4311  -3.2483  -3.2483  -2.2378  -2.2378  -2.2139  -1.8501  -0.8030
    -0.8030  -0.7664  -0.6659  -0.6659  -0.6322   0.9361   2.9263   2.9263
     2.9421   2.9422   2.9681   3.2546   3.3068   3.5652   4.2021   4.4496
     4.5229   5.1149   5.1150   5.4360   5.4360   5.6640   5.8168   5.9750
     6.0763   6.4397   6.4398   6.7975   6.7975   6.8003   7.1487

[...]

          k =-0.0778-0.0449 0.0000 ( 22948 PWs)   bands (ev):

[...]

     the Fermi energy is     0.1520 ev

!    total energy              =   -4189.60306290 Ry
     Harris-Foulkes estimate   =   -4189.60307161 Ry
     estimated scf accuracy    <       0.00000023 Ry

     The total energy is the sum of the following terms:

     one-electron contribution =  -20343.35411536 Ry
     hartree contribution      =   10194.12833075 Ry
     xc contribution           =    -639.09046519 Ry
     ewald contribution        =    6598.75312280 Ry
     electric field correction =       0.00000000 Ry
     smearing contrib. (-TS)   =      -0.03993591 Ry

     convergence has been achieved in  15 iterations

 BEEF-vdW xc energy contributions
           1 :   -570.652990596030
           2 :    521.456668874568
           3 :   -437.970728060707
           4 :    342.983685366646
           5 :   -257.342622866563
           6 :    192.424866434791
           7 :   -148.263104152376
[...]
                l(1) =   0
                l(2) =   0
                l(3) =   1
                l(4) =   1
                l(5) =   2
                l(6) =   2
     Q(r) pseudized with  8 coefficients,  rinner =    1.250   1.250   1.250
                                                       1.250   1.250

     PseudoPot. # 2 for Tl read from file:
     /afs/slac.stanford.edu/u/if/mamunm/psp/gbrv1.5pbe/Tl.UPF
     MD5 check sum: b76cf1f7e72655a2b2c53cf6385d7059
     Pseudo is Ultrasoft + core correction, Zval = 13.0
     Generated by new atomic code, or converted to UPF format
     Using radial grid of  899 points,  6 beta functions with:
                l(1) =   0
                l(2) =   0
                l(3) =   1
                l(4) =   1
                l(5) =   2
                l(6) =   2
     Q(r) pseudized with  6 coefficients,  rinner =    1.100   1.100   1.100
                                                       1.100   1.100

     vdW kernel table read from file vdW_kernel_table
     MD5 check sum: 095c7af220d748ca6e76c0b4c6cfb241

     atomic species   valence    mass     pseudopotential
        Ga1           19.00    69.72300     Ga( 1.00)
        Tl1           13.00   204.38000     Tl( 1.00)

     No symmetry found

   Cartesian axes

     site n.     atom                  positions (alat units)
         1           Ga1 tau(   1) = (   0.0000000   0.0000000  10.0000000  )
         2           Ga1 tau(   2) = (  -1.6070098   2.7834227  10.0000000  )
         3           Ga1 tau(   3) = (   1.6070098   2.7834227  10.0000000  )
         4           Tl1 tau(   4) = (   3.2140196   0.0000000  10.0000000  )
         5           Ga1 tau(   5) = (   3.2140196   1.8556151  12.6242361  )
         6           Ga1 tau(   6) = (   1.6070098   4.6390378  12.6242361  )
         7           Ga1 tau(   7) = (  -1.6070098   4.6390378  12.6242361  )
         8           Tl1 tau(   8) = (   0.0000000   1.8556151  12.6242361  )
         9           Ga1 tau(   9) = (   0.0000350   3.8494166  15.0920736  )
        10           Ga1 tau(  10) = (   1.7248582   0.8590069  15.0929353  )
        11           Ga1 tau(  11) = (   4.7031531   0.8590266  15.0930538  )
        12           Tl1 tau(  12) = (   3.2139441   3.7114310  15.6723963  )

     number of k points=    20  Fermi-Dirac smearing, width (Ry)=  0.0110
                       cart. coord. in units 2pi/alat
        k(    1) = (   0.0000000   0.0000000   0.0000000), wk =   0.0555556
        k(    2) = (   0.0000000   0.0299392   0.0000000), wk =   0.1111111
        k(    3) = (   0.0000000   0.0598783   0.0000000), wk =   0.1111111
        k(    4) = (   0.0000000  -0.0898175   0.0000000), wk =   0.0555556
        k(    5) = (   0.0259281   0.0149696   0.0000000), wk =   0.1111111
        k(    6) = (   0.0259281   0.0449087   0.0000000), wk =   0.1111111
        k(    7) = (   0.0259281   0.0748479   0.0000000), wk =   0.1111111
        k(    8) = (   0.0259281  -0.0748479   0.0000000), wk =   0.1111111
        k(    9) = (   0.0259281  -0.0449087   0.0000000), wk =   0.1111111
        k(   10) = (   0.0259281  -0.0149696   0.0000000), wk =   0.1111111
        k(   11) = (   0.0518561   0.0299392   0.0000000), wk =   0.1111111
        k(   12) = (   0.0518561   0.0598783   0.0000000), wk =   0.1111111
        k(   13) = (   0.0518561   0.0898175   0.0000000), wk =   0.1111111
        k(   14) = (   0.0518561  -0.0598783   0.0000000), wk =   0.1111111
        k(   15) = (   0.0518561  -0.0299392   0.0000000), wk =   0.1111111
        k(   16) = (   0.0518561   0.0000000   0.0000000), wk =   0.1111111
        k(   17) = (  -0.0777842  -0.0449087   0.0000000), wk =   0.0555556
        k(   18) = (  -0.0777842  -0.0149696   0.0000000), wk =   0.1111111
        k(   19) = (  -0.0777842   0.0149696   0.0000000), wk =   0.1111111
        k(   20) = (  -0.0777842  -0.1347262   0.0000000), wk =   0.0555556

     Largest allocated arrays     est. size (Mb)     dimensions
     Largest temporary arrays     est. size (Mb)     dimensions

     Check: negative/imaginary core charge=   -0.000001    0.000000

     Initial potential from superposition of free atoms
     Check: negative starting charge=   -0.153280

     starting charge  200.98539, renormalised to  210.00000

[...]

     *
     * You are using vdW-DF for exchange-correlation in this calculation.
     * Please cite the following three references that made this development
     * possible:
     *
     *   M. Dion, H. Rydberg, E. Schroder, D. C. Langreth, and
     *   B. I. Lundqvist, Phys. Rev. Lett. 92, 246401 (2004).
     *
     *   T. Thonhauser, V. R. Cooper, S. Li, A. Puzder, P. Hyldgaard, and
     *   D. C. Langreth, Phys. Rev. B 76, 125112 (2007).
     *
     *   G. Roman-Perez and J. M. Soler, Phys. Rev. Lett. 103, 096102 (2009).
     *
     *
     * If you are using vdW-DF2, please also cite:
     *
     *   K. Lee, E. D. Murray, L. Kong, B. I. Lundqvist, and
     *   D. C. Langreth, Phys. Rev. B 82, 081101(R) (2010).
     *
     *
     * If you are calculating the stress with vdW-DF, please also cite:
     *
     *   R. Sabatini, E. Kucukbenli, B. Kolb, T. Thonhauser, and
     *   S. de Gironcoli, J. Phys.: Condens. Matter 24, 424209 (2012).
     *

     Carrying out vdW-DF run using the following parameters:

     Nqs =      20    Nr_points =    1024   r_max =   100.000
     q_mesh =
               0.00001000     0.04494208     0.09755937     0.15916263
               0.23128650     0.31572767     0.41458969     0.53033537
               0.66584808     0.82450364     1.01025438     1.22772762
               1.48234092     1.78043706     2.12944203     2.53805004
               3.01644009     3.57652955     4.23227104     5.00000000

     Gradients computed in reciprocal space

[...]

     Starting wfc are  135 randomized atomic wfcs

     Self-consistent Calculation

[...]

     total energy              =   -4189.61975320 Ry
     Harris-Foulkes estimate   =   -4189.61975292 Ry
     estimated scf accuracy    <       0.00000453 Ry

     iteration # 16     ecut=    36.75 Ry     beta=0.10
     Davidson diagonalization with overlap
     ethr =  1.93E-09,  avg # of iterations =  2.0

[...]

     negative rho (up, down):  1.585E-01 0.000E+00

     Adding external electric field

     Computed dipole along edir(3) :
        Dipole                0.0251 Ry au,          0.0638 Debye
        Dipole field          0.0001 Ry au

        Potential amp.       -0.0048 Ry
        Total length         46.5199 bohr

     End of self-consistent calculation

[...]

          k = 0.0519 0.0000 0.0000 ( 22920 PWs)   bands (ev):

[...]

          k =-0.0778-0.1347 0.0000 ( 22948 PWs)   bands (ev):

   -94.6392 -94.6392 -94.6391 -94.6206 -94.6205 -94.6203 -94.6150 -94.6148
   -94.6143 -94.5755 -94.5754 -94.5751 -94.5629 -94.5627 -94.5623 -94.5575
   -94.5567 -94.5564 -94.5331 -94.5330 -94.5328 -94.5307 -94.5305 -94.5302
   -94.5150 -94.5149 -94.5149 -15.0016 -14.9789 -14.9734 -14.9665 -14.9641
   -14.9638 -14.9597 -14.9590 -14.9552 -14.9550 -14.9507 -14.9435 -14.9408
   -14.9405 -14.9361 -14.9329 -14.9273 -14.9248 -14.9245 -14.9153 -14.9125
   -14.9125 -14.9077 -14.8958 -14.8904 -14.8880 -14.8794 -14.8722 -14.8700
   -14.8655 -14.8597 -14.8555 -14.8475 -14.8472 -14.8405 -14.8320 -14.8259
   -14.8250 -14.8168 -14.8154 -14.8109 -14.8094 -14.7978 -14.7926 -14.7703
   -11.5227 -11.4939 -11.4913 -11.4856 -11.4759 -11.4682 -11.4671 -11.4665
   -11.4631 -11.4537 -11.4464 -11.4378 -11.4329 -11.4214 -11.4082  -8.2543
    -8.0060  -6.9784  -6.6521  -5.7248  -5.6053  -5.0990  -4.7358  -4.3483
    -4.2484  -3.0216  -2.8177  -0.6920  -0.5447  -0.3251  -0.0813   0.0942
     0.1240   0.9823   1.0501   1.1675   1.2445   1.7727   2.0472   2.3100
     2.4516   2.4609   2.8173   3.0989   3.1764   3.4713   3.5249   3.6963
     3.7876   4.1656   4.2969   4.3617   4.5122   4.7058   4.7453   5.1804
     5.2969   5.4526   5.5218   5.5767   5.6961   6.0047   6.2355

     the Fermi energy is     0.1798 ev

!    total energy              =   -4189.61974720 Ry
     Harris-Foulkes estimate   =   -4189.61975410 Ry
     estimated scf accuracy    <       0.00000020 Ry

     The total energy is the sum of the following terms:

     one-electron contribution =  -20458.13401302 Ry
     hartree contribution      =   10251.73066903 Ry
     xc contribution           =    -639.11455482 Ry
     ewald contribution        =    6655.93719143 Ry
     electric field correction =       0.00000130 Ry
     smearing contrib. (-TS)   =      -0.03904111 Ry

     convergence has been achieved in  16 iterations

 BEEF-vdW xc energy contributions
           1 :   -570.898303093425
           2 :    521.692993528113
           3 :   -438.205628943967
           4 :    343.236032365785
           5 :   -257.622119765909
           6 :    192.717053744355
           7 :   -148.534159362011
           8 :    117.532413749531
           9 :   -91.0942784646281
          10 :    64.7131484674686
          11 :   -39.3023088177931
          12 :    18.7318513432504
          13 :   -5.97387392722260
          14 :   0.653251022271434
          15 :   0.608381905398346
          16 :   -1.77873901788121
          17 :    4.92926178458868
          18 :   -9.41684574860335
          19 :    13.0439059070299
          20 :   -14.0894705479481
          21 :    12.6421884476061
          22 :   -10.3840287208005
          23 :    9.19414435375904
          24 :   -9.75947037624678
          25 :    11.2288559880224
          26 :   -12.0607743393317
          27 :    11.2992859710289
          28 :   -9.26968562946251
          29 :    7.21739160403320
          30 :   -6.26600889502481
          31 :   -43.1180307824242
          32 :   -29.9306424935485

     Forces acting on atoms (Ry/au):

     negative rho (up, down):  1.585E-01 0.000E+00
     atom    1 type  1   force =     0.00000236   -0.00479631    0.00399153
     atom    2 type  1   force =    -0.00411565    0.00235692    0.00395157
     atom    3 type  1   force =     0.00411446    0.00235467    0.00394994
     atom    4 type  2   force =     0.00000245   -0.00002126   -0.01215037
     atom    5 type  1   force =    -0.00000399    0.00520064    0.00253607
     atom    6 type  1   force =     0.00454346   -0.00264518    0.00249295
     atom    7 type  1   force =    -0.00454242   -0.00264923    0.00249191
     atom    8 type  2   force =    -0.00000388   -0.00002690   -0.00221535
     atom    9 type  1   force =    -0.00000088   -0.00067976   -0.00168221
     atom   10 type  1   force =    -0.00064500    0.00051225   -0.00167743
     atom   11 type  1   force =     0.00064291    0.00051688   -0.00168429
     atom   12 type  2   force =     0.00000619   -0.00012272   -0.00000432

     Total force =     0.019472     Total SCF correction =     0.002687
     SCF correction compared to forces is large: reduce conv_thr to get better values

     entering subroutine stress ...

     negative rho (up, down):  1.585E-01 0.000E+00
          total   stress  (Ry/bohr**3)                   (kbar)     P=   -5.73
  -0.00004910  -0.00000000   0.00000000         -7.22     -0.00      0.00
  -0.00000000  -0.00004925  -0.00000001         -0.00     -7.24     -0.00
   0.00000000  -0.00000001  -0.00001858          0.00     -0.00     -2.73

 !ASE

     Writing output data file calc.save

     General routines

     Parallel routines

   This run was terminated on:   7:36:18  26Dec2018

   JOB DONE.
Job  /afs/slac/g/suncat/bin/suncat-tsmpirun -x LD_LIBRARY_PATH -wdir /scratch/qe109711_iJVM6 pw.x -in pw.inp

TID   HOST_NAME   COMMAND_LINE            STATUS            TERMINATION_TIME
00000 suncat0028 pw.x -in pw.inp   Done                     12/26/2018 07:36:18
00001 suncat0028 pw.x -in pw.inp   Done                     12/26/2018 07:36:18
00002 suncat0028 pw.x -in pw.inp   Done                     12/26/2018 07:36:18
00003 suncat0028 pw.x -in pw.inp   Done                     12/26/2018 07:36:18
00004 suncat0028 pw.x -in pw.inp   Done                     12/26/2018 07:36:18
00005 suncat0028 pw.x -in pw.inp   Done                     12/26/2018 07:36:18
00006 suncat0028 pw.x -in pw.inp   Done                     12/26/2018 07:36:18
00007 suncat0028 pw.x -in pw.inp   Done                     12/26/2018 07:36:18
00008 suncat0027 pw.x -in pw.inp   Done                     12/26/2018 07:36:18
00009 suncat0027 pw.x -in pw.inp   Done                     12/26/2018 07:36:18
00010 suncat0027 pw.x -in pw.inp   Done                     12/26/2018 07:36:18
00011 suncat0027 pw.x -in pw.inp   Done                     12/26/2018 07:36:18
00012 suncat0027 pw.x -in pw.inp   Done                     12/26/2018 07:36:18
00013 suncat0027 pw.x -in pw.inp   Done                     12/26/2018 07:36:18
00014 suncat0027 pw.x -in pw.inp   Done                     12/26/2018 07:36:18
00015 suncat0027 pw.x -in pw.inp   Done                     12/26/2018 07:36:18
00016 suncat0026 pw.x -in pw.inp   Done                     12/26/2018 07:36:18
00017 suncat0026 pw.x -in pw.inp   Done                     12/26/2018 07:36:18
00018 suncat0026 pw.x -in pw.inp   Done                     12/26/2018 07:36:18
00019 suncat0026 pw.x -in pw.inp   Done                     12/26/2018 07:36:18
00020 suncat0026 pw.x -in pw.inp   Done                     12/26/2018 07:36:18
00021 suncat0026 pw.x -in pw.inp   Done                     12/26/2018 07:36:18
00022 suncat0026 pw.x -in pw.inp   Done                     12/26/2018 07:36:18
00023 suncat0026 pw.x -in pw.inp   Done                     12/26/2018 07:36:18
00024 suncat0021 pw.x -in pw.inp   Done                     12/26/2018 07:36:18
00025 suncat0021 pw.x -in pw.inp   Done                     12/26/2018 07:36:18
00026 suncat0021 pw.x -in pw.inp   Done                     12/26/2018 07:36:18
00027 suncat0021 pw.x -in pw.inp   Done                     12/26/2018 07:36:18
00028 suncat0021 pw.x -in pw.inp   Done                     12/26/2018 07:36:18
00029 suncat0021 pw.x -in pw.inp   Done                     12/26/2018 07:36:18
00030 suncat0021 pw.x -in pw.inp   Done                     12/26/2018 07:36:18
00031 suncat0021 pw.x -in pw.inp   Done                     12/26/2018 07:36:18
00032 suncat0191 pw.x -in pw.inp   Done                     12/26/2018 07:36:18
00033 suncat0191 pw.x -in pw.inp   Done                     12/26/2018 07:36:18
00034 suncat0191 pw.x -in pw.inp   Done                     12/26/2018 07:36:18
00035 suncat0191 pw.x -in pw.inp   Done                     12/26/2018 07:36:18
00036 suncat0191 pw.x -in pw.inp   Done                     12/26/2018 07:36:18
00037 suncat0191 pw.x -in pw.inp   Done                     12/26/2018 07:36:18
00038 suncat0191 pw.x -in pw.inp   Done                     12/26/2018 07:36:18
00039 suncat0191 pw.x -in pw.inp   Done                     12/26/2018 07:36:18
00040 suncat0113 pw.x -in pw.inp   Done                     12/26/2018 07:36:18
00041 suncat0113 pw.x -in pw.inp   Done                     12/26/2018 07:36:18
00042 suncat0113 pw.x -in pw.inp   Done                     12/26/2018 07:36:18
00043 suncat0113 pw.x -in pw.inp   Done                     12/26/2018 07:36:18
00044 suncat0113 pw.x -in pw.inp   Done                     12/26/2018 07:36:18
00045 suncat0113 pw.x -in pw.inp   Done                     12/26/2018 07:36:18
00046 suncat0113 pw.x -in pw.inp   Done                     12/26/2018 07:36:18
00047 suncat0113 pw.x -in pw.inp   Done                     12/26/2018 07:36:18
00048 suncat0110 pw.x -in pw.inp   Done                     12/26/2018 07:36:18
00049 suncat0110 pw.x -in pw.inp   Done                     12/26/2018 07:36:18
00050 suncat0110 pw.x -in pw.inp   Done                     12/26/2018 07:36:18
00051 suncat0110 pw.x -in pw.inp   Done                     12/26/2018 07:36:18
00052 suncat0110 pw.x -in pw.inp   Done                     12/26/2018 07:36:18
00053 suncat0110 pw.x -in pw.inp   Done                     12/26/2018 07:36:18
00054 suncat0110 pw.x -in pw.inp   Done                     12/26/2018 07:36:18
00055 suncat0110 pw.x -in pw.inp   Done                     12/26/2018 07:36:18
00056 suncat0109 pw.x -in pw.inp   Done                     12/26/2018 07:36:18
00057 suncat0109 pw.x -in pw.inp   Done                     12/26/2018 07:36:18
00058 suncat0109 pw.x -in pw.inp   Done                     12/26/2018 07:36:18
00059 suncat0109 pw.x -in pw.inp   Done                     12/26/2018 07:36:18
00060 suncat0109 pw.x -in pw.inp   Done                     12/26/2018 07:36:18
00061 suncat0109 pw.x -in pw.inp   Done                     12/26/2018 07:36:18
00062 suncat0109 pw.x -in pw.inp   Done                     12/26/2018 07:36:18
00063 suncat0109 pw.x -in pw.inp   Done                     12/26/2018 07:36:18