     Program PWSCF v.5.1rc2 (svn rev. 11289) starts on 26Dec2018 at 18:33: 5

     Current dimensions of program PWSCF are:
     Max number of different atomic species (ntypx) = 10
     Max number of k-points (npk) =  40000
     Max angular momentum in pseudopotentials (lmaxx) =  3
     Presently stress not available with electric field

     IMPORTANT: XC functional enforced from input :
     Exchange-correlation      = BEEF-VDW ( 1  4 27 13 2)
     Any further DFT definition will be discarded
     Please, verify this is what you really want

     Subspace diagonalization in iterative solution of the eigenvalue problem:
     a serial algorithm will be used

     bravais-lattice index     =            0
     lattice parameter (alat)  =       1.8897  a.u.
     unit-cell volume          =    7548.0186 (a.u.)^3
     number of atoms/cell      =           12
     number of atomic types    =            2
     number of electrons       =       159.00
     number of Kohn-Sham states=          109
     kinetic-energy cutoff     =      36.7493  Ry
     charge density cutoff     =     367.4932  Ry
     convergence threshold     =      1.0E-06
     mixing beta               =       0.1000
     number of iterations used =           10  plain     mixing
     Exchange-correlation      = BEEF-VDW ( 1  4 27 13 2)
     nstep                     =           50

     celldm(1)=   1.889726  celldm(2)=   0.000000  celldm(3)=   0.000000
     celldm(4)=   0.000000  celldm(5)=   0.000000  celldm(6)=   0.000000

     crystal axes: (cart. coord. in units of alat)
               a(1) = (   7.078116   0.000000   0.000000 )
               a(2) = (  -3.539058   6.129828   0.000000 )
               a(3) = (   0.000000   0.000000  25.779257 )

     reciprocal axes: (cart. coord. in units 2 pi/alat)
               b(1) = (  0.141281  0.081568  0.000000 )
               b(2) = (  0.000000  0.163137  0.000000 )
               b(3) = (  0.000000  0.000000  0.038791 )

     PseudoPot. # 1 for La read from file:
     /afs/slac.stanford.edu/u/if/mamunm/psp/gbrv1.5pbe/La.UPF
     MD5 check sum: 5937b0c7494ba0601a847275249473aa
     Pseudo is Ultrasoft + core correction, Zval = 11.0
     Generated by new atomic code, or converted to UPF format
     Using radial grid of  995 points,  8 beta functions with:
                l(1) =   0
                l(2) =   0
                l(3) =   1
                l(4) =   1
                l(5) =   2
                l(6) =   2
                l(7) =   3
                l(8) =   3
     Q(r) pseudized with  8 coefficients,  rinner =    1.700   1.700   1.700
                                                       1.700   1.700   1.700
                                                       1.700

     PseudoPot. # 2 for Zn read from file:
     /afs/slac.stanford.edu/u/if/mamunm/psp/gbrv1.5pbe/Zn.UPF
     MD5 check sum: df62231357ef9e81f77b2b3087fa5675
     Pseudo is Ultrasoft, Zval = 20.0
     Generated by new atomic code, or converted to UPF format
     Using radial grid of  943 points,  6 beta functions with:
                l(1) =   0
                l(2) =   0
                l(3) =   1
                l(4) =   1
                l(5) =   2
                l(6) =   2
     Q(r) pseudized with  8 coefficients,  rinner =    1.100   1.100   1.100
                                                       1.100   1.100

     vdW kernel table read from file vdW_kernel_table
     MD5 check sum: 095c7af220d748ca6e76c0b4c6cfb241

     atomic species   valence    mass     pseudopotential
        La1           11.00   138.90547     La( 1.00)
        Zn1           20.00    65.38000     Zn( 1.00)

     No symmetry found

   Cartesian axes

     site n.     atom                  positions (alat units)
         1           La1 tau(   1) = (   0.0000000   0.0000000  10.0000000  )
         2           La1 tau(   2) = (  -1.7695290   3.0649140  10.0000000  )
         3           La1 tau(   3) = (   1.7695290   3.0649140  10.0000000  )
         4           Zn1 tau(   4) = (   3.5390579   0.0000000  10.0000000  )
         5           La1 tau(   5) = (   3.5390579   2.0432760  12.8896287  )
         6           La1 tau(   6) = (   1.7695290   5.1081901  12.8896287  )
         7           La1 tau(   7) = (  -1.7695290   5.1081901  12.8896287  )
         8           Zn1 tau(   8) = (  -0.0000000   2.0432760  12.8896287  )
         9           La1 tau(   9) = (  -0.0000000   4.0865521  15.7792574  )
        10           La1 tau(  10) = (   1.7695290   1.0216380  15.7792574  )
        11           La1 tau(  11) = (   5.3085869   1.0216380  15.7792574  )
        12           Zn1 tau(  12) = (   3.5390579   4.0865521  15.7792574  )

     number of k points=    20  Fermi-Dirac smearing, width (Ry)=  0.0110
                       cart. coord. in units 2pi/alat
        k(    1) = (   0.0000000   0.0000000   0.0000000), wk =   0.0555556
        k(    2) = (   0.0000000   0.0271895   0.0000000), wk =   0.1111111
        k(    3) = (   0.0000000   0.0543789   0.0000000), wk =   0.1111111
        k(    4) = (   0.0000000  -0.0815684   0.0000000), wk =   0.0555556
        k(    5) = (   0.0235468   0.0135947   0.0000000), wk =   0.1111111
        k(    6) = (   0.0235468   0.0407842   0.0000000), wk =   0.1111111
        k(    7) = (   0.0235468   0.0679736   0.0000000), wk =   0.1111111
        k(    8) = (   0.0235468  -0.0679736   0.0000000), wk =   0.1111111
        k(    9) = (   0.0235468  -0.0407842   0.0000000), wk =   0.1111111
        k(   10) = (   0.0235468  -0.0135947   0.0000000), wk =   0.1111111
        k(   11) = (   0.0470935   0.0271895   0.0000000), wk =   0.1111111
        k(   12) = (   0.0470935   0.0543789   0.0000000), wk =   0.1111111
        k(   13) = (   0.0470935   0.0815684   0.0000000), wk =   0.1111111
        k(   14) = (   0.0470935  -0.0543789   0.0000000), wk =   0.1111111
        k(   15) = (   0.0470935  -0.0271895   0.0000000), wk =   0.1111111
        k(   16) = (   0.0470935   0.0000000   0.0000000), wk =   0.1111111
        k(   17) = (  -0.0706403  -0.0407842   0.0000000), wk =   0.0555556
        k(   18) = (  -0.0706403  -0.0135947   0.0000000), wk =   0.1111111
        k(   19) = (  -0.0706403   0.0135947   0.0000000), wk =   0.1111111
        k(   20) = (  -0.0706403  -0.1223525   0.0000000), wk =   0.0555556

     Largest allocated arrays     est. size (Mb)     dimensions
     Largest temporary arrays     est. size (Mb)     dimensions

     Initial potential from superposition of free atoms
     Check: negative starting charge=   -0.625948

     starting charge  158.71096, renormalised to  159.00000

     negative rho (up, down):  6.271E-01 0.000E+00

     *
     * You are using vdW-DF for exchange-correlation in this calculation.
     * Please cite the following three references that made this development
     * possible:
     *
     *   M. Dion, H. Rydberg, E. Schroder, D. C. Langreth, and
     *   B. I. Lundqvist, Phys. Rev. Lett. 92, 246401 (2004).
     *
     *   T. Thonhauser, V. R. Cooper, S. Li, A. Puzder, P. Hyldgaard, and
     *   D. C. Langreth, Phys. Rev. B 76, 125112 (2007).
     *
     *   G. Roman-Perez and J. M. Soler, Phys. Rev. Lett. 103, 096102 (2009).
     *
     *
     * If you are using vdW-DF2, please also cite:
     *
     *   K. Lee, E. D. Murray, L. Kong, B. I. Lundqvist, and
     *   D. C. Langreth, Phys. Rev. B 82, 081101(R) (2010).
     *
     *
     * If you are calculating the stress with vdW-DF, please also cite:
     *
     *   R. Sabatini, E. Kucukbenli, B. Kolb, T. Thonhauser, and
     *   S. de Gironcoli, J. Phys.: Condens. Matter 24, 424209 (2012).
     *

     Carrying out vdW-DF run using the following parameters:

     Nqs =      20    Nr_points =    1024   r_max =   100.000
     q_mesh =
               0.00001000     0.04494208     0.09755937     0.15916263
               0.23128650     0.31572767     0.41458969     0.53033537
               0.66584808     0.82450364     1.01025438     1.22772762
               1.48234092     1.78043706     2.12944203     2.53805004
               3.01644009     3.57652955     4.23227104     5.00000000

     Gradients computed in reciprocal space

     Adding external electric field

     Computed dipole along edir(3) :
        Dipole                0.0000 Ry au,          0.0000 Debye
        Dipole field          0.0000 Ry au

        Potential amp.       -0.0000 Ry
        Total length         47.4978 bohr

     Starting wfc are  219 randomized atomic wfcs

     Self-consistent Calculation

     iteration #  1     ecut=    36.75 Ry     beta=0.10
     Davidson diagonalization with overlap
     ethr =  1.00E-02,  avg # of iterations =  1.2

[...]

     total energy              =   -2323.93582742 Ry
     Harris-Foulkes estimate   =   -2325.42463812 Ry
     estimated scf accuracy    <       8.29880100 Ry

[...]

     iteration #  8     ecut=    36.75 Ry     beta=0.10
     Davidson diagonalization with overlap
     c_bands:  1 eigenvalues not converged
     c_bands:  1 eigenvalues not converged
     ethr =  7.84E-06,  avg # of iterations = 15.4

[...]

     End of self-consistent calculation

          k = 0.0000 0.0000 0.0000 ( 28325 PWs)   bands (ev):

  -124.2599-124.2599-124.0736 -78.4424 -78.4424 -78.4305 -78.4304 -78.4303
   -78.4302 -78.2477 -78.2474 -78.2413 -31.6393 -31.6243 -31.4537 -31.4537
   -31.4503 -31.4502 -31.1997 -31.0344 -31.0334 -16.0631 -15.9510 -15.7109
   -15.5839 -15.5838 -15.4683 -15.4526 -15.4526 -15.4462 -15.4461 -15.3254
   -15.1160 -15.1160 -14.8447 -14.8446 -14.7677 -14.7095 -14.5385 -14.4988
   -14.4987 -14.4969 -14.4969 -14.4555 -14.4553 -14.2675 -14.1399 -14.1397
    -5.1377  -5.1375  -5.1371  -5.1338  -5.1334  -5.1297  -5.1265  -5.1263
    -5.1153  -5.1151  -4.9499  -4.9495  -4.9397  -4.9275  -4.9275  -2.7869
    -2.2957  -2.1795  -0.5441  -0.0444   0.3871   0.7767   0.7896   1.0711
     1.0711   1.0896   1.0896   1.3219   1.3220   1.3798   1.3798   1.8289
     1.8371   2.0311   2.0312   2.4729   2.5278   2.5278   2.6712   2.7483
     2.7535   2.7536   2.8599   2.8599   2.8764   2.8766   2.9317   2.9554
     3.0073   3.0851   3.0904   3.0945   3.0947   3.1361   3.1959   3.1960
     3.2288   3.2290   3.2447   3.2880   3.2880

[...]

          k =-0.0706-0.0408 0.0000 ( 28430 PWs)   bands (ev):

[...]

     the Fermi energy is     1.7276 ev

!    total energy              =   -2324.46809457 Ry
     Harris-Foulkes estimate   =   -2324.46812286 Ry
     estimated scf accuracy    <       0.00000054 Ry

     The total energy is the sum of the following terms:

     one-electron contribution =   -9113.61840926 Ry
     hartree contribution      =    4563.83029751 Ry
     xc contribution           =    -586.72349443 Ry
     ewald contribution        =    2812.15128848 Ry
     electric field correction =       0.00000000 Ry
     smearing contrib. (-TS)   =      -0.10777688 Ry

     convergence has been achieved in  17 iterations

 BEEF-vdW xc energy contributions
           1 :   -520.185607189298
           2 :    477.049506216486
           3 :   -401.647935094934
           4 :    311.367560390742
           5 :   -223.838468234105
           6 :    151.698493291457
[...]
                l(7) =   3
                l(8) =   3
     Q(r) pseudized with  8 coefficients,  rinner =    1.700   1.700   1.700
                                                       1.700   1.700   1.700
                                                       1.700

     PseudoPot. # 2 for Zn read from file:
     /afs/slac.stanford.edu/u/if/mamunm/psp/gbrv1.5pbe/Zn.UPF
     MD5 check sum: df62231357ef9e81f77b2b3087fa5675
     Pseudo is Ultrasoft, Zval = 20.0
     Generated by new atomic code, or converted to UPF format
     Using radial grid of  943 points,  6 beta functions with:
                l(1) =   0
                l(2) =   0
                l(3) =   1
                l(4) =   1
                l(5) =   2
                l(6) =   2
     Q(r) pseudized with  8 coefficients,  rinner =    1.100   1.100   1.100
                                                       1.100   1.100

     vdW kernel table read from file vdW_kernel_table
     MD5 check sum: 095c7af220d748ca6e76c0b4c6cfb241

     atomic species   valence    mass     pseudopotential
        La1           11.00   138.90547     La( 1.00)
        Zn1           20.00    65.38000     Zn( 1.00)

     No symmetry found

   Cartesian axes

     site n.     atom                  positions (alat units)
         1           La1 tau(   1) = (   0.0000000   0.0000000  10.0000000  )
         2           La1 tau(   2) = (  -1.7695290   3.0649140  10.0000000  )
         3           La1 tau(   3) = (   1.7695290   3.0649140  10.0000000  )
         4           Zn1 tau(   4) = (   3.5390579   0.0000000  10.0000000  )
         5           La1 tau(   5) = (   3.5390579   2.0432760  12.8896287  )
         6           La1 tau(   6) = (   1.7695290   5.1081901  12.8896287  )
         7           La1 tau(   7) = (  -1.7695290   5.1081901  12.8896287  )
         8           Zn1 tau(   8) = (  -0.0000000   2.0432760  12.8896287  )
         9           La1 tau(   9) = (   0.0000926   4.0093324  15.7975117  )
        10           La1 tau(  10) = (   1.7025767   1.0600953  15.7975246  )
        11           La1 tau(  11) = (   5.3756441   1.0601032  15.7974923  )
        12           Zn1 tau(  12) = (   3.5392723   4.0865284  15.4651463  )

     number of k points=    20  Fermi-Dirac smearing, width (Ry)=  0.0110
                       cart. coord. in units 2pi/alat
        k(    1) = (   0.0000000   0.0000000   0.0000000), wk =   0.0555556
        k(    2) = (   0.0000000   0.0271895   0.0000000), wk =   0.1111111
        k(    3) = (   0.0000000   0.0543789   0.0000000), wk =   0.1111111
        k(    4) = (   0.0000000  -0.0815684   0.0000000), wk =   0.0555556
        k(    5) = (   0.0235468   0.0135947   0.0000000), wk =   0.1111111
        k(    6) = (   0.0235468   0.0407842   0.0000000), wk =   0.1111111
        k(    7) = (   0.0235468   0.0679736   0.0000000), wk =   0.1111111
        k(    8) = (   0.0235468  -0.0679736   0.0000000), wk =   0.1111111
        k(    9) = (   0.0235468  -0.0407842   0.0000000), wk =   0.1111111
        k(   10) = (   0.0235468  -0.0135947   0.0000000), wk =   0.1111111
        k(   11) = (   0.0470935   0.0271895   0.0000000), wk =   0.1111111
        k(   12) = (   0.0470935   0.0543789   0.0000000), wk =   0.1111111
        k(   13) = (   0.0470935   0.0815684   0.0000000), wk =   0.1111111
        k(   14) = (   0.0470935  -0.0543789   0.0000000), wk =   0.1111111
        k(   15) = (   0.0470935  -0.0271895   0.0000000), wk =   0.1111111
        k(   16) = (   0.0470935   0.0000000   0.0000000), wk =   0.1111111
        k(   17) = (  -0.0706403  -0.0407842   0.0000000), wk =   0.0555556
        k(   18) = (  -0.0706403  -0.0135947   0.0000000), wk =   0.1111111
        k(   19) = (  -0.0706403   0.0135947   0.0000000), wk =   0.1111111
        k(   20) = (  -0.0706403  -0.1223525   0.0000000), wk =   0.0555556

     Largest allocated arrays     est. size (Mb)     dimensions
     Largest temporary arrays     est. size (Mb)     dimensions

     Initial potential from superposition of free atoms
     Check: negative starting charge=   -0.626753

     starting charge  158.71096, renormalised to  159.00000

[...]

     *
     * You are using vdW-DF for exchange-correlation in this calculation.
     * Please cite the following three references that made this development
     * possible:
     *
     *   M. Dion, H. Rydberg, E. Schroder, D. C. Langreth, and
     *   B. I. Lundqvist, Phys. Rev. Lett. 92, 246401 (2004).
     *
     *   T. Thonhauser, V. R. Cooper, S. Li, A. Puzder, P. Hyldgaard, and
     *   D. C. Langreth, Phys. Rev. B 76, 125112 (2007).
     *
     *   G. Roman-Perez and J. M. Soler, Phys. Rev. Lett. 103, 096102 (2009).
     *
     *
     * If you are using vdW-DF2, please also cite:
     *
     *   K. Lee, E. D. Murray, L. Kong, B. I. Lundqvist, and
     *   D. C. Langreth, Phys. Rev. B 82, 081101(R) (2010).
     *
     *
     * If you are calculating the stress with vdW-DF, please also cite:
     *
     *   R. Sabatini, E. Kucukbenli, B. Kolb, T. Thonhauser, and
     *   S. de Gironcoli, J. Phys.: Condens. Matter 24, 424209 (2012).
     *

     Carrying out vdW-DF run using the following parameters:

     Nqs =      20    Nr_points =    1024   r_max =   100.000
     q_mesh =
               0.00001000     0.04494208     0.09755937     0.15916263
               0.23128650     0.31572767     0.41458969     0.53033537
               0.66584808     0.82450364     1.01025438     1.22772762
               1.48234092     1.78043706     2.12944203     2.53805004
               3.01644009     3.57652955     4.23227104     5.00000000

     Gradients computed in reciprocal space

[...]

     Starting wfc are  219 randomized atomic wfcs

     Self-consistent Calculation

[...]

     iteration #  9     ecut=    36.75 Ry     beta=0.10
     Davidson diagonalization with overlap
     c_bands:  1 eigenvalues not converged
     c_bands:  2 eigenvalues not converged
     c_bands:  1 eigenvalues not converged
     c_bands:  1 eigenvalues not converged
     c_bands:  1 eigenvalues not converged
     c_bands:  1 eigenvalues not converged
     c_bands:  1 eigenvalues not converged
     ethr =  4.71E-06,  avg # of iterations = 13.8

[...]

     total energy              =   -2324.48187305 Ry
     Harris-Foulkes estimate   =   -2324.48187820 Ry
     estimated scf accuracy    <       0.00000110 Ry

     iteration # 19     ecut=    36.75 Ry     beta=0.10
     Davidson diagonalization with overlap
     ethr =  6.94E-10,  avg # of iterations =  5.8

[...]

     negative rho (up, down):  4.225E-01 0.000E+00

     Adding external electric field

     Computed dipole along edir(3) :
        Dipole                0.0382 Ry au,          0.0971 Debye
        Dipole field          0.0001 Ry au

        Potential amp.       -0.0060 Ry
        Total length         47.4978 bohr

     End of self-consistent calculation

[...]

          k = 0.0471 0.0000 0.0000 ( 28341 PWs)   bands (ev):

[...]

          k =-0.0706-0.1224 0.0000 ( 28430 PWs)   bands (ev):

  -124.2623-124.2440-124.0265 -78.4565 -78.4285 -78.4245 -78.4243 -78.4135
   -78.4133 -78.2009 -78.2007 -78.1928 -31.5675 -31.5461 -31.4889 -31.4759
   -31.4272 -31.4237 -31.1013 -31.0478 -30.9898 -15.7444 -15.6702 -15.5751
   -15.4260 -15.3816 -15.3075 -15.2897 -15.2202 -15.1967 -15.1943 -15.1571
   -15.1230 -15.1166 -15.0999 -15.0292 -14.9904 -14.9743 -14.7524 -14.6336
   -14.6088 -14.5667 -14.5128 -14.4790 -14.4465 -14.4319 -14.3879 -14.1371
    -5.1416  -5.1375  -5.1373  -5.1141  -5.1104  -5.1048  -5.1031  -5.0986
    -5.0984  -5.0940  -4.8966  -4.8844  -4.8795  -4.8742  -4.8737  -1.9716
    -1.8983  -1.6716   0.0820   0.2878   0.4862   0.6822   0.9599   1.0835
     1.1625   1.2762   1.3596   1.4365   1.4878   1.6344   1.6885   1.6904
     2.0141   2.0898   2.0902   2.2258   2.3005   2.3172   2.3932   2.4874
     2.5716   2.6049   2.7727   2.8348   2.8420   2.8806   2.9273   3.0387
     3.0599   3.0754   3.0997   3.1278   3.1533   3.1623   3.1797   3.1869
     3.2095   3.2374   3.2519   3.3042   3.3048

     the Fermi energy is     1.7572 ev

!    total energy              =   -2324.48185383 Ry
     Harris-Foulkes estimate   =   -2324.48187302 Ry
     estimated scf accuracy    <       0.00000035 Ry

     The total energy is the sum of the following terms:

     one-electron contribution =   -9232.24929157 Ry
     hartree contribution      =    4623.29515306 Ry
     xc contribution           =    -586.75161823 Ry
     ewald contribution        =    2871.33139037 Ry
     electric field correction =       0.00000243 Ry
     smearing contrib. (-TS)   =      -0.10748988 Ry

     convergence has been achieved in  19 iterations

 BEEF-vdW xc energy contributions
           1 :   -520.358292473448
           2 :    477.241405788935
           3 :   -401.860080245693
           4 :    311.579591474742
           5 :   -224.022051775643
           6 :    151.837185554391
           7 :   -100.415445306526
           8 :    68.6754005950404
           9 :   -51.7151581491383
          10 :    43.6893331143579
          11 :   -39.7167004838666
          12 :    36.4721171659636
          13 :   -31.9147424563034
          14 :    24.9080662104413
          15 :   -15.2062110980349
          16 :    3.68483943331364
          17 :    7.67206486450800
          18 :   -16.3791319481636
          19 :    20.4976184839902
          20 :   -19.5685816095388
          21 :    14.8727061193144
          22 :   -8.84903645161523
          23 :    3.99085380900078
          24 :   -1.81895354536630
          25 :    2.44166422922785
          26 :   -4.83466970171594
          27 :    7.55881618683043
          28 :   -9.45719904397197
          29 :    10.0031426858284
          30 :   -9.26663550928151
          31 :   -43.2284662538075
          32 :   -30.6983939648053

     Forces acting on atoms (Ry/au):

     negative rho (up, down):  4.225E-01 0.000E+00
     atom    1 type  1   force =    -0.00000199    0.01228145   -0.00361688
     atom    2 type  1   force =     0.01063246   -0.00615251   -0.00356336
     atom    3 type  1   force =    -0.01063579   -0.00615199   -0.00356557
     atom    4 type  2   force =    -0.00000251    0.00001005    0.01830928
     atom    5 type  1   force =     0.00000492   -0.00221136   -0.00110439
     atom    6 type  1   force =    -0.00191183    0.00110556   -0.00111699
     atom    7 type  1   force =     0.00191122    0.00109999   -0.00112137
     atom    8 type  2   force =     0.00002506    0.00000431    0.00055823
     atom    9 type  1   force =    -0.00000323    0.00013825   -0.00155374
     atom   10 type  1   force =     0.00010956   -0.00005946   -0.00152714
     atom   11 type  1   force =    -0.00011080   -0.00005512   -0.00153315
     atom   12 type  2   force =    -0.00001708   -0.00000918   -0.00016493

     Total force =     0.029194     Total SCF correction =     0.002133

     entering subroutine stress ...

     negative rho (up, down):  4.225E-01 0.000E+00
          total   stress  (Ry/bohr**3)                   (kbar)     P=   -3.56
  -0.00002815  -0.00000000  -0.00000000         -4.14     -0.00     -0.00
  -0.00000000  -0.00002811   0.00000001         -0.00     -4.14      0.00
  -0.00000000   0.00000001  -0.00001640         -0.00      0.00     -2.41

 !ASE

     Writing output data file calc.save

     General routines

     Parallel routines

   This run was terminated on:  21:17:36  26Dec2018

   JOB DONE.
Job  /afs/slac/g/suncat/bin/suncat-tsmpirun -x LD_LIBRARY_PATH -wdir /scratch/qe110043_q4uIM pw.x -in pw.inp

TID   HOST_NAME   COMMAND_LINE            STATUS            TERMINATION_TIME
00000 suncat0006 pw.x -in pw.inp   Done                     12/26/2018 21:17:36
00001 suncat0006 pw.x -in pw.inp   Done                     12/26/2018 21:17:36
00002 suncat0006 pw.x -in pw.inp   Done                     12/26/2018 21:17:36
00003 suncat0006 pw.x -in pw.inp   Done                     12/26/2018 21:17:36
00004 suncat0006 pw.x -in pw.inp   Done                     12/26/2018 21:17:36
00005 suncat0006 pw.x -in pw.inp   Done                     12/26/2018 21:17:36
00006 suncat0006 pw.x -in pw.inp   Done                     12/26/2018 21:17:36
00007 suncat0006 pw.x -in pw.inp   Done                     12/26/2018 21:17:36
00008 suncat0005 pw.x -in pw.inp   Done                     12/26/2018 21:17:36
00009 suncat0005 pw.x -in pw.inp   Done                     12/26/2018 21:17:36
00010 suncat0005 pw.x -in pw.inp   Done                     12/26/2018 21:17:36
00011 suncat0005 pw.x -in pw.inp   Done                     12/26/2018 21:17:36
00012 suncat0005 pw.x -in pw.inp   Done                     12/26/2018 21:17:36
00013 suncat0005 pw.x -in pw.inp   Done                     12/26/2018 21:17:36
00014 suncat0005 pw.x -in pw.inp   Done                     12/26/2018 21:17:36
00015 suncat0005 pw.x -in pw.inp   Done                     12/26/2018 21:17:36
00016 suncat0180 pw.x -in pw.inp   Done                     12/26/2018 21:17:36
00017 suncat0180 pw.x -in pw.inp   Done                     12/26/2018 21:17:36
00018 suncat0180 pw.x -in pw.inp   Done                     12/26/2018 21:17:36
00019 suncat0180 pw.x -in pw.inp   Done                     12/26/2018 21:17:36
00020 suncat0180 pw.x -in pw.inp   Done                     12/26/2018 21:17:36
00021 suncat0180 pw.x -in pw.inp   Done                     12/26/2018 21:17:36
00022 suncat0180 pw.x -in pw.inp   Done                     12/26/2018 21:17:36
00023 suncat0180 pw.x -in pw.inp   Done                     12/26/2018 21:17:36
00024 suncat0167 pw.x -in pw.inp   Done                     12/26/2018 21:17:36
00025 suncat0167 pw.x -in pw.inp   Done                     12/26/2018 21:17:36
00026 suncat0167 pw.x -in pw.inp   Done                     12/26/2018 21:17:36
00027 suncat0167 pw.x -in pw.inp   Done                     12/26/2018 21:17:36
00028 suncat0167 pw.x -in pw.inp   Done                     12/26/2018 21:17:36
00029 suncat0167 pw.x -in pw.inp   Done                     12/26/2018 21:17:36
00030 suncat0167 pw.x -in pw.inp   Done                     12/26/2018 21:17:36
00031 suncat0167 pw.x -in pw.inp   Done                     12/26/2018 21:17:36
00032 suncat0166 pw.x -in pw.inp   Done                     12/26/2018 21:17:36
00033 suncat0166 pw.x -in pw.inp   Done                     12/26/2018 21:17:36
00034 suncat0166 pw.x -in pw.inp   Done                     12/26/2018 21:17:36
00035 suncat0166 pw.x -in pw.inp   Done                     12/26/2018 21:17:36
00036 suncat0166 pw.x -in pw.inp   Done                     12/26/2018 21:17:36
00037 suncat0166 pw.x -in pw.inp   Done                     12/26/2018 21:17:36
00038 suncat0166 pw.x -in pw.inp   Done                     12/26/2018 21:17:36
00039 suncat0166 pw.x -in pw.inp   Done                     12/26/2018 21:17:36
00040 suncat0165 pw.x -in pw.inp   Done                     12/26/2018 21:17:36
00041 suncat0165 pw.x -in pw.inp   Done                     12/26/2018 21:17:36
00042 suncat0165 pw.x -in pw.inp   Done                     12/26/2018 21:17:36
00043 suncat0165 pw.x -in pw.inp   Done                     12/26/2018 21:17:36
00044 suncat0165 pw.x -in pw.inp   Done                     12/26/2018 21:17:36
00045 suncat0165 pw.x -in pw.inp   Done                     12/26/2018 21:17:36
00046 suncat0165 pw.x -in pw.inp   Done                     12/26/2018 21:17:36
00047 suncat0165 pw.x -in pw.inp   Done                     12/26/2018 21:17:36
00048 suncat0164 pw.x -in pw.inp   Done                     12/26/2018 21:17:36
00049 suncat0164 pw.x -in pw.inp   Done                     12/26/2018 21:17:36
00050 suncat0164 pw.x -in pw.inp   Done                     12/26/2018 21:17:36
00051 suncat0164 pw.x -in pw.inp   Done                     12/26/2018 21:17:36
00052 suncat0164 pw.x -in pw.inp   Done                     12/26/2018 21:17:36
00053 suncat0164 pw.x -in pw.inp   Done                     12/26/2018 21:17:36
00054 suncat0164 pw.x -in pw.inp   Done                     12/26/2018 21:17:36
00055 suncat0164 pw.x -in pw.inp   Done                     12/26/2018 21:17:36
00056 suncat0143 pw.x -in pw.inp   Done                     12/26/2018 21:17:36
00057 suncat0143 pw.x -in pw.inp   Done                     12/26/2018 21:17:36
00058 suncat0143 pw.x -in pw.inp   Done                     12/26/2018 21:17:36
00059 suncat0143 pw.x -in pw.inp   Done                     12/26/2018 21:17:36
00060 suncat0143 pw.x -in pw.inp   Done                     12/26/2018 21:17:36
00061 suncat0143 pw.x -in pw.inp   Done                     12/26/2018 21:17:36
00062 suncat0143 pw.x -in pw.inp   Done                     12/26/2018 21:17:36
00063 suncat0143 pw.x -in pw.inp   Done                     12/26/2018 21:17:36