     Program PWSCF v.5.1rc2 (svn rev. 11289) starts on  1Jan2019 at 15:12:16

     Current dimensions of program PWSCF are:
     Max number of different atomic species (ntypx) = 10
     Max number of k-points (npk) =  40000
     Max angular momentum in pseudopotentials (lmaxx) =  3
     Presently stress not available with electric field

     IMPORTANT: XC functional enforced from input :
     Exchange-correlation      = BEEF-VDW ( 1  4 27 13 2)
     Any further DFT definition will be discarded
     Please, verify this is what you really want

     Subspace diagonalization in iterative solution of the eigenvalue problem:
     a serial algorithm will be used

     bravais-lattice index     =            0
     lattice parameter (alat)  =       1.8897  a.u.
     unit-cell volume          =    5042.6393 (a.u.)^3
     number of atoms/cell      =           12
     number of atomic types    =            2
     number of electrons       =       174.00
     number of Kohn-Sham states=          117
     kinetic-energy cutoff     =      36.7493  Ry
     charge density cutoff     =     367.4932  Ry
     convergence threshold     =      1.0E-06
     mixing beta               =       0.1000
     number of iterations used =           10  plain     mixing
     Exchange-correlation      = BEEF-VDW ( 1  4 27 13 2)
     nstep                     =           50

     celldm(1)=   1.889726  celldm(2)=   0.000000  celldm(3)=   0.000000
     celldm(4)=   0.000000  celldm(5)=   0.000000  celldm(6)=   0.000000

     crystal axes: (cart. coord. in units of alat)
               a(1) = (   5.896729   0.000000   0.000000 )
               a(2) = (  -2.948365   5.106717   0.000000 )
               a(3) = (   0.000000   0.000000  24.814659 )

     reciprocal axes: (cart. coord. in units 2 pi/alat)
               b(1) = (  0.169586  0.097910  0.000000 )
               b(2) = (  0.000000  0.195821  0.000000 )
               b(3) = (  0.000000  0.000000  0.040299 )

     PseudoPot. # 1 for Ta read from file:
     /afs/slac.stanford.edu/u/if/mamunm/psp/gbrv1.5pbe/Ta.UPF
     MD5 check sum: f8bbe9446314a3b8ea5d9f3e3836c939
     Pseudo is Ultrasoft + core correction, Zval = 13.0
     Generated by new atomic code, or converted to UPF format
     Using radial grid of  921 points,  7 beta functions with:
                l(1) =   0
                l(2) =   0
                l(3) =   1
                l(4) =   1
                l(5) =   2
                l(6) =   2
                l(7) =   3
     Q(r) pseudized with  6 coefficients,  rinner =    1.300   1.300   1.300
                                                       1.300   1.300   1.300
                                                       1.300

     PseudoPot. # 2 for Ag read from file:
     /afs/slac.stanford.edu/u/if/mamunm/psp/gbrv1.5pbe/Ag.UPF
     MD5 check sum: d66d668201baa78d5eb5b04ef7011058
     Pseudo is Ultrasoft + core correction, Zval = 19.0
     Generated by new atomic code, or converted to UPF format
     Using radial grid of  887 points,  6 beta functions with:
                l(1) =   0
                l(2) =   0
                l(3) =   1
                l(4) =   1
                l(5) =   2
                l(6) =   2
     Q(r) pseudized with  6 coefficients,  rinner =    1.300   1.300   1.300
                                                       1.300   1.300

     vdW kernel table read from file vdW_kernel_table
     MD5 check sum: 095c7af220d748ca6e76c0b4c6cfb241

     atomic species   valence    mass     pseudopotential
        Ta1           13.00   180.94788     Ta( 1.00)
        Ag1           19.00   107.86820     Ag( 1.00)

     No symmetry found

   Cartesian axes

     site n.     atom                  positions (alat units)
         1           Ta1 tau(   1) = (   0.0000000   0.0000000  10.0000000  )
         2           Ta1 tau(   2) = (  -1.4741823   2.5533586  10.0000000  )
         3           Ta1 tau(   3) = (   1.4741823   2.5533586  10.0000000  )
         4           Ag1 tau(   4) = (   2.9483646   0.0000000  10.0000000  )
         5           Ta1 tau(   5) = (   2.9483646   1.7022391  12.4073296  )
         6           Ta1 tau(   6) = (   1.4741823   4.2555977  12.4073296  )
         7           Ta1 tau(   7) = (  -1.4741823   4.2555977  12.4073296  )
         8           Ag1 tau(   8) = (   0.0000000   1.7022391  12.4073296  )
         9           Ta1 tau(   9) = (  -0.0000000   3.4044782  14.8146592  )
        10           Ta1 tau(  10) = (   1.4741823   0.8511195  14.8146592  )
        11           Ta1 tau(  11) = (   4.4225469   0.8511195  14.8146592  )
        12           Ag1 tau(  12) = (   2.9483646   3.4044782  14.8146592  )

     number of k points=    20  Fermi-Dirac smearing, width (Ry)=  0.0110
                       cart. coord. in units 2pi/alat
        k(    1) = (   0.0000000   0.0000000   0.0000000), wk =   0.0555556
        k(    2) = (   0.0000000   0.0326368   0.0000000), wk =   0.1111111
        k(    3) = (   0.0000000   0.0652735   0.0000000), wk =   0.1111111
        k(    4) = (   0.0000000  -0.0979103   0.0000000), wk =   0.0555556
        k(    5) = (   0.0282643   0.0163184   0.0000000), wk =   0.1111111
        k(    6) = (   0.0282643   0.0489551   0.0000000), wk =   0.1111111
        k(    7) = (   0.0282643   0.0815919   0.0000000), wk =   0.1111111
        k(    8) = (   0.0282643  -0.0815919   0.0000000), wk =   0.1111111
        k(    9) = (   0.0282643  -0.0489551   0.0000000), wk =   0.1111111
        k(   10) = (   0.0282643  -0.0163184   0.0000000), wk =   0.1111111
        k(   11) = (   0.0565285   0.0326368   0.0000000), wk =   0.1111111
        k(   12) = (   0.0565285   0.0652735   0.0000000), wk =   0.1111111
        k(   13) = (   0.0565285   0.0979103   0.0000000), wk =   0.1111111
        k(   14) = (   0.0565285  -0.0652735   0.0000000), wk =   0.1111111
        k(   15) = (   0.0565285  -0.0326368   0.0000000), wk =   0.1111111
        k(   16) = (   0.0565285   0.0000000   0.0000000), wk =   0.1111111
        k(   17) = (  -0.0847928  -0.0489551   0.0000000), wk =   0.0555556
        k(   18) = (  -0.0847928  -0.0163184   0.0000000), wk =   0.1111111
        k(   19) = (  -0.0847928   0.0163184   0.0000000), wk =   0.1111111
        k(   20) = (  -0.0847928  -0.1468654   0.0000000), wk =   0.0555556

     Largest allocated arrays     est. size (Mb)     dimensions
     Largest temporary arrays     est. size (Mb)     dimensions

     Initial potential from superposition of free atoms
     Check: negative starting charge=   -0.843939

     starting charge  172.48985, renormalised to  174.00000

     negative rho (up, down):  8.513E-01 0.000E+00

     *
     * You are using vdW-DF for exchange-correlation in this calculation.
     * Please cite the following three references that made this development
     * possible:
     *
     *   M. Dion, H. Rydberg, E. Schroder, D. C. Langreth, and
     *   B. I. Lundqvist, Phys. Rev. Lett. 92, 246401 (2004).
     *
     *   T. Thonhauser, V. R. Cooper, S. Li, A. Puzder, P. Hyldgaard, and
     *   D. C. Langreth, Phys. Rev. B 76, 125112 (2007).
     *
     *   G. Roman-Perez and J. M. Soler, Phys. Rev. Lett. 103, 096102 (2009).
     *
     *
     * If you are using vdW-DF2, please also cite:
     *
     *   K. Lee, E. D. Murray, L. Kong, B. I. Lundqvist, and
     *   D. C. Langreth, Phys. Rev. B 82, 081101(R) (2010).
     *
     *
     * If you are calculating the stress with vdW-DF, please also cite:
     *
     *   R. Sabatini, E. Kucukbenli, B. Kolb, T. Thonhauser, and
     *   S. de Gironcoli, J. Phys.: Condens. Matter 24, 424209 (2012).
     *

     Carrying out vdW-DF run using the following parameters:

     Nqs =      20    Nr_points =    1024   r_max =   100.000
     q_mesh =
               0.00001000     0.04494208     0.09755937     0.15916263
               0.23128650     0.31572767     0.41458969     0.53033537
               0.66584808     0.82450364     1.01025438     1.22772762
               1.48234092     1.78043706     2.12944203     2.53805004
               3.01644009     3.57652955     4.23227104     5.00000000

     Gradients computed in reciprocal space

     Adding external electric field

     Computed dipole along edir(3) :
        Dipole                0.0000 Ry au,          0.0000 Debye
        Dipole field          0.0000 Ry au

        Potential amp.       -0.0000 Ry
        Total length         45.7206 bohr

     Starting wfc are  156 randomized atomic wfcs

     Self-consistent Calculation

     iteration #  1     ecut=    36.75 Ry     beta=0.10
     Davidson diagonalization with overlap
     ethr =  1.00E-02,  avg # of iterations =  2.0

[...]

     total energy              =   -2178.32532760 Ry
     Harris-Foulkes estimate   =   -2179.17491301 Ry
     estimated scf accuracy    <       5.01725571 Ry

[...]

     End of self-consistent calculation

          k = 0.0000 0.0000 0.0000 ( 18967 PWs)   bands (ev):

   -90.6717 -90.6083 -90.6082 -66.4318 -66.4297 -66.3820 -66.3820 -66.3815
   -66.3815 -66.1888 -66.1413 -66.1413 -54.1360 -54.1360 -54.1299 -54.0929
   -54.0929 -54.0928 -54.0928 -54.0343 -54.0342 -33.1022 -33.0481 -32.9998
   -32.9502 -32.9502 -32.9499 -32.9156 -32.9156 -32.8890 -32.8890 -32.8703
   -32.7815 -32.7815 -32.6187 -32.6187 -32.5681 -32.5383 -32.3845 -32.3845
   -32.3598 -32.3179 -32.3179 -32.3094 -32.3094 -32.2945 -32.1518 -32.1518
    -5.4751  -4.1083  -3.8386  -3.7542  -3.7542  -3.6863  -3.6863  -3.4454
    -3.4454  -3.3486  -3.3486  -3.3132  -2.9162  -2.9162  -2.7902  -2.7902
    -2.6332  -2.3855  -2.0304  -1.2657  -1.1461  -0.1035  -0.1035   0.0940
     0.1258   0.4906   0.4906   0.5962   0.5962   0.8886   0.8886   1.3895
     1.3895   1.4193   1.5864   1.8959   1.8959   2.2460   2.2460   2.3312
     2.4188   2.7497   2.8368   2.8368   3.1706   3.3871   3.3871   3.5851
     4.3967   4.5854   4.5854   4.9210   4.9210   5.1115   5.1115   5.1345
     5.1824   5.1824   5.3925   5.3925   5.8203   5.9271   5.9271   6.0159
     6.0159   6.0209   6.0209   6.0336   6.0785

[...]

          k =-0.0848-0.0490 0.0000 ( 18964 PWs)   bands (ev):

[...]

     the Fermi energy is     1.9986 ev

!    total energy              =   -2178.44875221 Ry
     Harris-Foulkes estimate   =   -2178.44875345 Ry
     estimated scf accuracy    <       0.00000025 Ry

     The total energy is the sum of the following terms:

     one-electron contribution =  -14917.48828394 Ry
     hartree contribution      =    7442.98479081 Ry
     xc contribution           =    -482.06446538 Ry
     ewald contribution        =    5778.20515468 Ry
     electric field correction =       0.00000000 Ry
     smearing contrib. (-TS)   =      -0.08594838 Ry

     convergence has been achieved in  16 iterations

 BEEF-vdW xc energy contributions
           1 :   -423.139660372806
           2 :    389.583452572600
           3 :   -331.284388412927
           4 :    262.275281122562
           5 :   -196.582753955191
           6 :    143.749435770269
           7 :   -106.831252791422
           8 :    83.2733977690589
           9 :   -67.7422152493723
          10 :    55.2584577133789
          11 :   -43.1743923732333
[...]
     MD5 check sum: f8bbe9446314a3b8ea5d9f3e3836c939
     Pseudo is Ultrasoft + core correction, Zval = 13.0
     Generated by new atomic code, or converted to UPF format
     Using radial grid of  921 points,  7 beta functions with:
                l(1) =   0
                l(2) =   0
                l(3) =   1
                l(4) =   1
                l(5) =   2
                l(6) =   2
                l(7) =   3
     Q(r) pseudized with  6 coefficients,  rinner =    1.300   1.300   1.300
                                                       1.300   1.300   1.300
                                                       1.300

     PseudoPot. # 2 for Ag read from file:
     /afs/slac.stanford.edu/u/if/mamunm/psp/gbrv1.5pbe/Ag.UPF
     MD5 check sum: d66d668201baa78d5eb5b04ef7011058
     Pseudo is Ultrasoft + core correction, Zval = 19.0
     Generated by new atomic code, or converted to UPF format
     Using radial grid of  887 points,  6 beta functions with:
                l(1) =   0
                l(2) =   0
                l(3) =   1
                l(4) =   1
                l(5) =   2
                l(6) =   2
     Q(r) pseudized with  6 coefficients,  rinner =    1.300   1.300   1.300
                                                       1.300   1.300

     vdW kernel table read from file vdW_kernel_table
     MD5 check sum: 095c7af220d748ca6e76c0b4c6cfb241

     atomic species   valence    mass     pseudopotential
        Ta1           13.00   180.94788     Ta( 1.00)
        Ag1           19.00   107.86820     Ag( 1.00)

     No symmetry found

   Cartesian axes

     site n.     atom                  positions (alat units)
         1           Ta1 tau(   1) = (   0.0000000   0.0000000  10.0000000  )
         2           Ta1 tau(   2) = (  -1.4741823   2.5533586  10.0000000  )
         3           Ta1 tau(   3) = (   1.4741823   2.5533586  10.0000000  )
         4           Ag1 tau(   4) = (   2.9483646   0.0000000  10.0000000  )
         5           Ta1 tau(   5) = (   2.9483646   1.7022391  12.4073296  )
         6           Ta1 tau(   6) = (   1.4741823   4.2555977  12.4073296  )
         7           Ta1 tau(   7) = (  -1.4741823   4.2555977  12.4073296  )
         8           Ag1 tau(   8) = (   0.0000000   1.7022391  12.4073296  )
         9           Ta1 tau(   9) = (   0.0000020   3.4118148  14.6942865  )
        10           Ta1 tau(  10) = (   1.4805374   0.8474476  14.6942864  )
        11           Ta1 tau(  11) = (   4.4161975   0.8474485  14.6942878  )
        12           Ag1 tau(  12) = (   2.9483669   3.4044743  14.9615626  )

     number of k points=    20  Fermi-Dirac smearing, width (Ry)=  0.0110
                       cart. coord. in units 2pi/alat
        k(    1) = (   0.0000000   0.0000000   0.0000000), wk =   0.0555556
        k(    2) = (   0.0000000   0.0326368   0.0000000), wk =   0.1111111
        k(    3) = (   0.0000000   0.0652735   0.0000000), wk =   0.1111111
        k(    4) = (   0.0000000  -0.0979103   0.0000000), wk =   0.0555556
        k(    5) = (   0.0282643   0.0163184   0.0000000), wk =   0.1111111
        k(    6) = (   0.0282643   0.0489551   0.0000000), wk =   0.1111111
        k(    7) = (   0.0282643   0.0815919   0.0000000), wk =   0.1111111
        k(    8) = (   0.0282643  -0.0815919   0.0000000), wk =   0.1111111
        k(    9) = (   0.0282643  -0.0489551   0.0000000), wk =   0.1111111
        k(   10) = (   0.0282643  -0.0163184   0.0000000), wk =   0.1111111
        k(   11) = (   0.0565285   0.0326368   0.0000000), wk =   0.1111111
        k(   12) = (   0.0565285   0.0652735   0.0000000), wk =   0.1111111
        k(   13) = (   0.0565285   0.0979103   0.0000000), wk =   0.1111111
        k(   14) = (   0.0565285  -0.0652735   0.0000000), wk =   0.1111111
        k(   15) = (   0.0565285  -0.0326368   0.0000000), wk =   0.1111111
        k(   16) = (   0.0565285   0.0000000   0.0000000), wk =   0.1111111
        k(   17) = (  -0.0847928  -0.0489551   0.0000000), wk =   0.0555556
        k(   18) = (  -0.0847928  -0.0163184   0.0000000), wk =   0.1111111
        k(   19) = (  -0.0847928   0.0163184   0.0000000), wk =   0.1111111
        k(   20) = (  -0.0847928  -0.1468654   0.0000000), wk =   0.0555556

     Largest allocated arrays     est. size (Mb)     dimensions
     Largest temporary arrays     est. size (Mb)     dimensions

     Initial potential from superposition of free atoms
     Check: negative starting charge=   -0.842774

     starting charge  172.48985, renormalised to  174.00000

[...]

     *
     * You are using vdW-DF for exchange-correlation in this calculation.
     * Please cite the following three references that made this development
     * possible:
     *
     *   M. Dion, H. Rydberg, E. Schroder, D. C. Langreth, and
     *   B. I. Lundqvist, Phys. Rev. Lett. 92, 246401 (2004).
     *
     *   T. Thonhauser, V. R. Cooper, S. Li, A. Puzder, P. Hyldgaard, and
     *   D. C. Langreth, Phys. Rev. B 76, 125112 (2007).
     *
     *   G. Roman-Perez and J. M. Soler, Phys. Rev. Lett. 103, 096102 (2009).
     *
     *
     * If you are using vdW-DF2, please also cite:
     *
     *   K. Lee, E. D. Murray, L. Kong, B. I. Lundqvist, and
     *   D. C. Langreth, Phys. Rev. B 82, 081101(R) (2010).
     *
     *
     * If you are calculating the stress with vdW-DF, please also cite:
     *
     *   R. Sabatini, E. Kucukbenli, B. Kolb, T. Thonhauser, and
     *   S. de Gironcoli, J. Phys.: Condens. Matter 24, 424209 (2012).
     *

     Carrying out vdW-DF run using the following parameters:

     Nqs =      20    Nr_points =    1024   r_max =   100.000
     q_mesh =
               0.00001000     0.04494208     0.09755937     0.15916263
               0.23128650     0.31572767     0.41458969     0.53033537
               0.66584808     0.82450364     1.01025438     1.22772762
               1.48234092     1.78043706     2.12944203     2.53805004
               3.01644009     3.57652955     4.23227104     5.00000000

     Gradients computed in reciprocal space

[...]

     Starting wfc are  156 randomized atomic wfcs

     Self-consistent Calculation

[...]

     total energy              =   -2178.46790187 Ry
     Harris-Foulkes estimate   =   -2178.46790230 Ry
     estimated scf accuracy    <       0.00000263 Ry

     iteration # 16     ecut=    36.75 Ry     beta=0.10
     Davidson diagonalization with overlap
     ethr =  1.51E-09,  avg # of iterations =  2.5

[...]

     negative rho (up, down):  8.775E-01 0.000E+00

     Adding external electric field

     Computed dipole along edir(3) :
        Dipole               -0.0127 Ry au,         -0.0324 Debye
        Dipole field         -0.0000 Ry au

        Potential amp.        0.0029 Ry
        Total length         45.7206 bohr

     End of self-consistent calculation

[...]

          k = 0.0565 0.0000 0.0000 ( 18975 PWs)   bands (ev):

[...]

          k =-0.0848-0.1469 0.0000 ( 18964 PWs)   bands (ev):

   -90.7928 -90.6440 -90.4351 -66.4495 -66.4333 -66.4169 -66.3412 -66.3237
   -66.3069 -66.1387 -66.1234 -66.1078 -54.2672 -54.2519 -54.2518 -54.1271
   -54.1271 -54.0714 -53.9391 -53.9390 -53.8292 -33.0168 -32.9991 -32.9673
   -32.9000 -32.8858 -32.8822 -32.8396 -32.8142 -32.7897 -32.7776 -32.7458
   -32.7174 -32.7050 -32.7039 -32.6558 -32.6486 -32.5922 -32.5551 -32.4493
   -32.4361 -32.4355 -32.3730 -32.3016 -32.2837 -32.2593 -32.2307 -32.1346
    -3.9790  -3.8887  -3.5462  -3.4947  -3.4925  -3.3251  -3.2842  -3.1644
    -3.1531  -3.1138  -2.9849  -2.9435  -2.8641  -2.7716  -2.6904  -2.6621
    -2.5581  -2.1704  -1.5967  -1.4762  -1.1862  -0.9224  -0.5801  -0.0783
     0.0610   0.3740   0.5020   0.5184   0.6453   0.7255   0.7896   0.9593
     1.1506   1.2072   1.2467   1.3528   1.4904   1.5360   1.6799   1.7675
     2.0965   2.1248   2.4379   2.5047   2.6309   2.8246   2.8322   2.9367
     3.4054   4.0179   4.0611   4.1174   4.3284   4.3733   4.4511   4.5886
     4.5905   4.7548   4.9441   4.9546   5.0661   5.4262   5.5045   5.6827
     6.1239   6.2422   6.2849   6.5819   7.3656

     the Fermi energy is     1.9681 ev

!    total energy              =   -2178.46790118 Ry
     Harris-Foulkes estimate   =   -2178.46790262 Ry
     estimated scf accuracy    <       0.00000077 Ry

     The total energy is the sum of the following terms:

     one-electron contribution =  -14983.07388010 Ry
     hartree contribution      =    7475.82838515 Ry
     xc contribution           =    -482.23511047 Ry
     ewald contribution        =    5811.09599568 Ry
     electric field correction =       0.00000040 Ry
     smearing contrib. (-TS)   =      -0.08329185 Ry

     convergence has been achieved in  16 iterations

 BEEF-vdW xc energy contributions
           1 :   -423.526872056933
           2 :    390.005958087901
           3 :   -331.748640802649
           4 :    262.745655734278
           5 :   -196.995571617371
           6 :    144.049152514046
           7 :   -107.006652508917
           8 :    83.3690131107129
           9 :   -67.8356975843619
          10 :    55.4170505142985
          11 :   -43.4179758263925
          12 :    31.6953458955845
          13 :   -21.5677167667186
          14 :    14.3164007574002
          15 :   -10.1793728958914
          16 :    8.24590251998779
          17 :   -7.08398702976024
          18 :    5.57511013779742
          19 :   -3.43547097182682
          20 :    1.17567083099959
          21 :   0.390984981204497
          22 :  -0.746140813326519
          23 :   6.850540827883833E-003
          24 :    1.15954486600469
          25 :   -1.94758869685114
          26 :    1.87277838146440
          27 :   -1.00463854275847
          28 :  -0.137163939672860
          29 :   0.924703229397323
          30 :  -0.980007508191875
          31 :   -38.5652747603913
          32 :   -28.5717034828695

     Forces acting on atoms (Ry/au):

     negative rho (up, down):  8.775E-01 0.000E+00
     atom    1 type  1   force =     0.00000068   -0.00229497    0.02176104
     atom    2 type  1   force =    -0.00198714    0.00114842    0.02176095
     atom    3 type  1   force =     0.00198668    0.00114734    0.02176009
     atom    4 type  2   force =     0.00000072    0.00000050   -0.02234565
     atom    5 type  1   force =     0.00000065    0.01435758   -0.00529183
     atom    6 type  1   force =     0.01243457   -0.00717834   -0.00529195
     atom    7 type  1   force =    -0.01243477   -0.00717927   -0.00529282
     atom    8 type  2   force =     0.00000042    0.00000031   -0.02673157
     atom    9 type  1   force =    -0.00000069    0.00051996   -0.00015839
     atom   10 type  1   force =     0.00045016   -0.00026068   -0.00015841
     atom   11 type  1   force =    -0.00045072   -0.00026021   -0.00015828
     atom   12 type  2   force =    -0.00000056   -0.00000064    0.00014682

     Total force =     0.057911     Total SCF correction =     0.002712

     entering subroutine stress ...

     negative rho (up, down):  8.775E-01 0.000E+00
          total   stress  (Ry/bohr**3)                   (kbar)     P=  -19.37
  -0.00015644   0.00000000  -0.00000000        -23.01      0.00     -0.00
   0.00000000  -0.00015643  -0.00000000          0.00    -23.01     -0.00
  -0.00000000  -0.00000000  -0.00008218         -0.00     -0.00    -12.09

 !ASE

     Writing output data file calc.save

     General routines

     Parallel routines

   This run was terminated on:  16:16:13   1Jan2019

   JOB DONE.
Job  /afs/slac/g/suncat/bin/suncat-tsmpirun -x LD_LIBRARY_PATH -wdir /scratch/qe649062_vViH3 pw.x -in pw.inp

TID   HOST_NAME   COMMAND_LINE            STATUS            TERMINATION_TIME
00000 suncat0165 pw.x -in pw.inp   Done                     01/01/2019 16:16:13
00001 suncat0165 pw.x -in pw.inp   Done                     01/01/2019 16:16:13
00002 suncat0165 pw.x -in pw.inp   Done                     01/01/2019 16:16:13
00003 suncat0165 pw.x -in pw.inp   Done                     01/01/2019 16:16:13
00004 suncat0165 pw.x -in pw.inp   Done                     01/01/2019 16:16:13
00005 suncat0165 pw.x -in pw.inp   Done                     01/01/2019 16:16:13
00006 suncat0165 pw.x -in pw.inp   Done                     01/01/2019 16:16:13
00007 suncat0165 pw.x -in pw.inp   Done                     01/01/2019 16:16:13
00008 suncat0164 pw.x -in pw.inp   Done                     01/01/2019 16:16:13
00009 suncat0164 pw.x -in pw.inp   Done                     01/01/2019 16:16:13
00010 suncat0164 pw.x -in pw.inp   Done                     01/01/2019 16:16:13
00011 suncat0164 pw.x -in pw.inp   Done                     01/01/2019 16:16:13
00012 suncat0164 pw.x -in pw.inp   Done                     01/01/2019 16:16:13
00013 suncat0164 pw.x -in pw.inp   Done                     01/01/2019 16:16:13
00014 suncat0164 pw.x -in pw.inp   Done                     01/01/2019 16:16:13
00015 suncat0164 pw.x -in pw.inp   Done                     01/01/2019 16:16:13
00016 suncat0159 pw.x -in pw.inp   Done                     01/01/2019 16:16:13
00017 suncat0159 pw.x -in pw.inp   Done                     01/01/2019 16:16:13
00018 suncat0159 pw.x -in pw.inp   Done                     01/01/2019 16:16:13
00019 suncat0159 pw.x -in pw.inp   Done                     01/01/2019 16:16:13
00020 suncat0159 pw.x -in pw.inp   Done                     01/01/2019 16:16:13
00021 suncat0159 pw.x -in pw.inp   Done                     01/01/2019 16:16:13
00022 suncat0159 pw.x -in pw.inp   Done                     01/01/2019 16:16:13
00023 suncat0159 pw.x -in pw.inp   Done                     01/01/2019 16:16:13
00024 suncat0155 pw.x -in pw.inp   Done                     01/01/2019 16:16:13
00025 suncat0155 pw.x -in pw.inp   Done                     01/01/2019 16:16:13
00026 suncat0155 pw.x -in pw.inp   Done                     01/01/2019 16:16:13
00027 suncat0155 pw.x -in pw.inp   Done                     01/01/2019 16:16:13
00028 suncat0155 pw.x -in pw.inp   Done                     01/01/2019 16:16:13
00029 suncat0155 pw.x -in pw.inp   Done                     01/01/2019 16:16:13
00030 suncat0155 pw.x -in pw.inp   Done                     01/01/2019 16:16:13
00031 suncat0155 pw.x -in pw.inp   Done                     01/01/2019 16:16:13
00032 suncat0106 pw.x -in pw.inp   Done                     01/01/2019 16:16:13
00033 suncat0106 pw.x -in pw.inp   Done                     01/01/2019 16:16:13
00034 suncat0106 pw.x -in pw.inp   Done                     01/01/2019 16:16:13
00035 suncat0106 pw.x -in pw.inp   Done                     01/01/2019 16:16:13
00036 suncat0106 pw.x -in pw.inp   Done                     01/01/2019 16:16:13
00037 suncat0106 pw.x -in pw.inp   Done                     01/01/2019 16:16:13
00038 suncat0106 pw.x -in pw.inp   Done                     01/01/2019 16:16:13
00039 suncat0106 pw.x -in pw.inp   Done                     01/01/2019 16:16:13
00040 suncat0105 pw.x -in pw.inp   Done                     01/01/2019 16:16:13
00041 suncat0105 pw.x -in pw.inp   Done                     01/01/2019 16:16:13
00042 suncat0105 pw.x -in pw.inp   Done                     01/01/2019 16:16:13
00043 suncat0105 pw.x -in pw.inp   Done                     01/01/2019 16:16:13
00044 suncat0105 pw.x -in pw.inp   Done                     01/01/2019 16:16:13
00045 suncat0105 pw.x -in pw.inp   Done                     01/01/2019 16:16:13
00046 suncat0105 pw.x -in pw.inp   Done                     01/01/2019 16:16:13
00047 suncat0105 pw.x -in pw.inp   Done                     01/01/2019 16:16:13
00048 suncat0277 pw.x -in pw.inp   Done                     01/01/2019 16:16:13
00049 suncat0277 pw.x -in pw.inp   Done                     01/01/2019 16:16:13
00050 suncat0277 pw.x -in pw.inp   Done                     01/01/2019 16:16:13
00051 suncat0277 pw.x -in pw.inp   Done                     01/01/2019 16:16:13
00052 suncat0277 pw.x -in pw.inp   Done                     01/01/2019 16:16:13
00053 suncat0277 pw.x -in pw.inp   Done                     01/01/2019 16:16:13
00054 suncat0277 pw.x -in pw.inp   Done                     01/01/2019 16:16:13
00055 suncat0277 pw.x -in pw.inp   Done                     01/01/2019 16:16:13
00056 suncat0276 pw.x -in pw.inp   Done                     01/01/2019 16:16:13
00057 suncat0276 pw.x -in pw.inp   Done                     01/01/2019 16:16:13
00058 suncat0276 pw.x -in pw.inp   Done                     01/01/2019 16:16:13
00059 suncat0276 pw.x -in pw.inp   Done                     01/01/2019 16:16:13
00060 suncat0276 pw.x -in pw.inp   Done                     01/01/2019 16:16:13
00061 suncat0276 pw.x -in pw.inp   Done                     01/01/2019 16:16:13
00062 suncat0276 pw.x -in pw.inp   Done                     01/01/2019 16:16:13
00063 suncat0276 pw.x -in pw.inp   Done                     01/01/2019 16:16:13