     Program PWSCF v.5.1rc2 (svn rev. 11289) starts on 28Dec2018 at  3:50:59

     Current dimensions of program PWSCF are:
     Max number of different atomic species (ntypx) = 10
     Max number of k-points (npk) =  40000
     Max angular momentum in pseudopotentials (lmaxx) =  3
     Presently stress not available with electric field

     IMPORTANT: XC functional enforced from input :
     Exchange-correlation      = BEEF-VDW ( 1  4 27 13 2)
     Any further DFT definition will be discarded
     Please, verify this is what you really want

     Subspace diagonalization in iterative solution of the eigenvalue problem:
     a serial algorithm will be used

     bravais-lattice index     =            0
     lattice parameter (alat)  =       1.8897  a.u.
     unit-cell volume          =    4829.4519 (a.u.)^3
     number of atoms/cell      =           12
     number of atomic types    =            2
     number of electrons       =       216.00
     number of Kohn-Sham states=          138
     kinetic-energy cutoff     =      36.7493  Ry
     charge density cutoff     =     367.4932  Ry
     convergence threshold     =      1.0E-06
     mixing beta               =       0.1000
     number of iterations used =           10  plain     mixing
     Exchange-correlation      = BEEF-VDW ( 1  4 27 13 2)
     nstep                     =           50

     celldm(1)=   1.889726  celldm(2)=   0.000000  celldm(3)=   0.000000
     celldm(4)=   0.000000  celldm(5)=   0.000000  celldm(6)=   0.000000

     crystal axes: (cart. coord. in units of alat)
               a(1) = (   5.781688   0.000000   0.000000 )
               a(2) = (  -2.890844   5.007089   0.000000 )
               a(3) = (   0.000000   0.000000  24.720729 )

     reciprocal axes: (cart. coord. in units 2 pi/alat)
               b(1) = (  0.172960  0.099858  0.000000 )
               b(2) = (  0.000000  0.199717  0.000000 )
               b(3) = (  0.000000  0.000000  0.040452 )

     PseudoPot. # 1 for Zn read from file:
     /afs/slac.stanford.edu/u/if/mamunm/psp/gbrv1.5pbe/Zn.UPF
     MD5 check sum: df62231357ef9e81f77b2b3087fa5675
     Pseudo is Ultrasoft, Zval = 20.0
     Generated by new atomic code, or converted to UPF format
     Using radial grid of  943 points,  6 beta functions with:
                l(1) =   0
                l(2) =   0
                l(3) =   1
                l(4) =   1
                l(5) =   2
                l(6) =   2
     Q(r) pseudized with  8 coefficients,  rinner =    1.100   1.100   1.100
                                                       1.100   1.100

     PseudoPot. # 2 for Zr read from file:
     /afs/slac.stanford.edu/u/if/mamunm/psp/gbrv1.5pbe/Zr.UPF
     MD5 check sum: 5db81b1e868ab7776c4564c113de050b
     Pseudo is Ultrasoft + core correction, Zval = 12.0
     Generated by new atomic code, or converted to UPF format
     Using radial grid of  887 points,  6 beta functions with:
                l(1) =   0
                l(2) =   0
                l(3) =   1
                l(4) =   1
                l(5) =   2
                l(6) =   2
     Q(r) pseudized with  6 coefficients,  rinner =    1.200   1.200   1.200
                                                       1.200   1.200

     vdW kernel table read from file vdW_kernel_table
     MD5 check sum: 095c7af220d748ca6e76c0b4c6cfb241

     atomic species   valence    mass     pseudopotential
        Zn1           20.00    65.38000     Zn( 1.00)
        Zr1           12.00    91.22400     Zr( 1.00)

     No symmetry found

   Cartesian axes

     site n.     atom                  positions (alat units)
         1           Zn1 tau(   1) = (   0.0000000   0.0000000  10.0000000  )
         2           Zn1 tau(   2) = (  -1.4454221   2.5035444  10.0000000  )
         3           Zn1 tau(   3) = (   1.4454221   2.5035444  10.0000000  )
         4           Zr1 tau(   4) = (   2.8908441   0.0000000  10.0000000  )
         5           Zn1 tau(   5) = (   2.8908441   1.6690296  12.3603643  )
         6           Zn1 tau(   6) = (   1.4454221   4.1725741  12.3603643  )
         7           Zn1 tau(   7) = (  -1.4454221   4.1725741  12.3603643  )
         8           Zr1 tau(   8) = (   0.0000000   1.6690296  12.3603643  )
         9           Zn1 tau(   9) = (  -0.0000000   3.3380593  14.7207287  )
        10           Zn1 tau(  10) = (   1.4454221   0.8345148  14.7207287  )
        11           Zn1 tau(  11) = (   4.3362662   0.8345148  14.7207287  )
        12           Zr1 tau(  12) = (   2.8908441   3.3380593  14.7207287  )

     number of k points=    20  Fermi-Dirac smearing, width (Ry)=  0.0110
                       cart. coord. in units 2pi/alat
        k(    1) = (   0.0000000   0.0000000   0.0000000), wk =   0.0555556
        k(    2) = (   0.0000000   0.0332861   0.0000000), wk =   0.1111111
        k(    3) = (   0.0000000   0.0665723   0.0000000), wk =   0.1111111
        k(    4) = (   0.0000000  -0.0998584   0.0000000), wk =   0.0555556
        k(    5) = (   0.0288266   0.0166431   0.0000000), wk =   0.1111111
        k(    6) = (   0.0288266   0.0499292   0.0000000), wk =   0.1111111
        k(    7) = (   0.0288266   0.0832154   0.0000000), wk =   0.1111111
        k(    8) = (   0.0288266  -0.0832154   0.0000000), wk =   0.1111111
        k(    9) = (   0.0288266  -0.0499292   0.0000000), wk =   0.1111111
        k(   10) = (   0.0288266  -0.0166431   0.0000000), wk =   0.1111111
        k(   11) = (   0.0576533   0.0332861   0.0000000), wk =   0.1111111
        k(   12) = (   0.0576533   0.0665723   0.0000000), wk =   0.1111111
        k(   13) = (   0.0576533   0.0998584   0.0000000), wk =   0.1111111
        k(   14) = (   0.0576533  -0.0665723   0.0000000), wk =   0.1111111
        k(   15) = (   0.0576533  -0.0332861   0.0000000), wk =   0.1111111
        k(   16) = (   0.0576533   0.0000000   0.0000000), wk =   0.1111111
        k(   17) = (  -0.0864799  -0.0499292   0.0000000), wk =   0.0555556
        k(   18) = (  -0.0864799  -0.0166431   0.0000000), wk =   0.1111111
        k(   19) = (  -0.0864799   0.0166431   0.0000000), wk =   0.1111111
        k(   20) = (  -0.0864799  -0.1497876   0.0000000), wk =   0.0555556

     Largest allocated arrays     est. size (Mb)     dimensions
     Largest temporary arrays     est. size (Mb)     dimensions

     Initial potential from superposition of free atoms
     Check: negative starting charge=   -0.181847

     starting charge  215.99228, renormalised to  216.00000

     negative rho (up, down):  1.819E-01 0.000E+00

     *
     * You are using vdW-DF for exchange-correlation in this calculation.
     * Please cite the following three references that made this development
     * possible:
     *
     *   M. Dion, H. Rydberg, E. Schroder, D. C. Langreth, and
     *   B. I. Lundqvist, Phys. Rev. Lett. 92, 246401 (2004).
     *
     *   T. Thonhauser, V. R. Cooper, S. Li, A. Puzder, P. Hyldgaard, and
     *   D. C. Langreth, Phys. Rev. B 76, 125112 (2007).
     *
     *   G. Roman-Perez and J. M. Soler, Phys. Rev. Lett. 103, 096102 (2009).
     *
     *
     * If you are using vdW-DF2, please also cite:
     *
     *   K. Lee, E. D. Murray, L. Kong, B. I. Lundqvist, and
     *   D. C. Langreth, Phys. Rev. B 82, 081101(R) (2010).
     *
     *
     * If you are calculating the stress with vdW-DF, please also cite:
     *
     *   R. Sabatini, E. Kucukbenli, B. Kolb, T. Thonhauser, and
     *   S. de Gironcoli, J. Phys.: Condens. Matter 24, 424209 (2012).
     *

     Carrying out vdW-DF run using the following parameters:

     Nqs =      20    Nr_points =    1024   r_max =   100.000
     q_mesh =
               0.00001000     0.04494208     0.09755937     0.15916263
               0.23128650     0.31572767     0.41458969     0.53033537
               0.66584808     0.82450364     1.01025438     1.22772762
               1.48234092     1.78043706     2.12944203     2.53805004
               3.01644009     3.57652955     4.23227104     5.00000000

     Gradients computed in reciprocal space

     Adding external electric field

     Computed dipole along edir(3) :
        Dipole               -0.0000 Ry au,         -0.0000 Debye
        Dipole field         -0.0000 Ry au

        Potential amp.        0.0000 Ry
        Total length         45.5475 bohr

     Starting wfc are  156 randomized atomic wfcs

     Self-consistent Calculation

     iteration #  1     ecut=    36.75 Ry     beta=0.10
     Davidson diagonalization with overlap
     ethr =  1.00E-02,  avg # of iterations =  5.8

     Threshold (ethr) on eigenvalues was too large:
     Diagonalizing with lowered threshold

     Davidson diagonalization with overlap
     ethr =  5.81E-04,  avg # of iterations =  5.0

[...]

     total energy              =   -4464.25755977 Ry
     Harris-Foulkes estimate   =   -4464.46049962 Ry
     estimated scf accuracy    <       1.28014612 Ry

[...]

     End of self-consistent calculation

          k = 0.0000 0.0000 0.0000 ( 18151 PWs)   bands (ev):

  -125.2370-125.2370-125.2364-125.2364-125.2364-125.2364-125.1552-125.1547
  -125.1544 -79.4211 -79.4210 -79.4204 -79.4204 -79.4202 -79.4202 -79.4102
   -79.4100 -79.4071 -79.4071 -79.4070 -79.4070 -79.4030 -79.4030 -79.4012
   -79.4012 -79.4011 -79.4011 -79.3395 -79.3393 -79.3387 -79.3360 -79.3340
   -79.3337 -79.3080 -79.3041 -79.3038 -48.4451 -48.4422 -48.4409 -26.5443
   -26.5432 -26.4935 -26.3973 -26.3973 -26.3582 -26.3582 -26.3529 -26.3529
    -7.1397  -6.6043  -6.6032  -6.5584  -6.5448  -6.5448  -6.5188  -6.4999
    -6.4998  -6.4744  -6.4622  -6.4622  -6.4605  -6.4605  -6.4192  -6.3264
    -6.2444  -6.2444  -6.2251  -6.2250  -6.1580  -6.1168  -6.0858  -6.0696
    -6.0696  -6.0689  -6.0689  -6.0312  -6.0310  -6.0011  -5.9705  -5.9703
    -5.9612  -5.9612  -5.9528  -5.9528  -5.8627  -5.8625  -5.7823  -5.7822
    -5.7655  -5.7115  -5.7097  -5.7096  -5.7061  -5.6302  -5.3144  -3.2398
    -1.8405  -1.8404  -1.3120  -1.3120  -0.8351  -0.6754  -0.6754  -0.3714
     0.1914   0.4852   0.4852   0.6536   1.3683   1.6698   1.6698   1.8023
     1.8023   2.1464   2.1464   2.6789   2.6789   2.8538   3.0780   3.6842
     3.6842   4.1899   4.3942   4.9619   5.1361   5.1361   5.1526   5.1526
     5.5421   5.5925   5.9586   6.0999   6.2048   6.2048   6.5954   7.6107
     7.6107   7.6431

[...]

          k =-0.0865-0.0499 0.0000 ( 18156 PWs)   bands (ev):

[...]

     the Fermi energy is     1.0039 ev

!    total energy              =   -4464.24507607 Ry
     Harris-Foulkes estimate   =   -4464.24507387 Ry
     estimated scf accuracy    <       0.00000072 Ry

     The total energy is the sum of the following terms:

     one-electron contribution =  -26808.43705134 Ry
     hartree contribution      =   13391.27494677 Ry
     xc contribution           =    -445.82922497 Ry
     ewald contribution        =    9398.80314882 Ry
     electric field correction =       0.00000000 Ry
     smearing contrib. (-TS)   =      -0.05689536 Ry

     convergence has been achieved in  14 iterations

 BEEF-vdW xc energy contributions
           1 :   -394.011722696566
           2 :    357.134256985244
           3 :   -295.140977471969
[...]
                l(4) =   1
                l(5) =   2
                l(6) =   2
     Q(r) pseudized with  8 coefficients,  rinner =    1.100   1.100   1.100
                                                       1.100   1.100

     PseudoPot. # 2 for Zr read from file:
     /afs/slac.stanford.edu/u/if/mamunm/psp/gbrv1.5pbe/Zr.UPF
     MD5 check sum: 5db81b1e868ab7776c4564c113de050b
     Pseudo is Ultrasoft + core correction, Zval = 12.0
     Generated by new atomic code, or converted to UPF format
     Using radial grid of  887 points,  6 beta functions with:
                l(1) =   0
                l(2) =   0
                l(3) =   1
                l(4) =   1
                l(5) =   2
                l(6) =   2
     Q(r) pseudized with  6 coefficients,  rinner =    1.200   1.200   1.200
                                                       1.200   1.200

     vdW kernel table read from file vdW_kernel_table
     MD5 check sum: 095c7af220d748ca6e76c0b4c6cfb241

     atomic species   valence    mass     pseudopotential
        Zn1           20.00    65.38000     Zn( 1.00)
        Zr1           12.00    91.22400     Zr( 1.00)

     No symmetry found

   Cartesian axes

     site n.     atom                  positions (alat units)
         1           Zn1 tau(   1) = (   0.0000000   0.0000000  10.0000000  )
         2           Zn1 tau(   2) = (  -1.4454221   2.5035444  10.0000000  )
         3           Zn1 tau(   3) = (   1.4454221   2.5035444  10.0000000  )
         4           Zr1 tau(   4) = (   2.8908441   0.0000000  10.0000000  )
         5           Zn1 tau(   5) = (   2.8908441   1.6690296  12.3603643  )
         6           Zn1 tau(   6) = (   1.4454221   4.1725741  12.3603643  )
         7           Zn1 tau(   7) = (  -1.4454221   4.1725741  12.3603643  )
         8           Zr1 tau(   8) = (   0.0000000   1.6690296  12.3603643  )
         9           Zn1 tau(   9) = (   0.0000050   3.4124761  14.6972506  )
        10           Zn1 tau(  10) = (   1.5098740   0.7973033  14.6972521  )
        11           Zn1 tau(  11) = (   4.2718480   0.7973258  14.6972831  )
        12           Zr1 tau(  12) = (   2.8906362   3.3379959  14.7021474  )

     number of k points=    20  Fermi-Dirac smearing, width (Ry)=  0.0110
                       cart. coord. in units 2pi/alat
        k(    1) = (   0.0000000   0.0000000   0.0000000), wk =   0.0555556
        k(    2) = (   0.0000000   0.0332861   0.0000000), wk =   0.1111111
        k(    3) = (   0.0000000   0.0665723   0.0000000), wk =   0.1111111
        k(    4) = (   0.0000000  -0.0998584   0.0000000), wk =   0.0555556
        k(    5) = (   0.0288266   0.0166431   0.0000000), wk =   0.1111111
        k(    6) = (   0.0288266   0.0499292   0.0000000), wk =   0.1111111
        k(    7) = (   0.0288266   0.0832154   0.0000000), wk =   0.1111111
        k(    8) = (   0.0288266  -0.0832154   0.0000000), wk =   0.1111111
        k(    9) = (   0.0288266  -0.0499292   0.0000000), wk =   0.1111111
        k(   10) = (   0.0288266  -0.0166431   0.0000000), wk =   0.1111111
        k(   11) = (   0.0576533   0.0332861   0.0000000), wk =   0.1111111
        k(   12) = (   0.0576533   0.0665723   0.0000000), wk =   0.1111111
        k(   13) = (   0.0576533   0.0998584   0.0000000), wk =   0.1111111
        k(   14) = (   0.0576533  -0.0665723   0.0000000), wk =   0.1111111
        k(   15) = (   0.0576533  -0.0332861   0.0000000), wk =   0.1111111
        k(   16) = (   0.0576533   0.0000000   0.0000000), wk =   0.1111111
        k(   17) = (  -0.0864799  -0.0499292   0.0000000), wk =   0.0555556
        k(   18) = (  -0.0864799  -0.0166431   0.0000000), wk =   0.1111111
        k(   19) = (  -0.0864799   0.0166431   0.0000000), wk =   0.1111111
        k(   20) = (  -0.0864799  -0.1497876   0.0000000), wk =   0.0555556

     Largest allocated arrays     est. size (Mb)     dimensions
     Largest temporary arrays     est. size (Mb)     dimensions

     Initial potential from superposition of free atoms
     Check: negative starting charge=   -0.181954

     starting charge  215.99228, renormalised to  216.00000

[...]

     *
     * You are using vdW-DF for exchange-correlation in this calculation.
     * Please cite the following three references that made this development
     * possible:
     *
     *   M. Dion, H. Rydberg, E. Schroder, D. C. Langreth, and
     *   B. I. Lundqvist, Phys. Rev. Lett. 92, 246401 (2004).
     *
     *   T. Thonhauser, V. R. Cooper, S. Li, A. Puzder, P. Hyldgaard, and
     *   D. C. Langreth, Phys. Rev. B 76, 125112 (2007).
     *
     *   G. Roman-Perez and J. M. Soler, Phys. Rev. Lett. 103, 096102 (2009).
     *
     *
     * If you are using vdW-DF2, please also cite:
     *
     *   K. Lee, E. D. Murray, L. Kong, B. I. Lundqvist, and
     *   D. C. Langreth, Phys. Rev. B 82, 081101(R) (2010).
     *
     *
     * If you are calculating the stress with vdW-DF, please also cite:
     *
     *   R. Sabatini, E. Kucukbenli, B. Kolb, T. Thonhauser, and
     *   S. de Gironcoli, J. Phys.: Condens. Matter 24, 424209 (2012).
     *

     Carrying out vdW-DF run using the following parameters:

     Nqs =      20    Nr_points =    1024   r_max =   100.000
     q_mesh =
               0.00001000     0.04494208     0.09755937     0.15916263
               0.23128650     0.31572767     0.41458969     0.53033537
               0.66584808     0.82450364     1.01025438     1.22772762
               1.48234092     1.78043706     2.12944203     2.53805004
               3.01644009     3.57652955     4.23227104     5.00000000

     Gradients computed in reciprocal space

[...]

     Starting wfc are  156 randomized atomic wfcs

     Self-consistent Calculation

[...]

     Threshold (ethr) on eigenvalues was too large:
     Diagonalizing with lowered threshold

     Davidson diagonalization with overlap
     ethr =  5.81E-04,  avg # of iterations =  5.7

[...]

     total energy              =   -4464.26410115 Ry
     Harris-Foulkes estimate   =   -4464.26410077 Ry
     estimated scf accuracy    <       0.00000163 Ry

     iteration # 14     ecut=    36.75 Ry     beta=0.10
     Davidson diagonalization with overlap
     ethr =  7.56E-10,  avg # of iterations =  2.0

[...]

     negative rho (up, down):  1.843E-01 0.000E+00

     Adding external electric field

     Computed dipole along edir(3) :
        Dipole                0.0111 Ry au,          0.0281 Debye
        Dipole field          0.0000 Ry au

        Potential amp.       -0.0026 Ry
        Total length         45.5475 bohr

     End of self-consistent calculation

[...]

          k = 0.0577 0.0000 0.0000 ( 18181 PWs)   bands (ev):

[...]

          k =-0.0865-0.1498 0.0000 ( 18156 PWs)   bands (ev):

  -125.2298-125.2293-125.2292-125.2177-125.2175-125.2173-125.1461-125.1459
  -125.1458 -79.4137 -79.4128 -79.4126 -79.4032 -79.4019 -79.4016 -79.4014
   -79.3994 -79.3984 -79.3958 -79.3953 -79.3941 -79.3893 -79.3861 -79.3858
   -79.3856 -79.3854 -79.3828 -79.3297 -79.3276 -79.3275 -79.3272 -79.3271
   -79.3254 -79.2974 -79.2961 -79.2947 -48.4258 -48.4228 -48.4202 -26.5307
   -26.5209 -26.4758 -26.3817 -26.3770 -26.3413 -26.3380 -26.3368 -26.3316
    -6.5360  -6.5004  -6.4441  -6.4021  -6.3929  -6.3764  -6.3605  -6.3372
    -6.3317  -6.3052  -6.3037  -6.2795  -6.2730  -6.2694  -6.2247  -6.2112
    -6.2087  -6.1960  -6.1667  -6.1521  -6.1360  -6.1258  -6.1216  -6.1054
    -6.0996  -6.0936  -6.0553  -6.0298  -5.9984  -5.9984  -5.9848  -5.9753
    -5.9667  -5.9580  -5.9551  -5.9537  -5.9476  -5.9470  -5.9430  -5.9308
    -5.8943  -5.8379  -5.7663  -5.7472  -5.6582  -5.4080  -5.2710  -4.1856
    -3.6606  -2.7502  -2.1988  -1.8726  -1.2933  -1.2154  -0.6299   0.1440
     0.4007   0.6495   0.7048   0.7234   0.9629   1.0437   1.4437   1.6809
     2.0046   2.3091   3.0364   3.3788   3.6637   3.7576   4.0189   4.0582
     4.1207   4.4989   4.7717   5.1748   5.3318   5.3918   5.6774   5.8543
     5.8584   6.0152   6.2942   6.3219   6.4377   6.5201   6.7433   6.8978
     7.1515   7.2520

     the Fermi energy is     1.0252 ev

!    total energy              =   -4464.26410303 Ry
     Harris-Foulkes estimate   =   -4464.26410158 Ry
     estimated scf accuracy    <       0.00000074 Ry

     The total energy is the sum of the following terms:

     one-electron contribution =  -26891.38662918 Ry
     hartree contribution      =   13432.82692385 Ry
     xc contribution           =    -445.86093509 Ry
     ewald contribution        =    9440.21289133 Ry
     electric field correction =       0.00000032 Ry
     smearing contrib. (-TS)   =      -0.05635426 Ry

     convergence has been achieved in  14 iterations

 BEEF-vdW xc energy contributions
           1 :   -394.502093721915
           2 :    357.638164324600
           3 :   -295.661191054544
           4 :    226.366213000623
           5 :   -165.648138776761
           6 :    121.607504425300
           7 :   -93.3721371481863
           8 :    74.4226292802914
           9 :   -57.8621276107571
          10 :    40.4159367195767
          11 :   -23.1985252152998
          12 :    9.50142944656886
          13 :   -1.63128853579042
          14 :  -0.931864425850335
          15 :    1.04136827768377
          16 :   -1.78662535292619
          17 :    4.50004091038653
          18 :   -8.25174999625415
          19 :    10.9818937546667
          20 :   -11.2575369613303
          21 :    9.32958634732472
          22 :   -6.82750989725969
          23 :    5.47739662454285
          24 :   -5.88500885504402
          25 :    7.25733066647757
          26 :   -8.16294660427002
          27 :    7.66630105519590
          28 :   -5.97144219274423
          29 :    4.15574603708887
          30 :   -3.28507649699486
          31 :   -32.2656579752290
          32 :   -22.3612830966721

     Forces acting on atoms (Ry/au):

     negative rho (up, down):  1.843E-01 0.000E+00
     atom    1 type  1   force =    -0.00000054   -0.01156777    0.00095132
     atom    2 type  1   force =    -0.01001841    0.00578327    0.00095107
     atom    3 type  1   force =     0.01001740    0.00578378    0.00095168
     atom    4 type  2   force =    -0.00000159   -0.00000052    0.00409372
     atom    5 type  1   force =     0.00000023    0.00051403   -0.00290295
     atom    6 type  1   force =     0.00044268   -0.00025595   -0.00290490
     atom    7 type  1   force =    -0.00045183   -0.00026095   -0.00289510
     atom    8 type  2   force =     0.00000530    0.00000136    0.00610119
     atom    9 type  1   force =    -0.00003188    0.00119642   -0.00101125
     atom   10 type  1   force =     0.00102320   -0.00061803   -0.00101076
     atom   11 type  1   force =    -0.00104252   -0.00059341   -0.00101310
     atom   12 type  2   force =     0.00005794    0.00001777   -0.00131092

     Total force =     0.022210     Total SCF correction =     0.001276

     entering subroutine stress ...

     negative rho (up, down):  1.843E-01 0.000E+00
          total   stress  (Ry/bohr**3)                   (kbar)     P=  -11.28
  -0.00008796  -0.00000001   0.00000001        -12.94     -0.00      0.00
  -0.00000001  -0.00008796   0.00000000         -0.00    -12.94      0.00
   0.00000001   0.00000000  -0.00005417          0.00      0.00     -7.97

 !ASE

     Writing output data file calc.save

     General routines

     Parallel routines

   This run was terminated on:   5: 2:20  28Dec2018

   JOB DONE.
Job  /afs/slac/g/suncat/bin/suncat-tsmpirun -x LD_LIBRARY_PATH -wdir /scratch/qe111519_kn4zA pw.x -in pw.inp

TID   HOST_NAME   COMMAND_LINE            STATUS            TERMINATION_TIME
00000 suncat0274 pw.x -in pw.inp   Done                     12/28/2018 05:02:20
00001 suncat0274 pw.x -in pw.inp   Done                     12/28/2018 05:02:20
00002 suncat0274 pw.x -in pw.inp   Done                     12/28/2018 05:02:20
00003 suncat0274 pw.x -in pw.inp   Done                     12/28/2018 05:02:20
00004 suncat0274 pw.x -in pw.inp   Done                     12/28/2018 05:02:20
00005 suncat0274 pw.x -in pw.inp   Done                     12/28/2018 05:02:20
00006 suncat0274 pw.x -in pw.inp   Done                     12/28/2018 05:02:20
00007 suncat0274 pw.x -in pw.inp   Done                     12/28/2018 05:02:20
00008 suncat0273 pw.x -in pw.inp   Done                     12/28/2018 05:02:20
00009 suncat0273 pw.x -in pw.inp   Done                     12/28/2018 05:02:20
00010 suncat0273 pw.x -in pw.inp   Done                     12/28/2018 05:02:20
00011 suncat0273 pw.x -in pw.inp   Done                     12/28/2018 05:02:20
00012 suncat0273 pw.x -in pw.inp   Done                     12/28/2018 05:02:20
00013 suncat0273 pw.x -in pw.inp   Done                     12/28/2018 05:02:20
00014 suncat0273 pw.x -in pw.inp   Done                     12/28/2018 05:02:20
00015 suncat0273 pw.x -in pw.inp   Done                     12/28/2018 05:02:20
00016 suncat0230 pw.x -in pw.inp   Done                     12/28/2018 05:02:20
00017 suncat0230 pw.x -in pw.inp   Done                     12/28/2018 05:02:20
00018 suncat0230 pw.x -in pw.inp   Done                     12/28/2018 05:02:20
00019 suncat0230 pw.x -in pw.inp   Done                     12/28/2018 05:02:20
00020 suncat0230 pw.x -in pw.inp   Done                     12/28/2018 05:02:20
00021 suncat0230 pw.x -in pw.inp   Done                     12/28/2018 05:02:20
00022 suncat0230 pw.x -in pw.inp   Done                     12/28/2018 05:02:20
00023 suncat0230 pw.x -in pw.inp   Done                     12/28/2018 05:02:20
00024 suncat0229 pw.x -in pw.inp   Done                     12/28/2018 05:02:20
00025 suncat0229 pw.x -in pw.inp   Done                     12/28/2018 05:02:20
00026 suncat0229 pw.x -in pw.inp   Done                     12/28/2018 05:02:20
00027 suncat0229 pw.x -in pw.inp   Done                     12/28/2018 05:02:20
00028 suncat0229 pw.x -in pw.inp   Done                     12/28/2018 05:02:20
00029 suncat0229 pw.x -in pw.inp   Done                     12/28/2018 05:02:20
00030 suncat0229 pw.x -in pw.inp   Done                     12/28/2018 05:02:20
00031 suncat0229 pw.x -in pw.inp   Done                     12/28/2018 05:02:20
00032 suncat0209 pw.x -in pw.inp   Done                     12/28/2018 05:02:20
00033 suncat0209 pw.x -in pw.inp   Done                     12/28/2018 05:02:20
00034 suncat0209 pw.x -in pw.inp   Done                     12/28/2018 05:02:20
00035 suncat0209 pw.x -in pw.inp   Done                     12/28/2018 05:02:20
00036 suncat0209 pw.x -in pw.inp   Done                     12/28/2018 05:02:20
00037 suncat0209 pw.x -in pw.inp   Done                     12/28/2018 05:02:20
00038 suncat0209 pw.x -in pw.inp   Done                     12/28/2018 05:02:20
00039 suncat0209 pw.x -in pw.inp   Done                     12/28/2018 05:02:20
00040 suncat0205 pw.x -in pw.inp   Done                     12/28/2018 05:02:20
00041 suncat0205 pw.x -in pw.inp   Done                     12/28/2018 05:02:20
00042 suncat0205 pw.x -in pw.inp   Done                     12/28/2018 05:02:20
00043 suncat0205 pw.x -in pw.inp   Done                     12/28/2018 05:02:20
00044 suncat0205 pw.x -in pw.inp   Done                     12/28/2018 05:02:20
00045 suncat0205 pw.x -in pw.inp   Done                     12/28/2018 05:02:20
00046 suncat0205 pw.x -in pw.inp   Done                     12/28/2018 05:02:20
00047 suncat0205 pw.x -in pw.inp   Done                     12/28/2018 05:02:20
00048 suncat0204 pw.x -in pw.inp   Done                     12/28/2018 05:02:20
00049 suncat0204 pw.x -in pw.inp   Done                     12/28/2018 05:02:20
00050 suncat0204 pw.x -in pw.inp   Done                     12/28/2018 05:02:20
00051 suncat0204 pw.x -in pw.inp   Done                     12/28/2018 05:02:20
00052 suncat0204 pw.x -in pw.inp   Done                     12/28/2018 05:02:20
00053 suncat0204 pw.x -in pw.inp   Done                     12/28/2018 05:02:20
00054 suncat0204 pw.x -in pw.inp   Done                     12/28/2018 05:02:20
00055 suncat0204 pw.x -in pw.inp   Done                     12/28/2018 05:02:20
00056 suncat0203 pw.x -in pw.inp   Done                     12/28/2018 05:02:20
00057 suncat0203 pw.x -in pw.inp   Done                     12/28/2018 05:02:20
00058 suncat0203 pw.x -in pw.inp   Done                     12/28/2018 05:02:20
00059 suncat0203 pw.x -in pw.inp   Done                     12/28/2018 05:02:20
00060 suncat0203 pw.x -in pw.inp   Done                     12/28/2018 05:02:20
00061 suncat0203 pw.x -in pw.inp   Done                     12/28/2018 05:02:20
00062 suncat0203 pw.x -in pw.inp   Done                     12/28/2018 05:02:20
00063 suncat0203 pw.x -in pw.inp   Done                     12/28/2018 05:02:20