     Program PWSCF v.5.1rc2 (svn rev. 11289) starts on  1Jan2019 at 22:45:10

     Current dimensions of program PWSCF are:
     Max number of different atomic species (ntypx) = 10
     Max number of k-points (npk) =  40000
     Max angular momentum in pseudopotentials (lmaxx) =  3
     Presently stress not available with electric field

     IMPORTANT: XC functional enforced from input :
     Exchange-correlation      = BEEF-VDW ( 1  4 27 13 2)
     Any further DFT definition will be discarded
     Please, verify this is what you really want

     Subspace diagonalization in iterative solution of the eigenvalue problem:
     a serial algorithm will be used

     Generating pointlists ...
     new r_m :   0.4125 (alat units)  0.7795 (a.u.) for type    1
     new r_m :   0.4125 (alat units)  0.7795 (a.u.) for type    2

     bravais-lattice index     =            0
     lattice parameter (alat)  =       1.8897  a.u.
     unit-cell volume          =    4478.6077 (a.u.)^3
     number of atoms/cell      =           12
     number of atomic types    =            2
     number of electrons       =       162.00
     number of Kohn-Sham states=          111
     kinetic-energy cutoff     =      36.7493  Ry
     charge density cutoff     =     367.4932  Ry
     convergence threshold     =      1.0E-06
     mixing beta               =       0.1000
     number of iterations used =           10  plain     mixing
     Exchange-correlation      = BEEF-VDW ( 1  4 27 13 2)
     nstep                     =           50

     celldm(1)=   1.889726  celldm(2)=   0.000000  celldm(3)=   0.000000
     celldm(4)=   0.000000  celldm(5)=   0.000000  celldm(6)=   0.000000

     crystal axes: (cart. coord. in units of alat)
               a(1) = (   5.585816   0.000000   0.000000 )
               a(2) = (  -2.792908   4.837459   0.000000 )
               a(3) = (   0.000000   0.000000  24.560800 )

     reciprocal axes: (cart. coord. in units 2 pi/alat)
               b(1) = (  0.179025  0.103360  0.000000 )
               b(2) = (  0.000000  0.206720  0.000000 )
               b(3) = (  0.000000  0.000000  0.040715 )

     PseudoPot. # 1 for Ti read from file:
     /afs/slac.stanford.edu/u/if/mamunm/psp/gbrv1.5pbe/Ti.UPF
     MD5 check sum: 88a00a6731bd790ddea75d31a80cb452
     Pseudo is Ultrasoft + core correction, Zval = 12.0
     Generated by new atomic code, or converted to UPF format
     Using radial grid of  851 points,  6 beta functions with:
                l(1) =   0
                l(2) =   0
                l(3) =   1
                l(4) =   1
                l(5) =   2
                l(6) =   2
     Q(r) pseudized with  6 coefficients,  rinner =    1.000   1.000   1.000
                                                       1.000   1.000

     PseudoPot. # 2 for Ni read from file:
     /afs/slac.stanford.edu/u/if/mamunm/psp/gbrv1.5pbe/Ni.UPF
     MD5 check sum: 1ee80287db30b12d2bc1f57a5b5d6409
     Pseudo is Ultrasoft + core correction, Zval = 18.0
     Generated by new atomic code, or converted to UPF format
     Using radial grid of  865 points,  6 beta functions with:
                l(1) =   0
                l(2) =   0
                l(3) =   1
                l(4) =   1
                l(5) =   2
                l(6) =   2
     Q(r) pseudized with 10 coefficients,  rinner =    0.980   0.980   0.980
                                                       0.980   0.980

     vdW kernel table read from file vdW_kernel_table
     MD5 check sum: 095c7af220d748ca6e76c0b4c6cfb241

     atomic species   valence    mass     pseudopotential
        Ti1           12.00    47.86700     Ti( 1.00)
        Ni1           18.00    58.69340     Ni( 1.00)

     Starting magnetic structure
     atomic species   magnetization
        Ti1          0.167
        Ni1          0.111

     No symmetry found

   Cartesian axes

     site n.     atom                  positions (alat units)
         1           Ti1 tau(   1) = (   0.0000000   0.0000000  10.0000000  )
         2           Ti1 tau(   2) = (  -1.3964541   2.4187294  10.0000000  )
         3           Ti1 tau(   3) = (   1.3964541   2.4187294  10.0000000  )
         4           Ni1 tau(   4) = (   2.7929081   0.0000000  10.0000000  )
         5           Ti1 tau(   5) = (   2.7929081   1.6124863  12.2803999  )
         6           Ti1 tau(   6) = (   1.3964541   4.0312156  12.2803999  )
         7           Ti1 tau(   7) = (  -1.3964541   4.0312156  12.2803999  )
         8           Ni1 tau(   8) = (   0.0000000   1.6124863  12.2803999  )
         9           Ti1 tau(   9) = (  -0.0000000   3.2249725  14.5607999  )
        10           Ti1 tau(  10) = (   1.3964541   0.8062431  14.5607999  )
        11           Ti1 tau(  11) = (   4.1893622   0.8062431  14.5607999  )
        12           Ni1 tau(  12) = (   2.7929081   3.2249725  14.5607999  )

     number of k points=    40  Fermi-Dirac smearing, width (Ry)=  0.0110
                       cart. coord. in units 2pi/alat
        k(    1) = (   0.0000000   0.0000000   0.0000000), wk =   0.0277778
        k(    2) = (   0.0000000   0.0344534   0.0000000), wk =   0.0555556
        k(    3) = (   0.0000000   0.0689067   0.0000000), wk =   0.0555556
        k(    4) = (   0.0000000  -0.1033601   0.0000000), wk =   0.0277778
        k(    5) = (   0.0298375   0.0172267   0.0000000), wk =   0.0555556
        k(    6) = (   0.0298375   0.0516800   0.0000000), wk =   0.0555556
        k(    7) = (   0.0298375   0.0861334   0.0000000), wk =   0.0555556
        k(    8) = (   0.0298375  -0.0861334   0.0000000), wk =   0.0555556
        k(    9) = (   0.0298375  -0.0516800   0.0000000), wk =   0.0555556
        k(   10) = (   0.0298375  -0.0172267   0.0000000), wk =   0.0555556
        k(   11) = (   0.0596750   0.0344534   0.0000000), wk =   0.0555556
        k(   12) = (   0.0596750   0.0689067   0.0000000), wk =   0.0555556
        k(   13) = (   0.0596750   0.1033601   0.0000000), wk =   0.0555556
        k(   14) = (   0.0596750  -0.0689067   0.0000000), wk =   0.0555556
        k(   15) = (   0.0596750  -0.0344534   0.0000000), wk =   0.0555556
        k(   16) = (   0.0596750  -0.0000000   0.0000000), wk =   0.0555556
        k(   17) = (  -0.0895124  -0.0516800   0.0000000), wk =   0.0277778
        k(   18) = (  -0.0895124  -0.0172267   0.0000000), wk =   0.0555556
        k(   19) = (  -0.0895124   0.0172267   0.0000000), wk =   0.0555556
        k(   20) = (  -0.0895124  -0.1550401   0.0000000), wk =   0.0277778
        k(   21) = (   0.0000000   0.0000000   0.0000000), wk =   0.0277778
        k(   22) = (   0.0000000   0.0344534   0.0000000), wk =   0.0555556
        k(   23) = (   0.0000000   0.0689067   0.0000000), wk =   0.0555556
        k(   24) = (   0.0000000  -0.1033601   0.0000000), wk =   0.0277778
        k(   25) = (   0.0298375   0.0172267   0.0000000), wk =   0.0555556
        k(   26) = (   0.0298375   0.0516800   0.0000000), wk =   0.0555556
        k(   27) = (   0.0298375   0.0861334   0.0000000), wk =   0.0555556
        k(   28) = (   0.0298375  -0.0861334   0.0000000), wk =   0.0555556
        k(   29) = (   0.0298375  -0.0516800   0.0000000), wk =   0.0555556
        k(   30) = (   0.0298375  -0.0172267   0.0000000), wk =   0.0555556
        k(   31) = (   0.0596750   0.0344534   0.0000000), wk =   0.0555556
        k(   32) = (   0.0596750   0.0689067   0.0000000), wk =   0.0555556
        k(   33) = (   0.0596750   0.1033601   0.0000000), wk =   0.0555556
        k(   34) = (   0.0596750  -0.0689067   0.0000000), wk =   0.0555556
        k(   35) = (   0.0596750  -0.0344534   0.0000000), wk =   0.0555556
        k(   36) = (   0.0596750  -0.0000000   0.0000000), wk =   0.0555556
        k(   37) = (  -0.0895124  -0.0516800   0.0000000), wk =   0.0277778
        k(   38) = (  -0.0895124  -0.0172267   0.0000000), wk =   0.0555556
        k(   39) = (  -0.0895124   0.0172267   0.0000000), wk =   0.0555556
        k(   40) = (  -0.0895124  -0.1550401   0.0000000), wk =   0.0277778

     Largest allocated arrays     est. size (Mb)     dimensions
     Largest temporary arrays     est. size (Mb)     dimensions

     Check: negative/imaginary core charge=   -0.000006    0.000000

     Initial potential from superposition of free atoms
     Check: negative starting charge=(component1):   -0.006044
     Check: negative starting charge=(component2):   -0.004325

     starting charge  146.99960, renormalised to  162.00000

     negative rho (up, down):  6.661E-03 4.766E-03

     *
     * You are using vdW-DF for exchange-correlation in this calculation.
     * Please cite the following three references that made this development
     * possible:
     *
     *   M. Dion, H. Rydberg, E. Schroder, D. C. Langreth, and
     *   B. I. Lundqvist, Phys. Rev. Lett. 92, 246401 (2004).
     *
     *   T. Thonhauser, V. R. Cooper, S. Li, A. Puzder, P. Hyldgaard, and
     *   D. C. Langreth, Phys. Rev. B 76, 125112 (2007).
     *
     *   G. Roman-Perez and J. M. Soler, Phys. Rev. Lett. 103, 096102 (2009).
     *
     *
     * If you are using vdW-DF2, please also cite:
     *
     *   K. Lee, E. D. Murray, L. Kong, B. I. Lundqvist, and
     *   D. C. Langreth, Phys. Rev. B 82, 081101(R) (2010).
     *
     *
     * If you are calculating the stress with vdW-DF, please also cite:
     *
     *   R. Sabatini, E. Kucukbenli, B. Kolb, T. Thonhauser, and
     *   S. de Gironcoli, J. Phys.: Condens. Matter 24, 424209 (2012).
     *

     Carrying out vdW-DF run using the following parameters:

     Nqs =      20    Nr_points =    1024   r_max =   100.000
     q_mesh =
               0.00001000     0.04494208     0.09755937     0.15916263
               0.23128650     0.31572767     0.41458969     0.53033537
               0.66584808     0.82450364     1.01025438     1.22772762
               1.48234092     1.78043706     2.12944203     2.53805004
               3.01644009     3.57652955     4.23227104     5.00000000

     Gradients computed in reciprocal space

     Adding external electric field

     Computed dipole along edir(3) :
        Dipole                0.0000 Ry au,          0.0000 Debye
        Dipole field          0.0000 Ry au

        Potential amp.       -0.0000 Ry
        Total length         45.2529 bohr

[...]

     Starting wfc are  129 randomized atomic wfcs

     Self-consistent Calculation

     iteration #  1     ecut=    36.75 Ry     beta=0.10
     Davidson diagonalization with overlap
     ethr =  1.00E-02,  avg # of iterations =  8.3

[...]

     Magnetic moment per site:
     atom:    1    charge:    3.3530    magn:    0.5220    constr:    0.0000
     atom:    2    charge:    3.3530    magn:    0.5220    constr:    0.0000
     atom:    3    charge:    3.3530    magn:    0.5220    constr:    0.0000
     atom:    4    charge:    9.7695    magn:    1.0344    constr:    0.0000
     atom:    5    charge:    3.3536    magn:    0.5213    constr:    0.0000
     atom:    6    charge:    3.3536    magn:    0.5213    constr:    0.0000
     atom:    7    charge:    3.3536    magn:    0.5213    constr:    0.0000
     atom:    8    charge:    9.7645    magn:    1.0338    constr:    0.0000
[...]
        k(    2) = (   0.0000000   0.0344534   0.0000000), wk =   0.0555556
        k(    3) = (   0.0000000   0.0689067   0.0000000), wk =   0.0555556
        k(    4) = (   0.0000000  -0.1033601   0.0000000), wk =   0.0277778
        k(    5) = (   0.0298375   0.0172267   0.0000000), wk =   0.0555556
        k(    6) = (   0.0298375   0.0516800   0.0000000), wk =   0.0555556
        k(    7) = (   0.0298375   0.0861334   0.0000000), wk =   0.0555556
        k(    8) = (   0.0298375  -0.0861334   0.0000000), wk =   0.0555556
        k(    9) = (   0.0298375  -0.0516800   0.0000000), wk =   0.0555556
        k(   10) = (   0.0298375  -0.0172267   0.0000000), wk =   0.0555556
        k(   11) = (   0.0596750   0.0344534   0.0000000), wk =   0.0555556
        k(   12) = (   0.0596750   0.0689067   0.0000000), wk =   0.0555556
        k(   13) = (   0.0596750   0.1033601   0.0000000), wk =   0.0555556
        k(   14) = (   0.0596750  -0.0689067   0.0000000), wk =   0.0555556
        k(   15) = (   0.0596750  -0.0344534   0.0000000), wk =   0.0555556
        k(   16) = (   0.0596750  -0.0000000   0.0000000), wk =   0.0555556
        k(   17) = (  -0.0895124  -0.0516800   0.0000000), wk =   0.0277778
        k(   18) = (  -0.0895124  -0.0172267   0.0000000), wk =   0.0555556
        k(   19) = (  -0.0895124   0.0172267   0.0000000), wk =   0.0555556
        k(   20) = (  -0.0895124  -0.1550401   0.0000000), wk =   0.0277778
        k(   21) = (   0.0000000   0.0000000   0.0000000), wk =   0.0277778
        k(   22) = (   0.0000000   0.0344534   0.0000000), wk =   0.0555556
        k(   23) = (   0.0000000   0.0689067   0.0000000), wk =   0.0555556
        k(   24) = (   0.0000000  -0.1033601   0.0000000), wk =   0.0277778
        k(   25) = (   0.0298375   0.0172267   0.0000000), wk =   0.0555556
        k(   26) = (   0.0298375   0.0516800   0.0000000), wk =   0.0555556
        k(   27) = (   0.0298375   0.0861334   0.0000000), wk =   0.0555556
        k(   28) = (   0.0298375  -0.0861334   0.0000000), wk =   0.0555556
        k(   29) = (   0.0298375  -0.0516800   0.0000000), wk =   0.0555556
        k(   30) = (   0.0298375  -0.0172267   0.0000000), wk =   0.0555556
        k(   31) = (   0.0596750   0.0344534   0.0000000), wk =   0.0555556
        k(   32) = (   0.0596750   0.0689067   0.0000000), wk =   0.0555556
        k(   33) = (   0.0596750   0.1033601   0.0000000), wk =   0.0555556
        k(   34) = (   0.0596750  -0.0689067   0.0000000), wk =   0.0555556
        k(   35) = (   0.0596750  -0.0344534   0.0000000), wk =   0.0555556
        k(   36) = (   0.0596750  -0.0000000   0.0000000), wk =   0.0555556
        k(   37) = (  -0.0895124  -0.0516800   0.0000000), wk =   0.0277778
        k(   38) = (  -0.0895124  -0.0172267   0.0000000), wk =   0.0555556
        k(   39) = (  -0.0895124   0.0172267   0.0000000), wk =   0.0555556
        k(   40) = (  -0.0895124  -0.1550401   0.0000000), wk =   0.0277778

     Largest allocated arrays     est. size (Mb)     dimensions
     Largest temporary arrays     est. size (Mb)     dimensions

     Check: negative/imaginary core charge=   -0.000006    0.000000

     Initial potential from superposition of free atoms
     Check: negative starting charge=(component1):   -0.007189
     Check: negative starting charge=(component2):   -0.005143

     starting charge  146.99960, renormalised to  162.00000

[...]

     *
     * You are using vdW-DF for exchange-correlation in this calculation.
     * Please cite the following three references that made this development
     * possible:
     *
     *   M. Dion, H. Rydberg, E. Schroder, D. C. Langreth, and
     *   B. I. Lundqvist, Phys. Rev. Lett. 92, 246401 (2004).
     *
     *   T. Thonhauser, V. R. Cooper, S. Li, A. Puzder, P. Hyldgaard, and
     *   D. C. Langreth, Phys. Rev. B 76, 125112 (2007).
     *
     *   G. Roman-Perez and J. M. Soler, Phys. Rev. Lett. 103, 096102 (2009).
     *
     *
     * If you are using vdW-DF2, please also cite:
     *
     *   K. Lee, E. D. Murray, L. Kong, B. I. Lundqvist, and
     *   D. C. Langreth, Phys. Rev. B 82, 081101(R) (2010).
     *
     *
     * If you are calculating the stress with vdW-DF, please also cite:
     *
     *   R. Sabatini, E. Kucukbenli, B. Kolb, T. Thonhauser, and
     *   S. de Gironcoli, J. Phys.: Condens. Matter 24, 424209 (2012).
     *

     Carrying out vdW-DF run using the following parameters:

     Nqs =      20    Nr_points =    1024   r_max =   100.000
     q_mesh =
               0.00001000     0.04494208     0.09755937     0.15916263
               0.23128650     0.31572767     0.41458969     0.53033537
               0.66584808     0.82450364     1.01025438     1.22772762
               1.48234092     1.78043706     2.12944203     2.53805004
               3.01644009     3.57652955     4.23227104     5.00000000

     Gradients computed in reciprocal space

[...]

     Starting wfc are  129 randomized atomic wfcs

     Self-consistent Calculation

[...]

     total energy              =   -2112.23570074 Ry
     Harris-Foulkes estimate   =   -2112.23569819 Ry
     estimated scf accuracy    <       0.00000109 Ry

[...]

     iteration # 53     ecut=    36.75 Ry     beta=0.10
     Davidson diagonalization with overlap
     ethr =  6.74E-10,  avg # of iterations =  3.9

[...]

     negative rho (up, down):  3.058E-03 3.436E-03

[...]

     Adding external electric field

     Computed dipole along edir(3) :
        Dipole                0.0334 Ry au,          0.0848 Debye
        Dipole field          0.0001 Ry au

        Potential amp.       -0.0085 Ry
        Total length         45.2529 bohr

     Magnetic moment per site:
     atom:    1    charge:    3.1277    magn:    0.0113    constr:    0.0000
     atom:    2    charge:    3.1278    magn:    0.0113    constr:    0.0000
     atom:    3    charge:    3.1278    magn:    0.0113    constr:    0.0000
     atom:    4    charge:    9.3415    magn:   -0.0032    constr:    0.0000
     atom:    5    charge:    3.1232    magn:   -0.0024    constr:    0.0000
     atom:    6    charge:    3.1232    magn:   -0.0024    constr:    0.0000
     atom:    7    charge:    3.1232    magn:   -0.0024    constr:    0.0000
     atom:    8    charge:    9.3246    magn:    0.0022    constr:    0.0000
     atom:    9    charge:    3.1243    magn:    0.0156    constr:    0.0000
     atom:   10    charge:    3.1244    magn:    0.0156    constr:    0.0000
     atom:   11    charge:    3.1244    magn:    0.0156    constr:    0.0000
     atom:   12    charge:    9.3520    magn:   -0.0034    constr:    0.0000

     End of self-consistent calculation

 ------ SPIN UP ------------

[...]

 ------ SPIN DOWN ----------

[...]

          k = 0.0597-0.0000 0.0000 ( 16824 PWs)   bands (ev):

[...]

          k =-0.0895-0.1550 0.0000 ( 16880 PWs)   bands (ev):

  -102.5153-102.3317-102.2017 -62.8884 -62.8643 -62.8640 -62.7023 -62.7023
   -62.7020 -62.5855 -62.5852 -62.5475 -56.0657 -56.0545 -56.0343 -56.0116
   -56.0004 -55.9807 -55.8840 -55.8583 -55.8284 -32.5093 -32.4984 -32.4766
   -32.4301 -32.4252 -32.3968 -32.3759 -32.3571 -32.3397 -32.3116 -32.2876
   -32.2759 -32.2729 -32.2324 -32.2023 -32.1943 -32.1498 -32.1308 -32.0777
   -32.0650 -32.0561 -31.9674 -31.9565 -31.9411 -31.9393 -31.9083 -31.8216
    -3.5931  -3.4168  -2.3571  -2.0939  -1.6236  -1.5870  -1.4566  -1.4431
    -1.3269  -1.2162  -1.2016  -1.1235  -1.0769  -1.0363  -0.9485  -0.8892
    -0.8381  -0.7454  -0.7254  -0.6213  -0.5532  -0.3997  -0.3400  -0.0580
     0.1681   0.2794   0.4318   0.5355   0.5590   0.5789   0.6427   0.6703
     0.7241   0.8542   0.9400   1.1003   1.1214   1.2354   1.2426   1.4647
     1.4683   1.7968   1.8409   1.9285   1.9372   2.0608   2.0667   2.1319
     2.3797   2.7556   2.8521   2.9002   2.9782   3.0503   3.0772   3.1543
     3.1613   3.1788   3.3005   3.3660   3.6086   3.6773   3.9484

     the Fermi energy is     0.9163 ev

!    total energy              =   -2112.23570879 Ry
     Harris-Foulkes estimate   =   -2112.23570424 Ry
     estimated scf accuracy    <       0.00000092 Ry

     The total energy is the sum of the following terms:

     one-electron contribution =  -15438.81586941 Ry
     hartree contribution      =    7711.95075093 Ry
     xc contribution           =    -278.90575053 Ry
     ewald contribution        =    5893.66022644 Ry
     electric field correction =       0.00000313 Ry
     smearing contrib. (-TS)   =      -0.12506935 Ry

     total magnetization       =     0.54 Bohr mag/cell
     absolute magnetization    =     0.64 Bohr mag/cell

     convergence has been achieved in  53 iterations

 BEEF-vdW xc energy contributions
           1 :   -242.158854235359
           2 :    217.679846469931
           3 :   -177.093554280429
           4 :    132.830512369988
           5 :   -95.5797984573985
           6 :    70.2228904684146
           7 :   -55.3822625284702
           8 :    46.0706091395472
           9 :   -37.3853112366487
          10 :    27.0480533195372
          11 :   -15.7605299102668
          12 :    5.73893923654862
          13 :    1.25704606928088
          14 :   -5.10356622029934
          15 :    7.11436456562217
          16 :   -8.88348200173056
          17 :    11.1281121079692
          18 :   -13.3573981694236
          19 :    14.4643270218904
          20 :   -13.6868556497463
          21 :    11.1878267120931
          22 :   -7.90665005264083
          23 :    4.88262392597227
          24 :   -2.60236791489615
          25 :   0.809910035841028
          26 :    1.14162222472595
          27 :   -3.71256159935751
          28 :    6.79381880033560
          29 :   -9.77315587155988
          30 :    11.9513308074397
          31 :   -23.4215142253258
          32 :   -16.5683445521840

     Forces acting on atoms (Ry/au):

     negative rho (up, down):  3.058E-03 3.436E-03
     atom    1 type  1   force =     0.00000070    0.01680025   -0.00100627
     atom    2 type  1   force =     0.01454953   -0.00839900   -0.00100525
     atom    3 type  1   force =    -0.01454952   -0.00839972   -0.00100481
     atom    4 type  2   force =    -0.00000122   -0.00000369    0.02648198
     atom    5 type  1   force =     0.00000059   -0.00365376   -0.00525564
     atom    6 type  1   force =    -0.00316479    0.00182783   -0.00525705
     atom    7 type  1   force =     0.00316456    0.00182699   -0.00525640
     atom    8 type  2   force =    -0.00000449   -0.00000536   -0.00657223
     atom    9 type  1   force =    -0.00000133   -0.00000216   -0.00054197
     atom   10 type  1   force =    -0.00000273    0.00000161   -0.00054092
     atom   11 type  1   force =     0.00000111    0.00000217   -0.00053999
     atom   12 type  2   force =     0.00000759    0.00000483    0.00049856

     Total force =     0.041453     Total SCF correction =     0.002135

     entering subroutine stress ...

     negative rho (up, down):  3.058E-03 3.436E-03
          total   stress  (Ry/bohr**3)                   (kbar)     P=  -23.91
  -0.00018503  -0.00000000   0.00000000        -27.22     -0.00      0.00
  -0.00000000  -0.00018502   0.00000000         -0.00    -27.22      0.00
   0.00000000   0.00000000  -0.00011759          0.00      0.00    -17.30

 !ASE

     Writing output data file calc.save

     General routines

     Parallel routines

   This run was terminated on:   4:51:23   2Jan2019

   JOB DONE.
Job  /afs/slac/g/suncat/bin/suncat-tsmpirun -x LD_LIBRARY_PATH -wdir /scratch/qe649211_SnGIq pw.x -in pw.inp

TID   HOST_NAME   COMMAND_LINE            STATUS            TERMINATION_TIME
00000 suncat0165 pw.x -in pw.inp   Done                     01/02/2019 04:51:23
00001 suncat0165 pw.x -in pw.inp   Done                     01/02/2019 04:51:23
00002 suncat0165 pw.x -in pw.inp   Done                     01/02/2019 04:51:23
00003 suncat0165 pw.x -in pw.inp   Done                     01/02/2019 04:51:23
00004 suncat0165 pw.x -in pw.inp   Done                     01/02/2019 04:51:23
00005 suncat0165 pw.x -in pw.inp   Done                     01/02/2019 04:51:23
00006 suncat0165 pw.x -in pw.inp   Done                     01/02/2019 04:51:23
00007 suncat0165 pw.x -in pw.inp   Done                     01/02/2019 04:51:23
00008 suncat0164 pw.x -in pw.inp   Done                     01/02/2019 04:51:23
00009 suncat0164 pw.x -in pw.inp   Done                     01/02/2019 04:51:23
00010 suncat0164 pw.x -in pw.inp   Done                     01/02/2019 04:51:23
00011 suncat0164 pw.x -in pw.inp   Done                     01/02/2019 04:51:23
00012 suncat0164 pw.x -in pw.inp   Done                     01/02/2019 04:51:23
00013 suncat0164 pw.x -in pw.inp   Done                     01/02/2019 04:51:23
00014 suncat0164 pw.x -in pw.inp   Done                     01/02/2019 04:51:23
00015 suncat0164 pw.x -in pw.inp   Done                     01/02/2019 04:51:23
00016 suncat0159 pw.x -in pw.inp   Done                     01/02/2019 04:51:23
00017 suncat0159 pw.x -in pw.inp   Done                     01/02/2019 04:51:23
00018 suncat0159 pw.x -in pw.inp   Done                     01/02/2019 04:51:23
00019 suncat0159 pw.x -in pw.inp   Done                     01/02/2019 04:51:23
00020 suncat0159 pw.x -in pw.inp   Done                     01/02/2019 04:51:23
00021 suncat0159 pw.x -in pw.inp   Done                     01/02/2019 04:51:23
00022 suncat0159 pw.x -in pw.inp   Done                     01/02/2019 04:51:23
00023 suncat0159 pw.x -in pw.inp   Done                     01/02/2019 04:51:23
00024 suncat0155 pw.x -in pw.inp   Done                     01/02/2019 04:51:23
00025 suncat0155 pw.x -in pw.inp   Done                     01/02/2019 04:51:23
00026 suncat0155 pw.x -in pw.inp   Done                     01/02/2019 04:51:23
00027 suncat0155 pw.x -in pw.inp   Done                     01/02/2019 04:51:23
00028 suncat0155 pw.x -in pw.inp   Done                     01/02/2019 04:51:23
00029 suncat0155 pw.x -in pw.inp   Done                     01/02/2019 04:51:23
00030 suncat0155 pw.x -in pw.inp   Done                     01/02/2019 04:51:23
00031 suncat0155 pw.x -in pw.inp   Done                     01/02/2019 04:51:23
00032 suncat0106 pw.x -in pw.inp   Done                     01/02/2019 04:51:23
00033 suncat0106 pw.x -in pw.inp   Done                     01/02/2019 04:51:23
00034 suncat0106 pw.x -in pw.inp   Done                     01/02/2019 04:51:23
00035 suncat0106 pw.x -in pw.inp   Done                     01/02/2019 04:51:23
00036 suncat0106 pw.x -in pw.inp   Done                     01/02/2019 04:51:23
00037 suncat0106 pw.x -in pw.inp   Done                     01/02/2019 04:51:23
00038 suncat0106 pw.x -in pw.inp   Done                     01/02/2019 04:51:23
00039 suncat0106 pw.x -in pw.inp   Done                     01/02/2019 04:51:23
00040 suncat0105 pw.x -in pw.inp   Done                     01/02/2019 04:51:23
00041 suncat0105 pw.x -in pw.inp   Done                     01/02/2019 04:51:23
00042 suncat0105 pw.x -in pw.inp   Done                     01/02/2019 04:51:23
00043 suncat0105 pw.x -in pw.inp   Done                     01/02/2019 04:51:23
00044 suncat0105 pw.x -in pw.inp   Done                     01/02/2019 04:51:23
00045 suncat0105 pw.x -in pw.inp   Done                     01/02/2019 04:51:23
00046 suncat0105 pw.x -in pw.inp   Done                     01/02/2019 04:51:23
00047 suncat0105 pw.x -in pw.inp   Done                     01/02/2019 04:51:23
00048 suncat0277 pw.x -in pw.inp   Done                     01/02/2019 04:51:23
00049 suncat0277 pw.x -in pw.inp   Done                     01/02/2019 04:51:23
00050 suncat0277 pw.x -in pw.inp   Done                     01/02/2019 04:51:23
00051 suncat0277 pw.x -in pw.inp   Done                     01/02/2019 04:51:23
00052 suncat0277 pw.x -in pw.inp   Done                     01/02/2019 04:51:23
00053 suncat0277 pw.x -in pw.inp   Done                     01/02/2019 04:51:23
00054 suncat0277 pw.x -in pw.inp   Done                     01/02/2019 04:51:23
00055 suncat0277 pw.x -in pw.inp   Done                     01/02/2019 04:51:23
00056 suncat0276 pw.x -in pw.inp   Done                     01/02/2019 04:51:23
00057 suncat0276 pw.x -in pw.inp   Done                     01/02/2019 04:51:23
00058 suncat0276 pw.x -in pw.inp   Done                     01/02/2019 04:51:23
00059 suncat0276 pw.x -in pw.inp   Done                     01/02/2019 04:51:23
00060 suncat0276 pw.x -in pw.inp   Done                     01/02/2019 04:51:23
00061 suncat0276 pw.x -in pw.inp   Done                     01/02/2019 04:51:23
00062 suncat0276 pw.x -in pw.inp   Done                     01/02/2019 04:51:23
00063 suncat0276 pw.x -in pw.inp   Done                     01/02/2019 04:51:23