     Program PWSCF v.5.1rc2 (svn rev. 11289) starts on 26Dec2018 at  7:42:57

     Current dimensions of program PWSCF are:
     Max number of different atomic species (ntypx) = 10
     Max number of k-points (npk) =  40000
     Max angular momentum in pseudopotentials (lmaxx) =  3
     Presently stress not available with electric field

     IMPORTANT: XC functional enforced from input :
     Exchange-correlation      = BEEF-VDW ( 1  4 27 13 2)
     Any further DFT definition will be discarded
     Please, verify this is what you really want

     Subspace diagonalization in iterative solution of the eigenvalue problem:
     a serial algorithm will be used

     bravais-lattice index     =            0
     lattice parameter (alat)  =       1.8897  a.u.
     unit-cell volume          =    5784.6736 (a.u.)^3
     number of atoms/cell      =           12
     number of atomic types    =            2
     number of electrons       =       150.00
     number of Kohn-Sham states=          105
     kinetic-energy cutoff     =      36.7493  Ry
     charge density cutoff     =     367.4932  Ry
     convergence threshold     =      1.0E-06
     mixing beta               =       0.1000
     number of iterations used =           10  plain     mixing
     Exchange-correlation      = BEEF-VDW ( 1  4 27 13 2)
     nstep                     =           50

     celldm(1)=   1.889726  celldm(2)=   0.000000  celldm(3)=   0.000000
     celldm(4)=   0.000000  celldm(5)=   0.000000  celldm(6)=   0.000000

     crystal axes: (cart. coord. in units of alat)
               a(1) = (   6.276598   0.000000   0.000000 )
               a(2) = (  -3.138299   5.435693   0.000000 )
               a(3) = (   0.000000   0.000000  25.124821 )

     reciprocal axes: (cart. coord. in units 2 pi/alat)
               b(1) = (  0.159322  0.091985  0.000000 )
               b(2) = (  0.000000  0.183969  0.000000 )
               b(3) = (  0.000000  0.000000  0.039801 )

     PseudoPot. # 1 for Hf read from file:
     /afs/slac.stanford.edu/u/if/mamunm/psp/gbrv1.5pbe/Hf.UPF
     MD5 check sum: 8ee9378dfe14276e333edf04c5e4aa26
     Pseudo is Ultrasoft + core correction, Zval = 12.0
     Generated by new atomic code, or converted to UPF format
     Using radial grid of  921 points,  8 beta functions with:
                l(1) =   0
                l(2) =   0
                l(3) =   0
                l(4) =   1
                l(5) =   1
                l(6) =   2
                l(7) =   2
                l(8) =   3
     Q(r) pseudized with  6 coefficients,  rinner =    1.200   1.200   1.200
                                                       1.200   1.200   1.200
                                                       1.200

     PseudoPot. # 2 for Sn read from file:
     /afs/slac.stanford.edu/u/if/mamunm/psp/gbrv1.5pbe/Sn.UPF
     MD5 check sum: 469debedee59599fedebd795477fea03
     Pseudo is Ultrasoft + core correction, Zval = 14.0
     Generated by new atomic code, or converted to UPF format
     Using radial grid of  891 points,  6 beta functions with:
                l(1) =   0
                l(2) =   0
                l(3) =   1
                l(4) =   1
                l(5) =   2
                l(6) =   2
     Q(r) pseudized with  8 coefficients,  rinner =    1.350   1.350   1.350
                                                       1.350   1.350

     vdW kernel table read from file vdW_kernel_table
     MD5 check sum: 095c7af220d748ca6e76c0b4c6cfb241

     atomic species   valence    mass     pseudopotential
        Hf1           12.00   178.49000     Hf( 1.00)
        Sn1           14.00   118.71000     Sn( 1.00)

     No symmetry found

   Cartesian axes

     site n.     atom                  positions (alat units)
         1           Hf1 tau(   1) = (   0.0000000   0.0000000  10.0000000  )
         2           Hf1 tau(   2) = (  -1.5691495   2.7178467  10.0000000  )
         3           Hf1 tau(   3) = (   1.5691495   2.7178467  10.0000000  )
         4           Sn1 tau(   4) = (   3.1382991   0.0000000  10.0000000  )
         5           Hf1 tau(   5) = (   3.1382991   1.8118978  12.5624105  )
         6           Hf1 tau(   6) = (   1.5691495   4.5297446  12.5624105  )
         7           Hf1 tau(   7) = (  -1.5691495   4.5297446  12.5624105  )
         8           Sn1 tau(   8) = (   0.0000000   1.8118978  12.5624105  )
         9           Hf1 tau(   9) = (  -0.0000000   3.6237956  15.1248209  )
        10           Hf1 tau(  10) = (   1.5691495   0.9059489  15.1248209  )
        11           Hf1 tau(  11) = (   4.7074486   0.9059489  15.1248209  )
        12           Sn1 tau(  12) = (   3.1382991   3.6237956  15.1248209  )

     number of k points=    20  Fermi-Dirac smearing, width (Ry)=  0.0110
                       cart. coord. in units 2pi/alat
        k(    1) = (   0.0000000   0.0000000   0.0000000), wk =   0.0555556
        k(    2) = (   0.0000000   0.0306615   0.0000000), wk =   0.1111111
        k(    3) = (   0.0000000   0.0613231   0.0000000), wk =   0.1111111
        k(    4) = (   0.0000000  -0.0919846   0.0000000), wk =   0.0555556
        k(    5) = (   0.0265537   0.0153308   0.0000000), wk =   0.1111111
        k(    6) = (   0.0265537   0.0459923   0.0000000), wk =   0.1111111
        k(    7) = (   0.0265537   0.0766538   0.0000000), wk =   0.1111111
        k(    8) = (   0.0265537  -0.0766538   0.0000000), wk =   0.1111111
        k(    9) = (   0.0265537  -0.0459923   0.0000000), wk =   0.1111111
        k(   10) = (   0.0265537  -0.0153308   0.0000000), wk =   0.1111111
        k(   11) = (   0.0531073   0.0306615   0.0000000), wk =   0.1111111
        k(   12) = (   0.0531073   0.0613231   0.0000000), wk =   0.1111111
        k(   13) = (   0.0531073   0.0919846   0.0000000), wk =   0.1111111
        k(   14) = (   0.0531073  -0.0613231   0.0000000), wk =   0.1111111
        k(   15) = (   0.0531073  -0.0306615   0.0000000), wk =   0.1111111
        k(   16) = (   0.0531073   0.0000000   0.0000000), wk =   0.1111111
        k(   17) = (  -0.0796610  -0.0459923   0.0000000), wk =   0.0555556
        k(   18) = (  -0.0796610  -0.0153308   0.0000000), wk =   0.1111111
        k(   19) = (  -0.0796610   0.0153308   0.0000000), wk =   0.1111111
        k(   20) = (  -0.0796610  -0.1379769   0.0000000), wk =   0.0555556

     Largest allocated arrays     est. size (Mb)     dimensions
     Largest temporary arrays     est. size (Mb)     dimensions

     Check: negative/imaginary core charge=   -0.000003    0.000000

     Initial potential from superposition of free atoms
     Check: negative starting charge=   -0.969630

     starting charge  128.99985, renormalised to  150.00000

     negative rho (up, down):  1.127E+00 0.000E+00

     *
     * You are using vdW-DF for exchange-correlation in this calculation.
     * Please cite the following three references that made this development
     * possible:
     *
     *   M. Dion, H. Rydberg, E. Schroder, D. C. Langreth, and
     *   B. I. Lundqvist, Phys. Rev. Lett. 92, 246401 (2004).
     *
     *   T. Thonhauser, V. R. Cooper, S. Li, A. Puzder, P. Hyldgaard, and
     *   D. C. Langreth, Phys. Rev. B 76, 125112 (2007).
     *
     *   G. Roman-Perez and J. M. Soler, Phys. Rev. Lett. 103, 096102 (2009).
     *
     *
     * If you are using vdW-DF2, please also cite:
     *
     *   K. Lee, E. D. Murray, L. Kong, B. I. Lundqvist, and
     *   D. C. Langreth, Phys. Rev. B 82, 081101(R) (2010).
     *
     *
     * If you are calculating the stress with vdW-DF, please also cite:
     *
     *   R. Sabatini, E. Kucukbenli, B. Kolb, T. Thonhauser, and
     *   S. de Gironcoli, J. Phys.: Condens. Matter 24, 424209 (2012).
     *

     Carrying out vdW-DF run using the following parameters:

     Nqs =      20    Nr_points =    1024   r_max =   100.000
     q_mesh =
               0.00001000     0.04494208     0.09755937     0.15916263
               0.23128650     0.31572767     0.41458969     0.53033537
               0.66584808     0.82450364     1.01025438     1.22772762
               1.48234092     1.78043706     2.12944203     2.53805004
               3.01644009     3.57652955     4.23227104     5.00000000

     Gradients computed in reciprocal space

     Adding external electric field

     Computed dipole along edir(3) :
        Dipole                0.0000 Ry au,          0.0000 Debye
        Dipole field          0.0000 Ry au

        Potential amp.       -0.0000 Ry
        Total length         46.2921 bohr

     Starting wfc are  144 randomized atomic wfcs

     Self-consistent Calculation

     iteration #  1     ecut=    36.75 Ry     beta=0.10
     Davidson diagonalization with overlap
     ethr =  1.00E-02,  avg # of iterations =  8.9

[...]

     total energy              =   -1915.62584482 Ry
     Harris-Foulkes estimate   =   -1944.49846718 Ry
     estimated scf accuracy    <     162.62932246 Ry

[...]

     End of self-consistent calculation

          k = 0.0000 0.0000 0.0000 ( 21859 PWs)   bands (ev):

   -61.0718 -61.0714 -61.0393 -61.0392 -61.0391 -61.0390 -60.5783 -60.5458
   -60.5451 -29.8129 -29.8122 -29.7491 -29.7333 -29.7333 -29.7116 -29.7116
   -29.6915 -29.6915 -29.6741 -29.6402 -29.6402 -29.4548 -29.4509 -29.4409
   -29.3050 -29.3048 -29.2192 -29.2192 -29.2006 -29.2006 -29.0596 -29.0593
   -29.0218 -29.0106 -28.7877 -28.7874 -19.9091 -19.9059 -19.9059 -19.8910
   -19.8910 -19.5971 -19.5936 -19.5695 -19.5695 -19.5650 -19.5650 -19.5426
   -19.5426 -19.5421 -19.5421  -7.4517  -6.2360  -5.9323  -2.4139  -2.1861
    -2.0226  -1.2278  -1.2278  -1.1075  -1.1074  -0.5346  -0.5345  -0.4377
    -0.0755   0.3422   0.3422   0.3676   0.3676   0.7305   0.9992   0.9992
     1.0242   1.3103   1.3116   1.3116   1.9683   1.9683   2.1321   2.2965
     2.3561   2.3561   2.7131   2.8452   3.1134   4.1449   4.1980   4.1980
     4.2787   4.3401   4.3401   4.3824   4.3824   4.5107   4.5261   4.5629
     4.5629   4.8591   4.8862   4.8863   5.1041   5.1917   5.1917   5.3648
     5.3648

[...]

          k =-0.0797-0.0460 0.0000 ( 21740 PWs)   bands (ev):

[...]

     the Fermi energy is     1.6414 ev

!    total energy              =   -1927.23412624 Ry
     Harris-Foulkes estimate   =   -1927.23412508 Ry
     estimated scf accuracy    <       0.00000064 Ry

     The total energy is the sum of the following terms:

     one-electron contribution =   -9434.09655943 Ry
     hartree contribution      =    4722.94444569 Ry
     xc contribution           =    -829.86661026 Ry
     ewald contribution        =    3613.86829311 Ry
     electric field correction =       0.00000000 Ry
     smearing contrib. (-TS)   =      -0.08369536 Ry

     convergence has been achieved in  20 iterations

 BEEF-vdW xc energy contributions
           1 :   -746.940937417517
           2 :    693.073211917663
           3 :   -598.142405990749
           4 :    482.684694382902
           5 :   -367.734609903204
           6 :    268.635948956136
           7 :   -192.354706416873
           8 :    138.524675022988
           9 :   -102.733629178296
          10 :    79.8339304967958
          11 :   -65.7837250537914
          12 :    57.7436506001004
[...]
     MD5 check sum: 8ee9378dfe14276e333edf04c5e4aa26
     Pseudo is Ultrasoft + core correction, Zval = 12.0
     Generated by new atomic code, or converted to UPF format
     Using radial grid of  921 points,  8 beta functions with:
                l(1) =   0
                l(2) =   0
                l(3) =   0
                l(4) =   1
                l(5) =   1
                l(6) =   2
                l(7) =   2
                l(8) =   3
     Q(r) pseudized with  6 coefficients,  rinner =    1.200   1.200   1.200
                                                       1.200   1.200   1.200
                                                       1.200

     PseudoPot. # 2 for Sn read from file:
     /afs/slac.stanford.edu/u/if/mamunm/psp/gbrv1.5pbe/Sn.UPF
     MD5 check sum: 469debedee59599fedebd795477fea03
     Pseudo is Ultrasoft + core correction, Zval = 14.0
     Generated by new atomic code, or converted to UPF format
     Using radial grid of  891 points,  6 beta functions with:
                l(1) =   0
                l(2) =   0
                l(3) =   1
                l(4) =   1
                l(5) =   2
                l(6) =   2
     Q(r) pseudized with  8 coefficients,  rinner =    1.350   1.350   1.350
                                                       1.350   1.350

     vdW kernel table read from file vdW_kernel_table
     MD5 check sum: 095c7af220d748ca6e76c0b4c6cfb241

     atomic species   valence    mass     pseudopotential
        Hf1           12.00   178.49000     Hf( 1.00)
        Sn1           14.00   118.71000     Sn( 1.00)

     No symmetry found

   Cartesian axes

     site n.     atom                  positions (alat units)
         1           Hf1 tau(   1) = (   0.0000000   0.0000000  10.0000000  )
         2           Hf1 tau(   2) = (  -1.5691495   2.7178467  10.0000000  )
         3           Hf1 tau(   3) = (   1.5691495   2.7178467  10.0000000  )
         4           Sn1 tau(   4) = (   3.1382991   0.0000000  10.0000000  )
         5           Hf1 tau(   5) = (   3.1382991   1.8118978  12.5624105  )
         6           Hf1 tau(   6) = (   1.5691495   4.5297446  12.5624105  )
         7           Hf1 tau(   7) = (  -1.5691495   4.5297446  12.5624105  )
         8           Sn1 tau(   8) = (   0.0000000   1.8118978  12.5624105  )
         9           Hf1 tau(   9) = (  -0.0000079   3.6202420  15.0173342  )
        10           Hf1 tau(  10) = (   1.5663445   0.9074171  15.0168488  )
        11           Hf1 tau(  11) = (   4.7102273   0.9074144  15.0168340  )
        12           Sn1 tau(  12) = (   3.1382927   3.6236736  15.3151498  )

     number of k points=    20  Fermi-Dirac smearing, width (Ry)=  0.0110
                       cart. coord. in units 2pi/alat
        k(    1) = (   0.0000000   0.0000000   0.0000000), wk =   0.0555556
        k(    2) = (   0.0000000   0.0306615   0.0000000), wk =   0.1111111
        k(    3) = (   0.0000000   0.0613231   0.0000000), wk =   0.1111111
        k(    4) = (   0.0000000  -0.0919846   0.0000000), wk =   0.0555556
        k(    5) = (   0.0265537   0.0153308   0.0000000), wk =   0.1111111
        k(    6) = (   0.0265537   0.0459923   0.0000000), wk =   0.1111111
        k(    7) = (   0.0265537   0.0766538   0.0000000), wk =   0.1111111
        k(    8) = (   0.0265537  -0.0766538   0.0000000), wk =   0.1111111
        k(    9) = (   0.0265537  -0.0459923   0.0000000), wk =   0.1111111
        k(   10) = (   0.0265537  -0.0153308   0.0000000), wk =   0.1111111
        k(   11) = (   0.0531073   0.0306615   0.0000000), wk =   0.1111111
        k(   12) = (   0.0531073   0.0613231   0.0000000), wk =   0.1111111
        k(   13) = (   0.0531073   0.0919846   0.0000000), wk =   0.1111111
        k(   14) = (   0.0531073  -0.0613231   0.0000000), wk =   0.1111111
        k(   15) = (   0.0531073  -0.0306615   0.0000000), wk =   0.1111111
        k(   16) = (   0.0531073   0.0000000   0.0000000), wk =   0.1111111
        k(   17) = (  -0.0796610  -0.0459923   0.0000000), wk =   0.0555556
        k(   18) = (  -0.0796610  -0.0153308   0.0000000), wk =   0.1111111
        k(   19) = (  -0.0796610   0.0153308   0.0000000), wk =   0.1111111
        k(   20) = (  -0.0796610  -0.1379769   0.0000000), wk =   0.0555556

     Largest allocated arrays     est. size (Mb)     dimensions
     Largest temporary arrays     est. size (Mb)     dimensions

     Check: negative/imaginary core charge=   -0.000003    0.000000

     Initial potential from superposition of free atoms
     Check: negative starting charge=   -0.970174

     starting charge  128.99985, renormalised to  150.00000

[...]

     *
     * You are using vdW-DF for exchange-correlation in this calculation.
     * Please cite the following three references that made this development
     * possible:
     *
     *   M. Dion, H. Rydberg, E. Schroder, D. C. Langreth, and
     *   B. I. Lundqvist, Phys. Rev. Lett. 92, 246401 (2004).
     *
     *   T. Thonhauser, V. R. Cooper, S. Li, A. Puzder, P. Hyldgaard, and
     *   D. C. Langreth, Phys. Rev. B 76, 125112 (2007).
     *
     *   G. Roman-Perez and J. M. Soler, Phys. Rev. Lett. 103, 096102 (2009).
     *
     *
     * If you are using vdW-DF2, please also cite:
     *
     *   K. Lee, E. D. Murray, L. Kong, B. I. Lundqvist, and
     *   D. C. Langreth, Phys. Rev. B 82, 081101(R) (2010).
     *
     *
     * If you are calculating the stress with vdW-DF, please also cite:
     *
     *   R. Sabatini, E. Kucukbenli, B. Kolb, T. Thonhauser, and
     *   S. de Gironcoli, J. Phys.: Condens. Matter 24, 424209 (2012).
     *

     Carrying out vdW-DF run using the following parameters:

     Nqs =      20    Nr_points =    1024   r_max =   100.000
     q_mesh =
               0.00001000     0.04494208     0.09755937     0.15916263
               0.23128650     0.31572767     0.41458969     0.53033537
               0.66584808     0.82450364     1.01025438     1.22772762
               1.48234092     1.78043706     2.12944203     2.53805004
               3.01644009     3.57652955     4.23227104     5.00000000

     Gradients computed in reciprocal space

[...]

     Starting wfc are  144 randomized atomic wfcs

     Self-consistent Calculation

[...]

     total energy              =   -1927.25604947 Ry
     Harris-Foulkes estimate   =   -1927.25604961 Ry
     estimated scf accuracy    <       0.00000403 Ry

     iteration # 20     ecut=    36.75 Ry     beta=0.10
     Davidson diagonalization with overlap
     ethr =  2.69E-09,  avg # of iterations =  2.0

[...]

     negative rho (up, down):  1.023E+00 0.000E+00

     Adding external electric field

     Computed dipole along edir(3) :
        Dipole               -0.0367 Ry au,         -0.0933 Debye
        Dipole field         -0.0001 Ry au

        Potential amp.        0.0074 Ry
        Total length         46.2921 bohr

     End of self-consistent calculation

[...]

          k = 0.0531 0.0000 0.0000 ( 21789 PWs)   bands (ev):

[...]

          k =-0.0797-0.1380 0.0000 ( 21740 PWs)   bands (ev):

   -61.1199 -61.1091 -61.0982 -60.9764 -60.9651 -60.9543 -60.5537 -60.5428
   -60.5318 -29.8125 -29.7648 -29.7642 -29.7271 -29.6934 -29.6550 -29.6418
   -29.6411 -29.6224 -29.6070 -29.5915 -29.5264 -29.5056 -29.4941 -29.4787
   -29.4003 -29.3273 -29.3072 -29.2073 -29.1688 -29.1588 -29.1319 -29.1135
   -29.0236 -28.9392 -28.9050 -28.7961 -19.9488 -19.9428 -19.9428 -19.9317
   -19.9304 -19.6287 -19.6040 -19.6038 -19.5938 -19.5751 -19.5701 -19.5614
   -19.5613 -19.5240 -19.5195  -6.6148  -5.9831  -5.5783  -3.5398  -2.6627
    -2.6027  -2.3481  -1.0919  -1.0641  -0.8853  -0.5833  -0.5200  -0.4688
    -0.1434   0.4907   0.6083   0.7407   0.7603   0.9101   1.1682   1.2358
     1.3139   1.3521   1.4616   1.4789   1.7510   1.8197   2.1823   2.3155
     2.3538   2.5136   2.7201   2.8802   3.1211   3.4665   3.6130   3.8541
     4.0016   4.0989   4.1562   4.2104   4.2143   4.2994   4.3234   4.3885
     4.5519   4.5826   4.8511   4.9969   5.1665   5.2912   5.4330   5.7691
     5.9725

     the Fermi energy is     1.5910 ev

!    total energy              =   -1927.25605099 Ry
     Harris-Foulkes estimate   =   -1927.25604980 Ry
     estimated scf accuracy    <       0.00000081 Ry

     The total energy is the sum of the following terms:

     one-electron contribution =   -9464.14187378 Ry
     hartree contribution      =    4737.95631868 Ry
     xc contribution           =    -829.95545861 Ry
     ewald contribution        =    3628.96579447 Ry
     electric field correction =       0.00000293 Ry
     smearing contrib. (-TS)   =      -0.08083469 Ry

     convergence has been achieved in  20 iterations

 BEEF-vdW xc energy contributions
           1 :   -747.339349188428
           2 :    693.490326411690
           3 :   -598.573971962706
           4 :    483.101223292401
           5 :   -368.100700792559
           6 :    268.940230875729
           7 :   -192.623336313523
           8 :    138.805261805279
           9 :   -103.062118730376
          10 :    80.2113264523838
          11 :   -66.1783462646065
          12 :    58.1167026350124
          13 :   -53.5995712539152
          14 :    49.9716772926116
          15 :   -44.5413176464220
          16 :    35.4824128664999
          17 :   -22.7681487180178
          18 :    8.38605722641091
          19 :    4.43327412232918
          20 :   -12.6336756274427
          21 :    14.6500569408256
          22 :   -10.9754872925843
          23 :    3.77305007361190
          24 :    4.13764742155104
          25 :   -10.3424788995096
          26 :    13.4604369833141
          27 :   -13.2097526882014
          28 :    10.0994010960068
          29 :   -5.06096094592328
          30 :  -0.780300436897733
          31 :   -55.4194504354299
          32 :   -40.0475567239879

     Forces acting on atoms (Ry/au):

     negative rho (up, down):  1.023E+00 0.000E+00
     atom    1 type  1   force =    -0.00000042   -0.00281235    0.01771577
     atom    2 type  1   force =    -0.00241418    0.00137784    0.01766103
     atom    3 type  1   force =     0.00241287    0.00137748    0.01766016
     atom    4 type  2   force =    -0.00000225   -0.00001113   -0.02981338
     atom    5 type  1   force =    -0.00000221    0.00745415   -0.00335038
     atom    6 type  1   force =     0.00643689   -0.00376277   -0.00331169
     atom    7 type  1   force =    -0.00643789   -0.00376121   -0.00330664
     atom    8 type  2   force =    -0.00000039   -0.00001145   -0.01672862
     atom    9 type  1   force =     0.00000060    0.00057016    0.00067899
     atom   10 type  1   force =     0.00041495   -0.00021003    0.00068843
     atom   11 type  1   force =    -0.00041390   -0.00021215    0.00069222
     atom   12 type  2   force =     0.00000594    0.00000145    0.00141410

     Total force =     0.048309     Total SCF correction =     0.002086

     entering subroutine stress ...

     negative rho (up, down):  1.023E+00 0.000E+00
          total   stress  (Ry/bohr**3)                   (kbar)     P=  -13.91
  -0.00012098  -0.00000000   0.00000000        -17.80     -0.00      0.00
  -0.00000000  -0.00012092  -0.00000001         -0.00    -17.79     -0.00
   0.00000000  -0.00000001  -0.00004183          0.00     -0.00     -6.15

 !ASE

     Writing output data file calc.save

     General routines

     Parallel routines

   This run was terminated on:   9:38:25  26Dec2018

   JOB DONE.
Job  /afs/slac/g/suncat/bin/suncat-tsmpirun -x LD_LIBRARY_PATH -wdir /scratch/qe109768_QWgBi pw.x -in pw.inp

TID   HOST_NAME   COMMAND_LINE            STATUS            TERMINATION_TIME
00000 suncat0091 pw.x -in pw.inp   Done                     12/26/2018 09:38:25
00001 suncat0091 pw.x -in pw.inp   Done                     12/26/2018 09:38:25
00002 suncat0091 pw.x -in pw.inp   Done                     12/26/2018 09:38:25
00003 suncat0091 pw.x -in pw.inp   Done                     12/26/2018 09:38:25
00004 suncat0091 pw.x -in pw.inp   Done                     12/26/2018 09:38:25
00005 suncat0091 pw.x -in pw.inp   Done                     12/26/2018 09:38:25
00006 suncat0091 pw.x -in pw.inp   Done                     12/26/2018 09:38:25
00007 suncat0091 pw.x -in pw.inp   Done                     12/26/2018 09:38:25
00008 suncat0090 pw.x -in pw.inp   Done                     12/26/2018 09:38:25
00009 suncat0090 pw.x -in pw.inp   Done                     12/26/2018 09:38:25
00010 suncat0090 pw.x -in pw.inp   Done                     12/26/2018 09:38:25
00011 suncat0090 pw.x -in pw.inp   Done                     12/26/2018 09:38:25
00012 suncat0090 pw.x -in pw.inp   Done                     12/26/2018 09:38:25
00013 suncat0090 pw.x -in pw.inp   Done                     12/26/2018 09:38:25
00014 suncat0090 pw.x -in pw.inp   Done                     12/26/2018 09:38:25
00015 suncat0090 pw.x -in pw.inp   Done                     12/26/2018 09:38:25
00016 suncat0089 pw.x -in pw.inp   Done                     12/26/2018 09:38:25
00017 suncat0089 pw.x -in pw.inp   Done                     12/26/2018 09:38:25
00018 suncat0089 pw.x -in pw.inp   Done                     12/26/2018 09:38:25
00019 suncat0089 pw.x -in pw.inp   Done                     12/26/2018 09:38:25
00020 suncat0089 pw.x -in pw.inp   Done                     12/26/2018 09:38:25
00021 suncat0089 pw.x -in pw.inp   Done                     12/26/2018 09:38:25
00022 suncat0089 pw.x -in pw.inp   Done                     12/26/2018 09:38:25
00023 suncat0089 pw.x -in pw.inp   Done                     12/26/2018 09:38:25
00024 suncat0088 pw.x -in pw.inp   Done                     12/26/2018 09:38:25
00025 suncat0088 pw.x -in pw.inp   Done                     12/26/2018 09:38:25
00026 suncat0088 pw.x -in pw.inp   Done                     12/26/2018 09:38:25
00027 suncat0088 pw.x -in pw.inp   Done                     12/26/2018 09:38:25
00028 suncat0088 pw.x -in pw.inp   Done                     12/26/2018 09:38:25
00029 suncat0088 pw.x -in pw.inp   Done                     12/26/2018 09:38:25
00030 suncat0088 pw.x -in pw.inp   Done                     12/26/2018 09:38:25
00031 suncat0088 pw.x -in pw.inp   Done                     12/26/2018 09:38:25
00032 suncat0087 pw.x -in pw.inp   Done                     12/26/2018 09:38:25
00033 suncat0087 pw.x -in pw.inp   Done                     12/26/2018 09:38:25
00034 suncat0087 pw.x -in pw.inp   Done                     12/26/2018 09:38:25
00035 suncat0087 pw.x -in pw.inp   Done                     12/26/2018 09:38:25
00036 suncat0087 pw.x -in pw.inp   Done                     12/26/2018 09:38:25
00037 suncat0087 pw.x -in pw.inp   Done                     12/26/2018 09:38:25
00038 suncat0087 pw.x -in pw.inp   Done                     12/26/2018 09:38:25
00039 suncat0087 pw.x -in pw.inp   Done                     12/26/2018 09:38:25
00040 suncat0086 pw.x -in pw.inp   Done                     12/26/2018 09:38:25
00041 suncat0086 pw.x -in pw.inp   Done                     12/26/2018 09:38:25
00042 suncat0086 pw.x -in pw.inp   Done                     12/26/2018 09:38:25
00043 suncat0086 pw.x -in pw.inp   Done                     12/26/2018 09:38:25
00044 suncat0086 pw.x -in pw.inp   Done                     12/26/2018 09:38:25
00045 suncat0086 pw.x -in pw.inp   Done                     12/26/2018 09:38:25
00046 suncat0086 pw.x -in pw.inp   Done                     12/26/2018 09:38:25
00047 suncat0086 pw.x -in pw.inp   Done                     12/26/2018 09:38:25
00048 suncat0085 pw.x -in pw.inp   Done                     12/26/2018 09:38:25
00049 suncat0085 pw.x -in pw.inp   Done                     12/26/2018 09:38:25
00050 suncat0085 pw.x -in pw.inp   Done                     12/26/2018 09:38:25
00051 suncat0085 pw.x -in pw.inp   Done                     12/26/2018 09:38:25
00052 suncat0085 pw.x -in pw.inp   Done                     12/26/2018 09:38:25
00053 suncat0085 pw.x -in pw.inp   Done                     12/26/2018 09:38:25
00054 suncat0085 pw.x -in pw.inp   Done                     12/26/2018 09:38:25
00055 suncat0085 pw.x -in pw.inp   Done                     12/26/2018 09:38:25
00056 suncat0084 pw.x -in pw.inp   Done                     12/26/2018 09:38:25
00057 suncat0084 pw.x -in pw.inp   Done                     12/26/2018 09:38:25
00058 suncat0084 pw.x -in pw.inp   Done                     12/26/2018 09:38:25
00059 suncat0084 pw.x -in pw.inp   Done                     12/26/2018 09:38:25
00060 suncat0084 pw.x -in pw.inp   Done                     12/26/2018 09:38:25
00061 suncat0084 pw.x -in pw.inp   Done                     12/26/2018 09:38:25
00062 suncat0084 pw.x -in pw.inp   Done                     12/26/2018 09:38:25
00063 suncat0084 pw.x -in pw.inp   Done                     12/26/2018 09:38:25