     Program PWSCF v.5.1rc2 (svn rev. 11289) starts on 25Dec2018 at 13:20: 3

     Current dimensions of program PWSCF are:
     Max number of different atomic species (ntypx) = 10
     Max number of k-points (npk) =  40000
     Max angular momentum in pseudopotentials (lmaxx) =  3
     Presently stress not available with electric field

     IMPORTANT: XC functional enforced from input :
     Exchange-correlation      = BEEF-VDW ( 1  4 27 13 2)
     Any further DFT definition will be discarded
     Please, verify this is what you really want

     Subspace diagonalization in iterative solution of the eigenvalue problem:
     a serial algorithm will be used

     bravais-lattice index     =            0
     lattice parameter (alat)  =       1.8897  a.u.
     unit-cell volume          =    3853.5029 (a.u.)^3
     number of atoms/cell      =           12
     number of atomic types    =            2
     number of electrons       =       171.00
     number of Kohn-Sham states=          115
     kinetic-energy cutoff     =      36.7493  Ry
     charge density cutoff     =     367.4932  Ry
     convergence threshold     =      1.0E-06
     mixing beta               =       0.1000
     number of iterations used =           10  plain     mixing
     Exchange-correlation      = BEEF-VDW ( 1  4 27 13 2)
     nstep                     =           50

     celldm(1)=   1.889726  celldm(2)=   0.000000  celldm(3)=   0.000000
     celldm(4)=   0.000000  celldm(5)=   0.000000  celldm(6)=   0.000000

     crystal axes: (cart. coord. in units of alat)
               a(1) = (   5.213699   0.000000   0.000000 )
               a(2) = (  -2.606850   4.515196   0.000000 )
               a(3) = (   0.000000   0.000000  24.256968 )

     reciprocal axes: (cart. coord. in units 2 pi/alat)
               b(1) = (  0.191802  0.110737  0.000000 )
               b(2) = (  0.000000  0.221474  0.000000 )
               b(3) = (  0.000000  0.000000  0.041225 )

     PseudoPot. # 1 for Cr read from file:
     /afs/slac.stanford.edu/u/if/mamunm/psp/gbrv1.5pbe/Cr.UPF
     MD5 check sum: 0d52af634a40206e4dee301ad30da4bf
     Pseudo is Ultrasoft + core correction, Zval = 14.0
     Generated by new atomic code, or converted to UPF format
     Using radial grid of  857 points,  6 beta functions with:
                l(1) =   0
                l(2) =   0
                l(3) =   1
                l(4) =   1
                l(5) =   2
                l(6) =   2
     Q(r) pseudized with  8 coefficients,  rinner =    0.950   0.950   0.950
                                                       0.950   0.950

     PseudoPot. # 2 for Rh read from file:
     /afs/slac.stanford.edu/u/if/mamunm/psp/gbrv1.5pbe/Rh.UPF
     MD5 check sum: 761627e959a2e3a1f56b0b5fe687810e
     Pseudo is Ultrasoft + core correction, Zval = 15.0
     Generated by new atomic code, or converted to UPF format
     Using radial grid of  969 points,  7 beta functions with:
                l(1) =   0
                l(2) =   0
                l(3) =   1
                l(4) =   1
                l(5) =   2
                l(6) =   2
                l(7) =   2
     Q(r) pseudized with  8 coefficients,  rinner =    1.200   1.200   1.200
                                                       1.200   1.200

     vdW kernel table read from file vdW_kernel_table
     MD5 check sum: 095c7af220d748ca6e76c0b4c6cfb241

     atomic species   valence    mass     pseudopotential
        Cr1           14.00    51.99610     Cr( 1.00)
        Rh1           15.00   102.90550     Rh( 1.00)

     No symmetry found

   Cartesian axes

     site n.     atom                  positions (alat units)
         1           Cr1 tau(   1) = (   0.0000000   0.0000000  10.0000000  )
         2           Cr1 tau(   2) = (  -1.3034248   2.2575980  10.0000000  )
         3           Cr1 tau(   3) = (   1.3034248   2.2575980  10.0000000  )
         4           Rh1 tau(   4) = (   2.6068496   0.0000000  10.0000000  )
         5           Cr1 tau(   5) = (   2.6068496   1.5050653  12.1284838  )
         6           Cr1 tau(   6) = (   1.3034248   3.7626633  12.1284838  )
         7           Cr1 tau(   7) = (  -1.3034248   3.7626633  12.1284838  )
         8           Rh1 tau(   8) = (   0.0000000   1.5050653  12.1284838  )
         9           Cr1 tau(   9) = (  -0.0000000   3.0101307  14.2569676  )
        10           Cr1 tau(  10) = (   1.3034248   0.7525327  14.2569676  )
        11           Cr1 tau(  11) = (   3.9102744   0.7525327  14.2569676  )
        12           Rh1 tau(  12) = (   2.6068496   3.0101307  14.2569676  )

     number of k points=    20  Fermi-Dirac smearing, width (Ry)=  0.0110
                       cart. coord. in units 2pi/alat
        k(    1) = (   0.0000000   0.0000000   0.0000000), wk =   0.0555556
        k(    2) = (   0.0000000   0.0369124   0.0000000), wk =   0.1111111
        k(    3) = (   0.0000000   0.0738248   0.0000000), wk =   0.1111111
        k(    4) = (   0.0000000  -0.1107372   0.0000000), wk =   0.0555556
        k(    5) = (   0.0319671   0.0184562   0.0000000), wk =   0.1111111
        k(    6) = (   0.0319671   0.0553686   0.0000000), wk =   0.1111111
        k(    7) = (   0.0319671   0.0922810   0.0000000), wk =   0.1111111
        k(    8) = (   0.0319671  -0.0922810   0.0000000), wk =   0.1111111
        k(    9) = (   0.0319671  -0.0553686   0.0000000), wk =   0.1111111
        k(   10) = (   0.0319671  -0.0184562   0.0000000), wk =   0.1111111
        k(   11) = (   0.0639341   0.0369124   0.0000000), wk =   0.1111111
        k(   12) = (   0.0639341   0.0738248   0.0000000), wk =   0.1111111
        k(   13) = (   0.0639341   0.1107372   0.0000000), wk =   0.1111111
        k(   14) = (   0.0639341  -0.0738248   0.0000000), wk =   0.1111111
        k(   15) = (   0.0639341  -0.0369124   0.0000000), wk =   0.1111111
        k(   16) = (   0.0639341   0.0000000   0.0000000), wk =   0.1111111
        k(   17) = (  -0.0959012  -0.0553686   0.0000000), wk =   0.0555556
        k(   18) = (  -0.0959012  -0.0184562   0.0000000), wk =   0.1111111
        k(   19) = (  -0.0959012   0.0184562   0.0000000), wk =   0.1111111
        k(   20) = (  -0.0959012  -0.1661057   0.0000000), wk =   0.0555556

     Largest allocated arrays     est. size (Mb)     dimensions
     Largest temporary arrays     est. size (Mb)     dimensions

     Check: negative/imaginary core charge=   -0.000003    0.000000

     Initial potential from superposition of free atoms
     Check: negative starting charge=   -0.173801

     starting charge  160.49957, renormalised to  171.00000

     negative rho (up, down):  1.852E-01 0.000E+00

     *
     * You are using vdW-DF for exchange-correlation in this calculation.
     * Please cite the following three references that made this development
     * possible:
     *
     *   M. Dion, H. Rydberg, E. Schroder, D. C. Langreth, and
     *   B. I. Lundqvist, Phys. Rev. Lett. 92, 246401 (2004).
     *
     *   T. Thonhauser, V. R. Cooper, S. Li, A. Puzder, P. Hyldgaard, and
     *   D. C. Langreth, Phys. Rev. B 76, 125112 (2007).
     *
     *   G. Roman-Perez and J. M. Soler, Phys. Rev. Lett. 103, 096102 (2009).
     *
     *
     * If you are using vdW-DF2, please also cite:
     *
     *   K. Lee, E. D. Murray, L. Kong, B. I. Lundqvist, and
     *   D. C. Langreth, Phys. Rev. B 82, 081101(R) (2010).
     *
     *
     * If you are calculating the stress with vdW-DF, please also cite:
     *
     *   R. Sabatini, E. Kucukbenli, B. Kolb, T. Thonhauser, and
     *   S. de Gironcoli, J. Phys.: Condens. Matter 24, 424209 (2012).
     *

     Carrying out vdW-DF run using the following parameters:

     Nqs =      20    Nr_points =    1024   r_max =   100.000
     q_mesh =
               0.00001000     0.04494208     0.09755937     0.15916263
               0.23128650     0.31572767     0.41458969     0.53033537
               0.66584808     0.82450364     1.01025438     1.22772762
               1.48234092     1.78043706     2.12944203     2.53805004
               3.01644009     3.57652955     4.23227104     5.00000000

     Gradients computed in reciprocal space

     Adding external electric field

     Computed dipole along edir(3) :
        Dipole                0.0000 Ry au,          0.0000 Debye
        Dipole field          0.0000 Ry au

        Potential amp.       -0.0000 Ry
        Total length         44.6930 bohr

     Starting wfc are  126 randomized atomic wfcs

     Self-consistent Calculation

     iteration #  1     ecut=    36.75 Ry     beta=0.10
     Davidson diagonalization with overlap
     ethr =  1.00E-02,  avg # of iterations =  6.5

[...]

     total energy              =   -2104.45710166 Ry
     Harris-Foulkes estimate   =   -2108.53700306 Ry
     estimated scf accuracy    <      24.86705241 Ry

[...]

     End of self-consistent calculation

          k = 0.0000 0.0000 0.0000 ( 14525 PWs)   bands (ev):

   -70.4312 -70.3540 -70.3538 -70.3364 -70.3249 -70.2680 -70.2679 -70.2650
   -70.2649 -45.6109 -45.5819 -45.5819 -45.2352 -45.2352 -45.2319 -45.2319
   -45.1746 -45.1619 -41.9859 -41.8735 -41.8393 -41.8393 -41.7835 -41.7770
   -41.7769 -41.7703 -41.7176 -41.6839 -41.6839 -41.6643 -41.6642 -41.6485
   -41.6484 -41.5869 -41.5355 -41.5355 -41.5055 -41.4776 -41.4492 -41.4411
   -41.4410 -41.3059 -41.3058 -41.3028 -41.3027  -5.4587  -3.8163  -3.4315
    -3.4314  -3.3263  -3.1060  -3.1060  -2.5692  -2.5692  -2.5608  -2.5608
    -2.5057  -2.2179  -2.0240  -1.6861  -1.6861  -1.5375  -1.0531  -1.0531
    -0.8665  -0.3983  -0.2072   0.0793   0.4384   0.4385   0.5836   0.5836
     0.6530   0.6849   0.6849   0.7887   0.7887   0.9709   1.0530   1.0531
     1.0789   1.5352   1.5651   1.5651   1.7773   1.7773   1.9344   1.9344
     1.9806   2.0790   2.5206   2.5206   2.5309   2.8198   2.8199   2.9559
     2.9560   3.0786   3.0786   3.1000   3.2437   3.2868   3.2869   3.4237
     3.4238   3.5137   3.5137   3.5456   3.5550   3.5550   3.7169   3.7637
     5.4004   5.5261   5.5261

[...]

          k =-0.0959-0.0554 0.0000 ( 14422 PWs)   bands (ev):

[...]

     the Fermi energy is     1.3834 ev

!    total energy              =   -2102.83549052 Ry
     Harris-Foulkes estimate   =   -2102.83549285 Ry
     estimated scf accuracy    <       0.00000068 Ry

     The total energy is the sum of the following terms:

     one-electron contribution =  -19249.38074653 Ry
     hartree contribution      =    9627.51099536 Ry
     xc contribution           =    -302.22951751 Ry
     ewald contribution        =    7821.38004469 Ry
     electric field correction =       0.00000000 Ry
     smearing contrib. (-TS)   =      -0.11626653 Ry

     convergence has been achieved in  26 iterations

 BEEF-vdW xc energy contributions
           1 :   -262.212671879216
           2 :    237.597609648163
           3 :   -196.092153914312
           4 :    149.596133143163
           5 :   -109.188819870918
           6 :    81.2024390614617
           7 :   -66.0007170460182
           8 :    59.5268052534767
           9 :   -56.3482882159984
          10 :    52.4498893799443
          11 :   -46.5362170330427
          12 :    39.6175228928373
[...]
     MD5 check sum: 0d52af634a40206e4dee301ad30da4bf
     Pseudo is Ultrasoft + core correction, Zval = 14.0
     Generated by new atomic code, or converted to UPF format
     Using radial grid of  857 points,  6 beta functions with:
                l(1) =   0
                l(2) =   0
                l(3) =   1
                l(4) =   1
                l(5) =   2
                l(6) =   2
     Q(r) pseudized with  8 coefficients,  rinner =    0.950   0.950   0.950
                                                       0.950   0.950

     PseudoPot. # 2 for Rh read from file:
     /afs/slac.stanford.edu/u/if/mamunm/psp/gbrv1.5pbe/Rh.UPF
     MD5 check sum: 761627e959a2e3a1f56b0b5fe687810e
     Pseudo is Ultrasoft + core correction, Zval = 15.0
     Generated by new atomic code, or converted to UPF format
     Using radial grid of  969 points,  7 beta functions with:
                l(1) =   0
                l(2) =   0
                l(3) =   1
                l(4) =   1
                l(5) =   2
                l(6) =   2
                l(7) =   2
     Q(r) pseudized with  8 coefficients,  rinner =    1.200   1.200   1.200
                                                       1.200   1.200

     vdW kernel table read from file vdW_kernel_table
     MD5 check sum: 095c7af220d748ca6e76c0b4c6cfb241

     atomic species   valence    mass     pseudopotential
        Cr1           14.00    51.99610     Cr( 1.00)
        Rh1           15.00   102.90550     Rh( 1.00)

     No symmetry found

   Cartesian axes

     site n.     atom                  positions (alat units)
         1           Cr1 tau(   1) = (   0.0000000   0.0000000  10.0000000  )
         2           Cr1 tau(   2) = (  -1.3034248   2.2575980  10.0000000  )
         3           Cr1 tau(   3) = (   1.3034248   2.2575980  10.0000000  )
         4           Rh1 tau(   4) = (   2.6068496   0.0000000  10.0000000  )
         5           Cr1 tau(   5) = (   2.6068496   1.5050653  12.1284838  )
         6           Cr1 tau(   6) = (   1.3034248   3.7626633  12.1284838  )
         7           Cr1 tau(   7) = (  -1.3034248   3.7626633  12.1284838  )
         8           Rh1 tau(   8) = (   0.0000000   1.5050653  12.1284838  )
         9           Cr1 tau(   9) = (  -0.0000192   3.0511592  14.1153461  )
        10           Cr1 tau(  10) = (   1.3389352   0.7320318  14.1154177  )
        11           Cr1 tau(  11) = (   3.8747450   0.7320401  14.1153804  )
        12           Rh1 tau(  12) = (   2.6068292   3.0101260  14.2877056  )

     number of k points=    20  Fermi-Dirac smearing, width (Ry)=  0.0110
                       cart. coord. in units 2pi/alat
        k(    1) = (   0.0000000   0.0000000   0.0000000), wk =   0.0555556
        k(    2) = (   0.0000000   0.0369124   0.0000000), wk =   0.1111111
        k(    3) = (   0.0000000   0.0738248   0.0000000), wk =   0.1111111
        k(    4) = (   0.0000000  -0.1107372   0.0000000), wk =   0.0555556
        k(    5) = (   0.0319671   0.0184562   0.0000000), wk =   0.1111111
        k(    6) = (   0.0319671   0.0553686   0.0000000), wk =   0.1111111
        k(    7) = (   0.0319671   0.0922810   0.0000000), wk =   0.1111111
        k(    8) = (   0.0319671  -0.0922810   0.0000000), wk =   0.1111111
        k(    9) = (   0.0319671  -0.0553686   0.0000000), wk =   0.1111111
        k(   10) = (   0.0319671  -0.0184562   0.0000000), wk =   0.1111111
        k(   11) = (   0.0639341   0.0369124   0.0000000), wk =   0.1111111
        k(   12) = (   0.0639341   0.0738248   0.0000000), wk =   0.1111111
        k(   13) = (   0.0639341   0.1107372   0.0000000), wk =   0.1111111
        k(   14) = (   0.0639341  -0.0738248   0.0000000), wk =   0.1111111
        k(   15) = (   0.0639341  -0.0369124   0.0000000), wk =   0.1111111
        k(   16) = (   0.0639341   0.0000000   0.0000000), wk =   0.1111111
        k(   17) = (  -0.0959012  -0.0553686   0.0000000), wk =   0.0555556
        k(   18) = (  -0.0959012  -0.0184562   0.0000000), wk =   0.1111111
        k(   19) = (  -0.0959012   0.0184562   0.0000000), wk =   0.1111111
        k(   20) = (  -0.0959012  -0.1661057   0.0000000), wk =   0.0555556

     Largest allocated arrays     est. size (Mb)     dimensions
     Largest temporary arrays     est. size (Mb)     dimensions

     Check: negative/imaginary core charge=   -0.000003    0.000000

     Initial potential from superposition of free atoms
     Check: negative starting charge=   -0.171856

     starting charge  160.49957, renormalised to  171.00000

[...]

     *
     * You are using vdW-DF for exchange-correlation in this calculation.
     * Please cite the following three references that made this development
     * possible:
     *
     *   M. Dion, H. Rydberg, E. Schroder, D. C. Langreth, and
     *   B. I. Lundqvist, Phys. Rev. Lett. 92, 246401 (2004).
     *
     *   T. Thonhauser, V. R. Cooper, S. Li, A. Puzder, P. Hyldgaard, and
     *   D. C. Langreth, Phys. Rev. B 76, 125112 (2007).
     *
     *   G. Roman-Perez and J. M. Soler, Phys. Rev. Lett. 103, 096102 (2009).
     *
     *
     * If you are using vdW-DF2, please also cite:
     *
     *   K. Lee, E. D. Murray, L. Kong, B. I. Lundqvist, and
     *   D. C. Langreth, Phys. Rev. B 82, 081101(R) (2010).
     *
     *
     * If you are calculating the stress with vdW-DF, please also cite:
     *
     *   R. Sabatini, E. Kucukbenli, B. Kolb, T. Thonhauser, and
     *   S. de Gironcoli, J. Phys.: Condens. Matter 24, 424209 (2012).
     *

     Carrying out vdW-DF run using the following parameters:

     Nqs =      20    Nr_points =    1024   r_max =   100.000
     q_mesh =
               0.00001000     0.04494208     0.09755937     0.15916263
               0.23128650     0.31572767     0.41458969     0.53033537
               0.66584808     0.82450364     1.01025438     1.22772762
               1.48234092     1.78043706     2.12944203     2.53805004
               3.01644009     3.57652955     4.23227104     5.00000000

     Gradients computed in reciprocal space

[...]

     Starting wfc are  126 randomized atomic wfcs

     Self-consistent Calculation

[...]

     total energy              =   -2102.84847094 Ry
     Harris-Foulkes estimate   =   -2102.84847194 Ry
     estimated scf accuracy    <       0.00000147 Ry

     iteration # 24     ecut=    36.75 Ry     beta=0.10
     Davidson diagonalization with overlap
     ethr =  8.57E-10,  avg # of iterations =  2.0

[...]

     negative rho (up, down):  1.832E-01 0.000E+00

     Adding external electric field

     Computed dipole along edir(3) :
        Dipole                0.0066 Ry au,          0.0168 Debye
        Dipole field          0.0000 Ry au

        Potential amp.       -0.0019 Ry
        Total length         44.6930 bohr

     End of self-consistent calculation

[...]

          k = 0.0639 0.0000 0.0000 ( 14489 PWs)   bands (ev):

[...]

          k =-0.0959-0.1661 0.0000 ( 14422 PWs)   bands (ev):

   -70.4036 -70.3804 -70.3485 -70.3347 -70.3170 -70.2952 -70.2567 -70.2343
   -70.2143 -45.6922 -45.6519 -45.6414 -45.2381 -45.2268 -45.1795 -45.1694
   -45.1582 -45.0858 -41.9309 -41.8647 -41.8610 -41.7997 -41.7991 -41.7681
   -41.7395 -41.7325 -41.7231 -41.7020 -41.6910 -41.6336 -41.6282 -41.6024
   -41.5918 -41.5894 -41.5583 -41.5473 -41.5232 -41.5087 -41.4619 -41.4403
   -41.4260 -41.3979 -41.3907 -41.3502 -41.2825  -3.9042  -3.6676  -2.9162
    -2.9137  -2.8111  -2.5788  -2.3960  -2.3177  -2.1811  -2.0613  -1.9067
    -1.7612  -1.7401  -1.5300  -1.4886  -1.3084  -1.2802  -1.2307  -1.0437
    -0.7769  -0.7653  -0.6225  -0.4059  -0.3941  -0.2952  -0.0016   0.1764
     0.2979   0.3002   0.3809   0.5211   0.5230   0.5948   0.6418   0.6771
     0.7679   0.7818   0.8504   0.9517   0.9710   1.2756   1.3942   1.4895
     1.6681   1.6749   1.8250   1.8647   1.9244   2.0201   2.1020   2.1020
     2.2455   2.3224   2.4135   2.4720   2.5224   2.5370   2.7588   2.8351
     2.9766   3.2167   3.2292   3.3189   3.5879   4.1883   4.2135   5.1336
     5.2339   5.7263   5.7424

     the Fermi energy is     1.3741 ev

!    total energy              =   -2102.84846590 Ry
     Harris-Foulkes estimate   =   -2102.84847118 Ry
     estimated scf accuracy    <       0.00000088 Ry

     The total energy is the sum of the following terms:

     one-electron contribution =  -19507.42786768 Ry
     hartree contribution      =    9756.55055521 Ry
     xc contribution           =    -302.42772783 Ry
     ewald contribution        =    7950.56810719 Ry
     electric field correction =       0.00000014 Ry
     smearing contrib. (-TS)   =      -0.11153294 Ry

     convergence has been achieved in  24 iterations

 BEEF-vdW xc energy contributions
           1 :   -262.415565793711
           2 :    237.865990970264
           3 :   -196.431745075528
           4 :    149.937022387880
           5 :   -109.426846862438
           6 :    81.2699670482839
           7 :   -65.9162632764471
           8 :    59.3880364985766
           9 :   -56.2728994667557
          10 :    52.5040948330266
          11 :   -46.6966893683119
          12 :    39.7897883555976
          13 :   -33.6391497980716
          14 :    29.5625589046099
          15 :   -27.6215173616511
          16 :    26.8432520073065
          17 :   -26.0262976477350
          18 :    24.5111437018907
          19 :   -22.4438067428878
          20 :    20.4612890388647
          21 :   -19.1150556657725
          22 :    18.4675442763117
          23 :   -18.1123868645266
          24 :    17.5369367526770
          25 :   -16.5188319323482
          26 :    15.2637744011805
          27 :   -14.2133484603125
          28 :    13.6930316434697
          29 :   -13.6665079752202
          30 :    13.7621584219532
          31 :   -25.8783675831959
          32 :   -18.8716635207624

     Forces acting on atoms (Ry/au):

     negative rho (up, down):  1.832E-01 0.000E+00
     atom    1 type  1   force =    -0.00000045   -0.00536573    0.02370478
     atom    2 type  1   force =    -0.00464214    0.00268066    0.02368852
     atom    3 type  1   force =     0.00464980    0.00268532    0.02370255
     atom    4 type  2   force =    -0.00000270   -0.00000333   -0.01380431
     atom    5 type  1   force =    -0.00000595    0.00329091   -0.00749659
     atom    6 type  1   force =     0.00285180   -0.00164517   -0.00750903
     atom    7 type  1   force =    -0.00285467   -0.00163953   -0.00750038
     atom    8 type  2   force =     0.00001397   -0.00001040   -0.03088048
     atom    9 type  1   force =    -0.00000133    0.00068318   -0.00076285
     atom   10 type  1   force =     0.00058388   -0.00034033   -0.00076569
     atom   11 type  1   force =    -0.00059530   -0.00034540   -0.00079134
     atom   12 type  2   force =     0.00000309    0.00000982   -0.00158518

     Total force =     0.055879     Total SCF correction =     0.004014

     entering subroutine stress ...

     negative rho (up, down):  1.832E-01 0.000E+00
          total   stress  (Ry/bohr**3)                   (kbar)     P=  -23.85
  -0.00018784   0.00000001   0.00000001        -27.63      0.00      0.00
   0.00000001  -0.00018781   0.00000000          0.00    -27.63      0.00
   0.00000001   0.00000000  -0.00011081          0.00      0.00    -16.30

 !ASE

     Writing output data file calc.save

     General routines

     Parallel routines

   This run was terminated on:  15:15:17  25Dec2018

   JOB DONE.
Job  /afs/slac/g/suncat/bin/suncat-tsmpirun -x LD_LIBRARY_PATH -wdir /scratch/qe109529_ByGu5 pw.x -in pw.inp

TID   HOST_NAME   COMMAND_LINE            STATUS            TERMINATION_TIME
00000 suncat0025 pw.x -in pw.inp   Done                     12/25/2018 15:15:17
00001 suncat0025 pw.x -in pw.inp   Done                     12/25/2018 15:15:17
00002 suncat0025 pw.x -in pw.inp   Done                     12/25/2018 15:15:17
00003 suncat0025 pw.x -in pw.inp   Done                     12/25/2018 15:15:17
00004 suncat0025 pw.x -in pw.inp   Done                     12/25/2018 15:15:17
00005 suncat0025 pw.x -in pw.inp   Done                     12/25/2018 15:15:17
00006 suncat0025 pw.x -in pw.inp   Done                     12/25/2018 15:15:17
00007 suncat0025 pw.x -in pw.inp   Done                     12/25/2018 15:15:17
00008 suncat0013 pw.x -in pw.inp   Done                     12/25/2018 15:15:17
00009 suncat0013 pw.x -in pw.inp   Done                     12/25/2018 15:15:17
00010 suncat0013 pw.x -in pw.inp   Done                     12/25/2018 15:15:17
00011 suncat0013 pw.x -in pw.inp   Done                     12/25/2018 15:15:17
00012 suncat0013 pw.x -in pw.inp   Done                     12/25/2018 15:15:17
00013 suncat0013 pw.x -in pw.inp   Done                     12/25/2018 15:15:17
00014 suncat0013 pw.x -in pw.inp   Done                     12/25/2018 15:15:17
00015 suncat0013 pw.x -in pw.inp   Done                     12/25/2018 15:15:17
00016 suncat0199 pw.x -in pw.inp   Done                     12/25/2018 15:15:17
00017 suncat0199 pw.x -in pw.inp   Done                     12/25/2018 15:15:17
00018 suncat0199 pw.x -in pw.inp   Done                     12/25/2018 15:15:17
00019 suncat0199 pw.x -in pw.inp   Done                     12/25/2018 15:15:17
00020 suncat0199 pw.x -in pw.inp   Done                     12/25/2018 15:15:17
00021 suncat0199 pw.x -in pw.inp   Done                     12/25/2018 15:15:17
00022 suncat0199 pw.x -in pw.inp   Done                     12/25/2018 15:15:17
00023 suncat0199 pw.x -in pw.inp   Done                     12/25/2018 15:15:17
00024 suncat0142 pw.x -in pw.inp   Done                     12/25/2018 15:15:17
00025 suncat0142 pw.x -in pw.inp   Done                     12/25/2018 15:15:17
00026 suncat0142 pw.x -in pw.inp   Done                     12/25/2018 15:15:17
00027 suncat0142 pw.x -in pw.inp   Done                     12/25/2018 15:15:17
00028 suncat0142 pw.x -in pw.inp   Done                     12/25/2018 15:15:17
00029 suncat0142 pw.x -in pw.inp   Done                     12/25/2018 15:15:17
00030 suncat0142 pw.x -in pw.inp   Done                     12/25/2018 15:15:17
00031 suncat0142 pw.x -in pw.inp   Done                     12/25/2018 15:15:17
00032 suncat0266 pw.x -in pw.inp   Done                     12/25/2018 15:15:17
00033 suncat0266 pw.x -in pw.inp   Done                     12/25/2018 15:15:17
00034 suncat0266 pw.x -in pw.inp   Done                     12/25/2018 15:15:17
00035 suncat0266 pw.x -in pw.inp   Done                     12/25/2018 15:15:17
00036 suncat0266 pw.x -in pw.inp   Done                     12/25/2018 15:15:17
00037 suncat0266 pw.x -in pw.inp   Done                     12/25/2018 15:15:17
00038 suncat0266 pw.x -in pw.inp   Done                     12/25/2018 15:15:17
00039 suncat0266 pw.x -in pw.inp   Done                     12/25/2018 15:15:17
00040 suncat0264 pw.x -in pw.inp   Done                     12/25/2018 15:15:17
00041 suncat0264 pw.x -in pw.inp   Done                     12/25/2018 15:15:17
00042 suncat0264 pw.x -in pw.inp   Done                     12/25/2018 15:15:17
00043 suncat0264 pw.x -in pw.inp   Done                     12/25/2018 15:15:17
00044 suncat0264 pw.x -in pw.inp   Done                     12/25/2018 15:15:17
00045 suncat0264 pw.x -in pw.inp   Done                     12/25/2018 15:15:17
00046 suncat0264 pw.x -in pw.inp   Done                     12/25/2018 15:15:17
00047 suncat0264 pw.x -in pw.inp   Done                     12/25/2018 15:15:17
00048 suncat0234 pw.x -in pw.inp   Done                     12/25/2018 15:15:17
00049 suncat0234 pw.x -in pw.inp   Done                     12/25/2018 15:15:17
00050 suncat0234 pw.x -in pw.inp   Done                     12/25/2018 15:15:17
00051 suncat0234 pw.x -in pw.inp   Done                     12/25/2018 15:15:17
00052 suncat0234 pw.x -in pw.inp   Done                     12/25/2018 15:15:17
00053 suncat0234 pw.x -in pw.inp   Done                     12/25/2018 15:15:17
00054 suncat0234 pw.x -in pw.inp   Done                     12/25/2018 15:15:17
00055 suncat0234 pw.x -in pw.inp   Done                     12/25/2018 15:15:17
00056 suncat0233 pw.x -in pw.inp   Done                     12/25/2018 15:15:17
00057 suncat0233 pw.x -in pw.inp   Done                     12/25/2018 15:15:17
00058 suncat0233 pw.x -in pw.inp   Done                     12/25/2018 15:15:17
00059 suncat0233 pw.x -in pw.inp   Done                     12/25/2018 15:15:17
00060 suncat0233 pw.x -in pw.inp   Done                     12/25/2018 15:15:17
00061 suncat0233 pw.x -in pw.inp   Done                     12/25/2018 15:15:17
00062 suncat0233 pw.x -in pw.inp   Done                     12/25/2018 15:15:17
00063 suncat0233 pw.x -in pw.inp   Done                     12/25/2018 15:15:17