     Program PWSCF v.5.1rc2 (svn rev. 11289) starts on 19Dec2018 at  9:30:45

     Current dimensions of program PWSCF are:
     Max number of different atomic species (ntypx) = 10
     Max number of k-points (npk) =  40000
     Max angular momentum in pseudopotentials (lmaxx) =  3
     Presently stress not available with electric field

     IMPORTANT: XC functional enforced from input :
     Exchange-correlation      = BEEF-VDW ( 1  4 27 13 2)
     Any further DFT definition will be discarded
     Please, verify this is what you really want

     Subspace diagonalization in iterative solution of the eigenvalue problem:
     a serial algorithm will be used

     Found symmetry operation: I + ( -0.5000 -0.5000  0.0000)
     This is a supercell, fractional translations are disabled

     bravais-lattice index     =            0
     lattice parameter (alat)  =       1.8897  a.u.
     unit-cell volume          =    5804.7785 (a.u.)^3
     number of atoms/cell      =           12
     number of atomic types    =            2
     number of electrons       =       180.00
     number of Kohn-Sham states=          120
     kinetic-energy cutoff     =      36.7493  Ry
     charge density cutoff     =     367.4932  Ry
     convergence threshold     =      1.0E-06
     mixing beta               =       0.1000
     number of iterations used =           10  plain     mixing
     Exchange-correlation      = BEEF-VDW ( 1  4 27 13 2)
     nstep                     =           50

     celldm(1)=   1.889726  celldm(2)=   0.000000  celldm(3)=   0.000000
     celldm(4)=   0.000000  celldm(5)=   0.000000  celldm(6)=   0.000000

     crystal axes: (cart. coord. in units of alat)
               a(1) = (   6.048507   0.000000   0.000000 )
               a(2) = (   2.016303   5.702540   0.000000 )
               a(3) = (   0.000000   0.000000  24.938626 )

     reciprocal axes: (cart. coord. in units 2 pi/alat)
               b(1) = (  0.165330 -0.058457  0.000000 )
               b(2) = (  0.000000  0.175360  0.000000 )
               b(3) = (  0.000000  0.000000  0.040098 )

     PseudoPot. # 1 for Cu read from file:
     /afs/slac.stanford.edu/u/if/mamunm/psp/gbrv1.5pbe/Cu.UPF
     MD5 check sum: 6e991ff952a84172a2a52a1c1e996048
     Pseudo is Ultrasoft + core correction, Zval = 19.0
     Generated by new atomic code, or converted to UPF format
     Using radial grid of  867 points,  6 beta functions with:
                l(1) =   0
                l(2) =   0
                l(3) =   1
                l(4) =   1
                l(5) =   2
                l(6) =   2
     Q(r) pseudized with  8 coefficients,  rinner =    1.150   1.150   1.150
                                                       1.150   1.150

     PseudoPot. # 2 for Y  read from file:
     /afs/slac.stanford.edu/u/if/mamunm/psp/gbrv1.5pbe/Y.UPF
     MD5 check sum: d034151ed7554c50b6e82763ed42c788
     Pseudo is Ultrasoft + core correction, Zval = 11.0
     Generated by new atomic code, or converted to UPF format
     Using radial grid of  885 points,  6 beta functions with:
                l(1) =   0
                l(2) =   0
                l(3) =   1
                l(4) =   1
                l(5) =   2
                l(6) =   2
     Q(r) pseudized with  8 coefficients,  rinner =    1.200   1.200   1.200
                                                       1.200   1.200

     vdW kernel table read from file vdW_kernel_table
     MD5 check sum: 095c7af220d748ca6e76c0b4c6cfb241

     atomic species   valence    mass     pseudopotential
        Cu1           19.00    63.54600     Cu( 1.00)
        Y1            11.00    88.90584     Y ( 1.00)

     No symmetry found

   Cartesian axes

     site n.     atom                  positions (alat units)
         1           Cu1 tau(   1) = (   0.0000000   0.0000000  10.0000000  )
         2           Cu1 tau(   2) = (   4.0324051   2.8512699  10.0000000  )
         3           Y1  tau(   3) = (   3.0242535   0.0000000  10.0000000  )
         4           Y1  tau(   4) = (   1.0081515   2.8512699  10.0000000  )
         5           Cu1 tau(   5) = (   6.0485071   4.2768338  12.4693132  )
         6           Cu1 tau(   6) = (   2.0161020   1.4255639  12.4693132  )
         7           Y1  tau(   7) = (   3.0242535   4.2768338  12.4693132  )
         8           Y1  tau(   8) = (   5.0403556   1.4255639  12.4693132  )
         9           Cu1 tau(   9) = (   4.0322041   2.8511278  14.9386264  )
        10           Cu1 tau(  10) = (   8.0646091   5.7023977  14.9386264  )
        11           Y1  tau(  11) = (   7.0564576   2.8511278  14.9386264  )
        12           Y1  tau(  12) = (   5.0403556   5.7023977  14.9386264  )

     number of k points=    20  Fermi-Dirac smearing, width (Ry)=  0.0110
                       cart. coord. in units 2pi/alat
        k(    1) = (   0.0000000   0.0000000   0.0000000), wk =   0.0555556
        k(    2) = (   0.0000000   0.0292267   0.0000000), wk =   0.1111111
        k(    3) = (   0.0000000   0.0584535   0.0000000), wk =   0.1111111
        k(    4) = (   0.0000000  -0.0876802   0.0000000), wk =   0.0555556
        k(    5) = (   0.0275550  -0.0097429   0.0000000), wk =   0.1111111
        k(    6) = (   0.0275550   0.0194838   0.0000000), wk =   0.1111111
        k(    7) = (   0.0275550   0.0487106   0.0000000), wk =   0.1111111
        k(    8) = (   0.0275550  -0.0974231   0.0000000), wk =   0.1111111
        k(    9) = (   0.0275550  -0.0681964   0.0000000), wk =   0.1111111
        k(   10) = (   0.0275550  -0.0389696   0.0000000), wk =   0.1111111
        k(   11) = (   0.0551100  -0.0194858   0.0000000), wk =   0.1111111
        k(   12) = (   0.0551100   0.0097410   0.0000000), wk =   0.1111111
        k(   13) = (   0.0551100   0.0389677   0.0000000), wk =   0.1111111
        k(   14) = (   0.0551100  -0.1071660   0.0000000), wk =   0.1111111
        k(   15) = (   0.0551100  -0.0779393   0.0000000), wk =   0.1111111
        k(   16) = (   0.0551100  -0.0487125   0.0000000), wk =   0.1111111
        k(   17) = (  -0.0826650   0.0292287   0.0000000), wk =   0.0555556
        k(   18) = (  -0.0826650   0.0584554   0.0000000), wk =   0.1111111
        k(   19) = (  -0.0826650   0.0876822   0.0000000), wk =   0.1111111
        k(   20) = (  -0.0826650  -0.0584515   0.0000000), wk =   0.0555556

     Largest allocated arrays     est. size (Mb)     dimensions
     Largest temporary arrays     est. size (Mb)     dimensions

     Initial potential from superposition of free atoms
     Check: negative starting charge=   -0.000416

     starting charge  173.97317, renormalised to  180.00000

     negative rho (up, down):  4.303E-04 0.000E+00

     *
     * You are using vdW-DF for exchange-correlation in this calculation.
     * Please cite the following three references that made this development
     * possible:
     *
     *   M. Dion, H. Rydberg, E. Schroder, D. C. Langreth, and
     *   B. I. Lundqvist, Phys. Rev. Lett. 92, 246401 (2004).
     *
     *   T. Thonhauser, V. R. Cooper, S. Li, A. Puzder, P. Hyldgaard, and
     *   D. C. Langreth, Phys. Rev. B 76, 125112 (2007).
     *
     *   G. Roman-Perez and J. M. Soler, Phys. Rev. Lett. 103, 096102 (2009).
     *
     *
     * If you are using vdW-DF2, please also cite:
     *
     *   K. Lee, E. D. Murray, L. Kong, B. I. Lundqvist, and
     *   D. C. Langreth, Phys. Rev. B 82, 081101(R) (2010).
     *
     *
     * If you are calculating the stress with vdW-DF, please also cite:
     *
     *   R. Sabatini, E. Kucukbenli, B. Kolb, T. Thonhauser, and
     *   S. de Gironcoli, J. Phys.: Condens. Matter 24, 424209 (2012).
     *

     Carrying out vdW-DF run using the following parameters:

     Nqs =      20    Nr_points =    1024   r_max =   100.000
     q_mesh =
               0.00001000     0.04494208     0.09755937     0.15916263
               0.23128650     0.31572767     0.41458969     0.53033537
               0.66584808     0.82450364     1.01025438     1.22772762
               1.48234092     1.78043706     2.12944203     2.53805004
               3.01644009     3.57652955     4.23227104     5.00000000

     Gradients computed in reciprocal space

     Adding external electric field

     Computed dipole along edir(3) :
        Dipole                0.0000 Ry au,          0.0000 Debye
        Dipole field          0.0000 Ry au

        Potential amp.       -0.0000 Ry
        Total length         45.9490 bohr

     Starting wfc are  156 randomized atomic wfcs

     Self-consistent Calculation

     iteration #  1     ecut=    36.75 Ry     beta=0.10
     Davidson diagonalization with overlap
     ethr =  1.00E-02,  avg # of iterations =  3.1

[...]

     total energy              =   -2992.35229392 Ry
     Harris-Foulkes estimate   =   -2993.23823531 Ry
     estimated scf accuracy    <       5.30396650 Ry

[...]

     End of self-consistent calculation

          k = 0.0000 0.0000 0.0000 ( 21729 PWs)   bands (ev):

  -111.8029-111.8029-111.6877-111.6877-111.6877-111.6876 -69.1946 -69.1945
   -69.1801 -69.1800 -69.1774 -69.1766 -69.1149 -69.1149 -69.1148 -69.1148
   -69.0762 -69.0761 -69.0754 -69.0753 -69.0377 -69.0376 -69.0376 -69.0376
   -42.4675 -42.4664 -42.4380 -42.4379 -42.0491 -42.0207 -22.5080 -22.5077
   -22.5062 -22.4875 -22.4798 -22.4414 -22.4047 -22.3889 -22.3741 -22.3412
   -22.1934 -22.1491 -22.1476 -22.0101 -21.9517 -21.9431 -21.9122 -21.8199
    -4.7862  -3.5214  -2.8456  -2.7153  -2.6692  -2.3842  -2.3557  -2.3377
    -2.3150  -2.3111  -2.2504  -2.1787  -2.1558  -2.0300  -2.0131  -2.0071
    -1.9546  -1.9519  -1.9090  -1.8921  -1.8821  -1.8736  -1.8662  -1.8107
    -1.7742  -1.7015  -1.6903  -1.6678  -1.6433  -1.5997  -1.5732  -1.5193
    -1.2233  -1.0403  -0.9642  -0.9135   0.4604   0.6277   0.6661   1.0963
     1.1514   1.3397   1.3971   1.4749   1.5769   1.8329   1.9621   2.0648
     2.1241   2.1423   2.2372   2.3888   2.5221   2.8001   2.9671   3.1859
     3.2215   3.7134   3.7388   3.8566   3.9505   3.9717   4.1498   4.1833
     4.3051   4.5038   4.5098   4.6092   4.7431   4.7694   4.8483   5.0226

[...]

          k =-0.0827 0.0292 0.0000 ( 21828 PWs)   bands (ev):

[...]

     the Fermi energy is     1.0540 ev

!    total energy              =   -2991.95005339 Ry
     Harris-Foulkes estimate   =   -2991.95004296 Ry
     estimated scf accuracy    <       0.00000053 Ry

     The total energy is the sum of the following terms:

     one-electron contribution =  -15522.20202912 Ry
     hartree contribution      =    7765.02510928 Ry
     xc contribution           =    -409.25085525 Ry
     ewald contribution        =    5174.54441753 Ry
     electric field correction =       0.00000000 Ry
     smearing contrib. (-TS)   =      -0.06669583 Ry

     convergence has been achieved in  16 iterations

 BEEF-vdW xc energy contributions
           1 :   -360.401974063449
           2 :    325.345988892960
           3 :   -265.459215817582
           4 :    196.396884853269
           5 :   -132.642713243149
           6 :    82.6601662356530
           7 :   -47.8360732334851
           8 :    24.8326619312669
           9 :   -9.28697488292846
          10 :   -1.43657846706719
[...]

[...]

     iteration #  5     ecut=    36.75 Ry     beta=0.10
     Davidson diagonalization with overlap
     c_bands:  2 eigenvalues not converged
     ethr =  3.97E-04,  avg # of iterations =  8.8

[...]

     Total force =     0.028034     Total SCF correction =     0.003539
     SCF correction compared to forces is large: reduce conv_thr to get better values

[...]

     Program PWSCF v.5.1rc2 (svn rev. 11289) starts on 19Dec2018 at 10:54:44

[...]

   This run was terminated on:  11:10:53  19Dec2018

[...]

     Program PWSCF v.5.1rc2 (svn rev. 11289) starts on 19Dec2018 at 11:11: 0

     Current dimensions of program PWSCF are:
     Max number of different atomic species (ntypx) = 10
     Max number of k-points (npk) =  40000
     Max angular momentum in pseudopotentials (lmaxx) =  3
     Presently stress not available with electric field

     IMPORTANT: XC functional enforced from input :
     Exchange-correlation      = BEEF-VDW ( 1  4 27 13 2)
     Any further DFT definition will be discarded
     Please, verify this is what you really want

     Subspace diagonalization in iterative solution of the eigenvalue problem:
     a serial algorithm will be used

     bravais-lattice index     =            0
     lattice parameter (alat)  =       1.8897  a.u.
     unit-cell volume          =    5804.7785 (a.u.)^3
     number of atoms/cell      =           12
     number of atomic types    =            2
     number of electrons       =       180.00
     number of Kohn-Sham states=          120
     kinetic-energy cutoff     =      36.7493  Ry
     charge density cutoff     =     367.4932  Ry
     convergence threshold     =      1.0E-06
     mixing beta               =       0.1000
     number of iterations used =           10  plain     mixing
     Exchange-correlation      = BEEF-VDW ( 1  4 27 13 2)
     nstep                     =           50

     celldm(1)=   1.889726  celldm(2)=   0.000000  celldm(3)=   0.000000
     celldm(4)=   0.000000  celldm(5)=   0.000000  celldm(6)=   0.000000

     crystal axes: (cart. coord. in units of alat)
               a(1) = (   6.048507   0.000000   0.000000 )
               a(2) = (   2.016303   5.702540   0.000000 )
               a(3) = (   0.000000   0.000000  24.938626 )

     reciprocal axes: (cart. coord. in units 2 pi/alat)
               b(1) = (  0.165330 -0.058457  0.000000 )
               b(2) = (  0.000000  0.175360  0.000000 )
               b(3) = (  0.000000  0.000000  0.040098 )

     PseudoPot. # 1 for Cu read from file:
     /afs/slac.stanford.edu/u/if/mamunm/psp/gbrv1.5pbe/Cu.UPF
     MD5 check sum: 6e991ff952a84172a2a52a1c1e996048
     Pseudo is Ultrasoft + core correction, Zval = 19.0
     Generated by new atomic code, or converted to UPF format
     Using radial grid of  867 points,  6 beta functions with:
                l(1) =   0
                l(2) =   0
                l(3) =   1
                l(4) =   1
                l(5) =   2
                l(6) =   2
     Q(r) pseudized with  8 coefficients,  rinner =    1.150   1.150   1.150
                                                       1.150   1.150

     PseudoPot. # 2 for Y  read from file:
     /afs/slac.stanford.edu/u/if/mamunm/psp/gbrv1.5pbe/Y.UPF
     MD5 check sum: d034151ed7554c50b6e82763ed42c788
     Pseudo is Ultrasoft + core correction, Zval = 11.0
     Generated by new atomic code, or converted to UPF format
     Using radial grid of  885 points,  6 beta functions with:
                l(1) =   0
                l(2) =   0
                l(3) =   1
                l(4) =   1
                l(5) =   2
                l(6) =   2
     Q(r) pseudized with  8 coefficients,  rinner =    1.200   1.200   1.200
                                                       1.200   1.200

     vdW kernel table read from file vdW_kernel_table
     MD5 check sum: 095c7af220d748ca6e76c0b4c6cfb241

     atomic species   valence    mass     pseudopotential
        Cu1           19.00    63.54600     Cu( 1.00)
        Y1            11.00    88.90584     Y ( 1.00)

     No symmetry found

   Cartesian axes

     site n.     atom                  positions (alat units)
         1           Cu1 tau(   1) = (   0.0000000   0.0000000  10.0000000  )
         2           Cu1 tau(   2) = (   4.0324051   2.8512699  10.0000000  )
         3           Y1  tau(   3) = (   3.0242535   0.0000000  10.0000000  )
         4           Y1  tau(   4) = (   1.0081515   2.8512699  10.0000000  )
         5           Cu1 tau(   5) = (   6.0485071   4.2768338  12.4693132  )
         6           Cu1 tau(   6) = (   2.0161020   1.4255639  12.4693132  )
         7           Y1  tau(   7) = (   3.0242535   4.2768338  12.4693132  )
         8           Y1  tau(   8) = (   5.0403556   1.4255639  12.4693132  )
         9           Cu1 tau(   9) = (   4.0322116   2.8512163  14.7558195  )
        10           Cu1 tau(  10) = (   8.0646860   5.7023881  14.7558193  )
        11           Y1  tau(  11) = (   7.0564863   2.8511438  14.9316346  )
        12           Y1  tau(  12) = (   5.0404290   5.7024596  14.9316272  )

     number of k points=    20  Fermi-Dirac smearing, width (Ry)=  0.0110
                       cart. coord. in units 2pi/alat
        k(    1) = (   0.0000000   0.0000000   0.0000000), wk =   0.0555556
        k(    2) = (   0.0000000   0.0292267   0.0000000), wk =   0.1111111
        k(    3) = (   0.0000000   0.0584535   0.0000000), wk =   0.1111111
        k(    4) = (   0.0000000  -0.0876802   0.0000000), wk =   0.0555556
        k(    5) = (   0.0275550  -0.0097429   0.0000000), wk =   0.1111111
        k(    6) = (   0.0275550   0.0194838   0.0000000), wk =   0.1111111
        k(    7) = (   0.0275550   0.0487106   0.0000000), wk =   0.1111111
        k(    8) = (   0.0275550  -0.0974231   0.0000000), wk =   0.1111111
        k(    9) = (   0.0275550  -0.0681964   0.0000000), wk =   0.1111111
        k(   10) = (   0.0275550  -0.0389696   0.0000000), wk =   0.1111111
        k(   11) = (   0.0551100  -0.0194858   0.0000000), wk =   0.1111111
        k(   12) = (   0.0551100   0.0097410   0.0000000), wk =   0.1111111
        k(   13) = (   0.0551100   0.0389677   0.0000000), wk =   0.1111111
        k(   14) = (   0.0551100  -0.1071660   0.0000000), wk =   0.1111111
        k(   15) = (   0.0551100  -0.0779393   0.0000000), wk =   0.1111111
        k(   16) = (   0.0551100  -0.0487125   0.0000000), wk =   0.1111111
        k(   17) = (  -0.0826650   0.0292287   0.0000000), wk =   0.0555556
        k(   18) = (  -0.0826650   0.0584554   0.0000000), wk =   0.1111111
        k(   19) = (  -0.0826650   0.0876822   0.0000000), wk =   0.1111111
        k(   20) = (  -0.0826650  -0.0584515   0.0000000), wk =   0.0555556

     Largest allocated arrays     est. size (Mb)     dimensions
     Largest temporary arrays     est. size (Mb)     dimensions

     Initial potential from superposition of free atoms
     Check: negative starting charge=   -0.000420

     starting charge  173.97317, renormalised to  180.00000

[...]

     *
     * You are using vdW-DF for exchange-correlation in this calculation.
     * Please cite the following three references that made this development
     * possible:
     *
     *   M. Dion, H. Rydberg, E. Schroder, D. C. Langreth, and
     *   B. I. Lundqvist, Phys. Rev. Lett. 92, 246401 (2004).
     *
     *   T. Thonhauser, V. R. Cooper, S. Li, A. Puzder, P. Hyldgaard, and
     *   D. C. Langreth, Phys. Rev. B 76, 125112 (2007).
     *
     *   G. Roman-Perez and J. M. Soler, Phys. Rev. Lett. 103, 096102 (2009).
     *
     *
     * If you are using vdW-DF2, please also cite:
     *
     *   K. Lee, E. D. Murray, L. Kong, B. I. Lundqvist, and
     *   D. C. Langreth, Phys. Rev. B 82, 081101(R) (2010).
     *
     *
     * If you are calculating the stress with vdW-DF, please also cite:
     *
     *   R. Sabatini, E. Kucukbenli, B. Kolb, T. Thonhauser, and
     *   S. de Gironcoli, J. Phys.: Condens. Matter 24, 424209 (2012).
     *

     Carrying out vdW-DF run using the following parameters:

     Nqs =      20    Nr_points =    1024   r_max =   100.000
     q_mesh =
               0.00001000     0.04494208     0.09755937     0.15916263
               0.23128650     0.31572767     0.41458969     0.53033537
               0.66584808     0.82450364     1.01025438     1.22772762
               1.48234092     1.78043706     2.12944203     2.53805004
               3.01644009     3.57652955     4.23227104     5.00000000

     Gradients computed in reciprocal space

[...]

     Starting wfc are  156 randomized atomic wfcs

     Self-consistent Calculation

[...]

     total energy              =   -2991.95653429 Ry
     Harris-Foulkes estimate   =   -2991.95653380 Ry
     estimated scf accuracy    <       0.00000108 Ry

     iteration # 17     ecut=    36.75 Ry     beta=0.10
     Davidson diagonalization with overlap
     ethr =  6.02E-10,  avg # of iterations =  3.0

[...]

     negative rho (up, down):  6.601E-04 0.000E+00

     Adding external electric field

     Computed dipole along edir(3) :
        Dipole                0.0522 Ry au,          0.1326 Debye
        Dipole field          0.0001 Ry au

        Potential amp.       -0.0104 Ry
        Total length         45.9490 bohr

     End of self-consistent calculation

[...]

          k = 0.0551-0.0487 0.0000 ( 21847 PWs)   bands (ev):

[...]

          k =-0.0827-0.0585 0.0000 ( 21930 PWs)   bands (ev):

  -111.7760-111.7760-111.7370-111.7370-111.6294-111.6293 -69.1753 -69.1753
   -69.1640 -69.1632 -69.1465 -69.1464 -69.1259 -69.1258 -69.1149 -69.1149
   -69.1142 -69.1134 -69.0565 -69.0564 -69.0192 -69.0183 -68.9789 -68.9789
   -42.4327 -42.4050 -42.4043 -42.3767 -41.8959 -41.8658 -22.4828 -22.4818
   -22.4496 -22.4285 -22.4274 -22.3895 -22.3853 -22.3367 -22.3117 -22.2816
   -22.1181 -22.0853 -22.0568 -21.8504 -21.8298 -21.8200 -21.7746 -21.6795
    -3.1840  -3.1220  -2.4788  -2.3951  -2.1512  -2.1119  -2.1091  -2.0456
    -2.0404  -2.0297  -2.0059  -2.0058  -1.9977  -1.9326  -1.9089  -1.8888
    -1.8575  -1.8520  -1.8440  -1.8323  -1.8302  -1.8033  -1.7927  -1.7549
    -1.7369  -1.7163  -1.6980  -1.6731  -1.6215  -1.5920  -1.5670  -1.4990
    -1.4665  -1.1382  -1.1368  -1.0822  -0.9735  -0.1035  -0.0920  -0.0499
     0.0779   0.4267   0.4652   0.7732   0.9227   1.3802   1.4506   1.6186
     1.8861   2.2413   2.3968   2.4821   2.6327   2.7740   2.9778   3.1048
     3.1150   3.1586   3.2819   3.6606   3.6662   3.9311   4.2682   4.4730
     4.9849   5.0442   5.0923   5.1254   5.2633   5.2772   5.3456   5.4730

     the Fermi energy is     1.1087 ev

!    total energy              =   -2991.95653712 Ry
     Harris-Foulkes estimate   =   -2991.95653440 Ry
     estimated scf accuracy    <       0.00000052 Ry

     The total energy is the sum of the following terms:

     one-electron contribution =  -15748.03955455 Ry
     hartree contribution      =    7878.19533930 Ry
     xc contribution           =    -409.30201593 Ry
     ewald contribution        =    5287.25490816 Ry
     electric field correction =       0.00000589 Ry
     smearing contrib. (-TS)   =      -0.06521999 Ry

     convergence has been achieved in  17 iterations

 BEEF-vdW xc energy contributions
           1 :   -360.459033126245
           2 :    325.442401127188
           3 :   -265.593738775161
           4 :    196.522221307951
           5 :   -132.698586397371
           6 :    82.6195933068496
           7 :   -47.7302194130779
           8 :    24.7328499010737
           9 :   -9.25369043717222
          10 :   -1.39914026790007
          11 :    7.62657110421765
          12 :   -8.84521324543675
          13 :    5.36018258783366
          14 :   0.686705595471551
          15 :   -5.95853129576375
          16 :    7.61233078651810
          17 :   -4.79074531694937
          18 :   -1.09358624780907
          19 :    7.37578007498507
          20 :   -11.7020210060818
          21 :    13.1416031589946
          22 :   -12.2801215457040
          23 :    10.4325835699213
          24 :   -8.63643171145998
          25 :    7.11195698111942
          26 :   -5.45876781667801
          27 :    3.30657624481853
          28 :  -0.855243592150259
          29 :   -1.11388254955574
          30 :    1.74065710337004
          31 :   -31.0070804149134
          32 :   -21.1197369631254

     Forces acting on atoms (Ry/au):

     negative rho (up, down):  6.601E-04 0.000E+00
     atom    1 type  1   force =    -0.00000020   -0.00000042    0.01566494
     atom    2 type  1   force =    -0.00000404   -0.00000665    0.01565838
     atom    3 type  2   force =    -0.00000573   -0.00000611   -0.00398631
     atom    4 type  2   force =    -0.00000634   -0.00000135   -0.00398556
     atom    5 type  1   force =     0.00000679    0.00000678    0.00151373
     atom    6 type  1   force =     0.00000146   -0.00000408    0.00151004
     atom    7 type  2   force =     0.00000490    0.00000203   -0.01267068
     atom    8 type  2   force =     0.00000391    0.00000699   -0.01266575
     atom    9 type  1   force =    -0.00000017   -0.00000064   -0.00089034
     atom   10 type  1   force =    -0.00000428   -0.00000076   -0.00090159
     atom   11 type  2   force =    -0.00000001    0.00000391    0.00037536
     atom   12 type  2   force =     0.00000371    0.00000029    0.00037779

     Total force =     0.029151     Total SCF correction =     0.001733

     entering subroutine stress ...

     negative rho (up, down):  6.601E-04 0.000E+00
          total   stress  (Ry/bohr**3)                   (kbar)     P=   -8.56
  -0.00007576  -0.00002358   0.00000001        -11.14     -3.47      0.00
  -0.00002358  -0.00005908   0.00000001         -3.47     -8.69      0.00
   0.00000001   0.00000001  -0.00003972          0.00      0.00     -5.84

 !ASE

     Writing output data file calc.save

     General routines

     Parallel routines

   This run was terminated on:  11:27: 2  19Dec2018

   JOB DONE.
Job  /afs/slac/g/suncat/bin/suncat-tsmpirun -x LD_LIBRARY_PATH -wdir /scratch/qe529818_wYb12 pw.x -in pw.inp

TID   HOST_NAME   COMMAND_LINE            STATUS            TERMINATION_TIME
00000 suncat0153 pw.x -in pw.inp   Done                     12/19/2018 11:27:02
00001 suncat0153 pw.x -in pw.inp   Done                     12/19/2018 11:27:02
00002 suncat0153 pw.x -in pw.inp   Done                     12/19/2018 11:27:02
00003 suncat0153 pw.x -in pw.inp   Done                     12/19/2018 11:27:02
00004 suncat0153 pw.x -in pw.inp   Done                     12/19/2018 11:27:02
00005 suncat0153 pw.x -in pw.inp   Done                     12/19/2018 11:27:02
00006 suncat0153 pw.x -in pw.inp   Done                     12/19/2018 11:27:02
00007 suncat0153 pw.x -in pw.inp   Done                     12/19/2018 11:27:02
00008 suncat0152 pw.x -in pw.inp   Done                     12/19/2018 11:27:02
00009 suncat0152 pw.x -in pw.inp   Done                     12/19/2018 11:27:02
00010 suncat0152 pw.x -in pw.inp   Done                     12/19/2018 11:27:02
00011 suncat0152 pw.x -in pw.inp   Done                     12/19/2018 11:27:02
00012 suncat0152 pw.x -in pw.inp   Done                     12/19/2018 11:27:02
00013 suncat0152 pw.x -in pw.inp   Done                     12/19/2018 11:27:02
00014 suncat0152 pw.x -in pw.inp   Done                     12/19/2018 11:27:02
00015 suncat0152 pw.x -in pw.inp   Done                     12/19/2018 11:27:02
00016 suncat0230 pw.x -in pw.inp   Done                     12/19/2018 11:27:02
00017 suncat0230 pw.x -in pw.inp   Done                     12/19/2018 11:27:02
00018 suncat0230 pw.x -in pw.inp   Done                     12/19/2018 11:27:02
00019 suncat0230 pw.x -in pw.inp   Done                     12/19/2018 11:27:02
00020 suncat0230 pw.x -in pw.inp   Done                     12/19/2018 11:27:02
00021 suncat0230 pw.x -in pw.inp   Done                     12/19/2018 11:27:02
00022 suncat0230 pw.x -in pw.inp   Done                     12/19/2018 11:27:02
00023 suncat0230 pw.x -in pw.inp   Done                     12/19/2018 11:27:02
00024 suncat0215 pw.x -in pw.inp   Done                     12/19/2018 11:27:02
00025 suncat0215 pw.x -in pw.inp   Done                     12/19/2018 11:27:02
00026 suncat0215 pw.x -in pw.inp   Done                     12/19/2018 11:27:02
00027 suncat0215 pw.x -in pw.inp   Done                     12/19/2018 11:27:02
00028 suncat0215 pw.x -in pw.inp   Done                     12/19/2018 11:27:02
00029 suncat0215 pw.x -in pw.inp   Done                     12/19/2018 11:27:02
00030 suncat0215 pw.x -in pw.inp   Done                     12/19/2018 11:27:02
00031 suncat0215 pw.x -in pw.inp   Done                     12/19/2018 11:27:02