     Program PWSCF v.5.1rc2 (svn rev. 11289) starts on  1Jan2019 at 20: 1:44

     Current dimensions of program PWSCF are:
     Max number of different atomic species (ntypx) = 10
     Max number of k-points (npk) =  40000
     Max angular momentum in pseudopotentials (lmaxx) =  3
     Presently stress not available with electric field

     IMPORTANT: XC functional enforced from input :
     Exchange-correlation      = BEEF-VDW ( 1  4 27 13 2)
     Any further DFT definition will be discarded
     Please, verify this is what you really want

     Subspace diagonalization in iterative solution of the eigenvalue problem:
     a serial algorithm will be used

     Generating pointlists ...
     new r_m :   0.4125 (alat units)  0.7795 (a.u.) for type    1
     new r_m :   0.4125 (alat units)  0.7795 (a.u.) for type    2

     bravais-lattice index     =            0
     lattice parameter (alat)  =       1.8897  a.u.
     unit-cell volume          =    4185.3517 (a.u.)^3
     number of atoms/cell      =           12
     number of atomic types    =            2
     number of electrons       =       180.00
     number of Kohn-Sham states=          120
     kinetic-energy cutoff     =      36.7493  Ry
     charge density cutoff     =     367.4932  Ry
     convergence threshold     =      1.0E-06
     mixing beta               =       0.1000
     number of iterations used =           10  plain     mixing
     Exchange-correlation      = BEEF-VDW ( 1  4 27 13 2)
     nstep                     =           50

     celldm(1)=   1.889726  celldm(2)=   0.000000  celldm(3)=   0.000000
     celldm(4)=   0.000000  celldm(5)=   0.000000  celldm(6)=   0.000000

     crystal axes: (cart. coord. in units of alat)
               a(1) = (   5.415220   0.000000   0.000000 )
               a(2) = (  -2.707610   4.689718   0.000000 )
               a(3) = (   0.000000   0.000000  24.421509 )

     reciprocal axes: (cart. coord. in units 2 pi/alat)
               b(1) = (  0.184665  0.106616  0.000000 )
               b(2) = (  0.000000  0.213232  0.000000 )
               b(3) = (  0.000000  0.000000  0.040948 )

     PseudoPot. # 1 for Tc read from file:
     /afs/slac.stanford.edu/u/if/mamunm/psp/gbrv1.5pbe/Tc.UPF
     MD5 check sum: 9eb49e5b028550b2339a02317eb7b844
     Pseudo is Ultrasoft + core correction, Zval = 15.0
     Generated by new atomic code, or converted to UPF format
     Using radial grid of  965 points,  6 beta functions with:
                l(1) =   0
                l(2) =   0
                l(3) =   1
                l(4) =   1
                l(5) =   2
                l(6) =   2
     Q(r) pseudized with  8 coefficients,  rinner =    1.300   1.300   1.300
                                                       1.300   1.300

     PseudoPot. # 2 for Mn read from file:
     /afs/slac.stanford.edu/u/if/mamunm/psp/gbrv1.5pbe/Mn.UPF
     MD5 check sum: 82ef2b46521d7a7d9e736dc3972e4928
     Pseudo is Ultrasoft + core correction, Zval = 15.0
     Generated by new atomic code, or converted to UPF format
     Using radial grid of  859 points,  6 beta functions with:
                l(1) =   0
                l(2) =   0
                l(3) =   1
                l(4) =   1
                l(5) =   2
                l(6) =   2
     Q(r) pseudized with  8 coefficients,  rinner =    0.950   0.950   0.950
                                                       0.950   0.950

     vdW kernel table read from file vdW_kernel_table
     MD5 check sum: 095c7af220d748ca6e76c0b4c6cfb241

     atomic species   valence    mass     pseudopotential
        Tc1           15.00    97.90721     Tc( 1.00)
        Mn1           15.00    54.93804     Mn( 1.00)

     Starting magnetic structure
     atomic species   magnetization
        Tc1          0.133
        Mn1          0.133

     No symmetry found

   Cartesian axes

     site n.     atom                  positions (alat units)
         1           Tc1 tau(   1) = (   0.0000000   0.0000000  10.0000000  )
         2           Tc1 tau(   2) = (  -1.3538050   2.3448591  10.0000000  )
         3           Tc1 tau(   3) = (   1.3538050   2.3448591  10.0000000  )
         4           Mn1 tau(   4) = (   2.7076101   0.0000000  10.0000000  )
         5           Tc1 tau(   5) = (   2.7076101   1.5632394  12.2107544  )
         6           Tc1 tau(   6) = (   1.3538050   3.9080985  12.2107544  )
         7           Tc1 tau(   7) = (  -1.3538050   3.9080985  12.2107544  )
         8           Mn1 tau(   8) = (   0.0000000   1.5632394  12.2107544  )
         9           Tc1 tau(   9) = (  -0.0000000   3.1264788  14.4215088  )
        10           Tc1 tau(  10) = (   1.3538050   0.7816197  14.4215088  )
        11           Tc1 tau(  11) = (   4.0614151   0.7816197  14.4215088  )
        12           Mn1 tau(  12) = (   2.7076101   3.1264788  14.4215088  )

     number of k points=    40  Fermi-Dirac smearing, width (Ry)=  0.0110
                       cart. coord. in units 2pi/alat
        k(    1) = (   0.0000000   0.0000000   0.0000000), wk =   0.0277778
        k(    2) = (   0.0000000   0.0355387   0.0000000), wk =   0.0555556
        k(    3) = (   0.0000000   0.0710775   0.0000000), wk =   0.0555556
        k(    4) = (   0.0000000  -0.1066162   0.0000000), wk =   0.0277778
        k(    5) = (   0.0307774   0.0177694   0.0000000), wk =   0.0555556
        k(    6) = (   0.0307774   0.0533081   0.0000000), wk =   0.0555556
        k(    7) = (   0.0307774   0.0888468   0.0000000), wk =   0.0555556
        k(    8) = (   0.0307774  -0.0888468   0.0000000), wk =   0.0555556
        k(    9) = (   0.0307774  -0.0533081   0.0000000), wk =   0.0555556
        k(   10) = (   0.0307774  -0.0177694   0.0000000), wk =   0.0555556
        k(   11) = (   0.0615549   0.0355387   0.0000000), wk =   0.0555556
        k(   12) = (   0.0615549   0.0710775   0.0000000), wk =   0.0555556
        k(   13) = (   0.0615549   0.1066162   0.0000000), wk =   0.0555556
        k(   14) = (   0.0615549  -0.0710775   0.0000000), wk =   0.0555556
        k(   15) = (   0.0615549  -0.0355387   0.0000000), wk =   0.0555556
        k(   16) = (   0.0615549   0.0000000   0.0000000), wk =   0.0555556
        k(   17) = (  -0.0923323  -0.0533081   0.0000000), wk =   0.0277778
        k(   18) = (  -0.0923323  -0.0177694   0.0000000), wk =   0.0555556
        k(   19) = (  -0.0923323   0.0177694   0.0000000), wk =   0.0555556
        k(   20) = (  -0.0923323  -0.1599243   0.0000000), wk =   0.0277778
        k(   21) = (   0.0000000   0.0000000   0.0000000), wk =   0.0277778
        k(   22) = (   0.0000000   0.0355387   0.0000000), wk =   0.0555556
        k(   23) = (   0.0000000   0.0710775   0.0000000), wk =   0.0555556
        k(   24) = (   0.0000000  -0.1066162   0.0000000), wk =   0.0277778
        k(   25) = (   0.0307774   0.0177694   0.0000000), wk =   0.0555556
        k(   26) = (   0.0307774   0.0533081   0.0000000), wk =   0.0555556
        k(   27) = (   0.0307774   0.0888468   0.0000000), wk =   0.0555556
        k(   28) = (   0.0307774  -0.0888468   0.0000000), wk =   0.0555556
        k(   29) = (   0.0307774  -0.0533081   0.0000000), wk =   0.0555556
        k(   30) = (   0.0307774  -0.0177694   0.0000000), wk =   0.0555556
        k(   31) = (   0.0615549   0.0355387   0.0000000), wk =   0.0555556
        k(   32) = (   0.0615549   0.0710775   0.0000000), wk =   0.0555556
        k(   33) = (   0.0615549   0.1066162   0.0000000), wk =   0.0555556
        k(   34) = (   0.0615549  -0.0710775   0.0000000), wk =   0.0555556
        k(   35) = (   0.0615549  -0.0355387   0.0000000), wk =   0.0555556
        k(   36) = (   0.0615549   0.0000000   0.0000000), wk =   0.0555556
        k(   37) = (  -0.0923323  -0.0533081   0.0000000), wk =   0.0277778
        k(   38) = (  -0.0923323  -0.0177694   0.0000000), wk =   0.0555556
        k(   39) = (  -0.0923323   0.0177694   0.0000000), wk =   0.0555556
        k(   40) = (  -0.0923323  -0.1599243   0.0000000), wk =   0.0277778

     Largest allocated arrays     est. size (Mb)     dimensions
     Largest temporary arrays     est. size (Mb)     dimensions

     Check: negative/imaginary core charge=   -0.000021    0.000000

     Initial potential from superposition of free atoms
     Check: negative starting charge=(component1):   -0.641638
     Check: negative starting charge=(component2):   -0.490664

     starting charge  169.49950, renormalised to  180.00000

     negative rho (up, down):  6.814E-01 5.211E-01

     *
     * You are using vdW-DF for exchange-correlation in this calculation.
     * Please cite the following three references that made this development
     * possible:
     *
     *   M. Dion, H. Rydberg, E. Schroder, D. C. Langreth, and
     *   B. I. Lundqvist, Phys. Rev. Lett. 92, 246401 (2004).
     *
     *   T. Thonhauser, V. R. Cooper, S. Li, A. Puzder, P. Hyldgaard, and
     *   D. C. Langreth, Phys. Rev. B 76, 125112 (2007).
     *
     *   G. Roman-Perez and J. M. Soler, Phys. Rev. Lett. 103, 096102 (2009).
     *
     *
     * If you are using vdW-DF2, please also cite:
     *
     *   K. Lee, E. D. Murray, L. Kong, B. I. Lundqvist, and
     *   D. C. Langreth, Phys. Rev. B 82, 081101(R) (2010).
     *
     *
     * If you are calculating the stress with vdW-DF, please also cite:
     *
     *   R. Sabatini, E. Kucukbenli, B. Kolb, T. Thonhauser, and
     *   S. de Gironcoli, J. Phys.: Condens. Matter 24, 424209 (2012).
     *

     Carrying out vdW-DF run using the following parameters:

     Nqs =      20    Nr_points =    1024   r_max =   100.000
     q_mesh =
               0.00001000     0.04494208     0.09755937     0.15916263
               0.23128650     0.31572767     0.41458969     0.53033537
               0.66584808     0.82450364     1.01025438     1.22772762
               1.48234092     1.78043706     2.12944203     2.53805004
               3.01644009     3.57652955     4.23227104     5.00000000

     Gradients computed in reciprocal space

     Adding external electric field

     Computed dipole along edir(3) :
        Dipole               -0.0000 Ry au,         -0.0000 Debye
        Dipole field         -0.0000 Ry au

        Potential amp.        0.0000 Ry
        Total length         44.9962 bohr

[...]

     Starting wfc are  156 randomized atomic wfcs

     Self-consistent Calculation

     iteration #  1     ecut=    36.75 Ry     beta=0.10
     Davidson diagonalization with overlap
     ethr =  1.00E-02,  avg # of iterations =  8.3

[...]

     Magnetic moment per site:
     atom:    1    charge:    2.3767    magn:    0.2964    constr:    0.0000
     atom:    2    charge:    2.3767    magn:    0.2964    constr:    0.0000
     atom:    3    charge:    2.3767    magn:    0.2964    constr:    0.0000
     atom:    4    charge:    6.1297    magn:    0.7707    constr:    0.0000
     atom:    5    charge:    2.3660    magn:    0.2944    constr:    0.0000
     atom:    6    charge:    2.3660    magn:    0.2944    constr:    0.0000
     atom:    7    charge:    2.3661    magn:    0.2944    constr:    0.0000
     atom:    8    charge:    6.1238    magn:    0.7703    constr:    0.0000
[...]
        k(    3) = (   0.0000000   0.0710775   0.0000000), wk =   0.0555556
        k(    4) = (   0.0000000  -0.1066162   0.0000000), wk =   0.0277778
        k(    5) = (   0.0307774   0.0177694   0.0000000), wk =   0.0555556
        k(    6) = (   0.0307774   0.0533081   0.0000000), wk =   0.0555556
        k(    7) = (   0.0307774   0.0888468   0.0000000), wk =   0.0555556
        k(    8) = (   0.0307774  -0.0888468   0.0000000), wk =   0.0555556
        k(    9) = (   0.0307774  -0.0533081   0.0000000), wk =   0.0555556
        k(   10) = (   0.0307774  -0.0177694   0.0000000), wk =   0.0555556
        k(   11) = (   0.0615549   0.0355387   0.0000000), wk =   0.0555556
        k(   12) = (   0.0615549   0.0710775   0.0000000), wk =   0.0555556
        k(   13) = (   0.0615549   0.1066162   0.0000000), wk =   0.0555556
        k(   14) = (   0.0615549  -0.0710775   0.0000000), wk =   0.0555556
        k(   15) = (   0.0615549  -0.0355387   0.0000000), wk =   0.0555556
        k(   16) = (   0.0615549   0.0000000   0.0000000), wk =   0.0555556
        k(   17) = (  -0.0923323  -0.0533081   0.0000000), wk =   0.0277778
        k(   18) = (  -0.0923323  -0.0177694   0.0000000), wk =   0.0555556
        k(   19) = (  -0.0923323   0.0177694   0.0000000), wk =   0.0555556
        k(   20) = (  -0.0923323  -0.1599243   0.0000000), wk =   0.0277778
        k(   21) = (   0.0000000   0.0000000   0.0000000), wk =   0.0277778
        k(   22) = (   0.0000000   0.0355387   0.0000000), wk =   0.0555556
        k(   23) = (   0.0000000   0.0710775   0.0000000), wk =   0.0555556
        k(   24) = (   0.0000000  -0.1066162   0.0000000), wk =   0.0277778
        k(   25) = (   0.0307774   0.0177694   0.0000000), wk =   0.0555556
        k(   26) = (   0.0307774   0.0533081   0.0000000), wk =   0.0555556
        k(   27) = (   0.0307774   0.0888468   0.0000000), wk =   0.0555556
        k(   28) = (   0.0307774  -0.0888468   0.0000000), wk =   0.0555556
        k(   29) = (   0.0307774  -0.0533081   0.0000000), wk =   0.0555556
        k(   30) = (   0.0307774  -0.0177694   0.0000000), wk =   0.0555556
        k(   31) = (   0.0615549   0.0355387   0.0000000), wk =   0.0555556
        k(   32) = (   0.0615549   0.0710775   0.0000000), wk =   0.0555556
        k(   33) = (   0.0615549   0.1066162   0.0000000), wk =   0.0555556
        k(   34) = (   0.0615549  -0.0710775   0.0000000), wk =   0.0555556
        k(   35) = (   0.0615549  -0.0355387   0.0000000), wk =   0.0555556
        k(   36) = (   0.0615549   0.0000000   0.0000000), wk =   0.0555556
        k(   37) = (  -0.0923323  -0.0533081   0.0000000), wk =   0.0277778
        k(   38) = (  -0.0923323  -0.0177694   0.0000000), wk =   0.0555556
        k(   39) = (  -0.0923323   0.0177694   0.0000000), wk =   0.0555556
        k(   40) = (  -0.0923323  -0.1599243   0.0000000), wk =   0.0277778

     Largest allocated arrays     est. size (Mb)     dimensions
     Largest temporary arrays     est. size (Mb)     dimensions

     Check: negative/imaginary core charge=   -0.000020    0.000000

     Initial potential from superposition of free atoms
     Check: negative starting charge=(component1):   -0.642339
     Check: negative starting charge=(component2):   -0.491200

     starting charge  169.49950, renormalised to  180.00000

[...]

     *
     * You are using vdW-DF for exchange-correlation in this calculation.
     * Please cite the following three references that made this development
     * possible:
     *
     *   M. Dion, H. Rydberg, E. Schroder, D. C. Langreth, and
     *   B. I. Lundqvist, Phys. Rev. Lett. 92, 246401 (2004).
     *
     *   T. Thonhauser, V. R. Cooper, S. Li, A. Puzder, P. Hyldgaard, and
     *   D. C. Langreth, Phys. Rev. B 76, 125112 (2007).
     *
     *   G. Roman-Perez and J. M. Soler, Phys. Rev. Lett. 103, 096102 (2009).
     *
     *
     * If you are using vdW-DF2, please also cite:
     *
     *   K. Lee, E. D. Murray, L. Kong, B. I. Lundqvist, and
     *   D. C. Langreth, Phys. Rev. B 82, 081101(R) (2010).
     *
     *
     * If you are calculating the stress with vdW-DF, please also cite:
     *
     *   R. Sabatini, E. Kucukbenli, B. Kolb, T. Thonhauser, and
     *   S. de Gironcoli, J. Phys.: Condens. Matter 24, 424209 (2012).
     *

     Carrying out vdW-DF run using the following parameters:

     Nqs =      20    Nr_points =    1024   r_max =   100.000
     q_mesh =
               0.00001000     0.04494208     0.09755937     0.15916263
               0.23128650     0.31572767     0.41458969     0.53033537
               0.66584808     0.82450364     1.01025438     1.22772762
               1.48234092     1.78043706     2.12944203     2.53805004
               3.01644009     3.57652955     4.23227104     5.00000000

     Gradients computed in reciprocal space

[...]

     Starting wfc are  156 randomized atomic wfcs

     Self-consistent Calculation

[...]

     total energy              =   -2213.82786136 Ry
     Harris-Foulkes estimate   =   -2213.82786015 Ry
     estimated scf accuracy    <       0.00000145 Ry

[...]

     iteration # 41     ecut=    36.75 Ry     beta=0.10
     Davidson diagonalization with overlap
     ethr =  8.04E-10,  avg # of iterations =  1.1

[...]

     negative rho (up, down):  6.038E-01 5.881E-01

[...]

     Adding external electric field

     Computed dipole along edir(3) :
        Dipole                0.0341 Ry au,          0.0867 Debye
        Dipole field          0.0001 Ry au

        Potential amp.       -0.0092 Ry
        Total length         44.9962 bohr

     Magnetic moment per site:
     atom:    1    charge:    2.2670    magn:   -0.0182    constr:    0.0000
     atom:    2    charge:    2.2669    magn:   -0.0182    constr:    0.0000
     atom:    3    charge:    2.2670    magn:   -0.0182    constr:    0.0000
     atom:    4    charge:    6.0014    magn:    1.2738    constr:    0.0000
     atom:    5    charge:    2.2583    magn:   -0.0264    constr:    0.0000
     atom:    6    charge:    2.2583    magn:   -0.0264    constr:    0.0000
     atom:    7    charge:    2.2583    magn:   -0.0264    constr:    0.0000
     atom:    8    charge:    5.9707    magn:    0.8199    constr:    0.0000
     atom:    9    charge:    2.2620    magn:   -0.0206    constr:    0.0000
     atom:   10    charge:    2.2620    magn:   -0.0205    constr:    0.0000
     atom:   11    charge:    2.2620    magn:   -0.0206    constr:    0.0000
     atom:   12    charge:    5.9975    magn:    1.2666    constr:    0.0000

     End of self-consistent calculation

 ------ SPIN UP ------------

[...]

 ------ SPIN DOWN ----------

[...]

          k = 0.0616 0.0000 0.0000 ( 15736 PWs)   bands (ev):

[...]

          k =-0.0923-0.1599 0.0000 ( 15780 PWs)   bands (ev):

   -76.0152 -75.3007 -75.2994 -65.1712 -65.1298 -65.0856 -64.8645 -64.8422
   -64.8274 -64.8055 -64.7893 -64.7693 -44.7952 -44.7691 -44.7662 -44.1061
   -44.1031 -44.1025 -44.0995 -44.0396 -44.0309 -37.5920 -37.4578 -37.3946
   -37.3239 -37.2668 -37.2372 -37.1709 -37.1661 -37.1527 -37.0897 -36.8922
   -36.8769 -36.8700 -36.8447 -36.8347 -36.8346 -36.8224 -36.8188 -36.8021
   -36.7636 -36.7378 -36.7152 -36.6836 -36.6157 -36.6080 -36.4769 -36.4614
    -2.9846  -2.8434  -2.4450  -2.2112  -1.9990  -1.8262  -1.7201  -1.5061
    -1.4579  -1.3993  -1.3833  -1.2295  -1.0542  -0.8811  -0.8173  -0.8043
    -0.5844  -0.5276  -0.4207  -0.1298   0.2293   0.3015   0.4086   0.5218
     0.5864   0.6178   0.6895   0.8005   0.8204   0.8295   0.9876   0.9925
     1.1027   1.1495   1.5007   1.5791   1.5932   1.6780   1.9794   2.0524
     2.0715   2.1790   2.3193   2.6579   2.6820   2.6975   2.8168   2.8401
     3.0304   3.1460   3.3335   3.3958   3.4281   3.4920   3.5261   3.6330
     3.7654   3.8977   4.0960   4.2844   4.5787   4.6139   4.6738   5.0669
     5.3468   5.4831   6.4546   6.9852   7.0297   7.2299   7.2649   7.4001

     the Fermi energy is     2.0941 ev

!    total energy              =   -2213.82786351 Ry
     Harris-Foulkes estimate   =   -2213.82786128 Ry
     estimated scf accuracy    <       0.00000037 Ry

     The total energy is the sum of the following terms:

     one-electron contribution =  -19547.05209217 Ry
     hartree contribution      =    9771.49374608 Ry
     xc contribution           =    -380.68237195 Ry
     ewald contribution        =    7942.49868594 Ry
     electric field correction =       0.00000349 Ry
     smearing contrib. (-TS)   =      -0.08583491 Ry

     total magnetization       =     6.74 Bohr mag/cell
     absolute magnetization    =    10.92 Bohr mag/cell

     convergence has been achieved in  41 iterations

 BEEF-vdW xc energy contributions
           1 :   -333.365597114873
           2 :    305.455393666186
           3 :   -256.551123315531
           4 :    197.526052455287
           5 :   -139.362362803321
           6 :    89.8479016511015
           7 :   -52.2319962890462
           8 :    25.7386964376426
           9 :   -7.37589287129128
          10 :   -6.09923871164705
          11 :    16.7525146892690
          12 :   -25.0695266247222
          13 :    30.3447976759811
          14 :   -31.5417731112795
          15 :    28.0848161668595
          16 :   -20.3754926299451
          17 :    9.83713193914332
          18 :    1.41349089800769
          19 :   -11.1873941668318
          20 :    17.8293914328119
          21 :   -20.6276149144869
          22 :    19.8301081605620
          23 :   -16.3528961667067
          24 :    11.3009617451965
          25 :   -5.58450253512865
          26 :  -0.249053075452252
          27 :    5.90235557725936
          28 :   -11.1093931512803
          29 :    15.4576401352949
          30 :   -18.4045455327369
          31 :   -31.3405327747105
          32 :   -22.8462875334575

     Forces acting on atoms (Ry/au):

     negative rho (up, down):  6.038E-01 5.881E-01
     atom    1 type  1   force =     0.00000089   -0.00179316    0.02000916
     atom    2 type  1   force =    -0.00155287    0.00089647    0.02001044
     atom    3 type  1   force =     0.00155383    0.00089588    0.02000992
     atom    4 type  2   force =     0.00000093   -0.00000033   -0.00497578
     atom    5 type  1   force =    -0.00000370    0.00380201   -0.01381898
     atom    6 type  1   force =     0.00329623   -0.00190316   -0.01382232
     atom    7 type  1   force =    -0.00329490   -0.00189818   -0.01381865
     atom    8 type  2   force =    -0.00000325    0.00000193   -0.01394424
     atom    9 type  1   force =     0.00000099   -0.00008721   -0.00024933
     atom   10 type  1   force =    -0.00007440    0.00004328   -0.00024928
     atom   11 type  1   force =     0.00007567    0.00004296   -0.00024870
     atom   12 type  2   force =     0.00000057   -0.00000050    0.00109777

     Total force =     0.045253     Total SCF correction =     0.001864

     entering subroutine stress ...

     negative rho (up, down):  6.038E-01 5.881E-01
          total   stress  (Ry/bohr**3)                   (kbar)     P=  -19.28
  -0.00016117   0.00000000   0.00000000        -23.71      0.00      0.00
   0.00000000  -0.00016117   0.00000000          0.00    -23.71      0.00
   0.00000000   0.00000000  -0.00007091          0.00      0.00    -10.43

 !ASE

     Writing output data file calc.save

     General routines

     Parallel routines

   This run was terminated on:  23:30:41   1Jan2019

   JOB DONE.
Job  /afs/slac/g/suncat/bin/suncat-tsmpirun -x LD_LIBRARY_PATH -wdir /scratch/qe649158_TWI8b pw.x -in pw.inp

TID   HOST_NAME   COMMAND_LINE            STATUS            TERMINATION_TIME
00000 suncat0078 pw.x -in pw.inp   Done                     01/01/2019 23:30:41
00001 suncat0078 pw.x -in pw.inp   Done                     01/01/2019 23:30:41
00002 suncat0078 pw.x -in pw.inp   Done                     01/01/2019 23:30:41
00003 suncat0078 pw.x -in pw.inp   Done                     01/01/2019 23:30:41
00004 suncat0078 pw.x -in pw.inp   Done                     01/01/2019 23:30:41
00005 suncat0078 pw.x -in pw.inp   Done                     01/01/2019 23:30:41
00006 suncat0078 pw.x -in pw.inp   Done                     01/01/2019 23:30:41
00007 suncat0078 pw.x -in pw.inp   Done                     01/01/2019 23:30:41
00008 suncat0077 pw.x -in pw.inp   Done                     01/01/2019 23:30:41
00009 suncat0077 pw.x -in pw.inp   Done                     01/01/2019 23:30:41
00010 suncat0077 pw.x -in pw.inp   Done                     01/01/2019 23:30:41
00011 suncat0077 pw.x -in pw.inp   Done                     01/01/2019 23:30:41
00012 suncat0077 pw.x -in pw.inp   Done                     01/01/2019 23:30:41
00013 suncat0077 pw.x -in pw.inp   Done                     01/01/2019 23:30:41
00014 suncat0077 pw.x -in pw.inp   Done                     01/01/2019 23:30:41
00015 suncat0077 pw.x -in pw.inp   Done                     01/01/2019 23:30:41
00016 suncat0076 pw.x -in pw.inp   Done                     01/01/2019 23:30:41
00017 suncat0076 pw.x -in pw.inp   Done                     01/01/2019 23:30:41
00018 suncat0076 pw.x -in pw.inp   Done                     01/01/2019 23:30:41
00019 suncat0076 pw.x -in pw.inp   Done                     01/01/2019 23:30:41
00020 suncat0076 pw.x -in pw.inp   Done                     01/01/2019 23:30:41
00021 suncat0076 pw.x -in pw.inp   Done                     01/01/2019 23:30:41
00022 suncat0076 pw.x -in pw.inp   Done                     01/01/2019 23:30:41
00023 suncat0076 pw.x -in pw.inp   Done                     01/01/2019 23:30:41
00024 suncat0074 pw.x -in pw.inp   Done                     01/01/2019 23:30:41
00025 suncat0074 pw.x -in pw.inp   Done                     01/01/2019 23:30:41
00026 suncat0074 pw.x -in pw.inp   Done                     01/01/2019 23:30:41
00027 suncat0074 pw.x -in pw.inp   Done                     01/01/2019 23:30:41
00028 suncat0074 pw.x -in pw.inp   Done                     01/01/2019 23:30:41
00029 suncat0074 pw.x -in pw.inp   Done                     01/01/2019 23:30:41
00030 suncat0074 pw.x -in pw.inp   Done                     01/01/2019 23:30:41
00031 suncat0074 pw.x -in pw.inp   Done                     01/01/2019 23:30:41
00032 suncat0073 pw.x -in pw.inp   Done                     01/01/2019 23:30:41
00033 suncat0073 pw.x -in pw.inp   Done                     01/01/2019 23:30:41
00034 suncat0073 pw.x -in pw.inp   Done                     01/01/2019 23:30:41
00035 suncat0073 pw.x -in pw.inp   Done                     01/01/2019 23:30:41
00036 suncat0073 pw.x -in pw.inp   Done                     01/01/2019 23:30:41
00037 suncat0073 pw.x -in pw.inp   Done                     01/01/2019 23:30:41
00038 suncat0073 pw.x -in pw.inp   Done                     01/01/2019 23:30:41
00039 suncat0073 pw.x -in pw.inp   Done                     01/01/2019 23:30:41
00040 suncat0069 pw.x -in pw.inp   Done                     01/01/2019 23:30:41
00041 suncat0069 pw.x -in pw.inp   Done                     01/01/2019 23:30:41
00042 suncat0069 pw.x -in pw.inp   Done                     01/01/2019 23:30:41
00043 suncat0069 pw.x -in pw.inp   Done                     01/01/2019 23:30:41
00044 suncat0069 pw.x -in pw.inp   Done                     01/01/2019 23:30:41
00045 suncat0069 pw.x -in pw.inp   Done                     01/01/2019 23:30:41
00046 suncat0069 pw.x -in pw.inp   Done                     01/01/2019 23:30:41
00047 suncat0069 pw.x -in pw.inp   Done                     01/01/2019 23:30:41
00048 suncat0217 pw.x -in pw.inp   Done                     01/01/2019 23:30:41
00049 suncat0217 pw.x -in pw.inp   Done                     01/01/2019 23:30:41
00050 suncat0217 pw.x -in pw.inp   Done                     01/01/2019 23:30:41
00051 suncat0217 pw.x -in pw.inp   Done                     01/01/2019 23:30:41
00052 suncat0217 pw.x -in pw.inp   Done                     01/01/2019 23:30:41
00053 suncat0217 pw.x -in pw.inp   Done                     01/01/2019 23:30:41
00054 suncat0217 pw.x -in pw.inp   Done                     01/01/2019 23:30:41
00055 suncat0217 pw.x -in pw.inp   Done                     01/01/2019 23:30:41
00056 suncat0216 pw.x -in pw.inp   Done                     01/01/2019 23:30:41
00057 suncat0216 pw.x -in pw.inp   Done                     01/01/2019 23:30:41
00058 suncat0216 pw.x -in pw.inp   Done                     01/01/2019 23:30:41
00059 suncat0216 pw.x -in pw.inp   Done                     01/01/2019 23:30:41
00060 suncat0216 pw.x -in pw.inp   Done                     01/01/2019 23:30:41
00061 suncat0216 pw.x -in pw.inp   Done                     01/01/2019 23:30:41
00062 suncat0216 pw.x -in pw.inp   Done                     01/01/2019 23:30:41
00063 suncat0216 pw.x -in pw.inp   Done                     01/01/2019 23:30:41