     Program PWSCF v.5.1rc2 (svn rev. 11289) starts on  2Jan2019 at 21:11:29

     Current dimensions of program PWSCF are:
     Max number of different atomic species (ntypx) = 10
     Max number of k-points (npk) =  40000
     Max angular momentum in pseudopotentials (lmaxx) =  3
     Presently stress not available with electric field

     IMPORTANT: XC functional enforced from input :
     Exchange-correlation      = BEEF-VDW ( 1  4 27 13 2)
     Any further DFT definition will be discarded
     Please, verify this is what you really want

     Subspace diagonalization in iterative solution of the eigenvalue problem:
     a serial algorithm will be used

     bravais-lattice index     =            0
     lattice parameter (alat)  =       1.8897  a.u.
     unit-cell volume          =    5901.0536 (a.u.)^3
     number of atoms/cell      =           12
     number of atomic types    =            2
     number of electrons       =       150.00
     number of Kohn-Sham states=          105
     kinetic-energy cutoff     =      36.7493  Ry
     charge density cutoff     =     367.4932  Ry
     convergence threshold     =      1.0E-06
     mixing beta               =       0.1000
     number of iterations used =           10  plain     mixing
     Exchange-correlation      = BEEF-VDW ( 1  4 27 13 2)
     nstep                     =           50

     celldm(1)=   1.889726  celldm(2)=   0.000000  celldm(3)=   0.000000
     celldm(4)=   0.000000  celldm(5)=   0.000000  celldm(6)=   0.000000

     crystal axes: (cart. coord. in units of alat)
               a(1) = (   6.333563   0.000000   0.000000 )
               a(2) = (  -3.166781   5.485026   0.000000 )
               a(3) = (   0.000000   0.000000  25.171332 )

     reciprocal axes: (cart. coord. in units 2 pi/alat)
               b(1) = (  0.157889  0.091157  0.000000 )
               b(2) = (  0.000000  0.182315  0.000000 )
               b(3) = (  0.000000  0.000000  0.039728 )

     PseudoPot. # 1 for Zr read from file:
     /afs/slac.stanford.edu/u/if/mamunm/psp/gbrv1.5pbe/Zr.UPF
     MD5 check sum: 5db81b1e868ab7776c4564c113de050b
     Pseudo is Ultrasoft + core correction, Zval = 12.0
     Generated by new atomic code, or converted to UPF format
     Using radial grid of  887 points,  6 beta functions with:
                l(1) =   0
                l(2) =   0
                l(3) =   1
                l(4) =   1
                l(5) =   2
                l(6) =   2
     Q(r) pseudized with  6 coefficients,  rinner =    1.200   1.200   1.200
                                                       1.200   1.200

     PseudoPot. # 2 for Sn read from file:
     /afs/slac.stanford.edu/u/if/mamunm/psp/gbrv1.5pbe/Sn.UPF
     MD5 check sum: 469debedee59599fedebd795477fea03
     Pseudo is Ultrasoft + core correction, Zval = 14.0
     Generated by new atomic code, or converted to UPF format
     Using radial grid of  891 points,  6 beta functions with:
                l(1) =   0
                l(2) =   0
                l(3) =   1
                l(4) =   1
                l(5) =   2
                l(6) =   2
     Q(r) pseudized with  8 coefficients,  rinner =    1.350   1.350   1.350
                                                       1.350   1.350

     vdW kernel table read from file vdW_kernel_table
     MD5 check sum: 095c7af220d748ca6e76c0b4c6cfb241

     atomic species   valence    mass     pseudopotential
        Zr1           12.00    91.22400     Zr( 1.00)
        Sn1           14.00   118.71000     Sn( 1.00)

     No symmetry found

   Cartesian axes

     site n.     atom                  positions (alat units)
         1           Zr1 tau(   1) = (   0.0000000   0.0000000  10.0000000  )
         2           Zr1 tau(   2) = (  -1.5833906   2.7425130  10.0000000  )
         3           Zr1 tau(   3) = (   1.5833906   2.7425130  10.0000000  )
         4           Sn1 tau(   4) = (   3.1667813   0.0000000  10.0000000  )
         5           Zr1 tau(   5) = (   3.1667813   1.8283420  12.5856661  )
         6           Zr1 tau(   6) = (   1.5833906   4.5708551  12.5856661  )
         7           Zr1 tau(   7) = (  -1.5833906   4.5708551  12.5856661  )
         8           Sn1 tau(   8) = (   0.0000000   1.8283420  12.5856661  )
         9           Zr1 tau(   9) = (  -0.0000000   3.6566840  15.1713322  )
        10           Zr1 tau(  10) = (   1.5833906   0.9141710  15.1713322  )
        11           Zr1 tau(  11) = (   4.7501719   0.9141710  15.1713322  )
        12           Sn1 tau(  12) = (   3.1667813   3.6566840  15.1713322  )

     number of k points=    20  Fermi-Dirac smearing, width (Ry)=  0.0110
                       cart. coord. in units 2pi/alat
        k(    1) = (   0.0000000   0.0000000   0.0000000), wk =   0.0555556
        k(    2) = (   0.0000000   0.0303858   0.0000000), wk =   0.1111111
        k(    3) = (   0.0000000   0.0607715   0.0000000), wk =   0.1111111
        k(    4) = (   0.0000000  -0.0911573   0.0000000), wk =   0.0555556
        k(    5) = (   0.0263148   0.0151929   0.0000000), wk =   0.1111111
        k(    6) = (   0.0263148   0.0455786   0.0000000), wk =   0.1111111
        k(    7) = (   0.0263148   0.0759644   0.0000000), wk =   0.1111111
        k(    8) = (   0.0263148  -0.0759644   0.0000000), wk =   0.1111111
        k(    9) = (   0.0263148  -0.0455786   0.0000000), wk =   0.1111111
        k(   10) = (   0.0263148  -0.0151929   0.0000000), wk =   0.1111111
        k(   11) = (   0.0526297   0.0303858   0.0000000), wk =   0.1111111
        k(   12) = (   0.0526297   0.0607715   0.0000000), wk =   0.1111111
        k(   13) = (   0.0526297   0.0911573   0.0000000), wk =   0.1111111
        k(   14) = (   0.0526297  -0.0607715   0.0000000), wk =   0.1111111
        k(   15) = (   0.0526297  -0.0303858   0.0000000), wk =   0.1111111
        k(   16) = (   0.0526297   0.0000000   0.0000000), wk =   0.1111111
        k(   17) = (  -0.0789445  -0.0455786   0.0000000), wk =   0.0555556
        k(   18) = (  -0.0789445  -0.0151929   0.0000000), wk =   0.1111111
        k(   19) = (  -0.0789445   0.0151929   0.0000000), wk =   0.1111111
        k(   20) = (  -0.0789445  -0.1367359   0.0000000), wk =   0.0555556

     Largest allocated arrays     est. size (Mb)     dimensions
     Largest temporary arrays     est. size (Mb)     dimensions

     Initial potential from superposition of free atoms
     Check: negative starting charge=   -0.549877

     starting charge  146.98052, renormalised to  150.00000

     negative rho (up, down):  5.612E-01 0.000E+00

     *
     * You are using vdW-DF for exchange-correlation in this calculation.
     * Please cite the following three references that made this development
     * possible:
     *
     *   M. Dion, H. Rydberg, E. Schroder, D. C. Langreth, and
     *   B. I. Lundqvist, Phys. Rev. Lett. 92, 246401 (2004).
     *
     *   T. Thonhauser, V. R. Cooper, S. Li, A. Puzder, P. Hyldgaard, and
     *   D. C. Langreth, Phys. Rev. B 76, 125112 (2007).
     *
     *   G. Roman-Perez and J. M. Soler, Phys. Rev. Lett. 103, 096102 (2009).
     *
     *
     * If you are using vdW-DF2, please also cite:
     *
     *   K. Lee, E. D. Murray, L. Kong, B. I. Lundqvist, and
     *   D. C. Langreth, Phys. Rev. B 82, 081101(R) (2010).
     *
     *
     * If you are calculating the stress with vdW-DF, please also cite:
     *
     *   R. Sabatini, E. Kucukbenli, B. Kolb, T. Thonhauser, and
     *   S. de Gironcoli, J. Phys.: Condens. Matter 24, 424209 (2012).
     *

     Carrying out vdW-DF run using the following parameters:

     Nqs =      20    Nr_points =    1024   r_max =   100.000
     q_mesh =
               0.00001000     0.04494208     0.09755937     0.15916263
               0.23128650     0.31572767     0.41458969     0.53033537
               0.66584808     0.82450364     1.01025438     1.22772762
               1.48234092     1.78043706     2.12944203     2.53805004
               3.01644009     3.57652955     4.23227104     5.00000000

     Gradients computed in reciprocal space

     Adding external electric field

     Computed dipole along edir(3) :
        Dipole               -0.0000 Ry au,         -0.0000 Debye
        Dipole field         -0.0000 Ry au

        Potential amp.        0.0000 Ry
        Total length         46.3778 bohr

     Starting wfc are  144 randomized atomic wfcs

     Self-consistent Calculation

     iteration #  1     ecut=    36.75 Ry     beta=0.10
     Davidson diagonalization with overlap
     ethr =  1.00E-02,  avg # of iterations =  2.2

[...]

     total energy              =   -1379.85995918 Ry
     Harris-Foulkes estimate   =   -1380.54657510 Ry
     estimated scf accuracy    <       4.07055273 Ry

[...]

     End of self-consistent calculation

          k = 0.0000 0.0000 0.0000 ( 22201 PWs)   bands (ev):

   -47.7247 -47.7213 -47.6458 -47.6458 -47.6450 -47.6450 -47.3448 -47.2694
   -47.2691 -25.9779 -25.9722 -25.9088 -25.8505 -25.8505 -25.8106 -25.8106
   -25.8080 -25.8080 -25.7846 -25.7097 -25.7096 -25.7043 -25.4886 -25.4690
   -25.4663 -25.4663 -25.2657 -25.2657 -25.2576 -25.2576 -25.1960 -25.1959
   -25.1800 -25.1491 -24.9405 -24.9404 -19.8175 -19.8141 -19.8141 -19.7997
   -19.7997 -19.5109 -19.5068 -19.4840 -19.4840 -19.4784 -19.4784 -19.4530
   -19.4530 -19.4524 -19.4524  -6.7702  -5.7851  -5.7353  -1.6979  -1.5307
    -1.2771  -0.6614  -0.6614  -0.6154  -0.6154  -0.2328  -0.0833  -0.0531
    -0.0531   0.3311   0.3311   0.6306   0.6306   0.8803   0.9732   1.1214
     1.1214   1.2814   1.3130   1.3130   1.8740   1.8740   2.0869   2.0869
     2.1553   2.2345   2.7327   2.9535   3.1904   3.7939   3.7939   3.9095
     3.9095   3.9918   3.9946   4.0471   4.0471   4.2069   4.2249   4.2249
     4.3911   4.4458   4.4458   4.7028   4.7028   4.9915   5.0752   5.0753
     5.2719

[...]

          k =-0.0789-0.0456 0.0000 ( 22176 PWs)   bands (ev):

[...]

     the Fermi energy is     1.6151 ev

!    total energy              =   -1380.00801254 Ry
     Harris-Foulkes estimate   =   -1380.00801557 Ry
     estimated scf accuracy    <       0.00000035 Ry

     The total energy is the sum of the following terms:

     one-electron contribution =   -9227.66858447 Ry
     hartree contribution      =    4625.41328096 Ry
     xc contribution           =    -299.33415891 Ry
     ewald contribution        =    3521.67800293 Ry
     electric field correction =       0.00000000 Ry
     smearing contrib. (-TS)   =      -0.09655305 Ry

     convergence has been achieved in  16 iterations

 BEEF-vdW xc energy contributions
           1 :   -259.491409215910
           2 :    236.457365946720
           3 :   -197.413242728288
           4 :    153.144117456428
           5 :   -113.660956139269
           6 :    84.6927550513738
           7 :   -66.6422970708662
           8 :    56.0162533868158
           9 :   -48.1788783396419
          10 :    39.8721199974338
          11 :   -30.3793746990860
          12 :    21.0818927196738
          13 :   -13.9973106989387
          14 :    10.2900540388917
          15 :   -9.58730091462422
          16 :    10.3468917582054
          17 :   -10.8823695705158
[...]
               b(3) = (  0.000000  0.000000  0.039728 )

     PseudoPot. # 1 for Zr read from file:
     /afs/slac.stanford.edu/u/if/mamunm/psp/gbrv1.5pbe/Zr.UPF
     MD5 check sum: 5db81b1e868ab7776c4564c113de050b
     Pseudo is Ultrasoft + core correction, Zval = 12.0
     Generated by new atomic code, or converted to UPF format
     Using radial grid of  887 points,  6 beta functions with:
                l(1) =   0
                l(2) =   0
                l(3) =   1
                l(4) =   1
                l(5) =   2
                l(6) =   2
     Q(r) pseudized with  6 coefficients,  rinner =    1.200   1.200   1.200
                                                       1.200   1.200

     PseudoPot. # 2 for Sn read from file:
     /afs/slac.stanford.edu/u/if/mamunm/psp/gbrv1.5pbe/Sn.UPF
     MD5 check sum: 469debedee59599fedebd795477fea03
     Pseudo is Ultrasoft + core correction, Zval = 14.0
     Generated by new atomic code, or converted to UPF format
     Using radial grid of  891 points,  6 beta functions with:
                l(1) =   0
                l(2) =   0
                l(3) =   1
                l(4) =   1
                l(5) =   2
                l(6) =   2
     Q(r) pseudized with  8 coefficients,  rinner =    1.350   1.350   1.350
                                                       1.350   1.350

     vdW kernel table read from file vdW_kernel_table
     MD5 check sum: 095c7af220d748ca6e76c0b4c6cfb241

     atomic species   valence    mass     pseudopotential
        Zr1           12.00    91.22400     Zr( 1.00)
        Sn1           14.00   118.71000     Sn( 1.00)

     No symmetry found

   Cartesian axes

     site n.     atom                  positions (alat units)
         1           Zr1 tau(   1) = (   0.0000000   0.0000000  10.0000000  )
         2           Zr1 tau(   2) = (  -1.5833906   2.7425130  10.0000000  )
         3           Zr1 tau(   3) = (   1.5833906   2.7425130  10.0000000  )
         4           Sn1 tau(   4) = (   3.1667813   0.0000000  10.0000000  )
         5           Zr1 tau(   5) = (   3.1667813   1.8283420  12.5856661  )
         6           Zr1 tau(   6) = (   1.5833906   4.5708551  12.5856661  )
         7           Zr1 tau(   7) = (  -1.5833906   4.5708551  12.5856661  )
         8           Sn1 tau(   8) = (   0.0000000   1.8283420  12.5856661  )
         9           Zr1 tau(   9) = (   0.0000022   3.6271317  15.0549995  )
        10           Zr1 tau(  10) = (   1.5578213   0.9289299  15.0549951  )
        11           Zr1 tau(  11) = (   4.7757480   0.9289339  15.0549980  )
        12           Sn1 tau(  12) = (   3.1667755   3.6567036  15.3558345  )

     number of k points=    20  Fermi-Dirac smearing, width (Ry)=  0.0110
                       cart. coord. in units 2pi/alat
        k(    1) = (   0.0000000   0.0000000   0.0000000), wk =   0.0555556
        k(    2) = (   0.0000000   0.0303858   0.0000000), wk =   0.1111111
        k(    3) = (   0.0000000   0.0607715   0.0000000), wk =   0.1111111
        k(    4) = (   0.0000000  -0.0911573   0.0000000), wk =   0.0555556
        k(    5) = (   0.0263148   0.0151929   0.0000000), wk =   0.1111111
        k(    6) = (   0.0263148   0.0455786   0.0000000), wk =   0.1111111
        k(    7) = (   0.0263148   0.0759644   0.0000000), wk =   0.1111111
        k(    8) = (   0.0263148  -0.0759644   0.0000000), wk =   0.1111111
        k(    9) = (   0.0263148  -0.0455786   0.0000000), wk =   0.1111111
        k(   10) = (   0.0263148  -0.0151929   0.0000000), wk =   0.1111111
        k(   11) = (   0.0526297   0.0303858   0.0000000), wk =   0.1111111
        k(   12) = (   0.0526297   0.0607715   0.0000000), wk =   0.1111111
        k(   13) = (   0.0526297   0.0911573   0.0000000), wk =   0.1111111
        k(   14) = (   0.0526297  -0.0607715   0.0000000), wk =   0.1111111
        k(   15) = (   0.0526297  -0.0303858   0.0000000), wk =   0.1111111
        k(   16) = (   0.0526297   0.0000000   0.0000000), wk =   0.1111111
        k(   17) = (  -0.0789445  -0.0455786   0.0000000), wk =   0.0555556
        k(   18) = (  -0.0789445  -0.0151929   0.0000000), wk =   0.1111111
        k(   19) = (  -0.0789445   0.0151929   0.0000000), wk =   0.1111111
        k(   20) = (  -0.0789445  -0.1367359   0.0000000), wk =   0.0555556

     Largest allocated arrays     est. size (Mb)     dimensions
     Largest temporary arrays     est. size (Mb)     dimensions

     Initial potential from superposition of free atoms
     Check: negative starting charge=   -0.548895

     starting charge  146.98052, renormalised to  150.00000

[...]

     *
     * You are using vdW-DF for exchange-correlation in this calculation.
     * Please cite the following three references that made this development
     * possible:
     *
     *   M. Dion, H. Rydberg, E. Schroder, D. C. Langreth, and
     *   B. I. Lundqvist, Phys. Rev. Lett. 92, 246401 (2004).
     *
     *   T. Thonhauser, V. R. Cooper, S. Li, A. Puzder, P. Hyldgaard, and
     *   D. C. Langreth, Phys. Rev. B 76, 125112 (2007).
     *
     *   G. Roman-Perez and J. M. Soler, Phys. Rev. Lett. 103, 096102 (2009).
     *
     *
     * If you are using vdW-DF2, please also cite:
     *
     *   K. Lee, E. D. Murray, L. Kong, B. I. Lundqvist, and
     *   D. C. Langreth, Phys. Rev. B 82, 081101(R) (2010).
     *
     *
     * If you are calculating the stress with vdW-DF, please also cite:
     *
     *   R. Sabatini, E. Kucukbenli, B. Kolb, T. Thonhauser, and
     *   S. de Gironcoli, J. Phys.: Condens. Matter 24, 424209 (2012).
     *

     Carrying out vdW-DF run using the following parameters:

     Nqs =      20    Nr_points =    1024   r_max =   100.000
     q_mesh =
               0.00001000     0.04494208     0.09755937     0.15916263
               0.23128650     0.31572767     0.41458969     0.53033537
               0.66584808     0.82450364     1.01025438     1.22772762
               1.48234092     1.78043706     2.12944203     2.53805004
               3.01644009     3.57652955     4.23227104     5.00000000

     Gradients computed in reciprocal space

[...]

     Starting wfc are  144 randomized atomic wfcs

     Self-consistent Calculation

[...]

     total energy              =   -1380.01960266 Ry
     Harris-Foulkes estimate   =   -1380.01960207 Ry
     estimated scf accuracy    <       0.00000148 Ry

     iteration # 17     ecut=    36.75 Ry     beta=0.10
     Davidson diagonalization with overlap
     ethr =  9.88E-10,  avg # of iterations =  3.0

[...]

     negative rho (up, down):  5.578E-01 0.000E+00

     Adding external electric field

     Computed dipole along edir(3) :
        Dipole               -0.0388 Ry au,         -0.0986 Debye
        Dipole field         -0.0001 Ry au

        Potential amp.        0.0077 Ry
        Total length         46.3778 bohr

     End of self-consistent calculation

[...]

          k = 0.0526 0.0000 0.0000 ( 22203 PWs)   bands (ev):

[...]

          k =-0.0789-0.1367 0.0000 ( 22176 PWs)   bands (ev):

   -47.7497 -47.7241 -47.6981 -47.6438 -47.6146 -47.5884 -47.3214 -47.2971
   -47.2720 -25.9305 -25.8914 -25.8831 -25.8373 -25.8071 -25.7912 -25.7532
   -25.7521 -25.7208 -25.7129 -25.6606 -25.6489 -25.6304 -25.6118 -25.5753
   -25.5460 -25.5188 -25.3711 -25.3506 -25.3271 -25.3168 -25.2969 -25.2259
   -25.1619 -25.1127 -25.0901 -24.9654 -19.8588 -19.8518 -19.8511 -19.8415
   -19.8397 -19.5470 -19.5242 -19.5238 -19.5206 -19.4912 -19.4909 -19.4909
   -19.4850 -19.4494 -19.4438  -6.1861  -5.5819  -5.3163  -2.5581  -1.9270
    -1.7702  -1.6186  -0.7494  -0.5553  -0.4233  -0.3810  -0.3139  -0.2950
     0.0512   0.6038   0.6899   0.7700   0.9638   1.1399   1.1509   1.2644
     1.3307   1.4068   1.4340   1.4909   1.6606   1.7299   2.1183   2.1436
     2.2319   2.3530   2.4920   2.6526   2.9368   3.2265   3.3434   3.6235
     3.6740   3.7051   3.7415   3.8479   3.9046   3.9477   3.9992   4.1007
     4.1273   4.2896   4.4693   4.5692   4.6184   5.0259   5.1075   5.2602
     5.3682

     the Fermi energy is     1.5642 ev

!    total energy              =   -1380.01959997 Ry
     Harris-Foulkes estimate   =   -1380.01960385 Ry
     estimated scf accuracy    <       0.00000077 Ry

     The total energy is the sum of the following terms:

     one-electron contribution =   -9267.51514378 Ry
     hartree contribution      =    4645.28092799 Ry
     xc contribution           =    -299.41115616 Ry
     ewald contribution        =    3541.71814163 Ry
     electric field correction =       0.00000321 Ry
     smearing contrib. (-TS)   =      -0.09237285 Ry

     convergence has been achieved in  17 iterations

 BEEF-vdW xc energy contributions
           1 :   -259.581295912091
           2 :    236.566686832923
           3 :   -197.542617422971
           4 :    153.269516328134
           5 :   -113.749036511725
           6 :    84.7267022670770
           7 :   -66.6366974962295
           8 :    56.0085277612929
           9 :   -48.2044723290877
          10 :    39.9420043461703
          11 :   -30.4744994595349
          12 :    21.1662588702241
          13 :   -14.0398039273663
          14 :    10.2816697198995
          15 :   -9.54486581149166
          16 :    10.3022835678764
          17 :   -10.8637037059722
          18 :    10.3319560760444
          19 :   -8.92744082486854
          20 :    7.58452986010019
          21 :   -7.18603240765367
          22 :    7.96156802004867
          23 :   -9.39444142318428
          24 :    10.6167730770811
          25 :   -10.9802488333136
          26 :    10.4245549454853
          27 :   -9.43977210878137
          28 :    8.69137175393388
          29 :   -8.58086435812555
          30 :    9.02549406001071
          31 :   -26.6722276544623
          32 :   -19.7968705524682

     Forces acting on atoms (Ry/au):

     negative rho (up, down):  5.578E-01 0.000E+00
     atom    1 type  1   force =     0.00000106    0.00453223    0.01615906
     atom    2 type  1   force =     0.00392375   -0.00226542    0.01616112
     atom    3 type  1   force =    -0.00392434   -0.00226731    0.01616020
     atom    4 type  2   force =     0.00000404   -0.00000173   -0.02727142
     atom    5 type  1   force =     0.00000064    0.00740000   -0.00101808
     atom    6 type  1   force =     0.00640718   -0.00369905   -0.00101826
     atom    7 type  1   force =    -0.00640829   -0.00370084   -0.00101991
     atom    8 type  2   force =     0.00000223   -0.00000420   -0.02028644
     atom    9 type  1   force =    -0.00000246    0.00045975    0.00018999
     atom   10 type  1   force =     0.00039549   -0.00022738    0.00018822
     atom   11 type  1   force =    -0.00039821   -0.00022658    0.00018864
     atom   12 type  2   force =    -0.00000109    0.00000052    0.00156688

     Total force =     0.046593     Total SCF correction =     0.003103

     entering subroutine stress ...

     negative rho (up, down):  5.578E-01 0.000E+00
          total   stress  (Ry/bohr**3)                   (kbar)     P=   -9.95
  -0.00009082  -0.00000000  -0.00000000        -13.36     -0.00     -0.00
  -0.00000000  -0.00009083   0.00000000         -0.00    -13.36      0.00
  -0.00000000   0.00000000  -0.00002122         -0.00      0.00     -3.12

 !ASE

     Writing output data file calc.save

     General routines

     Parallel routines

   This run was terminated on:  22:20:33   2Jan2019

   JOB DONE.
Job  /afs/slac/g/suncat/bin/suncat-tsmpirun -x LD_LIBRARY_PATH -wdir /scratch/qe649568_z4H9R pw.x -in pw.inp

TID   HOST_NAME   COMMAND_LINE            STATUS            TERMINATION_TIME
00000 suncat0062 pw.x -in pw.inp   Done                     01/02/2019 22:20:33
00001 suncat0062 pw.x -in pw.inp   Done                     01/02/2019 22:20:33
00002 suncat0062 pw.x -in pw.inp   Done                     01/02/2019 22:20:33
00003 suncat0062 pw.x -in pw.inp   Done                     01/02/2019 22:20:33
00004 suncat0062 pw.x -in pw.inp   Done                     01/02/2019 22:20:33
00005 suncat0062 pw.x -in pw.inp   Done                     01/02/2019 22:20:33
00006 suncat0062 pw.x -in pw.inp   Done                     01/02/2019 22:20:33
00007 suncat0062 pw.x -in pw.inp   Done                     01/02/2019 22:20:33
00008 suncat0061 pw.x -in pw.inp   Done                     01/02/2019 22:20:33
00009 suncat0061 pw.x -in pw.inp   Done                     01/02/2019 22:20:33
00010 suncat0061 pw.x -in pw.inp   Done                     01/02/2019 22:20:33
00011 suncat0061 pw.x -in pw.inp   Done                     01/02/2019 22:20:33
00012 suncat0061 pw.x -in pw.inp   Done                     01/02/2019 22:20:33
00013 suncat0061 pw.x -in pw.inp   Done                     01/02/2019 22:20:33
00014 suncat0061 pw.x -in pw.inp   Done                     01/02/2019 22:20:33
00015 suncat0061 pw.x -in pw.inp   Done                     01/02/2019 22:20:33
00016 suncat0021 pw.x -in pw.inp   Done                     01/02/2019 22:20:33
00017 suncat0021 pw.x -in pw.inp   Done                     01/02/2019 22:20:33
00018 suncat0021 pw.x -in pw.inp   Done                     01/02/2019 22:20:33
00019 suncat0021 pw.x -in pw.inp   Done                     01/02/2019 22:20:33
00020 suncat0021 pw.x -in pw.inp   Done                     01/02/2019 22:20:33
00021 suncat0021 pw.x -in pw.inp   Done                     01/02/2019 22:20:33
00022 suncat0021 pw.x -in pw.inp   Done                     01/02/2019 22:20:33
00023 suncat0021 pw.x -in pw.inp   Done                     01/02/2019 22:20:33
00024 suncat0198 pw.x -in pw.inp   Done                     01/02/2019 22:20:33
00025 suncat0198 pw.x -in pw.inp   Done                     01/02/2019 22:20:33
00026 suncat0198 pw.x -in pw.inp   Done                     01/02/2019 22:20:33
00027 suncat0198 pw.x -in pw.inp   Done                     01/02/2019 22:20:33
00028 suncat0198 pw.x -in pw.inp   Done                     01/02/2019 22:20:33
00029 suncat0198 pw.x -in pw.inp   Done                     01/02/2019 22:20:33
00030 suncat0198 pw.x -in pw.inp   Done                     01/02/2019 22:20:33
00031 suncat0198 pw.x -in pw.inp   Done                     01/02/2019 22:20:33
00032 suncat0194 pw.x -in pw.inp   Done                     01/02/2019 22:20:33
00033 suncat0194 pw.x -in pw.inp   Done                     01/02/2019 22:20:33
00034 suncat0194 pw.x -in pw.inp   Done                     01/02/2019 22:20:33
00035 suncat0194 pw.x -in pw.inp   Done                     01/02/2019 22:20:33
00036 suncat0194 pw.x -in pw.inp   Done                     01/02/2019 22:20:33
00037 suncat0194 pw.x -in pw.inp   Done                     01/02/2019 22:20:33
00038 suncat0194 pw.x -in pw.inp   Done                     01/02/2019 22:20:33
00039 suncat0194 pw.x -in pw.inp   Done                     01/02/2019 22:20:33
00040 suncat0193 pw.x -in pw.inp   Done                     01/02/2019 22:20:33
00041 suncat0193 pw.x -in pw.inp   Done                     01/02/2019 22:20:33
00042 suncat0193 pw.x -in pw.inp   Done                     01/02/2019 22:20:33
00043 suncat0193 pw.x -in pw.inp   Done                     01/02/2019 22:20:33
00044 suncat0193 pw.x -in pw.inp   Done                     01/02/2019 22:20:33
00045 suncat0193 pw.x -in pw.inp   Done                     01/02/2019 22:20:33
00046 suncat0193 pw.x -in pw.inp   Done                     01/02/2019 22:20:33
00047 suncat0193 pw.x -in pw.inp   Done                     01/02/2019 22:20:33
00048 suncat0215 pw.x -in pw.inp   Done                     01/02/2019 22:20:33
00049 suncat0215 pw.x -in pw.inp   Done                     01/02/2019 22:20:33
00050 suncat0215 pw.x -in pw.inp   Done                     01/02/2019 22:20:33
00051 suncat0215 pw.x -in pw.inp   Done                     01/02/2019 22:20:33
00052 suncat0215 pw.x -in pw.inp   Done                     01/02/2019 22:20:33
00053 suncat0215 pw.x -in pw.inp   Done                     01/02/2019 22:20:33
00054 suncat0215 pw.x -in pw.inp   Done                     01/02/2019 22:20:33
00055 suncat0215 pw.x -in pw.inp   Done                     01/02/2019 22:20:33
00056 suncat0210 pw.x -in pw.inp   Done                     01/02/2019 22:20:33
00057 suncat0210 pw.x -in pw.inp   Done                     01/02/2019 22:20:33
00058 suncat0210 pw.x -in pw.inp   Done                     01/02/2019 22:20:33
00059 suncat0210 pw.x -in pw.inp   Done                     01/02/2019 22:20:33
00060 suncat0210 pw.x -in pw.inp   Done                     01/02/2019 22:20:33
00061 suncat0210 pw.x -in pw.inp   Done                     01/02/2019 22:20:33
00062 suncat0210 pw.x -in pw.inp   Done                     01/02/2019 22:20:33
00063 suncat0210 pw.x -in pw.inp   Done                     01/02/2019 22:20:33