     Program PWSCF v.5.1rc2 (svn rev. 11289) starts on 27Dec2018 at 22:33:38

     Current dimensions of program PWSCF are:
     Max number of different atomic species (ntypx) = 10
     Max number of k-points (npk) =  40000
     Max angular momentum in pseudopotentials (lmaxx) =  3
     Presently stress not available with electric field

     IMPORTANT: XC functional enforced from input :
     Exchange-correlation      = BEEF-VDW ( 1  4 27 13 2)
     Any further DFT definition will be discarded
     Please, verify this is what you really want

     Subspace diagonalization in iterative solution of the eigenvalue problem:
     a serial algorithm will be used

     bravais-lattice index     =            0
     lattice parameter (alat)  =       1.8897  a.u.
     unit-cell volume          =    5772.7161 (a.u.)^3
     number of atoms/cell      =           12
     number of atomic types    =            2
     number of electrons       =       138.00
     number of Kohn-Sham states=           99
     kinetic-energy cutoff     =      36.7493  Ry
     charge density cutoff     =     367.4932  Ry
     convergence threshold     =      1.0E-06
     mixing beta               =       0.1000
     number of iterations used =           10  plain     mixing
     Exchange-correlation      = BEEF-VDW ( 1  4 27 13 2)
     nstep                     =           50

     celldm(1)=   1.889726  celldm(2)=   0.000000  celldm(3)=   0.000000
     celldm(4)=   0.000000  celldm(5)=   0.000000  celldm(6)=   0.000000

     crystal axes: (cart. coord. in units of alat)
               a(1) = (   6.270708   0.000000   0.000000 )
               a(2) = (  -3.135354   5.430592   0.000000 )
               a(3) = (   0.000000   0.000000  25.120012 )

     reciprocal axes: (cart. coord. in units 2 pi/alat)
               b(1) = (  0.159472  0.092071  0.000000 )
               b(2) = (  0.000000  0.184142  0.000000 )
               b(3) = (  0.000000  0.000000  0.039809 )

     PseudoPot. # 1 for Sc read from file:
     /afs/slac.stanford.edu/u/if/mamunm/psp/gbrv1.5pbe/Sc.UPF
     MD5 check sum: db30a2753ba66ef00f23801d899b7e7f
     Pseudo is Ultrasoft + core correction, Zval = 11.0
     Generated by new atomic code, or converted to UPF format
     Using radial grid of  849 points,  6 beta functions with:
                l(1) =   0
                l(2) =   0
                l(3) =   1
                l(4) =   1
                l(5) =   2
                l(6) =   2
     Q(r) pseudized with  6 coefficients,  rinner =    1.200   1.200   1.200
                                                       1.200   1.200

     PseudoPot. # 2 for Ta read from file:
     /afs/slac.stanford.edu/u/if/mamunm/psp/gbrv1.5pbe/Ta.UPF
     MD5 check sum: f8bbe9446314a3b8ea5d9f3e3836c939
     Pseudo is Ultrasoft + core correction, Zval = 13.0
     Generated by new atomic code, or converted to UPF format
     Using radial grid of  921 points,  7 beta functions with:
                l(1) =   0
                l(2) =   0
                l(3) =   1
                l(4) =   1
                l(5) =   2
                l(6) =   2
                l(7) =   3
     Q(r) pseudized with  6 coefficients,  rinner =    1.300   1.300   1.300
                                                       1.300   1.300   1.300
                                                       1.300

     vdW kernel table read from file vdW_kernel_table
     MD5 check sum: 095c7af220d748ca6e76c0b4c6cfb241

     atomic species   valence    mass     pseudopotential
        Sc1           11.00    44.95591     Sc( 1.00)
        Ta1           13.00   180.94788     Ta( 1.00)

     No symmetry found

   Cartesian axes

     site n.     atom                  positions (alat units)
         1           Sc1 tau(   1) = (   0.0000000   0.0000000  10.0000000  )
         2           Sc1 tau(   2) = (  -1.5676770   2.7152962  10.0000000  )
         3           Sc1 tau(   3) = (   1.5676770   2.7152962  10.0000000  )
         4           Ta1 tau(   4) = (   3.1353539   0.0000000  10.0000000  )
         5           Sc1 tau(   5) = (   3.1353539   1.8101974  12.5600058  )
         6           Sc1 tau(   6) = (   1.5676770   4.5254936  12.5600058  )
         7           Sc1 tau(   7) = (  -1.5676770   4.5254936  12.5600058  )
         8           Ta1 tau(   8) = (   0.0000000   1.8101974  12.5600058  )
         9           Sc1 tau(   9) = (  -0.0000000   3.6203949  15.1200115  )
        10           Sc1 tau(  10) = (   1.5676770   0.9050987  15.1200115  )
        11           Sc1 tau(  11) = (   4.7030309   0.9050987  15.1200115  )
        12           Ta1 tau(  12) = (   3.1353539   3.6203949  15.1200115  )

     number of k points=    20  Fermi-Dirac smearing, width (Ry)=  0.0110
                       cart. coord. in units 2pi/alat
        k(    1) = (   0.0000000   0.0000000   0.0000000), wk =   0.0555556
        k(    2) = (   0.0000000   0.0306903   0.0000000), wk =   0.1111111
        k(    3) = (   0.0000000   0.0613807   0.0000000), wk =   0.1111111
        k(    4) = (   0.0000000  -0.0920710   0.0000000), wk =   0.0555556
        k(    5) = (   0.0265786   0.0153452   0.0000000), wk =   0.1111111
        k(    6) = (   0.0265786   0.0460355   0.0000000), wk =   0.1111111
        k(    7) = (   0.0265786   0.0767258   0.0000000), wk =   0.1111111
        k(    8) = (   0.0265786  -0.0767258   0.0000000), wk =   0.1111111
        k(    9) = (   0.0265786  -0.0460355   0.0000000), wk =   0.1111111
        k(   10) = (   0.0265786  -0.0153452   0.0000000), wk =   0.1111111
        k(   11) = (   0.0531572   0.0306903   0.0000000), wk =   0.1111111
        k(   12) = (   0.0531572   0.0613807   0.0000000), wk =   0.1111111
        k(   13) = (   0.0531572   0.0920710   0.0000000), wk =   0.1111111
        k(   14) = (   0.0531572  -0.0613807   0.0000000), wk =   0.1111111
        k(   15) = (   0.0531572  -0.0306903   0.0000000), wk =   0.1111111
        k(   16) = (   0.0531572   0.0000000   0.0000000), wk =   0.1111111
        k(   17) = (  -0.0797358  -0.0460355   0.0000000), wk =   0.0555556
        k(   18) = (  -0.0797358  -0.0153452   0.0000000), wk =   0.1111111
        k(   19) = (  -0.0797358   0.0153452   0.0000000), wk =   0.1111111
        k(   20) = (  -0.0797358  -0.1381065   0.0000000), wk =   0.0555556

     Largest allocated arrays     est. size (Mb)     dimensions
     Largest temporary arrays     est. size (Mb)     dimensions

     Initial potential from superposition of free atoms
     Check: negative starting charge=   -0.283126

     starting charge  137.97504, renormalised to  138.00000

     negative rho (up, down):  2.832E-01 0.000E+00

     *
     * You are using vdW-DF for exchange-correlation in this calculation.
     * Please cite the following three references that made this development
     * possible:
     *
     *   M. Dion, H. Rydberg, E. Schroder, D. C. Langreth, and
     *   B. I. Lundqvist, Phys. Rev. Lett. 92, 246401 (2004).
     *
     *   T. Thonhauser, V. R. Cooper, S. Li, A. Puzder, P. Hyldgaard, and
     *   D. C. Langreth, Phys. Rev. B 76, 125112 (2007).
     *
     *   G. Roman-Perez and J. M. Soler, Phys. Rev. Lett. 103, 096102 (2009).
     *
     *
     * If you are using vdW-DF2, please also cite:
     *
     *   K. Lee, E. D. Murray, L. Kong, B. I. Lundqvist, and
     *   D. C. Langreth, Phys. Rev. B 82, 081101(R) (2010).
     *
     *
     * If you are calculating the stress with vdW-DF, please also cite:
     *
     *   R. Sabatini, E. Kucukbenli, B. Kolb, T. Thonhauser, and
     *   S. de Gironcoli, J. Phys.: Condens. Matter 24, 424209 (2012).
     *

     Carrying out vdW-DF run using the following parameters:

     Nqs =      20    Nr_points =    1024   r_max =   100.000
     q_mesh =
               0.00001000     0.04494208     0.09755937     0.15916263
               0.23128650     0.31572767     0.41458969     0.53033537
               0.66584808     0.82450364     1.01025438     1.22772762
               1.48234092     1.78043706     2.12944203     2.53805004
               3.01644009     3.57652955     4.23227104     5.00000000

     Gradients computed in reciprocal space

     Adding external electric field

     Computed dipole along edir(3) :
        Dipole               -0.0000 Ry au,         -0.0000 Debye
        Dipole field         -0.0000 Ry au

        Potential amp.        0.0000 Ry
        Total length         46.2832 bohr

     Starting wfc are  156 randomized atomic wfcs

     Self-consistent Calculation

     iteration #  1     ecut=    36.75 Ry     beta=0.10
     Davidson diagonalization with overlap
     ethr =  1.00E-02,  avg # of iterations =  2.0

[...]

     total energy              =   -1281.88064308 Ry
     Harris-Foulkes estimate   =   -1283.26225908 Ry
     estimated scf accuracy    <       7.74968045 Ry

[...]

     iteration #  8     ecut=    36.75 Ry     beta=0.10
     Davidson diagonalization with overlap
     c_bands:  1 eigenvalues not converged
     ethr =  1.18E-05,  avg # of iterations =  5.3

[...]

     End of self-consistent calculation

          k = 0.0000 0.0000 0.0000 ( 21811 PWs)   bands (ev):

   -67.5542 -67.5540 -67.3820 -48.9996 -48.9987 -48.9517 -48.9517 -48.9515
   -48.9515 -48.5071 -48.4605 -48.4603 -33.9185 -33.9161 -33.8427 -33.8427
   -33.8420 -33.8420 -33.6996 -33.6874 -33.6874 -27.8275 -27.8181 -27.6694
   -27.6392 -27.6392 -27.6382 -27.6187 -27.6187 -27.6014 -27.6014 -27.5884
   -27.5883 -27.4117 -27.4075 -27.4067 -27.4067 -27.4039 -27.4039 -27.3041
   -27.1496 -27.1496 -27.0816 -27.0621 -27.0619 -26.9680 -26.9028 -26.9026
    -4.5928  -3.4473  -2.2367  -1.3108  -1.2303  -1.2303  -1.1803  -1.1803
    -0.9832  -0.8005  -0.8005  -0.7351  -0.3522  -0.3522  -0.2361   0.0920
     0.0920   0.3856   0.7865   0.8270   1.1484   1.1679   1.1679   1.4525
     1.4663   1.5213   1.5213   1.7176   1.9913   1.9913   2.0321   2.1340
     2.2221   2.2221   2.2738   2.2738   2.3182   2.3183   2.3331   2.3331
     2.4557   2.4557   2.6237   3.1593   3.1593   3.3240   3.5912   3.7769
     3.7771   3.8151   3.8215

[...]

          k =-0.0797-0.0460 0.0000 ( 21712 PWs)   bands (ev):

[...]

     the Fermi energy is     0.7860 ev

!    total energy              =   -1282.67484125 Ry
     Harris-Foulkes estimate   =   -1282.67484401 Ry
     estimated scf accuracy    <       0.00000044 Ry

     The total energy is the sum of the following terms:

     one-electron contribution =   -8151.71436143 Ry
     hartree contribution      =    4057.90537553 Ry
     xc contribution           =    -255.37266193 Ry
     ewald contribution        =    3066.62771953 Ry
     electric field correction =       0.00000001 Ry
     smearing contrib. (-TS)   =      -0.12091296 Ry

     convergence has been achieved in  17 iterations

 BEEF-vdW xc energy contributions
           1 :   -220.788186695055
           2 :    199.271051006207
           3 :   -163.963966929774
           4 :    126.036929044365
           5 :   -94.5663541086458
           6 :    73.1540269613579
           7 :   -60.1794248892768
           8 :    51.6424758559994
           9 :   -44.2536867615871
          10 :    36.9190187372050
[...]
     Generated by new atomic code, or converted to UPF format
     Using radial grid of  849 points,  6 beta functions with:
                l(1) =   0
                l(2) =   0
                l(3) =   1
                l(4) =   1
                l(5) =   2
                l(6) =   2
     Q(r) pseudized with  6 coefficients,  rinner =    1.200   1.200   1.200
                                                       1.200   1.200

     PseudoPot. # 2 for Ta read from file:
     /afs/slac.stanford.edu/u/if/mamunm/psp/gbrv1.5pbe/Ta.UPF
     MD5 check sum: f8bbe9446314a3b8ea5d9f3e3836c939
     Pseudo is Ultrasoft + core correction, Zval = 13.0
     Generated by new atomic code, or converted to UPF format
     Using radial grid of  921 points,  7 beta functions with:
                l(1) =   0
                l(2) =   0
                l(3) =   1
                l(4) =   1
                l(5) =   2
                l(6) =   2
                l(7) =   3
     Q(r) pseudized with  6 coefficients,  rinner =    1.300   1.300   1.300
                                                       1.300   1.300   1.300
                                                       1.300

     vdW kernel table read from file vdW_kernel_table
     MD5 check sum: 095c7af220d748ca6e76c0b4c6cfb241

     atomic species   valence    mass     pseudopotential
        Sc1           11.00    44.95591     Sc( 1.00)
        Ta1           13.00   180.94788     Ta( 1.00)

     No symmetry found

   Cartesian axes

     site n.     atom                  positions (alat units)
         1           Sc1 tau(   1) = (   0.0000000   0.0000000  10.0000000  )
         2           Sc1 tau(   2) = (  -1.5676770   2.7152962  10.0000000  )
         3           Sc1 tau(   3) = (   1.5676770   2.7152962  10.0000000  )
         4           Ta1 tau(   4) = (   3.1353539   0.0000000  10.0000000  )
         5           Sc1 tau(   5) = (   3.1353539   1.8101974  12.5600058  )
         6           Sc1 tau(   6) = (   1.5676770   4.5254936  12.5600058  )
         7           Sc1 tau(   7) = (  -1.5676770   4.5254936  12.5600058  )
         8           Ta1 tau(   8) = (   0.0000000   1.8101974  12.5600058  )
         9           Sc1 tau(   9) = (   0.0000072   3.5875727  15.0909267  )
        10           Sc1 tau(  10) = (   1.5392797   0.9212098  15.0909148  )
        11           Sc1 tau(  11) = (   4.7314364   0.9212088  15.0909239  )
        12           Ta1 tau(  12) = (   3.1353541   3.6203914  14.8490352  )

     number of k points=    20  Fermi-Dirac smearing, width (Ry)=  0.0110
                       cart. coord. in units 2pi/alat
        k(    1) = (   0.0000000   0.0000000   0.0000000), wk =   0.0555556
        k(    2) = (   0.0000000   0.0306903   0.0000000), wk =   0.1111111
        k(    3) = (   0.0000000   0.0613807   0.0000000), wk =   0.1111111
        k(    4) = (   0.0000000  -0.0920710   0.0000000), wk =   0.0555556
        k(    5) = (   0.0265786   0.0153452   0.0000000), wk =   0.1111111
        k(    6) = (   0.0265786   0.0460355   0.0000000), wk =   0.1111111
        k(    7) = (   0.0265786   0.0767258   0.0000000), wk =   0.1111111
        k(    8) = (   0.0265786  -0.0767258   0.0000000), wk =   0.1111111
        k(    9) = (   0.0265786  -0.0460355   0.0000000), wk =   0.1111111
        k(   10) = (   0.0265786  -0.0153452   0.0000000), wk =   0.1111111
        k(   11) = (   0.0531572   0.0306903   0.0000000), wk =   0.1111111
        k(   12) = (   0.0531572   0.0613807   0.0000000), wk =   0.1111111
        k(   13) = (   0.0531572   0.0920710   0.0000000), wk =   0.1111111
        k(   14) = (   0.0531572  -0.0613807   0.0000000), wk =   0.1111111
        k(   15) = (   0.0531572  -0.0306903   0.0000000), wk =   0.1111111
        k(   16) = (   0.0531572   0.0000000   0.0000000), wk =   0.1111111
        k(   17) = (  -0.0797358  -0.0460355   0.0000000), wk =   0.0555556
        k(   18) = (  -0.0797358  -0.0153452   0.0000000), wk =   0.1111111
        k(   19) = (  -0.0797358   0.0153452   0.0000000), wk =   0.1111111
        k(   20) = (  -0.0797358  -0.1381065   0.0000000), wk =   0.0555556

     Largest allocated arrays     est. size (Mb)     dimensions
     Largest temporary arrays     est. size (Mb)     dimensions

     Initial potential from superposition of free atoms
     Check: negative starting charge=   -0.283189

     starting charge  137.97504, renormalised to  138.00000

[...]

     *
     * You are using vdW-DF for exchange-correlation in this calculation.
     * Please cite the following three references that made this development
     * possible:
     *
     *   M. Dion, H. Rydberg, E. Schroder, D. C. Langreth, and
     *   B. I. Lundqvist, Phys. Rev. Lett. 92, 246401 (2004).
     *
     *   T. Thonhauser, V. R. Cooper, S. Li, A. Puzder, P. Hyldgaard, and
     *   D. C. Langreth, Phys. Rev. B 76, 125112 (2007).
     *
     *   G. Roman-Perez and J. M. Soler, Phys. Rev. Lett. 103, 096102 (2009).
     *
     *
     * If you are using vdW-DF2, please also cite:
     *
     *   K. Lee, E. D. Murray, L. Kong, B. I. Lundqvist, and
     *   D. C. Langreth, Phys. Rev. B 82, 081101(R) (2010).
     *
     *
     * If you are calculating the stress with vdW-DF, please also cite:
     *
     *   R. Sabatini, E. Kucukbenli, B. Kolb, T. Thonhauser, and
     *   S. de Gironcoli, J. Phys.: Condens. Matter 24, 424209 (2012).
     *

     Carrying out vdW-DF run using the following parameters:

     Nqs =      20    Nr_points =    1024   r_max =   100.000
     q_mesh =
               0.00001000     0.04494208     0.09755937     0.15916263
               0.23128650     0.31572767     0.41458969     0.53033537
               0.66584808     0.82450364     1.01025438     1.22772762
               1.48234092     1.78043706     2.12944203     2.53805004
               3.01644009     3.57652955     4.23227104     5.00000000

     Gradients computed in reciprocal space

[...]

     Starting wfc are  156 randomized atomic wfcs

     Self-consistent Calculation

[...]

     iteration # 10     ecut=    36.75 Ry     beta=0.10
     Davidson diagonalization with overlap
     c_bands:  1 eigenvalues not converged
     c_bands:  1 eigenvalues not converged
     ethr =  2.05E-06,  avg # of iterations = 11.9

[...]

     total energy              =   -1282.68921803 Ry
     Harris-Foulkes estimate   =   -1282.68921818 Ry
     estimated scf accuracy    <       0.00000103 Ry

     iteration # 20     ecut=    36.75 Ry     beta=0.10
     Davidson diagonalization with overlap
     ethr =  7.44E-10,  avg # of iterations =  2.2

[...]

     negative rho (up, down):  2.932E-01 0.000E+00

     Adding external electric field

     Computed dipole along edir(3) :
        Dipole                0.0305 Ry au,          0.0774 Debye
        Dipole field          0.0001 Ry au

        Potential amp.       -0.0061 Ry
        Total length         46.2832 bohr

     End of self-consistent calculation

[...]

          k = 0.0532 0.0000 0.0000 ( 21747 PWs)   bands (ev):

[...]

          k =-0.0797-0.1381 0.0000 ( 21712 PWs)   bands (ev):

   -67.5458 -67.3344 -67.3205 -48.9677 -48.9532 -48.9518 -48.9359 -48.9344
   -48.9194 -48.3582 -48.3423 -48.3264 -33.9142 -33.8302 -33.8276 -33.6845
   -33.6672 -33.6647 -33.6409 -33.6284 -33.6260 -27.7152 -27.6993 -27.6309
   -27.6161 -27.6090 -27.5935 -27.5928 -27.5765 -27.5603 -27.5554 -27.5267
   -27.5064 -27.5055 -27.5017 -27.4910 -27.4685 -27.3904 -27.3748 -27.0982
   -26.9875 -26.9751 -26.9531 -26.9382 -26.9308 -26.9149 -26.9035 -26.7890
    -3.3072  -3.0674  -2.2518  -1.7968  -1.2719  -0.8434  -0.8220  -0.7019
    -0.6467  -0.5277  -0.0184   0.0685   0.1326   0.1754   0.3587   0.4074
     0.4355   0.4711   0.5174   0.5995   0.6496   0.7374   0.7647   0.8370
     0.9326   1.0318   1.0918   1.1765   1.3451   1.3851   1.5122   1.5771
     1.6094   1.8572   1.9667   2.0827   2.1690   2.3231   2.6257   2.6491
     2.6923   2.8329   3.0064   3.0687   3.1481   3.1608   3.2344   3.3138
     3.3907   3.4263   3.4542

     the Fermi energy is     0.8089 ev

!    total energy              =   -1282.68921640 Ry
     Harris-Foulkes estimate   =   -1282.68921825 Ry
     estimated scf accuracy    <       0.00000011 Ry

     The total energy is the sum of the following terms:

     one-electron contribution =   -8262.09732225 Ry
     hartree contribution      =    4113.42669368 Ry
     xc contribution           =    -255.50725977 Ry
     ewald contribution        =    3121.60505032 Ry
     electric field correction =       0.00000202 Ry
     smearing contrib. (-TS)   =      -0.11638041 Ry

     convergence has been achieved in  20 iterations

 BEEF-vdW xc energy contributions
           1 :   -220.929910971243
           2 :    199.455001149024
           3 :   -164.185377962379
           4 :    126.236544190152
           5 :   -94.6708789403107
           6 :    73.1350148397301
           7 :   -60.0821812343277
           8 :    51.5559855999493
           9 :   -44.2421758008923
          10 :    36.9728820472914
          11 :   -30.3368747148905
          12 :    25.3013949143526
          13 :   -22.0940311230920
          14 :    20.0503656095768
          15 :   -18.2588722316692
          16 :    16.2759428243273
          17 :   -14.2991469293418
          18 :    12.7685940054163
          19 :   -11.8647916552916
          20 :    11.3657499432205
          21 :   -10.9131897615257
          22 :    10.3567209199928
          23 :   -9.83578048125321
          24 :    9.55867385005763
          25 :   -9.52926241491656
          26 :    9.49639432472833
          27 :   -9.17369999552540
          28 :    8.51766862263491
          29 :   -7.79706589647841
          30 :    7.37845648720898
          31 :   -22.7113393329457
          32 :   -16.5249030746044

     Forces acting on atoms (Ry/au):

     negative rho (up, down):  2.932E-01 0.000E+00
     atom    1 type  1   force =     0.00000059    0.01118893   -0.00209690
     atom    2 type  1   force =     0.00967702   -0.00556602   -0.00209095
     atom    3 type  1   force =    -0.00967799   -0.00556732   -0.00209141
     atom    4 type  2   force =     0.00000070    0.00001508    0.04178994
     atom    5 type  1   force =     0.00000005   -0.00556167   -0.01175588
     atom    6 type  1   force =    -0.00481882    0.00278180   -0.01176529
     atom    7 type  1   force =     0.00481763    0.00278159   -0.01176755
     atom    8 type  2   force =    -0.00000059   -0.00000323    0.00205383
     atom    9 type  1   force =     0.00000090   -0.00054721   -0.00109755
     atom   10 type  1   force =    -0.00045375    0.00024323   -0.00109080
     atom   11 type  1   force =     0.00045257    0.00024138   -0.00109250
     atom   12 type  2   force =     0.00000171   -0.00000655    0.00100506

     Total force =     0.051494     Total SCF correction =     0.001053

     entering subroutine stress ...

     negative rho (up, down):  2.932E-01 0.000E+00
          total   stress  (Ry/bohr**3)                   (kbar)     P=   -6.41
  -0.00004298   0.00000000  -0.00000000         -6.32      0.00     -0.00
   0.00000000  -0.00004296   0.00000002          0.00     -6.32      0.00
  -0.00000000   0.00000002  -0.00004479         -0.00      0.00     -6.59

 !ASE

     Writing output data file calc.save

     General routines

     Parallel routines

   This run was terminated on:  23:41: 5  27Dec2018

   JOB DONE.
Job  /afs/slac/g/suncat/bin/suncat-tsmpirun -x LD_LIBRARY_PATH -wdir /scratch/qe110881_OGlOz pw.x -in pw.inp

TID   HOST_NAME   COMMAND_LINE            STATUS            TERMINATION_TIME
00000 suncat0274 pw.x -in pw.inp   Done                     12/27/2018 23:41:05
00001 suncat0274 pw.x -in pw.inp   Done                     12/27/2018 23:41:05
00002 suncat0274 pw.x -in pw.inp   Done                     12/27/2018 23:41:05
00003 suncat0274 pw.x -in pw.inp   Done                     12/27/2018 23:41:05
00004 suncat0274 pw.x -in pw.inp   Done                     12/27/2018 23:41:05
00005 suncat0274 pw.x -in pw.inp   Done                     12/27/2018 23:41:05
00006 suncat0274 pw.x -in pw.inp   Done                     12/27/2018 23:41:05
00007 suncat0274 pw.x -in pw.inp   Done                     12/27/2018 23:41:05
00008 suncat0273 pw.x -in pw.inp   Done                     12/27/2018 23:41:05
00009 suncat0273 pw.x -in pw.inp   Done                     12/27/2018 23:41:05
00010 suncat0273 pw.x -in pw.inp   Done                     12/27/2018 23:41:05
00011 suncat0273 pw.x -in pw.inp   Done                     12/27/2018 23:41:05
00012 suncat0273 pw.x -in pw.inp   Done                     12/27/2018 23:41:05
00013 suncat0273 pw.x -in pw.inp   Done                     12/27/2018 23:41:05
00014 suncat0273 pw.x -in pw.inp   Done                     12/27/2018 23:41:05
00015 suncat0273 pw.x -in pw.inp   Done                     12/27/2018 23:41:05
00016 suncat0230 pw.x -in pw.inp   Done                     12/27/2018 23:41:05
00017 suncat0230 pw.x -in pw.inp   Done                     12/27/2018 23:41:05
00018 suncat0230 pw.x -in pw.inp   Done                     12/27/2018 23:41:05
00019 suncat0230 pw.x -in pw.inp   Done                     12/27/2018 23:41:05
00020 suncat0230 pw.x -in pw.inp   Done                     12/27/2018 23:41:05
00021 suncat0230 pw.x -in pw.inp   Done                     12/27/2018 23:41:05
00022 suncat0230 pw.x -in pw.inp   Done                     12/27/2018 23:41:05
00023 suncat0230 pw.x -in pw.inp   Done                     12/27/2018 23:41:05
00024 suncat0229 pw.x -in pw.inp   Done                     12/27/2018 23:41:05
00025 suncat0229 pw.x -in pw.inp   Done                     12/27/2018 23:41:05
00026 suncat0229 pw.x -in pw.inp   Done                     12/27/2018 23:41:05
00027 suncat0229 pw.x -in pw.inp   Done                     12/27/2018 23:41:05
00028 suncat0229 pw.x -in pw.inp   Done                     12/27/2018 23:41:05
00029 suncat0229 pw.x -in pw.inp   Done                     12/27/2018 23:41:05
00030 suncat0229 pw.x -in pw.inp   Done                     12/27/2018 23:41:05
00031 suncat0229 pw.x -in pw.inp   Done                     12/27/2018 23:41:05
00032 suncat0209 pw.x -in pw.inp   Done                     12/27/2018 23:41:05
00033 suncat0209 pw.x -in pw.inp   Done                     12/27/2018 23:41:05
00034 suncat0209 pw.x -in pw.inp   Done                     12/27/2018 23:41:05
00035 suncat0209 pw.x -in pw.inp   Done                     12/27/2018 23:41:05
00036 suncat0209 pw.x -in pw.inp   Done                     12/27/2018 23:41:05
00037 suncat0209 pw.x -in pw.inp   Done                     12/27/2018 23:41:05
00038 suncat0209 pw.x -in pw.inp   Done                     12/27/2018 23:41:05
00039 suncat0209 pw.x -in pw.inp   Done                     12/27/2018 23:41:05
00040 suncat0205 pw.x -in pw.inp   Done                     12/27/2018 23:41:05
00041 suncat0205 pw.x -in pw.inp   Done                     12/27/2018 23:41:05
00042 suncat0205 pw.x -in pw.inp   Done                     12/27/2018 23:41:05
00043 suncat0205 pw.x -in pw.inp   Done                     12/27/2018 23:41:05
00044 suncat0205 pw.x -in pw.inp   Done                     12/27/2018 23:41:05
00045 suncat0205 pw.x -in pw.inp   Done                     12/27/2018 23:41:05
00046 suncat0205 pw.x -in pw.inp   Done                     12/27/2018 23:41:05
00047 suncat0205 pw.x -in pw.inp   Done                     12/27/2018 23:41:05
00048 suncat0204 pw.x -in pw.inp   Done                     12/27/2018 23:41:05
00049 suncat0204 pw.x -in pw.inp   Done                     12/27/2018 23:41:05
00050 suncat0204 pw.x -in pw.inp   Done                     12/27/2018 23:41:05
00051 suncat0204 pw.x -in pw.inp   Done                     12/27/2018 23:41:05
00052 suncat0204 pw.x -in pw.inp   Done                     12/27/2018 23:41:05
00053 suncat0204 pw.x -in pw.inp   Done                     12/27/2018 23:41:05
00054 suncat0204 pw.x -in pw.inp   Done                     12/27/2018 23:41:05
00055 suncat0204 pw.x -in pw.inp   Done                     12/27/2018 23:41:05
00056 suncat0203 pw.x -in pw.inp   Done                     12/27/2018 23:41:05
00057 suncat0203 pw.x -in pw.inp   Done                     12/27/2018 23:41:05
00058 suncat0203 pw.x -in pw.inp   Done                     12/27/2018 23:41:05
00059 suncat0203 pw.x -in pw.inp   Done                     12/27/2018 23:41:05
00060 suncat0203 pw.x -in pw.inp   Done                     12/27/2018 23:41:05
00061 suncat0203 pw.x -in pw.inp   Done                     12/27/2018 23:41:05
00062 suncat0203 pw.x -in pw.inp   Done                     12/27/2018 23:41:05
00063 suncat0203 pw.x -in pw.inp   Done                     12/27/2018 23:41:05