     Program PWSCF v.5.1rc2 (svn rev. 11289) starts on 19Dec2018 at 17:43:31

     Current dimensions of program PWSCF are:
     Max number of different atomic species (ntypx) = 10
     Max number of k-points (npk) =  40000
     Max angular momentum in pseudopotentials (lmaxx) =  3
     Presently stress not available with electric field

     IMPORTANT: XC functional enforced from input :
     Exchange-correlation      = BEEF-VDW ( 1  4 27 13 2)
     Any further DFT definition will be discarded
     Please, verify this is what you really want

     Subspace diagonalization in iterative solution of the eigenvalue problem:
     a serial algorithm will be used

     Generating pointlists ...
     new r_m :   0.4125 (alat units)  0.7795 (a.u.) for type    1
     new r_m :   0.4125 (alat units)  0.7795 (a.u.) for type    2

     bravais-lattice index     =            0
     lattice parameter (alat)  =       1.8897  a.u.
     unit-cell volume          =    4278.0168 (a.u.)^3
     number of atoms/cell      =           12
     number of atomic types    =            2
     number of electrons       =        72.00
     number of Kohn-Sham states=           66
     kinetic-energy cutoff     =      36.7493  Ry
     charge density cutoff     =     367.4932  Ry
     convergence threshold     =      1.0E-06
     mixing beta               =       0.1000
     number of iterations used =           10  plain     mixing
     Exchange-correlation      = BEEF-VDW ( 1  4 27 13 2)
     nstep                     =           50

     celldm(1)=   1.889726  celldm(2)=   0.000000  celldm(3)=   0.000000
     celldm(4)=   0.000000  celldm(5)=   0.000000  celldm(6)=   0.000000

     crystal axes: (cart. coord. in units of alat)
               a(1) = (   5.469847   0.000000   0.000000 )
               a(2) = (  -2.734923   4.737026   0.000000 )
               a(3) = (   0.000000   0.000000  24.466111 )

     reciprocal axes: (cart. coord. in units 2 pi/alat)
               b(1) = (  0.182820  0.105551  0.000000 )
               b(2) = (  0.000000  0.211103  0.000000 )
               b(3) = (  0.000000  0.000000  0.040873 )

     PseudoPot. # 1 for Al read from file:
     /afs/slac.stanford.edu/u/if/mamunm/psp/gbrv1.5pbe/Al.UPF
     MD5 check sum: 0a6289f5291fc8f409219462bc851e1f
     Pseudo is Ultrasoft + core correction, Zval =  3.0
     Generated by new atomic code, or converted to UPF format
     Using radial grid of  893 points,  3 beta functions with:
                l(1) =   0
                l(2) =   1
                l(3) =   2
     Q(r) pseudized with  8 coefficients,  rinner =    0.900   0.900   0.900
                                                       0.900   0.900

     PseudoPot. # 2 for Mn read from file:
     /afs/slac.stanford.edu/u/if/mamunm/psp/gbrv1.5pbe/Mn.UPF
     MD5 check sum: 82ef2b46521d7a7d9e736dc3972e4928
     Pseudo is Ultrasoft + core correction, Zval = 15.0
     Generated by new atomic code, or converted to UPF format
     Using radial grid of  859 points,  6 beta functions with:
                l(1) =   0
                l(2) =   0
                l(3) =   1
                l(4) =   1
                l(5) =   2
                l(6) =   2
     Q(r) pseudized with  8 coefficients,  rinner =    0.950   0.950   0.950
                                                       0.950   0.950

     vdW kernel table read from file vdW_kernel_table
     MD5 check sum: 095c7af220d748ca6e76c0b4c6cfb241

     atomic species   valence    mass     pseudopotential
        Al1            3.00    26.98154     Al( 1.00)
        Mn1           15.00    54.93804     Mn( 1.00)

     Starting magnetic structure
     atomic species   magnetization
        Al1          0.667
        Mn1          0.133

     No symmetry found

   Cartesian axes

     site n.     atom                  positions (alat units)
         1           Al1 tau(   1) = (   0.0000000   0.0000000  10.0000000  )
         2           Al1 tau(   2) = (  -1.3674617   2.3685131  10.0000000  )
         3           Al1 tau(   3) = (   1.3674617   2.3685131  10.0000000  )
         4           Mn1 tau(   4) = (   2.7349234   0.0000000  10.0000000  )
         5           Al1 tau(   5) = (   2.7349234   1.5790087  12.2330556  )
         6           Al1 tau(   6) = (   1.3674617   3.9475218  12.2330556  )
         7           Al1 tau(   7) = (  -1.3674617   3.9475218  12.2330556  )
         8           Mn1 tau(   8) = (   0.0000000   1.5790087  12.2330556  )
         9           Al1 tau(   9) = (  -0.0000000   3.1580175  14.4661111  )
        10           Al1 tau(  10) = (   1.3674617   0.7895044  14.4661111  )
        11           Al1 tau(  11) = (   4.1023850   0.7895044  14.4661111  )
        12           Mn1 tau(  12) = (   2.7349234   3.1580175  14.4661111  )

     number of k points=    40  Fermi-Dirac smearing, width (Ry)=  0.0110
                       cart. coord. in units 2pi/alat
        k(    1) = (   0.0000000   0.0000000   0.0000000), wk =   0.0277778
        k(    2) = (   0.0000000   0.0351838   0.0000000), wk =   0.0555556
        k(    3) = (   0.0000000   0.0703676   0.0000000), wk =   0.0555556
        k(    4) = (   0.0000000  -0.1055515   0.0000000), wk =   0.0277778
        k(    5) = (   0.0304701   0.0175919   0.0000000), wk =   0.0555556
        k(    6) = (   0.0304701   0.0527757   0.0000000), wk =   0.0555556
        k(    7) = (   0.0304701   0.0879595   0.0000000), wk =   0.0555556
        k(    8) = (   0.0304701  -0.0879595   0.0000000), wk =   0.0555556
        k(    9) = (   0.0304701  -0.0527757   0.0000000), wk =   0.0555556
        k(   10) = (   0.0304701  -0.0175919   0.0000000), wk =   0.0555556
        k(   11) = (   0.0609402   0.0351838   0.0000000), wk =   0.0555556
        k(   12) = (   0.0609402   0.0703676   0.0000000), wk =   0.0555556
        k(   13) = (   0.0609402   0.1055515   0.0000000), wk =   0.0555556
        k(   14) = (   0.0609402  -0.0703676   0.0000000), wk =   0.0555556
        k(   15) = (   0.0609402  -0.0351838   0.0000000), wk =   0.0555556
        k(   16) = (   0.0609402   0.0000000   0.0000000), wk =   0.0555556
        k(   17) = (  -0.0914102  -0.0527757   0.0000000), wk =   0.0277778
        k(   18) = (  -0.0914102  -0.0175919   0.0000000), wk =   0.0555556
        k(   19) = (  -0.0914102   0.0175919   0.0000000), wk =   0.0555556
        k(   20) = (  -0.0914102  -0.1583272   0.0000000), wk =   0.0277778
        k(   21) = (   0.0000000   0.0000000   0.0000000), wk =   0.0277778
        k(   22) = (   0.0000000   0.0351838   0.0000000), wk =   0.0555556
        k(   23) = (   0.0000000   0.0703676   0.0000000), wk =   0.0555556
        k(   24) = (   0.0000000  -0.1055515   0.0000000), wk =   0.0277778
        k(   25) = (   0.0304701   0.0175919   0.0000000), wk =   0.0555556
        k(   26) = (   0.0304701   0.0527757   0.0000000), wk =   0.0555556
        k(   27) = (   0.0304701   0.0879595   0.0000000), wk =   0.0555556
        k(   28) = (   0.0304701  -0.0879595   0.0000000), wk =   0.0555556
        k(   29) = (   0.0304701  -0.0527757   0.0000000), wk =   0.0555556
        k(   30) = (   0.0304701  -0.0175919   0.0000000), wk =   0.0555556
        k(   31) = (   0.0609402   0.0351838   0.0000000), wk =   0.0555556
        k(   32) = (   0.0609402   0.0703676   0.0000000), wk =   0.0555556
        k(   33) = (   0.0609402   0.1055515   0.0000000), wk =   0.0555556
        k(   34) = (   0.0609402  -0.0703676   0.0000000), wk =   0.0555556
        k(   35) = (   0.0609402  -0.0351838   0.0000000), wk =   0.0555556
        k(   36) = (   0.0609402   0.0000000   0.0000000), wk =   0.0555556
        k(   37) = (  -0.0914102  -0.0527757   0.0000000), wk =   0.0277778
        k(   38) = (  -0.0914102  -0.0175919   0.0000000), wk =   0.0555556
        k(   39) = (  -0.0914102   0.0175919   0.0000000), wk =   0.0555556
        k(   40) = (  -0.0914102  -0.1583272   0.0000000), wk =   0.0277778

     Largest allocated arrays     est. size (Mb)     dimensions
     Largest temporary arrays     est. size (Mb)     dimensions

     Check: negative/imaginary core charge=   -0.000003    0.000000

     Initial potential from superposition of free atoms
     Check: negative starting charge=(component1):   -0.000778
     Check: negative starting charge=(component2):   -0.000613

     starting charge   70.47756, renormalised to   72.00000

     negative rho (up, down):  7.948E-04 6.267E-04

     *
     * You are using vdW-DF for exchange-correlation in this calculation.
     * Please cite the following three references that made this development
     * possible:
     *
     *   M. Dion, H. Rydberg, E. Schroder, D. C. Langreth, and
     *   B. I. Lundqvist, Phys. Rev. Lett. 92, 246401 (2004).
     *
     *   T. Thonhauser, V. R. Cooper, S. Li, A. Puzder, P. Hyldgaard, and
     *   D. C. Langreth, Phys. Rev. B 76, 125112 (2007).
     *
     *   G. Roman-Perez and J. M. Soler, Phys. Rev. Lett. 103, 096102 (2009).
     *
     *
     * If you are using vdW-DF2, please also cite:
     *
     *   K. Lee, E. D. Murray, L. Kong, B. I. Lundqvist, and
     *   D. C. Langreth, Phys. Rev. B 82, 081101(R) (2010).
     *
     *
     * If you are calculating the stress with vdW-DF, please also cite:
     *
     *   R. Sabatini, E. Kucukbenli, B. Kolb, T. Thonhauser, and
     *   S. de Gironcoli, J. Phys.: Condens. Matter 24, 424209 (2012).
     *

     Carrying out vdW-DF run using the following parameters:

     Nqs =      20    Nr_points =    1024   r_max =   100.000
     q_mesh =
               0.00001000     0.04494208     0.09755937     0.15916263
               0.23128650     0.31572767     0.41458969     0.53033537
               0.66584808     0.82450364     1.01025438     1.22772762
               1.48234092     1.78043706     2.12944203     2.53805004
               3.01644009     3.57652955     4.23227104     5.00000000

     Gradients computed in reciprocal space

     Adding external electric field

     Computed dipole along edir(3) :
        Dipole                0.0000 Ry au,          0.0000 Debye
        Dipole field          0.0000 Ry au

        Potential amp.       -0.0000 Ry
        Total length         45.0784 bohr

[...]

     Starting wfc are   75 randomized atomic wfcs

     Self-consistent Calculation

     iteration #  1     ecut=    36.75 Ry     beta=0.10
     Davidson diagonalization with overlap
     ethr =  1.00E-02,  avg # of iterations =  6.1

[...]

     Magnetic moment per site:
     atom:    1    charge:    0.0896    magn:    0.0537    constr:    0.0000
     atom:    2    charge:    0.0896    magn:    0.0537    constr:    0.0000
     atom:    3    charge:    0.0896    magn:    0.0537    constr:    0.0000
     atom:    4    charge:    6.0246    magn:    0.8071    constr:    0.0000
     atom:    5    charge:    0.0935    magn:    0.0554    constr:    0.0000
     atom:    6    charge:    0.0935    magn:    0.0554    constr:    0.0000
     atom:    7    charge:    0.0935    magn:    0.0554    constr:    0.0000
     atom:    8    charge:    6.0449    magn:    0.8023    constr:    0.0000
     atom:    9    charge:    0.0896    magn:    0.0537    constr:    0.0000
[...]
        10           Al1 tau(  10) = (   1.3550294   0.7966828  14.5982262  )
        11           Al1 tau(  11) = (   4.1148179   0.7966823  14.5982261  )
        12           Mn1 tau(  12) = (   2.7349269   3.1580178  14.3525444  )

     number of k points=    40  Fermi-Dirac smearing, width (Ry)=  0.0110
                       cart. coord. in units 2pi/alat
        k(    1) = (   0.0000000   0.0000000   0.0000000), wk =   0.0277778
        k(    2) = (   0.0000000   0.0351838   0.0000000), wk =   0.0555556
        k(    3) = (   0.0000000   0.0703676   0.0000000), wk =   0.0555556
        k(    4) = (   0.0000000  -0.1055515   0.0000000), wk =   0.0277778
        k(    5) = (   0.0304701   0.0175919   0.0000000), wk =   0.0555556
        k(    6) = (   0.0304701   0.0527757   0.0000000), wk =   0.0555556
        k(    7) = (   0.0304701   0.0879595   0.0000000), wk =   0.0555556
        k(    8) = (   0.0304701  -0.0879595   0.0000000), wk =   0.0555556
        k(    9) = (   0.0304701  -0.0527757   0.0000000), wk =   0.0555556
        k(   10) = (   0.0304701  -0.0175919   0.0000000), wk =   0.0555556
        k(   11) = (   0.0609402   0.0351838   0.0000000), wk =   0.0555556
        k(   12) = (   0.0609402   0.0703676   0.0000000), wk =   0.0555556
        k(   13) = (   0.0609402   0.1055515   0.0000000), wk =   0.0555556
        k(   14) = (   0.0609402  -0.0703676   0.0000000), wk =   0.0555556
        k(   15) = (   0.0609402  -0.0351838   0.0000000), wk =   0.0555556
        k(   16) = (   0.0609402   0.0000000   0.0000000), wk =   0.0555556
        k(   17) = (  -0.0914102  -0.0527757   0.0000000), wk =   0.0277778
        k(   18) = (  -0.0914102  -0.0175919   0.0000000), wk =   0.0555556
        k(   19) = (  -0.0914102   0.0175919   0.0000000), wk =   0.0555556
        k(   20) = (  -0.0914102  -0.1583272   0.0000000), wk =   0.0277778
        k(   21) = (   0.0000000   0.0000000   0.0000000), wk =   0.0277778
        k(   22) = (   0.0000000   0.0351838   0.0000000), wk =   0.0555556
        k(   23) = (   0.0000000   0.0703676   0.0000000), wk =   0.0555556
        k(   24) = (   0.0000000  -0.1055515   0.0000000), wk =   0.0277778
        k(   25) = (   0.0304701   0.0175919   0.0000000), wk =   0.0555556
        k(   26) = (   0.0304701   0.0527757   0.0000000), wk =   0.0555556
        k(   27) = (   0.0304701   0.0879595   0.0000000), wk =   0.0555556
        k(   28) = (   0.0304701  -0.0879595   0.0000000), wk =   0.0555556
        k(   29) = (   0.0304701  -0.0527757   0.0000000), wk =   0.0555556
        k(   30) = (   0.0304701  -0.0175919   0.0000000), wk =   0.0555556
        k(   31) = (   0.0609402   0.0351838   0.0000000), wk =   0.0555556
        k(   32) = (   0.0609402   0.0703676   0.0000000), wk =   0.0555556
        k(   33) = (   0.0609402   0.1055515   0.0000000), wk =   0.0555556
        k(   34) = (   0.0609402  -0.0703676   0.0000000), wk =   0.0555556
        k(   35) = (   0.0609402  -0.0351838   0.0000000), wk =   0.0555556
        k(   36) = (   0.0609402   0.0000000   0.0000000), wk =   0.0555556
        k(   37) = (  -0.0914102  -0.0527757   0.0000000), wk =   0.0277778
        k(   38) = (  -0.0914102  -0.0175919   0.0000000), wk =   0.0555556
        k(   39) = (  -0.0914102   0.0175919   0.0000000), wk =   0.0555556
        k(   40) = (  -0.0914102  -0.1583272   0.0000000), wk =   0.0277778

     Largest allocated arrays     est. size (Mb)     dimensions
     Largest temporary arrays     est. size (Mb)     dimensions

     Check: negative/imaginary core charge=   -0.000003    0.000000

     Initial potential from superposition of free atoms
     Check: negative starting charge=(component1):   -0.000765
     Check: negative starting charge=(component2):   -0.000603

     starting charge   70.47756, renormalised to   72.00000

[...]

     *
     * You are using vdW-DF for exchange-correlation in this calculation.
     * Please cite the following three references that made this development
     * possible:
     *
     *   M. Dion, H. Rydberg, E. Schroder, D. C. Langreth, and
     *   B. I. Lundqvist, Phys. Rev. Lett. 92, 246401 (2004).
     *
     *   T. Thonhauser, V. R. Cooper, S. Li, A. Puzder, P. Hyldgaard, and
     *   D. C. Langreth, Phys. Rev. B 76, 125112 (2007).
     *
     *   G. Roman-Perez and J. M. Soler, Phys. Rev. Lett. 103, 096102 (2009).
     *
     *
     * If you are using vdW-DF2, please also cite:
     *
     *   K. Lee, E. D. Murray, L. Kong, B. I. Lundqvist, and
     *   D. C. Langreth, Phys. Rev. B 82, 081101(R) (2010).
     *
     *
     * If you are calculating the stress with vdW-DF, please also cite:
     *
     *   R. Sabatini, E. Kucukbenli, B. Kolb, T. Thonhauser, and
     *   S. de Gironcoli, J. Phys.: Condens. Matter 24, 424209 (2012).
     *

     Carrying out vdW-DF run using the following parameters:

     Nqs =      20    Nr_points =    1024   r_max =   100.000
     q_mesh =
               0.00001000     0.04494208     0.09755937     0.15916263
               0.23128650     0.31572767     0.41458969     0.53033537
               0.66584808     0.82450364     1.01025438     1.22772762
               1.48234092     1.78043706     2.12944203     2.53805004
               3.01644009     3.57652955     4.23227104     5.00000000

     Gradients computed in reciprocal space

[...]

     Starting wfc are   75 randomized atomic wfcs

     Self-consistent Calculation

[...]

     total energy              =    -698.32612882 Ry
     Harris-Foulkes estimate   =    -698.32612713 Ry
     estimated scf accuracy    <       0.00000126 Ry

[...]

     iteration # 24     ecut=    36.75 Ry     beta=0.10
     Davidson diagonalization with overlap
     ethr =  1.75E-09,  avg # of iterations =  1.9

[...]

     negative rho (up, down):  1.112E-03 9.073E-04

[...]

     Adding external electric field

     Computed dipole along edir(3) :
        Dipole                0.0294 Ry au,          0.0746 Debye
        Dipole field          0.0001 Ry au

        Potential amp.       -0.0078 Ry
        Total length         45.0784 bohr

     Magnetic moment per site:
     atom:    1    charge:    0.0801    magn:   -0.0054    constr:    0.0000
     atom:    2    charge:    0.0801    magn:   -0.0054    constr:    0.0000
     atom:    3    charge:    0.0801    magn:   -0.0054    constr:    0.0000
     atom:    4    charge:    6.0032    magn:    1.2297    constr:    0.0000
     atom:    5    charge:    0.0811    magn:   -0.0045    constr:    0.0000
     atom:    6    charge:    0.0811    magn:   -0.0045    constr:    0.0000
     atom:    7    charge:    0.0811    magn:   -0.0045    constr:    0.0000
     atom:    8    charge:    5.9867    magn:    1.0003    constr:    0.0000
     atom:    9    charge:    0.0788    magn:   -0.0051    constr:    0.0000
     atom:   10    charge:    0.0788    magn:   -0.0051    constr:    0.0000
     atom:   11    charge:    0.0788    magn:   -0.0051    constr:    0.0000
     atom:   12    charge:    5.9899    magn:    1.1542    constr:    0.0000

     End of self-consistent calculation

 ------ SPIN UP ------------

[...]

 ------ SPIN DOWN ----------

[...]

          k = 0.0609 0.0000 0.0000 ( 16110 PWs)   bands (ev):

[...]

          k =-0.0914-0.1583 0.0000 ( 16144 PWs)   bands (ev):

   -78.0448 -77.8712 -77.8338 -46.8681 -46.8680 -46.7589 -46.6963 -46.6962
   -46.6573 -46.6573 -46.5915 -46.5562  -9.3372  -8.9909  -7.4151  -7.3712
    -6.0598  -5.9684  -5.0606  -4.3974  -4.3591  -3.8028  -2.6351  -1.9608
    -1.9329  -1.9237  -1.7784  -1.4208  -1.2163  -0.7718  -0.7327  -0.4086
    -0.1641   0.2995   0.3645   0.4929   0.7083   0.7419   0.7916   0.8190
     1.2336   1.5272   1.9818   2.1307   2.1904   2.2371   2.5504   2.7411
     2.9557   3.0697   3.4544   4.0850   4.3763   4.3973   4.4317   4.4942
     4.8279   4.9508   5.0702   5.2031   5.5489   5.5749   5.7988   5.8677
     5.8847   6.0620

     the Fermi energy is    -0.3973 ev

!    total energy              =    -698.32613288 Ry
     Harris-Foulkes estimate   =    -698.32612926 Ry
     estimated scf accuracy    <       0.00000058 Ry

     The total energy is the sum of the following terms:

     one-electron contribution =   -3409.54760907 Ry
     hartree contribution      =    1706.79415942 Ry
     xc contribution           =    -122.90589905 Ry
     ewald contribution        =    1127.36305253 Ry
     electric field correction =       0.00000253 Ry
     smearing contrib. (-TS)   =      -0.02983924 Ry

     total magnetization       =     7.68 Bohr mag/cell
     absolute magnetization    =    10.12 Bohr mag/cell

     convergence has been achieved in  24 iterations

 BEEF-vdW xc energy contributions
           1 :   -105.183295774643
           2 :    93.5101425726863
           3 :   -74.7344751723116
           4 :    55.2473980682580
           5 :   -39.9071558160154
           6 :    30.2230944765030
           7 :   -24.8170314153256
           8 :    21.2993377154532
           9 :   -18.0168533700604
          10 :    14.6271190421174
          11 :   -11.5590930396190
          12 :    9.17416378111785
          13 :   -7.39113500996802
          14 :    5.89894274278684
          15 :   -4.53800229541127
          16 :    3.40301384393319
          17 :   -2.62417574950479
          18 :    2.12792360452059
          19 :   -1.65732042380299
          20 :    1.01710326093180
          21 :  -0.274195744119112
          22 :  -0.300682227682245
          23 :   0.493393336870199
          24 :  -0.360735655900797
          25 :   0.197534369518550
          26 :  -0.291359210351658
          27 :   0.686048171608618
          28 :   -1.15980604914120
          29 :    1.42189358740447
          30 :   -1.34836096709543
          31 :   -11.4741841752763
          32 :   -8.24780459840190

     Forces acting on atoms (Ry/au):

     negative rho (up, down):  1.112E-03 9.073E-04
     atom    1 type  1   force =    -0.00000002    0.01141329   -0.02163920
     atom    2 type  1   force =     0.00988417   -0.00570661   -0.02163924
     atom    3 type  1   force =    -0.00988418   -0.00570661   -0.02163921
     atom    4 type  2   force =     0.00000006   -0.00000009    0.02787046
     atom    5 type  1   force =     0.00000004   -0.00455231    0.00901724
     atom    6 type  1   force =    -0.00394233    0.00227616    0.00901730
     atom    7 type  1   force =     0.00394254    0.00227624    0.00901718
     atom    8 type  2   force =     0.00000003   -0.00000004    0.00910627
     atom    9 type  1   force =     0.00000005   -0.00142990    0.00007969
     atom   10 type  1   force =    -0.00123826    0.00071494    0.00007964
     atom   11 type  1   force =     0.00123858    0.00071502    0.00007965
     atom   12 type  2   force =    -0.00000068   -0.00000009    0.00065021

     Total force =     0.054479     Total SCF correction =     0.000676

     entering subroutine stress ...

     negative rho (up, down):  1.112E-03 9.073E-04
          total   stress  (Ry/bohr**3)                   (kbar)     P=  -14.71
  -0.00016695   0.00000000  -0.00000000        -24.56      0.00     -0.00
   0.00000000  -0.00016695  -0.00000000          0.00    -24.56     -0.00
  -0.00000000  -0.00000000   0.00003388         -0.00     -0.00      4.98

 !ASE

     Writing output data file calc.save

     General routines

     Parallel routines

   This run was terminated on:  19:46:11  19Dec2018

   JOB DONE.
Job  /afs/slac/g/suncat/bin/suncat-tsmpirun -x LD_LIBRARY_PATH -wdir /scratch/qe773273_P5Lfz pw.x -in pw.inp

TID   HOST_NAME   COMMAND_LINE            STATUS            TERMINATION_TIME
00000 suncat0218 pw.x -in pw.inp   Done                     12/19/2018 19:46:11
00001 suncat0218 pw.x -in pw.inp   Done                     12/19/2018 19:46:11
00002 suncat0218 pw.x -in pw.inp   Done                     12/19/2018 19:46:11
00003 suncat0218 pw.x -in pw.inp   Done                     12/19/2018 19:46:11
00004 suncat0218 pw.x -in pw.inp   Done                     12/19/2018 19:46:11
00005 suncat0218 pw.x -in pw.inp   Done                     12/19/2018 19:46:11
00006 suncat0218 pw.x -in pw.inp   Done                     12/19/2018 19:46:11
00007 suncat0218 pw.x -in pw.inp   Done                     12/19/2018 19:46:11
00008 suncat0212 pw.x -in pw.inp   Done                     12/19/2018 19:46:11
00009 suncat0212 pw.x -in pw.inp   Done                     12/19/2018 19:46:11
00010 suncat0212 pw.x -in pw.inp   Done                     12/19/2018 19:46:11
00011 suncat0212 pw.x -in pw.inp   Done                     12/19/2018 19:46:11
00012 suncat0212 pw.x -in pw.inp   Done                     12/19/2018 19:46:11
00013 suncat0212 pw.x -in pw.inp   Done                     12/19/2018 19:46:11
00014 suncat0212 pw.x -in pw.inp   Done                     12/19/2018 19:46:11
00015 suncat0212 pw.x -in pw.inp   Done                     12/19/2018 19:46:11
00016 suncat0211 pw.x -in pw.inp   Done                     12/19/2018 19:46:11
00017 suncat0211 pw.x -in pw.inp   Done                     12/19/2018 19:46:11
00018 suncat0211 pw.x -in pw.inp   Done                     12/19/2018 19:46:11
00019 suncat0211 pw.x -in pw.inp   Done                     12/19/2018 19:46:11
00020 suncat0211 pw.x -in pw.inp   Done                     12/19/2018 19:46:11
00021 suncat0211 pw.x -in pw.inp   Done                     12/19/2018 19:46:11
00022 suncat0211 pw.x -in pw.inp   Done                     12/19/2018 19:46:11
00023 suncat0211 pw.x -in pw.inp   Done                     12/19/2018 19:46:11
00024 suncat0208 pw.x -in pw.inp   Done                     12/19/2018 19:46:11
00025 suncat0208 pw.x -in pw.inp   Done                     12/19/2018 19:46:11
00026 suncat0208 pw.x -in pw.inp   Done                     12/19/2018 19:46:11
00027 suncat0208 pw.x -in pw.inp   Done                     12/19/2018 19:46:11
00028 suncat0208 pw.x -in pw.inp   Done                     12/19/2018 19:46:11
00029 suncat0208 pw.x -in pw.inp   Done                     12/19/2018 19:46:11
00030 suncat0208 pw.x -in pw.inp   Done                     12/19/2018 19:46:11
00031 suncat0208 pw.x -in pw.inp   Done                     12/19/2018 19:46:11
00032 suncat0207 pw.x -in pw.inp   Done                     12/19/2018 19:46:11
00033 suncat0207 pw.x -in pw.inp   Done                     12/19/2018 19:46:11
00034 suncat0207 pw.x -in pw.inp   Done                     12/19/2018 19:46:11
00035 suncat0207 pw.x -in pw.inp   Done                     12/19/2018 19:46:11
00036 suncat0207 pw.x -in pw.inp   Done                     12/19/2018 19:46:11
00037 suncat0207 pw.x -in pw.inp   Done                     12/19/2018 19:46:11
00038 suncat0207 pw.x -in pw.inp   Done                     12/19/2018 19:46:11
00039 suncat0207 pw.x -in pw.inp   Done                     12/19/2018 19:46:11
00040 suncat0206 pw.x -in pw.inp   Done                     12/19/2018 19:46:11
00041 suncat0206 pw.x -in pw.inp   Done                     12/19/2018 19:46:11
00042 suncat0206 pw.x -in pw.inp   Done                     12/19/2018 19:46:11
00043 suncat0206 pw.x -in pw.inp   Done                     12/19/2018 19:46:11
00044 suncat0206 pw.x -in pw.inp   Done                     12/19/2018 19:46:11
00045 suncat0206 pw.x -in pw.inp   Done                     12/19/2018 19:46:11
00046 suncat0206 pw.x -in pw.inp   Done                     12/19/2018 19:46:11
00047 suncat0206 pw.x -in pw.inp   Done                     12/19/2018 19:46:11
00048 suncat0205 pw.x -in pw.inp   Done                     12/19/2018 19:46:11
00049 suncat0205 pw.x -in pw.inp   Done                     12/19/2018 19:46:11
00050 suncat0205 pw.x -in pw.inp   Done                     12/19/2018 19:46:11
00051 suncat0205 pw.x -in pw.inp   Done                     12/19/2018 19:46:11
00052 suncat0205 pw.x -in pw.inp   Done                     12/19/2018 19:46:11
00053 suncat0205 pw.x -in pw.inp   Done                     12/19/2018 19:46:11
00054 suncat0205 pw.x -in pw.inp   Done                     12/19/2018 19:46:11
00055 suncat0205 pw.x -in pw.inp   Done                     12/19/2018 19:46:11
00056 suncat0204 pw.x -in pw.inp   Done                     12/19/2018 19:46:11
00057 suncat0204 pw.x -in pw.inp   Done                     12/19/2018 19:46:11
00058 suncat0204 pw.x -in pw.inp   Done                     12/19/2018 19:46:11
00059 suncat0204 pw.x -in pw.inp   Done                     12/19/2018 19:46:11
00060 suncat0204 pw.x -in pw.inp   Done                     12/19/2018 19:46:11
00061 suncat0204 pw.x -in pw.inp   Done                     12/19/2018 19:46:11
00062 suncat0204 pw.x -in pw.inp   Done                     12/19/2018 19:46:11
00063 suncat0204 pw.x -in pw.inp   Done                     12/19/2018 19:46:11