     Program PWSCF v.5.1rc2 (svn rev. 11289) starts on  3Jan2019 at  8:58:50

     Current dimensions of program PWSCF are:
     Max number of different atomic species (ntypx) = 10
     Max number of k-points (npk) =  40000
     Max angular momentum in pseudopotentials (lmaxx) =  3
     Presently stress not available with electric field

     IMPORTANT: XC functional enforced from input :
     Exchange-correlation      = BEEF-VDW ( 1  4 27 13 2)
     Any further DFT definition will be discarded
     Please, verify this is what you really want

     Subspace diagonalization in iterative solution of the eigenvalue problem:
     a serial algorithm will be used

     Generating pointlists ...
     new r_m :   0.4125 (alat units)  0.7795 (a.u.) for type    1
     new r_m :   0.4125 (alat units)  0.7795 (a.u.) for type    2

     bravais-lattice index     =            0
     lattice parameter (alat)  =       1.8897  a.u.
     unit-cell volume          =    4149.1637 (a.u.)^3
     number of atoms/cell      =           12
     number of atomic types    =            2
     number of electrons       =       186.00
     number of Kohn-Sham states=          123
     kinetic-energy cutoff     =      36.7493  Ry
     charge density cutoff     =     367.4932  Ry
     convergence threshold     =      1.0E-06
     mixing beta               =       0.1000
     number of iterations used =           10  plain     mixing
     Exchange-correlation      = BEEF-VDW ( 1  4 27 13 2)
     nstep                     =           50

     celldm(1)=   1.889726  celldm(2)=   0.000000  celldm(3)=   0.000000
     celldm(4)=   0.000000  celldm(5)=   0.000000  celldm(6)=   0.000000

     crystal axes: (cart. coord. in units of alat)
               a(1) = (   5.393699   0.000000   0.000000 )
               a(2) = (  -2.696850   4.671081   0.000000 )
               a(3) = (   0.000000   0.000000  24.403937 )

     reciprocal axes: (cart. coord. in units 2 pi/alat)
               b(1) = (  0.185402  0.107042  0.000000 )
               b(2) = (  0.000000  0.214083  0.000000 )
               b(3) = (  0.000000  0.000000  0.040977 )

     PseudoPot. # 1 for Re read from file:
     /afs/slac.stanford.edu/u/if/mamunm/psp/gbrv1.5pbe/Re.UPF
     MD5 check sum: 85f993410f3e006da9d71c142b4ad953
     Pseudo is Ultrasoft + core correction, Zval = 15.0
     Generated by new atomic code, or converted to UPF format
     Using radial grid of  981 points,  8 beta functions with:
                l(1) =   0
                l(2) =   0
                l(3) =   1
                l(4) =   1
                l(5) =   2
                l(6) =   2
                l(7) =   3
                l(8) =   3
     Q(r) pseudized with  8 coefficients,  rinner =    1.150   1.150   1.150
                                                       1.150   1.150   1.150
                                                       1.150

     PseudoPot. # 2 for Co read from file:
     /afs/slac.stanford.edu/u/if/mamunm/psp/gbrv1.5pbe/Co.UPF
     MD5 check sum: 5f91765df6ddd3222702df6e7b74a16d
     Pseudo is Ultrasoft + core correction, Zval = 17.0
     Generated by new atomic code, or converted to UPF format
     Using radial grid of  863 points,  6 beta functions with:
                l(1) =   0
                l(2) =   0
                l(3) =   1
                l(4) =   1
                l(5) =   2
                l(6) =   2
     Q(r) pseudized with  8 coefficients,  rinner =    1.200   1.200   1.200
                                                       1.200   1.200

     vdW kernel table read from file vdW_kernel_table
     MD5 check sum: 095c7af220d748ca6e76c0b4c6cfb241

     atomic species   valence    mass     pseudopotential
        Re1           15.00   186.20700     Re( 1.00)
        Co1           17.00    58.93319     Co( 1.00)

     Starting magnetic structure
     atomic species   magnetization
        Re1          0.000
        Co1          0.000

     No symmetry found

   Cartesian axes

     site n.     atom                  positions (alat units)
         1           Re1 tau(   1) = (   0.0000000   0.0000000  10.0000000  )
         2           Re1 tau(   2) = (  -1.3484248   2.3355403  10.0000000  )
         3           Re1 tau(   3) = (   1.3484248   2.3355403  10.0000000  )
         4           Co1 tau(   4) = (   2.6968496   0.0000000  10.0000000  )
         5           Re1 tau(   5) = (   2.6968496   1.5570268  12.2019685  )
         6           Re1 tau(   6) = (   1.3484248   3.8925671  12.2019685  )
         7           Re1 tau(   7) = (  -1.3484248   3.8925671  12.2019685  )
         8           Co1 tau(   8) = (   0.0000000   1.5570268  12.2019685  )
         9           Re1 tau(   9) = (  -0.0000000   3.1140537  14.4039369  )
        10           Re1 tau(  10) = (   1.3484248   0.7785134  14.4039369  )
        11           Re1 tau(  11) = (   4.0452744   0.7785134  14.4039369  )
        12           Co1 tau(  12) = (   2.6968496   3.1140537  14.4039369  )

     number of k points=    40  Fermi-Dirac smearing, width (Ry)=  0.0110
                       cart. coord. in units 2pi/alat
        k(    1) = (   0.0000000   0.0000000   0.0000000), wk =   0.0277778
        k(    2) = (   0.0000000   0.0356805   0.0000000), wk =   0.0555556
        k(    3) = (   0.0000000   0.0713611   0.0000000), wk =   0.0555556
        k(    4) = (   0.0000000  -0.1070416   0.0000000), wk =   0.0277778
        k(    5) = (   0.0309003   0.0178403   0.0000000), wk =   0.0555556
        k(    6) = (   0.0309003   0.0535208   0.0000000), wk =   0.0555556
        k(    7) = (   0.0309003   0.0892013   0.0000000), wk =   0.0555556
        k(    8) = (   0.0309003  -0.0892013   0.0000000), wk =   0.0555556
        k(    9) = (   0.0309003  -0.0535208   0.0000000), wk =   0.0555556
        k(   10) = (   0.0309003  -0.0178403   0.0000000), wk =   0.0555556
        k(   11) = (   0.0618005   0.0356805   0.0000000), wk =   0.0555556
        k(   12) = (   0.0618005   0.0713611   0.0000000), wk =   0.0555556
        k(   13) = (   0.0618005   0.1070416   0.0000000), wk =   0.0555556
        k(   14) = (   0.0618005  -0.0713611   0.0000000), wk =   0.0555556
        k(   15) = (   0.0618005  -0.0356805   0.0000000), wk =   0.0555556
        k(   16) = (   0.0618005   0.0000000   0.0000000), wk =   0.0555556
        k(   17) = (  -0.0927008  -0.0535208   0.0000000), wk =   0.0277778
        k(   18) = (  -0.0927008  -0.0178403   0.0000000), wk =   0.0555556
        k(   19) = (  -0.0927008   0.0178403   0.0000000), wk =   0.0555556
        k(   20) = (  -0.0927008  -0.1605624   0.0000000), wk =   0.0277778
        k(   21) = (   0.0000000   0.0000000   0.0000000), wk =   0.0277778
        k(   22) = (   0.0000000   0.0356805   0.0000000), wk =   0.0555556
        k(   23) = (   0.0000000   0.0713611   0.0000000), wk =   0.0555556
        k(   24) = (   0.0000000  -0.1070416   0.0000000), wk =   0.0277778
        k(   25) = (   0.0309003   0.0178403   0.0000000), wk =   0.0555556
        k(   26) = (   0.0309003   0.0535208   0.0000000), wk =   0.0555556
        k(   27) = (   0.0309003   0.0892013   0.0000000), wk =   0.0555556
        k(   28) = (   0.0309003  -0.0892013   0.0000000), wk =   0.0555556
        k(   29) = (   0.0309003  -0.0535208   0.0000000), wk =   0.0555556
        k(   30) = (   0.0309003  -0.0178403   0.0000000), wk =   0.0555556
        k(   31) = (   0.0618005   0.0356805   0.0000000), wk =   0.0555556
        k(   32) = (   0.0618005   0.0713611   0.0000000), wk =   0.0555556
        k(   33) = (   0.0618005   0.1070416   0.0000000), wk =   0.0555556
        k(   34) = (   0.0618005  -0.0713611   0.0000000), wk =   0.0555556
        k(   35) = (   0.0618005  -0.0356805   0.0000000), wk =   0.0555556
        k(   36) = (   0.0618005   0.0000000   0.0000000), wk =   0.0555556
        k(   37) = (  -0.0927008  -0.0535208   0.0000000), wk =   0.0277778
        k(   38) = (  -0.0927008  -0.0178403   0.0000000), wk =   0.0555556
        k(   39) = (  -0.0927008   0.0178403   0.0000000), wk =   0.0555556
        k(   40) = (  -0.0927008  -0.1605624   0.0000000), wk =   0.0277778

     Largest allocated arrays     est. size (Mb)     dimensions
     Largest temporary arrays     est. size (Mb)     dimensions

     Check: negative/imaginary core charge=   -0.000002    0.000000

     Initial potential from superposition of free atoms
     Check: negative starting charge=(component1):   -0.582028
     Check: negative starting charge=(component2):   -0.582028

     starting charge  178.49957, renormalised to  186.00000

     negative rho (up, down):  6.065E-01 6.065E-01

     *
     * You are using vdW-DF for exchange-correlation in this calculation.
     * Please cite the following three references that made this development
     * possible:
     *
     *   M. Dion, H. Rydberg, E. Schroder, D. C. Langreth, and
     *   B. I. Lundqvist, Phys. Rev. Lett. 92, 246401 (2004).
     *
     *   T. Thonhauser, V. R. Cooper, S. Li, A. Puzder, P. Hyldgaard, and
     *   D. C. Langreth, Phys. Rev. B 76, 125112 (2007).
     *
     *   G. Roman-Perez and J. M. Soler, Phys. Rev. Lett. 103, 096102 (2009).
     *
     *
     * If you are using vdW-DF2, please also cite:
     *
     *   K. Lee, E. D. Murray, L. Kong, B. I. Lundqvist, and
     *   D. C. Langreth, Phys. Rev. B 82, 081101(R) (2010).
     *
     *
     * If you are calculating the stress with vdW-DF, please also cite:
     *
     *   R. Sabatini, E. Kucukbenli, B. Kolb, T. Thonhauser, and
     *   S. de Gironcoli, J. Phys.: Condens. Matter 24, 424209 (2012).
     *

     Carrying out vdW-DF run using the following parameters:

     Nqs =      20    Nr_points =    1024   r_max =   100.000
     q_mesh =
               0.00001000     0.04494208     0.09755937     0.15916263
               0.23128650     0.31572767     0.41458969     0.53033537
               0.66584808     0.82450364     1.01025438     1.22772762
               1.48234092     1.78043706     2.12944203     2.53805004
               3.01644009     3.57652955     4.23227104     5.00000000

     Gradients computed in reciprocal space

     Adding external electric field

     Computed dipole along edir(3) :
        Dipole               -0.0000 Ry au,         -0.0000 Debye
        Dipole field         -0.0000 Ry au

        Potential amp.        0.0000 Ry
        Total length         44.9638 bohr

[...]

     Starting wfc are  156 randomized atomic wfcs

     Self-consistent Calculation

     iteration #  1     ecut=    36.75 Ry     beta=0.10
     Davidson diagonalization with overlap
     ethr =  1.00E-02,  avg # of iterations =  6.7

[...]

     Magnetic moment per site:
     atom:    1    charge:    1.9408    magn:   -0.0000    constr:    0.0000
     atom:    2    charge:    1.9408    magn:   -0.0000    constr:    0.0000
     atom:    3    charge:    1.9408    magn:    0.0000    constr:    0.0000
     atom:    4    charge:    8.2924    magn:    0.0000    constr:    0.0000
     atom:    5    charge:    1.9355    magn:    0.0000    constr:    0.0000
     atom:    6    charge:    1.9355    magn:   -0.0000    constr:    0.0000
[...]
        k(    3) = (   0.0000000   0.0713611   0.0000000), wk =   0.0555556
        k(    4) = (   0.0000000  -0.1070416   0.0000000), wk =   0.0277778
        k(    5) = (   0.0309003   0.0178403   0.0000000), wk =   0.0555556
        k(    6) = (   0.0309003   0.0535208   0.0000000), wk =   0.0555556
        k(    7) = (   0.0309003   0.0892013   0.0000000), wk =   0.0555556
        k(    8) = (   0.0309003  -0.0892013   0.0000000), wk =   0.0555556
        k(    9) = (   0.0309003  -0.0535208   0.0000000), wk =   0.0555556
        k(   10) = (   0.0309003  -0.0178403   0.0000000), wk =   0.0555556
        k(   11) = (   0.0618005   0.0356805   0.0000000), wk =   0.0555556
        k(   12) = (   0.0618005   0.0713611   0.0000000), wk =   0.0555556
        k(   13) = (   0.0618005   0.1070416   0.0000000), wk =   0.0555556
        k(   14) = (   0.0618005  -0.0713611   0.0000000), wk =   0.0555556
        k(   15) = (   0.0618005  -0.0356805   0.0000000), wk =   0.0555556
        k(   16) = (   0.0618005   0.0000000   0.0000000), wk =   0.0555556
        k(   17) = (  -0.0927008  -0.0535208   0.0000000), wk =   0.0277778
        k(   18) = (  -0.0927008  -0.0178403   0.0000000), wk =   0.0555556
        k(   19) = (  -0.0927008   0.0178403   0.0000000), wk =   0.0555556
        k(   20) = (  -0.0927008  -0.1605624   0.0000000), wk =   0.0277778
        k(   21) = (   0.0000000   0.0000000   0.0000000), wk =   0.0277778
        k(   22) = (   0.0000000   0.0356805   0.0000000), wk =   0.0555556
        k(   23) = (   0.0000000   0.0713611   0.0000000), wk =   0.0555556
        k(   24) = (   0.0000000  -0.1070416   0.0000000), wk =   0.0277778
        k(   25) = (   0.0309003   0.0178403   0.0000000), wk =   0.0555556
        k(   26) = (   0.0309003   0.0535208   0.0000000), wk =   0.0555556
        k(   27) = (   0.0309003   0.0892013   0.0000000), wk =   0.0555556
        k(   28) = (   0.0309003  -0.0892013   0.0000000), wk =   0.0555556
        k(   29) = (   0.0309003  -0.0535208   0.0000000), wk =   0.0555556
        k(   30) = (   0.0309003  -0.0178403   0.0000000), wk =   0.0555556
        k(   31) = (   0.0618005   0.0356805   0.0000000), wk =   0.0555556
        k(   32) = (   0.0618005   0.0713611   0.0000000), wk =   0.0555556
        k(   33) = (   0.0618005   0.1070416   0.0000000), wk =   0.0555556
        k(   34) = (   0.0618005  -0.0713611   0.0000000), wk =   0.0555556
        k(   35) = (   0.0618005  -0.0356805   0.0000000), wk =   0.0555556
        k(   36) = (   0.0618005   0.0000000   0.0000000), wk =   0.0555556
        k(   37) = (  -0.0927008  -0.0535208   0.0000000), wk =   0.0277778
        k(   38) = (  -0.0927008  -0.0178403   0.0000000), wk =   0.0555556
        k(   39) = (  -0.0927008   0.0178403   0.0000000), wk =   0.0555556
        k(   40) = (  -0.0927008  -0.1605624   0.0000000), wk =   0.0277778

     Largest allocated arrays     est. size (Mb)     dimensions
     Largest temporary arrays     est. size (Mb)     dimensions

     Check: negative/imaginary core charge=   -0.000002    0.000000

     Initial potential from superposition of free atoms
     Check: negative starting charge=(component1):   -0.581714
     Check: negative starting charge=(component2):   -0.581714

     starting charge  178.49957, renormalised to  186.00000

[...]

     *
     * You are using vdW-DF for exchange-correlation in this calculation.
     * Please cite the following three references that made this development
     * possible:
     *
     *   M. Dion, H. Rydberg, E. Schroder, D. C. Langreth, and
     *   B. I. Lundqvist, Phys. Rev. Lett. 92, 246401 (2004).
     *
     *   T. Thonhauser, V. R. Cooper, S. Li, A. Puzder, P. Hyldgaard, and
     *   D. C. Langreth, Phys. Rev. B 76, 125112 (2007).
     *
     *   G. Roman-Perez and J. M. Soler, Phys. Rev. Lett. 103, 096102 (2009).
     *
     *
     * If you are using vdW-DF2, please also cite:
     *
     *   K. Lee, E. D. Murray, L. Kong, B. I. Lundqvist, and
     *   D. C. Langreth, Phys. Rev. B 82, 081101(R) (2010).
     *
     *
     * If you are calculating the stress with vdW-DF, please also cite:
     *
     *   R. Sabatini, E. Kucukbenli, B. Kolb, T. Thonhauser, and
     *   S. de Gironcoli, J. Phys.: Condens. Matter 24, 424209 (2012).
     *

     Carrying out vdW-DF run using the following parameters:

     Nqs =      20    Nr_points =    1024   r_max =   100.000
     q_mesh =
               0.00001000     0.04494208     0.09755937     0.15916263
               0.23128650     0.31572767     0.41458969     0.53033537
               0.66584808     0.82450364     1.01025438     1.22772762
               1.48234092     1.78043706     2.12944203     2.53805004
               3.01644009     3.57652955     4.23227104     5.00000000

     Gradients computed in reciprocal space

[...]

     Starting wfc are  156 randomized atomic wfcs

     Self-consistent Calculation

[...]

     total energy              =   -2627.89214760 Ry
     Harris-Foulkes estimate   =   -2627.89214707 Ry
     estimated scf accuracy    <       0.00000211 Ry

[...]

     iteration # 22     ecut=    36.75 Ry     beta=0.10
     Davidson diagonalization with overlap
     ethr =  7.54E-10,  avg # of iterations =  1.0

[...]

     negative rho (up, down):  6.102E-01 6.102E-01

[...]

     Adding external electric field

     Computed dipole along edir(3) :
        Dipole                0.0256 Ry au,          0.0651 Debye
        Dipole field          0.0001 Ry au

        Potential amp.       -0.0070 Ry
        Total length         44.9638 bohr

     Magnetic moment per site:
     atom:    1    charge:    1.8694    magn:    0.0000    constr:    0.0000
     atom:    2    charge:    1.8694    magn:   -0.0000    constr:    0.0000
     atom:    3    charge:    1.8694    magn:    0.0000    constr:    0.0000
     atom:    4    charge:    8.2782    magn:   -0.0000    constr:    0.0000
     atom:    5    charge:    1.8660    magn:   -0.0000    constr:    0.0000
     atom:    6    charge:    1.8660    magn:    0.0000    constr:    0.0000
     atom:    7    charge:    1.8660    magn:   -0.0000    constr:    0.0000
     atom:    8    charge:    8.2656    magn:    0.0000    constr:    0.0000
     atom:    9    charge:    1.8646    magn:    0.0000    constr:    0.0000
     atom:   10    charge:    1.8646    magn:   -0.0000    constr:    0.0000
     atom:   11    charge:    1.8646    magn:    0.0000    constr:    0.0000
     atom:   12    charge:    8.2814    magn:    0.0000    constr:    0.0000

     End of self-consistent calculation

 ------ SPIN UP ------------

[...]

 ------ SPIN DOWN ----------

[...]

          k = 0.0618 0.0000 0.0000 ( 15592 PWs)   bands (ev):

[...]

          k =-0.0927-0.1606 0.0000 ( 15640 PWs)   bands (ev):

   -92.8077 -92.4909 -92.4515 -78.4620 -78.4367 -78.4107 -78.1925 -78.1694
   -78.1464 -78.1459 -78.1235 -78.1003 -56.1091 -56.1087 -56.0957 -55.7877
   -55.7875 -55.7871 -55.7486 -55.7482 -55.7390 -40.6398 -40.4622 -40.4014
   -40.3224 -40.2890 -40.2727 -40.1808 -40.1704 -40.1603 -40.0968 -39.9158
   -39.8984 -39.8597 -39.8375 -39.8248 -39.8220 -39.8122 -39.8010 -39.7937
   -39.7636 -39.7343 -39.6986 -39.6742 -39.5999 -39.5946 -39.4365 -39.4087
    -4.9113  -4.5420  -3.2166  -3.0575  -2.9667  -2.5508  -2.4934  -2.4855
    -2.0728  -2.0375  -2.0290  -1.6658  -1.4454  -1.3524  -1.2538  -1.0863
    -0.9739  -0.8055  -0.7161  -0.6341  -0.5073  -0.0543   0.1053   0.2093
     0.3316   0.3970   0.4356   0.4714   0.4891   0.5552   0.6155   0.6659
     0.8579   0.8709   0.9181   0.9407   0.9652   1.0462   1.0575   1.1825
     1.5417   1.6943   1.8946   2.0060   2.0735   2.2620   2.3814   2.4624
     2.5614   2.6340   2.6975   3.1735   3.2631   3.3828   3.4233   3.7097
     3.8039   3.9338   3.9423   3.9992   4.3258   4.9847   4.9965   5.3435
     5.7009   5.7681   6.3458   6.5451   7.2925   7.9470   8.2863   8.3170
     8.4601   8.5691   8.7185

     the Fermi energy is     2.2775 ev

!    total energy              =   -2627.89215051 Ry
     Harris-Foulkes estimate   =   -2627.89214746 Ry
     estimated scf accuracy    <       0.00000027 Ry

     The total energy is the sum of the following terms:

     one-electron contribution =  -21225.39804835 Ry
     hartree contribution      =   10602.46829164 Ry
     xc contribution           =    -588.06864909 Ry
     ewald contribution        =    8583.18769147 Ry
     electric field correction =       0.00000199 Ry
     smearing contrib. (-TS)   =      -0.08143817 Ry

     total magnetization       =     0.00 Bohr mag/cell
     absolute magnetization    =     0.00 Bohr mag/cell

     convergence has been achieved in  22 iterations

 BEEF-vdW xc energy contributions
           1 :   -522.129289912639
           2 :    483.508580119975
           3 :   -414.829159935790
           4 :    330.123735731646
           5 :   -244.338563320402
           6 :    169.158002623361
           7 :   -110.638762045947
           8 :    69.1597267088715
           9 :   -41.2464485558339
          10 :    22.1460608312523
          11 :   -7.97777478738658
          12 :   -3.26953621240568
          13 :    11.9203389739779
          14 :   -17.4968815753178
          15 :    19.6551932272281
          16 :   -18.7249187634737
          17 :    15.7222119301462
          18 :   -11.9948886372556
          19 :    8.76165350746078
          20 :   -6.77964297697952
          21 :    6.23515753377330
          22 :   -6.83578918219916
          23 :    8.00430519917120
          24 :   -9.09288639837166
          25 :    9.56804346187641
          26 :   -9.15312351011596
          27 :    7.90249994259534
          28 :   -6.18169622173070
          29 :    4.53221312420840
          30 :   -3.45536537915370
          31 :   -43.5027788984398
          32 :   -31.9264412695183

     Forces acting on atoms (Ry/au):

     negative rho (up, down):  6.102E-01 6.102E-01
     atom    1 type  1   force =    -0.00000025   -0.00825066    0.01931959
     atom    2 type  1   force =    -0.00714515    0.00412487    0.01932029
     atom    3 type  1   force =     0.00714563    0.00412586    0.01931980
     atom    4 type  2   force =    -0.00000039   -0.00000018    0.02314865
     atom    5 type  1   force =     0.00000013   -0.00059157   -0.02280812
     atom    6 type  1   force =    -0.00051301    0.00029686   -0.02280943
     atom    7 type  1   force =     0.00051274    0.00029621   -0.02280834
     atom    8 type  2   force =     0.00000010    0.00000006   -0.01209199
     atom    9 type  1   force =     0.00000110    0.00005452   -0.00005912
     atom   10 type  1   force =     0.00004609   -0.00002739   -0.00006190
     atom   11 type  1   force =    -0.00004731   -0.00002799   -0.00005999
     atom   12 type  2   force =     0.00000032   -0.00000059   -0.00040945

     Total force =     0.059733     Total SCF correction =     0.002854

     entering subroutine stress ...

     negative rho (up, down):  6.102E-01 6.102E-01
          total   stress  (Ry/bohr**3)                   (kbar)     P=  -31.80
  -0.00026676  -0.00000000   0.00000000        -39.24     -0.00      0.00
  -0.00000000  -0.00026676  -0.00000000         -0.00    -39.24     -0.00
   0.00000000  -0.00000000  -0.00011510          0.00     -0.00    -16.93

 !ASE

     Writing output data file calc.save

     General routines

     Parallel routines

   This run was terminated on:  10:57: 4   3Jan2019

   JOB DONE.
Job  /afs/slac/g/suncat/bin/suncat-tsmpirun -x LD_LIBRARY_PATH -wdir /scratch/qe888999_my1py pw.x -in pw.inp

TID   HOST_NAME   COMMAND_LINE            STATUS            TERMINATION_TIME
00000 suncat0030 pw.x -in pw.inp   Done                     01/03/2019 10:57:04
00001 suncat0030 pw.x -in pw.inp   Done                     01/03/2019 10:57:04
00002 suncat0030 pw.x -in pw.inp   Done                     01/03/2019 10:57:04
00003 suncat0030 pw.x -in pw.inp   Done                     01/03/2019 10:57:04
00004 suncat0030 pw.x -in pw.inp   Done                     01/03/2019 10:57:04
00005 suncat0030 pw.x -in pw.inp   Done                     01/03/2019 10:57:04
00006 suncat0030 pw.x -in pw.inp   Done                     01/03/2019 10:57:04
00007 suncat0030 pw.x -in pw.inp   Done                     01/03/2019 10:57:04
00008 suncat0028 pw.x -in pw.inp   Done                     01/03/2019 10:57:04
00009 suncat0028 pw.x -in pw.inp   Done                     01/03/2019 10:57:04
00010 suncat0028 pw.x -in pw.inp   Done                     01/03/2019 10:57:04
00011 suncat0028 pw.x -in pw.inp   Done                     01/03/2019 10:57:04
00012 suncat0028 pw.x -in pw.inp   Done                     01/03/2019 10:57:04
00013 suncat0028 pw.x -in pw.inp   Done                     01/03/2019 10:57:04
00014 suncat0028 pw.x -in pw.inp   Done                     01/03/2019 10:57:04
00015 suncat0028 pw.x -in pw.inp   Done                     01/03/2019 10:57:04
00016 suncat0018 pw.x -in pw.inp   Done                     01/03/2019 10:57:04
00017 suncat0018 pw.x -in pw.inp   Done                     01/03/2019 10:57:04
00018 suncat0018 pw.x -in pw.inp   Done                     01/03/2019 10:57:04
00019 suncat0018 pw.x -in pw.inp   Done                     01/03/2019 10:57:04
00020 suncat0018 pw.x -in pw.inp   Done                     01/03/2019 10:57:04
00021 suncat0018 pw.x -in pw.inp   Done                     01/03/2019 10:57:04
00022 suncat0018 pw.x -in pw.inp   Done                     01/03/2019 10:57:04
00023 suncat0018 pw.x -in pw.inp   Done                     01/03/2019 10:57:04
00024 suncat0001 pw.x -in pw.inp   Done                     01/03/2019 10:57:04
00025 suncat0001 pw.x -in pw.inp   Done                     01/03/2019 10:57:04
00026 suncat0001 pw.x -in pw.inp   Done                     01/03/2019 10:57:04
00027 suncat0001 pw.x -in pw.inp   Done                     01/03/2019 10:57:04
00028 suncat0001 pw.x -in pw.inp   Done                     01/03/2019 10:57:04
00029 suncat0001 pw.x -in pw.inp   Done                     01/03/2019 10:57:04
00030 suncat0001 pw.x -in pw.inp   Done                     01/03/2019 10:57:04
00031 suncat0001 pw.x -in pw.inp   Done                     01/03/2019 10:57:04
00032 suncat0171 pw.x -in pw.inp   Done                     01/03/2019 10:57:04
00033 suncat0171 pw.x -in pw.inp   Done                     01/03/2019 10:57:04
00034 suncat0171 pw.x -in pw.inp   Done                     01/03/2019 10:57:04
00035 suncat0171 pw.x -in pw.inp   Done                     01/03/2019 10:57:04
00036 suncat0171 pw.x -in pw.inp   Done                     01/03/2019 10:57:04
00037 suncat0171 pw.x -in pw.inp   Done                     01/03/2019 10:57:04
00038 suncat0171 pw.x -in pw.inp   Done                     01/03/2019 10:57:04
00039 suncat0171 pw.x -in pw.inp   Done                     01/03/2019 10:57:04
00040 suncat0165 pw.x -in pw.inp   Done                     01/03/2019 10:57:04
00041 suncat0165 pw.x -in pw.inp   Done                     01/03/2019 10:57:04
00042 suncat0165 pw.x -in pw.inp   Done                     01/03/2019 10:57:04
00043 suncat0165 pw.x -in pw.inp   Done                     01/03/2019 10:57:04
00044 suncat0165 pw.x -in pw.inp   Done                     01/03/2019 10:57:04
00045 suncat0165 pw.x -in pw.inp   Done                     01/03/2019 10:57:04
00046 suncat0165 pw.x -in pw.inp   Done                     01/03/2019 10:57:04
00047 suncat0165 pw.x -in pw.inp   Done                     01/03/2019 10:57:04
00048 suncat0222 pw.x -in pw.inp   Done                     01/03/2019 10:57:04
00049 suncat0222 pw.x -in pw.inp   Done                     01/03/2019 10:57:04
00050 suncat0222 pw.x -in pw.inp   Done                     01/03/2019 10:57:04
00051 suncat0222 pw.x -in pw.inp   Done                     01/03/2019 10:57:04
00052 suncat0222 pw.x -in pw.inp   Done                     01/03/2019 10:57:04
00053 suncat0222 pw.x -in pw.inp   Done                     01/03/2019 10:57:04
00054 suncat0222 pw.x -in pw.inp   Done                     01/03/2019 10:57:04
00055 suncat0222 pw.x -in pw.inp   Done                     01/03/2019 10:57:04
00056 suncat0221 pw.x -in pw.inp   Done                     01/03/2019 10:57:04
00057 suncat0221 pw.x -in pw.inp   Done                     01/03/2019 10:57:04
00058 suncat0221 pw.x -in pw.inp   Done                     01/03/2019 10:57:04
00059 suncat0221 pw.x -in pw.inp   Done                     01/03/2019 10:57:04
00060 suncat0221 pw.x -in pw.inp   Done                     01/03/2019 10:57:04
00061 suncat0221 pw.x -in pw.inp   Done                     01/03/2019 10:57:04
00062 suncat0221 pw.x -in pw.inp   Done                     01/03/2019 10:57:04
00063 suncat0221 pw.x -in pw.inp   Done                     01/03/2019 10:57:04