     Program PWSCF v.5.1rc2 (svn rev. 11289) starts on 25Dec2018 at  2:40:26

     Current dimensions of program PWSCF are:
     Max number of different atomic species (ntypx) = 10
     Max number of k-points (npk) =  40000
     Max angular momentum in pseudopotentials (lmaxx) =  3
     Presently stress not available with electric field

     IMPORTANT: XC functional enforced from input :
     Exchange-correlation      = BEEF-VDW ( 1  4 27 13 2)
     Any further DFT definition will be discarded
     Please, verify this is what you really want

     Subspace diagonalization in iterative solution of the eigenvalue problem:
     a serial algorithm will be used

     Found symmetry operation: I + ( -0.5000  0.0000  0.0000)
     This is a supercell, fractional translations are disabled

     bravais-lattice index     =            0
     lattice parameter (alat)  =       1.8897  a.u.
     unit-cell volume          =    5112.9816 (a.u.)^3
     number of atoms/cell      =           12
     number of atomic types    =            2
     number of electrons       =       156.00
     number of Kohn-Sham states=          108
     kinetic-energy cutoff     =      36.7493  Ry
     charge density cutoff     =     367.4932  Ry
     convergence threshold     =      1.0E-06
     mixing beta               =       0.1000
     number of iterations used =           10  plain     mixing
     Exchange-correlation      = BEEF-VDW ( 1  4 27 13 2)
     nstep                     =           50

     celldm(1)=   1.889726  celldm(2)=   0.000000  celldm(3)=   0.000000
     celldm(4)=   0.000000  celldm(5)=   0.000000  celldm(6)=   0.000000

     crystal axes: (cart. coord. in units of alat)
               a(1) = (   5.664223   0.000000   0.000000 )
               a(2) = (  -2.832112   5.389526   0.000000 )
               a(3) = (   0.000000   0.000000  24.819140 )

     reciprocal axes: (cart. coord. in units 2 pi/alat)
               b(1) = (  0.176547  0.092773  0.000000 )
               b(2) = (  0.000000  0.185545  0.000000 )
               b(3) = (  0.000000  0.000000  0.040291 )

     PseudoPot. # 1 for W  read from file:
     /afs/slac.stanford.edu/u/if/mamunm/psp/gbrv1.5pbe/W.UPF
     MD5 check sum: 9c083fa34c2a2ea0f02f1f893e16e1c8
     Pseudo is Ultrasoft + core correction, Zval = 14.0
     Generated by new atomic code, or converted to UPF format
     Using radial grid of  923 points,  8 beta functions with:
                l(1) =   0
                l(2) =   0
                l(3) =   0
                l(4) =   1
                l(5) =   1
                l(6) =   2
                l(7) =   2
                l(8) =   3
     Q(r) pseudized with  6 coefficients,  rinner =    1.350   1.350   1.350
                                                       1.350   1.350   1.350
                                                       1.350

     PseudoPot. # 2 for Hg read from file:
     /afs/slac.stanford.edu/u/if/mamunm/psp/gbrv1.5pbe/Hg.UPF
     MD5 check sum: 8f42caffe07f7fd9c0a564347f8c5498
     Pseudo is Ultrasoft + core correction, Zval = 12.0
     Generated by new atomic code, or converted to UPF format
     Using radial grid of  985 points,  6 beta functions with:
                l(1) =   0
                l(2) =   0
                l(3) =   1
                l(4) =   1
                l(5) =   2
                l(6) =   2
     Q(r) pseudized with  8 coefficients,  rinner =    2.000   2.000   2.000
                                                       2.000   2.000

     vdW kernel table read from file vdW_kernel_table
     MD5 check sum: 095c7af220d748ca6e76c0b4c6cfb241

     atomic species   valence    mass     pseudopotential
        W1            14.00   183.84000     W ( 1.00)
        Hg1           12.00   200.59200     Hg( 1.00)

     No symmetry found

   Cartesian axes

     site n.     atom                  positions (alat units)
         1           W1  tau(   1) = (   0.0000000   0.0000000  10.0000000  )
         2           W1  tau(   2) = (   2.8321117   0.0000000  10.0000000  )
         3           Hg1 tau(   3) = (   1.4160558   2.6947628  10.0000000  )
         4           Hg1 tau(   4) = (  -1.4160558   2.6947628  10.0000000  )
         5           W1  tau(   5) = (   2.8321117   1.4882305  12.4095698  )
         6           W1  tau(   6) = (   0.0000000   1.4882305  12.4095698  )
         7           Hg1 tau(   7) = (  -1.4160558   4.1829933  12.4095698  )
         8           Hg1 tau(   8) = (   1.4160558   4.1829933  12.4095698  )
         9           W1  tau(   9) = (   0.0000000   2.9764610  14.8191395  )
        10           W1  tau(  10) = (   2.8321117   2.9764610  14.8191395  )
        11           Hg1 tau(  11) = (   4.2481675   0.2816982  14.8191395  )
        12           Hg1 tau(  12) = (   1.4160558   0.2816982  14.8191395  )

     number of k points=    20  Fermi-Dirac smearing, width (Ry)=  0.0110
                       cart. coord. in units 2pi/alat
        k(    1) = (   0.0000000   0.0000000   0.0000000), wk =   0.0555556
        k(    2) = (   0.0000000   0.0309242   0.0000000), wk =   0.1111111
        k(    3) = (   0.0000000   0.0618484   0.0000000), wk =   0.1111111
        k(    4) = (   0.0000000  -0.0927725   0.0000000), wk =   0.0555556
        k(    5) = (   0.0294245   0.0154621   0.0000000), wk =   0.1111111
        k(    6) = (   0.0294245   0.0463863   0.0000000), wk =   0.1111111
        k(    7) = (   0.0294245   0.0773105   0.0000000), wk =   0.1111111
        k(    8) = (   0.0294245  -0.0773105   0.0000000), wk =   0.1111111
        k(    9) = (   0.0294245  -0.0463863   0.0000000), wk =   0.1111111
        k(   10) = (   0.0294245  -0.0154621   0.0000000), wk =   0.1111111
        k(   11) = (   0.0588489   0.0309242   0.0000000), wk =   0.1111111
        k(   12) = (   0.0588489   0.0618484   0.0000000), wk =   0.1111111
        k(   13) = (   0.0588489   0.0927725   0.0000000), wk =   0.1111111
        k(   14) = (   0.0588489  -0.0618484   0.0000000), wk =   0.1111111
        k(   15) = (   0.0588489  -0.0309242   0.0000000), wk =   0.1111111
        k(   16) = (   0.0588489   0.0000000   0.0000000), wk =   0.1111111
        k(   17) = (  -0.0882734  -0.0463863   0.0000000), wk =   0.0555556
        k(   18) = (  -0.0882734  -0.0154621   0.0000000), wk =   0.1111111
        k(   19) = (  -0.0882734   0.0154621   0.0000000), wk =   0.1111111
        k(   20) = (  -0.0882734  -0.1391588   0.0000000), wk =   0.0555556

     Largest allocated arrays     est. size (Mb)     dimensions
     Largest temporary arrays     est. size (Mb)     dimensions

     Initial potential from superposition of free atoms
     Check: negative starting charge=   -0.385366

     starting charge  155.39761, renormalised to  156.00000

     negative rho (up, down):  3.869E-01 0.000E+00

     *
     * You are using vdW-DF for exchange-correlation in this calculation.
     * Please cite the following three references that made this development
     * possible:
     *
     *   M. Dion, H. Rydberg, E. Schroder, D. C. Langreth, and
     *   B. I. Lundqvist, Phys. Rev. Lett. 92, 246401 (2004).
     *
     *   T. Thonhauser, V. R. Cooper, S. Li, A. Puzder, P. Hyldgaard, and
     *   D. C. Langreth, Phys. Rev. B 76, 125112 (2007).
     *
     *   G. Roman-Perez and J. M. Soler, Phys. Rev. Lett. 103, 096102 (2009).
     *
     *
     * If you are using vdW-DF2, please also cite:
     *
     *   K. Lee, E. D. Murray, L. Kong, B. I. Lundqvist, and
     *   D. C. Langreth, Phys. Rev. B 82, 081101(R) (2010).
     *
     *
     * If you are calculating the stress with vdW-DF, please also cite:
     *
     *   R. Sabatini, E. Kucukbenli, B. Kolb, T. Thonhauser, and
     *   S. de Gironcoli, J. Phys.: Condens. Matter 24, 424209 (2012).
     *

     Carrying out vdW-DF run using the following parameters:

     Nqs =      20    Nr_points =    1024   r_max =   100.000
     q_mesh =
               0.00001000     0.04494208     0.09755937     0.15916263
               0.23128650     0.31572767     0.41458969     0.53033537
               0.66584808     0.82450364     1.01025438     1.22772762
               1.48234092     1.78043706     2.12944203     2.53805004
               3.01644009     3.57652955     4.23227104     5.00000000

     Gradients computed in reciprocal space

     Adding external electric field

     Computed dipole along edir(3) :
        Dipole                0.0000 Ry au,          0.0000 Debye
        Dipole field          0.0000 Ry au

        Potential amp.       -0.0000 Ry
        Total length         45.7288 bohr

     Starting wfc are  132 randomized atomic wfcs

     Self-consistent Calculation

     iteration #  1     ecut=    36.75 Ry     beta=0.10
     Davidson diagonalization with overlap
     ethr =  1.00E-02,  avg # of iterations =  7.8

     Threshold (ethr) on eigenvalues was too large:
     Diagonalizing with lowered threshold

     Davidson diagonalization with overlap
     ethr =  9.97E-04,  avg # of iterations =  2.3

[...]

     total energy              =   -1616.30573346 Ry
     Harris-Foulkes estimate   =   -1616.57165375 Ry
     estimated scf accuracy    <       1.62592595 Ry

[...]

     End of self-consistent calculation

          k = 0.0000 0.0000 0.0000 ( 19231 PWs)   bands (ev):

   -73.1447 -73.1082 -73.0159 -73.0146 -72.9799 -72.9786 -37.4409 -37.3737
   -37.3035 -37.2917 -37.2394 -37.2356 -37.2251 -37.1806 -37.1678 -37.1167
   -37.1044 -37.0749 -37.0120 -36.9106 -36.8543 -36.8292 -36.6369 -36.6353
    -8.1679  -7.5258  -7.4271  -7.2433  -7.2286  -7.1608  -7.0582  -6.8887
    -6.8691  -6.6619  -6.6282  -6.6128  -6.2892  -6.2770  -6.1259  -5.8880
    -5.8239  -5.8188  -5.7750  -5.7033  -5.6256  -5.5752  -5.5362  -5.4836
    -5.2756  -5.2340  -5.0531  -5.0504  -5.0310  -4.9217  -4.7821  -4.2181
    -3.0014  -1.9480  -1.7415  -1.6823  -1.4868  -1.2312  -1.1216  -0.9097
    -0.5806  -0.5355  -0.5048  -0.2502   0.4293   0.4352   0.5295   0.6879
     1.1524   1.2495   1.5406   1.6176   1.6445   1.7348   1.9307   2.1801
     2.5421   2.5484   2.6420   2.7273   2.9237   3.0689   3.2012   3.3013
     3.3898   3.5297   3.6626   3.9030   3.9060   4.0357   4.4070   4.6715
     4.7219   5.1042   5.1181   5.1509   5.4715   5.5323   5.8066   5.9754
     6.2944   6.7192   7.3585   8.2158

[...]

          k =-0.0883-0.0464 0.0000 ( 19222 PWs)   bands (ev):

[...]

     the Fermi energy is     1.5875 ev

!    total energy              =   -1616.23403696 Ry
     Harris-Foulkes estimate   =   -1616.23403591 Ry
     estimated scf accuracy    <       0.00000052 Ry

     The total energy is the sum of the following terms:

     one-electron contribution =  -11476.91029776 Ry
     hartree contribution      =    5773.74916810 Ry
     xc contribution           =    -497.53423953 Ry
     ewald contribution        =    4584.53262513 Ry
     electric field correction =       0.00000000 Ry
     smearing contrib. (-TS)   =      -0.07129290 Ry

     convergence has been achieved in  15 iterations

 BEEF-vdW xc energy contributions
           1 :   -437.172554212706
           2 :    403.842381037514
           3 :   -345.220299339376
           4 :    274.328393972506
[...]
     /afs/slac.stanford.edu/u/if/mamunm/psp/gbrv1.5pbe/W.UPF
     MD5 check sum: 9c083fa34c2a2ea0f02f1f893e16e1c8
     Pseudo is Ultrasoft + core correction, Zval = 14.0
     Generated by new atomic code, or converted to UPF format
     Using radial grid of  923 points,  8 beta functions with:
                l(1) =   0
                l(2) =   0
                l(3) =   0
                l(4) =   1
                l(5) =   1
                l(6) =   2
                l(7) =   2
                l(8) =   3
     Q(r) pseudized with  6 coefficients,  rinner =    1.350   1.350   1.350
                                                       1.350   1.350   1.350
                                                       1.350

     PseudoPot. # 2 for Hg read from file:
     /afs/slac.stanford.edu/u/if/mamunm/psp/gbrv1.5pbe/Hg.UPF
     MD5 check sum: 8f42caffe07f7fd9c0a564347f8c5498
     Pseudo is Ultrasoft + core correction, Zval = 12.0
     Generated by new atomic code, or converted to UPF format
     Using radial grid of  985 points,  6 beta functions with:
                l(1) =   0
                l(2) =   0
                l(3) =   1
                l(4) =   1
                l(5) =   2
                l(6) =   2
     Q(r) pseudized with  8 coefficients,  rinner =    2.000   2.000   2.000
                                                       2.000   2.000

     vdW kernel table read from file vdW_kernel_table
     MD5 check sum: 095c7af220d748ca6e76c0b4c6cfb241

     atomic species   valence    mass     pseudopotential
        W1            14.00   183.84000     W ( 1.00)
        Hg1           12.00   200.59200     Hg( 1.00)

     No symmetry found

   Cartesian axes

     site n.     atom                  positions (alat units)
         1           W1  tau(   1) = (   0.0000000   0.0000000  10.0000000  )
         2           W1  tau(   2) = (   2.8321117   0.0000000  10.0000000  )
         3           Hg1 tau(   3) = (   1.4160558   2.6947628  10.0000000  )
         4           Hg1 tau(   4) = (  -1.4160558   2.6947628  10.0000000  )
         5           W1  tau(   5) = (   2.8321117   1.4882305  12.4095698  )
         6           W1  tau(   6) = (   0.0000000   1.4882305  12.4095698  )
         7           Hg1 tau(   7) = (  -1.4160558   4.1829933  12.4095698  )
         8           Hg1 tau(   8) = (   1.4160558   4.1829933  12.4095698  )
         9           W1  tau(   9) = (   0.0000122   2.5684323  14.6514031  )
        10           W1  tau(  10) = (   2.8321195   2.5683606  14.6514217  )
        11           Hg1 tau(  11) = (   1.4157525   5.3505058  15.3042025  )
        12           Hg1 tau(  12) = (  -1.4157564   5.3504967  15.3041795  )

     number of k points=    20  Fermi-Dirac smearing, width (Ry)=  0.0110
                       cart. coord. in units 2pi/alat
        k(    1) = (   0.0000000   0.0000000   0.0000000), wk =   0.0555556
        k(    2) = (   0.0000000   0.0309242   0.0000000), wk =   0.1111111
        k(    3) = (   0.0000000   0.0618484   0.0000000), wk =   0.1111111
        k(    4) = (   0.0000000  -0.0927725   0.0000000), wk =   0.0555556
        k(    5) = (   0.0294245   0.0154621   0.0000000), wk =   0.1111111
        k(    6) = (   0.0294245   0.0463863   0.0000000), wk =   0.1111111
        k(    7) = (   0.0294245   0.0773105   0.0000000), wk =   0.1111111
        k(    8) = (   0.0294245  -0.0773105   0.0000000), wk =   0.1111111
        k(    9) = (   0.0294245  -0.0463863   0.0000000), wk =   0.1111111
        k(   10) = (   0.0294245  -0.0154621   0.0000000), wk =   0.1111111
        k(   11) = (   0.0588489   0.0309242   0.0000000), wk =   0.1111111
        k(   12) = (   0.0588489   0.0618484   0.0000000), wk =   0.1111111
        k(   13) = (   0.0588489   0.0927725   0.0000000), wk =   0.1111111
        k(   14) = (   0.0588489  -0.0618484   0.0000000), wk =   0.1111111
        k(   15) = (   0.0588489  -0.0309242   0.0000000), wk =   0.1111111
        k(   16) = (   0.0588489   0.0000000   0.0000000), wk =   0.1111111
        k(   17) = (  -0.0882734  -0.0463863   0.0000000), wk =   0.0555556
        k(   18) = (  -0.0882734  -0.0154621   0.0000000), wk =   0.1111111
        k(   19) = (  -0.0882734   0.0154621   0.0000000), wk =   0.1111111
        k(   20) = (  -0.0882734  -0.1391588   0.0000000), wk =   0.0555556

     Largest allocated arrays     est. size (Mb)     dimensions
     Largest temporary arrays     est. size (Mb)     dimensions

     Initial potential from superposition of free atoms
     Check: negative starting charge=   -0.384096

     starting charge  155.39761, renormalised to  156.00000

[...]

     *
     * You are using vdW-DF for exchange-correlation in this calculation.
     * Please cite the following three references that made this development
     * possible:
     *
     *   M. Dion, H. Rydberg, E. Schroder, D. C. Langreth, and
     *   B. I. Lundqvist, Phys. Rev. Lett. 92, 246401 (2004).
     *
     *   T. Thonhauser, V. R. Cooper, S. Li, A. Puzder, P. Hyldgaard, and
     *   D. C. Langreth, Phys. Rev. B 76, 125112 (2007).
     *
     *   G. Roman-Perez and J. M. Soler, Phys. Rev. Lett. 103, 096102 (2009).
     *
     *
     * If you are using vdW-DF2, please also cite:
     *
     *   K. Lee, E. D. Murray, L. Kong, B. I. Lundqvist, and
     *   D. C. Langreth, Phys. Rev. B 82, 081101(R) (2010).
     *
     *
     * If you are calculating the stress with vdW-DF, please also cite:
     *
     *   R. Sabatini, E. Kucukbenli, B. Kolb, T. Thonhauser, and
     *   S. de Gironcoli, J. Phys.: Condens. Matter 24, 424209 (2012).
     *

     Carrying out vdW-DF run using the following parameters:

     Nqs =      20    Nr_points =    1024   r_max =   100.000
     q_mesh =
               0.00001000     0.04494208     0.09755937     0.15916263
               0.23128650     0.31572767     0.41458969     0.53033537
               0.66584808     0.82450364     1.01025438     1.22772762
               1.48234092     1.78043706     2.12944203     2.53805004
               3.01644009     3.57652955     4.23227104     5.00000000

     Gradients computed in reciprocal space

[...]

     Starting wfc are  132 randomized atomic wfcs

     Self-consistent Calculation

[...]

     total energy              =   -1616.31630314 Ry
     Harris-Foulkes estimate   =   -1616.31630296 Ry
     estimated scf accuracy    <       0.00000198 Ry

     iteration # 18     ecut=    36.75 Ry     beta=0.10
     Davidson diagonalization with overlap
     ethr =  8.38E-10,  avg # of iterations =  1.1

[...]

     negative rho (up, down):  3.988E-01 0.000E+00

     Adding external electric field

     Computed dipole along edir(3) :
        Dipole                0.0481 Ry au,          0.1223 Debye
        Dipole field          0.0001 Ry au

        Potential amp.       -0.0108 Ry
        Total length         45.7288 bohr

     End of self-consistent calculation

[...]

          k = 0.0588 0.0000 0.0000 ( 19196 PWs)   bands (ev):

[...]

          k =-0.0883-0.1392 0.0000 ( 19222 PWs)   bands (ev):

   -72.9959 -72.9959 -72.9326 -72.9326 -72.8216 -72.8216 -37.4625 -37.4625
   -37.1392 -37.1392 -37.0878 -37.0878 -37.0456 -37.0456 -37.0019 -37.0019
   -36.9600 -36.9600 -36.9403 -36.9403 -36.8309 -36.8309 -36.4485 -36.4485
    -6.7507  -6.7507  -6.5569  -6.5568  -6.4586  -6.4585  -6.3832  -6.3831
    -6.2495  -6.2494  -5.9717  -5.9715  -5.8516  -5.8516  -5.7514  -5.7514
    -5.5472  -5.5468  -5.5253  -5.5252  -5.4712  -5.4691  -5.4297  -5.4285
    -5.3061  -5.3060  -5.2117  -5.2111  -5.1594  -5.1586  -5.0259  -5.0253
    -3.8617  -3.8606  -2.5303  -2.5299  -1.8210  -1.8208  -0.8768  -0.8767
    -0.2334  -0.2333  -0.1337  -0.1336   0.3795   0.3797   0.6104   0.6105
     0.8001   0.8002   1.1856   1.1856   1.3121   1.3124   1.4554   1.4554
     1.7997   1.7997   2.1274   2.1275   2.7371   2.7373   3.1129   3.1129
     3.6416   3.6416   3.7671   3.7671   3.9676   3.9677   4.9402   4.9405
     5.0888   5.0889   6.5092   6.5093   6.6830   6.6830   7.2896   7.2896
     7.3657   7.3657   7.6449   7.6450

     the Fermi energy is     1.6008 ev

!    total energy              =   -1616.31630368 Ry
     Harris-Foulkes estimate   =   -1616.31630319 Ry
     estimated scf accuracy    <       0.00000019 Ry

     The total energy is the sum of the following terms:

     one-electron contribution =  -11241.56743282 Ry
     hartree contribution      =    5656.76200181 Ry
     xc contribution           =    -497.57481548 Ry
     ewald contribution        =    4466.13321576 Ry
     electric field correction =       0.00000569 Ry
     smearing contrib. (-TS)   =      -0.06927864 Ry

     convergence has been achieved in  18 iterations

 BEEF-vdW xc energy contributions
           1 :   -437.191552592806
           2 :    403.742841610415
           3 :   -344.966975974887
           4 :    273.980923872623
           5 :   -204.398547408354
           6 :    146.345273531049
           7 :   -104.292323276357
           8 :    77.1898023569271
           9 :   -60.4591035521418
          10 :    48.7287069730351
          11 :   -38.0854651755897
          12 :    27.0467684992831
          13 :   -16.1872735125025
          14 :    6.96548383979041
          15 :  -0.520291215744521
          16 :   -2.98861370949828
          17 :    4.33487088228856
          18 :   -4.69589804276745
          19 :    5.03389597953969
          20 :   -5.73073595933045
          21 :    6.61165229795301
          22 :   -7.25773361293869
          23 :    7.36853331862801
          24 :   -6.96170095146306
          25 :    6.33310862998883
          26 :   -5.85139231362501
          27 :    5.73640031318996
          28 :   -5.95245778679191
          29 :    6.25987567967314
          30 :   -6.37370254416078
          31 :   -40.0522804479798
          32 :   -29.7917683903487

     Forces acting on atoms (Ry/au):

     negative rho (up, down):  3.988E-01 0.000E+00
     atom    1 type  1   force =     0.00000008    0.01819962    0.04126651
     atom    2 type  1   force =     0.00000046    0.01820004    0.04126035
     atom    3 type  2   force =     0.00000059   -0.00880819   -0.05464664
     atom    4 type  2   force =    -0.00000044   -0.00880803   -0.05464665
     atom    5 type  1   force =    -0.00000053   -0.02654659   -0.01581959
     atom    6 type  1   force =    -0.00000126   -0.02654930   -0.01581635
     atom    7 type  2   force =    -0.00000517    0.01682600    0.03009437
     atom    8 type  2   force =     0.00000496    0.01682632    0.03009546
     atom    9 type  1   force =     0.00000100    0.00135326    0.00036441
     atom   10 type  1   force =    -0.00000047    0.00139949    0.00036045
     atom   11 type  2   force =     0.00018919   -0.00104643   -0.00125641
     atom   12 type  2   force =    -0.00018841   -0.00104620   -0.00125589

     Total force =     0.120385     Total SCF correction =     0.001464

     entering subroutine stress ...

     negative rho (up, down):  3.988E-01 0.000E+00
          total   stress  (Ry/bohr**3)                   (kbar)     P=  -21.87
  -0.00020375   0.00000000   0.00000000        -29.97      0.00      0.00
   0.00000000  -0.00022713  -0.00001703          0.00    -33.41     -2.51
   0.00000000  -0.00001703  -0.00001504          0.00     -2.51     -2.21

 !ASE

     Writing output data file calc.save

     General routines

     Parallel routines

   This run was terminated on:   4:37:13  25Dec2018

   JOB DONE.
Job  /afs/slac/g/suncat/bin/suncat-tsmpirun -x LD_LIBRARY_PATH -wdir /scratch/qe109156_5ggKl pw.x -in pw.inp

TID   HOST_NAME   COMMAND_LINE            STATUS            TERMINATION_TIME
00000 suncat0169 pw.x -in pw.inp   Done                     12/25/2018 04:37:13
00001 suncat0169 pw.x -in pw.inp   Done                     12/25/2018 04:37:13
00002 suncat0169 pw.x -in pw.inp   Done                     12/25/2018 04:37:13
00003 suncat0169 pw.x -in pw.inp   Done                     12/25/2018 04:37:13
00004 suncat0169 pw.x -in pw.inp   Done                     12/25/2018 04:37:13
00005 suncat0169 pw.x -in pw.inp   Done                     12/25/2018 04:37:13
00006 suncat0169 pw.x -in pw.inp   Done                     12/25/2018 04:37:13
00007 suncat0169 pw.x -in pw.inp   Done                     12/25/2018 04:37:13
00008 suncat0168 pw.x -in pw.inp   Done                     12/25/2018 04:37:13
00009 suncat0168 pw.x -in pw.inp   Done                     12/25/2018 04:37:13
00010 suncat0168 pw.x -in pw.inp   Done                     12/25/2018 04:37:13
00011 suncat0168 pw.x -in pw.inp   Done                     12/25/2018 04:37:13
00012 suncat0168 pw.x -in pw.inp   Done                     12/25/2018 04:37:13
00013 suncat0168 pw.x -in pw.inp   Done                     12/25/2018 04:37:13
00014 suncat0168 pw.x -in pw.inp   Done                     12/25/2018 04:37:13
00015 suncat0168 pw.x -in pw.inp   Done                     12/25/2018 04:37:13
00016 suncat0110 pw.x -in pw.inp   Done                     12/25/2018 04:37:13
00017 suncat0110 pw.x -in pw.inp   Done                     12/25/2018 04:37:13
00018 suncat0110 pw.x -in pw.inp   Done                     12/25/2018 04:37:13
00019 suncat0110 pw.x -in pw.inp   Done                     12/25/2018 04:37:13
00020 suncat0110 pw.x -in pw.inp   Done                     12/25/2018 04:37:13
00021 suncat0110 pw.x -in pw.inp   Done                     12/25/2018 04:37:13
00022 suncat0110 pw.x -in pw.inp   Done                     12/25/2018 04:37:13
00023 suncat0110 pw.x -in pw.inp   Done                     12/25/2018 04:37:13
00024 suncat0109 pw.x -in pw.inp   Done                     12/25/2018 04:37:13
00025 suncat0109 pw.x -in pw.inp   Done                     12/25/2018 04:37:13
00026 suncat0109 pw.x -in pw.inp   Done                     12/25/2018 04:37:13
00027 suncat0109 pw.x -in pw.inp   Done                     12/25/2018 04:37:13
00028 suncat0109 pw.x -in pw.inp   Done                     12/25/2018 04:37:13
00029 suncat0109 pw.x -in pw.inp   Done                     12/25/2018 04:37:13
00030 suncat0109 pw.x -in pw.inp   Done                     12/25/2018 04:37:13
00031 suncat0109 pw.x -in pw.inp   Done                     12/25/2018 04:37:13
00032 suncat0277 pw.x -in pw.inp   Done                     12/25/2018 04:37:13
00033 suncat0277 pw.x -in pw.inp   Done                     12/25/2018 04:37:13
00034 suncat0277 pw.x -in pw.inp   Done                     12/25/2018 04:37:13
00035 suncat0277 pw.x -in pw.inp   Done                     12/25/2018 04:37:13
00036 suncat0277 pw.x -in pw.inp   Done                     12/25/2018 04:37:13
00037 suncat0277 pw.x -in pw.inp   Done                     12/25/2018 04:37:13
00038 suncat0277 pw.x -in pw.inp   Done                     12/25/2018 04:37:13
00039 suncat0277 pw.x -in pw.inp   Done                     12/25/2018 04:37:13
00040 suncat0276 pw.x -in pw.inp   Done                     12/25/2018 04:37:13
00041 suncat0276 pw.x -in pw.inp   Done                     12/25/2018 04:37:13
00042 suncat0276 pw.x -in pw.inp   Done                     12/25/2018 04:37:13
00043 suncat0276 pw.x -in pw.inp   Done                     12/25/2018 04:37:13
00044 suncat0276 pw.x -in pw.inp   Done                     12/25/2018 04:37:13
00045 suncat0276 pw.x -in pw.inp   Done                     12/25/2018 04:37:13
00046 suncat0276 pw.x -in pw.inp   Done                     12/25/2018 04:37:13
00047 suncat0276 pw.x -in pw.inp   Done                     12/25/2018 04:37:13
00048 suncat0274 pw.x -in pw.inp   Done                     12/25/2018 04:37:13
00049 suncat0274 pw.x -in pw.inp   Done                     12/25/2018 04:37:13
00050 suncat0274 pw.x -in pw.inp   Done                     12/25/2018 04:37:13
00051 suncat0274 pw.x -in pw.inp   Done                     12/25/2018 04:37:13
00052 suncat0274 pw.x -in pw.inp   Done                     12/25/2018 04:37:13
00053 suncat0274 pw.x -in pw.inp   Done                     12/25/2018 04:37:13
00054 suncat0274 pw.x -in pw.inp   Done                     12/25/2018 04:37:13
00055 suncat0274 pw.x -in pw.inp   Done                     12/25/2018 04:37:13
00056 suncat0273 pw.x -in pw.inp   Done                     12/25/2018 04:37:13
00057 suncat0273 pw.x -in pw.inp   Done                     12/25/2018 04:37:13
00058 suncat0273 pw.x -in pw.inp   Done                     12/25/2018 04:37:13
00059 suncat0273 pw.x -in pw.inp   Done                     12/25/2018 04:37:13
00060 suncat0273 pw.x -in pw.inp   Done                     12/25/2018 04:37:13
00061 suncat0273 pw.x -in pw.inp   Done                     12/25/2018 04:37:13
00062 suncat0273 pw.x -in pw.inp   Done                     12/25/2018 04:37:13
00063 suncat0273 pw.x -in pw.inp   Done                     12/25/2018 04:37:13