     Program PWSCF v.5.1rc2 (svn rev. 11289) starts on 31Dec2018 at  4:45:21

     Current dimensions of program PWSCF are:
     Max number of different atomic species (ntypx) = 10
     Max number of k-points (npk) =  40000
     Max angular momentum in pseudopotentials (lmaxx) =  3
     Presently stress not available with electric field

     IMPORTANT: XC functional enforced from input :
     Exchange-correlation      = BEEF-VDW ( 1  4 27 13 2)
     Any further DFT definition will be discarded
     Please, verify this is what you really want

     Subspace diagonalization in iterative solution of the eigenvalue problem:
     a serial algorithm will be used

     bravais-lattice index     =            0
     lattice parameter (alat)  =       1.8897  a.u.
     unit-cell volume          =    4272.2181 (a.u.)^3
     number of atoms/cell      =           12
     number of atomic types    =            2
     number of electrons       =       153.00
     number of Kohn-Sham states=          106
     kinetic-energy cutoff     =      36.7493  Ry
     charge density cutoff     =     367.4932  Ry
     convergence threshold     =      1.0E-06
     mixing beta               =       0.1000
     number of iterations used =           10  plain     mixing
     Exchange-correlation      = BEEF-VDW ( 1  4 27 13 2)
     nstep                     =           50

     celldm(1)=   1.889726  celldm(2)=   0.000000  celldm(3)=   0.000000
     celldm(4)=   0.000000  celldm(5)=   0.000000  celldm(6)=   0.000000

     crystal axes: (cart. coord. in units of alat)
               a(1) = (   5.466448   0.000000   0.000000 )
               a(2) = (  -2.733224   4.734083   0.000000 )
               a(3) = (   0.000000   0.000000  24.463336 )

     reciprocal axes: (cart. coord. in units 2 pi/alat)
               b(1) = (  0.182934  0.105617  0.000000 )
               b(2) = (  0.000000  0.211234  0.000000 )
               b(3) = (  0.000000  0.000000  0.040877 )

     PseudoPot. # 1 for Os read from file:
     /afs/slac.stanford.edu/u/if/mamunm/psp/gbrv1.5pbe/Os.UPF
     MD5 check sum: a3fb40a04f0c37c25c34bbc47164c9a8
     Pseudo is Ultrasoft + core correction, Zval = 16.0
     Generated by new atomic code, or converted to UPF format
     Using radial grid of  983 points,  8 beta functions with:
                l(1) =   0
                l(2) =   0
                l(3) =   1
                l(4) =   1
                l(5) =   2
                l(6) =   2
                l(7) =   3
                l(8) =   3
     Q(r) pseudized with  8 coefficients,  rinner =    1.150   1.150   1.150
                                                       1.150   1.150   1.150
                                                       1.150

     PseudoPot. # 2 for Al read from file:
     /afs/slac.stanford.edu/u/if/mamunm/psp/gbrv1.5pbe/Al.UPF
     MD5 check sum: 0a6289f5291fc8f409219462bc851e1f
     Pseudo is Ultrasoft + core correction, Zval =  3.0
     Generated by new atomic code, or converted to UPF format
     Using radial grid of  893 points,  3 beta functions with:
                l(1) =   0
                l(2) =   1
                l(3) =   2
     Q(r) pseudized with  8 coefficients,  rinner =    0.900   0.900   0.900
                                                       0.900   0.900

     vdW kernel table read from file vdW_kernel_table
     MD5 check sum: 095c7af220d748ca6e76c0b4c6cfb241

     atomic species   valence    mass     pseudopotential
        Os1           16.00   190.23000     Os( 1.00)
        Al1            3.00    26.98154     Al( 1.00)

     No symmetry found

   Cartesian axes

     site n.     atom                  positions (alat units)
         1           Os1 tau(   1) = (   0.0000000   0.0000000  10.0000000  )
         2           Os1 tau(   2) = (  -1.3666121   2.3670416  10.0000000  )
         3           Os1 tau(   3) = (   1.3666121   2.3670416  10.0000000  )
         4           Al1 tau(   4) = (   2.7332242   0.0000000  10.0000000  )
         5           Os1 tau(   5) = (   2.7332242   1.5780277  12.2316682  )
         6           Os1 tau(   6) = (   1.3666121   3.9450693  12.2316682  )
         7           Os1 tau(   7) = (  -1.3666121   3.9450693  12.2316682  )
         8           Al1 tau(   8) = (   0.0000000   1.5780277  12.2316682  )
         9           Os1 tau(   9) = (  -0.0000000   3.1560554  14.4633364  )
        10           Os1 tau(  10) = (   1.3666121   0.7890139  14.4633364  )
        11           Os1 tau(  11) = (   4.0998363   0.7890139  14.4633364  )
        12           Al1 tau(  12) = (   2.7332242   3.1560554  14.4633364  )

     number of k points=    20  Fermi-Dirac smearing, width (Ry)=  0.0110
                       cart. coord. in units 2pi/alat
        k(    1) = (   0.0000000   0.0000000   0.0000000), wk =   0.0555556
        k(    2) = (   0.0000000   0.0352057   0.0000000), wk =   0.1111111
        k(    3) = (   0.0000000   0.0704114   0.0000000), wk =   0.1111111
        k(    4) = (   0.0000000  -0.1056171   0.0000000), wk =   0.0555556
        k(    5) = (   0.0304890   0.0176028   0.0000000), wk =   0.1111111
        k(    6) = (   0.0304890   0.0528085   0.0000000), wk =   0.1111111
        k(    7) = (   0.0304890   0.0880142   0.0000000), wk =   0.1111111
        k(    8) = (   0.0304890  -0.0880142   0.0000000), wk =   0.1111111
        k(    9) = (   0.0304890  -0.0528085   0.0000000), wk =   0.1111111
        k(   10) = (   0.0304890  -0.0176028   0.0000000), wk =   0.1111111
        k(   11) = (   0.0609780   0.0352057   0.0000000), wk =   0.1111111
        k(   12) = (   0.0609780   0.0704114   0.0000000), wk =   0.1111111
        k(   13) = (   0.0609780   0.1056171   0.0000000), wk =   0.1111111
        k(   14) = (   0.0609780  -0.0704114   0.0000000), wk =   0.1111111
        k(   15) = (   0.0609780  -0.0352057   0.0000000), wk =   0.1111111
        k(   16) = (   0.0609780   0.0000000   0.0000000), wk =   0.1111111
        k(   17) = (  -0.0914671  -0.0528085   0.0000000), wk =   0.0555556
        k(   18) = (  -0.0914671  -0.0176028   0.0000000), wk =   0.1111111
        k(   19) = (  -0.0914671   0.0176028   0.0000000), wk =   0.1111111
        k(   20) = (  -0.0914671  -0.1584256   0.0000000), wk =   0.0555556

     Largest allocated arrays     est. size (Mb)     dimensions
     Largest temporary arrays     est. size (Mb)     dimensions

     Initial potential from superposition of free atoms
     Check: negative starting charge=   -1.118718

     starting charge  148.49228, renormalised to  153.00000

     negative rho (up, down):  1.153E+00 0.000E+00

     *
     * You are using vdW-DF for exchange-correlation in this calculation.
     * Please cite the following three references that made this development
     * possible:
     *
     *   M. Dion, H. Rydberg, E. Schroder, D. C. Langreth, and
     *   B. I. Lundqvist, Phys. Rev. Lett. 92, 246401 (2004).
     *
     *   T. Thonhauser, V. R. Cooper, S. Li, A. Puzder, P. Hyldgaard, and
     *   D. C. Langreth, Phys. Rev. B 76, 125112 (2007).
     *
     *   G. Roman-Perez and J. M. Soler, Phys. Rev. Lett. 103, 096102 (2009).
     *
     *
     * If you are using vdW-DF2, please also cite:
     *
     *   K. Lee, E. D. Murray, L. Kong, B. I. Lundqvist, and
     *   D. C. Langreth, Phys. Rev. B 82, 081101(R) (2010).
     *
     *
     * If you are calculating the stress with vdW-DF, please also cite:
     *
     *   R. Sabatini, E. Kucukbenli, B. Kolb, T. Thonhauser, and
     *   S. de Gironcoli, J. Phys.: Condens. Matter 24, 424209 (2012).
     *

     Carrying out vdW-DF run using the following parameters:

     Nqs =      20    Nr_points =    1024   r_max =   100.000
     q_mesh =
               0.00001000     0.04494208     0.09755937     0.15916263
               0.23128650     0.31572767     0.41458969     0.53033537
               0.66584808     0.82450364     1.01025438     1.22772762
               1.48234092     1.78043706     2.12944203     2.53805004
               3.01644009     3.57652955     4.23227104     5.00000000

     Gradients computed in reciprocal space

     Adding external electric field

     Computed dipole along edir(3) :
        Dipole                0.0000 Ry au,          0.0000 Debye
        Dipole field          0.0000 Ry au

        Potential amp.       -0.0000 Ry
        Total length         45.0733 bohr

     Starting wfc are  129 randomized atomic wfcs

     Self-consistent Calculation

     iteration #  1     ecut=    36.75 Ry     beta=0.10
     Davidson diagonalization with overlap
     ethr =  1.00E-02,  avg # of iterations =  8.2

[...]

     total energy              =   -1818.79794863 Ry
     Harris-Foulkes estimate   =   -1819.09229806 Ry
     estimated scf accuracy    <       1.93193997 Ry

[...]

     End of self-consistent calculation

          k = 0.0000 0.0000 0.0000 ( 16013 PWs)   bands (ev):

   -84.5813 -84.5375 -84.5375 -84.3786 -84.3766 -84.3365 -84.3364 -84.3360
   -84.3359 -44.2848 -44.0821 -44.0738 -44.0690 -44.0690 -43.9603 -43.9602
   -43.9493 -43.7774 -43.7774 -43.7090 -43.6699 -43.6699 -43.6389 -43.5694
   -43.5694 -43.5580 -43.5580 -43.5062 -43.4864 -43.4864 -43.4322 -43.4107
   -43.3955 -43.3955 -43.3882 -43.3882  -7.8637  -5.9383  -5.3954  -4.6183
    -4.2223  -3.8300  -3.4776  -3.4776  -2.9985  -2.9985  -2.9818  -2.7337
    -2.7337  -2.4726  -2.4726  -2.2659  -1.3478  -1.3478  -0.7961  -0.7324
    -0.7324  -0.5832  -0.0861  -0.0861   0.0106   0.2670   0.4970   0.4971
     1.0695   1.1582   1.1582   1.2298   1.6241   1.6241   1.6580   1.6580
     1.7483   1.7483   1.9042   2.4038   2.4038   2.4330   2.4330   2.7915
     2.8728   2.8728   3.4702   3.5823   3.5823   3.7007   3.8451   4.4309
     4.4309   4.6590   4.9483   5.0609   5.2812   5.2813   6.1214   6.1332
     6.2308   6.4727   6.8633   7.7579   8.0398   8.7217   8.7409   8.7409
     8.7589   8.7589

[...]

          k =-0.0915-0.0528 0.0000 ( 16096 PWs)   bands (ev):

[...]

     the Fermi energy is     2.0242 ev

!    total energy              =   -1818.55647378 Ry
     Harris-Foulkes estimate   =   -1818.55646843 Ry
     estimated scf accuracy    <       0.00000066 Ry

     The total energy is the sum of the following terms:

     one-electron contribution =  -13694.50290385 Ry
     hartree contribution      =    6832.61231262 Ry
     xc contribution           =    -361.64538680 Ry
     ewald contribution        =    5405.06538082 Ry
     electric field correction =       0.00000000 Ry
     smearing contrib. (-TS)   =      -0.08587657 Ry

     convergence has been achieved in  15 iterations

 BEEF-vdW xc energy contributions
           1 :   -316.150888059453
           2 :    292.107255734840
           3 :   -249.992977514385
           4 :    199.417502199828
           5 :   -150.357004641654
           6 :    110.319725547336
           7 :   -82.8344739621900
           8 :    67.4418057892695
           9 :   -60.8447760474339
          10 :    58.5867178289686
          11 :   -56.6541166989988
          12 :    52.5724678221615
          13 :   -45.8009967117735
          14 :    37.4232014311073
          15 :   -29.3281196993848
          16 :    23.2241925194706
[...]
               b(3) = (  0.000000  0.000000  0.040877 )

     PseudoPot. # 1 for Os read from file:
     /afs/slac.stanford.edu/u/if/mamunm/psp/gbrv1.5pbe/Os.UPF
     MD5 check sum: a3fb40a04f0c37c25c34bbc47164c9a8
     Pseudo is Ultrasoft + core correction, Zval = 16.0
     Generated by new atomic code, or converted to UPF format
     Using radial grid of  983 points,  8 beta functions with:
                l(1) =   0
                l(2) =   0
                l(3) =   1
                l(4) =   1
                l(5) =   2
                l(6) =   2
                l(7) =   3
                l(8) =   3
     Q(r) pseudized with  8 coefficients,  rinner =    1.150   1.150   1.150
                                                       1.150   1.150   1.150
                                                       1.150

     PseudoPot. # 2 for Al read from file:
     /afs/slac.stanford.edu/u/if/mamunm/psp/gbrv1.5pbe/Al.UPF
     MD5 check sum: 0a6289f5291fc8f409219462bc851e1f
     Pseudo is Ultrasoft + core correction, Zval =  3.0
     Generated by new atomic code, or converted to UPF format
     Using radial grid of  893 points,  3 beta functions with:
                l(1) =   0
                l(2) =   1
                l(3) =   2
     Q(r) pseudized with  8 coefficients,  rinner =    0.900   0.900   0.900
                                                       0.900   0.900

     vdW kernel table read from file vdW_kernel_table
     MD5 check sum: 095c7af220d748ca6e76c0b4c6cfb241

     atomic species   valence    mass     pseudopotential
        Os1           16.00   190.23000     Os( 1.00)
        Al1            3.00    26.98154     Al( 1.00)

     No symmetry found

   Cartesian axes

     site n.     atom                  positions (alat units)
         1           Os1 tau(   1) = (   0.0000000   0.0000000  10.0000000  )
         2           Os1 tau(   2) = (  -1.3666121   2.3670416  10.0000000  )
         3           Os1 tau(   3) = (   1.3666121   2.3670416  10.0000000  )
         4           Al1 tau(   4) = (   2.7332242   0.0000000  10.0000000  )
         5           Os1 tau(   5) = (   2.7332242   1.5780277  12.2316682  )
         6           Os1 tau(   6) = (   1.3666121   3.9450693  12.2316682  )
         7           Os1 tau(   7) = (  -1.3666121   3.9450693  12.2316682  )
         8           Al1 tau(   8) = (   0.0000000   1.5780277  12.2316682  )
         9           Os1 tau(   9) = (  -0.0000227   3.1628546  14.3875526  )
        10           Os1 tau(  10) = (   1.3725295   0.7855969  14.3875567  )
        11           Os1 tau(  11) = (   4.0939310   0.7856282  14.3875504  )
        12           Al1 tau(  12) = (   2.7331947   3.1560719  14.4649046  )

     number of k points=    20  Fermi-Dirac smearing, width (Ry)=  0.0110
                       cart. coord. in units 2pi/alat
        k(    1) = (   0.0000000   0.0000000   0.0000000), wk =   0.0555556
        k(    2) = (   0.0000000   0.0352057   0.0000000), wk =   0.1111111
        k(    3) = (   0.0000000   0.0704114   0.0000000), wk =   0.1111111
        k(    4) = (   0.0000000  -0.1056171   0.0000000), wk =   0.0555556
        k(    5) = (   0.0304890   0.0176028   0.0000000), wk =   0.1111111
        k(    6) = (   0.0304890   0.0528085   0.0000000), wk =   0.1111111
        k(    7) = (   0.0304890   0.0880142   0.0000000), wk =   0.1111111
        k(    8) = (   0.0304890  -0.0880142   0.0000000), wk =   0.1111111
        k(    9) = (   0.0304890  -0.0528085   0.0000000), wk =   0.1111111
        k(   10) = (   0.0304890  -0.0176028   0.0000000), wk =   0.1111111
        k(   11) = (   0.0609780   0.0352057   0.0000000), wk =   0.1111111
        k(   12) = (   0.0609780   0.0704114   0.0000000), wk =   0.1111111
        k(   13) = (   0.0609780   0.1056171   0.0000000), wk =   0.1111111
        k(   14) = (   0.0609780  -0.0704114   0.0000000), wk =   0.1111111
        k(   15) = (   0.0609780  -0.0352057   0.0000000), wk =   0.1111111
        k(   16) = (   0.0609780   0.0000000   0.0000000), wk =   0.1111111
        k(   17) = (  -0.0914671  -0.0528085   0.0000000), wk =   0.0555556
        k(   18) = (  -0.0914671  -0.0176028   0.0000000), wk =   0.1111111
        k(   19) = (  -0.0914671   0.0176028   0.0000000), wk =   0.1111111
        k(   20) = (  -0.0914671  -0.1584256   0.0000000), wk =   0.0555556

     Largest allocated arrays     est. size (Mb)     dimensions
     Largest temporary arrays     est. size (Mb)     dimensions

     Initial potential from superposition of free atoms
     Check: negative starting charge=   -1.118439

     starting charge  148.49228, renormalised to  153.00000

[...]

     *
     * You are using vdW-DF for exchange-correlation in this calculation.
     * Please cite the following three references that made this development
     * possible:
     *
     *   M. Dion, H. Rydberg, E. Schroder, D. C. Langreth, and
     *   B. I. Lundqvist, Phys. Rev. Lett. 92, 246401 (2004).
     *
     *   T. Thonhauser, V. R. Cooper, S. Li, A. Puzder, P. Hyldgaard, and
     *   D. C. Langreth, Phys. Rev. B 76, 125112 (2007).
     *
     *   G. Roman-Perez and J. M. Soler, Phys. Rev. Lett. 103, 096102 (2009).
     *
     *
     * If you are using vdW-DF2, please also cite:
     *
     *   K. Lee, E. D. Murray, L. Kong, B. I. Lundqvist, and
     *   D. C. Langreth, Phys. Rev. B 82, 081101(R) (2010).
     *
     *
     * If you are calculating the stress with vdW-DF, please also cite:
     *
     *   R. Sabatini, E. Kucukbenli, B. Kolb, T. Thonhauser, and
     *   S. de Gironcoli, J. Phys.: Condens. Matter 24, 424209 (2012).
     *

     Carrying out vdW-DF run using the following parameters:

     Nqs =      20    Nr_points =    1024   r_max =   100.000
     q_mesh =
               0.00001000     0.04494208     0.09755937     0.15916263
               0.23128650     0.31572767     0.41458969     0.53033537
               0.66584808     0.82450364     1.01025438     1.22772762
               1.48234092     1.78043706     2.12944203     2.53805004
               3.01644009     3.57652955     4.23227104     5.00000000

     Gradients computed in reciprocal space

[...]

     Starting wfc are  129 randomized atomic wfcs

     Self-consistent Calculation

[...]

     total energy              =   -1818.56130792 Ry
     Harris-Foulkes estimate   =   -1818.56130814 Ry
     estimated scf accuracy    <       0.00000397 Ry

     iteration # 15     ecut=    36.75 Ry     beta=0.10
     Davidson diagonalization with overlap
     ethr =  2.60E-09,  avg # of iterations =  2.0

[...]

     negative rho (up, down):  1.114E+00 0.000E+00

     Adding external electric field

     Computed dipole along edir(3) :
        Dipole                0.0193 Ry au,          0.0490 Debye
        Dipole field          0.0001 Ry au

        Potential amp.       -0.0051 Ry
        Total length         45.0733 bohr

     End of self-consistent calculation

[...]

          k = 0.0610 0.0000 0.0000 ( 16094 PWs)   bands (ev):

[...]

          k =-0.0915-0.1584 0.0000 ( 16096 PWs)   bands (ev):

   -84.5728 -84.5582 -84.5433 -84.3481 -84.3345 -84.3249 -84.3208 -84.3110
   -84.2972 -44.1846 -44.0936 -44.0164 -43.9885 -43.9223 -43.9077 -43.8862
   -43.8604 -43.8251 -43.7999 -43.6812 -43.6533 -43.6226 -43.6001 -43.5985
   -43.5939 -43.5750 -43.5583 -43.5542 -43.5243 -43.5206 -43.4869 -43.4791
   -43.4683 -43.4450 -43.3842 -43.3664  -6.0763  -5.9856  -4.4274  -4.3488
    -3.9620  -3.8161  -3.5014  -3.3063  -2.5839  -2.5446  -2.3465  -2.3074
    -2.1784  -2.1475  -2.0379  -1.7657  -1.5458  -1.4641  -1.1936  -1.1059
    -1.0471  -0.6699  -0.6297  -0.5483  -0.4946  -0.2884  -0.2384  -0.1040
     0.0274   0.0285   0.1356   0.3545   0.4571   0.9889   1.2101   1.2419
     1.3877   1.4757   1.5462   1.5575   1.8762   1.9418   1.9772   2.1733
     2.2780   2.3753   2.8550   3.0567   3.1813   3.3029   3.6841   4.3989
     4.5515   5.2793   5.7382   5.9333   5.9613   6.2741   6.8775   7.5868
     7.5944   7.9064   8.1149   8.1743   8.3480   8.4408   8.5675   8.9256
     9.1694   9.3081

     the Fermi energy is     2.0457 ev

!    total energy              =   -1818.56131500 Ry
     Harris-Foulkes estimate   =   -1818.56130860 Ry
     estimated scf accuracy    <       0.00000039 Ry

     The total energy is the sum of the following terms:

     one-electron contribution =  -13831.62720584 Ry
     hartree contribution      =    6901.22117282 Ry
     xc contribution           =    -361.77998681 Ry
     ewald contribution        =    5473.71021089 Ry
     electric field correction =       0.00000109 Ry
     smearing contrib. (-TS)   =      -0.08550714 Ry

     convergence has been achieved in  15 iterations

 BEEF-vdW xc energy contributions
           1 :   -316.288063110081
           2 :    292.295486883081
           3 :   -250.250624770848
           4 :    199.717081356132
           5 :   -150.637515123535
           6 :    110.515861920859
           7 :   -82.9068468784419
           8 :    67.3946914851014
           9 :   -60.7248800402061
          10 :    58.4642477194640
          11 :   -56.5946733447744
          12 :    52.6104758842820
          13 :   -45.9247765134709
          14 :    37.5789349521460
          15 :   -29.4438130618717
          16 :    23.2443923023185
          17 :   -19.8031426474134
          18 :    18.7898596875357
          19 :   -19.0328581038966
          20 :    19.1694674096498
          21 :   -18.2767991395817
          22 :    16.1821166303047
          23 :   -13.3684304059778
          24 :    10.6040441153613
          25 :   -8.53237874464787
          26 :    7.41307029712488
          27 :   -7.08707259862308
          28 :    7.11924936974839
          29 :   -7.02275642674670
          30 :    6.46904413364757
          31 :   -30.5257329059937
          32 :   -23.2050707844504

     Forces acting on atoms (Ry/au):

     negative rho (up, down):  1.114E+00 0.000E+00
     atom    1 type  1   force =    -0.00000560   -0.00351931    0.01540314
     atom    2 type  1   force =    -0.00304272    0.00175620    0.01539519
     atom    3 type  1   force =     0.00304507    0.00176239    0.01540775
     atom    4 type  2   force =     0.00000025   -0.00000057   -0.00155301
     atom    5 type  1   force =     0.00000444    0.00732359   -0.01037912
     atom    6 type  1   force =     0.00634128   -0.00365668   -0.01038129
     atom    7 type  1   force =    -0.00634431   -0.00366384   -0.01038466
     atom    8 type  2   force =     0.00000040   -0.00000133   -0.01352822
     atom    9 type  1   force =     0.00000263   -0.00016579    0.00007482
     atom   10 type  1   force =    -0.00014705    0.00008450    0.00008289
     atom   11 type  1   force =     0.00014577    0.00008127    0.00008037
     atom   12 type  2   force =    -0.00000014   -0.00000044   -0.00021787

     Total force =     0.037664     Total SCF correction =     0.000942

     entering subroutine stress ...

     negative rho (up, down):  1.114E+00 0.000E+00
          total   stress  (Ry/bohr**3)                   (kbar)     P=  -30.42
  -0.00028317  -0.00000000   0.00000000        -41.66     -0.00      0.00
  -0.00000000  -0.00028317   0.00000000         -0.00    -41.66      0.00
   0.00000000   0.00000000  -0.00005396          0.00      0.00     -7.94

 !ASE

     Writing output data file calc.save

     General routines

     Parallel routines

   This run was terminated on:   5:30:57  31Dec2018

   JOB DONE.
Job  /afs/slac/g/suncat/bin/suncat-tsmpirun -x LD_LIBRARY_PATH -wdir /scratch/qe648678_LdkcC pw.x -in pw.inp

TID   HOST_NAME   COMMAND_LINE            STATUS            TERMINATION_TIME
00000 suncat0062 pw.x -in pw.inp   Done                     12/31/2018 05:30:57
00001 suncat0062 pw.x -in pw.inp   Done                     12/31/2018 05:30:57
00002 suncat0062 pw.x -in pw.inp   Done                     12/31/2018 05:30:57
00003 suncat0062 pw.x -in pw.inp   Done                     12/31/2018 05:30:57
00004 suncat0062 pw.x -in pw.inp   Done                     12/31/2018 05:30:57
00005 suncat0062 pw.x -in pw.inp   Done                     12/31/2018 05:30:57
00006 suncat0062 pw.x -in pw.inp   Done                     12/31/2018 05:30:57
00007 suncat0062 pw.x -in pw.inp   Done                     12/31/2018 05:30:57
00008 suncat0061 pw.x -in pw.inp   Done                     12/31/2018 05:30:57
00009 suncat0061 pw.x -in pw.inp   Done                     12/31/2018 05:30:57
00010 suncat0061 pw.x -in pw.inp   Done                     12/31/2018 05:30:57
00011 suncat0061 pw.x -in pw.inp   Done                     12/31/2018 05:30:57
00012 suncat0061 pw.x -in pw.inp   Done                     12/31/2018 05:30:57
00013 suncat0061 pw.x -in pw.inp   Done                     12/31/2018 05:30:57
00014 suncat0061 pw.x -in pw.inp   Done                     12/31/2018 05:30:57
00015 suncat0061 pw.x -in pw.inp   Done                     12/31/2018 05:30:57
00016 suncat0060 pw.x -in pw.inp   Done                     12/31/2018 05:30:57
00017 suncat0060 pw.x -in pw.inp   Done                     12/31/2018 05:30:57
00018 suncat0060 pw.x -in pw.inp   Done                     12/31/2018 05:30:57
00019 suncat0060 pw.x -in pw.inp   Done                     12/31/2018 05:30:57
00020 suncat0060 pw.x -in pw.inp   Done                     12/31/2018 05:30:57
00021 suncat0060 pw.x -in pw.inp   Done                     12/31/2018 05:30:57
00022 suncat0060 pw.x -in pw.inp   Done                     12/31/2018 05:30:57
00023 suncat0060 pw.x -in pw.inp   Done                     12/31/2018 05:30:57
00024 suncat0057 pw.x -in pw.inp   Done                     12/31/2018 05:30:57
00025 suncat0057 pw.x -in pw.inp   Done                     12/31/2018 05:30:57
00026 suncat0057 pw.x -in pw.inp   Done                     12/31/2018 05:30:57
00027 suncat0057 pw.x -in pw.inp   Done                     12/31/2018 05:30:57
00028 suncat0057 pw.x -in pw.inp   Done                     12/31/2018 05:30:57
00029 suncat0057 pw.x -in pw.inp   Done                     12/31/2018 05:30:57
00030 suncat0057 pw.x -in pw.inp   Done                     12/31/2018 05:30:57
00031 suncat0057 pw.x -in pw.inp   Done                     12/31/2018 05:30:57
00032 suncat0016 pw.x -in pw.inp   Done                     12/31/2018 05:30:57
00033 suncat0016 pw.x -in pw.inp   Done                     12/31/2018 05:30:57
00034 suncat0016 pw.x -in pw.inp   Done                     12/31/2018 05:30:57
00035 suncat0016 pw.x -in pw.inp   Done                     12/31/2018 05:30:57
00036 suncat0016 pw.x -in pw.inp   Done                     12/31/2018 05:30:57
00037 suncat0016 pw.x -in pw.inp   Done                     12/31/2018 05:30:57
00038 suncat0016 pw.x -in pw.inp   Done                     12/31/2018 05:30:57
00039 suncat0016 pw.x -in pw.inp   Done                     12/31/2018 05:30:57
00040 suncat0198 pw.x -in pw.inp   Done                     12/31/2018 05:30:57
00041 suncat0198 pw.x -in pw.inp   Done                     12/31/2018 05:30:57
00042 suncat0198 pw.x -in pw.inp   Done                     12/31/2018 05:30:57
00043 suncat0198 pw.x -in pw.inp   Done                     12/31/2018 05:30:57
00044 suncat0198 pw.x -in pw.inp   Done                     12/31/2018 05:30:57
00045 suncat0198 pw.x -in pw.inp   Done                     12/31/2018 05:30:57
00046 suncat0198 pw.x -in pw.inp   Done                     12/31/2018 05:30:57
00047 suncat0198 pw.x -in pw.inp   Done                     12/31/2018 05:30:57
00048 suncat0194 pw.x -in pw.inp   Done                     12/31/2018 05:30:57
00049 suncat0194 pw.x -in pw.inp   Done                     12/31/2018 05:30:57
00050 suncat0194 pw.x -in pw.inp   Done                     12/31/2018 05:30:57
00051 suncat0194 pw.x -in pw.inp   Done                     12/31/2018 05:30:57
00052 suncat0194 pw.x -in pw.inp   Done                     12/31/2018 05:30:57
00053 suncat0194 pw.x -in pw.inp   Done                     12/31/2018 05:30:57
00054 suncat0194 pw.x -in pw.inp   Done                     12/31/2018 05:30:57
00055 suncat0194 pw.x -in pw.inp   Done                     12/31/2018 05:30:57
00056 suncat0193 pw.x -in pw.inp   Done                     12/31/2018 05:30:57
00057 suncat0193 pw.x -in pw.inp   Done                     12/31/2018 05:30:57
00058 suncat0193 pw.x -in pw.inp   Done                     12/31/2018 05:30:57
00059 suncat0193 pw.x -in pw.inp   Done                     12/31/2018 05:30:57
00060 suncat0193 pw.x -in pw.inp   Done                     12/31/2018 05:30:57
00061 suncat0193 pw.x -in pw.inp   Done                     12/31/2018 05:30:57
00062 suncat0193 pw.x -in pw.inp   Done                     12/31/2018 05:30:57
00063 suncat0193 pw.x -in pw.inp   Done                     12/31/2018 05:30:57