     Program PWSCF v.5.1rc2 (svn rev. 11289) starts on 19Dec2018 at 15: 8: 1

     Current dimensions of program PWSCF are:
     Max number of different atomic species (ntypx) = 10
     Max number of k-points (npk) =  40000
     Max angular momentum in pseudopotentials (lmaxx) =  3
     Presently stress not available with electric field

     IMPORTANT: XC functional enforced from input :
     Exchange-correlation      = BEEF-VDW ( 1  4 27 13 2)
     Any further DFT definition will be discarded
     Please, verify this is what you really want

     Subspace diagonalization in iterative solution of the eigenvalue problem:
     a serial algorithm will be used

     bravais-lattice index     =            0
     lattice parameter (alat)  =       1.8897  a.u.
     unit-cell volume          =    6373.2889 (a.u.)^3
     number of atoms/cell      =           12
     number of atomic types    =            2
     number of electrons       =       204.00
     number of Kohn-Sham states=          132
     kinetic-energy cutoff     =      36.7493  Ry
     charge density cutoff     =     367.4932  Ry
     convergence threshold     =      1.0E-06
     mixing beta               =       0.1000
     number of iterations used =           10  plain     mixing
     Exchange-correlation      = BEEF-VDW ( 1  4 27 13 2)
     nstep                     =           50

     celldm(1)=   1.889726  celldm(2)=   0.000000  celldm(3)=   0.000000
     celldm(4)=   0.000000  celldm(5)=   0.000000  celldm(6)=   0.000000

     crystal axes: (cart. coord. in units of alat)
               a(1) = (   6.558253   0.000000   0.000000 )
               a(2) = (  -3.279127   5.679614   0.000000 )
               a(3) = (   0.000000   0.000000  25.354791 )

     reciprocal axes: (cart. coord. in units 2 pi/alat)
               b(1) = (  0.152480  0.088034  0.000000 )
               b(2) = (  0.000000  0.176068  0.000000 )
               b(3) = (  0.000000  0.000000  0.039440 )

     PseudoPot. # 1 for Ag read from file:
     /afs/slac.stanford.edu/u/if/mamunm/psp/gbrv1.5pbe/Ag.UPF
     MD5 check sum: d66d668201baa78d5eb5b04ef7011058
     Pseudo is Ultrasoft + core correction, Zval = 19.0
     Generated by new atomic code, or converted to UPF format
     Using radial grid of  887 points,  6 beta functions with:
                l(1) =   0
                l(2) =   0
                l(3) =   1
                l(4) =   1
                l(5) =   2
                l(6) =   2
     Q(r) pseudized with  6 coefficients,  rinner =    1.300   1.300   1.300
                                                       1.300   1.300

     PseudoPot. # 2 for La read from file:
     /afs/slac.stanford.edu/u/if/mamunm/psp/gbrv1.5pbe/La.UPF
     MD5 check sum: 5937b0c7494ba0601a847275249473aa
     Pseudo is Ultrasoft + core correction, Zval = 11.0
     Generated by new atomic code, or converted to UPF format
     Using radial grid of  995 points,  8 beta functions with:
                l(1) =   0
                l(2) =   0
                l(3) =   1
                l(4) =   1
                l(5) =   2
                l(6) =   2
                l(7) =   3
                l(8) =   3
     Q(r) pseudized with  8 coefficients,  rinner =    1.700   1.700   1.700
                                                       1.700   1.700   1.700
                                                       1.700

     vdW kernel table read from file vdW_kernel_table
     MD5 check sum: 095c7af220d748ca6e76c0b4c6cfb241

     atomic species   valence    mass     pseudopotential
        Ag1           19.00   107.86820     Ag( 1.00)
        La1           11.00   138.90547     La( 1.00)

     No symmetry found

   Cartesian axes

     site n.     atom                  positions (alat units)
         1           Ag1 tau(   1) = (   0.0000000   0.0000000  10.0000000  )
         2           Ag1 tau(   2) = (  -1.6395633   2.8398069  10.0000000  )
         3           Ag1 tau(   3) = (   1.6395633   2.8398069  10.0000000  )
         4           La1 tau(   4) = (   3.2791265   0.0000000  10.0000000  )
         5           Ag1 tau(   5) = (   3.2791265   1.8932046  12.6773956  )
         6           Ag1 tau(   6) = (   1.6395633   4.7330114  12.6773956  )
         7           Ag1 tau(   7) = (  -1.6395633   4.7330114  12.6773956  )
         8           La1 tau(   8) = (   0.0000000   1.8932046  12.6773956  )
         9           Ag1 tau(   9) = (  -0.0000000   3.7864091  15.3547912  )
        10           Ag1 tau(  10) = (   1.6395633   0.9466023  15.3547912  )
        11           Ag1 tau(  11) = (   4.9186898   0.9466023  15.3547912  )
        12           La1 tau(  12) = (   3.2791265   3.7864091  15.3547912  )

     number of k points=    20  Fermi-Dirac smearing, width (Ry)=  0.0110
                       cart. coord. in units 2pi/alat
        k(    1) = (   0.0000000   0.0000000   0.0000000), wk =   0.0555556
        k(    2) = (   0.0000000   0.0293447   0.0000000), wk =   0.1111111
        k(    3) = (   0.0000000   0.0586894   0.0000000), wk =   0.1111111
        k(    4) = (   0.0000000  -0.0880342   0.0000000), wk =   0.0555556
        k(    5) = (   0.0254133   0.0146724   0.0000000), wk =   0.1111111
        k(    6) = (   0.0254133   0.0440171   0.0000000), wk =   0.1111111
        k(    7) = (   0.0254133   0.0733618   0.0000000), wk =   0.1111111
        k(    8) = (   0.0254133  -0.0733618   0.0000000), wk =   0.1111111
        k(    9) = (   0.0254133  -0.0440171   0.0000000), wk =   0.1111111
        k(   10) = (   0.0254133  -0.0146724   0.0000000), wk =   0.1111111
        k(   11) = (   0.0508265   0.0293447   0.0000000), wk =   0.1111111
        k(   12) = (   0.0508265   0.0586894   0.0000000), wk =   0.1111111
        k(   13) = (   0.0508265   0.0880342   0.0000000), wk =   0.1111111
        k(   14) = (   0.0508265  -0.0586894   0.0000000), wk =   0.1111111
        k(   15) = (   0.0508265  -0.0293447   0.0000000), wk =   0.1111111
        k(   16) = (   0.0508265   0.0000000   0.0000000), wk =   0.1111111
        k(   17) = (  -0.0762398  -0.0440171   0.0000000), wk =   0.0555556
        k(   18) = (  -0.0762398  -0.0146724   0.0000000), wk =   0.1111111
        k(   19) = (  -0.0762398   0.0146724   0.0000000), wk =   0.1111111
        k(   20) = (  -0.0762398  -0.1320512   0.0000000), wk =   0.0555556

     Largest allocated arrays     est. size (Mb)     dimensions
     Largest temporary arrays     est. size (Mb)     dimensions

     Initial potential from superposition of free atoms
     Check: negative starting charge=   -0.215814

     starting charge  199.40337, renormalised to  204.00000

     negative rho (up, down):  2.208E-01 0.000E+00

     *
     * You are using vdW-DF for exchange-correlation in this calculation.
     * Please cite the following three references that made this development
     * possible:
     *
     *   M. Dion, H. Rydberg, E. Schroder, D. C. Langreth, and
     *   B. I. Lundqvist, Phys. Rev. Lett. 92, 246401 (2004).
     *
     *   T. Thonhauser, V. R. Cooper, S. Li, A. Puzder, P. Hyldgaard, and
     *   D. C. Langreth, Phys. Rev. B 76, 125112 (2007).
     *
     *   G. Roman-Perez and J. M. Soler, Phys. Rev. Lett. 103, 096102 (2009).
     *
     *
     * If you are using vdW-DF2, please also cite:
     *
     *   K. Lee, E. D. Murray, L. Kong, B. I. Lundqvist, and
     *   D. C. Langreth, Phys. Rev. B 82, 081101(R) (2010).
     *
     *
     * If you are calculating the stress with vdW-DF, please also cite:
     *
     *   R. Sabatini, E. Kucukbenli, B. Kolb, T. Thonhauser, and
     *   S. de Gironcoli, J. Phys.: Condens. Matter 24, 424209 (2012).
     *

     Carrying out vdW-DF run using the following parameters:

     Nqs =      20    Nr_points =    1024   r_max =   100.000
     q_mesh =
               0.00001000     0.04494208     0.09755937     0.15916263
               0.23128650     0.31572767     0.41458969     0.53033537
               0.66584808     0.82450364     1.01025438     1.22772762
               1.48234092     1.78043706     2.12944203     2.53805004
               3.01644009     3.57652955     4.23227104     5.00000000

     Gradients computed in reciprocal space

     Adding external electric field

     Computed dipole along edir(3) :
        Dipole                0.0000 Ry au,          0.0000 Debye
        Dipole field          0.0000 Ry au

        Potential amp.       -0.0000 Ry
        Total length         46.7158 bohr

     Starting wfc are  177 randomized atomic wfcs

     Self-consistent Calculation

     iteration #  1     ecut=    36.75 Ry     beta=0.10
     Davidson diagonalization with overlap
     ethr =  1.00E-02,  avg # of iterations =  2.0

[...]

     total energy              =   -2976.21600966 Ry
     Harris-Foulkes estimate   =   -2985.30695791 Ry
     estimated scf accuracy    <      50.25562297 Ry

[...]

     End of self-consistent calculation

          k = 0.0000 0.0000 0.0000 ( 23859 PWs)   bands (ev):

   -90.6145 -90.6135 -90.6131 -90.4573 -90.4570 -90.4562 -90.4562 -90.4559
   -90.4559 -54.1627 -54.1560 -54.1560 -54.1475 -54.1475 -54.1407 -54.0351
   -54.0351 -54.0348 -54.0348 -54.0264 -54.0262 -54.0008 -53.9862 -53.9862
   -53.9496 -53.9491 -53.9422 -53.9422 -53.9418 -53.9418 -53.8651 -53.8647
   -53.8504 -53.8504 -53.8501 -53.8501 -32.4650 -32.4644 -31.8880 -16.0960
   -16.0827 -15.9790 -15.9790 -15.9765 -15.9765 -15.4812 -15.4812 -15.4672
    -3.6415  -3.6415  -3.6058  -3.5844  -3.5192  -3.4798  -3.4797  -3.4239
    -3.4239  -3.4122  -3.3533  -3.3533  -3.3373  -3.3334  -3.2739  -3.0642
    -3.0642  -2.9833  -2.9833  -2.9538  -2.8999  -2.8635  -2.8635  -2.8632
    -2.7467  -2.7388  -2.7388  -2.7124  -2.7124  -2.6054  -2.6054  -2.5508
    -2.3635  -2.3635  -2.3219  -2.3219  -2.3136  -2.3136  -2.2924  -2.2467
    -2.2467  -2.0947  -2.0448  -2.0448  -1.9931  -1.9706  -1.9132  -0.2941
     0.9855   0.9856   1.2819   1.3396   1.3396   1.7578   1.7578   1.7664
     2.0338   2.2365   2.3632   2.3632   2.4488   2.4488   2.4537   2.4537
     2.4632   2.4633   2.4765   2.4917   2.4921   2.4943   2.4943   2.5291
     2.5848   2.8981   2.9094   2.9094   2.9181   3.0300   3.0525   3.0970
     3.0970   3.3736   3.3736   3.3797

[...]

          k =-0.0762-0.0440 0.0000 ( 24008 PWs)   bands (ev):

[...]

     the Fermi energy is     1.5779 ev

!    total energy              =   -2981.99547995 Ry
     Harris-Foulkes estimate   =   -2981.99548635 Ry
     estimated scf accuracy    <       0.00000063 Ry

     The total energy is the sum of the following terms:

     one-electron contribution =  -16826.30991546 Ry
     hartree contribution      =    8408.86358954 Ry
     xc contribution           =    -422.45343452 Ry
     ewald contribution        =    5857.95473208 Ry
     electric field correction =       0.00000000 Ry
     smearing contrib. (-TS)   =      -0.05045159 Ry

     convergence has been achieved in  17 iterations

 BEEF-vdW xc energy contributions
           1 :   -369.031985671562
           2 :    335.766812814926
           3 :   -279.272662229200
           4 :    215.069544019986
           5 :   -157.835557233452
           6 :    116.448628557143
[...]
                l(2) =   0
                l(3) =   1
                l(4) =   1
                l(5) =   2
                l(6) =   2
     Q(r) pseudized with  6 coefficients,  rinner =    1.300   1.300   1.300
                                                       1.300   1.300

     PseudoPot. # 2 for La read from file:
     /afs/slac.stanford.edu/u/if/mamunm/psp/gbrv1.5pbe/La.UPF
     MD5 check sum: 5937b0c7494ba0601a847275249473aa
     Pseudo is Ultrasoft + core correction, Zval = 11.0
     Generated by new atomic code, or converted to UPF format
     Using radial grid of  995 points,  8 beta functions with:
                l(1) =   0
                l(2) =   0
                l(3) =   1
                l(4) =   1
                l(5) =   2
                l(6) =   2
                l(7) =   3
                l(8) =   3
     Q(r) pseudized with  8 coefficients,  rinner =    1.700   1.700   1.700
                                                       1.700   1.700   1.700
                                                       1.700

     vdW kernel table read from file vdW_kernel_table
     MD5 check sum: 095c7af220d748ca6e76c0b4c6cfb241

     atomic species   valence    mass     pseudopotential
        Ag1           19.00   107.86820     Ag( 1.00)
        La1           11.00   138.90547     La( 1.00)

     No symmetry found

   Cartesian axes

     site n.     atom                  positions (alat units)
         1           Ag1 tau(   1) = (   0.0000000   0.0000000  10.0000000  )
         2           Ag1 tau(   2) = (  -1.6395633   2.8398069  10.0000000  )
         3           Ag1 tau(   3) = (   1.6395633   2.8398069  10.0000000  )
         4           La1 tau(   4) = (   3.2791265   0.0000000  10.0000000  )
         5           Ag1 tau(   5) = (   3.2791265   1.8932046  12.6773956  )
         6           Ag1 tau(   6) = (   1.6395633   4.7330114  12.6773956  )
         7           Ag1 tau(   7) = (  -1.6395633   4.7330114  12.6773956  )
         8           La1 tau(   8) = (   0.0000000   1.8932046  12.6773956  )
         9           Ag1 tau(   9) = (  -0.0000008   3.9605000  15.1593720  )
        10           Ag1 tau(  10) = (   1.7898914   0.8604187  15.1592507  )
        11           Ag1 tau(  11) = (   4.7683645   0.8604228  15.1592571  )
        12           La1 tau(  12) = (   3.2791225   3.7861593  15.3961082  )

     number of k points=    20  Fermi-Dirac smearing, width (Ry)=  0.0110
                       cart. coord. in units 2pi/alat
        k(    1) = (   0.0000000   0.0000000   0.0000000), wk =   0.0555556
        k(    2) = (   0.0000000   0.0293447   0.0000000), wk =   0.1111111
        k(    3) = (   0.0000000   0.0586894   0.0000000), wk =   0.1111111
        k(    4) = (   0.0000000  -0.0880342   0.0000000), wk =   0.0555556
        k(    5) = (   0.0254133   0.0146724   0.0000000), wk =   0.1111111
        k(    6) = (   0.0254133   0.0440171   0.0000000), wk =   0.1111111
        k(    7) = (   0.0254133   0.0733618   0.0000000), wk =   0.1111111
        k(    8) = (   0.0254133  -0.0733618   0.0000000), wk =   0.1111111
        k(    9) = (   0.0254133  -0.0440171   0.0000000), wk =   0.1111111
        k(   10) = (   0.0254133  -0.0146724   0.0000000), wk =   0.1111111
        k(   11) = (   0.0508265   0.0293447   0.0000000), wk =   0.1111111
        k(   12) = (   0.0508265   0.0586894   0.0000000), wk =   0.1111111
        k(   13) = (   0.0508265   0.0880342   0.0000000), wk =   0.1111111
        k(   14) = (   0.0508265  -0.0586894   0.0000000), wk =   0.1111111
        k(   15) = (   0.0508265  -0.0293447   0.0000000), wk =   0.1111111
        k(   16) = (   0.0508265   0.0000000   0.0000000), wk =   0.1111111
        k(   17) = (  -0.0762398  -0.0440171   0.0000000), wk =   0.0555556
        k(   18) = (  -0.0762398  -0.0146724   0.0000000), wk =   0.1111111
        k(   19) = (  -0.0762398   0.0146724   0.0000000), wk =   0.1111111
        k(   20) = (  -0.0762398  -0.1320512   0.0000000), wk =   0.0555556

     Largest allocated arrays     est. size (Mb)     dimensions
     Largest temporary arrays     est. size (Mb)     dimensions

     Initial potential from superposition of free atoms
     Check: negative starting charge=   -0.215959

     starting charge  199.40337, renormalised to  204.00000

[...]

     *
     * You are using vdW-DF for exchange-correlation in this calculation.
     * Please cite the following three references that made this development
     * possible:
     *
     *   M. Dion, H. Rydberg, E. Schroder, D. C. Langreth, and
     *   B. I. Lundqvist, Phys. Rev. Lett. 92, 246401 (2004).
     *
     *   T. Thonhauser, V. R. Cooper, S. Li, A. Puzder, P. Hyldgaard, and
     *   D. C. Langreth, Phys. Rev. B 76, 125112 (2007).
     *
     *   G. Roman-Perez and J. M. Soler, Phys. Rev. Lett. 103, 096102 (2009).
     *
     *
     * If you are using vdW-DF2, please also cite:
     *
     *   K. Lee, E. D. Murray, L. Kong, B. I. Lundqvist, and
     *   D. C. Langreth, Phys. Rev. B 82, 081101(R) (2010).
     *
     *
     * If you are calculating the stress with vdW-DF, please also cite:
     *
     *   R. Sabatini, E. Kucukbenli, B. Kolb, T. Thonhauser, and
     *   S. de Gironcoli, J. Phys.: Condens. Matter 24, 424209 (2012).
     *

     Carrying out vdW-DF run using the following parameters:

     Nqs =      20    Nr_points =    1024   r_max =   100.000
     q_mesh =
               0.00001000     0.04494208     0.09755937     0.15916263
               0.23128650     0.31572767     0.41458969     0.53033537
               0.66584808     0.82450364     1.01025438     1.22772762
               1.48234092     1.78043706     2.12944203     2.53805004
               3.01644009     3.57652955     4.23227104     5.00000000

     Gradients computed in reciprocal space

[...]

     Starting wfc are  177 randomized atomic wfcs

     Self-consistent Calculation

[...]

     total energy              =   -2982.00467706 Ry
     Harris-Foulkes estimate   =   -2982.00467826 Ry
     estimated scf accuracy    <       0.00000136 Ry

     iteration # 18     ecut=    36.75 Ry     beta=0.10
     Davidson diagonalization with overlap
     ethr =  6.65E-10,  avg # of iterations =  4.0

[...]

     negative rho (up, down):  1.514E-01 0.000E+00

     Adding external electric field

     Computed dipole along edir(3) :
        Dipole                0.0606 Ry au,          0.1539 Debye
        Dipole field          0.0001 Ry au

        Potential amp.       -0.0112 Ry
        Total length         46.7158 bohr

     End of self-consistent calculation

[...]

          k = 0.0508 0.0000 0.0000 ( 23966 PWs)   bands (ev):

[...]

          k =-0.0762-0.1321 0.0000 ( 24008 PWs)   bands (ev):

   -90.6005 -90.6001 -90.5998 -90.4651 -90.4626 -90.4623 -90.4120 -90.4116
   -90.4113 -54.1397 -54.1360 -54.1346 -54.1344 -54.1328 -54.1293 -54.0294
   -54.0284 -54.0144 -53.9938 -53.9899 -53.9879 -53.9863 -53.9851 -53.9806
   -53.9677 -53.9540 -53.9527 -53.9014 -53.8991 -53.8969 -53.8819 -53.8628
   -53.8610 -53.8156 -53.8109 -53.8057 -32.4373 -32.4149 -31.8119 -16.0698
   -16.0419 -15.9600 -15.9514 -15.9474 -15.9362 -15.4412 -15.4256 -15.3897
    -3.4819  -3.4092  -3.3966  -3.3756  -3.3532  -3.3098  -3.3029  -3.2860
    -3.2270  -3.2040  -3.1906  -3.1348  -3.0988  -3.0603  -3.0090  -3.0021
    -2.9916  -2.9249  -2.8713  -2.8436  -2.7963  -2.7915  -2.7500  -2.7166
    -2.6998  -2.6945  -2.6454  -2.6290  -2.6025  -2.6001  -2.5847  -2.5698
    -2.5652  -2.5328  -2.4833  -2.4345  -2.4139  -2.3968  -2.3546  -2.3314
    -2.3284  -2.2340  -2.1633  -2.1313  -2.0294  -1.9506  -1.8330  -1.2025
    -0.3941   0.0871   0.7843   0.8817   0.9512   1.3753   1.4104   1.9824
     2.2126   2.2589   2.2826   2.3259   2.4262   2.4944   2.5204   2.5204
     2.5267   2.5315   2.5373   2.5572   2.5661   2.5748   2.5808   2.6049
     2.6204   2.7299   2.7589   2.8547   3.0464   3.0590   3.0695   3.1050
     3.1209   3.1280   3.1319   3.2105

     the Fermi energy is     1.6212 ev

!    total energy              =   -2982.00467185 Ry
     Harris-Foulkes estimate   =   -2982.00467715 Ry
     estimated scf accuracy    <       0.00000032 Ry

     The total energy is the sum of the following terms:

     one-electron contribution =  -17195.77705952 Ry
     hartree contribution      =    8593.73840825 Ry
     xc contribution           =    -422.50586280 Ry
     ewald contribution        =    6042.58968719 Ry
     electric field correction =       0.00000723 Ry
     smearing contrib. (-TS)   =      -0.04985219 Ry

     convergence has been achieved in  18 iterations

 BEEF-vdW xc energy contributions
           1 :   -369.111117322383
           2 :    335.932730466210
           3 :   -279.529369634996
           4 :    215.323091089699
           5 :   -157.958833670495
           6 :    116.377724351706
           7 :   -92.1156003036358
           8 :    80.8892178447040
           9 :   -76.1054401927048
          10 :    72.2983108902177
          11 :   -66.9264112358369
          12 :    60.1146190966964
          13 :   -53.1324640683337
          14 :    46.8864121078126
          15 :   -41.3409056533623
          16 :    35.9383598421668
          17 :   -30.4126750273305
          18 :    25.2450540793743
          19 :   -21.4157845883477
          20 :    19.6795016446198
          21 :   -19.9374162752471
          22 :    21.1729386345668
          23 :   -21.9997516697723
          24 :    21.4414572255656
          25 :   -19.4302325308779
          26 :    16.7286754885095
          27 :   -14.3810480847767
          28 :    13.0836759860978
          29 :   -12.8670376932388
          30 :    13.2271072675065
          31 :   -34.7555615236055
          32 :   -25.0746465163606

     Forces acting on atoms (Ry/au):

     negative rho (up, down):  1.514E-01 0.000E+00
     atom    1 type  1   force =     0.00000030   -0.00698612    0.00709153
     atom    2 type  1   force =    -0.00603172    0.00346756    0.00709070
     atom    3 type  1   force =     0.00603172    0.00346715    0.00709061
     atom    4 type  2   force =    -0.00000000   -0.00001634   -0.00192536
     atom    5 type  1   force =     0.00000003    0.00421351   -0.00418215
     atom    6 type  1   force =     0.00366917   -0.00213323   -0.00415795
     atom    7 type  1   force =    -0.00366945   -0.00213319   -0.00415812
     atom    8 type  2   force =    -0.00000007    0.00000318   -0.00703490
     atom    9 type  1   force =    -0.00000034   -0.00027794    0.00001482
     atom   10 type  1   force =    -0.00031624    0.00015856    0.00002216
     atom   11 type  1   force =     0.00031632    0.00015853    0.00002209
     atom   12 type  2   force =     0.00000029    0.00007832    0.00012656

     Total force =     0.021351     Total SCF correction =     0.002909
     SCF correction compared to forces is large: reduce conv_thr to get better values

     entering subroutine stress ...

     negative rho (up, down):  1.514E-01 0.000E+00
          total   stress  (Ry/bohr**3)                   (kbar)     P=   -6.07
  -0.00004905  -0.00000000   0.00000000         -7.21     -0.00      0.00
  -0.00000000  -0.00004910  -0.00000001         -0.00     -7.22     -0.00
   0.00000000  -0.00000001  -0.00002562          0.00     -0.00     -3.77

 !ASE

     Writing output data file calc.save

     General routines

     Parallel routines

   This run was terminated on:  19:23: 9  19Dec2018

   JOB DONE.
Job  /afs/slac/g/suncat/bin/suncat-tsmpirun -x LD_LIBRARY_PATH -wdir /scratch/qe773171_PvVqW pw.x -in pw.inp

TID   HOST_NAME   COMMAND_LINE            STATUS            TERMINATION_TIME
00000 suncat0004 pw.x -in pw.inp   Done                     12/19/2018 19:23:09
00001 suncat0004 pw.x -in pw.inp   Done                     12/19/2018 19:23:09
00002 suncat0004 pw.x -in pw.inp   Done                     12/19/2018 19:23:09
00003 suncat0004 pw.x -in pw.inp   Done                     12/19/2018 19:23:09
00004 suncat0004 pw.x -in pw.inp   Done                     12/19/2018 19:23:09
00005 suncat0004 pw.x -in pw.inp   Done                     12/19/2018 19:23:09
00006 suncat0004 pw.x -in pw.inp   Done                     12/19/2018 19:23:09
00007 suncat0004 pw.x -in pw.inp   Done                     12/19/2018 19:23:09
00008 suncat0187 pw.x -in pw.inp   Done                     12/19/2018 19:23:09
00009 suncat0187 pw.x -in pw.inp   Done                     12/19/2018 19:23:09
00010 suncat0187 pw.x -in pw.inp   Done                     12/19/2018 19:23:09
00011 suncat0187 pw.x -in pw.inp   Done                     12/19/2018 19:23:09
00012 suncat0187 pw.x -in pw.inp   Done                     12/19/2018 19:23:09
00013 suncat0187 pw.x -in pw.inp   Done                     12/19/2018 19:23:09
00014 suncat0187 pw.x -in pw.inp   Done                     12/19/2018 19:23:09
00015 suncat0187 pw.x -in pw.inp   Done                     12/19/2018 19:23:09
00016 suncat0186 pw.x -in pw.inp   Done                     12/19/2018 19:23:09
00017 suncat0186 pw.x -in pw.inp   Done                     12/19/2018 19:23:09
00018 suncat0186 pw.x -in pw.inp   Done                     12/19/2018 19:23:09
00019 suncat0186 pw.x -in pw.inp   Done                     12/19/2018 19:23:09
00020 suncat0186 pw.x -in pw.inp   Done                     12/19/2018 19:23:09
00021 suncat0186 pw.x -in pw.inp   Done                     12/19/2018 19:23:09
00022 suncat0186 pw.x -in pw.inp   Done                     12/19/2018 19:23:09
00023 suncat0186 pw.x -in pw.inp   Done                     12/19/2018 19:23:09
00024 suncat0185 pw.x -in pw.inp   Done                     12/19/2018 19:23:09
00025 suncat0185 pw.x -in pw.inp   Done                     12/19/2018 19:23:09
00026 suncat0185 pw.x -in pw.inp   Done                     12/19/2018 19:23:09
00027 suncat0185 pw.x -in pw.inp   Done                     12/19/2018 19:23:09
00028 suncat0185 pw.x -in pw.inp   Done                     12/19/2018 19:23:09
00029 suncat0185 pw.x -in pw.inp   Done                     12/19/2018 19:23:09
00030 suncat0185 pw.x -in pw.inp   Done                     12/19/2018 19:23:09
00031 suncat0185 pw.x -in pw.inp   Done                     12/19/2018 19:23:09
00032 suncat0184 pw.x -in pw.inp   Done                     12/19/2018 19:23:09
00033 suncat0184 pw.x -in pw.inp   Done                     12/19/2018 19:23:09
00034 suncat0184 pw.x -in pw.inp   Done                     12/19/2018 19:23:09
00035 suncat0184 pw.x -in pw.inp   Done                     12/19/2018 19:23:09
00036 suncat0184 pw.x -in pw.inp   Done                     12/19/2018 19:23:09
00037 suncat0184 pw.x -in pw.inp   Done                     12/19/2018 19:23:09
00038 suncat0184 pw.x -in pw.inp   Done                     12/19/2018 19:23:09
00039 suncat0184 pw.x -in pw.inp   Done                     12/19/2018 19:23:09
00040 suncat0183 pw.x -in pw.inp   Done                     12/19/2018 19:23:09
00041 suncat0183 pw.x -in pw.inp   Done                     12/19/2018 19:23:09
00042 suncat0183 pw.x -in pw.inp   Done                     12/19/2018 19:23:09
00043 suncat0183 pw.x -in pw.inp   Done                     12/19/2018 19:23:09
00044 suncat0183 pw.x -in pw.inp   Done                     12/19/2018 19:23:09
00045 suncat0183 pw.x -in pw.inp   Done                     12/19/2018 19:23:09
00046 suncat0183 pw.x -in pw.inp   Done                     12/19/2018 19:23:09
00047 suncat0183 pw.x -in pw.inp   Done                     12/19/2018 19:23:09
00048 suncat0182 pw.x -in pw.inp   Done                     12/19/2018 19:23:09
00049 suncat0182 pw.x -in pw.inp   Done                     12/19/2018 19:23:09
00050 suncat0182 pw.x -in pw.inp   Done                     12/19/2018 19:23:09
00051 suncat0182 pw.x -in pw.inp   Done                     12/19/2018 19:23:09
00052 suncat0182 pw.x -in pw.inp   Done                     12/19/2018 19:23:09
00053 suncat0182 pw.x -in pw.inp   Done                     12/19/2018 19:23:09
00054 suncat0182 pw.x -in pw.inp   Done                     12/19/2018 19:23:09
00055 suncat0182 pw.x -in pw.inp   Done                     12/19/2018 19:23:09
00056 suncat0181 pw.x -in pw.inp   Done                     12/19/2018 19:23:09
00057 suncat0181 pw.x -in pw.inp   Done                     12/19/2018 19:23:09
00058 suncat0181 pw.x -in pw.inp   Done                     12/19/2018 19:23:09
00059 suncat0181 pw.x -in pw.inp   Done                     12/19/2018 19:23:09
00060 suncat0181 pw.x -in pw.inp   Done                     12/19/2018 19:23:09
00061 suncat0181 pw.x -in pw.inp   Done                     12/19/2018 19:23:09
00062 suncat0181 pw.x -in pw.inp   Done                     12/19/2018 19:23:09
00063 suncat0181 pw.x -in pw.inp   Done                     12/19/2018 19:23:09