     Program PWSCF v.5.1rc2 (svn rev. 11289) starts on 19Dec2018 at 19:53:51

     Current dimensions of program PWSCF are:
     Max number of different atomic species (ntypx) = 10
     Max number of k-points (npk) =  40000
     Max angular momentum in pseudopotentials (lmaxx) =  3
     Presently stress not available with electric field

     IMPORTANT: XC functional enforced from input :
     Exchange-correlation      = BEEF-VDW ( 1  4 27 13 2)
     Any further DFT definition will be discarded
     Please, verify this is what you really want

     Subspace diagonalization in iterative solution of the eigenvalue problem:
     a serial algorithm will be used

     bravais-lattice index     =            0
     lattice parameter (alat)  =       1.8897  a.u.
     unit-cell volume          =    5573.8142 (a.u.)^3
     number of atoms/cell      =           12
     number of atomic types    =            2
     number of electrons       =       138.00
     number of Kohn-Sham states=           99
     kinetic-energy cutoff     =      36.7493  Ry
     charge density cutoff     =     367.4932  Ry
     convergence threshold     =      1.0E-06
     mixing beta               =       0.1000
     number of iterations used =           10  plain     mixing
     Exchange-correlation      = BEEF-VDW ( 1  4 27 13 2)
     nstep                     =           50

     celldm(1)=   1.889726  celldm(2)=   0.000000  celldm(3)=   0.000000
     celldm(4)=   0.000000  celldm(5)=   0.000000  celldm(6)=   0.000000

     crystal axes: (cart. coord. in units of alat)
               a(1) = (   6.171672   0.000000   0.000000 )
               a(2) = (  -3.085836   5.344825   0.000000 )
               a(3) = (   0.000000   0.000000  25.039149 )

     reciprocal axes: (cart. coord. in units 2 pi/alat)
               b(1) = (  0.162031  0.093548  0.000000 )
               b(2) = (  0.000000  0.187097  0.000000 )
               b(3) = (  0.000000  0.000000  0.039937 )

     PseudoPot. # 1 for Au read from file:
     /afs/slac.stanford.edu/u/if/mamunm/psp/gbrv1.5pbe/Au.UPF
     MD5 check sum: 9d7f43293ad2c663164586bc4b293ffc
     Pseudo is Ultrasoft + core correction, Zval = 11.0
     Generated by new atomic code, or converted to UPF format
     Using radial grid of  985 points,  7 beta functions with:
                l(1) =   0
                l(2) =   0
                l(3) =   1
                l(4) =   1
                l(5) =   2
                l(6) =   2
                l(7) =   3
     Q(r) pseudized with  6 coefficients,  rinner =    1.900   1.900   1.900
                                                       1.900   1.900   1.900
                                                       1.900

     PseudoPot. # 2 for Tl read from file:
     /afs/slac.stanford.edu/u/if/mamunm/psp/gbrv1.5pbe/Tl.UPF
     MD5 check sum: b76cf1f7e72655a2b2c53cf6385d7059
     Pseudo is Ultrasoft + core correction, Zval = 13.0
     Generated by new atomic code, or converted to UPF format
     Using radial grid of  899 points,  6 beta functions with:
                l(1) =   0
                l(2) =   0
                l(3) =   1
                l(4) =   1
                l(5) =   2
                l(6) =   2
     Q(r) pseudized with  6 coefficients,  rinner =    1.100   1.100   1.100
                                                       1.100   1.100

     vdW kernel table read from file vdW_kernel_table
     MD5 check sum: 095c7af220d748ca6e76c0b4c6cfb241

     atomic species   valence    mass     pseudopotential
        Au1           11.00   196.96657     Au( 1.00)
        Tl1           13.00   204.38000     Tl( 1.00)

     No symmetry found

   Cartesian axes

     site n.     atom                  positions (alat units)
         1           Au1 tau(   1) = (   0.0000000   0.0000000  10.0000000  )
         2           Au1 tau(   2) = (  -1.5429180   2.6724124  10.0000000  )
         3           Au1 tau(   3) = (   1.5429180   2.6724124  10.0000000  )
         4           Tl1 tau(   4) = (   3.0858360   0.0000000  10.0000000  )
         5           Au1 tau(   5) = (   3.0858360   1.7816083  12.5195746  )
         6           Au1 tau(   6) = (   1.5429180   4.4540207  12.5195746  )
         7           Au1 tau(   7) = (  -1.5429180   4.4540207  12.5195746  )
         8           Tl1 tau(   8) = (   0.0000000   1.7816083  12.5195746  )
         9           Au1 tau(   9) = (  -0.0000000   3.5632165  15.0391492  )
        10           Au1 tau(  10) = (   1.5429180   0.8908041  15.0391492  )
        11           Au1 tau(  11) = (   4.6287541   0.8908041  15.0391492  )
        12           Tl1 tau(  12) = (   3.0858360   3.5632165  15.0391492  )

     number of k points=    20  Fermi-Dirac smearing, width (Ry)=  0.0110
                       cart. coord. in units 2pi/alat
        k(    1) = (   0.0000000   0.0000000   0.0000000), wk =   0.0555556
        k(    2) = (   0.0000000   0.0311828   0.0000000), wk =   0.1111111
        k(    3) = (   0.0000000   0.0623656   0.0000000), wk =   0.1111111
        k(    4) = (   0.0000000  -0.0935484   0.0000000), wk =   0.0555556
        k(    5) = (   0.0270051   0.0155914   0.0000000), wk =   0.1111111
        k(    6) = (   0.0270051   0.0467742   0.0000000), wk =   0.1111111
        k(    7) = (   0.0270051   0.0779570   0.0000000), wk =   0.1111111
        k(    8) = (   0.0270051  -0.0779570   0.0000000), wk =   0.1111111
        k(    9) = (   0.0270051  -0.0467742   0.0000000), wk =   0.1111111
        k(   10) = (   0.0270051  -0.0155914   0.0000000), wk =   0.1111111
        k(   11) = (   0.0540102   0.0311828   0.0000000), wk =   0.1111111
        k(   12) = (   0.0540102   0.0623656   0.0000000), wk =   0.1111111
        k(   13) = (   0.0540102   0.0935484   0.0000000), wk =   0.1111111
        k(   14) = (   0.0540102  -0.0623656   0.0000000), wk =   0.1111111
        k(   15) = (   0.0540102  -0.0311828   0.0000000), wk =   0.1111111
        k(   16) = (   0.0540102   0.0000000   0.0000000), wk =   0.1111111
        k(   17) = (  -0.0810153  -0.0467742   0.0000000), wk =   0.0555556
        k(   18) = (  -0.0810153  -0.0155914   0.0000000), wk =   0.1111111
        k(   19) = (  -0.0810153   0.0155914   0.0000000), wk =   0.1111111
        k(   20) = (  -0.0810153  -0.1403227   0.0000000), wk =   0.0555556

     Largest allocated arrays     est. size (Mb)     dimensions
     Largest temporary arrays     est. size (Mb)     dimensions

     Check: negative/imaginary core charge=   -0.000002    0.000000

     Initial potential from superposition of free atoms
     Check: negative starting charge=   -0.156117

     starting charge  137.98430, renormalised to  138.00000

     negative rho (up, down):  1.561E-01 0.000E+00

     *
     * You are using vdW-DF for exchange-correlation in this calculation.
     * Please cite the following three references that made this development
     * possible:
     *
     *   M. Dion, H. Rydberg, E. Schroder, D. C. Langreth, and
     *   B. I. Lundqvist, Phys. Rev. Lett. 92, 246401 (2004).
     *
     *   T. Thonhauser, V. R. Cooper, S. Li, A. Puzder, P. Hyldgaard, and
     *   D. C. Langreth, Phys. Rev. B 76, 125112 (2007).
     *
     *   G. Roman-Perez and J. M. Soler, Phys. Rev. Lett. 103, 096102 (2009).
     *
     *
     * If you are using vdW-DF2, please also cite:
     *
     *   K. Lee, E. D. Murray, L. Kong, B. I. Lundqvist, and
     *   D. C. Langreth, Phys. Rev. B 82, 081101(R) (2010).
     *
     *
     * If you are calculating the stress with vdW-DF, please also cite:
     *
     *   R. Sabatini, E. Kucukbenli, B. Kolb, T. Thonhauser, and
     *   S. de Gironcoli, J. Phys.: Condens. Matter 24, 424209 (2012).
     *

     Carrying out vdW-DF run using the following parameters:

     Nqs =      20    Nr_points =    1024   r_max =   100.000
     q_mesh =
               0.00001000     0.04494208     0.09755937     0.15916263
               0.23128650     0.31572767     0.41458969     0.53033537
               0.66584808     0.82450364     1.01025438     1.22772762
               1.48234092     1.78043706     2.12944203     2.53805004
               3.01644009     3.57652955     4.23227104     5.00000000

     Gradients computed in reciprocal space

     Adding external electric field

     Computed dipole along edir(3) :
        Dipole                0.0000 Ry au,          0.0000 Debye
        Dipole field          0.0000 Ry au

        Potential amp.       -0.0000 Ry
        Total length         46.1342 bohr

     Starting wfc are  108 randomized atomic wfcs

     Self-consistent Calculation

     iteration #  1     ecut=    36.75 Ry     beta=0.10
     Davidson diagonalization with overlap
     ethr =  1.00E-02,  avg # of iterations =  8.2

     Threshold (ethr) on eigenvalues was too large:
     Diagonalizing with lowered threshold

     Davidson diagonalization with overlap
     ethr =  1.12E-04,  avg # of iterations =  7.8

[...]

     total energy              =   -1490.70754898 Ry
     Harris-Foulkes estimate   =   -1490.73060762 Ry
     estimated scf accuracy    <       0.18046610 Ry

[...]

     End of self-consistent calculation

          k = 0.0000 0.0000 0.0000 ( 20971 PWs)   bands (ev):

   -11.3314 -11.3314 -11.3140 -11.2923 -11.2923 -11.2420 -11.2279 -11.2161
   -11.2161 -11.2106 -11.2106 -11.1635 -11.1635 -11.1492 -11.1492  -8.5151
    -7.1543  -6.8619  -5.3285  -5.0550  -4.9880  -4.6808  -4.6808  -4.4896
    -4.4398  -4.4398  -4.3071  -4.3071  -4.1547  -4.1547  -3.9538  -3.7702
    -3.7702  -3.5534  -3.5198  -3.5198  -3.4442  -3.3241  -3.1398  -3.1398
    -3.1139  -3.0403  -3.0403  -2.9202  -2.9201  -2.6625  -2.6509  -2.6509
    -2.5892  -2.5892  -2.4261  -2.4261  -2.3930  -2.3930  -2.2436  -2.2436
    -2.1489  -1.9575  -1.9098  -1.9098  -1.9018  -1.6732  -1.6474  -0.8429
    -0.5662  -0.3563  -0.3563   0.0153   0.2916   0.2916   0.4411   0.6571
     0.6571   1.0529   2.1290   2.1290   2.2867   3.0087   3.0899   3.0899
     3.6343   3.6343   3.8762   4.5570   4.7060   5.7574   5.7638   6.4570
     6.5086   7.1731   7.1731   7.5185   7.5185   7.6386   7.9762   8.6380
     8.6381   8.8481   8.9160

[...]

          k =-0.0810-0.0468 0.0000 ( 20964 PWs)   bands (ev):

[...]

     the Fermi energy is     0.3252 ev

!    total energy              =   -1490.69015274 Ry
     Harris-Foulkes estimate   =   -1490.69014760 Ry
     estimated scf accuracy    <       0.00000035 Ry

     The total energy is the sum of the following terms:

     one-electron contribution =   -8047.44705844 Ry
     hartree contribution      =    4116.32074929 Ry
     xc contribution           =    -768.13296816 Ry
     ewald contribution        =    3208.60180960 Ry
     electric field correction =       0.00000000 Ry
     smearing contrib. (-TS)   =      -0.03268503 Ry

     convergence has been achieved in  13 iterations

 BEEF-vdW xc energy contributions
           1 :   -685.466770182469
           2 :    636.891171787143
           3 :   -550.420955411081
           4 :    443.447798249217
           5 :   -334.439501835205
           6 :    237.905263401969
           7 :   -161.596990032428
           8 :    106.434843597789
           9 :   -68.6501177423282
[...]
     Generated by new atomic code, or converted to UPF format
     Using radial grid of  985 points,  7 beta functions with:
                l(1) =   0
                l(2) =   0
                l(3) =   1
                l(4) =   1
                l(5) =   2
                l(6) =   2
                l(7) =   3
     Q(r) pseudized with  6 coefficients,  rinner =    1.900   1.900   1.900
                                                       1.900   1.900   1.900
                                                       1.900

     PseudoPot. # 2 for Tl read from file:
     /afs/slac.stanford.edu/u/if/mamunm/psp/gbrv1.5pbe/Tl.UPF
     MD5 check sum: b76cf1f7e72655a2b2c53cf6385d7059
     Pseudo is Ultrasoft + core correction, Zval = 13.0
     Generated by new atomic code, or converted to UPF format
     Using radial grid of  899 points,  6 beta functions with:
                l(1) =   0
                l(2) =   0
                l(3) =   1
                l(4) =   1
                l(5) =   2
                l(6) =   2
     Q(r) pseudized with  6 coefficients,  rinner =    1.100   1.100   1.100
                                                       1.100   1.100

     vdW kernel table read from file vdW_kernel_table
     MD5 check sum: 095c7af220d748ca6e76c0b4c6cfb241

     atomic species   valence    mass     pseudopotential
        Au1           11.00   196.96657     Au( 1.00)
        Tl1           13.00   204.38000     Tl( 1.00)

     No symmetry found

   Cartesian axes

     site n.     atom                  positions (alat units)
         1           Au1 tau(   1) = (   0.0000000   0.0000000  10.0000000  )
         2           Au1 tau(   2) = (  -1.5429180   2.6724124  10.0000000  )
         3           Au1 tau(   3) = (   1.5429180   2.6724124  10.0000000  )
         4           Tl1 tau(   4) = (   3.0858360   0.0000000  10.0000000  )
         5           Au1 tau(   5) = (   3.0858360   1.7816083  12.5195746  )
         6           Au1 tau(   6) = (   1.5429180   4.4540207  12.5195746  )
         7           Au1 tau(   7) = (  -1.5429180   4.4540207  12.5195746  )
         8           Tl1 tau(   8) = (   0.0000000   1.7816083  12.5195746  )
         9           Au1 tau(   9) = (  -0.0000450   3.5991656  15.0131194  )
        10           Au1 tau(  10) = (   1.5740244   0.8728171  15.0131612  )
        11           Au1 tau(  11) = (   4.5976466   0.8728985  15.0131282  )
        12           Tl1 tau(  12) = (   3.0857639   3.5631974  16.1703627  )

     number of k points=    20  Fermi-Dirac smearing, width (Ry)=  0.0110
                       cart. coord. in units 2pi/alat
        k(    1) = (   0.0000000   0.0000000   0.0000000), wk =   0.0555556
        k(    2) = (   0.0000000   0.0311828   0.0000000), wk =   0.1111111
        k(    3) = (   0.0000000   0.0623656   0.0000000), wk =   0.1111111
        k(    4) = (   0.0000000  -0.0935484   0.0000000), wk =   0.0555556
        k(    5) = (   0.0270051   0.0155914   0.0000000), wk =   0.1111111
        k(    6) = (   0.0270051   0.0467742   0.0000000), wk =   0.1111111
        k(    7) = (   0.0270051   0.0779570   0.0000000), wk =   0.1111111
        k(    8) = (   0.0270051  -0.0779570   0.0000000), wk =   0.1111111
        k(    9) = (   0.0270051  -0.0467742   0.0000000), wk =   0.1111111
        k(   10) = (   0.0270051  -0.0155914   0.0000000), wk =   0.1111111
        k(   11) = (   0.0540102   0.0311828   0.0000000), wk =   0.1111111
        k(   12) = (   0.0540102   0.0623656   0.0000000), wk =   0.1111111
        k(   13) = (   0.0540102   0.0935484   0.0000000), wk =   0.1111111
        k(   14) = (   0.0540102  -0.0623656   0.0000000), wk =   0.1111111
        k(   15) = (   0.0540102  -0.0311828   0.0000000), wk =   0.1111111
        k(   16) = (   0.0540102   0.0000000   0.0000000), wk =   0.1111111
        k(   17) = (  -0.0810153  -0.0467742   0.0000000), wk =   0.0555556
        k(   18) = (  -0.0810153  -0.0155914   0.0000000), wk =   0.1111111
        k(   19) = (  -0.0810153   0.0155914   0.0000000), wk =   0.1111111
        k(   20) = (  -0.0810153  -0.1403227   0.0000000), wk =   0.0555556

     Largest allocated arrays     est. size (Mb)     dimensions
     Largest temporary arrays     est. size (Mb)     dimensions

     Check: negative/imaginary core charge=   -0.000002    0.000000

     Initial potential from superposition of free atoms
     Check: negative starting charge=   -0.156268

     starting charge  137.98430, renormalised to  138.00000

[...]

     *
     * You are using vdW-DF for exchange-correlation in this calculation.
     * Please cite the following three references that made this development
     * possible:
     *
     *   M. Dion, H. Rydberg, E. Schroder, D. C. Langreth, and
     *   B. I. Lundqvist, Phys. Rev. Lett. 92, 246401 (2004).
     *
     *   T. Thonhauser, V. R. Cooper, S. Li, A. Puzder, P. Hyldgaard, and
     *   D. C. Langreth, Phys. Rev. B 76, 125112 (2007).
     *
     *   G. Roman-Perez and J. M. Soler, Phys. Rev. Lett. 103, 096102 (2009).
     *
     *
     * If you are using vdW-DF2, please also cite:
     *
     *   K. Lee, E. D. Murray, L. Kong, B. I. Lundqvist, and
     *   D. C. Langreth, Phys. Rev. B 82, 081101(R) (2010).
     *
     *
     * If you are calculating the stress with vdW-DF, please also cite:
     *
     *   R. Sabatini, E. Kucukbenli, B. Kolb, T. Thonhauser, and
     *   S. de Gironcoli, J. Phys.: Condens. Matter 24, 424209 (2012).
     *

     Carrying out vdW-DF run using the following parameters:

     Nqs =      20    Nr_points =    1024   r_max =   100.000
     q_mesh =
               0.00001000     0.04494208     0.09755937     0.15916263
               0.23128650     0.31572767     0.41458969     0.53033537
               0.66584808     0.82450364     1.01025438     1.22772762
               1.48234092     1.78043706     2.12944203     2.53805004
               3.01644009     3.57652955     4.23227104     5.00000000

     Gradients computed in reciprocal space

[...]

     Starting wfc are  108 randomized atomic wfcs

     Self-consistent Calculation

[...]

     Threshold (ethr) on eigenvalues was too large:
     Diagonalizing with lowered threshold

     Davidson diagonalization with overlap
     ethr =  1.10E-04,  avg # of iterations =  7.2

[...]

     total energy              =   -1490.74020271 Ry
     Harris-Foulkes estimate   =   -1490.74019710 Ry
     estimated scf accuracy    <       0.00000342 Ry

     iteration # 13     ecut=    36.75 Ry     beta=0.10
     Davidson diagonalization with overlap
     ethr =  2.48E-09,  avg # of iterations =  2.0

[...]

     negative rho (up, down):  1.645E-01 0.000E+00

     Adding external electric field

     Computed dipole along edir(3) :
        Dipole                0.2515 Ry au,          0.6394 Debye
        Dipole field          0.0006 Ry au

        Potential amp.       -0.0523 Ry
        Total length         46.1342 bohr

     End of self-consistent calculation

[...]

          k = 0.0540 0.0000 0.0000 ( 20971 PWs)   bands (ev):

[...]

          k =-0.0810-0.1403 0.0000 ( 20964 PWs)   bands (ev):

   -11.0008 -10.9686 -10.9594 -10.9481 -10.9420 -10.9361 -10.9342 -10.9321
   -10.9273 -10.9011 -10.8956 -10.8908 -10.8858 -10.8796 -10.8568  -6.9891
    -6.4895  -5.5179  -5.1084  -4.6507  -4.5110  -4.2067  -4.1930  -4.0322
    -3.9429  -3.8337  -3.7773  -3.7557  -3.7059  -3.6563  -3.5768  -3.5603
    -3.3891  -3.3572  -3.2817  -3.2144  -3.1125  -3.0601  -3.0247  -3.0037
    -2.9650  -2.8933  -2.8909  -2.8634  -2.8289  -2.7462  -2.6991  -2.6901
    -2.6424  -2.5730  -2.5523  -2.5226  -2.4829  -2.4801  -2.3966  -2.3640
    -2.3490  -2.2190  -2.1894  -2.1403  -2.0302  -1.8985  -1.6873  -1.5910
    -1.4901  -1.0812  -0.5950  -0.1093   0.2531   0.6233   0.7232   2.1761
     2.3716   2.4843   3.7199   4.2079   4.3471   4.4941   4.6518   4.7147
     5.2090   5.4408   5.5401   5.6554   5.7728   5.8784   6.1855   6.2460
     6.4595   6.6375   6.9433   7.0204   7.1010   7.1430   7.3006   7.5209
     7.6110   7.8420   8.2106

     the Fermi energy is     0.6094 ev

!    total energy              =   -1490.74022956 Ry
     Harris-Foulkes estimate   =   -1490.74020073 Ry
     estimated scf accuracy    <       0.00000080 Ry

     The total energy is the sum of the following terms:

     one-electron contribution =   -7665.34218746 Ry
     hartree contribution      =    3926.68824601 Ry
     xc contribution           =    -767.98587919 Ry
     ewald contribution        =    3015.92681117 Ry
     electric field correction =       0.00014265 Ry
     smearing contrib. (-TS)   =      -0.02736275 Ry

     convergence has been achieved in  13 iterations

 BEEF-vdW xc energy contributions
           1 :   -685.982931465385
           2 :    637.214256318741
           3 :   -550.521253752047
           4 :    443.492642468340
           5 :   -334.678876303212
           6 :    238.495710864335
           7 :   -162.489551370123
           8 :    107.403647355589
           9 :   -69.4407741003337
          10 :    43.3433562182365
          11 :   -24.8695550076047
          12 :    11.7825458146401
          13 :   -3.38772700758909
          14 :  -0.662288898607471
          15 :    1.36576526631279
          16 :  -0.597855165113515
          17 :   0.529495589099952
          18 :   -2.68721658268669
          19 :    7.24893826624054
          20 :   -13.0082140527477
          21 :    18.0296318345253
          22 :   -20.6358931094341
          23 :    20.1925215514873
          24 :   -17.3091172904495
          25 :    13.4100909015028
          26 :   -9.96643845903577
          27 :    7.82165119656577
          28 :   -6.95189760036624
          29 :    6.71796959776850
          30 :   -6.39833247064485
          31 :   -54.3165784610221
          32 :   -39.5230084684403

     Forces acting on atoms (Ry/au):

     negative rho (up, down):  1.645E-01 0.000E+00
     atom    1 type  1   force =    -0.00000239   -0.00262465   -0.00243491
     atom    2 type  1   force =    -0.00227383    0.00131411   -0.00243561
     atom    3 type  1   force =     0.00228008    0.00131433   -0.00244095
     atom    4 type  2   force =    -0.00000151    0.00000063   -0.03117122
     atom    5 type  1   force =    -0.00000081    0.00932262    0.01048419
     atom    6 type  1   force =     0.00807432   -0.00466369    0.01048150
     atom    7 type  1   force =    -0.00807431   -0.00465871    0.01047697
     atom    8 type  2   force =     0.00000310    0.00000056    0.00614669
     atom    9 type  1   force =    -0.00000058    0.00019412    0.00022334
     atom   10 type  1   force =     0.00016781   -0.00009896    0.00022076
     atom   11 type  1   force =    -0.00017008   -0.00009990    0.00022259
     atom   12 type  2   force =    -0.00000182   -0.00000045    0.00022663

     Total force =     0.040479     Total SCF correction =     0.003523

     entering subroutine stress ...

     negative rho (up, down):  1.645E-01 0.000E+00
          total   stress  (Ry/bohr**3)                   (kbar)     P=  -11.80
  -0.00012738  -0.00000000  -0.00000000        -18.74     -0.00     -0.00
  -0.00000000  -0.00012738   0.00000000         -0.00    -18.74      0.00
  -0.00000000   0.00000000   0.00001415         -0.00      0.00      2.08

 !ASE

     Writing output data file calc.save

     General routines

     Parallel routines

   This run was terminated on:  21:48:21  19Dec2018

   JOB DONE.
Job  /afs/slac/g/suncat/bin/suncat-tsmpirun -x LD_LIBRARY_PATH -wdir /scratch/qe773400_KYNCH pw.x -in pw.inp

TID   HOST_NAME   COMMAND_LINE            STATUS            TERMINATION_TIME
00000 suncat0089 pw.x -in pw.inp   Done                     12/19/2018 21:48:21
00001 suncat0089 pw.x -in pw.inp   Done                     12/19/2018 21:48:21
00002 suncat0089 pw.x -in pw.inp   Done                     12/19/2018 21:48:21
00003 suncat0089 pw.x -in pw.inp   Done                     12/19/2018 21:48:21
00004 suncat0089 pw.x -in pw.inp   Done                     12/19/2018 21:48:21
00005 suncat0089 pw.x -in pw.inp   Done                     12/19/2018 21:48:21
00006 suncat0089 pw.x -in pw.inp   Done                     12/19/2018 21:48:21
00007 suncat0089 pw.x -in pw.inp   Done                     12/19/2018 21:48:21
00008 suncat0088 pw.x -in pw.inp   Done                     12/19/2018 21:48:21
00009 suncat0088 pw.x -in pw.inp   Done                     12/19/2018 21:48:21
00010 suncat0088 pw.x -in pw.inp   Done                     12/19/2018 21:48:21
00011 suncat0088 pw.x -in pw.inp   Done                     12/19/2018 21:48:21
00012 suncat0088 pw.x -in pw.inp   Done                     12/19/2018 21:48:21
00013 suncat0088 pw.x -in pw.inp   Done                     12/19/2018 21:48:21
00014 suncat0088 pw.x -in pw.inp   Done                     12/19/2018 21:48:21
00015 suncat0088 pw.x -in pw.inp   Done                     12/19/2018 21:48:21
00016 suncat0087 pw.x -in pw.inp   Done                     12/19/2018 21:48:21
00017 suncat0087 pw.x -in pw.inp   Done                     12/19/2018 21:48:21
00018 suncat0087 pw.x -in pw.inp   Done                     12/19/2018 21:48:21
00019 suncat0087 pw.x -in pw.inp   Done                     12/19/2018 21:48:21
00020 suncat0087 pw.x -in pw.inp   Done                     12/19/2018 21:48:21
00021 suncat0087 pw.x -in pw.inp   Done                     12/19/2018 21:48:21
00022 suncat0087 pw.x -in pw.inp   Done                     12/19/2018 21:48:21
00023 suncat0087 pw.x -in pw.inp   Done                     12/19/2018 21:48:21
00024 suncat0086 pw.x -in pw.inp   Done                     12/19/2018 21:48:21
00025 suncat0086 pw.x -in pw.inp   Done                     12/19/2018 21:48:21
00026 suncat0086 pw.x -in pw.inp   Done                     12/19/2018 21:48:21
00027 suncat0086 pw.x -in pw.inp   Done                     12/19/2018 21:48:21
00028 suncat0086 pw.x -in pw.inp   Done                     12/19/2018 21:48:21
00029 suncat0086 pw.x -in pw.inp   Done                     12/19/2018 21:48:21
00030 suncat0086 pw.x -in pw.inp   Done                     12/19/2018 21:48:21
00031 suncat0086 pw.x -in pw.inp   Done                     12/19/2018 21:48:21
00032 suncat0085 pw.x -in pw.inp   Done                     12/19/2018 21:48:21
00033 suncat0085 pw.x -in pw.inp   Done                     12/19/2018 21:48:21
00034 suncat0085 pw.x -in pw.inp   Done                     12/19/2018 21:48:21
00035 suncat0085 pw.x -in pw.inp   Done                     12/19/2018 21:48:21
00036 suncat0085 pw.x -in pw.inp   Done                     12/19/2018 21:48:21
00037 suncat0085 pw.x -in pw.inp   Done                     12/19/2018 21:48:21
00038 suncat0085 pw.x -in pw.inp   Done                     12/19/2018 21:48:21
00039 suncat0085 pw.x -in pw.inp   Done                     12/19/2018 21:48:21
00040 suncat0084 pw.x -in pw.inp   Done                     12/19/2018 21:48:21
00041 suncat0084 pw.x -in pw.inp   Done                     12/19/2018 21:48:21
00042 suncat0084 pw.x -in pw.inp   Done                     12/19/2018 21:48:21
00043 suncat0084 pw.x -in pw.inp   Done                     12/19/2018 21:48:21
00044 suncat0084 pw.x -in pw.inp   Done                     12/19/2018 21:48:21
00045 suncat0084 pw.x -in pw.inp   Done                     12/19/2018 21:48:21
00046 suncat0084 pw.x -in pw.inp   Done                     12/19/2018 21:48:21
00047 suncat0084 pw.x -in pw.inp   Done                     12/19/2018 21:48:21
00048 suncat0100 pw.x -in pw.inp   Done                     12/19/2018 21:48:21
00049 suncat0100 pw.x -in pw.inp   Done                     12/19/2018 21:48:21
00050 suncat0100 pw.x -in pw.inp   Done                     12/19/2018 21:48:21
00051 suncat0100 pw.x -in pw.inp   Done                     12/19/2018 21:48:21
00052 suncat0100 pw.x -in pw.inp   Done                     12/19/2018 21:48:21
00053 suncat0100 pw.x -in pw.inp   Done                     12/19/2018 21:48:21
00054 suncat0100 pw.x -in pw.inp   Done                     12/19/2018 21:48:21
00055 suncat0100 pw.x -in pw.inp   Done                     12/19/2018 21:48:21
00056 suncat0283 pw.x -in pw.inp   Done                     12/19/2018 21:48:21
00057 suncat0283 pw.x -in pw.inp   Done                     12/19/2018 21:48:21
00058 suncat0283 pw.x -in pw.inp   Done                     12/19/2018 21:48:21
00059 suncat0283 pw.x -in pw.inp   Done                     12/19/2018 21:48:21
00060 suncat0283 pw.x -in pw.inp   Done                     12/19/2018 21:48:21
00061 suncat0283 pw.x -in pw.inp   Done                     12/19/2018 21:48:21
00062 suncat0283 pw.x -in pw.inp   Done                     12/19/2018 21:48:21
00063 suncat0283 pw.x -in pw.inp   Done                     12/19/2018 21:48:21