     Program PWSCF v.5.1rc2 (svn rev. 11289) starts on 19Dec2018 at 20:58:51

     Current dimensions of program PWSCF are:
     Max number of different atomic species (ntypx) = 10
     Max number of k-points (npk) =  40000
     Max angular momentum in pseudopotentials (lmaxx) =  3
     Presently stress not available with electric field

     IMPORTANT: XC functional enforced from input :
     Exchange-correlation      = BEEF-VDW ( 1  4 27 13 2)
     Any further DFT definition will be discarded
     Please, verify this is what you really want

     Subspace diagonalization in iterative solution of the eigenvalue problem:
     a serial algorithm will be used

     bravais-lattice index     =            0
     lattice parameter (alat)  =       1.8897  a.u.
     unit-cell volume          =    6971.2504 (a.u.)^3
     number of atoms/cell      =           12
     number of atomic types    =            2
     number of electrons       =       141.00
     number of Kohn-Sham states=          100
     kinetic-energy cutoff     =      36.7493  Ry
     charge density cutoff     =     367.4932  Ry
     convergence threshold     =      1.0E-06
     mixing beta               =       0.1000
     number of iterations used =           10  plain     mixing
     Exchange-correlation      = BEEF-VDW ( 1  4 27 13 2)
     nstep                     =           50

     celldm(1)=   1.889726  celldm(2)=   0.000000  celldm(3)=   0.000000
     celldm(4)=   0.000000  celldm(5)=   0.000000  celldm(6)=   0.000000

     crystal axes: (cart. coord. in units of alat)
               a(1) = (   6.829277   0.000000   0.000000 )
               a(2) = (  -3.414638   5.914327   0.000000 )
               a(3) = (   0.000000   0.000000  25.576081 )

     reciprocal axes: (cart. coord. in units 2 pi/alat)
               b(1) = (  0.146428  0.084540  0.000000 )
               b(2) = (  0.000000  0.169081  0.000000 )
               b(3) = (  0.000000  0.000000  0.039099 )

     PseudoPot. # 1 for Cd read from file:
     /afs/slac.stanford.edu/u/if/mamunm/psp/gbrv1.5pbe/Cd.UPF
     MD5 check sum: 17164a7926edb8e0dc231208abae86a6
     Pseudo is Ultrasoft + core correction, Zval = 12.0
     Generated by new atomic code, or converted to UPF format
     Using radial grid of  889 points,  6 beta functions with:
                l(1) =   0
                l(2) =   0
                l(3) =   1
                l(4) =   1
                l(5) =   2
                l(6) =   2
     Q(r) pseudized with  6 coefficients,  rinner =    1.000   1.000   1.000
                                                       1.000   1.000

     PseudoPot. # 2 for La read from file:
     /afs/slac.stanford.edu/u/if/mamunm/psp/gbrv1.5pbe/La.UPF
     MD5 check sum: 5937b0c7494ba0601a847275249473aa
     Pseudo is Ultrasoft + core correction, Zval = 11.0
     Generated by new atomic code, or converted to UPF format
     Using radial grid of  995 points,  8 beta functions with:
                l(1) =   0
                l(2) =   0
                l(3) =   1
                l(4) =   1
                l(5) =   2
                l(6) =   2
                l(7) =   3
                l(8) =   3
     Q(r) pseudized with  8 coefficients,  rinner =    1.700   1.700   1.700
                                                       1.700   1.700   1.700
                                                       1.700

     vdW kernel table read from file vdW_kernel_table
     MD5 check sum: 095c7af220d748ca6e76c0b4c6cfb241

     atomic species   valence    mass     pseudopotential
        Cd1           12.00   112.41400     Cd( 1.00)
        La1           11.00   138.90547     La( 1.00)

     No symmetry found

   Cartesian axes

     site n.     atom                  positions (alat units)
         1           Cd1 tau(   1) = (   0.0000000   0.0000000  10.0000000  )
         2           Cd1 tau(   2) = (  -1.7073192   2.9571637  10.0000000  )
         3           Cd1 tau(   3) = (   1.7073192   2.9571637  10.0000000  )
         4           La1 tau(   4) = (   3.4146385   0.0000000  10.0000000  )
         5           Cd1 tau(   5) = (   3.4146385   1.9714424  12.7880406  )
         6           Cd1 tau(   6) = (   1.7073192   4.9286061  12.7880406  )
         7           Cd1 tau(   7) = (  -1.7073192   4.9286061  12.7880406  )
         8           La1 tau(   8) = (   0.0000000   1.9714424  12.7880406  )
         9           Cd1 tau(   9) = (  -0.0000000   3.9428849  15.5760813  )
        10           Cd1 tau(  10) = (   1.7073192   0.9857212  15.5760813  )
        11           Cd1 tau(  11) = (   5.1219577   0.9857212  15.5760813  )
        12           La1 tau(  12) = (   3.4146385   3.9428849  15.5760813  )

     number of k points=    20  Fermi-Dirac smearing, width (Ry)=  0.0110
                       cart. coord. in units 2pi/alat
        k(    1) = (   0.0000000   0.0000000   0.0000000), wk =   0.0555556
        k(    2) = (   0.0000000   0.0281802   0.0000000), wk =   0.1111111
        k(    3) = (   0.0000000   0.0563603   0.0000000), wk =   0.1111111
        k(    4) = (   0.0000000  -0.0845405   0.0000000), wk =   0.0555556
        k(    5) = (   0.0244047   0.0140901   0.0000000), wk =   0.1111111
        k(    6) = (   0.0244047   0.0422702   0.0000000), wk =   0.1111111
        k(    7) = (   0.0244047   0.0704504   0.0000000), wk =   0.1111111
        k(    8) = (   0.0244047  -0.0704504   0.0000000), wk =   0.1111111
        k(    9) = (   0.0244047  -0.0422702   0.0000000), wk =   0.1111111
        k(   10) = (   0.0244047  -0.0140901   0.0000000), wk =   0.1111111
        k(   11) = (   0.0488095   0.0281802   0.0000000), wk =   0.1111111
        k(   12) = (   0.0488095   0.0563603   0.0000000), wk =   0.1111111
        k(   13) = (   0.0488095   0.0845405   0.0000000), wk =   0.1111111
        k(   14) = (   0.0488095  -0.0563603   0.0000000), wk =   0.1111111
        k(   15) = (   0.0488095  -0.0281802   0.0000000), wk =   0.1111111
        k(   16) = (   0.0488095   0.0000000   0.0000000), wk =   0.1111111
        k(   17) = (  -0.0732142  -0.0422702   0.0000000), wk =   0.0555556
        k(   18) = (  -0.0732142  -0.0140901   0.0000000), wk =   0.1111111
        k(   19) = (  -0.0732142   0.0140901   0.0000000), wk =   0.1111111
        k(   20) = (  -0.0732142  -0.1268107   0.0000000), wk =   0.0555556

     Largest allocated arrays     est. size (Mb)     dimensions
     Largest temporary arrays     est. size (Mb)     dimensions

     Initial potential from superposition of free atoms
     Check: negative starting charge=   -0.408267

     starting charge  136.40342, renormalised to  141.00000

     negative rho (up, down):  4.220E-01 0.000E+00

     *
     * You are using vdW-DF for exchange-correlation in this calculation.
     * Please cite the following three references that made this development
     * possible:
     *
     *   M. Dion, H. Rydberg, E. Schroder, D. C. Langreth, and
     *   B. I. Lundqvist, Phys. Rev. Lett. 92, 246401 (2004).
     *
     *   T. Thonhauser, V. R. Cooper, S. Li, A. Puzder, P. Hyldgaard, and
     *   D. C. Langreth, Phys. Rev. B 76, 125112 (2007).
     *
     *   G. Roman-Perez and J. M. Soler, Phys. Rev. Lett. 103, 096102 (2009).
     *
     *
     * If you are using vdW-DF2, please also cite:
     *
     *   K. Lee, E. D. Murray, L. Kong, B. I. Lundqvist, and
     *   D. C. Langreth, Phys. Rev. B 82, 081101(R) (2010).
     *
     *
     * If you are calculating the stress with vdW-DF, please also cite:
     *
     *   R. Sabatini, E. Kucukbenli, B. Kolb, T. Thonhauser, and
     *   S. de Gironcoli, J. Phys.: Condens. Matter 24, 424209 (2012).
     *

     Carrying out vdW-DF run using the following parameters:

     Nqs =      20    Nr_points =    1024   r_max =   100.000
     q_mesh =
               0.00001000     0.04494208     0.09755937     0.15916263
               0.23128650     0.31572767     0.41458969     0.53033537
               0.66584808     0.82450364     1.01025438     1.22772762
               1.48234092     1.78043706     2.12944203     2.53805004
               3.01644009     3.57652955     4.23227104     5.00000000

     Gradients computed in reciprocal space

     Adding external electric field

     Computed dipole along edir(3) :
        Dipole               -0.0000 Ry au,         -0.0000 Debye
        Dipole field         -0.0000 Ry au

        Potential amp.        0.0000 Ry
        Total length         47.1235 bohr

     Starting wfc are  141 randomized atomic wfcs

     Self-consistent Calculation

     iteration #  1     ecut=    36.75 Ry     beta=0.10
     Davidson diagonalization with overlap
     ethr =  1.00E-02,  avg # of iterations =  1.1

     Threshold (ethr) on eigenvalues was too large:
     Diagonalizing with lowered threshold

     Davidson diagonalization with overlap
     ethr =  6.85E-04,  avg # of iterations =  2.0

[...]

     total energy              =   -1357.05902127 Ry
     Harris-Foulkes estimate   =   -1357.21716131 Ry
     estimated scf accuracy    <       0.98423309 Ry

[...]

     End of self-consistent calculation

          k = 0.0000 0.0000 0.0000 ( 26229 PWs)   bands (ev):

   -32.8292 -32.8290 -32.5168 -16.4694 -16.4608 -16.3654 -16.3654 -16.3642
   -16.3642 -16.1697 -16.0958 -16.0958  -8.0881  -8.0657  -8.0657  -8.0582
    -8.0205  -8.0111  -8.0111  -7.9895  -7.9505  -7.9505  -7.9394  -7.9179
    -7.9114  -7.9114  -7.8860  -7.8517  -7.8517  -7.8326  -7.8326  -7.8165
    -7.7584  -7.7584  -7.7545  -7.7545  -7.7480  -7.7019  -7.6927  -7.6659
    -7.6659  -7.6438  -7.6438  -7.6345  -7.6345  -7.5879  -7.5879  -7.5265
    -7.5265  -7.4722  -7.4684  -7.4684  -7.4348  -7.4220  -7.3780  -7.3780
    -7.3150  -5.2592  -4.1375  -2.6864  -1.6723  -1.6723  -1.1310  -1.1310
    -0.5544  -0.5544  -0.2640   0.1034   0.5272   0.8545   0.9033   0.9033
     1.4254   1.6491   1.6491   1.6876   1.6876   1.9277   1.9277   1.9890
     1.9890   1.9997   2.0192   2.0237   2.0242   2.1467   2.1467   2.1781
     2.1781   2.2061   2.2107   2.3507   2.3880   2.3880   2.4114   2.4271
     2.4271   2.4981   2.4981   2.5218

[...]

          k =-0.0732-0.0423 0.0000 ( 26214 PWs)   bands (ev):

[...]

     the Fermi energy is     0.9603 ev

!    total energy              =   -1356.99353152 Ry
     Harris-Foulkes estimate   =   -1356.99357900 Ry
     estimated scf accuracy    <       0.00000052 Ry

     The total energy is the sum of the following terms:

     one-electron contribution =   -6819.15736596 Ry
     hartree contribution      =    3482.75189168 Ry
     xc contribution           =    -519.02665733 Ry
     ewald contribution        =    2498.50868747 Ry
     electric field correction =       0.00000000 Ry
     smearing contrib. (-TS)   =      -0.07008739 Ry

     convergence has been achieved in  15 iterations

 BEEF-vdW xc energy contributions
           1 :   -456.305215699055
           2 :    417.825205681134
           3 :   -352.133418923920
           4 :    276.717567011331
           5 :   -208.176407963928
           6 :    156.630533126675
           7 :   -123.864197405793
           8 :    105.277672915489
           9 :   -93.9701294947436
[...]
     Using radial grid of  889 points,  6 beta functions with:
                l(1) =   0
                l(2) =   0
                l(3) =   1
                l(4) =   1
                l(5) =   2
                l(6) =   2
     Q(r) pseudized with  6 coefficients,  rinner =    1.000   1.000   1.000
                                                       1.000   1.000

     PseudoPot. # 2 for La read from file:
     /afs/slac.stanford.edu/u/if/mamunm/psp/gbrv1.5pbe/La.UPF
     MD5 check sum: 5937b0c7494ba0601a847275249473aa
     Pseudo is Ultrasoft + core correction, Zval = 11.0
     Generated by new atomic code, or converted to UPF format
     Using radial grid of  995 points,  8 beta functions with:
                l(1) =   0
                l(2) =   0
                l(3) =   1
                l(4) =   1
                l(5) =   2
                l(6) =   2
                l(7) =   3
                l(8) =   3
     Q(r) pseudized with  8 coefficients,  rinner =    1.700   1.700   1.700
                                                       1.700   1.700   1.700
                                                       1.700

     vdW kernel table read from file vdW_kernel_table
     MD5 check sum: 095c7af220d748ca6e76c0b4c6cfb241

     atomic species   valence    mass     pseudopotential
        Cd1           12.00   112.41400     Cd( 1.00)
        La1           11.00   138.90547     La( 1.00)

     No symmetry found

   Cartesian axes

     site n.     atom                  positions (alat units)
         1           Cd1 tau(   1) = (   0.0000000   0.0000000  10.0000000  )
         2           Cd1 tau(   2) = (  -1.7073192   2.9571637  10.0000000  )
         3           Cd1 tau(   3) = (   1.7073192   2.9571637  10.0000000  )
         4           La1 tau(   4) = (   3.4146385   0.0000000  10.0000000  )
         5           Cd1 tau(   5) = (   3.4146385   1.9714424  12.7880406  )
         6           Cd1 tau(   6) = (   1.7073192   4.9286061  12.7880406  )
         7           Cd1 tau(   7) = (  -1.7073192   4.9286061  12.7880406  )
         8           La1 tau(   8) = (   0.0000000   1.9714424  12.7880406  )
         9           Cd1 tau(   9) = (   0.0000207   4.0564451  15.4365234  )
        10           Cd1 tau(  10) = (   1.8056336   0.9289905  15.4365237  )
        11           Cd1 tau(  11) = (   5.0236307   0.9288922  15.4365459  )
        12           La1 tau(  12) = (   3.4146088   3.9428890  15.5849386  )

     number of k points=    20  Fermi-Dirac smearing, width (Ry)=  0.0110
                       cart. coord. in units 2pi/alat
        k(    1) = (   0.0000000   0.0000000   0.0000000), wk =   0.0555556
        k(    2) = (   0.0000000   0.0281802   0.0000000), wk =   0.1111111
        k(    3) = (   0.0000000   0.0563603   0.0000000), wk =   0.1111111
        k(    4) = (   0.0000000  -0.0845405   0.0000000), wk =   0.0555556
        k(    5) = (   0.0244047   0.0140901   0.0000000), wk =   0.1111111
        k(    6) = (   0.0244047   0.0422702   0.0000000), wk =   0.1111111
        k(    7) = (   0.0244047   0.0704504   0.0000000), wk =   0.1111111
        k(    8) = (   0.0244047  -0.0704504   0.0000000), wk =   0.1111111
        k(    9) = (   0.0244047  -0.0422702   0.0000000), wk =   0.1111111
        k(   10) = (   0.0244047  -0.0140901   0.0000000), wk =   0.1111111
        k(   11) = (   0.0488095   0.0281802   0.0000000), wk =   0.1111111
        k(   12) = (   0.0488095   0.0563603   0.0000000), wk =   0.1111111
        k(   13) = (   0.0488095   0.0845405   0.0000000), wk =   0.1111111
        k(   14) = (   0.0488095  -0.0563603   0.0000000), wk =   0.1111111
        k(   15) = (   0.0488095  -0.0281802   0.0000000), wk =   0.1111111
        k(   16) = (   0.0488095   0.0000000   0.0000000), wk =   0.1111111
        k(   17) = (  -0.0732142  -0.0422702   0.0000000), wk =   0.0555556
        k(   18) = (  -0.0732142  -0.0140901   0.0000000), wk =   0.1111111
        k(   19) = (  -0.0732142   0.0140901   0.0000000), wk =   0.1111111
        k(   20) = (  -0.0732142  -0.1268107   0.0000000), wk =   0.0555556

     Largest allocated arrays     est. size (Mb)     dimensions
     Largest temporary arrays     est. size (Mb)     dimensions

     Initial potential from superposition of free atoms
     Check: negative starting charge=   -0.409445

     starting charge  136.40342, renormalised to  141.00000

[...]

     *
     * You are using vdW-DF for exchange-correlation in this calculation.
     * Please cite the following three references that made this development
     * possible:
     *
     *   M. Dion, H. Rydberg, E. Schroder, D. C. Langreth, and
     *   B. I. Lundqvist, Phys. Rev. Lett. 92, 246401 (2004).
     *
     *   T. Thonhauser, V. R. Cooper, S. Li, A. Puzder, P. Hyldgaard, and
     *   D. C. Langreth, Phys. Rev. B 76, 125112 (2007).
     *
     *   G. Roman-Perez and J. M. Soler, Phys. Rev. Lett. 103, 096102 (2009).
     *
     *
     * If you are using vdW-DF2, please also cite:
     *
     *   K. Lee, E. D. Murray, L. Kong, B. I. Lundqvist, and
     *   D. C. Langreth, Phys. Rev. B 82, 081101(R) (2010).
     *
     *
     * If you are calculating the stress with vdW-DF, please also cite:
     *
     *   R. Sabatini, E. Kucukbenli, B. Kolb, T. Thonhauser, and
     *   S. de Gironcoli, J. Phys.: Condens. Matter 24, 424209 (2012).
     *

     Carrying out vdW-DF run using the following parameters:

     Nqs =      20    Nr_points =    1024   r_max =   100.000
     q_mesh =
               0.00001000     0.04494208     0.09755937     0.15916263
               0.23128650     0.31572767     0.41458969     0.53033537
               0.66584808     0.82450364     1.01025438     1.22772762
               1.48234092     1.78043706     2.12944203     2.53805004
               3.01644009     3.57652955     4.23227104     5.00000000

     Gradients computed in reciprocal space

[...]

     Starting wfc are  141 randomized atomic wfcs

     Self-consistent Calculation

[...]

     Threshold (ethr) on eigenvalues was too large:
     Diagonalizing with lowered threshold

     Davidson diagonalization with overlap
     ethr =  7.57E-04,  avg # of iterations =  1.6

[...]

     total energy              =   -1356.99806236 Ry
     Harris-Foulkes estimate   =   -1356.99806744 Ry
     estimated scf accuracy    <       0.00000477 Ry

     iteration # 15     ecut=    36.75 Ry     beta=0.10
     Davidson diagonalization with overlap
     ethr =  3.38E-09,  avg # of iterations =  3.4

[...]

     negative rho (up, down):  3.466E-01 0.000E+00

     Adding external electric field

     Computed dipole along edir(3) :
        Dipole                0.0435 Ry au,          0.1106 Debye
        Dipole field          0.0001 Ry au

        Potential amp.       -0.0074 Ry
        Total length         47.1235 bohr

     End of self-consistent calculation

[...]

          k = 0.0488 0.0000 0.0000 ( 26229 PWs)   bands (ev):

[...]

          k =-0.0732-0.1268 0.0000 ( 26214 PWs)   bands (ev):

   -32.8232 -32.7849 -32.4378 -16.4660 -16.4214 -16.3698 -16.3595 -16.3370
   -16.3259 -16.0919 -16.0407 -16.0298  -8.0412  -7.9823  -7.9726  -7.9501
    -7.9463  -7.9215  -7.9008  -7.8916  -7.8687  -7.8654  -7.8479  -7.8398
    -7.8238  -7.8218  -7.8048  -7.7966  -7.7886  -7.7679  -7.7492  -7.7438
    -7.7405  -7.7308  -7.7208  -7.7172  -7.6928  -7.6927  -7.6770  -7.6645
    -7.6422  -7.6293  -7.6199  -7.6193  -7.5962  -7.5867  -7.5694  -7.5540
    -7.5504  -7.5446  -7.5212  -7.5072  -7.5071  -7.4856  -7.4094  -7.4080
    -7.3149  -4.2621  -3.9847  -3.1921  -2.7535  -2.0291  -1.7619  -1.5353
    -1.0792  -0.4859  -0.0633   0.3109   0.5174   0.8206   1.0318   1.0628
     1.1927   1.2769   1.6814   1.8673   1.9429   2.0178   2.0422   2.0435
     2.0583   2.0638   2.0768   2.0781   2.0994   2.1033   2.1175   2.1240
     2.1509   2.1613   2.2021   2.4160   2.4312   2.4410   2.4481   2.5175
     2.5286   2.5325   2.5619   3.1097

     the Fermi energy is     1.0004 ev

!    total energy              =   -1356.99801339 Ry
     Harris-Foulkes estimate   =   -1356.99806322 Ry
     estimated scf accuracy    <       0.00000068 Ry

     The total energy is the sum of the following terms:

     one-electron contribution =   -6923.48493994 Ry
     hartree contribution      =    3535.08703957 Ry
     xc contribution           =    -519.07133983 Ry
     ewald contribution        =    2550.53839122 Ry
     electric field correction =       0.00000342 Ry
     smearing contrib. (-TS)   =      -0.06716783 Ry

     convergence has been achieved in  15 iterations

 BEEF-vdW xc energy contributions
           1 :   -456.357827542335
           2 :    417.927472878122
           3 :   -352.291243054720
           4 :    276.882201492113
           5 :   -208.276971770200
           6 :    156.627770102885
           7 :   -123.783350553429
           8 :    105.192150011132
           9 :   -93.9478976539068
          10 :    84.6186984629807
          11 :   -75.0566564979266
          12 :    65.8235664946927
          13 :   -58.2804711908688
          14 :    52.9011094676832
          15 :   -48.8327317848281
          16 :    44.6755276739966
          17 :   -39.6486085697408
          18 :    34.2035410864303
          19 :   -29.6859432578211
          20 :    27.3646857144633
          21 :   -27.5460697349713
          22 :    29.3505344084447
          23 :   -31.2346975914488
          24 :    31.8604130657709
          25 :   -30.7507454342639
          26 :    28.3826595463977
          27 :   -25.7611361245465
          28 :    23.8118690245490
          29 :   -22.9589290379068
          30 :    23.0576109929107
          31 :   -40.3371422225147
          32 :   -29.2132031622193

     Forces acting on atoms (Ry/au):

     negative rho (up, down):  3.466E-01 0.000E+00
     atom    1 type  1   force =    -0.00000226   -0.00727812    0.00517271
     atom    2 type  1   force =    -0.00630075    0.00364035    0.00516071
     atom    3 type  1   force =     0.00630081    0.00363886    0.00516583
     atom    4 type  2   force =    -0.00000087   -0.00000069   -0.00057551
     atom    5 type  1   force =    -0.00000138    0.00145625   -0.00352276
     atom    6 type  1   force =     0.00125921   -0.00072747   -0.00352156
     atom    7 type  1   force =    -0.00126260   -0.00073073   -0.00351870
     atom    8 type  2   force =    -0.00000084    0.00000001   -0.00361019
     atom    9 type  1   force =    -0.00000649    0.00025617   -0.00020170
     atom   10 type  1   force =     0.00021971   -0.00012868   -0.00020873
     atom   11 type  1   force =    -0.00021574   -0.00012310   -0.00020852
     atom   12 type  2   force =     0.00001120   -0.00000285   -0.00013158

     Total force =     0.017210     Total SCF correction =     0.002718
     SCF correction compared to forces is large: reduce conv_thr to get better values

     entering subroutine stress ...

     negative rho (up, down):  3.466E-01 0.000E+00
          total   stress  (Ry/bohr**3)                   (kbar)     P=   -3.96
  -0.00002702   0.00000000   0.00000000         -3.97      0.00      0.00
   0.00000000  -0.00002702   0.00000000          0.00     -3.97      0.00
   0.00000000   0.00000000  -0.00002665          0.00      0.00     -3.92

 !ASE

     Writing output data file calc.save

     General routines

     Parallel routines

   This run was terminated on:  22:56:38  19Dec2018

   JOB DONE.
Job  /afs/slac/g/suncat/bin/suncat-tsmpirun -x LD_LIBRARY_PATH -wdir /scratch/qe773436_rQPxV pw.x -in pw.inp

TID   HOST_NAME   COMMAND_LINE            STATUS            TERMINATION_TIME
00000 suncat0218 pw.x -in pw.inp   Done                     12/19/2018 22:56:38
00001 suncat0218 pw.x -in pw.inp   Done                     12/19/2018 22:56:38
00002 suncat0218 pw.x -in pw.inp   Done                     12/19/2018 22:56:38
00003 suncat0218 pw.x -in pw.inp   Done                     12/19/2018 22:56:38
00004 suncat0218 pw.x -in pw.inp   Done                     12/19/2018 22:56:38
00005 suncat0218 pw.x -in pw.inp   Done                     12/19/2018 22:56:38
00006 suncat0218 pw.x -in pw.inp   Done                     12/19/2018 22:56:38
00007 suncat0218 pw.x -in pw.inp   Done                     12/19/2018 22:56:38
00008 suncat0212 pw.x -in pw.inp   Done                     12/19/2018 22:56:38
00009 suncat0212 pw.x -in pw.inp   Done                     12/19/2018 22:56:38
00010 suncat0212 pw.x -in pw.inp   Done                     12/19/2018 22:56:38
00011 suncat0212 pw.x -in pw.inp   Done                     12/19/2018 22:56:38
00012 suncat0212 pw.x -in pw.inp   Done                     12/19/2018 22:56:38
00013 suncat0212 pw.x -in pw.inp   Done                     12/19/2018 22:56:38
00014 suncat0212 pw.x -in pw.inp   Done                     12/19/2018 22:56:38
00015 suncat0212 pw.x -in pw.inp   Done                     12/19/2018 22:56:38
00016 suncat0211 pw.x -in pw.inp   Done                     12/19/2018 22:56:38
00017 suncat0211 pw.x -in pw.inp   Done                     12/19/2018 22:56:38
00018 suncat0211 pw.x -in pw.inp   Done                     12/19/2018 22:56:38
00019 suncat0211 pw.x -in pw.inp   Done                     12/19/2018 22:56:38
00020 suncat0211 pw.x -in pw.inp   Done                     12/19/2018 22:56:38
00021 suncat0211 pw.x -in pw.inp   Done                     12/19/2018 22:56:38
00022 suncat0211 pw.x -in pw.inp   Done                     12/19/2018 22:56:38
00023 suncat0211 pw.x -in pw.inp   Done                     12/19/2018 22:56:38
00024 suncat0208 pw.x -in pw.inp   Done                     12/19/2018 22:56:38
00025 suncat0208 pw.x -in pw.inp   Done                     12/19/2018 22:56:38
00026 suncat0208 pw.x -in pw.inp   Done                     12/19/2018 22:56:38
00027 suncat0208 pw.x -in pw.inp   Done                     12/19/2018 22:56:38
00028 suncat0208 pw.x -in pw.inp   Done                     12/19/2018 22:56:38
00029 suncat0208 pw.x -in pw.inp   Done                     12/19/2018 22:56:38
00030 suncat0208 pw.x -in pw.inp   Done                     12/19/2018 22:56:38
00031 suncat0208 pw.x -in pw.inp   Done                     12/19/2018 22:56:38
00032 suncat0207 pw.x -in pw.inp   Done                     12/19/2018 22:56:38
00033 suncat0207 pw.x -in pw.inp   Done                     12/19/2018 22:56:38
00034 suncat0207 pw.x -in pw.inp   Done                     12/19/2018 22:56:38
00035 suncat0207 pw.x -in pw.inp   Done                     12/19/2018 22:56:38
00036 suncat0207 pw.x -in pw.inp   Done                     12/19/2018 22:56:38
00037 suncat0207 pw.x -in pw.inp   Done                     12/19/2018 22:56:38
00038 suncat0207 pw.x -in pw.inp   Done                     12/19/2018 22:56:38
00039 suncat0207 pw.x -in pw.inp   Done                     12/19/2018 22:56:38
00040 suncat0206 pw.x -in pw.inp   Done                     12/19/2018 22:56:38
00041 suncat0206 pw.x -in pw.inp   Done                     12/19/2018 22:56:38
00042 suncat0206 pw.x -in pw.inp   Done                     12/19/2018 22:56:38
00043 suncat0206 pw.x -in pw.inp   Done                     12/19/2018 22:56:38
00044 suncat0206 pw.x -in pw.inp   Done                     12/19/2018 22:56:38
00045 suncat0206 pw.x -in pw.inp   Done                     12/19/2018 22:56:38
00046 suncat0206 pw.x -in pw.inp   Done                     12/19/2018 22:56:38
00047 suncat0206 pw.x -in pw.inp   Done                     12/19/2018 22:56:38
00048 suncat0205 pw.x -in pw.inp   Done                     12/19/2018 22:56:38
00049 suncat0205 pw.x -in pw.inp   Done                     12/19/2018 22:56:38
00050 suncat0205 pw.x -in pw.inp   Done                     12/19/2018 22:56:38
00051 suncat0205 pw.x -in pw.inp   Done                     12/19/2018 22:56:38
00052 suncat0205 pw.x -in pw.inp   Done                     12/19/2018 22:56:38
00053 suncat0205 pw.x -in pw.inp   Done                     12/19/2018 22:56:38
00054 suncat0205 pw.x -in pw.inp   Done                     12/19/2018 22:56:38
00055 suncat0205 pw.x -in pw.inp   Done                     12/19/2018 22:56:38
00056 suncat0204 pw.x -in pw.inp   Done                     12/19/2018 22:56:38
00057 suncat0204 pw.x -in pw.inp   Done                     12/19/2018 22:56:38
00058 suncat0204 pw.x -in pw.inp   Done                     12/19/2018 22:56:38
00059 suncat0204 pw.x -in pw.inp   Done                     12/19/2018 22:56:38
00060 suncat0204 pw.x -in pw.inp   Done                     12/19/2018 22:56:38
00061 suncat0204 pw.x -in pw.inp   Done                     12/19/2018 22:56:38
00062 suncat0204 pw.x -in pw.inp   Done                     12/19/2018 22:56:38
00063 suncat0204 pw.x -in pw.inp   Done                     12/19/2018 22:56:38