     Program PWSCF v.5.1rc2 (svn rev. 11289) starts on 25Dec2018 at  4: 8: 6

     Current dimensions of program PWSCF are:
     Max number of different atomic species (ntypx) = 10
     Max number of k-points (npk) =  40000
     Max angular momentum in pseudopotentials (lmaxx) =  3
     Presently stress not available with electric field

     IMPORTANT: XC functional enforced from input :
     Exchange-correlation      = BEEF-VDW ( 1  4 27 13 2)
     Any further DFT definition will be discarded
     Please, verify this is what you really want

     Subspace diagonalization in iterative solution of the eigenvalue problem:
     a serial algorithm will be used

     Found symmetry operation: I + (  0.5000  0.0000  0.0000)
     This is a supercell, fractional translations are disabled

     bravais-lattice index     =            0
     lattice parameter (alat)  =       1.8897  a.u.
     unit-cell volume          =    6051.4236 (a.u.)^3
     number of atoms/cell      =           12
     number of atomic types    =            2
     number of electrons       =       144.00
     number of Kohn-Sham states=          102
     kinetic-energy cutoff     =      36.7493  Ry
     charge density cutoff     =     367.4932  Ry
     convergence threshold     =      1.0E-06
     mixing beta               =       0.1000
     number of iterations used =           10  plain     mixing
     Exchange-correlation      = BEEF-VDW ( 1  4 27 13 2)
     nstep                     =           50

     celldm(1)=   1.889726  celldm(2)=   0.000000  celldm(3)=   0.000000
     celldm(4)=   0.000000  celldm(5)=   0.000000  celldm(6)=   0.000000

     crystal axes: (cart. coord. in units of alat)
               a(1) = (   6.048300   0.000000   0.000000 )
               a(2) = (  -3.024150   5.885967   0.000000 )
               a(3) = (   0.000000   0.000000  25.188934 )

     reciprocal axes: (cart. coord. in units 2 pi/alat)
               b(1) = (  0.165336  0.084948  0.000000 )
               b(2) = (  0.000000  0.169896  0.000000 )
               b(3) = (  0.000000  0.000000  0.039700 )

     PseudoPot. # 1 for Y  read from file:
     /afs/slac.stanford.edu/u/if/mamunm/psp/gbrv1.5pbe/Y.UPF
     MD5 check sum: d034151ed7554c50b6e82763ed42c788
     Pseudo is Ultrasoft + core correction, Zval = 11.0
     Generated by new atomic code, or converted to UPF format
     Using radial grid of  885 points,  6 beta functions with:
                l(1) =   0
                l(2) =   0
                l(3) =   1
                l(4) =   1
                l(5) =   2
                l(6) =   2
     Q(r) pseudized with  8 coefficients,  rinner =    1.200   1.200   1.200
                                                       1.200   1.200

     PseudoPot. # 2 for Ta read from file:
     /afs/slac.stanford.edu/u/if/mamunm/psp/gbrv1.5pbe/Ta.UPF
     MD5 check sum: f8bbe9446314a3b8ea5d9f3e3836c939
     Pseudo is Ultrasoft + core correction, Zval = 13.0
     Generated by new atomic code, or converted to UPF format
     Using radial grid of  921 points,  7 beta functions with:
                l(1) =   0
                l(2) =   0
                l(3) =   1
                l(4) =   1
                l(5) =   2
                l(6) =   2
                l(7) =   3
     Q(r) pseudized with  6 coefficients,  rinner =    1.300   1.300   1.300
                                                       1.300   1.300   1.300
                                                       1.300

     vdW kernel table read from file vdW_kernel_table
     MD5 check sum: 095c7af220d748ca6e76c0b4c6cfb241

     atomic species   valence    mass     pseudopotential
        Y1            11.00    88.90584     Y ( 1.00)
        Ta1           13.00   180.94788     Ta( 1.00)

     No symmetry found

   Cartesian axes

     site n.     atom                  positions (alat units)
         1           Y1  tau(   1) = (   0.0000000   0.0000000  10.0000000  )
         2           Y1  tau(   2) = (   3.0241501   0.0000000  10.0000000  )
         3           Ta1 tau(   3) = (   1.5120750   2.9429835  10.0000000  )
         4           Ta1 tau(   4) = (  -1.5120750   2.9429835  10.0000000  )
         5           Y1  tau(   5) = (   3.0241501   1.5537776  12.5944670  )
         6           Y1  tau(   6) = (   0.0000000   1.5537776  12.5944670  )
         7           Ta1 tau(   7) = (  -1.5120750   4.4967611  12.5944670  )
         8           Ta1 tau(   8) = (   1.5120750   4.4967611  12.5944670  )
         9           Y1  tau(   9) = (  -0.0000000   3.1075552  15.1889340  )
        10           Y1  tau(  10) = (   3.0241501   3.1075552  15.1889340  )
        11           Ta1 tau(  11) = (   4.5362251   0.1645716  15.1889340  )
        12           Ta1 tau(  12) = (   1.5120750   0.1645716  15.1889340  )

     number of k points=    20  Fermi-Dirac smearing, width (Ry)=  0.0110
                       cart. coord. in units 2pi/alat
        k(    1) = (   0.0000000   0.0000000   0.0000000), wk =   0.0555556
        k(    2) = (   0.0000000   0.0283159   0.0000000), wk =   0.1111111
        k(    3) = (   0.0000000   0.0566319   0.0000000), wk =   0.1111111
        k(    4) = (   0.0000000  -0.0849478   0.0000000), wk =   0.0555556
        k(    5) = (   0.0275560   0.0141580   0.0000000), wk =   0.1111111
        k(    6) = (   0.0275560   0.0424739   0.0000000), wk =   0.1111111
        k(    7) = (   0.0275560   0.0707898   0.0000000), wk =   0.1111111
        k(    8) = (   0.0275560  -0.0707898   0.0000000), wk =   0.1111111
        k(    9) = (   0.0275560  -0.0424739   0.0000000), wk =   0.1111111
        k(   10) = (   0.0275560  -0.0141580   0.0000000), wk =   0.1111111
        k(   11) = (   0.0551119   0.0283159   0.0000000), wk =   0.1111111
        k(   12) = (   0.0551119   0.0566319   0.0000000), wk =   0.1111111
        k(   13) = (   0.0551119   0.0849478   0.0000000), wk =   0.1111111
        k(   14) = (   0.0551119  -0.0566319   0.0000000), wk =   0.1111111
        k(   15) = (   0.0551119  -0.0283159   0.0000000), wk =   0.1111111
        k(   16) = (   0.0551119   0.0000000   0.0000000), wk =   0.1111111
        k(   17) = (  -0.0826679  -0.0424739   0.0000000), wk =   0.0555556
        k(   18) = (  -0.0826679  -0.0141580   0.0000000), wk =   0.1111111
        k(   19) = (  -0.0826679   0.0141580   0.0000000), wk =   0.1111111
        k(   20) = (  -0.0826679  -0.1274217   0.0000000), wk =   0.0555556

     Largest allocated arrays     est. size (Mb)     dimensions
     Largest temporary arrays     est. size (Mb)     dimensions

     Initial potential from superposition of free atoms
     Check: negative starting charge=   -0.568539

     starting charge  143.96651, renormalised to  144.00000

     negative rho (up, down):  5.687E-01 0.000E+00

     *
     * You are using vdW-DF for exchange-correlation in this calculation.
     * Please cite the following three references that made this development
     * possible:
     *
     *   M. Dion, H. Rydberg, E. Schroder, D. C. Langreth, and
     *   B. I. Lundqvist, Phys. Rev. Lett. 92, 246401 (2004).
     *
     *   T. Thonhauser, V. R. Cooper, S. Li, A. Puzder, P. Hyldgaard, and
     *   D. C. Langreth, Phys. Rev. B 76, 125112 (2007).
     *
     *   G. Roman-Perez and J. M. Soler, Phys. Rev. Lett. 103, 096102 (2009).
     *
     *
     * If you are using vdW-DF2, please also cite:
     *
     *   K. Lee, E. D. Murray, L. Kong, B. I. Lundqvist, and
     *   D. C. Langreth, Phys. Rev. B 82, 081101(R) (2010).
     *
     *
     * If you are calculating the stress with vdW-DF, please also cite:
     *
     *   R. Sabatini, E. Kucukbenli, B. Kolb, T. Thonhauser, and
     *   S. de Gironcoli, J. Phys.: Condens. Matter 24, 424209 (2012).
     *

     Carrying out vdW-DF run using the following parameters:

     Nqs =      20    Nr_points =    1024   r_max =   100.000
     q_mesh =
               0.00001000     0.04494208     0.09755937     0.15916263
               0.23128650     0.31572767     0.41458969     0.53033537
               0.66584808     0.82450364     1.01025438     1.22772762
               1.48234092     1.78043706     2.12944203     2.53805004
               3.01644009     3.57652955     4.23227104     5.00000000

     Gradients computed in reciprocal space

     Adding external electric field

     Computed dipole along edir(3) :
        Dipole                0.0000 Ry au,          0.0000 Debye
        Dipole field          0.0000 Ry au

        Potential amp.       -0.0000 Ry
        Total length         46.4102 bohr

     Starting wfc are  156 randomized atomic wfcs

     Self-consistent Calculation

     iteration #  1     ecut=    36.75 Ry     beta=0.10
     Davidson diagonalization with overlap
     ethr =  1.00E-02,  avg # of iterations =  2.0

[...]

     total energy              =   -1420.22081899 Ry
     Harris-Foulkes estimate   =   -1421.54877509 Ry
     estimated scf accuracy    <       7.47624295 Ry

[...]

     iteration #  8     ecut=    36.75 Ry     beta=0.10
     Davidson diagonalization with overlap
     c_bands:  1 eigenvalues not converged
     ethr =  1.57E-05,  avg # of iterations =  6.8

[...]

     End of self-consistent calculation

          k = 0.0000 0.0000 0.0000 ( 22705 PWs)   bands (ev):

   -66.9094 -66.9090 -66.8865 -66.8861 -66.7233 -66.7002 -41.2549 -41.2503
   -41.1030 -41.0986 -40.6899 -40.5373 -33.3600 -33.3562 -33.3546 -33.3049
   -33.2857 -33.2452 -33.2409 -33.2090 -33.2028 -33.1607 -33.1550 -33.0107
   -32.9623 -32.9443 -32.9204 -32.9186 -32.9020 -32.8065 -21.9149 -21.9098
   -21.5688 -21.3862 -21.3682 -21.3128 -21.1504 -21.1162 -21.1107 -20.9556
   -20.9472 -20.6737 -20.6709 -20.5669 -20.5484 -20.4249 -20.3830 -20.1237
    -4.2183  -3.0372  -2.1586  -1.5620  -1.1299  -1.0466  -1.0050  -0.8399
    -0.7292  -0.7184  -0.5174  -0.3650  -0.2077  -0.1525  -0.1103   0.4209
     0.6973   0.7020   1.0322   1.2291   1.4732   1.4808   1.8093   1.8751
     1.9509   2.1411   2.1427   2.2070   2.4402   2.5315   2.6173   2.7844
     2.9226   2.9468   3.0356   3.2687   3.3865   3.4431   3.5713   3.6430
     3.7484   3.8260   3.8284   3.8600   3.9310   4.2079   4.3924   4.5107
     4.7317   4.8318   5.0273   5.1358   5.2020   5.2558

[...]

          k =-0.0827-0.0425 0.0000 ( 22782 PWs)   bands (ev):

[...]

     the Fermi energy is     1.5100 ev

!    total energy              =   -1420.95922452 Ry
     Harris-Foulkes estimate   =   -1420.95922310 Ry
     estimated scf accuracy    <       0.00000071 Ry

     The total energy is the sum of the following terms:

     one-electron contribution =   -8251.24616305 Ry
     hartree contribution      =    4113.87262557 Ry
     xc contribution           =    -431.03432042 Ry
     ewald contribution        =    3147.55550282 Ry
     electric field correction =       0.00000000 Ry
     smearing contrib. (-TS)   =      -0.10686944 Ry

     convergence has been achieved in  16 iterations

 BEEF-vdW xc energy contributions
           1 :   -378.246124062172
           2 :    345.602410129600
           3 :   -288.698976231419
           4 :    220.810424222078
           5 :   -155.139580497878
           6 :    100.788237917143
[...]
     Pseudo is Ultrasoft + core correction, Zval = 11.0
     Generated by new atomic code, or converted to UPF format
     Using radial grid of  885 points,  6 beta functions with:
                l(1) =   0
                l(2) =   0
                l(3) =   1
                l(4) =   1
                l(5) =   2
                l(6) =   2
     Q(r) pseudized with  8 coefficients,  rinner =    1.200   1.200   1.200
                                                       1.200   1.200

     PseudoPot. # 2 for Ta read from file:
     /afs/slac.stanford.edu/u/if/mamunm/psp/gbrv1.5pbe/Ta.UPF
     MD5 check sum: f8bbe9446314a3b8ea5d9f3e3836c939
     Pseudo is Ultrasoft + core correction, Zval = 13.0
     Generated by new atomic code, or converted to UPF format
     Using radial grid of  921 points,  7 beta functions with:
                l(1) =   0
                l(2) =   0
                l(3) =   1
                l(4) =   1
                l(5) =   2
                l(6) =   2
                l(7) =   3
     Q(r) pseudized with  6 coefficients,  rinner =    1.300   1.300   1.300
                                                       1.300   1.300   1.300
                                                       1.300

     vdW kernel table read from file vdW_kernel_table
     MD5 check sum: 095c7af220d748ca6e76c0b4c6cfb241

     atomic species   valence    mass     pseudopotential
        Y1            11.00    88.90584     Y ( 1.00)
        Ta1           13.00   180.94788     Ta( 1.00)

     No symmetry found

   Cartesian axes

     site n.     atom                  positions (alat units)
         1           Y1  tau(   1) = (   0.0000000   0.0000000  10.0000000  )
         2           Y1  tau(   2) = (   3.0241501   0.0000000  10.0000000  )
         3           Ta1 tau(   3) = (   1.5120750   2.9429835  10.0000000  )
         4           Ta1 tau(   4) = (  -1.5120750   2.9429835  10.0000000  )
         5           Y1  tau(   5) = (   3.0241501   1.5537776  12.5944670  )
         6           Y1  tau(   6) = (   0.0000000   1.5537776  12.5944670  )
         7           Ta1 tau(   7) = (  -1.5120750   4.4967611  12.5944670  )
         8           Ta1 tau(   8) = (   1.5120750   4.4967611  12.5944670  )
         9           Y1  tau(   9) = (   0.0002914   3.2368197  15.3358446  )
        10           Y1  tau(  10) = (   3.0244448   3.2368121  15.3358602  )
        11           Ta1 tau(  11) = (   4.5361484   0.0770121  14.9075145  )
        12           Ta1 tau(  12) = (   1.5120103   0.0770154  14.9075318  )

     number of k points=    20  Fermi-Dirac smearing, width (Ry)=  0.0110
                       cart. coord. in units 2pi/alat
        k(    1) = (   0.0000000   0.0000000   0.0000000), wk =   0.0555556
        k(    2) = (   0.0000000   0.0283159   0.0000000), wk =   0.1111111
        k(    3) = (   0.0000000   0.0566319   0.0000000), wk =   0.1111111
        k(    4) = (   0.0000000  -0.0849478   0.0000000), wk =   0.0555556
        k(    5) = (   0.0275560   0.0141580   0.0000000), wk =   0.1111111
        k(    6) = (   0.0275560   0.0424739   0.0000000), wk =   0.1111111
        k(    7) = (   0.0275560   0.0707898   0.0000000), wk =   0.1111111
        k(    8) = (   0.0275560  -0.0707898   0.0000000), wk =   0.1111111
        k(    9) = (   0.0275560  -0.0424739   0.0000000), wk =   0.1111111
        k(   10) = (   0.0275560  -0.0141580   0.0000000), wk =   0.1111111
        k(   11) = (   0.0551119   0.0283159   0.0000000), wk =   0.1111111
        k(   12) = (   0.0551119   0.0566319   0.0000000), wk =   0.1111111
        k(   13) = (   0.0551119   0.0849478   0.0000000), wk =   0.1111111
        k(   14) = (   0.0551119  -0.0566319   0.0000000), wk =   0.1111111
        k(   15) = (   0.0551119  -0.0283159   0.0000000), wk =   0.1111111
        k(   16) = (   0.0551119   0.0000000   0.0000000), wk =   0.1111111
        k(   17) = (  -0.0826679  -0.0424739   0.0000000), wk =   0.0555556
        k(   18) = (  -0.0826679  -0.0141580   0.0000000), wk =   0.1111111
        k(   19) = (  -0.0826679   0.0141580   0.0000000), wk =   0.1111111
        k(   20) = (  -0.0826679  -0.1274217   0.0000000), wk =   0.0555556

     Largest allocated arrays     est. size (Mb)     dimensions
     Largest temporary arrays     est. size (Mb)     dimensions

     Initial potential from superposition of free atoms
     Check: negative starting charge=   -0.566302

     starting charge  143.96651, renormalised to  144.00000

[...]

     *
     * You are using vdW-DF for exchange-correlation in this calculation.
     * Please cite the following three references that made this development
     * possible:
     *
     *   M. Dion, H. Rydberg, E. Schroder, D. C. Langreth, and
     *   B. I. Lundqvist, Phys. Rev. Lett. 92, 246401 (2004).
     *
     *   T. Thonhauser, V. R. Cooper, S. Li, A. Puzder, P. Hyldgaard, and
     *   D. C. Langreth, Phys. Rev. B 76, 125112 (2007).
     *
     *   G. Roman-Perez and J. M. Soler, Phys. Rev. Lett. 103, 096102 (2009).
     *
     *
     * If you are using vdW-DF2, please also cite:
     *
     *   K. Lee, E. D. Murray, L. Kong, B. I. Lundqvist, and
     *   D. C. Langreth, Phys. Rev. B 82, 081101(R) (2010).
     *
     *
     * If you are calculating the stress with vdW-DF, please also cite:
     *
     *   R. Sabatini, E. Kucukbenli, B. Kolb, T. Thonhauser, and
     *   S. de Gironcoli, J. Phys.: Condens. Matter 24, 424209 (2012).
     *

     Carrying out vdW-DF run using the following parameters:

     Nqs =      20    Nr_points =    1024   r_max =   100.000
     q_mesh =
               0.00001000     0.04494208     0.09755937     0.15916263
               0.23128650     0.31572767     0.41458969     0.53033537
               0.66584808     0.82450364     1.01025438     1.22772762
               1.48234092     1.78043706     2.12944203     2.53805004
               3.01644009     3.57652955     4.23227104     5.00000000

     Gradients computed in reciprocal space

[...]

     Starting wfc are  156 randomized atomic wfcs

     Self-consistent Calculation

[...]

     iteration #  8     ecut=    36.75 Ry     beta=0.10
     Davidson diagonalization with overlap
     c_bands:  1 eigenvalues not converged
     ethr =  1.98E-05,  avg # of iterations =  3.9

[...]

     total energy              =   -1421.00657122 Ry
     Harris-Foulkes estimate   =   -1421.00657076 Ry
     estimated scf accuracy    <       0.00000251 Ry

     iteration # 17     ecut=    36.75 Ry     beta=0.10
     Davidson diagonalization with overlap
     ethr =  1.74E-09,  avg # of iterations =  3.0

[...]

     negative rho (up, down):  5.887E-01 0.000E+00

     Adding external electric field

     Computed dipole along edir(3) :
        Dipole                0.1585 Ry au,          0.4030 Debye
        Dipole field          0.0003 Ry au

        Potential amp.       -0.0306 Ry
        Total length         46.4102 bohr

     End of self-consistent calculation

[...]

          k = 0.0551 0.0000 0.0000 ( 22803 PWs)   bands (ev):

[...]

          k =-0.0827-0.1274 0.0000 ( 22782 PWs)   bands (ev):

   -66.7762 -66.7762 -66.5300 -66.5300 -66.4351 -66.4351 -41.1641 -41.1641
   -41.0509 -41.0509 -40.4379 -40.4379 -33.1950 -33.1950 -33.0670 -33.0670
   -33.0418 -33.0418 -33.0179 -33.0179 -32.8733 -32.8733 -32.8527 -32.8526
   -32.7855 -32.7855 -32.7357 -32.7357 -32.5052 -32.5051 -21.3021 -21.3021
   -21.2808 -21.2808 -21.1941 -21.1941 -21.1649 -21.1649 -21.0458 -21.0458
   -20.9081 -20.9081 -20.6156 -20.6156 -20.3768 -20.3768 -20.3293 -20.3293
    -2.5376  -2.5376  -1.4151  -1.4151  -0.6286  -0.6286  -0.1332  -0.1332
    -0.0489  -0.0489   0.3975   0.3975   0.7113   0.7113   0.8559   0.8559
     0.9658   0.9658   1.1362   1.1362   1.3006   1.3006   1.4576   1.4576
     1.6310   1.6310   1.7649   1.7649   2.1274   2.1274   2.2686   2.2686
     2.4710   2.4710   2.5612   2.5612   2.9393   2.9393   3.4774   3.4774
     3.7727   3.7727   4.0170   4.0170   4.2117   4.2117   4.3475   4.3475
     4.5896   4.5897   4.6727   4.6727   4.8086   4.8087

     the Fermi energy is     1.6366 ev

!    total energy              =   -1421.00657287 Ry
     Harris-Foulkes estimate   =   -1421.00657052 Ry
     estimated scf accuracy    <       0.00000067 Ry

     The total energy is the sum of the following terms:

     one-electron contribution =   -8351.12288398 Ry
     hartree contribution      =    4164.67952255 Ry
     xc contribution           =    -431.22785901 Ry
     ewald contribution        =    3196.76775261 Ry
     electric field correction =       0.00005220 Ry
     smearing contrib. (-TS)   =      -0.10315724 Ry

     convergence has been achieved in  17 iterations

 BEEF-vdW xc energy contributions
           1 :   -378.442845408662
           2 :    345.855848933467
           3 :   -289.019338318431
           4 :    221.138218815312
           5 :   -155.363951995849
           6 :    100.809943424938
           7 :   -60.9947515778028
           8 :    34.7721535878409
           9 :   -18.6770294367820
          10 :    9.24535121474497
          11 :   -4.26386635436506
          12 :    2.70256610186959
          13 :   -3.84887558799613
          14 :    6.50139575084154
          15 :   -8.85849628592268
          16 :    9.13812043809992
          17 :   -6.43259925877982
          18 :    1.17662089378365
          19 :    5.08141520303207
          20 :   -10.4488798761854
          21 :    13.5410260987014
          22 :   -13.9731376628860
          23 :    12.3073633938853
          24 :   -9.58862908659125
          25 :    6.79509292181649
          26 :   -4.50380713155107
          27 :    2.87561238809167
          28 :   -1.85124379301459
          29 :    1.35674716448830
          30 :   -1.37601534697063
          31 :   -34.6582186432831
          32 :   -24.8964506369869

     Forces acting on atoms (Ry/au):

     negative rho (up, down):  5.887E-01 0.000E+00
     atom    1 type  1   force =    -0.00000628   -0.01854946   -0.02357656
     atom    2 type  1   force =    -0.00000869   -0.01854921   -0.02357806
     atom    3 type  2   force =    -0.00000862    0.01986035    0.04593418
     atom    4 type  2   force =    -0.00000625    0.01986089    0.04593437
     atom    5 type  1   force =    -0.00001902    0.01220178   -0.00538954
     atom    6 type  1   force =    -0.00001862    0.01219957   -0.00538976
     atom    7 type  2   force =     0.00000411   -0.01522134   -0.01740226
     atom    8 type  2   force =     0.00000821   -0.01522372   -0.01740311
     atom    9 type  1   force =     0.00001982    0.00181565    0.00062071
     atom   10 type  1   force =     0.00001706    0.00181535    0.00061609
     atom   11 type  2   force =     0.00001029   -0.00010362   -0.00018107
     atom   12 type  2   force =     0.00000799   -0.00010624   -0.00018499

     Total force =     0.090781     Total SCF correction =     0.001848

     entering subroutine stress ...

     negative rho (up, down):  5.887E-01 0.000E+00
          total   stress  (Ry/bohr**3)                   (kbar)     P=   -9.96
  -0.00003473   0.00000002  -0.00000001         -5.11      0.00     -0.00
   0.00000002  -0.00011038   0.00000093          0.00    -16.24      0.14
  -0.00000001   0.00000093  -0.00005803         -0.00      0.14     -8.54

 !ASE

     Writing output data file calc.save

     General routines

     Parallel routines

   This run was terminated on:   6:23:26  25Dec2018

   JOB DONE.
Job  /afs/slac/g/suncat/bin/suncat-tsmpirun -x LD_LIBRARY_PATH -wdir /scratch/qe109195_ftnw3 pw.x -in pw.inp

TID   HOST_NAME   COMMAND_LINE            STATUS            TERMINATION_TIME
00000 suncat0044 pw.x -in pw.inp   Done                     12/25/2018 06:23:26
00001 suncat0044 pw.x -in pw.inp   Done                     12/25/2018 06:23:26
00002 suncat0044 pw.x -in pw.inp   Done                     12/25/2018 06:23:26
00003 suncat0044 pw.x -in pw.inp   Done                     12/25/2018 06:23:26
00004 suncat0044 pw.x -in pw.inp   Done                     12/25/2018 06:23:26
00005 suncat0044 pw.x -in pw.inp   Done                     12/25/2018 06:23:26
00006 suncat0044 pw.x -in pw.inp   Done                     12/25/2018 06:23:26
00007 suncat0044 pw.x -in pw.inp   Done                     12/25/2018 06:23:26
00008 suncat0038 pw.x -in pw.inp   Done                     12/25/2018 06:23:26
00009 suncat0038 pw.x -in pw.inp   Done                     12/25/2018 06:23:26
00010 suncat0038 pw.x -in pw.inp   Done                     12/25/2018 06:23:26
00011 suncat0038 pw.x -in pw.inp   Done                     12/25/2018 06:23:26
00012 suncat0038 pw.x -in pw.inp   Done                     12/25/2018 06:23:26
00013 suncat0038 pw.x -in pw.inp   Done                     12/25/2018 06:23:26
00014 suncat0038 pw.x -in pw.inp   Done                     12/25/2018 06:23:26
00015 suncat0038 pw.x -in pw.inp   Done                     12/25/2018 06:23:26
00016 suncat0037 pw.x -in pw.inp   Done                     12/25/2018 06:23:26
00017 suncat0037 pw.x -in pw.inp   Done                     12/25/2018 06:23:26
00018 suncat0037 pw.x -in pw.inp   Done                     12/25/2018 06:23:26
00019 suncat0037 pw.x -in pw.inp   Done                     12/25/2018 06:23:26
00020 suncat0037 pw.x -in pw.inp   Done                     12/25/2018 06:23:26
00021 suncat0037 pw.x -in pw.inp   Done                     12/25/2018 06:23:26
00022 suncat0037 pw.x -in pw.inp   Done                     12/25/2018 06:23:26
00023 suncat0037 pw.x -in pw.inp   Done                     12/25/2018 06:23:26
00024 suncat0036 pw.x -in pw.inp   Done                     12/25/2018 06:23:26
00025 suncat0036 pw.x -in pw.inp   Done                     12/25/2018 06:23:26
00026 suncat0036 pw.x -in pw.inp   Done                     12/25/2018 06:23:26
00027 suncat0036 pw.x -in pw.inp   Done                     12/25/2018 06:23:26
00028 suncat0036 pw.x -in pw.inp   Done                     12/25/2018 06:23:26
00029 suncat0036 pw.x -in pw.inp   Done                     12/25/2018 06:23:26
00030 suncat0036 pw.x -in pw.inp   Done                     12/25/2018 06:23:26
00031 suncat0036 pw.x -in pw.inp   Done                     12/25/2018 06:23:26
00032 suncat0035 pw.x -in pw.inp   Done                     12/25/2018 06:23:26
00033 suncat0035 pw.x -in pw.inp   Done                     12/25/2018 06:23:26
00034 suncat0035 pw.x -in pw.inp   Done                     12/25/2018 06:23:26
00035 suncat0035 pw.x -in pw.inp   Done                     12/25/2018 06:23:26
00036 suncat0035 pw.x -in pw.inp   Done                     12/25/2018 06:23:26
00037 suncat0035 pw.x -in pw.inp   Done                     12/25/2018 06:23:26
00038 suncat0035 pw.x -in pw.inp   Done                     12/25/2018 06:23:26
00039 suncat0035 pw.x -in pw.inp   Done                     12/25/2018 06:23:26
00040 suncat0033 pw.x -in pw.inp   Done                     12/25/2018 06:23:26
00041 suncat0033 pw.x -in pw.inp   Done                     12/25/2018 06:23:26
00042 suncat0033 pw.x -in pw.inp   Done                     12/25/2018 06:23:26
00043 suncat0033 pw.x -in pw.inp   Done                     12/25/2018 06:23:26
00044 suncat0033 pw.x -in pw.inp   Done                     12/25/2018 06:23:26
00045 suncat0033 pw.x -in pw.inp   Done                     12/25/2018 06:23:26
00046 suncat0033 pw.x -in pw.inp   Done                     12/25/2018 06:23:26
00047 suncat0033 pw.x -in pw.inp   Done                     12/25/2018 06:23:26
00048 suncat0032 pw.x -in pw.inp   Done                     12/25/2018 06:23:26
00049 suncat0032 pw.x -in pw.inp   Done                     12/25/2018 06:23:26
00050 suncat0032 pw.x -in pw.inp   Done                     12/25/2018 06:23:26
00051 suncat0032 pw.x -in pw.inp   Done                     12/25/2018 06:23:26
00052 suncat0032 pw.x -in pw.inp   Done                     12/25/2018 06:23:26
00053 suncat0032 pw.x -in pw.inp   Done                     12/25/2018 06:23:26
00054 suncat0032 pw.x -in pw.inp   Done                     12/25/2018 06:23:26
00055 suncat0032 pw.x -in pw.inp   Done                     12/25/2018 06:23:26
00056 suncat0019 pw.x -in pw.inp   Done                     12/25/2018 06:23:26
00057 suncat0019 pw.x -in pw.inp   Done                     12/25/2018 06:23:26
00058 suncat0019 pw.x -in pw.inp   Done                     12/25/2018 06:23:26
00059 suncat0019 pw.x -in pw.inp   Done                     12/25/2018 06:23:26
00060 suncat0019 pw.x -in pw.inp   Done                     12/25/2018 06:23:26
00061 suncat0019 pw.x -in pw.inp   Done                     12/25/2018 06:23:26
00062 suncat0019 pw.x -in pw.inp   Done                     12/25/2018 06:23:26
00063 suncat0019 pw.x -in pw.inp   Done                     12/25/2018 06:23:26