     Program PWSCF v.5.1rc2 (svn rev. 11289) starts on 27Dec2018 at  4:51: 1

     Current dimensions of program PWSCF are:
     Max number of different atomic species (ntypx) = 10
     Max number of k-points (npk) =  40000
     Max angular momentum in pseudopotentials (lmaxx) =  3
     Presently stress not available with electric field

     IMPORTANT: XC functional enforced from input :
     Exchange-correlation      = BEEF-VDW ( 1  4 27 13 2)
     Any further DFT definition will be discarded
     Please, verify this is what you really want

     Subspace diagonalization in iterative solution of the eigenvalue problem:
     a serial algorithm will be used

     bravais-lattice index     =            0
     lattice parameter (alat)  =       1.8897  a.u.
     unit-cell volume          =    4675.0364 (a.u.)^3
     number of atoms/cell      =           12
     number of atomic types    =            2
     number of electrons       =       162.00
     number of Kohn-Sham states=          111
     kinetic-energy cutoff     =      36.7493  Ry
     charge density cutoff     =     367.4932  Ry
     convergence threshold     =      1.0E-06
     mixing beta               =       0.1000
     number of iterations used =           10  plain     mixing
     Exchange-correlation      = BEEF-VDW ( 1  4 27 13 2)
     nstep                     =           50

     celldm(1)=   1.889726  celldm(2)=   0.000000  celldm(3)=   0.000000
     celldm(4)=   0.000000  celldm(5)=   0.000000  celldm(6)=   0.000000

     crystal axes: (cart. coord. in units of alat)
               a(1) = (   5.696524   0.000000   0.000000 )
               a(2) = (  -2.848262   4.933334   0.000000 )
               a(3) = (   0.000000   0.000000  24.651192 )

     reciprocal axes: (cart. coord. in units 2 pi/alat)
               b(1) = (  0.175546  0.101351  0.000000 )
               b(2) = (  0.000000  0.202703  0.000000 )
               b(3) = (  0.000000  0.000000  0.040566 )

     PseudoPot. # 1 for Mo read from file:
     /afs/slac.stanford.edu/u/if/mamunm/psp/gbrv1.5pbe/Mo.UPF
     MD5 check sum: 30c4dcd161f5d35cd49bb5239c51a633
     Pseudo is Ultrasoft + core correction, Zval = 14.0
     Generated by new atomic code, or converted to UPF format
     Using radial grid of  889 points,  6 beta functions with:
                l(1) =   0
                l(2) =   0
                l(3) =   1
                l(4) =   1
                l(5) =   2
                l(6) =   2
     Q(r) pseudized with  6 coefficients,  rinner =    1.000   1.000   1.000
                                                       1.000   1.000

     PseudoPot. # 2 for Ti read from file:
     /afs/slac.stanford.edu/u/if/mamunm/psp/gbrv1.5pbe/Ti.UPF
     MD5 check sum: 88a00a6731bd790ddea75d31a80cb452
     Pseudo is Ultrasoft + core correction, Zval = 12.0
     Generated by new atomic code, or converted to UPF format
     Using radial grid of  851 points,  6 beta functions with:
                l(1) =   0
                l(2) =   0
                l(3) =   1
                l(4) =   1
                l(5) =   2
                l(6) =   2
     Q(r) pseudized with  6 coefficients,  rinner =    1.000   1.000   1.000
                                                       1.000   1.000

     vdW kernel table read from file vdW_kernel_table
     MD5 check sum: 095c7af220d748ca6e76c0b4c6cfb241

     atomic species   valence    mass     pseudopotential
        Mo1           14.00    95.95000     Mo( 1.00)
        Ti1           12.00    47.86700     Ti( 1.00)

     No symmetry found

   Cartesian axes

     site n.     atom                  positions (alat units)
         1           Mo1 tau(   1) = (   0.0000000   0.0000000  10.0000000  )
         2           Mo1 tau(   2) = (  -1.4241310   2.4666672  10.0000000  )
         3           Mo1 tau(   3) = (   1.4241310   2.4666672  10.0000000  )
         4           Ti1 tau(   4) = (   2.8482619   0.0000000  10.0000000  )
         5           Mo1 tau(   5) = (   2.8482619   1.6444448  12.3255961  )
         6           Mo1 tau(   6) = (   1.4241310   4.1111120  12.3255961  )
         7           Mo1 tau(   7) = (  -1.4241310   4.1111120  12.3255961  )
         8           Ti1 tau(   8) = (   0.0000000   1.6444448  12.3255961  )
         9           Mo1 tau(   9) = (  -0.0000000   3.2888896  14.6511922  )
        10           Mo1 tau(  10) = (   1.4241310   0.8222224  14.6511922  )
        11           Mo1 tau(  11) = (   4.2723929   0.8222224  14.6511922  )
        12           Ti1 tau(  12) = (   2.8482619   3.2888896  14.6511922  )

     number of k points=    20  Fermi-Dirac smearing, width (Ry)=  0.0110
                       cart. coord. in units 2pi/alat
        k(    1) = (   0.0000000   0.0000000   0.0000000), wk =   0.0555556
        k(    2) = (   0.0000000   0.0337838   0.0000000), wk =   0.1111111
        k(    3) = (   0.0000000   0.0675676   0.0000000), wk =   0.1111111
        k(    4) = (   0.0000000  -0.1013513   0.0000000), wk =   0.0555556
        k(    5) = (   0.0292576   0.0168919   0.0000000), wk =   0.1111111
        k(    6) = (   0.0292576   0.0506757   0.0000000), wk =   0.1111111
        k(    7) = (   0.0292576   0.0844594   0.0000000), wk =   0.1111111
        k(    8) = (   0.0292576  -0.0844594   0.0000000), wk =   0.1111111
        k(    9) = (   0.0292576  -0.0506757   0.0000000), wk =   0.1111111
        k(   10) = (   0.0292576  -0.0168919   0.0000000), wk =   0.1111111
        k(   11) = (   0.0585152   0.0337838   0.0000000), wk =   0.1111111
        k(   12) = (   0.0585152   0.0675676   0.0000000), wk =   0.1111111
        k(   13) = (   0.0585152   0.1013513   0.0000000), wk =   0.1111111
        k(   14) = (   0.0585152  -0.0675676   0.0000000), wk =   0.1111111
        k(   15) = (   0.0585152  -0.0337838   0.0000000), wk =   0.1111111
        k(   16) = (   0.0585152   0.0000000   0.0000000), wk =   0.1111111
        k(   17) = (  -0.0877728  -0.0506757   0.0000000), wk =   0.0555556
        k(   18) = (  -0.0877728  -0.0168919   0.0000000), wk =   0.1111111
        k(   19) = (  -0.0877728   0.0168919   0.0000000), wk =   0.1111111
        k(   20) = (  -0.0877728  -0.1520270   0.0000000), wk =   0.0555556

     Largest allocated arrays     est. size (Mb)     dimensions
     Largest temporary arrays     est. size (Mb)     dimensions

     Check: negative/imaginary core charge=   -0.000003    0.000000

     Initial potential from superposition of free atoms
     Check: negative starting charge=   -0.007414

     starting charge  158.99030, renormalised to  162.00000

     negative rho (up, down):  7.554E-03 0.000E+00

     *
     * You are using vdW-DF for exchange-correlation in this calculation.
     * Please cite the following three references that made this development
     * possible:
     *
     *   M. Dion, H. Rydberg, E. Schroder, D. C. Langreth, and
     *   B. I. Lundqvist, Phys. Rev. Lett. 92, 246401 (2004).
     *
     *   T. Thonhauser, V. R. Cooper, S. Li, A. Puzder, P. Hyldgaard, and
     *   D. C. Langreth, Phys. Rev. B 76, 125112 (2007).
     *
     *   G. Roman-Perez and J. M. Soler, Phys. Rev. Lett. 103, 096102 (2009).
     *
     *
     * If you are using vdW-DF2, please also cite:
     *
     *   K. Lee, E. D. Murray, L. Kong, B. I. Lundqvist, and
     *   D. C. Langreth, Phys. Rev. B 82, 081101(R) (2010).
     *
     *
     * If you are calculating the stress with vdW-DF, please also cite:
     *
     *   R. Sabatini, E. Kucukbenli, B. Kolb, T. Thonhauser, and
     *   S. de Gironcoli, J. Phys.: Condens. Matter 24, 424209 (2012).
     *

     Carrying out vdW-DF run using the following parameters:

     Nqs =      20    Nr_points =    1024   r_max =   100.000
     q_mesh =
               0.00001000     0.04494208     0.09755937     0.15916263
               0.23128650     0.31572767     0.41458969     0.53033537
               0.66584808     0.82450364     1.01025438     1.22772762
               1.48234092     1.78043706     2.12944203     2.53805004
               3.01644009     3.57652955     4.23227104     5.00000000

     Gradients computed in reciprocal space

     Adding external electric field

     Computed dipole along edir(3) :
        Dipole               -0.0000 Ry au,         -0.0000 Debye
        Dipole field         -0.0000 Ry au

        Potential amp.        0.0000 Ry
        Total length         45.4194 bohr

     Starting wfc are  147 randomized atomic wfcs

     Self-consistent Calculation

     iteration #  1     ecut=    36.75 Ry     beta=0.10
     Davidson diagonalization with overlap
     ethr =  1.00E-02,  avg # of iterations =  2.0

[...]

     total energy              =   -1613.39749790 Ry
     Harris-Foulkes estimate   =   -1621.77943714 Ry
     estimated scf accuracy    <      46.54371136 Ry

[...]

     End of self-consistent calculation

          k = 0.0000 0.0000 0.0000 ( 17663 PWs)   bands (ev):

   -59.1866 -59.0732 -59.0732 -59.0462 -59.0296 -58.9458 -58.9458 -58.9416
   -58.9415 -55.2373 -55.2368 -55.0408 -33.7076 -33.5154 -33.4850 -33.4671
   -33.4671 -33.4133 -33.3874 -33.3874 -33.2344 -33.2344 -33.1275 -33.0392
   -33.0391 -33.0248 -33.0248 -32.9648 -32.8640 -32.8462 -32.8462 -32.8089
   -32.8089 -32.7770 -32.7292 -32.6709 -32.6709 -32.6672 -32.6672 -31.5479
   -31.5106 -31.3598 -31.3598 -31.3528 -31.3528 -31.2563 -31.2012 -31.2012
    -3.9928  -2.6264  -2.4208  -2.2010  -1.9909  -1.8857  -1.8857  -1.5955
    -1.5955  -1.4906  -1.4888  -1.3663  -1.3663  -1.0919  -1.0919  -0.4448
    -0.0059  -0.0058   0.7369   0.7369   0.7673   0.8013   1.1847   1.5498
     1.6160   1.6160   1.7418   1.7537   1.7537   1.7906   1.7906   1.9879
     1.9879   2.0759   2.0759   2.3851   2.7314   2.7982   2.7982   3.1079
     3.1570   3.3311   3.3311   3.7293   3.7293   4.0624   4.0624   4.1216
     4.1216   4.3395   4.3592   4.3592   4.4008   4.8523   4.8523   4.8650
     5.0439   5.0439   5.5214   5.5214   5.6105   5.6105   5.6507

[...]

          k =-0.0878-0.0507 0.0000 ( 17556 PWs)   bands (ev):

[...]

     the Fermi energy is     1.8233 ev

!    total energy              =   -1619.03150759 Ry
     Harris-Foulkes estimate   =   -1619.03150761 Ry
     estimated scf accuracy    <       0.00000008 Ry

     The total energy is the sum of the following terms:

     one-electron contribution =  -13803.35572699 Ry
     hartree contribution      =    6892.63540380 Ry
     xc contribution           =    -235.97485649 Ry
     ewald contribution        =    5527.77878370 Ry
     electric field correction =       0.00000000 Ry
     smearing contrib. (-TS)   =      -0.11511159 Ry

     convergence has been achieved in  21 iterations

 BEEF-vdW xc energy contributions
           1 :   -202.661244601035
           2 :    184.081043017051
           3 :   -152.631455328218
           4 :    117.126522386443
           5 :   -85.9257867203558
           6 :    64.0716015318450
           7 :   -52.2960912390464
           8 :    47.9112881460333
           9 :   -46.8066572062864
          10 :    45.4361531310603
          11 :   -42.0021285496057
          12 :    36.5593847939440
          13 :   -30.3233661769164
          14 :    24.7109861236311
[...]
     /afs/slac.stanford.edu/u/if/mamunm/psp/gbrv1.5pbe/Mo.UPF
     MD5 check sum: 30c4dcd161f5d35cd49bb5239c51a633
     Pseudo is Ultrasoft + core correction, Zval = 14.0
     Generated by new atomic code, or converted to UPF format
     Using radial grid of  889 points,  6 beta functions with:
                l(1) =   0
                l(2) =   0
                l(3) =   1
                l(4) =   1
                l(5) =   2
                l(6) =   2
     Q(r) pseudized with  6 coefficients,  rinner =    1.000   1.000   1.000
                                                       1.000   1.000

     PseudoPot. # 2 for Ti read from file:
     /afs/slac.stanford.edu/u/if/mamunm/psp/gbrv1.5pbe/Ti.UPF
     MD5 check sum: 88a00a6731bd790ddea75d31a80cb452
     Pseudo is Ultrasoft + core correction, Zval = 12.0
     Generated by new atomic code, or converted to UPF format
     Using radial grid of  851 points,  6 beta functions with:
                l(1) =   0
                l(2) =   0
                l(3) =   1
                l(4) =   1
                l(5) =   2
                l(6) =   2
     Q(r) pseudized with  6 coefficients,  rinner =    1.000   1.000   1.000
                                                       1.000   1.000

     vdW kernel table read from file vdW_kernel_table
     MD5 check sum: 095c7af220d748ca6e76c0b4c6cfb241

     atomic species   valence    mass     pseudopotential
        Mo1           14.00    95.95000     Mo( 1.00)
        Ti1           12.00    47.86700     Ti( 1.00)

     No symmetry found

   Cartesian axes

     site n.     atom                  positions (alat units)
         1           Mo1 tau(   1) = (   0.0000000   0.0000000  10.0000000  )
         2           Mo1 tau(   2) = (  -1.4241310   2.4666672  10.0000000  )
         3           Mo1 tau(   3) = (   1.4241310   2.4666672  10.0000000  )
         4           Ti1 tau(   4) = (   2.8482619   0.0000000  10.0000000  )
         5           Mo1 tau(   5) = (   2.8482619   1.6444448  12.3255961  )
         6           Mo1 tau(   6) = (   1.4241310   4.1111120  12.3255961  )
         7           Mo1 tau(   7) = (  -1.4241310   4.1111120  12.3255961  )
         8           Ti1 tau(   8) = (   0.0000000   1.6444448  12.3255961  )
         9           Mo1 tau(   9) = (  -0.0000014   3.3364794  14.5744405  )
        10           Mo1 tau(  10) = (   1.4653486   0.7984233  14.5744395  )
        11           Mo1 tau(  11) = (   4.2311798   0.7984273  14.5744381  )
        12           Ti1 tau(  12) = (   2.8482675   3.2888886  14.8754274  )

     number of k points=    20  Fermi-Dirac smearing, width (Ry)=  0.0110
                       cart. coord. in units 2pi/alat
        k(    1) = (   0.0000000   0.0000000   0.0000000), wk =   0.0555556
        k(    2) = (   0.0000000   0.0337838   0.0000000), wk =   0.1111111
        k(    3) = (   0.0000000   0.0675676   0.0000000), wk =   0.1111111
        k(    4) = (   0.0000000  -0.1013513   0.0000000), wk =   0.0555556
        k(    5) = (   0.0292576   0.0168919   0.0000000), wk =   0.1111111
        k(    6) = (   0.0292576   0.0506757   0.0000000), wk =   0.1111111
        k(    7) = (   0.0292576   0.0844594   0.0000000), wk =   0.1111111
        k(    8) = (   0.0292576  -0.0844594   0.0000000), wk =   0.1111111
        k(    9) = (   0.0292576  -0.0506757   0.0000000), wk =   0.1111111
        k(   10) = (   0.0292576  -0.0168919   0.0000000), wk =   0.1111111
        k(   11) = (   0.0585152   0.0337838   0.0000000), wk =   0.1111111
        k(   12) = (   0.0585152   0.0675676   0.0000000), wk =   0.1111111
        k(   13) = (   0.0585152   0.1013513   0.0000000), wk =   0.1111111
        k(   14) = (   0.0585152  -0.0675676   0.0000000), wk =   0.1111111
        k(   15) = (   0.0585152  -0.0337838   0.0000000), wk =   0.1111111
        k(   16) = (   0.0585152   0.0000000   0.0000000), wk =   0.1111111
        k(   17) = (  -0.0877728  -0.0506757   0.0000000), wk =   0.0555556
        k(   18) = (  -0.0877728  -0.0168919   0.0000000), wk =   0.1111111
        k(   19) = (  -0.0877728   0.0168919   0.0000000), wk =   0.1111111
        k(   20) = (  -0.0877728  -0.1520270   0.0000000), wk =   0.0555556

     Largest allocated arrays     est. size (Mb)     dimensions
     Largest temporary arrays     est. size (Mb)     dimensions

     Check: negative/imaginary core charge=   -0.000003    0.000000

     Initial potential from superposition of free atoms
     Check: negative starting charge=   -0.007428

     starting charge  158.99030, renormalised to  162.00000

[...]

     *
     * You are using vdW-DF for exchange-correlation in this calculation.
     * Please cite the following three references that made this development
     * possible:
     *
     *   M. Dion, H. Rydberg, E. Schroder, D. C. Langreth, and
     *   B. I. Lundqvist, Phys. Rev. Lett. 92, 246401 (2004).
     *
     *   T. Thonhauser, V. R. Cooper, S. Li, A. Puzder, P. Hyldgaard, and
     *   D. C. Langreth, Phys. Rev. B 76, 125112 (2007).
     *
     *   G. Roman-Perez and J. M. Soler, Phys. Rev. Lett. 103, 096102 (2009).
     *
     *
     * If you are using vdW-DF2, please also cite:
     *
     *   K. Lee, E. D. Murray, L. Kong, B. I. Lundqvist, and
     *   D. C. Langreth, Phys. Rev. B 82, 081101(R) (2010).
     *
     *
     * If you are calculating the stress with vdW-DF, please also cite:
     *
     *   R. Sabatini, E. Kucukbenli, B. Kolb, T. Thonhauser, and
     *   S. de Gironcoli, J. Phys.: Condens. Matter 24, 424209 (2012).
     *

     Carrying out vdW-DF run using the following parameters:

     Nqs =      20    Nr_points =    1024   r_max =   100.000
     q_mesh =
               0.00001000     0.04494208     0.09755937     0.15916263
               0.23128650     0.31572767     0.41458969     0.53033537
               0.66584808     0.82450364     1.01025438     1.22772762
               1.48234092     1.78043706     2.12944203     2.53805004
               3.01644009     3.57652955     4.23227104     5.00000000

     Gradients computed in reciprocal space

[...]

     Starting wfc are  147 randomized atomic wfcs

     Self-consistent Calculation

[...]

     total energy              =   -1619.04236125 Ry
     Harris-Foulkes estimate   =   -1619.04236083 Ry
     estimated scf accuracy    <       0.00000112 Ry

     iteration # 22     ecut=    36.75 Ry     beta=0.10
     Davidson diagonalization with overlap
     ethr =  6.94E-10,  avg # of iterations =  2.5

[...]

     negative rho (up, down):  5.996E-03 0.000E+00

     Adding external electric field

     Computed dipole along edir(3) :
        Dipole                0.0545 Ry au,          0.1385 Debye
        Dipole field          0.0001 Ry au

        Potential amp.       -0.0133 Ry
        Total length         45.4194 bohr

     End of self-consistent calculation

[...]

          k = 0.0585 0.0000 0.0000 ( 17597 PWs)   bands (ev):

[...]

          k =-0.0878-0.1520 0.0000 ( 17556 PWs)   bands (ev):

   -59.0968 -59.0620 -59.0203 -58.9496 -58.9255 -58.9165 -58.8876 -58.8841
   -58.8552 -55.3513 -55.1651 -54.9648 -33.5093 -33.4239 -33.3491 -33.2883
   -33.2594 -33.2310 -33.2229 -33.2001 -33.1416 -33.1199 -33.0259 -33.0028
   -32.9734 -32.9723 -32.9588 -32.9138 -32.9097 -32.8943 -32.8572 -32.8358
   -32.8153 -32.7605 -32.7567 -32.7174 -32.7089 -32.6285 -32.6034 -31.7109
   -31.4844 -31.4532 -31.4436 -31.3425 -31.3007 -31.1815 -31.1756 -31.1402
    -2.4202  -2.2661  -1.5154  -1.4177  -1.3671  -1.0275  -0.9923  -0.9177
    -0.7692  -0.7271  -0.5934  -0.4746  -0.4052  -0.2106  -0.0546  -0.0020
     0.1065   0.1758   0.2124   0.4700   0.6279   0.7256   0.7526   1.0557
     1.1192   1.1203   1.1517   1.2053   1.2268   1.3090   1.3382   1.4471
     1.6020   1.6445   1.8112   1.8493   2.0723   2.3085   2.3240   2.3841
     2.6801   2.8006   2.8869   2.9839   3.0525   3.1914   3.2853   3.3539
     3.4677   3.5043   3.5902   3.6837   3.7693   3.7719   3.9453   4.0704
     4.2639   4.3666   4.4787   4.6784   5.0436   5.2767   5.3059

     the Fermi energy is     1.8816 ev

!    total energy              =   -1619.04236062 Ry
     Harris-Foulkes estimate   =   -1619.04236027 Ry
     estimated scf accuracy    <       0.00000065 Ry

     The total energy is the sum of the following terms:

     one-electron contribution =  -13819.73021331 Ry
     hartree contribution      =    6901.12905286 Ry
     xc contribution           =    -236.01269398 Ry
     ewald contribution        =    5535.68401380 Ry
     electric field correction =       0.00000798 Ry
     smearing contrib. (-TS)   =      -0.11252798 Ry

     convergence has been achieved in  22 iterations

 BEEF-vdW xc energy contributions
           1 :   -202.753978161939
           2 :    184.186803092178
           3 :   -152.762921392619
           4 :    117.282338739990
           5 :   -86.0762870941378
           6 :    64.1688516541639
           7 :   -52.3080174747339
           8 :    47.8477403428095
           9 :   -46.7120473022265
          10 :    45.3594138763831
          11 :   -41.9706223219881
          12 :    36.5722543629306
          13 :   -30.3587263749273
          14 :    24.7370858626473
          15 :   -20.6066412511503
          16 :    18.0976738249529
          17 :   -16.7224488249896
          18 :    15.7269541914769
          19 :   -14.4534221844337
          20 :    12.5861113659047
          21 :   -10.2331717307676
          22 :    7.83501931681340
          23 :   -5.94476181445478
          24 :    4.96018133932384
          25 :   -4.92099327931979
          26 :    5.46337836928979
          27 :   -5.97078317243918
          28 :    5.85857876135893
          29 :   -4.85674716249039
          30 :    3.13498265933526
          31 :   -22.7215772202775
          32 :   -17.1199250460048

     Forces acting on atoms (Ry/au):

     negative rho (up, down):  5.996E-03 0.000E+00
     atom    1 type  1   force =    -0.00000034   -0.01077878    0.00747604
     atom    2 type  1   force =    -0.00933489    0.00538953    0.00747446
     atom    3 type  1   force =     0.00933450    0.00538932    0.00747654
     atom    4 type  2   force =    -0.00000024   -0.00000049   -0.02438404
     atom    5 type  1   force =     0.00000012    0.01614805    0.00582979
     atom    6 type  1   force =     0.01398414   -0.00807383    0.00582995
     atom    7 type  1   force =    -0.01398415   -0.00807385    0.00582935
     atom    8 type  2   force =    -0.00000072    0.00000031   -0.01088874
     atom    9 type  1   force =     0.00000130    0.00039877   -0.00162515
     atom   10 type  1   force =     0.00034545   -0.00019956   -0.00162486
     atom   11 type  1   force =    -0.00034418   -0.00019962   -0.00162410
     atom   12 type  2   force =    -0.00000099    0.00000015    0.00023076

     Total force =     0.046065     Total SCF correction =     0.003750

     entering subroutine stress ...

     negative rho (up, down):  5.996E-03 0.000E+00
          total   stress  (Ry/bohr**3)                   (kbar)     P=  -26.06
  -0.00026530  -0.00000000  -0.00000000        -39.03     -0.00     -0.00
  -0.00000000  -0.00026529  -0.00000000         -0.00    -39.03     -0.00
  -0.00000000  -0.00000000  -0.00000085         -0.00     -0.00     -0.13

 !ASE

     Writing output data file calc.save

     General routines

     Parallel routines

   This run was terminated on:   5:51:24  27Dec2018

   JOB DONE.
Job  /afs/slac/g/suncat/bin/suncat-tsmpirun -x LD_LIBRARY_PATH -wdir /scratch/qe110157_9q1iC pw.x -in pw.inp

TID   HOST_NAME   COMMAND_LINE            STATUS            TERMINATION_TIME
00000 suncat0277 pw.x -in pw.inp   Done                     12/27/2018 05:51:24
00001 suncat0277 pw.x -in pw.inp   Done                     12/27/2018 05:51:24
00002 suncat0277 pw.x -in pw.inp   Done                     12/27/2018 05:51:24
00003 suncat0277 pw.x -in pw.inp   Done                     12/27/2018 05:51:24
00004 suncat0277 pw.x -in pw.inp   Done                     12/27/2018 05:51:24
00005 suncat0277 pw.x -in pw.inp   Done                     12/27/2018 05:51:24
00006 suncat0277 pw.x -in pw.inp   Done                     12/27/2018 05:51:24
00007 suncat0277 pw.x -in pw.inp   Done                     12/27/2018 05:51:24
00008 suncat0276 pw.x -in pw.inp   Done                     12/27/2018 05:51:24
00009 suncat0276 pw.x -in pw.inp   Done                     12/27/2018 05:51:24
00010 suncat0276 pw.x -in pw.inp   Done                     12/27/2018 05:51:24
00011 suncat0276 pw.x -in pw.inp   Done                     12/27/2018 05:51:24
00012 suncat0276 pw.x -in pw.inp   Done                     12/27/2018 05:51:24
00013 suncat0276 pw.x -in pw.inp   Done                     12/27/2018 05:51:24
00014 suncat0276 pw.x -in pw.inp   Done                     12/27/2018 05:51:24
00015 suncat0276 pw.x -in pw.inp   Done                     12/27/2018 05:51:24
00016 suncat0274 pw.x -in pw.inp   Done                     12/27/2018 05:51:24
00017 suncat0274 pw.x -in pw.inp   Done                     12/27/2018 05:51:24
00018 suncat0274 pw.x -in pw.inp   Done                     12/27/2018 05:51:24
00019 suncat0274 pw.x -in pw.inp   Done                     12/27/2018 05:51:24
00020 suncat0274 pw.x -in pw.inp   Done                     12/27/2018 05:51:24
00021 suncat0274 pw.x -in pw.inp   Done                     12/27/2018 05:51:24
00022 suncat0274 pw.x -in pw.inp   Done                     12/27/2018 05:51:24
00023 suncat0274 pw.x -in pw.inp   Done                     12/27/2018 05:51:24
00024 suncat0273 pw.x -in pw.inp   Done                     12/27/2018 05:51:24
00025 suncat0273 pw.x -in pw.inp   Done                     12/27/2018 05:51:24
00026 suncat0273 pw.x -in pw.inp   Done                     12/27/2018 05:51:24
00027 suncat0273 pw.x -in pw.inp   Done                     12/27/2018 05:51:24
00028 suncat0273 pw.x -in pw.inp   Done                     12/27/2018 05:51:24
00029 suncat0273 pw.x -in pw.inp   Done                     12/27/2018 05:51:24
00030 suncat0273 pw.x -in pw.inp   Done                     12/27/2018 05:51:24
00031 suncat0273 pw.x -in pw.inp   Done                     12/27/2018 05:51:24
00032 suncat0230 pw.x -in pw.inp   Done                     12/27/2018 05:51:24
00033 suncat0230 pw.x -in pw.inp   Done                     12/27/2018 05:51:24
00034 suncat0230 pw.x -in pw.inp   Done                     12/27/2018 05:51:24
00035 suncat0230 pw.x -in pw.inp   Done                     12/27/2018 05:51:24
00036 suncat0230 pw.x -in pw.inp   Done                     12/27/2018 05:51:24
00037 suncat0230 pw.x -in pw.inp   Done                     12/27/2018 05:51:24
00038 suncat0230 pw.x -in pw.inp   Done                     12/27/2018 05:51:24
00039 suncat0230 pw.x -in pw.inp   Done                     12/27/2018 05:51:24
00040 suncat0229 pw.x -in pw.inp   Done                     12/27/2018 05:51:24
00041 suncat0229 pw.x -in pw.inp   Done                     12/27/2018 05:51:24
00042 suncat0229 pw.x -in pw.inp   Done                     12/27/2018 05:51:24
00043 suncat0229 pw.x -in pw.inp   Done                     12/27/2018 05:51:24
00044 suncat0229 pw.x -in pw.inp   Done                     12/27/2018 05:51:24
00045 suncat0229 pw.x -in pw.inp   Done                     12/27/2018 05:51:24
00046 suncat0229 pw.x -in pw.inp   Done                     12/27/2018 05:51:24
00047 suncat0229 pw.x -in pw.inp   Done                     12/27/2018 05:51:24
00048 suncat0205 pw.x -in pw.inp   Done                     12/27/2018 05:51:24
00049 suncat0205 pw.x -in pw.inp   Done                     12/27/2018 05:51:24
00050 suncat0205 pw.x -in pw.inp   Done                     12/27/2018 05:51:24
00051 suncat0205 pw.x -in pw.inp   Done                     12/27/2018 05:51:24
00052 suncat0205 pw.x -in pw.inp   Done                     12/27/2018 05:51:24
00053 suncat0205 pw.x -in pw.inp   Done                     12/27/2018 05:51:24
00054 suncat0205 pw.x -in pw.inp   Done                     12/27/2018 05:51:24
00055 suncat0205 pw.x -in pw.inp   Done                     12/27/2018 05:51:24
00056 suncat0204 pw.x -in pw.inp   Done                     12/27/2018 05:51:24
00057 suncat0204 pw.x -in pw.inp   Done                     12/27/2018 05:51:24
00058 suncat0204 pw.x -in pw.inp   Done                     12/27/2018 05:51:24
00059 suncat0204 pw.x -in pw.inp   Done                     12/27/2018 05:51:24
00060 suncat0204 pw.x -in pw.inp   Done                     12/27/2018 05:51:24
00061 suncat0204 pw.x -in pw.inp   Done                     12/27/2018 05:51:24
00062 suncat0204 pw.x -in pw.inp   Done                     12/27/2018 05:51:24
00063 suncat0204 pw.x -in pw.inp   Done                     12/27/2018 05:51:24