     Program PWSCF v.5.1rc2 (svn rev. 11289) starts on 26Dec2018 at  2:28:32

     Current dimensions of program PWSCF are:
     Max number of different atomic species (ntypx) = 10
     Max number of k-points (npk) =  40000
     Max angular momentum in pseudopotentials (lmaxx) =  3
     Presently stress not available with electric field

     IMPORTANT: XC functional enforced from input :
     Exchange-correlation      = BEEF-VDW ( 1  4 27 13 2)
     Any further DFT definition will be discarded
     Please, verify this is what you really want

     Subspace diagonalization in iterative solution of the eigenvalue problem:
     a serial algorithm will be used

     bravais-lattice index     =            0
     lattice parameter (alat)  =       1.8897  a.u.
     unit-cell volume          =    4843.1763 (a.u.)^3
     number of atoms/cell      =           12
     number of atomic types    =            2
     number of electrons       =       219.00
     number of Kohn-Sham states=          139
     kinetic-energy cutoff     =      36.7493  Ry
     charge density cutoff     =     367.4932  Ry
     convergence threshold     =      1.0E-06
     mixing beta               =       0.1000
     number of iterations used =           10  plain     mixing
     Exchange-correlation      = BEEF-VDW ( 1  4 27 13 2)
     nstep                     =           50

     celldm(1)=   1.889726  celldm(2)=   0.000000  celldm(3)=   0.000000
     celldm(4)=   0.000000  celldm(5)=   0.000000  celldm(6)=   0.000000

     crystal axes: (cart. coord. in units of alat)
               a(1) = (   5.789181   0.000000   0.000000 )
               a(2) = (  -2.894591   5.013578   0.000000 )
               a(3) = (   0.000000   0.000000  24.726847 )

     reciprocal axes: (cart. coord. in units 2 pi/alat)
               b(1) = (  0.172736  0.099729  0.000000 )
               b(2) = (  0.000000  0.199458  0.000000 )
               b(3) = (  0.000000  0.000000  0.040442 )

     PseudoPot. # 1 for Ga read from file:
     /afs/slac.stanford.edu/u/if/mamunm/psp/gbrv1.5pbe/Ga.UPF
     MD5 check sum: ccd671392a58a050fbb373893b4fcd66
     Pseudo is Ultrasoft + core correction, Zval = 19.0
     Generated by new atomic code, or converted to UPF format
     Using radial grid of  871 points,  6 beta functions with:
                l(1) =   0
                l(2) =   0
                l(3) =   1
                l(4) =   1
                l(5) =   2
                l(6) =   2
     Q(r) pseudized with  8 coefficients,  rinner =    1.250   1.250   1.250
                                                       1.250   1.250

     PseudoPot. # 2 for Pd read from file:
     /afs/slac.stanford.edu/u/if/mamunm/psp/gbrv1.5pbe/Pd.UPF
     MD5 check sum: 2d733d2bc2cbfd217af676df1668a4bc
     Pseudo is Ultrasoft + core correction, Zval = 16.0
     Generated by new atomic code, or converted to UPF format
     Using radial grid of  887 points,  6 beta functions with:
                l(1) =   0
                l(2) =   0
                l(3) =   1
                l(4) =   1
                l(5) =   2
                l(6) =   2
     Q(r) pseudized with  8 coefficients,  rinner =    1.130   1.130   1.130
                                                       1.130   1.130

     vdW kernel table read from file vdW_kernel_table
     MD5 check sum: 095c7af220d748ca6e76c0b4c6cfb241

     atomic species   valence    mass     pseudopotential
        Ga1           19.00    69.72300     Ga( 1.00)
        Pd1           16.00   106.42000     Pd( 1.00)

     No symmetry found

   Cartesian axes

     site n.     atom                  positions (alat units)
         1           Ga1 tau(   1) = (   0.0000000   0.0000000  10.0000000  )
         2           Ga1 tau(   2) = (  -1.4472953   2.5067891  10.0000000  )
         3           Ga1 tau(   3) = (   1.4472953   2.5067891  10.0000000  )
         4           Pd1 tau(   4) = (   2.8945907   0.0000000  10.0000000  )
         5           Ga1 tau(   5) = (   2.8945907   1.6711927  12.3634234  )
         6           Ga1 tau(   6) = (   1.4472953   4.1779818  12.3634234  )
         7           Ga1 tau(   7) = (  -1.4472953   4.1779818  12.3634234  )
         8           Pd1 tau(   8) = (   0.0000000   1.6711927  12.3634234  )
         9           Ga1 tau(   9) = (  -0.0000000   3.3423854  14.7268468  )
        10           Ga1 tau(  10) = (   1.4472953   0.8355964  14.7268468  )
        11           Ga1 tau(  11) = (   4.3418860   0.8355964  14.7268468  )
        12           Pd1 tau(  12) = (   2.8945907   3.3423854  14.7268468  )

     number of k points=    20  Fermi-Dirac smearing, width (Ry)=  0.0110
                       cart. coord. in units 2pi/alat
        k(    1) = (   0.0000000   0.0000000   0.0000000), wk =   0.0555556
        k(    2) = (   0.0000000   0.0332431   0.0000000), wk =   0.1111111
        k(    3) = (   0.0000000   0.0664861   0.0000000), wk =   0.1111111
        k(    4) = (   0.0000000  -0.0997292   0.0000000), wk =   0.0555556
        k(    5) = (   0.0287893   0.0166215   0.0000000), wk =   0.1111111
        k(    6) = (   0.0287893   0.0498646   0.0000000), wk =   0.1111111
        k(    7) = (   0.0287893   0.0831076   0.0000000), wk =   0.1111111
        k(    8) = (   0.0287893  -0.0831076   0.0000000), wk =   0.1111111
        k(    9) = (   0.0287893  -0.0498646   0.0000000), wk =   0.1111111
        k(   10) = (   0.0287893  -0.0166215   0.0000000), wk =   0.1111111
        k(   11) = (   0.0575787   0.0332431   0.0000000), wk =   0.1111111
        k(   12) = (   0.0575787   0.0664861   0.0000000), wk =   0.1111111
        k(   13) = (   0.0575787   0.0997292   0.0000000), wk =   0.1111111
        k(   14) = (   0.0575787  -0.0664861   0.0000000), wk =   0.1111111
        k(   15) = (   0.0575787  -0.0332431   0.0000000), wk =   0.1111111
        k(   16) = (   0.0575787  -0.0000000   0.0000000), wk =   0.1111111
        k(   17) = (  -0.0863680  -0.0498646   0.0000000), wk =   0.0555556
        k(   18) = (  -0.0863680  -0.0166215   0.0000000), wk =   0.1111111
        k(   19) = (  -0.0863680   0.0166215   0.0000000), wk =   0.1111111
        k(   20) = (  -0.0863680  -0.1495938   0.0000000), wk =   0.0555556

     Largest allocated arrays     est. size (Mb)     dimensions
     Largest temporary arrays     est. size (Mb)     dimensions

     Initial potential from superposition of free atoms
     Check: negative starting charge=   -0.231070

     starting charge  208.49997, renormalised to  219.00000

     negative rho (up, down):  2.427E-01 0.000E+00

     *
     * You are using vdW-DF for exchange-correlation in this calculation.
     * Please cite the following three references that made this development
     * possible:
     *
     *   M. Dion, H. Rydberg, E. Schroder, D. C. Langreth, and
     *   B. I. Lundqvist, Phys. Rev. Lett. 92, 246401 (2004).
     *
     *   T. Thonhauser, V. R. Cooper, S. Li, A. Puzder, P. Hyldgaard, and
     *   D. C. Langreth, Phys. Rev. B 76, 125112 (2007).
     *
     *   G. Roman-Perez and J. M. Soler, Phys. Rev. Lett. 103, 096102 (2009).
     *
     *
     * If you are using vdW-DF2, please also cite:
     *
     *   K. Lee, E. D. Murray, L. Kong, B. I. Lundqvist, and
     *   D. C. Langreth, Phys. Rev. B 82, 081101(R) (2010).
     *
     *
     * If you are calculating the stress with vdW-DF, please also cite:
     *
     *   R. Sabatini, E. Kucukbenli, B. Kolb, T. Thonhauser, and
     *   S. de Gironcoli, J. Phys.: Condens. Matter 24, 424209 (2012).
     *

     Carrying out vdW-DF run using the following parameters:

     Nqs =      20    Nr_points =    1024   r_max =   100.000
     q_mesh =
               0.00001000     0.04494208     0.09755937     0.15916263
               0.23128650     0.31572767     0.41458969     0.53033537
               0.66584808     0.82450364     1.01025438     1.22772762
               1.48234092     1.78043706     2.12944203     2.53805004
               3.01644009     3.57652955     4.23227104     5.00000000

     Gradients computed in reciprocal space

     Adding external electric field

     Computed dipole along edir(3) :
        Dipole               -0.0000 Ry au,         -0.0000 Debye
        Dipole field         -0.0000 Ry au

        Potential amp.        0.0000 Ry
        Total length         45.5588 bohr

     Starting wfc are  144 randomized atomic wfcs

     Self-consistent Calculation

     iteration #  1     ecut=    36.75 Ry     beta=0.10
     Davidson diagonalization with overlap
     ethr =  1.00E-02,  avg # of iterations =  7.3

[...]

     total energy              =   -4341.82928839 Ry
     Harris-Foulkes estimate   =   -4365.07047394 Ry
     estimated scf accuracy    <     131.78705063 Ry

[...]

     End of self-consistent calculation

          k = 0.0000 0.0000 0.0000 ( 18235 PWs)   bands (ev):

   -94.2579 -94.2554 -94.2554 -94.2407 -94.2402 -94.2402 -94.2319 -94.2319
   -94.2308 -94.2098 -94.2096 -94.2092 -94.2092 -94.2091 -94.2091 -94.1956
   -94.1955 -94.1931 -94.1931 -94.1930 -94.1930 -94.1719 -94.1719 -94.1718
   -94.1718 -94.1709 -94.1708 -49.7758 -49.7758 -49.7695 -49.4098 -49.4098
   -49.4098 -49.4098 -49.2786 -49.2785 -14.7963 -14.7625 -14.7605 -14.7605
   -14.7177 -14.7115 -14.6760 -14.6695 -14.6695 -14.6619 -14.6619 -14.6559
   -14.6559 -14.6234 -14.6187 -14.6187 -14.6046 -14.5680 -14.5550 -14.5550
   -14.5472 -14.5320 -14.5320 -14.5309 -14.5196 -14.5196 -14.4778 -14.4778
   -14.4729 -14.4729 -14.4721 -14.4659 -14.4659 -14.4556 -14.4556 -14.4272
   -14.4272 -14.4166 -14.4166 -14.4063 -14.3919 -14.3811 -14.3811 -14.3310
   -14.3293  -9.7390  -8.1293  -6.0865  -5.0257  -5.0257  -4.2375  -4.2375
    -3.6318  -3.6318  -3.2736  -2.9018  -2.3300  -2.3300  -2.2230  -2.1497
    -2.1497  -1.6680  -1.6680  -1.4836  -1.3242  -1.2104  -1.2104  -1.2069
    -0.9446  -0.9446  -0.8371  -0.8371  -0.7283  -0.0843  -0.0843   0.7295
     0.7295   0.9614   1.3125   1.3125   2.7663   2.8491   3.4293   4.2642
     4.6217   4.7942   4.7942   4.8252   4.8252   5.1692   5.5965   5.9073
     6.2986   6.6481   7.3225   7.4470   7.4470   7.5060   8.3151   8.4687
     8.6702   8.6702   8.8844

[...]

          k =-0.0864-0.0499 0.0000 ( 18208 PWs)   bands (ev):

[...]

     the Fermi energy is     0.5371 ev

!    total energy              =   -4348.80780883 Ry
     Harris-Foulkes estimate   =   -4348.80780864 Ry
     estimated scf accuracy    <       0.00000045 Ry

     The total energy is the sum of the following terms:

     one-electron contribution =  -26965.01945556 Ry
     hartree contribution      =   13498.67248921 Ry
     xc contribution           =    -545.31975906 Ry
     ewald contribution        =    9662.88673847 Ry
     electric field correction =       0.00000000 Ry
     smearing contrib. (-TS)   =      -0.02782189 Ry

     convergence has been achieved in  23 iterations

 BEEF-vdW xc energy contributions
           1 :   -484.807059487581
           2 :    440.903425972914
           3 :   -366.990593805620
           4 :    284.207535739952
           5 :   -211.622301388117
           6 :    159.168914532129
           7 :   -126.032969190530
           8 :    104.434792261319
[...]
                l(1) =   0
                l(2) =   0
                l(3) =   1
                l(4) =   1
                l(5) =   2
                l(6) =   2
     Q(r) pseudized with  8 coefficients,  rinner =    1.250   1.250   1.250
                                                       1.250   1.250

     PseudoPot. # 2 for Pd read from file:
     /afs/slac.stanford.edu/u/if/mamunm/psp/gbrv1.5pbe/Pd.UPF
     MD5 check sum: 2d733d2bc2cbfd217af676df1668a4bc
     Pseudo is Ultrasoft + core correction, Zval = 16.0
     Generated by new atomic code, or converted to UPF format
     Using radial grid of  887 points,  6 beta functions with:
                l(1) =   0
                l(2) =   0
                l(3) =   1
                l(4) =   1
                l(5) =   2
                l(6) =   2
     Q(r) pseudized with  8 coefficients,  rinner =    1.130   1.130   1.130
                                                       1.130   1.130

     vdW kernel table read from file vdW_kernel_table
     MD5 check sum: 095c7af220d748ca6e76c0b4c6cfb241

     atomic species   valence    mass     pseudopotential
        Ga1           19.00    69.72300     Ga( 1.00)
        Pd1           16.00   106.42000     Pd( 1.00)

     No symmetry found

   Cartesian axes

     site n.     atom                  positions (alat units)
         1           Ga1 tau(   1) = (   0.0000000   0.0000000  10.0000000  )
         2           Ga1 tau(   2) = (  -1.4472953   2.5067891  10.0000000  )
         3           Ga1 tau(   3) = (   1.4472953   2.5067891  10.0000000  )
         4           Pd1 tau(   4) = (   2.8945907   0.0000000  10.0000000  )
         5           Ga1 tau(   5) = (   2.8945907   1.6711927  12.3634234  )
         6           Ga1 tau(   6) = (   1.4472953   4.1779818  12.3634234  )
         7           Ga1 tau(   7) = (  -1.4472953   4.1779818  12.3634234  )
         8           Pd1 tau(   8) = (   0.0000000   1.6711927  12.3634234  )
         9           Ga1 tau(   9) = (  -0.0000044   3.3306297  14.8530338  )
        10           Ga1 tau(  10) = (   1.4371213   0.8414820  14.8530433  )
        11           Ga1 tau(  11) = (   4.3520752   0.8414648  14.8530337  )
        12           Pd1 tau(  12) = (   2.8945833   3.3423828  14.5541347  )

     number of k points=    20  Fermi-Dirac smearing, width (Ry)=  0.0110
                       cart. coord. in units 2pi/alat
        k(    1) = (   0.0000000   0.0000000   0.0000000), wk =   0.0555556
        k(    2) = (   0.0000000   0.0332431   0.0000000), wk =   0.1111111
        k(    3) = (   0.0000000   0.0664861   0.0000000), wk =   0.1111111
        k(    4) = (   0.0000000  -0.0997292   0.0000000), wk =   0.0555556
        k(    5) = (   0.0287893   0.0166215   0.0000000), wk =   0.1111111
        k(    6) = (   0.0287893   0.0498646   0.0000000), wk =   0.1111111
        k(    7) = (   0.0287893   0.0831076   0.0000000), wk =   0.1111111
        k(    8) = (   0.0287893  -0.0831076   0.0000000), wk =   0.1111111
        k(    9) = (   0.0287893  -0.0498646   0.0000000), wk =   0.1111111
        k(   10) = (   0.0287893  -0.0166215   0.0000000), wk =   0.1111111
        k(   11) = (   0.0575787   0.0332431   0.0000000), wk =   0.1111111
        k(   12) = (   0.0575787   0.0664861   0.0000000), wk =   0.1111111
        k(   13) = (   0.0575787   0.0997292   0.0000000), wk =   0.1111111
        k(   14) = (   0.0575787  -0.0664861   0.0000000), wk =   0.1111111
        k(   15) = (   0.0575787  -0.0332431   0.0000000), wk =   0.1111111
        k(   16) = (   0.0575787  -0.0000000   0.0000000), wk =   0.1111111
        k(   17) = (  -0.0863680  -0.0498646   0.0000000), wk =   0.0555556
        k(   18) = (  -0.0863680  -0.0166215   0.0000000), wk =   0.1111111
        k(   19) = (  -0.0863680   0.0166215   0.0000000), wk =   0.1111111
        k(   20) = (  -0.0863680  -0.1495938   0.0000000), wk =   0.0555556

     Largest allocated arrays     est. size (Mb)     dimensions
     Largest temporary arrays     est. size (Mb)     dimensions

     Initial potential from superposition of free atoms
     Check: negative starting charge=   -0.231092

     starting charge  208.49997, renormalised to  219.00000

[...]

     *
     * You are using vdW-DF for exchange-correlation in this calculation.
     * Please cite the following three references that made this development
     * possible:
     *
     *   M. Dion, H. Rydberg, E. Schroder, D. C. Langreth, and
     *   B. I. Lundqvist, Phys. Rev. Lett. 92, 246401 (2004).
     *
     *   T. Thonhauser, V. R. Cooper, S. Li, A. Puzder, P. Hyldgaard, and
     *   D. C. Langreth, Phys. Rev. B 76, 125112 (2007).
     *
     *   G. Roman-Perez and J. M. Soler, Phys. Rev. Lett. 103, 096102 (2009).
     *
     *
     * If you are using vdW-DF2, please also cite:
     *
     *   K. Lee, E. D. Murray, L. Kong, B. I. Lundqvist, and
     *   D. C. Langreth, Phys. Rev. B 82, 081101(R) (2010).
     *
     *
     * If you are calculating the stress with vdW-DF, please also cite:
     *
     *   R. Sabatini, E. Kucukbenli, B. Kolb, T. Thonhauser, and
     *   S. de Gironcoli, J. Phys.: Condens. Matter 24, 424209 (2012).
     *

     Carrying out vdW-DF run using the following parameters:

     Nqs =      20    Nr_points =    1024   r_max =   100.000
     q_mesh =
               0.00001000     0.04494208     0.09755937     0.15916263
               0.23128650     0.31572767     0.41458969     0.53033537
               0.66584808     0.82450364     1.01025438     1.22772762
               1.48234092     1.78043706     2.12944203     2.53805004
               3.01644009     3.57652955     4.23227104     5.00000000

     Gradients computed in reciprocal space

[...]

     Starting wfc are  144 randomized atomic wfcs

     Self-consistent Calculation

[...]

     total energy              =   -4348.83368830 Ry
     Harris-Foulkes estimate   =   -4348.83368584 Ry
     estimated scf accuracy    <       0.00000351 Ry

     iteration # 16     ecut=    36.75 Ry     beta=0.10
     Davidson diagonalization with overlap
     ethr =  1.60E-09,  avg # of iterations =  2.0

[...]

     negative rho (up, down):  2.395E-01 0.000E+00

     Adding external electric field

     Computed dipole along edir(3) :
        Dipole                0.0555 Ry au,          0.1410 Debye
        Dipole field          0.0001 Ry au

        Potential amp.       -0.0131 Ry
        Total length         45.5588 bohr

     End of self-consistent calculation

[...]

          k = 0.0576-0.0000 0.0000 ( 18229 PWs)   bands (ev):

[...]

          k =-0.0864-0.1496 0.0000 ( 18208 PWs)   bands (ev):

   -94.2253 -94.2245 -94.2237 -94.2039 -94.2036 -94.2034 -94.2002 -94.1999
   -94.1995 -94.1676 -94.1675 -94.1674 -94.1508 -94.1506 -94.1504 -94.1477
   -94.1467 -94.1459 -94.1376 -94.1368 -94.1360 -94.1288 -94.1285 -94.1281
   -94.1155 -94.1152 -94.1148 -49.6805 -49.6804 -49.6493 -49.4838 -49.4838
   -49.4193 -49.3630 -49.3629 -49.2252 -14.7140 -14.6648 -14.6418 -14.6389
   -14.6239 -14.6144 -14.6107 -14.6007 -14.5908 -14.5879 -14.5789 -14.5714
   -14.5543 -14.5520 -14.5299 -14.5244 -14.5156 -14.5095 -14.4970 -14.4950
   -14.4878 -14.4811 -14.4784 -14.4771 -14.4714 -14.4714 -14.4658 -14.4623
   -14.4579 -14.4570 -14.4552 -14.4496 -14.4482 -14.4444 -14.4384 -14.4377
   -14.4260 -14.4183 -14.4061 -14.4036 -14.3925 -14.3862 -14.3768 -14.3371
   -14.3221  -8.3180  -7.9731  -6.5981  -6.5282  -5.4836  -5.2856  -4.7189
    -4.0985  -3.4712  -2.9507  -2.7240  -2.6717  -2.5925  -2.3140  -2.3088
    -2.2611  -2.1863  -1.9772  -1.8757  -1.6762  -1.4505  -1.2637  -1.1006
    -0.9576  -0.6754  -0.4616   0.2073   0.6512   1.0962   1.8062   2.3388
     2.4321   2.4326   2.8692   3.3287   3.4932   3.5594   3.6873   3.8626
     4.3254   4.6305   4.8022   4.9989   5.2333   5.3930   5.4660   5.9762
     6.0368   6.0377   6.2331   6.5151   6.6131   6.6549   7.0244   7.1426
     7.3149   7.5445   8.0188

     the Fermi energy is     0.5872 ev

!    total energy              =   -4348.83369249 Ry
     Harris-Foulkes estimate   =   -4348.83368852 Ry
     estimated scf accuracy    <       0.00000099 Ry

     The total energy is the sum of the following terms:

     one-electron contribution =  -26749.86750518 Ry
     hartree contribution      =   13391.42384826 Ry
     xc contribution           =    -545.30528269 Ry
     ewald contribution        =    9554.94359655 Ry
     electric field correction =       0.00000798 Ry
     smearing contrib. (-TS)   =      -0.02835740 Ry

     convergence has been achieved in  16 iterations

 BEEF-vdW xc energy contributions
           1 :   -485.408500324889
           2 :    441.483280971717
           3 :   -367.538965232191
           4 :    284.731888790736
           5 :   -212.143529795964
           6 :    159.708912906876
           7 :   -126.601290947308
           8 :    105.024334016895
           9 :   -86.4913151113620
          10 :    66.7220599233497
          11 :   -46.7189130468889
          12 :    30.2531996216913
          13 :   -20.1415291754978
          14 :    16.0025088161162
          15 :   -14.7299818530444
          16 :    12.8716199828756
          17 :   -8.92768080008807
          18 :    3.93989472799035
          19 :  -0.188439805722055
          20 :  -0.812640232325975
          21 :  -0.527328861816386
          22 :    2.31261953024477
          23 :   -2.69094647669147
          24 :    1.21599286496473
          25 :   0.967730604177973
          26 :   -2.15634883883251
          27 :    1.45513068877995
          28 :   0.574766143727970
          29 :   -2.42495600693712
          30 :    2.83007605148225
          31 :   -37.7180987958557
          32 :   -26.1684108531630

     Forces acting on atoms (Ry/au):

     negative rho (up, down):  2.395E-01 0.000E+00
     atom    1 type  1   force =     0.00000019    0.00521223   -0.00869040
     atom    2 type  1   force =     0.00451461   -0.00260750   -0.00868707
     atom    3 type  1   force =    -0.00451218   -0.00260613   -0.00868509
     atom    4 type  2   force =    -0.00000025    0.00000010    0.01165018
     atom    5 type  1   force =     0.00000085   -0.00642545    0.00365825
     atom    6 type  1   force =    -0.00556877    0.00321255    0.00365646
     atom    7 type  1   force =     0.00556447    0.00321249    0.00365802
     atom    8 type  2   force =    -0.00000019   -0.00000015    0.00308179
     atom    9 type  1   force =     0.00000007   -0.00158442   -0.00007823
     atom   10 type  1   force =    -0.00137340    0.00079366   -0.00007395
     atom   11 type  1   force =     0.00137486    0.00079263   -0.00007609
     atom   12 type  2   force =    -0.00000026   -0.00000002    0.00058612

     Total force =     0.025002     Total SCF correction =     0.005945
     SCF correction compared to forces is large: reduce conv_thr to get better values

     entering subroutine stress ...

     negative rho (up, down):  2.395E-01 0.000E+00
          total   stress  (Ry/bohr**3)                   (kbar)     P=  -11.43
  -0.00011947   0.00000000  -0.00000000        -17.58      0.00     -0.00
   0.00000000  -0.00011947   0.00000000          0.00    -17.58      0.00
  -0.00000000   0.00000000   0.00000585         -0.00      0.00      0.86

 !ASE

     Writing output data file calc.save

     General routines

     Parallel routines

   This run was terminated on:   4:16:40  26Dec2018

   JOB DONE.
Job  /afs/slac/g/suncat/bin/suncat-tsmpirun -x LD_LIBRARY_PATH -wdir /scratch/qe109693_ujACp pw.x -in pw.inp

TID   HOST_NAME   COMMAND_LINE            STATUS            TERMINATION_TIME
00000 suncat0094 pw.x -in pw.inp   Done                     12/26/2018 04:16:40
00001 suncat0094 pw.x -in pw.inp   Done                     12/26/2018 04:16:40
00002 suncat0094 pw.x -in pw.inp   Done                     12/26/2018 04:16:40
00003 suncat0094 pw.x -in pw.inp   Done                     12/26/2018 04:16:40
00004 suncat0094 pw.x -in pw.inp   Done                     12/26/2018 04:16:40
00005 suncat0094 pw.x -in pw.inp   Done                     12/26/2018 04:16:40
00006 suncat0094 pw.x -in pw.inp   Done                     12/26/2018 04:16:40
00007 suncat0094 pw.x -in pw.inp   Done                     12/26/2018 04:16:40
00008 suncat0093 pw.x -in pw.inp   Done                     12/26/2018 04:16:40
00009 suncat0093 pw.x -in pw.inp   Done                     12/26/2018 04:16:40
00010 suncat0093 pw.x -in pw.inp   Done                     12/26/2018 04:16:40
00011 suncat0093 pw.x -in pw.inp   Done                     12/26/2018 04:16:40
00012 suncat0093 pw.x -in pw.inp   Done                     12/26/2018 04:16:40
00013 suncat0093 pw.x -in pw.inp   Done                     12/26/2018 04:16:40
00014 suncat0093 pw.x -in pw.inp   Done                     12/26/2018 04:16:40
00015 suncat0093 pw.x -in pw.inp   Done                     12/26/2018 04:16:40
00016 suncat0092 pw.x -in pw.inp   Done                     12/26/2018 04:16:40
00017 suncat0092 pw.x -in pw.inp   Done                     12/26/2018 04:16:40
00018 suncat0092 pw.x -in pw.inp   Done                     12/26/2018 04:16:40
00019 suncat0092 pw.x -in pw.inp   Done                     12/26/2018 04:16:40
00020 suncat0092 pw.x -in pw.inp   Done                     12/26/2018 04:16:40
00021 suncat0092 pw.x -in pw.inp   Done                     12/26/2018 04:16:40
00022 suncat0092 pw.x -in pw.inp   Done                     12/26/2018 04:16:40
00023 suncat0092 pw.x -in pw.inp   Done                     12/26/2018 04:16:40
00024 suncat0091 pw.x -in pw.inp   Done                     12/26/2018 04:16:40
00025 suncat0091 pw.x -in pw.inp   Done                     12/26/2018 04:16:40
00026 suncat0091 pw.x -in pw.inp   Done                     12/26/2018 04:16:40
00027 suncat0091 pw.x -in pw.inp   Done                     12/26/2018 04:16:40
00028 suncat0091 pw.x -in pw.inp   Done                     12/26/2018 04:16:40
00029 suncat0091 pw.x -in pw.inp   Done                     12/26/2018 04:16:40
00030 suncat0091 pw.x -in pw.inp   Done                     12/26/2018 04:16:40
00031 suncat0091 pw.x -in pw.inp   Done                     12/26/2018 04:16:40
00032 suncat0090 pw.x -in pw.inp   Done                     12/26/2018 04:16:40
00033 suncat0090 pw.x -in pw.inp   Done                     12/26/2018 04:16:40
00034 suncat0090 pw.x -in pw.inp   Done                     12/26/2018 04:16:40
00035 suncat0090 pw.x -in pw.inp   Done                     12/26/2018 04:16:40
00036 suncat0090 pw.x -in pw.inp   Done                     12/26/2018 04:16:40
00037 suncat0090 pw.x -in pw.inp   Done                     12/26/2018 04:16:40
00038 suncat0090 pw.x -in pw.inp   Done                     12/26/2018 04:16:40
00039 suncat0090 pw.x -in pw.inp   Done                     12/26/2018 04:16:40
00040 suncat0089 pw.x -in pw.inp   Done                     12/26/2018 04:16:40
00041 suncat0089 pw.x -in pw.inp   Done                     12/26/2018 04:16:40
00042 suncat0089 pw.x -in pw.inp   Done                     12/26/2018 04:16:40
00043 suncat0089 pw.x -in pw.inp   Done                     12/26/2018 04:16:40
00044 suncat0089 pw.x -in pw.inp   Done                     12/26/2018 04:16:40
00045 suncat0089 pw.x -in pw.inp   Done                     12/26/2018 04:16:40
00046 suncat0089 pw.x -in pw.inp   Done                     12/26/2018 04:16:40
00047 suncat0089 pw.x -in pw.inp   Done                     12/26/2018 04:16:40
00048 suncat0086 pw.x -in pw.inp   Done                     12/26/2018 04:16:40
00049 suncat0086 pw.x -in pw.inp   Done                     12/26/2018 04:16:40
00050 suncat0086 pw.x -in pw.inp   Done                     12/26/2018 04:16:40
00051 suncat0086 pw.x -in pw.inp   Done                     12/26/2018 04:16:40
00052 suncat0086 pw.x -in pw.inp   Done                     12/26/2018 04:16:40
00053 suncat0086 pw.x -in pw.inp   Done                     12/26/2018 04:16:40
00054 suncat0086 pw.x -in pw.inp   Done                     12/26/2018 04:16:40
00055 suncat0086 pw.x -in pw.inp   Done                     12/26/2018 04:16:40
00056 suncat0085 pw.x -in pw.inp   Done                     12/26/2018 04:16:40
00057 suncat0085 pw.x -in pw.inp   Done                     12/26/2018 04:16:40
00058 suncat0085 pw.x -in pw.inp   Done                     12/26/2018 04:16:40
00059 suncat0085 pw.x -in pw.inp   Done                     12/26/2018 04:16:40
00060 suncat0085 pw.x -in pw.inp   Done                     12/26/2018 04:16:40
00061 suncat0085 pw.x -in pw.inp   Done                     12/26/2018 04:16:40
00062 suncat0085 pw.x -in pw.inp   Done                     12/26/2018 04:16:40
00063 suncat0085 pw.x -in pw.inp   Done                     12/26/2018 04:16:40