     Program PWSCF v.5.1rc2 (svn rev. 11289) starts on 27Dec2018 at  2:44:53

     Current dimensions of program PWSCF are:
     Max number of different atomic species (ntypx) = 10
     Max number of k-points (npk) =  40000
     Max angular momentum in pseudopotentials (lmaxx) =  3
     Presently stress not available with electric field

     IMPORTANT: XC functional enforced from input :
     Exchange-correlation      = BEEF-VDW ( 1  4 27 13 2)
     Any further DFT definition will be discarded
     Please, verify this is what you really want

     Subspace diagonalization in iterative solution of the eigenvalue problem:
     a serial algorithm will be used

     Generating pointlists ...
     new r_m :   0.4125 (alat units)  0.7795 (a.u.) for type    1
     new r_m :   0.4125 (alat units)  0.7795 (a.u.) for type    2

     bravais-lattice index     =            0
     lattice parameter (alat)  =       1.8897  a.u.
     unit-cell volume          =    4310.8511 (a.u.)^3
     number of atoms/cell      =           12
     number of atomic types    =            2
     number of electrons       =       180.00
     number of Kohn-Sham states=          120
     kinetic-energy cutoff     =      36.7493  Ry
     charge density cutoff     =     367.4932  Ry
     convergence threshold     =      1.0E-06
     mixing beta               =       0.1000
     number of iterations used =           10  plain     mixing
     Exchange-correlation      = BEEF-VDW ( 1  4 27 13 2)
     nstep                     =           50

     celldm(1)=   1.889726  celldm(2)=   0.000000  celldm(3)=   0.000000
     celldm(4)=   0.000000  celldm(5)=   0.000000  celldm(6)=   0.000000

     crystal axes: (cart. coord. in units of alat)
               a(1) = (   5.489040   0.000000   0.000000 )
               a(2) = (  -2.744520   4.753648   0.000000 )
               a(3) = (   0.000000   0.000000  24.481782 )

     reciprocal axes: (cart. coord. in units 2 pi/alat)
               b(1) = (  0.182181  0.105182  0.000000 )
               b(2) = (  0.000000  0.210365  0.000000 )
               b(3) = (  0.000000  0.000000  0.040847 )

     PseudoPot. # 1 for Mo read from file:
     /afs/slac.stanford.edu/u/if/mamunm/psp/gbrv1.5pbe/Mo.UPF
     MD5 check sum: 30c4dcd161f5d35cd49bb5239c51a633
     Pseudo is Ultrasoft + core correction, Zval = 14.0
     Generated by new atomic code, or converted to UPF format
     Using radial grid of  889 points,  6 beta functions with:
                l(1) =   0
                l(2) =   0
                l(3) =   1
                l(4) =   1
                l(5) =   2
                l(6) =   2
     Q(r) pseudized with  6 coefficients,  rinner =    1.000   1.000   1.000
                                                       1.000   1.000

     PseudoPot. # 2 for Ni read from file:
     /afs/slac.stanford.edu/u/if/mamunm/psp/gbrv1.5pbe/Ni.UPF
     MD5 check sum: 1ee80287db30b12d2bc1f57a5b5d6409
     Pseudo is Ultrasoft + core correction, Zval = 18.0
     Generated by new atomic code, or converted to UPF format
     Using radial grid of  865 points,  6 beta functions with:
                l(1) =   0
                l(2) =   0
                l(3) =   1
                l(4) =   1
                l(5) =   2
                l(6) =   2
     Q(r) pseudized with 10 coefficients,  rinner =    0.980   0.980   0.980
                                                       0.980   0.980

     vdW kernel table read from file vdW_kernel_table
     MD5 check sum: 095c7af220d748ca6e76c0b4c6cfb241

     atomic species   valence    mass     pseudopotential
        Mo1           14.00    95.95000     Mo( 1.00)
        Ni1           18.00    58.69340     Ni( 1.00)

     Starting magnetic structure
     atomic species   magnetization
        Mo1          0.143
        Ni1          0.111

     No symmetry found

   Cartesian axes

     site n.     atom                  positions (alat units)
         1           Mo1 tau(   1) = (   0.0000000   0.0000000  10.0000000  )
         2           Mo1 tau(   2) = (  -1.3722599   2.3768239  10.0000000  )
         3           Mo1 tau(   3) = (   1.3722599   2.3768239  10.0000000  )
         4           Ni1 tau(   4) = (   2.7445199   0.0000000  10.0000000  )
         5           Mo1 tau(   5) = (   2.7445199   1.5845493  12.2408911  )
         6           Mo1 tau(   6) = (   1.3722599   3.9613732  12.2408911  )
         7           Mo1 tau(   7) = (  -1.3722599   3.9613732  12.2408911  )
         8           Ni1 tau(   8) = (   0.0000000   1.5845493  12.2408911  )
         9           Mo1 tau(   9) = (  -0.0000000   3.1690986  14.4817822  )
        10           Mo1 tau(  10) = (   1.3722599   0.7922746  14.4817822  )
        11           Mo1 tau(  11) = (   4.1167798   0.7922746  14.4817822  )
        12           Ni1 tau(  12) = (   2.7445199   3.1690986  14.4817822  )

     number of k points=    40  Fermi-Dirac smearing, width (Ry)=  0.0110
                       cart. coord. in units 2pi/alat
        k(    1) = (   0.0000000   0.0000000   0.0000000), wk =   0.0277778
        k(    2) = (   0.0000000   0.0350608   0.0000000), wk =   0.0555556
        k(    3) = (   0.0000000   0.0701216   0.0000000), wk =   0.0555556
        k(    4) = (   0.0000000  -0.1051824   0.0000000), wk =   0.0277778
        k(    5) = (   0.0303635   0.0175304   0.0000000), wk =   0.0555556
        k(    6) = (   0.0303635   0.0525912   0.0000000), wk =   0.0555556
        k(    7) = (   0.0303635   0.0876520   0.0000000), wk =   0.0555556
        k(    8) = (   0.0303635  -0.0876520   0.0000000), wk =   0.0555556
        k(    9) = (   0.0303635  -0.0525912   0.0000000), wk =   0.0555556
        k(   10) = (   0.0303635  -0.0175304   0.0000000), wk =   0.0555556
        k(   11) = (   0.0607271   0.0350608   0.0000000), wk =   0.0555556
        k(   12) = (   0.0607271   0.0701216   0.0000000), wk =   0.0555556
        k(   13) = (   0.0607271   0.1051824   0.0000000), wk =   0.0555556
        k(   14) = (   0.0607271  -0.0701216   0.0000000), wk =   0.0555556
        k(   15) = (   0.0607271  -0.0350608   0.0000000), wk =   0.0555556
        k(   16) = (   0.0607271   0.0000000   0.0000000), wk =   0.0555556
        k(   17) = (  -0.0910906  -0.0525912   0.0000000), wk =   0.0277778
        k(   18) = (  -0.0910906  -0.0175304   0.0000000), wk =   0.0555556
        k(   19) = (  -0.0910906   0.0175304   0.0000000), wk =   0.0555556
        k(   20) = (  -0.0910906  -0.1577736   0.0000000), wk =   0.0277778
        k(   21) = (   0.0000000   0.0000000   0.0000000), wk =   0.0277778
        k(   22) = (   0.0000000   0.0350608   0.0000000), wk =   0.0555556
        k(   23) = (   0.0000000   0.0701216   0.0000000), wk =   0.0555556
        k(   24) = (   0.0000000  -0.1051824   0.0000000), wk =   0.0277778
        k(   25) = (   0.0303635   0.0175304   0.0000000), wk =   0.0555556
        k(   26) = (   0.0303635   0.0525912   0.0000000), wk =   0.0555556
        k(   27) = (   0.0303635   0.0876520   0.0000000), wk =   0.0555556
        k(   28) = (   0.0303635  -0.0876520   0.0000000), wk =   0.0555556
        k(   29) = (   0.0303635  -0.0525912   0.0000000), wk =   0.0555556
        k(   30) = (   0.0303635  -0.0175304   0.0000000), wk =   0.0555556
        k(   31) = (   0.0607271   0.0350608   0.0000000), wk =   0.0555556
        k(   32) = (   0.0607271   0.0701216   0.0000000), wk =   0.0555556
        k(   33) = (   0.0607271   0.1051824   0.0000000), wk =   0.0555556
        k(   34) = (   0.0607271  -0.0701216   0.0000000), wk =   0.0555556
        k(   35) = (   0.0607271  -0.0350608   0.0000000), wk =   0.0555556
        k(   36) = (   0.0607271   0.0000000   0.0000000), wk =   0.0555556
        k(   37) = (  -0.0910906  -0.0525912   0.0000000), wk =   0.0277778
        k(   38) = (  -0.0910906  -0.0175304   0.0000000), wk =   0.0555556
        k(   39) = (  -0.0910906   0.0175304   0.0000000), wk =   0.0555556
        k(   40) = (  -0.0910906  -0.1577736   0.0000000), wk =   0.0277778

     Largest allocated arrays     est. size (Mb)     dimensions
     Largest temporary arrays     est. size (Mb)     dimensions

     Initial potential from superposition of free atoms
     Check: negative starting charge=(component1):   -0.002461
     Check: negative starting charge=(component2):   -0.001847

     starting charge  173.99043, renormalised to  180.00000

     negative rho (up, down):  2.546E-03 1.910E-03

     *
     * You are using vdW-DF for exchange-correlation in this calculation.
     * Please cite the following three references that made this development
     * possible:
     *
     *   M. Dion, H. Rydberg, E. Schroder, D. C. Langreth, and
     *   B. I. Lundqvist, Phys. Rev. Lett. 92, 246401 (2004).
     *
     *   T. Thonhauser, V. R. Cooper, S. Li, A. Puzder, P. Hyldgaard, and
     *   D. C. Langreth, Phys. Rev. B 76, 125112 (2007).
     *
     *   G. Roman-Perez and J. M. Soler, Phys. Rev. Lett. 103, 096102 (2009).
     *
     *
     * If you are using vdW-DF2, please also cite:
     *
     *   K. Lee, E. D. Murray, L. Kong, B. I. Lundqvist, and
     *   D. C. Langreth, Phys. Rev. B 82, 081101(R) (2010).
     *
     *
     * If you are calculating the stress with vdW-DF, please also cite:
     *
     *   R. Sabatini, E. Kucukbenli, B. Kolb, T. Thonhauser, and
     *   S. de Gironcoli, J. Phys.: Condens. Matter 24, 424209 (2012).
     *

     Carrying out vdW-DF run using the following parameters:

     Nqs =      20    Nr_points =    1024   r_max =   100.000
     q_mesh =
               0.00001000     0.04494208     0.09755937     0.15916263
               0.23128650     0.31572767     0.41458969     0.53033537
               0.66584808     0.82450364     1.01025438     1.22772762
               1.48234092     1.78043706     2.12944203     2.53805004
               3.01644009     3.57652955     4.23227104     5.00000000

     Gradients computed in reciprocal space

     Adding external electric field

     Computed dipole along edir(3) :
        Dipole               -0.0000 Ry au,         -0.0000 Debye
        Dipole field         -0.0000 Ry au

        Potential amp.        0.0000 Ry
        Total length         45.1073 bohr

[...]

     Starting wfc are  156 randomized atomic wfcs

     Self-consistent Calculation

     iteration #  1     ecut=    36.75 Ry     beta=0.10
     Davidson diagonalization with overlap
     ethr =  1.00E-02,  avg # of iterations =  2.5

[...]

     Magnetic moment per site:
     atom:    1    charge:    1.9180    magn:    0.2527    constr:    0.0000
     atom:    2    charge:    1.9180    magn:    0.2527    constr:    0.0000
     atom:    3    charge:    1.9180    magn:    0.2527    constr:    0.0000
     atom:    4    charge:    9.4640    magn:    1.0510    constr:    0.0000
     atom:    5    charge:    1.9235    magn:    0.2520    constr:    0.0000
     atom:    6    charge:    1.9235    magn:    0.2520    constr:    0.0000
     atom:    7    charge:    1.9235    magn:    0.2520    constr:    0.0000
     atom:    8    charge:    9.4442    magn:    1.0373    constr:    0.0000
[...]
        k(    2) = (   0.0000000   0.0350608   0.0000000), wk =   0.0555556
        k(    3) = (   0.0000000   0.0701216   0.0000000), wk =   0.0555556
        k(    4) = (   0.0000000  -0.1051824   0.0000000), wk =   0.0277778
        k(    5) = (   0.0303635   0.0175304   0.0000000), wk =   0.0555556
        k(    6) = (   0.0303635   0.0525912   0.0000000), wk =   0.0555556
        k(    7) = (   0.0303635   0.0876520   0.0000000), wk =   0.0555556
        k(    8) = (   0.0303635  -0.0876520   0.0000000), wk =   0.0555556
        k(    9) = (   0.0303635  -0.0525912   0.0000000), wk =   0.0555556
        k(   10) = (   0.0303635  -0.0175304   0.0000000), wk =   0.0555556
        k(   11) = (   0.0607271   0.0350608   0.0000000), wk =   0.0555556
        k(   12) = (   0.0607271   0.0701216   0.0000000), wk =   0.0555556
        k(   13) = (   0.0607271   0.1051824   0.0000000), wk =   0.0555556
        k(   14) = (   0.0607271  -0.0701216   0.0000000), wk =   0.0555556
        k(   15) = (   0.0607271  -0.0350608   0.0000000), wk =   0.0555556
        k(   16) = (   0.0607271   0.0000000   0.0000000), wk =   0.0555556
        k(   17) = (  -0.0910906  -0.0525912   0.0000000), wk =   0.0277778
        k(   18) = (  -0.0910906  -0.0175304   0.0000000), wk =   0.0555556
        k(   19) = (  -0.0910906   0.0175304   0.0000000), wk =   0.0555556
        k(   20) = (  -0.0910906  -0.1577736   0.0000000), wk =   0.0277778
        k(   21) = (   0.0000000   0.0000000   0.0000000), wk =   0.0277778
        k(   22) = (   0.0000000   0.0350608   0.0000000), wk =   0.0555556
        k(   23) = (   0.0000000   0.0701216   0.0000000), wk =   0.0555556
        k(   24) = (   0.0000000  -0.1051824   0.0000000), wk =   0.0277778
        k(   25) = (   0.0303635   0.0175304   0.0000000), wk =   0.0555556
        k(   26) = (   0.0303635   0.0525912   0.0000000), wk =   0.0555556
        k(   27) = (   0.0303635   0.0876520   0.0000000), wk =   0.0555556
        k(   28) = (   0.0303635  -0.0876520   0.0000000), wk =   0.0555556
        k(   29) = (   0.0303635  -0.0525912   0.0000000), wk =   0.0555556
        k(   30) = (   0.0303635  -0.0175304   0.0000000), wk =   0.0555556
        k(   31) = (   0.0607271   0.0350608   0.0000000), wk =   0.0555556
        k(   32) = (   0.0607271   0.0701216   0.0000000), wk =   0.0555556
        k(   33) = (   0.0607271   0.1051824   0.0000000), wk =   0.0555556
        k(   34) = (   0.0607271  -0.0701216   0.0000000), wk =   0.0555556
        k(   35) = (   0.0607271  -0.0350608   0.0000000), wk =   0.0555556
        k(   36) = (   0.0607271   0.0000000   0.0000000), wk =   0.0555556
        k(   37) = (  -0.0910906  -0.0525912   0.0000000), wk =   0.0277778
        k(   38) = (  -0.0910906  -0.0175304   0.0000000), wk =   0.0555556
        k(   39) = (  -0.0910906   0.0175304   0.0000000), wk =   0.0555556
        k(   40) = (  -0.0910906  -0.1577736   0.0000000), wk =   0.0277778

     Largest allocated arrays     est. size (Mb)     dimensions
     Largest temporary arrays     est. size (Mb)     dimensions

     Initial potential from superposition of free atoms
     Check: negative starting charge=(component1):   -0.002489
     Check: negative starting charge=(component2):   -0.001867

     starting charge  173.99043, renormalised to  180.00000

[...]

     *
     * You are using vdW-DF for exchange-correlation in this calculation.
     * Please cite the following three references that made this development
     * possible:
     *
     *   M. Dion, H. Rydberg, E. Schroder, D. C. Langreth, and
     *   B. I. Lundqvist, Phys. Rev. Lett. 92, 246401 (2004).
     *
     *   T. Thonhauser, V. R. Cooper, S. Li, A. Puzder, P. Hyldgaard, and
     *   D. C. Langreth, Phys. Rev. B 76, 125112 (2007).
     *
     *   G. Roman-Perez and J. M. Soler, Phys. Rev. Lett. 103, 096102 (2009).
     *
     *
     * If you are using vdW-DF2, please also cite:
     *
     *   K. Lee, E. D. Murray, L. Kong, B. I. Lundqvist, and
     *   D. C. Langreth, Phys. Rev. B 82, 081101(R) (2010).
     *
     *
     * If you are calculating the stress with vdW-DF, please also cite:
     *
     *   R. Sabatini, E. Kucukbenli, B. Kolb, T. Thonhauser, and
     *   S. de Gironcoli, J. Phys.: Condens. Matter 24, 424209 (2012).
     *

     Carrying out vdW-DF run using the following parameters:

     Nqs =      20    Nr_points =    1024   r_max =   100.000
     q_mesh =
               0.00001000     0.04494208     0.09755937     0.15916263
               0.23128650     0.31572767     0.41458969     0.53033537
               0.66584808     0.82450364     1.01025438     1.22772762
               1.48234092     1.78043706     2.12944203     2.53805004
               3.01644009     3.57652955     4.23227104     5.00000000

     Gradients computed in reciprocal space

[...]

     Starting wfc are  156 randomized atomic wfcs

     Self-consistent Calculation

[...]

     total energy              =   -2292.73912911 Ry
     Harris-Foulkes estimate   =   -2292.73912643 Ry
     estimated scf accuracy    <       0.00000102 Ry

[...]

     iteration # 32     ecut=    36.75 Ry     beta=0.10
     Davidson diagonalization with overlap
     ethr =  5.66E-10,  avg # of iterations =  3.0

[...]

     negative rho (up, down):  2.186E-03 2.188E-03

[...]

     Adding external electric field

     Computed dipole along edir(3) :
        Dipole                0.0308 Ry au,          0.0783 Debye
        Dipole field          0.0001 Ry au

        Potential amp.       -0.0081 Ry
        Total length         45.1073 bohr

     Magnetic moment per site:
     atom:    1    charge:    1.8592    magn:    0.0005    constr:    0.0000
     atom:    2    charge:    1.8592    magn:    0.0005    constr:    0.0000
     atom:    3    charge:    1.8592    magn:    0.0005    constr:    0.0000
     atom:    4    charge:    9.3366    magn:   -0.0002    constr:    0.0000
     atom:    5    charge:    1.8601    magn:   -0.0000    constr:    0.0000
     atom:    6    charge:    1.8601    magn:   -0.0000    constr:    0.0000
     atom:    7    charge:    1.8601    magn:   -0.0000    constr:    0.0000
     atom:    8    charge:    9.3217    magn:    0.0025    constr:    0.0000
     atom:    9    charge:    1.8608    magn:    0.0002    constr:    0.0000
     atom:   10    charge:    1.8608    magn:    0.0002    constr:    0.0000
     atom:   11    charge:    1.8608    magn:    0.0002    constr:    0.0000
     atom:   12    charge:    9.3429    magn:   -0.0018    constr:    0.0000

     End of self-consistent calculation

 ------ SPIN UP ------------

[...]

 ------ SPIN DOWN ----------

[...]

          k = 0.0607 0.0000 0.0000 ( 16230 PWs)   bands (ev):

[...]

          k =-0.0911-0.1578 0.0000 ( 16164 PWs)   bands (ev):

  -101.5642-101.2772-101.2575 -61.9490 -61.9189 -61.9183 -61.6657 -61.6651
   -61.6463 -61.6457 -61.6195 -61.5970 -59.1481 -59.1192 -59.0607 -59.0276
   -59.0257 -59.0003 -58.9731 -58.9570 -58.9208 -33.7165 -33.6435 -33.5169
   -33.4566 -33.4113 -33.3528 -33.3378 -33.3181 -33.2411 -33.1955 -33.1314
   -33.1168 -33.0848 -33.0669 -33.0470 -33.0242 -32.9994 -32.9927 -32.9032
   -32.8784 -32.8408 -32.7414 -32.6906 -32.6538 -32.6506 -32.5929 -32.5440
    -2.9872  -2.8785  -2.1283  -1.9417  -1.8416  -1.8121  -1.4308  -1.3662
    -1.2976  -1.2578  -1.1316  -0.8925  -0.8574  -0.8444  -0.7470  -0.6403
    -0.4161  -0.4107  -0.1985  -0.1815  -0.1403  -0.0827   0.2048   0.2170
     0.2565   0.2711   0.3967   0.4897   0.5452   0.5787   0.8020   0.8300
     0.8893   0.9202   1.0253   1.0301   1.0735   1.1094   1.2744   1.2755
     1.6225   1.7747   1.8895   1.9927   2.0698   2.1300   2.3135   2.3290
     2.7391   2.8726   2.9381   3.3634   3.4371   3.5356   3.5580   3.6269
     3.6738   3.7622   3.8939   3.9875   4.3595   4.8772   4.9064   5.2371
     5.5662   5.6045   6.1394   6.3837   6.7950   7.2964   7.6982   7.7771

     the Fermi energy is     1.9251 ev

!    total energy              =   -2292.73913631 Ry
     Harris-Foulkes estimate   =   -2292.73912979 Ry
     estimated scf accuracy    <       0.00000074 Ry

     The total energy is the sum of the following terms:

     one-electron contribution =  -19289.62745678 Ry
     hartree contribution      =    9643.31290683 Ry
     xc contribution           =    -290.37795279 Ry
     ewald contribution        =    7644.04256995 Ry
     electric field correction =       0.00000277 Ry
     smearing contrib. (-TS)   =      -0.08920629 Ry

     total magnetization       =     0.04 Bohr mag/cell
     absolute magnetization    =     0.06 Bohr mag/cell

     convergence has been achieved in  32 iterations

 BEEF-vdW xc energy contributions
           1 :   -251.896637212790
           2 :    229.539327467114
           3 :   -191.462792097281
           4 :    148.065650208426
           5 :   -109.453905495773
           6 :    82.0012993885678
           7 :   -66.9463767955548
           8 :    61.2433667551858
           9 :   -59.9156471435959
          10 :    58.5608918434505
          11 :   -54.9214256596761
          12 :    49.0531833216683
          13 :   -42.4284009838707
          14 :    36.6753066880542
          15 :   -32.6708958013315
          16 :    30.2901355714986
          17 :   -28.7434331417243
          18 :    27.1378170482025
          19 :   -24.9307440932604
          20 :    22.0719905933876
          21 :   -18.8768060444566
          22 :    15.7695088951385
          23 :   -13.0776246956270
          24 :    10.9392602660589
          25 :   -9.32152757825889
          26 :    8.07143365806900
          27 :   -6.96956951562873
          28 :    5.77354158074644
          29 :   -4.28681836629960
          30 :    2.43931563216637
          31 :   -25.6819392458486
          32 :   -19.1671455596974

     Forces acting on atoms (Ry/au):

     negative rho (up, down):  2.186E-03 2.188E-03
     atom    1 type  1   force =     0.00000005    0.00978579    0.01611801
     atom    2 type  1   force =     0.00847510   -0.00489307    0.01611782
     atom    3 type  1   force =    -0.00847498   -0.00489311    0.01611775
     atom    4 type  2   force =    -0.00000047   -0.00000068    0.00905066
     atom    5 type  1   force =     0.00000008   -0.00064244   -0.01357973
     atom    6 type  1   force =    -0.00055609    0.00032139   -0.01357999
     atom    7 type  1   force =     0.00055629    0.00032137   -0.01358013
     atom    8 type  2   force =     0.00000032    0.00000366   -0.01601622
     atom    9 type  1   force =     0.00000013   -0.00005940    0.00001764
     atom   10 type  1   force =    -0.00005134    0.00002912    0.00001745
     atom   11 type  1   force =     0.00005156    0.00002908    0.00001743
     atom   12 type  2   force =    -0.00000067   -0.00000171   -0.00070068

     Total force =     0.044273     Total SCF correction =     0.002584

     entering subroutine stress ...

     negative rho (up, down):  2.186E-03 2.188E-03
          total   stress  (Ry/bohr**3)                   (kbar)     P=  -31.94
  -0.00025039   0.00000000   0.00000000        -36.83      0.00      0.00
   0.00000000  -0.00025039  -0.00000000          0.00    -36.83     -0.00
   0.00000000  -0.00000000  -0.00015059          0.00     -0.00    -22.15

 !ASE

     Writing output data file calc.save

     General routines

     Parallel routines

   This run was terminated on:   5: 3:29  27Dec2018

   JOB DONE.
Job  /afs/slac/g/suncat/bin/suncat-tsmpirun -x LD_LIBRARY_PATH -wdir /scratch/qe110137_DanLy pw.x -in pw.inp

TID   HOST_NAME   COMMAND_LINE            STATUS            TERMINATION_TIME
00000 suncat0024 pw.x -in pw.inp   Done                     12/27/2018 05:03:29
00001 suncat0024 pw.x -in pw.inp   Done                     12/27/2018 05:03:29
00002 suncat0024 pw.x -in pw.inp   Done                     12/27/2018 05:03:29
00003 suncat0024 pw.x -in pw.inp   Done                     12/27/2018 05:03:29
00004 suncat0024 pw.x -in pw.inp   Done                     12/27/2018 05:03:29
00005 suncat0024 pw.x -in pw.inp   Done                     12/27/2018 05:03:29
00006 suncat0024 pw.x -in pw.inp   Done                     12/27/2018 05:03:29
00007 suncat0024 pw.x -in pw.inp   Done                     12/27/2018 05:03:29
00008 suncat0023 pw.x -in pw.inp   Done                     12/27/2018 05:03:29
00009 suncat0023 pw.x -in pw.inp   Done                     12/27/2018 05:03:29
00010 suncat0023 pw.x -in pw.inp   Done                     12/27/2018 05:03:29
00011 suncat0023 pw.x -in pw.inp   Done                     12/27/2018 05:03:29
00012 suncat0023 pw.x -in pw.inp   Done                     12/27/2018 05:03:29
00013 suncat0023 pw.x -in pw.inp   Done                     12/27/2018 05:03:29
00014 suncat0023 pw.x -in pw.inp   Done                     12/27/2018 05:03:29
00015 suncat0023 pw.x -in pw.inp   Done                     12/27/2018 05:03:29
00016 suncat0022 pw.x -in pw.inp   Done                     12/27/2018 05:03:29
00017 suncat0022 pw.x -in pw.inp   Done                     12/27/2018 05:03:29
00018 suncat0022 pw.x -in pw.inp   Done                     12/27/2018 05:03:29
00019 suncat0022 pw.x -in pw.inp   Done                     12/27/2018 05:03:29
00020 suncat0022 pw.x -in pw.inp   Done                     12/27/2018 05:03:29
00021 suncat0022 pw.x -in pw.inp   Done                     12/27/2018 05:03:29
00022 suncat0022 pw.x -in pw.inp   Done                     12/27/2018 05:03:29
00023 suncat0022 pw.x -in pw.inp   Done                     12/27/2018 05:03:29
00024 suncat0018 pw.x -in pw.inp   Done                     12/27/2018 05:03:29
00025 suncat0018 pw.x -in pw.inp   Done                     12/27/2018 05:03:29
00026 suncat0018 pw.x -in pw.inp   Done                     12/27/2018 05:03:29
00027 suncat0018 pw.x -in pw.inp   Done                     12/27/2018 05:03:29
00028 suncat0018 pw.x -in pw.inp   Done                     12/27/2018 05:03:29
00029 suncat0018 pw.x -in pw.inp   Done                     12/27/2018 05:03:29
00030 suncat0018 pw.x -in pw.inp   Done                     12/27/2018 05:03:29
00031 suncat0018 pw.x -in pw.inp   Done                     12/27/2018 05:03:29
00032 suncat0017 pw.x -in pw.inp   Done                     12/27/2018 05:03:29
00033 suncat0017 pw.x -in pw.inp   Done                     12/27/2018 05:03:29
00034 suncat0017 pw.x -in pw.inp   Done                     12/27/2018 05:03:29
00035 suncat0017 pw.x -in pw.inp   Done                     12/27/2018 05:03:29
00036 suncat0017 pw.x -in pw.inp   Done                     12/27/2018 05:03:29
00037 suncat0017 pw.x -in pw.inp   Done                     12/27/2018 05:03:29
00038 suncat0017 pw.x -in pw.inp   Done                     12/27/2018 05:03:29
00039 suncat0017 pw.x -in pw.inp   Done                     12/27/2018 05:03:29
00040 suncat0016 pw.x -in pw.inp   Done                     12/27/2018 05:03:29
00041 suncat0016 pw.x -in pw.inp   Done                     12/27/2018 05:03:29
00042 suncat0016 pw.x -in pw.inp   Done                     12/27/2018 05:03:29
00043 suncat0016 pw.x -in pw.inp   Done                     12/27/2018 05:03:29
00044 suncat0016 pw.x -in pw.inp   Done                     12/27/2018 05:03:29
00045 suncat0016 pw.x -in pw.inp   Done                     12/27/2018 05:03:29
00046 suncat0016 pw.x -in pw.inp   Done                     12/27/2018 05:03:29
00047 suncat0016 pw.x -in pw.inp   Done                     12/27/2018 05:03:29
00048 suncat0014 pw.x -in pw.inp   Done                     12/27/2018 05:03:29
00049 suncat0014 pw.x -in pw.inp   Done                     12/27/2018 05:03:29
00050 suncat0014 pw.x -in pw.inp   Done                     12/27/2018 05:03:29
00051 suncat0014 pw.x -in pw.inp   Done                     12/27/2018 05:03:29
00052 suncat0014 pw.x -in pw.inp   Done                     12/27/2018 05:03:29
00053 suncat0014 pw.x -in pw.inp   Done                     12/27/2018 05:03:29
00054 suncat0014 pw.x -in pw.inp   Done                     12/27/2018 05:03:29
00055 suncat0014 pw.x -in pw.inp   Done                     12/27/2018 05:03:29
00056 suncat0198 pw.x -in pw.inp   Done                     12/27/2018 05:03:29
00057 suncat0198 pw.x -in pw.inp   Done                     12/27/2018 05:03:29
00058 suncat0198 pw.x -in pw.inp   Done                     12/27/2018 05:03:29
00059 suncat0198 pw.x -in pw.inp   Done                     12/27/2018 05:03:29
00060 suncat0198 pw.x -in pw.inp   Done                     12/27/2018 05:03:29
00061 suncat0198 pw.x -in pw.inp   Done                     12/27/2018 05:03:29
00062 suncat0198 pw.x -in pw.inp   Done                     12/27/2018 05:03:29
00063 suncat0198 pw.x -in pw.inp   Done                     12/27/2018 05:03:29