     Program PWSCF v.5.1rc2 (svn rev. 11289) starts on 25Dec2018 at 11:30: 1

     Current dimensions of program PWSCF are:
     Max number of different atomic species (ntypx) = 10
     Max number of k-points (npk) =  40000
     Max angular momentum in pseudopotentials (lmaxx) =  3
     Presently stress not available with electric field

     IMPORTANT: XC functional enforced from input :
     Exchange-correlation      = BEEF-VDW ( 1  4 27 13 2)
     Any further DFT definition will be discarded
     Please, verify this is what you really want

     Subspace diagonalization in iterative solution of the eigenvalue problem:
     a serial algorithm will be used

     Generating pointlists ...
     new r_m :   0.4125 (alat units)  0.7795 (a.u.) for type    1
     new r_m :   0.4125 (alat units)  0.7795 (a.u.) for type    2

     bravais-lattice index     =            0
     lattice parameter (alat)  =       1.8897  a.u.
     unit-cell volume          =    3614.8573 (a.u.)^3
     number of atoms/cell      =           12
     number of atomic types    =            2
     number of electrons       =       180.00
     number of Kohn-Sham states=          120
     kinetic-energy cutoff     =      36.7493  Ry
     charge density cutoff     =     367.4932  Ry
     convergence threshold     =      1.0E-06
     mixing beta               =       0.1000
     number of iterations used =           10  plain     mixing
     Exchange-correlation      = BEEF-VDW ( 1  4 27 13 2)
     nstep                     =           50

     celldm(1)=   1.889726  celldm(2)=   0.000000  celldm(3)=   0.000000
     celldm(4)=   0.000000  celldm(5)=   0.000000  celldm(6)=   0.000000

     crystal axes: (cart. coord. in units of alat)
               a(1) = (   5.062571   0.000000   0.000000 )
               a(2) = (  -2.531286   4.384315   0.000000 )
               a(3) = (   0.000000   0.000000  24.133572 )

     reciprocal axes: (cart. coord. in units 2 pi/alat)
               b(1) = (  0.197528  0.114043  0.000000 )
               b(2) = (  0.000000  0.228086  0.000000 )
               b(3) = (  0.000000  0.000000  0.041436 )

     PseudoPot. # 1 for Cr read from file:
     /afs/slac.stanford.edu/u/if/mamunm/psp/gbrv1.5pbe/Cr.UPF
     MD5 check sum: 0d52af634a40206e4dee301ad30da4bf
     Pseudo is Ultrasoft + core correction, Zval = 14.0
     Generated by new atomic code, or converted to UPF format
     Using radial grid of  857 points,  6 beta functions with:
                l(1) =   0
                l(2) =   0
                l(3) =   1
                l(4) =   1
                l(5) =   2
                l(6) =   2
     Q(r) pseudized with  8 coefficients,  rinner =    0.950   0.950   0.950
                                                       0.950   0.950

     PseudoPot. # 2 for Ni read from file:
     /afs/slac.stanford.edu/u/if/mamunm/psp/gbrv1.5pbe/Ni.UPF
     MD5 check sum: 1ee80287db30b12d2bc1f57a5b5d6409
     Pseudo is Ultrasoft + core correction, Zval = 18.0
     Generated by new atomic code, or converted to UPF format
     Using radial grid of  865 points,  6 beta functions with:
                l(1) =   0
                l(2) =   0
                l(3) =   1
                l(4) =   1
                l(5) =   2
                l(6) =   2
     Q(r) pseudized with 10 coefficients,  rinner =    0.980   0.980   0.980
                                                       0.980   0.980

     vdW kernel table read from file vdW_kernel_table
     MD5 check sum: 095c7af220d748ca6e76c0b4c6cfb241

     atomic species   valence    mass     pseudopotential
        Cr1           14.00    51.99610     Cr( 1.00)
        Ni1           18.00    58.69340     Ni( 1.00)

     Starting magnetic structure
     atomic species   magnetization
        Cr1          0.143
        Ni1          0.111

     No symmetry found

   Cartesian axes

     site n.     atom                  positions (alat units)
         1           Cr1 tau(   1) = (   0.0000000   0.0000000  10.0000000  )
         2           Cr1 tau(   2) = (  -1.2656428   2.1921577  10.0000000  )
         3           Cr1 tau(   3) = (   1.2656428   2.1921577  10.0000000  )
         4           Ni1 tau(   4) = (   2.5312857   0.0000000  10.0000000  )
         5           Cr1 tau(   5) = (   2.5312857   1.4614385  12.0667861  )
         6           Cr1 tau(   6) = (   1.2656428   3.6535962  12.0667861  )
         7           Cr1 tau(   7) = (  -1.2656428   3.6535962  12.0667861  )
         8           Ni1 tau(   8) = (  -0.0000000   1.4614385  12.0667861  )
         9           Cr1 tau(   9) = (  -0.0000000   2.9228770  14.1335722  )
        10           Cr1 tau(  10) = (   1.2656428   0.7307192  14.1335722  )
        11           Cr1 tau(  11) = (   3.7969285   0.7307192  14.1335722  )
        12           Ni1 tau(  12) = (   2.5312857   2.9228770  14.1335722  )

     number of k points=    40  Fermi-Dirac smearing, width (Ry)=  0.0110
                       cart. coord. in units 2pi/alat
        k(    1) = (   0.0000000   0.0000000   0.0000000), wk =   0.0277778
        k(    2) = (   0.0000000   0.0380143   0.0000000), wk =   0.0555556
        k(    3) = (   0.0000000   0.0760286   0.0000000), wk =   0.0555556
        k(    4) = (   0.0000000  -0.1140429   0.0000000), wk =   0.0277778
        k(    5) = (   0.0329213   0.0190071   0.0000000), wk =   0.0555556
        k(    6) = (   0.0329213   0.0570214   0.0000000), wk =   0.0555556
        k(    7) = (   0.0329213   0.0950357   0.0000000), wk =   0.0555556
        k(    8) = (   0.0329213  -0.0950357   0.0000000), wk =   0.0555556
        k(    9) = (   0.0329213  -0.0570214   0.0000000), wk =   0.0555556
        k(   10) = (   0.0329213  -0.0190071   0.0000000), wk =   0.0555556
        k(   11) = (   0.0658427   0.0380143   0.0000000), wk =   0.0555556
        k(   12) = (   0.0658427   0.0760286   0.0000000), wk =   0.0555556
        k(   13) = (   0.0658427   0.1140429   0.0000000), wk =   0.0555556
        k(   14) = (   0.0658427  -0.0760286   0.0000000), wk =   0.0555556
        k(   15) = (   0.0658427  -0.0380143   0.0000000), wk =   0.0555556
        k(   16) = (   0.0658427   0.0000000   0.0000000), wk =   0.0555556
        k(   17) = (  -0.0987640  -0.0570214   0.0000000), wk =   0.0277778
        k(   18) = (  -0.0987640  -0.0190071   0.0000000), wk =   0.0555556
        k(   19) = (  -0.0987640   0.0190071   0.0000000), wk =   0.0555556
        k(   20) = (  -0.0987640  -0.1710643   0.0000000), wk =   0.0277778
        k(   21) = (   0.0000000   0.0000000   0.0000000), wk =   0.0277778
        k(   22) = (   0.0000000   0.0380143   0.0000000), wk =   0.0555556
        k(   23) = (   0.0000000   0.0760286   0.0000000), wk =   0.0555556
        k(   24) = (   0.0000000  -0.1140429   0.0000000), wk =   0.0277778
        k(   25) = (   0.0329213   0.0190071   0.0000000), wk =   0.0555556
        k(   26) = (   0.0329213   0.0570214   0.0000000), wk =   0.0555556
        k(   27) = (   0.0329213   0.0950357   0.0000000), wk =   0.0555556
        k(   28) = (   0.0329213  -0.0950357   0.0000000), wk =   0.0555556
        k(   29) = (   0.0329213  -0.0570214   0.0000000), wk =   0.0555556
        k(   30) = (   0.0329213  -0.0190071   0.0000000), wk =   0.0555556
        k(   31) = (   0.0658427   0.0380143   0.0000000), wk =   0.0555556
        k(   32) = (   0.0658427   0.0760286   0.0000000), wk =   0.0555556
        k(   33) = (   0.0658427   0.1140429   0.0000000), wk =   0.0555556
        k(   34) = (   0.0658427  -0.0760286   0.0000000), wk =   0.0555556
        k(   35) = (   0.0658427  -0.0380143   0.0000000), wk =   0.0555556
        k(   36) = (   0.0658427   0.0000000   0.0000000), wk =   0.0555556
        k(   37) = (  -0.0987640  -0.0570214   0.0000000), wk =   0.0277778
        k(   38) = (  -0.0987640  -0.0190071   0.0000000), wk =   0.0555556
        k(   39) = (  -0.0987640   0.0190071   0.0000000), wk =   0.0555556
        k(   40) = (  -0.0987640  -0.1710643   0.0000000), wk =   0.0277778

     Largest allocated arrays     est. size (Mb)     dimensions
     Largest temporary arrays     est. size (Mb)     dimensions

     Check: negative/imaginary core charge=   -0.000004    0.000000

     Initial potential from superposition of free atoms
     Check: negative starting charge=(component1):   -0.006391
     Check: negative starting charge=(component2):   -0.004796

     starting charge  164.99986, renormalised to  180.00000

     negative rho (up, down):  6.972E-03 5.232E-03

     *
     * You are using vdW-DF for exchange-correlation in this calculation.
     * Please cite the following three references that made this development
     * possible:
     *
     *   M. Dion, H. Rydberg, E. Schroder, D. C. Langreth, and
     *   B. I. Lundqvist, Phys. Rev. Lett. 92, 246401 (2004).
     *
     *   T. Thonhauser, V. R. Cooper, S. Li, A. Puzder, P. Hyldgaard, and
     *   D. C. Langreth, Phys. Rev. B 76, 125112 (2007).
     *
     *   G. Roman-Perez and J. M. Soler, Phys. Rev. Lett. 103, 096102 (2009).
     *
     *
     * If you are using vdW-DF2, please also cite:
     *
     *   K. Lee, E. D. Murray, L. Kong, B. I. Lundqvist, and
     *   D. C. Langreth, Phys. Rev. B 82, 081101(R) (2010).
     *
     *
     * If you are calculating the stress with vdW-DF, please also cite:
     *
     *   R. Sabatini, E. Kucukbenli, B. Kolb, T. Thonhauser, and
     *   S. de Gironcoli, J. Phys.: Condens. Matter 24, 424209 (2012).
     *

     Carrying out vdW-DF run using the following parameters:

     Nqs =      20    Nr_points =    1024   r_max =   100.000
     q_mesh =
               0.00001000     0.04494208     0.09755937     0.15916263
               0.23128650     0.31572767     0.41458969     0.53033537
               0.66584808     0.82450364     1.01025438     1.22772762
               1.48234092     1.78043706     2.12944203     2.53805004
               3.01644009     3.57652955     4.23227104     5.00000000

     Gradients computed in reciprocal space

     Adding external electric field

     Computed dipole along edir(3) :
        Dipole                0.0000 Ry au,          0.0000 Debye
        Dipole field          0.0000 Ry au

        Potential amp.       -0.0000 Ry
        Total length         44.4657 bohr

[...]

     Starting wfc are  129 randomized atomic wfcs

     Self-consistent Calculation

     iteration #  1     ecut=    36.75 Ry     beta=0.10
     Davidson diagonalization with overlap
     ethr =  1.00E-02,  avg # of iterations =  8.6

[...]

     Magnetic moment per site:
     atom:    1    charge:    5.2488    magn:    0.7087    constr:    0.0000
     atom:    2    charge:    5.2488    magn:    0.7087    constr:    0.0000
     atom:    3    charge:    5.2488    magn:    0.7087    constr:    0.0000
     atom:    4    charge:    9.6925    magn:    1.0253    constr:    0.0000
     atom:    5    charge:    5.2561    magn:    0.7101    constr:    0.0000
     atom:    6    charge:    5.2561    magn:    0.7101    constr:    0.0000
     atom:    7    charge:    5.2561    magn:    0.7101    constr:    0.0000
     atom:    8    charge:    9.6980    magn:    1.0261    constr:    0.0000
[...]
        k(    3) = (   0.0000000   0.0760286   0.0000000), wk =   0.0555556
        k(    4) = (   0.0000000  -0.1140429   0.0000000), wk =   0.0277778
        k(    5) = (   0.0329213   0.0190071   0.0000000), wk =   0.0555556
        k(    6) = (   0.0329213   0.0570214   0.0000000), wk =   0.0555556
        k(    7) = (   0.0329213   0.0950357   0.0000000), wk =   0.0555556
        k(    8) = (   0.0329213  -0.0950357   0.0000000), wk =   0.0555556
        k(    9) = (   0.0329213  -0.0570214   0.0000000), wk =   0.0555556
        k(   10) = (   0.0329213  -0.0190071   0.0000000), wk =   0.0555556
        k(   11) = (   0.0658427   0.0380143   0.0000000), wk =   0.0555556
        k(   12) = (   0.0658427   0.0760286   0.0000000), wk =   0.0555556
        k(   13) = (   0.0658427   0.1140429   0.0000000), wk =   0.0555556
        k(   14) = (   0.0658427  -0.0760286   0.0000000), wk =   0.0555556
        k(   15) = (   0.0658427  -0.0380143   0.0000000), wk =   0.0555556
        k(   16) = (   0.0658427   0.0000000   0.0000000), wk =   0.0555556
        k(   17) = (  -0.0987640  -0.0570214   0.0000000), wk =   0.0277778
        k(   18) = (  -0.0987640  -0.0190071   0.0000000), wk =   0.0555556
        k(   19) = (  -0.0987640   0.0190071   0.0000000), wk =   0.0555556
        k(   20) = (  -0.0987640  -0.1710643   0.0000000), wk =   0.0277778
        k(   21) = (   0.0000000   0.0000000   0.0000000), wk =   0.0277778
        k(   22) = (   0.0000000   0.0380143   0.0000000), wk =   0.0555556
        k(   23) = (   0.0000000   0.0760286   0.0000000), wk =   0.0555556
        k(   24) = (   0.0000000  -0.1140429   0.0000000), wk =   0.0277778
        k(   25) = (   0.0329213   0.0190071   0.0000000), wk =   0.0555556
        k(   26) = (   0.0329213   0.0570214   0.0000000), wk =   0.0555556
        k(   27) = (   0.0329213   0.0950357   0.0000000), wk =   0.0555556
        k(   28) = (   0.0329213  -0.0950357   0.0000000), wk =   0.0555556
        k(   29) = (   0.0329213  -0.0570214   0.0000000), wk =   0.0555556
        k(   30) = (   0.0329213  -0.0190071   0.0000000), wk =   0.0555556
        k(   31) = (   0.0658427   0.0380143   0.0000000), wk =   0.0555556
        k(   32) = (   0.0658427   0.0760286   0.0000000), wk =   0.0555556
        k(   33) = (   0.0658427   0.1140429   0.0000000), wk =   0.0555556
        k(   34) = (   0.0658427  -0.0760286   0.0000000), wk =   0.0555556
        k(   35) = (   0.0658427  -0.0380143   0.0000000), wk =   0.0555556
        k(   36) = (   0.0658427   0.0000000   0.0000000), wk =   0.0555556
        k(   37) = (  -0.0987640  -0.0570214   0.0000000), wk =   0.0277778
        k(   38) = (  -0.0987640  -0.0190071   0.0000000), wk =   0.0555556
        k(   39) = (  -0.0987640   0.0190071   0.0000000), wk =   0.0555556
        k(   40) = (  -0.0987640  -0.1710643   0.0000000), wk =   0.0277778

     Largest allocated arrays     est. size (Mb)     dimensions
     Largest temporary arrays     est. size (Mb)     dimensions

     Check: negative/imaginary core charge=   -0.000004    0.000000

     Initial potential from superposition of free atoms
     Check: negative starting charge=(component1):   -0.006294
     Check: negative starting charge=(component2):   -0.004723

     starting charge  164.99986, renormalised to  180.00000

[...]

     *
     * You are using vdW-DF for exchange-correlation in this calculation.
     * Please cite the following three references that made this development
     * possible:
     *
     *   M. Dion, H. Rydberg, E. Schroder, D. C. Langreth, and
     *   B. I. Lundqvist, Phys. Rev. Lett. 92, 246401 (2004).
     *
     *   T. Thonhauser, V. R. Cooper, S. Li, A. Puzder, P. Hyldgaard, and
     *   D. C. Langreth, Phys. Rev. B 76, 125112 (2007).
     *
     *   G. Roman-Perez and J. M. Soler, Phys. Rev. Lett. 103, 096102 (2009).
     *
     *
     * If you are using vdW-DF2, please also cite:
     *
     *   K. Lee, E. D. Murray, L. Kong, B. I. Lundqvist, and
     *   D. C. Langreth, Phys. Rev. B 82, 081101(R) (2010).
     *
     *
     * If you are calculating the stress with vdW-DF, please also cite:
     *
     *   R. Sabatini, E. Kucukbenli, B. Kolb, T. Thonhauser, and
     *   S. de Gironcoli, J. Phys.: Condens. Matter 24, 424209 (2012).
     *

     Carrying out vdW-DF run using the following parameters:

     Nqs =      20    Nr_points =    1024   r_max =   100.000
     q_mesh =
               0.00001000     0.04494208     0.09755937     0.15916263
               0.23128650     0.31572767     0.41458969     0.53033537
               0.66584808     0.82450364     1.01025438     1.22772762
               1.48234092     1.78043706     2.12944203     2.53805004
               3.01644009     3.57652955     4.23227104     5.00000000

     Gradients computed in reciprocal space

[...]

     Starting wfc are  129 randomized atomic wfcs

     Self-consistent Calculation

[...]

     total energy              =   -2619.46060768 Ry
     Harris-Foulkes estimate   =   -2619.46060769 Ry
     estimated scf accuracy    <       0.00000102 Ry

[...]

     iteration # 72     ecut=    36.75 Ry     beta=0.10
     Davidson diagonalization with overlap
     ethr =  5.67E-10,  avg # of iterations =  1.7

[...]

     negative rho (up, down):  3.881E-03 8.077E-03

[...]

     Adding external electric field

     Computed dipole along edir(3) :
        Dipole               -0.0030 Ry au,         -0.0076 Debye
        Dipole field         -0.0000 Ry au

        Potential amp.        0.0009 Ry
        Total length         44.4657 bohr

     Magnetic moment per site:
     atom:    1    charge:    4.9508    magn:    0.3804    constr:    0.0000
     atom:    2    charge:    4.9507    magn:    0.3800    constr:    0.0000
     atom:    3    charge:    4.9507    magn:    0.3813    constr:    0.0000
     atom:    4    charge:    9.3336    magn:    0.0409    constr:    0.0000
     atom:    5    charge:    4.9454    magn:   -0.2010    constr:    0.0000
     atom:    6    charge:    4.9454    magn:   -0.2012    constr:    0.0000
     atom:    7    charge:    4.9454    magn:   -0.2011    constr:    0.0000
     atom:    8    charge:    9.3286    magn:    0.0599    constr:    0.0000
     atom:    9    charge:    4.9495    magn:    0.3005    constr:    0.0000
     atom:   10    charge:    4.9496    magn:    0.3000    constr:    0.0000
     atom:   11    charge:    4.9495    magn:    0.2995    constr:    0.0000
     atom:   12    charge:    9.3401    magn:    0.0350    constr:    0.0000

     End of self-consistent calculation

 ------ SPIN UP ------------

[...]

 ------ SPIN DOWN ----------

[...]

          k = 0.0658 0.0000 0.0000 ( 13613 PWs)   bands (ev):

[...]

          k =-0.0988-0.1711 0.0000 ( 13622 PWs)   bands (ev):

  -102.5776-102.2516-102.2383 -70.8899 -70.8568 -70.8232 -69.9882 -69.9558
   -69.9229 -69.8687 -69.8374 -69.8028 -62.9636 -62.9379 -62.9374 -62.6636
   -62.6631 -62.6568 -62.6563 -62.5459 -62.5209 -42.4126 -42.2598 -42.2302
   -42.2122 -42.1934 -42.1865 -42.1587 -42.1557 -41.9139 -41.5367 -41.4416
   -41.3205 -41.2961 -41.2578 -41.2525 -41.2519 -41.2314 -41.2202 -41.2075
   -41.1734 -41.1385 -41.1317 -41.1255 -41.0954 -41.0776 -41.0454 -40.9408
    -4.3433  -4.1578  -2.8118  -2.6829  -2.2596  -2.1687  -2.1134  -2.0835
    -2.0602  -1.8917  -1.8037  -1.5549  -1.5151  -1.4889  -1.4292  -1.1641
    -1.0837  -1.0687  -0.9681  -0.9077  -0.6819  -0.6816  -0.6180  -0.5840
    -0.5224  -0.1985  -0.0799  -0.0036   0.0323   0.2320   0.2792   0.3215
     0.4672   0.5077   0.5431   0.5925   0.6823   0.8092   0.8908   0.9340
     1.0858   1.0995   1.2308   1.4791   1.6011   1.7198   1.8958   1.9060
     1.9408   1.9935   2.2153   2.2756   2.3439   2.4090   2.4494   2.5269
     2.6703   2.7121   2.7782   2.9526   2.9658   3.1954   3.5261   3.7199
     3.9655   4.2597   4.2994   5.2211   5.4286   5.7411   5.9207   5.9764

     the Fermi energy is     1.1109 ev

!    total energy              =   -2619.46060863 Ry
     Harris-Foulkes estimate   =   -2619.46060790 Ry
     estimated scf accuracy    <       0.00000096 Ry

     The total energy is the sum of the following terms:

     one-electron contribution =  -23466.39979284 Ry
     hartree contribution      =   11729.09438885 Ry
     xc contribution           =    -319.92869996 Ry
     ewald contribution        =    9437.87981319 Ry
     electric field correction =       0.00000003 Ry
     smearing contrib. (-TS)   =      -0.10631791 Ry

     total magnetization       =     4.93 Bohr mag/cell
     absolute magnetization    =     8.73 Bohr mag/cell

     convergence has been achieved in  72 iterations

 BEEF-vdW xc energy contributions
           1 :   -278.797068322490
           2 :    251.786127977795
           3 :   -206.496986732740
           4 :    156.287861954442
           5 :   -113.392694472151
           6 :    84.4784258433914
           7 :   -69.4043893336453
           8 :    63.1795756482186
           9 :   -59.5875205530065
          10 :    54.4179916896786
          11 :   -46.8472516274546
          12 :    38.6959967728039
          13 :   -32.4495256741536
          14 :    29.4056626735554
          15 :   -28.9901477250984
          16 :    29.3911054701809
          17 :   -28.8602215600650
          18 :    26.7446186959208
          19 :   -23.6673786041289
          20 :    20.8918917152050
          21 :   -19.3999664046557
          22 :    19.2908269865774
          23 :   -19.8276887958352
          24 :    20.0084321637384
          25 :   -19.2338291331077
          26 :    17.6324895712211
          27 :   -15.8814285532153
          28 :    14.6982006963997
          29 :   -14.3745475675647
          30 :    14.6401892006597
          31 :   -25.9183848209138
          32 :   -18.4942252353316

     Forces acting on atoms (Ry/au):

     negative rho (up, down):  3.881E-03 8.077E-03
     atom    1 type  1   force =    -0.00000197   -0.00154439    0.01123622
     atom    2 type  1   force =    -0.00133321    0.00076283    0.01125083
     atom    3 type  1   force =     0.00133362    0.00076529    0.01121094
     atom    4 type  2   force =    -0.00000165   -0.00000698   -0.00344698
     atom    5 type  1   force =     0.00001193    0.00156592   -0.00544701
     atom    6 type  1   force =     0.00136173   -0.00077842   -0.00545528
     atom    7 type  1   force =    -0.00136024   -0.00079162   -0.00545857
     atom    8 type  2   force =    -0.00001252    0.00005953   -0.01577806
     atom    9 type  1   force =    -0.00000158   -0.00088319    0.00080784
     atom   10 type  1   force =    -0.00074715    0.00044853    0.00081773
     atom   11 type  1   force =     0.00074343    0.00044812    0.00081643
     atom   12 type  2   force =     0.00000760   -0.00004563   -0.00055410

     Total force =     0.027343     Total SCF correction =     0.001069

     entering subroutine stress ...

     negative rho (up, down):  3.881E-03 8.077E-03
          total   stress  (Ry/bohr**3)                   (kbar)     P=  -24.33
  -0.00017492   0.00000002  -0.00000000        -25.73      0.00     -0.00
   0.00000002  -0.00017492  -0.00000001          0.00    -25.73     -0.00
  -0.00000000  -0.00000001  -0.00014632         -0.00     -0.00    -21.52

 !ASE

     Writing output data file calc.save

     General routines

     Parallel routines

   This run was terminated on:  18: 7: 1  25Dec2018

   JOB DONE.
Job  /afs/slac/g/suncat/bin/suncat-tsmpirun -x LD_LIBRARY_PATH -wdir /scratch/qe109519_TWkGn pw.x -in pw.inp

TID   HOST_NAME   COMMAND_LINE            STATUS            TERMINATION_TIME
00000 suncat0139 pw.x -in pw.inp   Done                     12/25/2018 18:07:01
00001 suncat0139 pw.x -in pw.inp   Done                     12/25/2018 18:07:01
00002 suncat0139 pw.x -in pw.inp   Done                     12/25/2018 18:07:01
00003 suncat0139 pw.x -in pw.inp   Done                     12/25/2018 18:07:01
00004 suncat0139 pw.x -in pw.inp   Done                     12/25/2018 18:07:01
00005 suncat0139 pw.x -in pw.inp   Done                     12/25/2018 18:07:01
00006 suncat0139 pw.x -in pw.inp   Done                     12/25/2018 18:07:01
00007 suncat0139 pw.x -in pw.inp   Done                     12/25/2018 18:07:01
00008 suncat0124 pw.x -in pw.inp   Done                     12/25/2018 18:07:01
00009 suncat0124 pw.x -in pw.inp   Done                     12/25/2018 18:07:01
00010 suncat0124 pw.x -in pw.inp   Done                     12/25/2018 18:07:01
00011 suncat0124 pw.x -in pw.inp   Done                     12/25/2018 18:07:01
00012 suncat0124 pw.x -in pw.inp   Done                     12/25/2018 18:07:01
00013 suncat0124 pw.x -in pw.inp   Done                     12/25/2018 18:07:01
00014 suncat0124 pw.x -in pw.inp   Done                     12/25/2018 18:07:01
00015 suncat0124 pw.x -in pw.inp   Done                     12/25/2018 18:07:01
00016 suncat0123 pw.x -in pw.inp   Done                     12/25/2018 18:07:01
00017 suncat0123 pw.x -in pw.inp   Done                     12/25/2018 18:07:01
00018 suncat0123 pw.x -in pw.inp   Done                     12/25/2018 18:07:01
00019 suncat0123 pw.x -in pw.inp   Done                     12/25/2018 18:07:01
00020 suncat0123 pw.x -in pw.inp   Done                     12/25/2018 18:07:01
00021 suncat0123 pw.x -in pw.inp   Done                     12/25/2018 18:07:01
00022 suncat0123 pw.x -in pw.inp   Done                     12/25/2018 18:07:01
00023 suncat0123 pw.x -in pw.inp   Done                     12/25/2018 18:07:01
00024 suncat0122 pw.x -in pw.inp   Done                     12/25/2018 18:07:01
00025 suncat0122 pw.x -in pw.inp   Done                     12/25/2018 18:07:01
00026 suncat0122 pw.x -in pw.inp   Done                     12/25/2018 18:07:01
00027 suncat0122 pw.x -in pw.inp   Done                     12/25/2018 18:07:01
00028 suncat0122 pw.x -in pw.inp   Done                     12/25/2018 18:07:01
00029 suncat0122 pw.x -in pw.inp   Done                     12/25/2018 18:07:01
00030 suncat0122 pw.x -in pw.inp   Done                     12/25/2018 18:07:01
00031 suncat0122 pw.x -in pw.inp   Done                     12/25/2018 18:07:01
00032 suncat0241 pw.x -in pw.inp   Done                     12/25/2018 18:07:01
00033 suncat0241 pw.x -in pw.inp   Done                     12/25/2018 18:07:01
00034 suncat0241 pw.x -in pw.inp   Done                     12/25/2018 18:07:01
00035 suncat0241 pw.x -in pw.inp   Done                     12/25/2018 18:07:01
00036 suncat0241 pw.x -in pw.inp   Done                     12/25/2018 18:07:01
00037 suncat0241 pw.x -in pw.inp   Done                     12/25/2018 18:07:01
00038 suncat0241 pw.x -in pw.inp   Done                     12/25/2018 18:07:01
00039 suncat0241 pw.x -in pw.inp   Done                     12/25/2018 18:07:01
00040 suncat0240 pw.x -in pw.inp   Done                     12/25/2018 18:07:01
00041 suncat0240 pw.x -in pw.inp   Done                     12/25/2018 18:07:01
00042 suncat0240 pw.x -in pw.inp   Done                     12/25/2018 18:07:01
00043 suncat0240 pw.x -in pw.inp   Done                     12/25/2018 18:07:01
00044 suncat0240 pw.x -in pw.inp   Done                     12/25/2018 18:07:01
00045 suncat0240 pw.x -in pw.inp   Done                     12/25/2018 18:07:01
00046 suncat0240 pw.x -in pw.inp   Done                     12/25/2018 18:07:01
00047 suncat0240 pw.x -in pw.inp   Done                     12/25/2018 18:07:01
00048 suncat0239 pw.x -in pw.inp   Done                     12/25/2018 18:07:01
00049 suncat0239 pw.x -in pw.inp   Done                     12/25/2018 18:07:01
00050 suncat0239 pw.x -in pw.inp   Done                     12/25/2018 18:07:01
00051 suncat0239 pw.x -in pw.inp   Done                     12/25/2018 18:07:01
00052 suncat0239 pw.x -in pw.inp   Done                     12/25/2018 18:07:01
00053 suncat0239 pw.x -in pw.inp   Done                     12/25/2018 18:07:01
00054 suncat0239 pw.x -in pw.inp   Done                     12/25/2018 18:07:01
00055 suncat0239 pw.x -in pw.inp   Done                     12/25/2018 18:07:01
00056 suncat0098 pw.x -in pw.inp   Done                     12/25/2018 18:07:01
00057 suncat0098 pw.x -in pw.inp   Done                     12/25/2018 18:07:01
00058 suncat0098 pw.x -in pw.inp   Done                     12/25/2018 18:07:01
00059 suncat0098 pw.x -in pw.inp   Done                     12/25/2018 18:07:01
00060 suncat0098 pw.x -in pw.inp   Done                     12/25/2018 18:07:01
00061 suncat0098 pw.x -in pw.inp   Done                     12/25/2018 18:07:01
00062 suncat0098 pw.x -in pw.inp   Done                     12/25/2018 18:07:01
00063 suncat0098 pw.x -in pw.inp   Done                     12/25/2018 18:07:01