     Program PWSCF v.5.1rc2 (svn rev. 11289) starts on 25Dec2018 at 10: 8:59

     Current dimensions of program PWSCF are:
     Max number of different atomic species (ntypx) = 10
     Max number of k-points (npk) =  40000
     Max angular momentum in pseudopotentials (lmaxx) =  3
     Presently stress not available with electric field

     IMPORTANT: XC functional enforced from input :
     Exchange-correlation      = BEEF-VDW ( 1  4 27 13 2)
     Any further DFT definition will be discarded
     Please, verify this is what you really want

     Subspace diagonalization in iterative solution of the eigenvalue problem:
     a serial algorithm will be used

     bravais-lattice index     =            0
     lattice parameter (alat)  =       1.8897  a.u.
     unit-cell volume          =    4302.8685 (a.u.)^3
     number of atoms/cell      =           12
     number of atomic types    =            2
     number of electrons       =       162.00
     number of Kohn-Sham states=          111
     kinetic-energy cutoff     =      36.7493  Ry
     charge density cutoff     =     367.4932  Ry
     convergence threshold     =      1.0E-06
     mixing beta               =       0.1000
     number of iterations used =           10  plain     mixing
     Exchange-correlation      = BEEF-VDW ( 1  4 27 13 2)
     nstep                     =           50

     celldm(1)=   1.889726  celldm(2)=   0.000000  celldm(3)=   0.000000
     celldm(4)=   0.000000  celldm(5)=   0.000000  celldm(6)=   0.000000

     crystal axes: (cart. coord. in units of alat)
               a(1) = (   5.484381   0.000000   0.000000 )
               a(2) = (  -2.742191   4.749614   0.000000 )
               a(3) = (   0.000000   0.000000  24.477979 )

     reciprocal axes: (cart. coord. in units 2 pi/alat)
               b(1) = (  0.182336  0.105272  0.000000 )
               b(2) = (  0.000000  0.210543  0.000000 )
               b(3) = (  0.000000  0.000000  0.040853 )

     PseudoPot. # 1 for Cr read from file:
     /afs/slac.stanford.edu/u/if/mamunm/psp/gbrv1.5pbe/Cr.UPF
     MD5 check sum: 0d52af634a40206e4dee301ad30da4bf
     Pseudo is Ultrasoft + core correction, Zval = 14.0
     Generated by new atomic code, or converted to UPF format
     Using radial grid of  857 points,  6 beta functions with:
                l(1) =   0
                l(2) =   0
                l(3) =   1
                l(4) =   1
                l(5) =   2
                l(6) =   2
     Q(r) pseudized with  8 coefficients,  rinner =    0.950   0.950   0.950
                                                       0.950   0.950

     PseudoPot. # 2 for Hf read from file:
     /afs/slac.stanford.edu/u/if/mamunm/psp/gbrv1.5pbe/Hf.UPF
     MD5 check sum: 8ee9378dfe14276e333edf04c5e4aa26
     Pseudo is Ultrasoft + core correction, Zval = 12.0
     Generated by new atomic code, or converted to UPF format
     Using radial grid of  921 points,  8 beta functions with:
                l(1) =   0
                l(2) =   0
                l(3) =   0
                l(4) =   1
                l(5) =   1
                l(6) =   2
                l(7) =   2
                l(8) =   3
     Q(r) pseudized with  6 coefficients,  rinner =    1.200   1.200   1.200
                                                       1.200   1.200   1.200
                                                       1.200

     vdW kernel table read from file vdW_kernel_table
     MD5 check sum: 095c7af220d748ca6e76c0b4c6cfb241

     atomic species   valence    mass     pseudopotential
        Cr1           14.00    51.99610     Cr( 1.00)
        Hf1           12.00   178.49000     Hf( 1.00)

     No symmetry found

   Cartesian axes

     site n.     atom                  positions (alat units)
         1           Cr1 tau(   1) = (   0.0000000   0.0000000  10.0000000  )
         2           Cr1 tau(   2) = (  -1.3710953   2.3748068  10.0000000  )
         3           Cr1 tau(   3) = (   1.3710953   2.3748068  10.0000000  )
         4           Hf1 tau(   4) = (   2.7421907   0.0000000  10.0000000  )
         5           Cr1 tau(   5) = (   2.7421907   1.5832045  12.2389893  )
         6           Cr1 tau(   6) = (   1.3710953   3.9580113  12.2389893  )
         7           Cr1 tau(   7) = (  -1.3710953   3.9580113  12.2389893  )
         8           Hf1 tau(   8) = (   0.0000000   1.5832045  12.2389893  )
         9           Cr1 tau(   9) = (  -0.0000000   3.1664091  14.4779786  )
        10           Cr1 tau(  10) = (   1.3710953   0.7916023  14.4779786  )
        11           Cr1 tau(  11) = (   4.1132860   0.7916023  14.4779786  )
        12           Hf1 tau(  12) = (   2.7421907   3.1664091  14.4779786  )

     number of k points=    20  Fermi-Dirac smearing, width (Ry)=  0.0110
                       cart. coord. in units 2pi/alat
        k(    1) = (   0.0000000   0.0000000   0.0000000), wk =   0.0555556
        k(    2) = (   0.0000000   0.0350906   0.0000000), wk =   0.1111111
        k(    3) = (   0.0000000   0.0701811   0.0000000), wk =   0.1111111
        k(    4) = (   0.0000000  -0.1052717   0.0000000), wk =   0.0555556
        k(    5) = (   0.0303893   0.0175453   0.0000000), wk =   0.1111111
        k(    6) = (   0.0303893   0.0526359   0.0000000), wk =   0.1111111
        k(    7) = (   0.0303893   0.0877264   0.0000000), wk =   0.1111111
        k(    8) = (   0.0303893  -0.0877264   0.0000000), wk =   0.1111111
        k(    9) = (   0.0303893  -0.0526359   0.0000000), wk =   0.1111111
        k(   10) = (   0.0303893  -0.0175453   0.0000000), wk =   0.1111111
        k(   11) = (   0.0607787   0.0350906   0.0000000), wk =   0.1111111
        k(   12) = (   0.0607787   0.0701811   0.0000000), wk =   0.1111111
        k(   13) = (   0.0607787   0.1052717   0.0000000), wk =   0.1111111
        k(   14) = (   0.0607787  -0.0701811   0.0000000), wk =   0.1111111
        k(   15) = (   0.0607787  -0.0350906   0.0000000), wk =   0.1111111
        k(   16) = (   0.0607787   0.0000000   0.0000000), wk =   0.1111111
        k(   17) = (  -0.0911680  -0.0526359   0.0000000), wk =   0.0555556
        k(   18) = (  -0.0911680  -0.0175453   0.0000000), wk =   0.1111111
        k(   19) = (  -0.0911680   0.0175453   0.0000000), wk =   0.1111111
        k(   20) = (  -0.0911680  -0.1579076   0.0000000), wk =   0.0555556

     Largest allocated arrays     est. size (Mb)     dimensions
     Largest temporary arrays     est. size (Mb)     dimensions

     Check: negative/imaginary core charge=   -0.000004    0.000000

     Initial potential from superposition of free atoms
     Check: negative starting charge=   -0.331996

     starting charge  146.99986, renormalised to  162.00000

     negative rho (up, down):  3.659E-01 0.000E+00

     *
     * You are using vdW-DF for exchange-correlation in this calculation.
     * Please cite the following three references that made this development
     * possible:
     *
     *   M. Dion, H. Rydberg, E. Schroder, D. C. Langreth, and
     *   B. I. Lundqvist, Phys. Rev. Lett. 92, 246401 (2004).
     *
     *   T. Thonhauser, V. R. Cooper, S. Li, A. Puzder, P. Hyldgaard, and
     *   D. C. Langreth, Phys. Rev. B 76, 125112 (2007).
     *
     *   G. Roman-Perez and J. M. Soler, Phys. Rev. Lett. 103, 096102 (2009).
     *
     *
     * If you are using vdW-DF2, please also cite:
     *
     *   K. Lee, E. D. Murray, L. Kong, B. I. Lundqvist, and
     *   D. C. Langreth, Phys. Rev. B 82, 081101(R) (2010).
     *
     *
     * If you are calculating the stress with vdW-DF, please also cite:
     *
     *   R. Sabatini, E. Kucukbenli, B. Kolb, T. Thonhauser, and
     *   S. de Gironcoli, J. Phys.: Condens. Matter 24, 424209 (2012).
     *

     Carrying out vdW-DF run using the following parameters:

     Nqs =      20    Nr_points =    1024   r_max =   100.000
     q_mesh =
               0.00001000     0.04494208     0.09755937     0.15916263
               0.23128650     0.31572767     0.41458969     0.53033537
               0.66584808     0.82450364     1.01025438     1.22772762
               1.48234092     1.78043706     2.12944203     2.53805004
               3.01644009     3.57652955     4.23227104     5.00000000

     Gradients computed in reciprocal space

     Adding external electric field

     Computed dipole along edir(3) :
        Dipole                0.0000 Ry au,          0.0000 Debye
        Dipole field          0.0000 Ry au

        Potential amp.       -0.0000 Ry
        Total length         45.1003 bohr

     Starting wfc are  129 randomized atomic wfcs

     Self-consistent Calculation

     iteration #  1     ecut=    36.75 Ry     beta=0.10
     Davidson diagonalization with overlap
     ethr =  1.00E-02,  avg # of iterations =  9.4

[...]

     total energy              =   -2057.87021729 Ry
     Harris-Foulkes estimate   =   -2082.45836579 Ry
     estimated scf accuracy    <     140.59961104 Ry

[...]

     End of self-consistent calculation

          k = 0.0000 0.0000 0.0000 ( 16073 PWs)   bands (ev):

   -70.4395 -70.4003 -70.4002 -70.2907 -70.2885 -70.2532 -70.2531 -70.2526
   -70.2526 -60.6989 -60.6985 -60.2009 -41.9232 -41.8166 -41.8165 -41.7911
   -41.7459 -41.7365 -41.7335 -41.7334 -41.6495 -41.6342 -41.6154 -41.6153
   -41.6135 -41.6134 -41.6099 -41.6099 -41.5817 -41.5817 -41.5707 -41.5519
   -41.5519 -41.4425 -41.4367 -41.4367 -41.4360 -41.4344 -41.4344 -29.3755
   -29.3603 -29.2512 -29.2512 -29.2475 -29.2475 -28.8749 -28.8369 -28.8369
    -5.3404  -3.7250  -2.5332  -2.1819  -2.1819  -1.9459  -1.9458  -1.7419
    -1.5533  -1.3597  -1.3597  -1.2067  -1.2067  -1.1544  -1.0399  -0.3593
    -0.3593  -0.2129   0.5023   0.5331   0.5331   0.6493   0.8140   0.9480
     1.0536   1.1137   1.1137   1.1487   1.1487   1.2413   1.2413   1.4024
     1.4024   1.4222   1.4629   1.4630   1.9059   1.9265   1.9265   1.9331
     2.1685   2.1685   2.2110   2.3383   2.3383   2.7017   2.7017   2.7803
     3.1073   3.1463   3.2614   3.2615   3.2768   3.3070   4.1734   4.1734
     4.2901   4.2902   4.4463   4.7278   4.7278   4.7691   4.7691

[...]

          k =-0.0912-0.0526 0.0000 ( 16164 PWs)   bands (ev):

[...]

     the Fermi energy is     1.2062 ev

!    total energy              =   -2067.60164290 Ry
     Harris-Foulkes estimate   =   -2067.60164300 Ry
     estimated scf accuracy    <       0.00000029 Ry

     The total energy is the sum of the following terms:

     one-electron contribution =  -15489.43430246 Ry
     hartree contribution      =    7734.59691677 Ry
     xc contribution           =    -441.33294276 Ry
     ewald contribution        =    6128.72865363 Ry
     electric field correction =       0.00000000 Ry
     smearing contrib. (-TS)   =      -0.15996807 Ry

     convergence has been achieved in  33 iterations

 BEEF-vdW xc energy contributions
           1 :   -391.089911055492
           2 :    358.184577328354
           3 :   -301.730646823185
           4 :    236.292540273272
           5 :   -175.796456503037
           6 :    128.846664550223
           7 :   -97.2143341720350
           8 :    77.5421695419419
           9 :   -64.7257648787383
          10 :    54.8850107345097
[...]
     Pseudo is Ultrasoft + core correction, Zval = 14.0
     Generated by new atomic code, or converted to UPF format
     Using radial grid of  857 points,  6 beta functions with:
                l(1) =   0
                l(2) =   0
                l(3) =   1
                l(4) =   1
                l(5) =   2
                l(6) =   2
     Q(r) pseudized with  8 coefficients,  rinner =    0.950   0.950   0.950
                                                       0.950   0.950

     PseudoPot. # 2 for Hf read from file:
     /afs/slac.stanford.edu/u/if/mamunm/psp/gbrv1.5pbe/Hf.UPF
     MD5 check sum: 8ee9378dfe14276e333edf04c5e4aa26
     Pseudo is Ultrasoft + core correction, Zval = 12.0
     Generated by new atomic code, or converted to UPF format
     Using radial grid of  921 points,  8 beta functions with:
                l(1) =   0
                l(2) =   0
                l(3) =   0
                l(4) =   1
                l(5) =   1
                l(6) =   2
                l(7) =   2
                l(8) =   3
     Q(r) pseudized with  6 coefficients,  rinner =    1.200   1.200   1.200
                                                       1.200   1.200   1.200
                                                       1.200

     vdW kernel table read from file vdW_kernel_table
     MD5 check sum: 095c7af220d748ca6e76c0b4c6cfb241

     atomic species   valence    mass     pseudopotential
        Cr1           14.00    51.99610     Cr( 1.00)
        Hf1           12.00   178.49000     Hf( 1.00)

     No symmetry found

   Cartesian axes

     site n.     atom                  positions (alat units)
         1           Cr1 tau(   1) = (   0.0000000   0.0000000  10.0000000  )
         2           Cr1 tau(   2) = (  -1.3710953   2.3748068  10.0000000  )
         3           Cr1 tau(   3) = (   1.3710953   2.3748068  10.0000000  )
         4           Hf1 tau(   4) = (   2.7421907   0.0000000  10.0000000  )
         5           Cr1 tau(   5) = (   2.7421907   1.5832045  12.2389893  )
         6           Cr1 tau(   6) = (   1.3710953   3.9580113  12.2389893  )
         7           Cr1 tau(   7) = (  -1.3710953   3.9580113  12.2389893  )
         8           Hf1 tau(   8) = (   0.0000000   1.5832045  12.2389893  )
         9           Cr1 tau(   9) = (   0.0009856   3.3621048  14.1735419  )
        10           Cr1 tau(  10) = (   1.5392921   0.6939056  14.1720522  )
        11           Cr1 tau(  11) = (   3.9451233   0.6927642  14.1732985  )
        12           Hf1 tau(  12) = (   2.7430184   3.1654499  14.7356905  )

     number of k points=    20  Fermi-Dirac smearing, width (Ry)=  0.0110
                       cart. coord. in units 2pi/alat
        k(    1) = (   0.0000000   0.0000000   0.0000000), wk =   0.0555556
        k(    2) = (   0.0000000   0.0350906   0.0000000), wk =   0.1111111
        k(    3) = (   0.0000000   0.0701811   0.0000000), wk =   0.1111111
        k(    4) = (   0.0000000  -0.1052717   0.0000000), wk =   0.0555556
        k(    5) = (   0.0303893   0.0175453   0.0000000), wk =   0.1111111
        k(    6) = (   0.0303893   0.0526359   0.0000000), wk =   0.1111111
        k(    7) = (   0.0303893   0.0877264   0.0000000), wk =   0.1111111
        k(    8) = (   0.0303893  -0.0877264   0.0000000), wk =   0.1111111
        k(    9) = (   0.0303893  -0.0526359   0.0000000), wk =   0.1111111
        k(   10) = (   0.0303893  -0.0175453   0.0000000), wk =   0.1111111
        k(   11) = (   0.0607787   0.0350906   0.0000000), wk =   0.1111111
        k(   12) = (   0.0607787   0.0701811   0.0000000), wk =   0.1111111
        k(   13) = (   0.0607787   0.1052717   0.0000000), wk =   0.1111111
        k(   14) = (   0.0607787  -0.0701811   0.0000000), wk =   0.1111111
        k(   15) = (   0.0607787  -0.0350906   0.0000000), wk =   0.1111111
        k(   16) = (   0.0607787   0.0000000   0.0000000), wk =   0.1111111
        k(   17) = (  -0.0911680  -0.0526359   0.0000000), wk =   0.0555556
        k(   18) = (  -0.0911680  -0.0175453   0.0000000), wk =   0.1111111
        k(   19) = (  -0.0911680   0.0175453   0.0000000), wk =   0.1111111
        k(   20) = (  -0.0911680  -0.1579076   0.0000000), wk =   0.0555556

     Largest allocated arrays     est. size (Mb)     dimensions
     Largest temporary arrays     est. size (Mb)     dimensions

     Check: negative/imaginary core charge=   -0.000004    0.000000

     Initial potential from superposition of free atoms
     Check: negative starting charge=   -0.333177

     starting charge  146.99986, renormalised to  162.00000

[...]

     *
     * You are using vdW-DF for exchange-correlation in this calculation.
     * Please cite the following three references that made this development
     * possible:
     *
     *   M. Dion, H. Rydberg, E. Schroder, D. C. Langreth, and
     *   B. I. Lundqvist, Phys. Rev. Lett. 92, 246401 (2004).
     *
     *   T. Thonhauser, V. R. Cooper, S. Li, A. Puzder, P. Hyldgaard, and
     *   D. C. Langreth, Phys. Rev. B 76, 125112 (2007).
     *
     *   G. Roman-Perez and J. M. Soler, Phys. Rev. Lett. 103, 096102 (2009).
     *
     *
     * If you are using vdW-DF2, please also cite:
     *
     *   K. Lee, E. D. Murray, L. Kong, B. I. Lundqvist, and
     *   D. C. Langreth, Phys. Rev. B 82, 081101(R) (2010).
     *
     *
     * If you are calculating the stress with vdW-DF, please also cite:
     *
     *   R. Sabatini, E. Kucukbenli, B. Kolb, T. Thonhauser, and
     *   S. de Gironcoli, J. Phys.: Condens. Matter 24, 424209 (2012).
     *

     Carrying out vdW-DF run using the following parameters:

     Nqs =      20    Nr_points =    1024   r_max =   100.000
     q_mesh =
               0.00001000     0.04494208     0.09755937     0.15916263
               0.23128650     0.31572767     0.41458969     0.53033537
               0.66584808     0.82450364     1.01025438     1.22772762
               1.48234092     1.78043706     2.12944203     2.53805004
               3.01644009     3.57652955     4.23227104     5.00000000

     Gradients computed in reciprocal space

[...]

     Starting wfc are  129 randomized atomic wfcs

     Self-consistent Calculation

[...]

     total energy              =   -2067.65626291 Ry
     Harris-Foulkes estimate   =   -2067.65626227 Ry
     estimated scf accuracy    <       0.00000113 Ry

     iteration # 34     ecut=    36.75 Ry     beta=0.10
     Davidson diagonalization with overlap
     ethr =  6.99E-10,  avg # of iterations =  1.1

[...]

     negative rho (up, down):  3.516E-01 0.000E+00

     Adding external electric field

     Computed dipole along edir(3) :
        Dipole                0.1994 Ry au,          0.5069 Debye
        Dipole field          0.0006 Ry au

        Potential amp.       -0.0525 Ry
        Total length         45.1003 bohr

     End of self-consistent calculation

[...]

          k = 0.0608 0.0000 0.0000 ( 16202 PWs)   bands (ev):

[...]

          k =-0.0912-0.1579 0.0000 ( 16164 PWs)   bands (ev):

   -70.1573 -70.1350 -70.1189 -70.0113 -69.9954 -69.9831 -69.9709 -69.9425
   -69.9386 -61.1554 -60.3861 -59.8965 -41.7185 -41.6367 -41.5985 -41.5628
   -41.5554 -41.5192 -41.4581 -41.4547 -41.4019 -41.3937 -41.3660 -41.3396
   -41.3293 -41.3038 -41.2917 -41.2777 -41.2751 -41.2635 -41.2477 -41.2309
   -41.1773 -41.1695 -41.1654 -41.1515 -41.1208 -41.1146 -41.0811 -29.8355
   -29.6153 -29.6062 -29.0571 -28.9631 -28.9474 -28.6222 -28.5755 -28.5595
    -3.4040  -3.2315  -2.1021  -1.8059  -1.4197  -1.1810  -1.1328  -1.1119
    -1.0421  -0.8594  -0.5881  -0.5365  -0.4377  -0.2221  -0.2134  -0.1068
     0.0485   0.1216   0.1780   0.2541   0.3240   0.3609   0.5773   0.6380
     0.7102   0.7713   0.8805   0.9825   1.0103   1.0451   1.1357   1.2381
     1.3224   1.3655   1.5120   1.5817   1.6487   1.7108   1.8059   1.8886
     1.9973   2.1624   2.2831   2.3434   2.3734   2.4220   2.5064   2.6618
     2.7715   2.9285   2.9774   3.0335   3.2590   3.4437   3.7833   3.8513
     4.1494   4.3029   4.4166   4.6419   4.6467   4.7576   4.8589

     the Fermi energy is     1.4911 ev

!    total energy              =   -2067.65626457 Ry
     Harris-Foulkes estimate   =   -2067.65626153 Ry
     estimated scf accuracy    <       0.00000045 Ry

     The total energy is the sum of the following terms:

     one-electron contribution =  -15879.78044758 Ry
     hartree contribution      =    7931.06346811 Ry
     xc contribution           =    -441.60095239 Ry
     ewald contribution        =    6322.80429158 Ry
     electric field correction =       0.00011614 Ry
     smearing contrib. (-TS)   =      -0.14274042 Ry

     convergence has been achieved in  34 iterations

 BEEF-vdW xc energy contributions
           1 :   -391.376291982252
           2 :    358.585161390686
           3 :   -302.250030686361
           4 :    236.789743339793
           5 :   -176.058103246672
           6 :    128.729195142188
           7 :   -96.7610393181585
           8 :    76.9792954440102
           9 :   -64.3256316035963
          10 :    54.7879190894326
          11 :   -46.6976199518577
          12 :    40.2303205722722
          13 :   -35.9701257942479
          14 :    33.6846804053729
          15 :   -32.0755419742205
          16 :    29.4902952057052
          17 :   -24.9817600853085
          18 :    18.9451870688994
          19 :   -12.9250485621019
          20 :    8.73255294229256
          21 :   -7.44279205401381
          22 :    8.86163781933294
          23 :   -11.7301077690791
          24 :    14.4640103723729
          25 :   -15.9415308714749
          26 :    15.8861154992193
          27 :   -14.7128915844635
          28 :    13.0520369022645
          29 :   -11.3251092183597
          30 :    9.63252382141371
          31 :   -32.9297244317962
          32 :   -23.6722229413838

     Forces acting on atoms (Ry/au):

     negative rho (up, down):  3.516E-01 0.000E+00
     atom    1 type  1   force =     0.00000762   -0.02632798    0.02091174
     atom    2 type  1   force =    -0.02278550    0.01315096    0.02088433
     atom    3 type  1   force =     0.02279868    0.01314957    0.02089062
     atom    4 type  2   force =    -0.00000202   -0.00001117   -0.03414878
     atom    5 type  1   force =    -0.00007176    0.02311421    0.00246240
     atom    6 type  1   force =     0.02005598   -0.01154230    0.00248103
     atom    7 type  1   force =    -0.02007707   -0.01147184    0.00244031
     atom    8 type  2   force =    -0.00025122    0.00024155   -0.03668624
     atom    9 type  1   force =     0.00023615    0.00060611    0.00039381
     atom   10 type  1   force =     0.00026811   -0.00027835    0.00010099
     atom   11 type  1   force =    -0.00025934   -0.00054705    0.00030411
     atom   12 type  2   force =     0.00008037   -0.00008371   -0.00003430

     Total force =     0.086740     Total SCF correction =     0.002880

     entering subroutine stress ...

     negative rho (up, down):  3.516E-01 0.000E+00
          total   stress  (Ry/bohr**3)                   (kbar)     P=  -14.01
  -0.00011926  -0.00000022   0.00000030        -17.54     -0.03      0.04
  -0.00000022  -0.00011977  -0.00000029         -0.03    -17.62     -0.04
   0.00000030  -0.00000029  -0.00004672          0.04     -0.04     -6.87

 !ASE

     Writing output data file calc.save

     General routines

     Parallel routines

   This run was terminated on:  15:52:27  25Dec2018

   JOB DONE.
Job  /afs/slac/g/suncat/bin/suncat-tsmpirun -x LD_LIBRARY_PATH -wdir /scratch/qe109506_tktlg pw.x -in pw.inp

TID   HOST_NAME   COMMAND_LINE            STATUS            TERMINATION_TIME
00000 suncat0183 pw.x -in pw.inp   Done                     12/25/2018 15:52:27
00001 suncat0183 pw.x -in pw.inp   Done                     12/25/2018 15:52:27
00002 suncat0183 pw.x -in pw.inp   Done                     12/25/2018 15:52:27
00003 suncat0183 pw.x -in pw.inp   Done                     12/25/2018 15:52:27
00004 suncat0183 pw.x -in pw.inp   Done                     12/25/2018 15:52:27
00005 suncat0183 pw.x -in pw.inp   Done                     12/25/2018 15:52:27
00006 suncat0183 pw.x -in pw.inp   Done                     12/25/2018 15:52:27
00007 suncat0183 pw.x -in pw.inp   Done                     12/25/2018 15:52:27
00008 suncat0182 pw.x -in pw.inp   Done                     12/25/2018 15:52:27
00009 suncat0182 pw.x -in pw.inp   Done                     12/25/2018 15:52:27
00010 suncat0182 pw.x -in pw.inp   Done                     12/25/2018 15:52:27
00011 suncat0182 pw.x -in pw.inp   Done                     12/25/2018 15:52:27
00012 suncat0182 pw.x -in pw.inp   Done                     12/25/2018 15:52:27
00013 suncat0182 pw.x -in pw.inp   Done                     12/25/2018 15:52:27
00014 suncat0182 pw.x -in pw.inp   Done                     12/25/2018 15:52:27
00015 suncat0182 pw.x -in pw.inp   Done                     12/25/2018 15:52:27
00016 suncat0181 pw.x -in pw.inp   Done                     12/25/2018 15:52:27
00017 suncat0181 pw.x -in pw.inp   Done                     12/25/2018 15:52:27
00018 suncat0181 pw.x -in pw.inp   Done                     12/25/2018 15:52:27
00019 suncat0181 pw.x -in pw.inp   Done                     12/25/2018 15:52:27
00020 suncat0181 pw.x -in pw.inp   Done                     12/25/2018 15:52:27
00021 suncat0181 pw.x -in pw.inp   Done                     12/25/2018 15:52:27
00022 suncat0181 pw.x -in pw.inp   Done                     12/25/2018 15:52:27
00023 suncat0181 pw.x -in pw.inp   Done                     12/25/2018 15:52:27
00024 suncat0252 pw.x -in pw.inp   Done                     12/25/2018 15:52:27
00025 suncat0252 pw.x -in pw.inp   Done                     12/25/2018 15:52:27
00026 suncat0252 pw.x -in pw.inp   Done                     12/25/2018 15:52:27
00027 suncat0252 pw.x -in pw.inp   Done                     12/25/2018 15:52:27
00028 suncat0252 pw.x -in pw.inp   Done                     12/25/2018 15:52:27
00029 suncat0252 pw.x -in pw.inp   Done                     12/25/2018 15:52:27
00030 suncat0252 pw.x -in pw.inp   Done                     12/25/2018 15:52:27
00031 suncat0252 pw.x -in pw.inp   Done                     12/25/2018 15:52:27
00032 suncat0226 pw.x -in pw.inp   Done                     12/25/2018 15:52:27
00033 suncat0226 pw.x -in pw.inp   Done                     12/25/2018 15:52:27
00034 suncat0226 pw.x -in pw.inp   Done                     12/25/2018 15:52:27
00035 suncat0226 pw.x -in pw.inp   Done                     12/25/2018 15:52:27
00036 suncat0226 pw.x -in pw.inp   Done                     12/25/2018 15:52:27
00037 suncat0226 pw.x -in pw.inp   Done                     12/25/2018 15:52:27
00038 suncat0226 pw.x -in pw.inp   Done                     12/25/2018 15:52:27
00039 suncat0226 pw.x -in pw.inp   Done                     12/25/2018 15:52:27
00040 suncat0225 pw.x -in pw.inp   Done                     12/25/2018 15:52:27
00041 suncat0225 pw.x -in pw.inp   Done                     12/25/2018 15:52:27
00042 suncat0225 pw.x -in pw.inp   Done                     12/25/2018 15:52:27
00043 suncat0225 pw.x -in pw.inp   Done                     12/25/2018 15:52:27
00044 suncat0225 pw.x -in pw.inp   Done                     12/25/2018 15:52:27
00045 suncat0225 pw.x -in pw.inp   Done                     12/25/2018 15:52:27
00046 suncat0225 pw.x -in pw.inp   Done                     12/25/2018 15:52:27
00047 suncat0225 pw.x -in pw.inp   Done                     12/25/2018 15:52:27
00048 suncat0224 pw.x -in pw.inp   Done                     12/25/2018 15:52:27
00049 suncat0224 pw.x -in pw.inp   Done                     12/25/2018 15:52:27
00050 suncat0224 pw.x -in pw.inp   Done                     12/25/2018 15:52:27
00051 suncat0224 pw.x -in pw.inp   Done                     12/25/2018 15:52:27
00052 suncat0224 pw.x -in pw.inp   Done                     12/25/2018 15:52:27
00053 suncat0224 pw.x -in pw.inp   Done                     12/25/2018 15:52:27
00054 suncat0224 pw.x -in pw.inp   Done                     12/25/2018 15:52:27
00055 suncat0224 pw.x -in pw.inp   Done                     12/25/2018 15:52:27
00056 suncat0223 pw.x -in pw.inp   Done                     12/25/2018 15:52:27
00057 suncat0223 pw.x -in pw.inp   Done                     12/25/2018 15:52:27
00058 suncat0223 pw.x -in pw.inp   Done                     12/25/2018 15:52:27
00059 suncat0223 pw.x -in pw.inp   Done                     12/25/2018 15:52:27
00060 suncat0223 pw.x -in pw.inp   Done                     12/25/2018 15:52:27
00061 suncat0223 pw.x -in pw.inp   Done                     12/25/2018 15:52:27
00062 suncat0223 pw.x -in pw.inp   Done                     12/25/2018 15:52:27
00063 suncat0223 pw.x -in pw.inp   Done                     12/25/2018 15:52:27