     Program PWSCF v.5.1rc2 (svn rev. 11289) starts on  1Jan2019 at 20:49:37

     Current dimensions of program PWSCF are:
     Max number of different atomic species (ntypx) = 10
     Max number of k-points (npk) =  40000
     Max angular momentum in pseudopotentials (lmaxx) =  3
     Presently stress not available with electric field

     IMPORTANT: XC functional enforced from input :
     Exchange-correlation      = BEEF-VDW ( 1  4 27 13 2)
     Any further DFT definition will be discarded
     Please, verify this is what you really want

     Subspace diagonalization in iterative solution of the eigenvalue problem:
     a serial algorithm will be used

     bravais-lattice index     =            0
     lattice parameter (alat)  =       1.8897  a.u.
     unit-cell volume          =    4273.4709 (a.u.)^3
     number of atoms/cell      =           12
     number of atomic types    =            2
     number of electrons       =       183.00
     number of Kohn-Sham states=          121
     kinetic-energy cutoff     =      36.7493  Ry
     charge density cutoff     =     367.4932  Ry
     convergence threshold     =      1.0E-06
     mixing beta               =       0.1000
     number of iterations used =           10  plain     mixing
     Exchange-correlation      = BEEF-VDW ( 1  4 27 13 2)
     nstep                     =           50

     celldm(1)=   1.889726  celldm(2)=   0.000000  celldm(3)=   0.000000
     celldm(4)=   0.000000  celldm(5)=   0.000000  celldm(6)=   0.000000

     crystal axes: (cart. coord. in units of alat)
               a(1) = (   5.467183   0.000000   0.000000 )
               a(2) = (  -2.733591   4.734719   0.000000 )
               a(3) = (   0.000000   0.000000  24.463936 )

     reciprocal axes: (cart. coord. in units 2 pi/alat)
               b(1) = (  0.182910  0.105603  0.000000 )
               b(2) = (  0.000000  0.211206  0.000000 )
               b(3) = (  0.000000  0.000000  0.040876 )

     PseudoPot. # 1 for Tc read from file:
     /afs/slac.stanford.edu/u/if/mamunm/psp/gbrv1.5pbe/Tc.UPF
     MD5 check sum: 9eb49e5b028550b2339a02317eb7b844
     Pseudo is Ultrasoft + core correction, Zval = 15.0
     Generated by new atomic code, or converted to UPF format
     Using radial grid of  965 points,  6 beta functions with:
                l(1) =   0
                l(2) =   0
                l(3) =   1
                l(4) =   1
                l(5) =   2
                l(6) =   2
     Q(r) pseudized with  8 coefficients,  rinner =    1.300   1.300   1.300
                                                       1.300   1.300

     PseudoPot. # 2 for Ru read from file:
     /afs/slac.stanford.edu/u/if/mamunm/psp/gbrv1.5pbe/Ru.UPF
     MD5 check sum: 7158a806dd851261a58e6920c40ebe78
     Pseudo is Ultrasoft + core correction, Zval = 16.0
     Generated by new atomic code, or converted to UPF format
     Using radial grid of  967 points,  6 beta functions with:
                l(1) =   0
                l(2) =   0
                l(3) =   1
                l(4) =   1
                l(5) =   2
                l(6) =   2
     Q(r) pseudized with  8 coefficients,  rinner =    1.300   1.300   1.300
                                                       1.300   1.300

     vdW kernel table read from file vdW_kernel_table
     MD5 check sum: 095c7af220d748ca6e76c0b4c6cfb241

     atomic species   valence    mass     pseudopotential
        Tc1           15.00    97.90721     Tc( 1.00)
        Ru1           16.00   101.07000     Ru( 1.00)

     No symmetry found

   Cartesian axes

     site n.     atom                  positions (alat units)
         1           Tc1 tau(   1) = (   0.0000000   0.0000000  10.0000000  )
         2           Tc1 tau(   2) = (  -1.3667957   2.3673596  10.0000000  )
         3           Tc1 tau(   3) = (   1.3667957   2.3673596  10.0000000  )
         4           Ru1 tau(   4) = (   2.7335914   0.0000000  10.0000000  )
         5           Tc1 tau(   5) = (   2.7335914   1.5782397  12.2319680  )
         6           Tc1 tau(   6) = (   1.3667957   3.9455993  12.2319680  )
         7           Tc1 tau(   7) = (  -1.3667957   3.9455993  12.2319680  )
         8           Ru1 tau(   8) = (   0.0000000   1.5782397  12.2319680  )
         9           Tc1 tau(   9) = (  -0.0000000   3.1564794  14.4639360  )
        10           Tc1 tau(  10) = (   1.3667957   0.7891199  14.4639360  )
        11           Tc1 tau(  11) = (   4.1003871   0.7891199  14.4639360  )
        12           Ru1 tau(  12) = (   2.7335914   3.1564794  14.4639360  )

     number of k points=    20  Fermi-Dirac smearing, width (Ry)=  0.0110
                       cart. coord. in units 2pi/alat
        k(    1) = (   0.0000000   0.0000000   0.0000000), wk =   0.0555556
        k(    2) = (   0.0000000   0.0352010   0.0000000), wk =   0.1111111
        k(    3) = (   0.0000000   0.0704019   0.0000000), wk =   0.1111111
        k(    4) = (   0.0000000  -0.1056029   0.0000000), wk =   0.0555556
        k(    5) = (   0.0304849   0.0176005   0.0000000), wk =   0.1111111
        k(    6) = (   0.0304849   0.0528014   0.0000000), wk =   0.1111111
        k(    7) = (   0.0304849   0.0880024   0.0000000), wk =   0.1111111
        k(    8) = (   0.0304849  -0.0880024   0.0000000), wk =   0.1111111
        k(    9) = (   0.0304849  -0.0528014   0.0000000), wk =   0.1111111
        k(   10) = (   0.0304849  -0.0176005   0.0000000), wk =   0.1111111
        k(   11) = (   0.0609699   0.0352010   0.0000000), wk =   0.1111111
        k(   12) = (   0.0609699   0.0704019   0.0000000), wk =   0.1111111
        k(   13) = (   0.0609699   0.1056029   0.0000000), wk =   0.1111111
        k(   14) = (   0.0609699  -0.0704019   0.0000000), wk =   0.1111111
        k(   15) = (   0.0609699  -0.0352010   0.0000000), wk =   0.1111111
        k(   16) = (   0.0609699   0.0000000   0.0000000), wk =   0.1111111
        k(   17) = (  -0.0914548  -0.0528014   0.0000000), wk =   0.0555556
        k(   18) = (  -0.0914548  -0.0176005   0.0000000), wk =   0.1111111
        k(   19) = (  -0.0914548   0.0176005   0.0000000), wk =   0.1111111
        k(   20) = (  -0.0914548  -0.1584043   0.0000000), wk =   0.0555556

     Largest allocated arrays     est. size (Mb)     dimensions
     Largest temporary arrays     est. size (Mb)     dimensions

     Check: negative/imaginary core charge=   -0.000019    0.000000

     Initial potential from superposition of free atoms
     Check: negative starting charge=   -1.348287

     starting charge  170.99970, renormalised to  183.00000

     negative rho (up, down):  1.443E+00 0.000E+00

     *
     * You are using vdW-DF for exchange-correlation in this calculation.
     * Please cite the following three references that made this development
     * possible:
     *
     *   M. Dion, H. Rydberg, E. Schroder, D. C. Langreth, and
     *   B. I. Lundqvist, Phys. Rev. Lett. 92, 246401 (2004).
     *
     *   T. Thonhauser, V. R. Cooper, S. Li, A. Puzder, P. Hyldgaard, and
     *   D. C. Langreth, Phys. Rev. B 76, 125112 (2007).
     *
     *   G. Roman-Perez and J. M. Soler, Phys. Rev. Lett. 103, 096102 (2009).
     *
     *
     * If you are using vdW-DF2, please also cite:
     *
     *   K. Lee, E. D. Murray, L. Kong, B. I. Lundqvist, and
     *   D. C. Langreth, Phys. Rev. B 82, 081101(R) (2010).
     *
     *
     * If you are calculating the stress with vdW-DF, please also cite:
     *
     *   R. Sabatini, E. Kucukbenli, B. Kolb, T. Thonhauser, and
     *   S. de Gironcoli, J. Phys.: Condens. Matter 24, 424209 (2012).
     *

     Carrying out vdW-DF run using the following parameters:

     Nqs =      20    Nr_points =    1024   r_max =   100.000
     q_mesh =
               0.00001000     0.04494208     0.09755937     0.15916263
               0.23128650     0.31572767     0.41458969     0.53033537
               0.66584808     0.82450364     1.01025438     1.22772762
               1.48234092     1.78043706     2.12944203     2.53805004
               3.01644009     3.57652955     4.23227104     5.00000000

     Gradients computed in reciprocal space

     Adding external electric field

     Computed dipole along edir(3) :
        Dipole                0.0000 Ry au,          0.0000 Debye
        Dipole field          0.0000 Ry au

        Potential amp.       -0.0000 Ry
        Total length         45.0744 bohr

     Starting wfc are  156 randomized atomic wfcs

     Self-consistent Calculation

     iteration #  1     ecut=    36.75 Ry     beta=0.10
     Davidson diagonalization with overlap
     ethr =  1.00E-02,  avg # of iterations =  8.8

[...]

     total energy              =   -2163.78602055 Ry
     Harris-Foulkes estimate   =   -2167.96350179 Ry
     estimated scf accuracy    <      26.07838008 Ry

[...]

     End of self-consistent calculation

          k = 0.0000 0.0000 0.0000 ( 16013 PWs)   bands (ev):

   -70.7020 -70.2755 -70.2753 -64.9613 -64.8519 -64.8519 -64.6675 -64.6589
   -64.5643 -64.5643 -64.5622 -64.5621 -40.7043 -40.6701 -40.6701 -40.2720
   -40.2720 -40.2667 -40.2667 -40.2400 -40.2204 -37.3990 -37.1499 -37.1182
   -37.1182 -37.0532 -36.9978 -36.9978 -36.9815 -36.7599 -36.7598 -36.6985
   -36.6969 -36.6802 -36.6801 -36.5970 -36.5969 -36.5080 -36.5080 -36.4824
   -36.4704 -36.4703 -36.3824 -36.3526 -36.2240 -36.2239 -36.2185 -36.2185
    -4.1991  -2.9289  -2.9263  -2.9263  -2.8256  -2.7606  -2.5098  -2.5098
    -2.4969  -2.3055  -2.2748  -2.2748  -1.9320  -1.9320  -1.9160  -0.7790
    -0.7790  -0.7233  -0.0486  -0.0486  -0.0283   0.2376   0.3928   0.4950
     0.4950   0.8044   0.8044   0.8715   0.8715   1.0616   1.1011   1.1011
     1.3549   1.6066   1.6067   2.1150   2.4344   2.4344   2.5269   2.6938
     2.6939   2.7465   2.7915   2.7915   3.3742   3.4506   3.4506   3.7124
     3.9960   3.9960   4.1311   4.1311   4.3743   4.3743   4.4155   4.7001
     4.7001   4.8390   4.8390   4.8830   5.0440   5.0441   5.1258   5.1311
     5.1311   5.4571   5.5407   6.2784   6.5650   7.0029   7.0351   7.0924
     7.0924

[...]

          k =-0.0915-0.0528 0.0000 ( 16096 PWs)   bands (ev):

[...]

     the Fermi energy is     2.3727 ev

!    total energy              =   -2162.80351707 Ry
     Harris-Foulkes estimate   =   -2162.80351166 Ry
     estimated scf accuracy    <       0.00000042 Ry

     The total energy is the sum of the following terms:

     one-electron contribution =  -19346.02308772 Ry
     hartree contribution      =    9671.46031685 Ry
     xc contribution           =    -378.08146337 Ry
     ewald contribution        =    7889.94128519 Ry
     electric field correction =       0.00000001 Ry
     smearing contrib. (-TS)   =      -0.10056802 Ry

     convergence has been achieved in  18 iterations

 BEEF-vdW xc energy contributions
           1 :   -330.638543815708
           2 :    303.963891161681
           3 :   -256.747583586278
           4 :    198.900113064580
           5 :   -140.940396629951
           6 :    90.9686255240417
           7 :   -52.9972231997569
           8 :    26.9105926691980
           9 :   -9.83540375365379
          10 :   -1.91851522136483
          11 :    11.1386293788811
[...]
     Generated by new atomic code, or converted to UPF format
     Using radial grid of  965 points,  6 beta functions with:
                l(1) =   0
                l(2) =   0
                l(3) =   1
                l(4) =   1
                l(5) =   2
                l(6) =   2
     Q(r) pseudized with  8 coefficients,  rinner =    1.300   1.300   1.300
                                                       1.300   1.300

     PseudoPot. # 2 for Ru read from file:
     /afs/slac.stanford.edu/u/if/mamunm/psp/gbrv1.5pbe/Ru.UPF
     MD5 check sum: 7158a806dd851261a58e6920c40ebe78
     Pseudo is Ultrasoft + core correction, Zval = 16.0
     Generated by new atomic code, or converted to UPF format
     Using radial grid of  967 points,  6 beta functions with:
                l(1) =   0
                l(2) =   0
                l(3) =   1
                l(4) =   1
                l(5) =   2
                l(6) =   2
     Q(r) pseudized with  8 coefficients,  rinner =    1.300   1.300   1.300
                                                       1.300   1.300

     vdW kernel table read from file vdW_kernel_table
     MD5 check sum: 095c7af220d748ca6e76c0b4c6cfb241

     atomic species   valence    mass     pseudopotential
        Tc1           15.00    97.90721     Tc( 1.00)
        Ru1           16.00   101.07000     Ru( 1.00)

     No symmetry found

   Cartesian axes

     site n.     atom                  positions (alat units)
         1           Tc1 tau(   1) = (   0.0000000   0.0000000  10.0000000  )
         2           Tc1 tau(   2) = (  -1.3667957   2.3673596  10.0000000  )
         3           Tc1 tau(   3) = (   1.3667957   2.3673596  10.0000000  )
         4           Ru1 tau(   4) = (   2.7335914   0.0000000  10.0000000  )
         5           Tc1 tau(   5) = (   2.7335914   1.5782397  12.2319680  )
         6           Tc1 tau(   6) = (   1.3667957   3.9455993  12.2319680  )
         7           Tc1 tau(   7) = (  -1.3667957   3.9455993  12.2319680  )
         8           Ru1 tau(   8) = (   0.0000000   1.5782397  12.2319680  )
         9           Tc1 tau(   9) = (  -0.0000027   3.1587655  14.3455065  )
        10           Tc1 tau(  10) = (   1.3687673   0.7879800  14.3455046  )
        11           Tc1 tau(  11) = (   4.0984104   0.7879813  14.3455054  )
        12           Ru1 tau(  12) = (   2.7335907   3.1564804  14.3774064  )

     number of k points=    20  Fermi-Dirac smearing, width (Ry)=  0.0110
                       cart. coord. in units 2pi/alat
        k(    1) = (   0.0000000   0.0000000   0.0000000), wk =   0.0555556
        k(    2) = (   0.0000000   0.0352010   0.0000000), wk =   0.1111111
        k(    3) = (   0.0000000   0.0704019   0.0000000), wk =   0.1111111
        k(    4) = (   0.0000000  -0.1056029   0.0000000), wk =   0.0555556
        k(    5) = (   0.0304849   0.0176005   0.0000000), wk =   0.1111111
        k(    6) = (   0.0304849   0.0528014   0.0000000), wk =   0.1111111
        k(    7) = (   0.0304849   0.0880024   0.0000000), wk =   0.1111111
        k(    8) = (   0.0304849  -0.0880024   0.0000000), wk =   0.1111111
        k(    9) = (   0.0304849  -0.0528014   0.0000000), wk =   0.1111111
        k(   10) = (   0.0304849  -0.0176005   0.0000000), wk =   0.1111111
        k(   11) = (   0.0609699   0.0352010   0.0000000), wk =   0.1111111
        k(   12) = (   0.0609699   0.0704019   0.0000000), wk =   0.1111111
        k(   13) = (   0.0609699   0.1056029   0.0000000), wk =   0.1111111
        k(   14) = (   0.0609699  -0.0704019   0.0000000), wk =   0.1111111
        k(   15) = (   0.0609699  -0.0352010   0.0000000), wk =   0.1111111
        k(   16) = (   0.0609699   0.0000000   0.0000000), wk =   0.1111111
        k(   17) = (  -0.0914548  -0.0528014   0.0000000), wk =   0.0555556
        k(   18) = (  -0.0914548  -0.0176005   0.0000000), wk =   0.1111111
        k(   19) = (  -0.0914548   0.0176005   0.0000000), wk =   0.1111111
        k(   20) = (  -0.0914548  -0.1584043   0.0000000), wk =   0.0555556

     Largest allocated arrays     est. size (Mb)     dimensions
     Largest temporary arrays     est. size (Mb)     dimensions

     Check: negative/imaginary core charge=   -0.000019    0.000000

     Initial potential from superposition of free atoms
     Check: negative starting charge=   -1.344096

     starting charge  170.99970, renormalised to  183.00000

[...]

     *
     * You are using vdW-DF for exchange-correlation in this calculation.
     * Please cite the following three references that made this development
     * possible:
     *
     *   M. Dion, H. Rydberg, E. Schroder, D. C. Langreth, and
     *   B. I. Lundqvist, Phys. Rev. Lett. 92, 246401 (2004).
     *
     *   T. Thonhauser, V. R. Cooper, S. Li, A. Puzder, P. Hyldgaard, and
     *   D. C. Langreth, Phys. Rev. B 76, 125112 (2007).
     *
     *   G. Roman-Perez and J. M. Soler, Phys. Rev. Lett. 103, 096102 (2009).
     *
     *
     * If you are using vdW-DF2, please also cite:
     *
     *   K. Lee, E. D. Murray, L. Kong, B. I. Lundqvist, and
     *   D. C. Langreth, Phys. Rev. B 82, 081101(R) (2010).
     *
     *
     * If you are calculating the stress with vdW-DF, please also cite:
     *
     *   R. Sabatini, E. Kucukbenli, B. Kolb, T. Thonhauser, and
     *   S. de Gironcoli, J. Phys.: Condens. Matter 24, 424209 (2012).
     *

     Carrying out vdW-DF run using the following parameters:

     Nqs =      20    Nr_points =    1024   r_max =   100.000
     q_mesh =
               0.00001000     0.04494208     0.09755937     0.15916263
               0.23128650     0.31572767     0.41458969     0.53033537
               0.66584808     0.82450364     1.01025438     1.22772762
               1.48234092     1.78043706     2.12944203     2.53805004
               3.01644009     3.57652955     4.23227104     5.00000000

     Gradients computed in reciprocal space

[...]

     Starting wfc are  156 randomized atomic wfcs

     Self-consistent Calculation

[...]

     total energy              =   -2162.81722918 Ry
     Harris-Foulkes estimate   =   -2162.81722827 Ry
     estimated scf accuracy    <       0.00000267 Ry

     iteration # 19     ecut=    36.75 Ry     beta=0.10
     Davidson diagonalization with overlap
     ethr =  1.46E-09,  avg # of iterations =  1.6

[...]

     negative rho (up, down):  1.414E+00 0.000E+00

     Adding external electric field

     Computed dipole along edir(3) :
        Dipole                0.0419 Ry au,          0.1065 Debye
        Dipole field          0.0001 Ry au

        Potential amp.       -0.0111 Ry
        Total length         45.0744 bohr

     End of self-consistent calculation

[...]

          k = 0.0610 0.0000 0.0000 ( 16110 PWs)   bands (ev):

[...]

          k =-0.0915-0.1584 0.0000 ( 16096 PWs)   bands (ev):

   -70.7310 -70.2707 -70.2298 -64.9270 -64.8899 -64.8514 -64.6102 -64.5927
   -64.5767 -64.5601 -64.5428 -64.5276 -40.7506 -40.7012 -40.6851 -40.2671
   -40.2512 -40.2401 -40.2186 -40.2018 -40.1809 -37.2807 -37.1540 -37.1088
   -37.0369 -36.9924 -36.9586 -36.9120 -36.8831 -36.8664 -36.7933 -36.6258
   -36.6027 -36.6013 -36.5997 -36.5658 -36.5598 -36.5537 -36.5469 -36.5392
   -36.5092 -36.4902 -36.4641 -36.4308 -36.3725 -36.3629 -36.2344 -36.2247
    -2.7266  -2.6726  -2.0942  -2.0874  -2.0572  -2.0194  -1.7628  -1.7342
    -1.5988  -1.4833  -1.4590  -1.3568  -1.1311  -1.0323  -0.9982  -0.9906
    -0.6357  -0.5342  -0.4373  -0.3339  -0.2346  -0.1068   0.2973   0.3626
     0.5272   0.5741   0.6844   0.7063   0.7828   0.8421   0.9359   1.0105
     1.0447   1.0722   1.0930   1.1478   1.1602   1.1801   1.2450   1.3182
     1.7982   2.0401   2.0952   2.1489   2.3376   2.4017   2.4588   2.6522
     2.7280   2.8715   3.0159   3.0412   3.0818   3.3189   3.3661   3.3852
     3.4784   3.7123   4.0777   4.1795   4.6173   4.6523   4.6734   5.1668
     5.6134   5.7119   6.9987   7.4433   7.4514   7.4623   7.5356   7.7054
     7.9667

     the Fermi energy is     2.3952 ev

!    total energy              =   -2162.81723071 Ry
     Harris-Foulkes estimate   =   -2162.81722940 Ry
     estimated scf accuracy    <       0.00000058 Ry

     The total energy is the sum of the following terms:

     one-electron contribution =  -19651.18527389 Ry
     hartree contribution      =    9824.08487830 Ry
     xc contribution           =    -378.34412755 Ry
     ewald contribution        =    8042.72648260 Ry
     electric field correction =       0.00000516 Ry
     smearing contrib. (-TS)   =      -0.09919533 Ry

     convergence has been achieved in  19 iterations

 BEEF-vdW xc energy contributions
           1 :   -330.907408547184
           2 :    304.333007267735
           3 :   -257.253679338392
           4 :    199.487094275015
           5 :   -141.478832189090
           6 :    91.3171756419136
           7 :   -53.0757973406206
           8 :    26.7483303858755
           9 :   -9.56471947654791
          10 :   -2.12121885153579
          11 :    11.1382893302875
          12 :   -18.6121033688732
          13 :    24.0161130003792
          14 :   -25.9730326264070
          15 :    23.3185680039847
          16 :   -15.9621455675544
          17 :    5.18333389717088
          18 :    6.69210432478849
          19 :   -17.0628606766893
          20 :    23.8990404476768
          21 :   -26.3196448477036
          22 :    24.6787829173043
          23 :   -20.1951306752973
          24 :    14.3371101594626
          25 :   -8.27082977658273
          26 :    2.59215530274389
          27 :    2.59259527494186
          28 :   -7.35519108513370
          29 :    11.6096592476076
          30 :   -14.9486061756995
          31 :   -32.0114186786710
          32 :   -23.6950972413514

     Forces acting on atoms (Ry/au):

     negative rho (up, down):  1.414E+00 0.000E+00
     atom    1 type  1   force =     0.00000025   -0.00078810    0.01755341
     atom    2 type  1   force =    -0.00068268    0.00039468    0.01755293
     atom    3 type  1   force =     0.00068315    0.00039434    0.01755359
     atom    4 type  2   force =    -0.00000003    0.00000019    0.01200504
     atom    5 type  1   force =     0.00000265   -0.00219495   -0.01508594
     atom    6 type  1   force =    -0.00189891    0.00110042   -0.01508585
     atom    7 type  1   force =     0.00189900    0.00109728   -0.01508623
     atom    8 type  2   force =    -0.00000344   -0.00000230   -0.01826502
     atom    9 type  1   force =    -0.00000048   -0.00001851   -0.00032313
     atom   10 type  1   force =    -0.00001538    0.00000836   -0.00032221
     atom   11 type  1   force =     0.00001546    0.00000856   -0.00032473
     atom   12 type  2   force =     0.00000039    0.00000003   -0.00017186

     Total force =     0.045842     Total SCF correction =     0.005317
     SCF correction compared to forces is large: reduce conv_thr to get better values

     entering subroutine stress ...

     negative rho (up, down):  1.414E+00 0.000E+00
          total   stress  (Ry/bohr**3)                   (kbar)     P=  -22.42
  -0.00018764  -0.00000000   0.00000000        -27.60     -0.00      0.00
  -0.00000000  -0.00018764  -0.00000000         -0.00    -27.60     -0.00
   0.00000000  -0.00000000  -0.00008200          0.00     -0.00    -12.06

 !ASE

     Writing output data file calc.save

     General routines

     Parallel routines

   This run was terminated on:  21:52:36   1Jan2019

   JOB DONE.
Job  /afs/slac/g/suncat/bin/suncat-tsmpirun -x LD_LIBRARY_PATH -wdir /scratch/qe649176_rLYr7 pw.x -in pw.inp

TID   HOST_NAME   COMMAND_LINE            STATUS            TERMINATION_TIME
00000 suncat0031 pw.x -in pw.inp   Done                     01/01/2019 21:52:36
00001 suncat0031 pw.x -in pw.inp   Done                     01/01/2019 21:52:36
00002 suncat0031 pw.x -in pw.inp   Done                     01/01/2019 21:52:36
00003 suncat0031 pw.x -in pw.inp   Done                     01/01/2019 21:52:36
00004 suncat0031 pw.x -in pw.inp   Done                     01/01/2019 21:52:36
00005 suncat0031 pw.x -in pw.inp   Done                     01/01/2019 21:52:36
00006 suncat0031 pw.x -in pw.inp   Done                     01/01/2019 21:52:36
00007 suncat0031 pw.x -in pw.inp   Done                     01/01/2019 21:52:36
00008 suncat0030 pw.x -in pw.inp   Done                     01/01/2019 21:52:36
00009 suncat0030 pw.x -in pw.inp   Done                     01/01/2019 21:52:36
00010 suncat0030 pw.x -in pw.inp   Done                     01/01/2019 21:52:36
00011 suncat0030 pw.x -in pw.inp   Done                     01/01/2019 21:52:36
00012 suncat0030 pw.x -in pw.inp   Done                     01/01/2019 21:52:36
00013 suncat0030 pw.x -in pw.inp   Done                     01/01/2019 21:52:36
00014 suncat0030 pw.x -in pw.inp   Done                     01/01/2019 21:52:36
00015 suncat0030 pw.x -in pw.inp   Done                     01/01/2019 21:52:36
00016 suncat0192 pw.x -in pw.inp   Done                     01/01/2019 21:52:36
00017 suncat0192 pw.x -in pw.inp   Done                     01/01/2019 21:52:36
00018 suncat0192 pw.x -in pw.inp   Done                     01/01/2019 21:52:36
00019 suncat0192 pw.x -in pw.inp   Done                     01/01/2019 21:52:36
00020 suncat0192 pw.x -in pw.inp   Done                     01/01/2019 21:52:36
00021 suncat0192 pw.x -in pw.inp   Done                     01/01/2019 21:52:36
00022 suncat0192 pw.x -in pw.inp   Done                     01/01/2019 21:52:36
00023 suncat0192 pw.x -in pw.inp   Done                     01/01/2019 21:52:36
00024 suncat0185 pw.x -in pw.inp   Done                     01/01/2019 21:52:36
00025 suncat0185 pw.x -in pw.inp   Done                     01/01/2019 21:52:36
00026 suncat0185 pw.x -in pw.inp   Done                     01/01/2019 21:52:36
00027 suncat0185 pw.x -in pw.inp   Done                     01/01/2019 21:52:36
00028 suncat0185 pw.x -in pw.inp   Done                     01/01/2019 21:52:36
00029 suncat0185 pw.x -in pw.inp   Done                     01/01/2019 21:52:36
00030 suncat0185 pw.x -in pw.inp   Done                     01/01/2019 21:52:36
00031 suncat0185 pw.x -in pw.inp   Done                     01/01/2019 21:52:36
00032 suncat0184 pw.x -in pw.inp   Done                     01/01/2019 21:52:36
00033 suncat0184 pw.x -in pw.inp   Done                     01/01/2019 21:52:36
00034 suncat0184 pw.x -in pw.inp   Done                     01/01/2019 21:52:36
00035 suncat0184 pw.x -in pw.inp   Done                     01/01/2019 21:52:36
00036 suncat0184 pw.x -in pw.inp   Done                     01/01/2019 21:52:36
00037 suncat0184 pw.x -in pw.inp   Done                     01/01/2019 21:52:36
00038 suncat0184 pw.x -in pw.inp   Done                     01/01/2019 21:52:36
00039 suncat0184 pw.x -in pw.inp   Done                     01/01/2019 21:52:36
00040 suncat0183 pw.x -in pw.inp   Done                     01/01/2019 21:52:36
00041 suncat0183 pw.x -in pw.inp   Done                     01/01/2019 21:52:36
00042 suncat0183 pw.x -in pw.inp   Done                     01/01/2019 21:52:36
00043 suncat0183 pw.x -in pw.inp   Done                     01/01/2019 21:52:36
00044 suncat0183 pw.x -in pw.inp   Done                     01/01/2019 21:52:36
00045 suncat0183 pw.x -in pw.inp   Done                     01/01/2019 21:52:36
00046 suncat0183 pw.x -in pw.inp   Done                     01/01/2019 21:52:36
00047 suncat0183 pw.x -in pw.inp   Done                     01/01/2019 21:52:36
00048 suncat0172 pw.x -in pw.inp   Done                     01/01/2019 21:52:36
00049 suncat0172 pw.x -in pw.inp   Done                     01/01/2019 21:52:36
00050 suncat0172 pw.x -in pw.inp   Done                     01/01/2019 21:52:36
00051 suncat0172 pw.x -in pw.inp   Done                     01/01/2019 21:52:36
00052 suncat0172 pw.x -in pw.inp   Done                     01/01/2019 21:52:36
00053 suncat0172 pw.x -in pw.inp   Done                     01/01/2019 21:52:36
00054 suncat0172 pw.x -in pw.inp   Done                     01/01/2019 21:52:36
00055 suncat0172 pw.x -in pw.inp   Done                     01/01/2019 21:52:36
00056 suncat0171 pw.x -in pw.inp   Done                     01/01/2019 21:52:36
00057 suncat0171 pw.x -in pw.inp   Done                     01/01/2019 21:52:36
00058 suncat0171 pw.x -in pw.inp   Done                     01/01/2019 21:52:36
00059 suncat0171 pw.x -in pw.inp   Done                     01/01/2019 21:52:36
00060 suncat0171 pw.x -in pw.inp   Done                     01/01/2019 21:52:36
00061 suncat0171 pw.x -in pw.inp   Done                     01/01/2019 21:52:36
00062 suncat0171 pw.x -in pw.inp   Done                     01/01/2019 21:52:36
00063 suncat0171 pw.x -in pw.inp   Done                     01/01/2019 21:52:36