     Program PWSCF v.5.1rc2 (svn rev. 11289) starts on 27Dec2018 at 13:26:18

     Current dimensions of program PWSCF are:
     Max number of different atomic species (ntypx) = 10
     Max number of k-points (npk) =  40000
     Max angular momentum in pseudopotentials (lmaxx) =  3
     Presently stress not available with electric field

     IMPORTANT: XC functional enforced from input :
     Exchange-correlation      = BEEF-VDW ( 1  4 27 13 2)
     Any further DFT definition will be discarded
     Please, verify this is what you really want

     Subspace diagonalization in iterative solution of the eigenvalue problem:
     a serial algorithm will be used

     bravais-lattice index     =            0
     lattice parameter (alat)  =       1.8897  a.u.
     unit-cell volume          =    4291.9626 (a.u.)^3
     number of atoms/cell      =           12
     number of atomic types    =            2
     number of electrons       =       189.00
     number of Kohn-Sham states=          124
     kinetic-energy cutoff     =      36.7493  Ry
     charge density cutoff     =     367.4932  Ry
     convergence threshold     =      1.0E-06
     mixing beta               =       0.1000
     number of iterations used =           10  plain     mixing
     Exchange-correlation      = BEEF-VDW ( 1  4 27 13 2)
     nstep                     =           50

     celldm(1)=   1.889726  celldm(2)=   0.000000  celldm(3)=   0.000000
     celldm(4)=   0.000000  celldm(5)=   0.000000  celldm(6)=   0.000000

     crystal axes: (cart. coord. in units of alat)
               a(1) = (   5.478009   0.000000   0.000000 )
               a(2) = (  -2.739004   4.744095   0.000000 )
               a(3) = (   0.000000   0.000000  24.472776 )

     reciprocal axes: (cart. coord. in units 2 pi/alat)
               b(1) = (  0.182548  0.105394  0.000000 )
               b(2) = (  0.000000  0.210788  0.000000 )
               b(3) = (  0.000000  0.000000  0.040862 )

     PseudoPot. # 1 for Os read from file:
     /afs/slac.stanford.edu/u/if/mamunm/psp/gbrv1.5pbe/Os.UPF
     MD5 check sum: a3fb40a04f0c37c25c34bbc47164c9a8
     Pseudo is Ultrasoft + core correction, Zval = 16.0
     Generated by new atomic code, or converted to UPF format
     Using radial grid of  983 points,  8 beta functions with:
                l(1) =   0
                l(2) =   0
                l(3) =   1
                l(4) =   1
                l(5) =   2
                l(6) =   2
                l(7) =   3
                l(8) =   3
     Q(r) pseudized with  8 coefficients,  rinner =    1.150   1.150   1.150
                                                       1.150   1.150   1.150
                                                       1.150

     PseudoPot. # 2 for Re read from file:
     /afs/slac.stanford.edu/u/if/mamunm/psp/gbrv1.5pbe/Re.UPF
     MD5 check sum: 85f993410f3e006da9d71c142b4ad953
     Pseudo is Ultrasoft + core correction, Zval = 15.0
     Generated by new atomic code, or converted to UPF format
     Using radial grid of  981 points,  8 beta functions with:
                l(1) =   0
                l(2) =   0
                l(3) =   1
                l(4) =   1
                l(5) =   2
                l(6) =   2
                l(7) =   3
                l(8) =   3
     Q(r) pseudized with  8 coefficients,  rinner =    1.150   1.150   1.150
                                                       1.150   1.150   1.150
                                                       1.150

     vdW kernel table read from file vdW_kernel_table
     MD5 check sum: 095c7af220d748ca6e76c0b4c6cfb241

     atomic species   valence    mass     pseudopotential
        Os1           16.00   190.23000     Os( 1.00)
        Re1           15.00   186.20700     Re( 1.00)

     No symmetry found

   Cartesian axes

     site n.     atom                  positions (alat units)
         1           Os1 tau(   1) = (   0.0000000   0.0000000  10.0000000  )
         2           Os1 tau(   2) = (  -1.3695022   2.3720474  10.0000000  )
         3           Os1 tau(   3) = (   1.3695022   2.3720474  10.0000000  )
         4           Re1 tau(   4) = (   2.7390045   0.0000000  10.0000000  )
         5           Os1 tau(   5) = (   2.7390045   1.5813650  12.2363878  )
         6           Os1 tau(   6) = (   1.3695022   3.9534124  12.2363878  )
         7           Os1 tau(   7) = (  -1.3695022   3.9534124  12.2363878  )
         8           Re1 tau(   8) = (   0.0000000   1.5813650  12.2363878  )
         9           Os1 tau(   9) = (  -0.0000000   3.1627299  14.4727756  )
        10           Os1 tau(  10) = (   1.3695022   0.7906825  14.4727756  )
        11           Os1 tau(  11) = (   4.1085067   0.7906825  14.4727756  )
        12           Re1 tau(  12) = (   2.7390045   3.1627299  14.4727756  )

     number of k points=    20  Fermi-Dirac smearing, width (Ry)=  0.0110
                       cart. coord. in units 2pi/alat
        k(    1) = (   0.0000000   0.0000000   0.0000000), wk =   0.0555556
        k(    2) = (   0.0000000   0.0351314   0.0000000), wk =   0.1111111
        k(    3) = (   0.0000000   0.0702628   0.0000000), wk =   0.1111111
        k(    4) = (   0.0000000  -0.1053942   0.0000000), wk =   0.0555556
        k(    5) = (   0.0304247   0.0175657   0.0000000), wk =   0.1111111
        k(    6) = (   0.0304247   0.0526971   0.0000000), wk =   0.1111111
        k(    7) = (   0.0304247   0.0878285   0.0000000), wk =   0.1111111
        k(    8) = (   0.0304247  -0.0878285   0.0000000), wk =   0.1111111
        k(    9) = (   0.0304247  -0.0526971   0.0000000), wk =   0.1111111
        k(   10) = (   0.0304247  -0.0175657   0.0000000), wk =   0.1111111
        k(   11) = (   0.0608494   0.0351314   0.0000000), wk =   0.1111111
        k(   12) = (   0.0608494   0.0702628   0.0000000), wk =   0.1111111
        k(   13) = (   0.0608494   0.1053942   0.0000000), wk =   0.1111111
        k(   14) = (   0.0608494  -0.0702628   0.0000000), wk =   0.1111111
        k(   15) = (   0.0608494  -0.0351314   0.0000000), wk =   0.1111111
        k(   16) = (   0.0608494   0.0000000   0.0000000), wk =   0.1111111
        k(   17) = (  -0.0912740  -0.0526971   0.0000000), wk =   0.0555556
        k(   18) = (  -0.0912740  -0.0175657   0.0000000), wk =   0.1111111
        k(   19) = (  -0.0912740   0.0175657   0.0000000), wk =   0.1111111
        k(   20) = (  -0.0912740  -0.1580913   0.0000000), wk =   0.0555556

     Largest allocated arrays     est. size (Mb)     dimensions
     Largest temporary arrays     est. size (Mb)     dimensions

     Initial potential from superposition of free atoms
     Check: negative starting charge=   -1.506242

     starting charge  182.99954, renormalised to  189.00000

     negative rho (up, down):  1.556E+00 0.000E+00

     *
     * You are using vdW-DF for exchange-correlation in this calculation.
     * Please cite the following three references that made this development
     * possible:
     *
     *   M. Dion, H. Rydberg, E. Schroder, D. C. Langreth, and
     *   B. I. Lundqvist, Phys. Rev. Lett. 92, 246401 (2004).
     *
     *   T. Thonhauser, V. R. Cooper, S. Li, A. Puzder, P. Hyldgaard, and
     *   D. C. Langreth, Phys. Rev. B 76, 125112 (2007).
     *
     *   G. Roman-Perez and J. M. Soler, Phys. Rev. Lett. 103, 096102 (2009).
     *
     *
     * If you are using vdW-DF2, please also cite:
     *
     *   K. Lee, E. D. Murray, L. Kong, B. I. Lundqvist, and
     *   D. C. Langreth, Phys. Rev. B 82, 081101(R) (2010).
     *
     *
     * If you are calculating the stress with vdW-DF, please also cite:
     *
     *   R. Sabatini, E. Kucukbenli, B. Kolb, T. Thonhauser, and
     *   S. de Gironcoli, J. Phys.: Condens. Matter 24, 424209 (2012).
     *

     Carrying out vdW-DF run using the following parameters:

     Nqs =      20    Nr_points =    1024   r_max =   100.000
     q_mesh =
               0.00001000     0.04494208     0.09755937     0.15916263
               0.23128650     0.31572767     0.41458969     0.53033537
               0.66584808     0.82450364     1.01025438     1.22772762
               1.48234092     1.78043706     2.12944203     2.53805004
               3.01644009     3.57652955     4.23227104     5.00000000

     Gradients computed in reciprocal space

     Adding external electric field

     Computed dipole along edir(3) :
        Dipole                0.0000 Ry au,          0.0000 Debye
        Dipole field          0.0000 Ry au

        Potential amp.       -0.0000 Ry
        Total length         45.0907 bohr

     Starting wfc are  156 randomized atomic wfcs

     Self-consistent Calculation

     iteration #  1     ecut=    36.75 Ry     beta=0.10
     Davidson diagonalization with overlap
     ethr =  1.00E-02,  avg # of iterations =  6.7

[...]

     total energy              =   -2374.88300773 Ry
     Harris-Foulkes estimate   =   -2375.16148101 Ry
     estimated scf accuracy    <       1.97826878 Ry

[...]

     End of self-consistent calculation

          k = 0.0000 0.0000 0.0000 ( 16037 PWs)   bands (ev):

   -84.1184 -84.0767 -84.0767 -83.6166 -83.6158 -83.5758 -83.5758 -83.5756
   -83.5756 -78.1522 -77.8125 -77.8122 -43.7523 -43.5695 -43.5695 -43.5290
   -43.4215 -43.4215 -43.2187 -43.2045 -43.2032 -43.1030 -43.1030 -43.0243
   -43.0243 -42.9599 -42.9599 -42.9066 -42.8345 -42.8345 -42.8224 -42.7831
   -42.7831 -42.6842 -42.6730 -42.5862 -42.5862 -42.5853 -42.5853 -39.8014
   -39.8014 -39.7885 -39.5363 -39.5117 -39.4133 -39.4133 -39.4076 -39.4076
    -6.6106  -4.6154  -4.1574  -3.8089  -3.8089  -3.8048  -3.4775  -3.4632
    -3.4632  -2.8609  -2.8609  -2.8428  -2.5952  -2.5763  -2.5763  -1.0963
    -1.0369  -1.0369  -0.2702  -0.2702  -0.2296   0.0213   0.0694   0.2632
     0.2632   0.6188   0.7570   0.7570   0.9086   0.9086   0.9920   0.9920
     1.1144   1.1144   1.2482   1.9731   2.5394   2.5394   2.6284   2.7163
     2.8677   2.8677   3.0803   3.0803   3.2142   3.9134   3.9134   4.1790
     4.1790   4.3568   4.3645   4.3645   4.4757   4.5652   4.9381   4.9381
     5.0382   5.0382   5.1863   5.6827   5.6827   5.7377   5.8125   6.1931
     6.1931   6.3066   6.3066   6.6972   6.6972   6.7762   7.4131   7.4247
     7.4247   7.6007   7.6640   8.1104

[...]

          k =-0.0913-0.0527 0.0000 ( 16164 PWs)   bands (ev):

[...]

     the Fermi energy is     2.8570 ev

!    total energy              =   -2374.42324277 Ry
     Harris-Foulkes estimate   =   -2374.42323431 Ry
     estimated scf accuracy    <       0.00000031 Ry

     The total energy is the sum of the following terms:

     one-electron contribution =  -20433.85616220 Ry
     hartree contribution      =   10198.73731094 Ry
     xc contribution           =    -510.28496735 Ry
     ewald contribution        =    8371.05409740 Ry
     electric field correction =       0.00000000 Ry
     smearing contrib. (-TS)   =      -0.07352157 Ry

     convergence has been achieved in  14 iterations

 BEEF-vdW xc energy contributions
           1 :   -449.255709127497
           2 :    416.795030636416
           3 :   -359.131500575685
           4 :    288.292439998059
           5 :   -217.386781181008
[...]
                l(1) =   0
                l(2) =   0
                l(3) =   1
                l(4) =   1
                l(5) =   2
                l(6) =   2
                l(7) =   3
                l(8) =   3
     Q(r) pseudized with  8 coefficients,  rinner =    1.150   1.150   1.150
                                                       1.150   1.150   1.150
                                                       1.150

     PseudoPot. # 2 for Re read from file:
     /afs/slac.stanford.edu/u/if/mamunm/psp/gbrv1.5pbe/Re.UPF
     MD5 check sum: 85f993410f3e006da9d71c142b4ad953
     Pseudo is Ultrasoft + core correction, Zval = 15.0
     Generated by new atomic code, or converted to UPF format
     Using radial grid of  981 points,  8 beta functions with:
                l(1) =   0
                l(2) =   0
                l(3) =   1
                l(4) =   1
                l(5) =   2
                l(6) =   2
                l(7) =   3
                l(8) =   3
     Q(r) pseudized with  8 coefficients,  rinner =    1.150   1.150   1.150
                                                       1.150   1.150   1.150
                                                       1.150

     vdW kernel table read from file vdW_kernel_table
     MD5 check sum: 095c7af220d748ca6e76c0b4c6cfb241

     atomic species   valence    mass     pseudopotential
        Os1           16.00   190.23000     Os( 1.00)
        Re1           15.00   186.20700     Re( 1.00)

     No symmetry found

   Cartesian axes

     site n.     atom                  positions (alat units)
         1           Os1 tau(   1) = (   0.0000000   0.0000000  10.0000000  )
         2           Os1 tau(   2) = (  -1.3695022   2.3720474  10.0000000  )
         3           Os1 tau(   3) = (   1.3695022   2.3720474  10.0000000  )
         4           Re1 tau(   4) = (   2.7390045   0.0000000  10.0000000  )
         5           Os1 tau(   5) = (   2.7390045   1.5813650  12.2363878  )
         6           Os1 tau(   6) = (   1.3695022   3.9534124  12.2363878  )
         7           Os1 tau(   7) = (  -1.3695022   3.9534124  12.2363878  )
         8           Re1 tau(   8) = (   0.0000000   1.5813650  12.2363878  )
         9           Os1 tau(   9) = (  -0.0000027   3.1526331  14.3757477  )
        10           Os1 tau(  10) = (   1.3607551   0.7957256  14.3757461  )
        11           Os1 tau(  11) = (   4.1172505   0.7957299  14.3757492  )
        12           Re1 tau(  12) = (   2.7390060   3.1627299  14.3654444  )

     number of k points=    20  Fermi-Dirac smearing, width (Ry)=  0.0110
                       cart. coord. in units 2pi/alat
        k(    1) = (   0.0000000   0.0000000   0.0000000), wk =   0.0555556
        k(    2) = (   0.0000000   0.0351314   0.0000000), wk =   0.1111111
        k(    3) = (   0.0000000   0.0702628   0.0000000), wk =   0.1111111
        k(    4) = (   0.0000000  -0.1053942   0.0000000), wk =   0.0555556
        k(    5) = (   0.0304247   0.0175657   0.0000000), wk =   0.1111111
        k(    6) = (   0.0304247   0.0526971   0.0000000), wk =   0.1111111
        k(    7) = (   0.0304247   0.0878285   0.0000000), wk =   0.1111111
        k(    8) = (   0.0304247  -0.0878285   0.0000000), wk =   0.1111111
        k(    9) = (   0.0304247  -0.0526971   0.0000000), wk =   0.1111111
        k(   10) = (   0.0304247  -0.0175657   0.0000000), wk =   0.1111111
        k(   11) = (   0.0608494   0.0351314   0.0000000), wk =   0.1111111
        k(   12) = (   0.0608494   0.0702628   0.0000000), wk =   0.1111111
        k(   13) = (   0.0608494   0.1053942   0.0000000), wk =   0.1111111
        k(   14) = (   0.0608494  -0.0702628   0.0000000), wk =   0.1111111
        k(   15) = (   0.0608494  -0.0351314   0.0000000), wk =   0.1111111
        k(   16) = (   0.0608494   0.0000000   0.0000000), wk =   0.1111111
        k(   17) = (  -0.0912740  -0.0526971   0.0000000), wk =   0.0555556
        k(   18) = (  -0.0912740  -0.0175657   0.0000000), wk =   0.1111111
        k(   19) = (  -0.0912740   0.0175657   0.0000000), wk =   0.1111111
        k(   20) = (  -0.0912740  -0.1580913   0.0000000), wk =   0.0555556

     Largest allocated arrays     est. size (Mb)     dimensions
     Largest temporary arrays     est. size (Mb)     dimensions

     Initial potential from superposition of free atoms
     Check: negative starting charge=   -1.504837

     starting charge  182.99954, renormalised to  189.00000

[...]

     *
     * You are using vdW-DF for exchange-correlation in this calculation.
     * Please cite the following three references that made this development
     * possible:
     *
     *   M. Dion, H. Rydberg, E. Schroder, D. C. Langreth, and
     *   B. I. Lundqvist, Phys. Rev. Lett. 92, 246401 (2004).
     *
     *   T. Thonhauser, V. R. Cooper, S. Li, A. Puzder, P. Hyldgaard, and
     *   D. C. Langreth, Phys. Rev. B 76, 125112 (2007).
     *
     *   G. Roman-Perez and J. M. Soler, Phys. Rev. Lett. 103, 096102 (2009).
     *
     *
     * If you are using vdW-DF2, please also cite:
     *
     *   K. Lee, E. D. Murray, L. Kong, B. I. Lundqvist, and
     *   D. C. Langreth, Phys. Rev. B 82, 081101(R) (2010).
     *
     *
     * If you are calculating the stress with vdW-DF, please also cite:
     *
     *   R. Sabatini, E. Kucukbenli, B. Kolb, T. Thonhauser, and
     *   S. de Gironcoli, J. Phys.: Condens. Matter 24, 424209 (2012).
     *

     Carrying out vdW-DF run using the following parameters:

     Nqs =      20    Nr_points =    1024   r_max =   100.000
     q_mesh =
               0.00001000     0.04494208     0.09755937     0.15916263
               0.23128650     0.31572767     0.41458969     0.53033537
               0.66584808     0.82450364     1.01025438     1.22772762
               1.48234092     1.78043706     2.12944203     2.53805004
               3.01644009     3.57652955     4.23227104     5.00000000

     Gradients computed in reciprocal space

[...]

     Starting wfc are  156 randomized atomic wfcs

     Self-consistent Calculation

[...]

     total energy              =   -2374.43913057 Ry
     Harris-Foulkes estimate   =   -2374.43913088 Ry
     estimated scf accuracy    <       0.00000499 Ry

     iteration # 14     ecut=    36.75 Ry     beta=0.10
     Davidson diagonalization with overlap
     ethr =  2.64E-09,  avg # of iterations =  2.0

[...]

     negative rho (up, down):  1.539E+00 0.000E+00

     Adding external electric field

     Computed dipole along edir(3) :
        Dipole                0.0315 Ry au,          0.0801 Debye
        Dipole field          0.0001 Ry au

        Potential amp.       -0.0083 Ry
        Total length         45.0907 bohr

     End of self-consistent calculation

[...]

          k = 0.0608 0.0000 0.0000 ( 16168 PWs)   bands (ev):

[...]

          k =-0.0913-0.1581 0.0000 ( 16164 PWs)   bands (ev):

   -84.1107 -84.0967 -84.0826 -83.6043 -83.5903 -83.5770 -83.5404 -83.5269
   -83.5133 -78.1269 -77.7828 -77.7585 -43.6551 -43.5182 -43.5014 -43.4494
   -43.4366 -43.4274 -43.3943 -43.3761 -43.1410 -43.0926 -43.0234 -42.8918
   -42.8631 -42.8598 -42.8529 -42.8450 -42.8240 -42.8124 -42.8033 -42.7851
   -42.7832 -42.7745 -42.7486 -42.7330 -42.7298 -42.6193 -42.5476 -39.8316
   -39.8049 -39.7646 -39.5021 -39.4722 -39.4393 -39.4146 -39.3997 -39.3726
    -4.7548  -4.7118  -3.1386  -3.1231  -2.7787  -2.7580  -2.6640  -2.6559
    -2.6349  -2.5452  -2.0582  -1.9589  -1.6465  -1.4907  -1.4525  -1.4452
    -1.1720  -1.0992  -1.0669  -0.9376  -0.5507  -0.4151   0.0378   0.1296
     0.3094   0.3267   0.3392   0.4624   0.4862   0.5139   0.6351   0.6516
     0.8128   0.8822   0.9406   0.9832   1.0379   1.0615   1.0846   1.1378
     1.8130   2.0274   2.0635   2.3388   2.4794   2.5026   2.5272   2.9030
     2.9058   3.0992   3.3257   3.3468   3.4128   3.4189   3.4756   3.8182
     3.9235   4.1345   4.5343   4.6650   5.1707   5.3470   5.4292   5.8407
     5.9042   6.0187   7.2264   7.7098   7.7828   8.0797   8.1099   8.2413
     9.0324   9.0461   9.2334   9.3266

     the Fermi energy is     2.8761 ev

!    total energy              =   -2374.43913959 Ry
     Harris-Foulkes estimate   =   -2374.43913132 Ry
     estimated scf accuracy    <       0.00000087 Ry

     The total energy is the sum of the following terms:

     one-electron contribution =  -20726.54800421 Ry
     hartree contribution      =   10345.12245544 Ry
     xc contribution           =    -510.57651874 Ry
     ewald contribution        =    8517.63516370 Ry
     electric field correction =       0.00000290 Ry
     smearing contrib. (-TS)   =      -0.07223869 Ry

     convergence has been achieved in  14 iterations

 BEEF-vdW xc energy contributions
           1 :   -449.549622337508
           2 :    417.187925776351
           3 :   -359.665274129078
           4 :    288.923249063408
           5 :   -217.999101963199
           6 :    157.504801803967
           7 :   -113.299695930733
           8 :    85.9031666528571
           9 :   -71.6078822406884
          10 :    64.6675684622401
          11 :   -59.6507790038148
          12 :    53.1203371031198
          13 :   -44.2053177892271
          14 :    34.1068233545778
          15 :   -24.9591340580487
          16 :    18.6018903685513
          17 :   -15.7454494613654
          18 :    15.7718961991454
          19 :   -17.1414397271284
          20 :    18.1361607118965
          21 :   -17.5806706590635
          22 :    15.2368934733286
          23 :   -11.7534151458493
          24 :    8.24803650004282
          25 :   -5.74986422192200
          26 :    4.75497455281521
          27 :   -5.07508730002093
          28 :    6.00771775339496
          29 :   -6.71497845259955
          30 :    6.61558137838989
          31 :   -40.8584732561931
          32 :   -30.9565274338390

     Forces acting on atoms (Ry/au):

     negative rho (up, down):  1.539E+00 0.000E+00
     atom    1 type  1   force =     0.00000697    0.00492625    0.02646390
     atom    2 type  1   force =     0.00426389   -0.00246083    0.02646014
     atom    3 type  1   force =    -0.00426202   -0.00246763    0.02646123
     atom    4 type  2   force =    -0.00000460    0.00000235    0.02778897
     atom    5 type  1   force =    -0.00000491    0.00128316   -0.02737135
     atom    6 type  1   force =     0.00111848   -0.00064194   -0.02736846
     atom    7 type  1   force =    -0.00112050   -0.00063578   -0.02737056
     atom    8 type  2   force =     0.00000479   -0.00000631   -0.02721857
     atom    9 type  1   force =     0.00000213    0.00000149    0.00058793
     atom   10 type  1   force =     0.00000030   -0.00000022    0.00058582
     atom   11 type  1   force =    -0.00000128   -0.00000151    0.00058629
     atom   12 type  2   force =    -0.00000326    0.00000098    0.00039467

     Total force =     0.077072     Total SCF correction =     0.005594

     entering subroutine stress ...

     negative rho (up, down):  1.539E+00 0.000E+00
          total   stress  (Ry/bohr**3)                   (kbar)     P=  -31.76
  -0.00026281  -0.00000000   0.00000000        -38.66     -0.00      0.00
  -0.00000000  -0.00026281   0.00000000         -0.00    -38.66      0.00
   0.00000000   0.00000000  -0.00012213          0.00      0.00    -17.97

 !ASE

     Writing output data file calc.save

     General routines

     Parallel routines

   This run was terminated on:  14:16:53  27Dec2018

   JOB DONE.
Job  /afs/slac/g/suncat/bin/suncat-tsmpirun -x LD_LIBRARY_PATH -wdir /scratch/qe110345_WIlPu pw.x -in pw.inp

TID   HOST_NAME   COMMAND_LINE            STATUS            TERMINATION_TIME
00000 suncat0093 pw.x -in pw.inp   Done                     12/27/2018 14:16:53
00001 suncat0093 pw.x -in pw.inp   Done                     12/27/2018 14:16:53
00002 suncat0093 pw.x -in pw.inp   Done                     12/27/2018 14:16:53
00003 suncat0093 pw.x -in pw.inp   Done                     12/27/2018 14:16:53
00004 suncat0093 pw.x -in pw.inp   Done                     12/27/2018 14:16:53
00005 suncat0093 pw.x -in pw.inp   Done                     12/27/2018 14:16:53
00006 suncat0093 pw.x -in pw.inp   Done                     12/27/2018 14:16:53
00007 suncat0093 pw.x -in pw.inp   Done                     12/27/2018 14:16:53
00008 suncat0089 pw.x -in pw.inp   Done                     12/27/2018 14:16:53
00009 suncat0089 pw.x -in pw.inp   Done                     12/27/2018 14:16:53
00010 suncat0089 pw.x -in pw.inp   Done                     12/27/2018 14:16:53
00011 suncat0089 pw.x -in pw.inp   Done                     12/27/2018 14:16:53
00012 suncat0089 pw.x -in pw.inp   Done                     12/27/2018 14:16:53
00013 suncat0089 pw.x -in pw.inp   Done                     12/27/2018 14:16:53
00014 suncat0089 pw.x -in pw.inp   Done                     12/27/2018 14:16:53
00015 suncat0089 pw.x -in pw.inp   Done                     12/27/2018 14:16:53
00016 suncat0088 pw.x -in pw.inp   Done                     12/27/2018 14:16:53
00017 suncat0088 pw.x -in pw.inp   Done                     12/27/2018 14:16:53
00018 suncat0088 pw.x -in pw.inp   Done                     12/27/2018 14:16:53
00019 suncat0088 pw.x -in pw.inp   Done                     12/27/2018 14:16:53
00020 suncat0088 pw.x -in pw.inp   Done                     12/27/2018 14:16:53
00021 suncat0088 pw.x -in pw.inp   Done                     12/27/2018 14:16:53
00022 suncat0088 pw.x -in pw.inp   Done                     12/27/2018 14:16:53
00023 suncat0088 pw.x -in pw.inp   Done                     12/27/2018 14:16:53
00024 suncat0079 pw.x -in pw.inp   Done                     12/27/2018 14:16:53
00025 suncat0079 pw.x -in pw.inp   Done                     12/27/2018 14:16:53
00026 suncat0079 pw.x -in pw.inp   Done                     12/27/2018 14:16:53
00027 suncat0079 pw.x -in pw.inp   Done                     12/27/2018 14:16:53
00028 suncat0079 pw.x -in pw.inp   Done                     12/27/2018 14:16:53
00029 suncat0079 pw.x -in pw.inp   Done                     12/27/2018 14:16:53
00030 suncat0079 pw.x -in pw.inp   Done                     12/27/2018 14:16:53
00031 suncat0079 pw.x -in pw.inp   Done                     12/27/2018 14:16:53
00032 suncat0064 pw.x -in pw.inp   Done                     12/27/2018 14:16:53
00033 suncat0064 pw.x -in pw.inp   Done                     12/27/2018 14:16:53
00034 suncat0064 pw.x -in pw.inp   Done                     12/27/2018 14:16:53
00035 suncat0064 pw.x -in pw.inp   Done                     12/27/2018 14:16:53
00036 suncat0064 pw.x -in pw.inp   Done                     12/27/2018 14:16:53
00037 suncat0064 pw.x -in pw.inp   Done                     12/27/2018 14:16:53
00038 suncat0064 pw.x -in pw.inp   Done                     12/27/2018 14:16:53
00039 suncat0064 pw.x -in pw.inp   Done                     12/27/2018 14:16:53
00040 suncat0129 pw.x -in pw.inp   Done                     12/27/2018 14:16:53
00041 suncat0129 pw.x -in pw.inp   Done                     12/27/2018 14:16:53
00042 suncat0129 pw.x -in pw.inp   Done                     12/27/2018 14:16:53
00043 suncat0129 pw.x -in pw.inp   Done                     12/27/2018 14:16:53
00044 suncat0129 pw.x -in pw.inp   Done                     12/27/2018 14:16:53
00045 suncat0129 pw.x -in pw.inp   Done                     12/27/2018 14:16:53
00046 suncat0129 pw.x -in pw.inp   Done                     12/27/2018 14:16:53
00047 suncat0129 pw.x -in pw.inp   Done                     12/27/2018 14:16:53
00048 suncat0254 pw.x -in pw.inp   Done                     12/27/2018 14:16:53
00049 suncat0254 pw.x -in pw.inp   Done                     12/27/2018 14:16:53
00050 suncat0254 pw.x -in pw.inp   Done                     12/27/2018 14:16:53
00051 suncat0254 pw.x -in pw.inp   Done                     12/27/2018 14:16:53
00052 suncat0254 pw.x -in pw.inp   Done                     12/27/2018 14:16:53
00053 suncat0254 pw.x -in pw.inp   Done                     12/27/2018 14:16:53
00054 suncat0254 pw.x -in pw.inp   Done                     12/27/2018 14:16:53
00055 suncat0254 pw.x -in pw.inp   Done                     12/27/2018 14:16:53
00056 suncat0253 pw.x -in pw.inp   Done                     12/27/2018 14:16:53
00057 suncat0253 pw.x -in pw.inp   Done                     12/27/2018 14:16:53
00058 suncat0253 pw.x -in pw.inp   Done                     12/27/2018 14:16:53
00059 suncat0253 pw.x -in pw.inp   Done                     12/27/2018 14:16:53
00060 suncat0253 pw.x -in pw.inp   Done                     12/27/2018 14:16:53
00061 suncat0253 pw.x -in pw.inp   Done                     12/27/2018 14:16:53
00062 suncat0253 pw.x -in pw.inp   Done                     12/27/2018 14:16:53
00063 suncat0253 pw.x -in pw.inp   Done                     12/27/2018 14:16:53