     Program PWSCF v.5.1rc2 (svn rev. 11289) starts on 26Dec2018 at 19:46:38

     Current dimensions of program PWSCF are:
     Max number of different atomic species (ntypx) = 10
     Max number of k-points (npk) =  40000
     Max angular momentum in pseudopotentials (lmaxx) =  3
     Presently stress not available with electric field

     IMPORTANT: XC functional enforced from input :
     Exchange-correlation      = BEEF-VDW ( 1  4 27 13 2)
     Any further DFT definition will be discarded
     Please, verify this is what you really want

     Subspace diagonalization in iterative solution of the eigenvalue problem:
     a serial algorithm will be used

     Generating pointlists ...
     new r_m :   0.4125 (alat units)  0.7795 (a.u.) for type    1
     new r_m :   0.4125 (alat units)  0.7795 (a.u.) for type    2

     bravais-lattice index     =            0
     lattice parameter (alat)  =       1.8897  a.u.
     unit-cell volume          =    3899.1810 (a.u.)^3
     number of atoms/cell      =           12
     number of atomic types    =            2
     number of electrons       =       177.00
     number of Kohn-Sham states=          118
     kinetic-energy cutoff     =      36.7493  Ry
     charge density cutoff     =     367.4932  Ry
     convergence threshold     =      1.0E-06
     mixing beta               =       0.1000
     number of iterations used =           10  plain     mixing
     Exchange-correlation      = BEEF-VDW ( 1  4 27 13 2)
     nstep                     =           50

     celldm(1)=   1.889726  celldm(2)=   0.000000  celldm(3)=   0.000000
     celldm(4)=   0.000000  celldm(5)=   0.000000  celldm(6)=   0.000000

     crystal axes: (cart. coord. in units of alat)
               a(1) = (   5.242012   0.000000   0.000000 )
               a(2) = (  -2.621006   4.539715   0.000000 )
               a(3) = (   0.000000   0.000000  24.280085 )

     reciprocal axes: (cart. coord. in units 2 pi/alat)
               b(1) = (  0.190766  0.110139  0.000000 )
               b(2) = (  0.000000  0.220278  0.000000 )
               b(3) = (  0.000000  0.000000  0.041186 )

     PseudoPot. # 1 for Mn read from file:
     /afs/slac.stanford.edu/u/if/mamunm/psp/gbrv1.5pbe/Mn.UPF
     MD5 check sum: 82ef2b46521d7a7d9e736dc3972e4928
     Pseudo is Ultrasoft + core correction, Zval = 15.0
     Generated by new atomic code, or converted to UPF format
     Using radial grid of  859 points,  6 beta functions with:
                l(1) =   0
                l(2) =   0
                l(3) =   1
                l(4) =   1
                l(5) =   2
                l(6) =   2
     Q(r) pseudized with  8 coefficients,  rinner =    0.950   0.950   0.950
                                                       0.950   0.950

     PseudoPot. # 2 for Mo read from file:
     /afs/slac.stanford.edu/u/if/mamunm/psp/gbrv1.5pbe/Mo.UPF
     MD5 check sum: 30c4dcd161f5d35cd49bb5239c51a633
     Pseudo is Ultrasoft + core correction, Zval = 14.0
     Generated by new atomic code, or converted to UPF format
     Using radial grid of  889 points,  6 beta functions with:
                l(1) =   0
                l(2) =   0
                l(3) =   1
                l(4) =   1
                l(5) =   2
                l(6) =   2
     Q(r) pseudized with  6 coefficients,  rinner =    1.000   1.000   1.000
                                                       1.000   1.000

     vdW kernel table read from file vdW_kernel_table
     MD5 check sum: 095c7af220d748ca6e76c0b4c6cfb241

     atomic species   valence    mass     pseudopotential
        Mn1           15.00    54.93804     Mn( 1.00)
        Mo1           14.00    95.95000     Mo( 1.00)

     Starting magnetic structure
     atomic species   magnetization
        Mn1          0.133
        Mo1          0.143

     No symmetry found

   Cartesian axes

     site n.     atom                  positions (alat units)
         1           Mn1 tau(   1) = (   0.0000000   0.0000000  10.0000000  )
         2           Mn1 tau(   2) = (  -1.3105029   2.2698576  10.0000000  )
         3           Mn1 tau(   3) = (   1.3105029   2.2698576  10.0000000  )
         4           Mo1 tau(   4) = (   2.6210058   0.0000000  10.0000000  )
         5           Mn1 tau(   5) = (   2.6210058   1.5132384  12.1400423  )
         6           Mn1 tau(   6) = (   1.3105029   3.7830961  12.1400423  )
         7           Mn1 tau(   7) = (  -1.3105029   3.7830961  12.1400423  )
         8           Mo1 tau(   8) = (   0.0000000   1.5132384  12.1400423  )
         9           Mn1 tau(   9) = (  -0.0000000   3.0264769  14.2800846  )
        10           Mn1 tau(  10) = (   1.3105029   0.7566192  14.2800846  )
        11           Mn1 tau(  11) = (   3.9315088   0.7566192  14.2800846  )
        12           Mo1 tau(  12) = (   2.6210058   3.0264769  14.2800846  )

     number of k points=    40  Fermi-Dirac smearing, width (Ry)=  0.0110
                       cart. coord. in units 2pi/alat
        k(    1) = (   0.0000000   0.0000000   0.0000000), wk =   0.0277778
        k(    2) = (   0.0000000   0.0367130   0.0000000), wk =   0.0555556
        k(    3) = (   0.0000000   0.0734260   0.0000000), wk =   0.0555556
        k(    4) = (   0.0000000  -0.1101391   0.0000000), wk =   0.0277778
        k(    5) = (   0.0317944   0.0183565   0.0000000), wk =   0.0555556
        k(    6) = (   0.0317944   0.0550695   0.0000000), wk =   0.0555556
        k(    7) = (   0.0317944   0.0917826   0.0000000), wk =   0.0555556
        k(    8) = (   0.0317944  -0.0917826   0.0000000), wk =   0.0555556
        k(    9) = (   0.0317944  -0.0550695   0.0000000), wk =   0.0555556
        k(   10) = (   0.0317944  -0.0183565   0.0000000), wk =   0.0555556
        k(   11) = (   0.0635888   0.0367130   0.0000000), wk =   0.0555556
        k(   12) = (   0.0635888   0.0734260   0.0000000), wk =   0.0555556
        k(   13) = (   0.0635888   0.1101391   0.0000000), wk =   0.0555556
        k(   14) = (   0.0635888  -0.0734260   0.0000000), wk =   0.0555556
        k(   15) = (   0.0635888  -0.0367130   0.0000000), wk =   0.0555556
        k(   16) = (   0.0635888  -0.0000000   0.0000000), wk =   0.0555556
        k(   17) = (  -0.0953832  -0.0550695   0.0000000), wk =   0.0277778
        k(   18) = (  -0.0953832  -0.0183565   0.0000000), wk =   0.0555556
        k(   19) = (  -0.0953832   0.0183565   0.0000000), wk =   0.0555556
        k(   20) = (  -0.0953832  -0.1652086   0.0000000), wk =   0.0277778
        k(   21) = (   0.0000000   0.0000000   0.0000000), wk =   0.0277778
        k(   22) = (   0.0000000   0.0367130   0.0000000), wk =   0.0555556
        k(   23) = (   0.0000000   0.0734260   0.0000000), wk =   0.0555556
        k(   24) = (   0.0000000  -0.1101391   0.0000000), wk =   0.0277778
        k(   25) = (   0.0317944   0.0183565   0.0000000), wk =   0.0555556
        k(   26) = (   0.0317944   0.0550695   0.0000000), wk =   0.0555556
        k(   27) = (   0.0317944   0.0917826   0.0000000), wk =   0.0555556
        k(   28) = (   0.0317944  -0.0917826   0.0000000), wk =   0.0555556
        k(   29) = (   0.0317944  -0.0550695   0.0000000), wk =   0.0555556
        k(   30) = (   0.0317944  -0.0183565   0.0000000), wk =   0.0555556
        k(   31) = (   0.0635888   0.0367130   0.0000000), wk =   0.0555556
        k(   32) = (   0.0635888   0.0734260   0.0000000), wk =   0.0555556
        k(   33) = (   0.0635888   0.1101391   0.0000000), wk =   0.0555556
        k(   34) = (   0.0635888  -0.0734260   0.0000000), wk =   0.0555556
        k(   35) = (   0.0635888  -0.0367130   0.0000000), wk =   0.0555556
        k(   36) = (   0.0635888  -0.0000000   0.0000000), wk =   0.0555556
        k(   37) = (  -0.0953832  -0.0550695   0.0000000), wk =   0.0277778
        k(   38) = (  -0.0953832  -0.0183565   0.0000000), wk =   0.0555556
        k(   39) = (  -0.0953832   0.0183565   0.0000000), wk =   0.0555556
        k(   40) = (  -0.0953832  -0.1652086   0.0000000), wk =   0.0277778

     Largest allocated arrays     est. size (Mb)     dimensions
     Largest temporary arrays     est. size (Mb)     dimensions

     Check: negative/imaginary core charge=   -0.000008    0.000000

     Initial potential from superposition of free atoms
     Check: negative starting charge=(component1):   -0.002028
     Check: negative starting charge=(component2):   -0.001537

     starting charge  172.49604, renormalised to  177.00000

     negative rho (up, down):  2.081E-03 1.577E-03

     *
     * You are using vdW-DF for exchange-correlation in this calculation.
     * Please cite the following three references that made this development
     * possible:
     *
     *   M. Dion, H. Rydberg, E. Schroder, D. C. Langreth, and
     *   B. I. Lundqvist, Phys. Rev. Lett. 92, 246401 (2004).
     *
     *   T. Thonhauser, V. R. Cooper, S. Li, A. Puzder, P. Hyldgaard, and
     *   D. C. Langreth, Phys. Rev. B 76, 125112 (2007).
     *
     *   G. Roman-Perez and J. M. Soler, Phys. Rev. Lett. 103, 096102 (2009).
     *
     *
     * If you are using vdW-DF2, please also cite:
     *
     *   K. Lee, E. D. Murray, L. Kong, B. I. Lundqvist, and
     *   D. C. Langreth, Phys. Rev. B 82, 081101(R) (2010).
     *
     *
     * If you are calculating the stress with vdW-DF, please also cite:
     *
     *   R. Sabatini, E. Kucukbenli, B. Kolb, T. Thonhauser, and
     *   S. de Gironcoli, J. Phys.: Condens. Matter 24, 424209 (2012).
     *

     Carrying out vdW-DF run using the following parameters:

     Nqs =      20    Nr_points =    1024   r_max =   100.000
     q_mesh =
               0.00001000     0.04494208     0.09755937     0.15916263
               0.23128650     0.31572767     0.41458969     0.53033537
               0.66584808     0.82450364     1.01025438     1.22772762
               1.48234092     1.78043706     2.12944203     2.53805004
               3.01644009     3.57652955     4.23227104     5.00000000

     Gradients computed in reciprocal space

     Adding external electric field

     Computed dipole along edir(3) :
        Dipole                0.0000 Ry au,          0.0000 Debye
        Dipole field          0.0000 Ry au

        Potential amp.       -0.0000 Ry
        Total length         44.7356 bohr

[...]

     Starting wfc are  156 randomized atomic wfcs

     Self-consistent Calculation

     iteration #  1     ecut=    36.75 Ry     beta=0.10
     Davidson diagonalization with overlap
     ethr =  1.00E-02,  avg # of iterations =  2.0

[...]

     Magnetic moment per site:
     atom:    1    charge:    6.0528    magn:    0.7838    constr:    0.0000
     atom:    2    charge:    6.0528    magn:    0.7838    constr:    0.0000
     atom:    3    charge:    6.0528    magn:    0.7838    constr:    0.0000
     atom:    4    charge:    1.9159    magn:    0.2506    constr:    0.0000
     atom:    5    charge:    6.0793    magn:    0.7827    constr:    0.0000
     atom:    6    charge:    6.0793    magn:    0.7827    constr:    0.0000
     atom:    7    charge:    6.0793    magn:    0.7827    constr:    0.0000
     atom:    8    charge:    1.9253    magn:    0.2510    constr:    0.0000
[...]
        k(    3) = (   0.0000000   0.0734260   0.0000000), wk =   0.0555556
        k(    4) = (   0.0000000  -0.1101391   0.0000000), wk =   0.0277778
        k(    5) = (   0.0317944   0.0183565   0.0000000), wk =   0.0555556
        k(    6) = (   0.0317944   0.0550695   0.0000000), wk =   0.0555556
        k(    7) = (   0.0317944   0.0917826   0.0000000), wk =   0.0555556
        k(    8) = (   0.0317944  -0.0917826   0.0000000), wk =   0.0555556
        k(    9) = (   0.0317944  -0.0550695   0.0000000), wk =   0.0555556
        k(   10) = (   0.0317944  -0.0183565   0.0000000), wk =   0.0555556
        k(   11) = (   0.0635888   0.0367130   0.0000000), wk =   0.0555556
        k(   12) = (   0.0635888   0.0734260   0.0000000), wk =   0.0555556
        k(   13) = (   0.0635888   0.1101391   0.0000000), wk =   0.0555556
        k(   14) = (   0.0635888  -0.0734260   0.0000000), wk =   0.0555556
        k(   15) = (   0.0635888  -0.0367130   0.0000000), wk =   0.0555556
        k(   16) = (   0.0635888  -0.0000000   0.0000000), wk =   0.0555556
        k(   17) = (  -0.0953832  -0.0550695   0.0000000), wk =   0.0277778
        k(   18) = (  -0.0953832  -0.0183565   0.0000000), wk =   0.0555556
        k(   19) = (  -0.0953832   0.0183565   0.0000000), wk =   0.0555556
        k(   20) = (  -0.0953832  -0.1652086   0.0000000), wk =   0.0277778
        k(   21) = (   0.0000000   0.0000000   0.0000000), wk =   0.0277778
        k(   22) = (   0.0000000   0.0367130   0.0000000), wk =   0.0555556
        k(   23) = (   0.0000000   0.0734260   0.0000000), wk =   0.0555556
        k(   24) = (   0.0000000  -0.1101391   0.0000000), wk =   0.0277778
        k(   25) = (   0.0317944   0.0183565   0.0000000), wk =   0.0555556
        k(   26) = (   0.0317944   0.0550695   0.0000000), wk =   0.0555556
        k(   27) = (   0.0317944   0.0917826   0.0000000), wk =   0.0555556
        k(   28) = (   0.0317944  -0.0917826   0.0000000), wk =   0.0555556
        k(   29) = (   0.0317944  -0.0550695   0.0000000), wk =   0.0555556
        k(   30) = (   0.0317944  -0.0183565   0.0000000), wk =   0.0555556
        k(   31) = (   0.0635888   0.0367130   0.0000000), wk =   0.0555556
        k(   32) = (   0.0635888   0.0734260   0.0000000), wk =   0.0555556
        k(   33) = (   0.0635888   0.1101391   0.0000000), wk =   0.0555556
        k(   34) = (   0.0635888  -0.0734260   0.0000000), wk =   0.0555556
        k(   35) = (   0.0635888  -0.0367130   0.0000000), wk =   0.0555556
        k(   36) = (   0.0635888  -0.0000000   0.0000000), wk =   0.0555556
        k(   37) = (  -0.0953832  -0.0550695   0.0000000), wk =   0.0277778
        k(   38) = (  -0.0953832  -0.0183565   0.0000000), wk =   0.0555556
        k(   39) = (  -0.0953832   0.0183565   0.0000000), wk =   0.0555556
        k(   40) = (  -0.0953832  -0.1652086   0.0000000), wk =   0.0277778

     Largest allocated arrays     est. size (Mb)     dimensions
     Largest temporary arrays     est. size (Mb)     dimensions

     Check: negative/imaginary core charge=   -0.000008    0.000000

     Initial potential from superposition of free atoms
     Check: negative starting charge=(component1):   -0.001985
     Check: negative starting charge=(component2):   -0.001503

     starting charge  172.49604, renormalised to  177.00000

[...]

     *
     * You are using vdW-DF for exchange-correlation in this calculation.
     * Please cite the following three references that made this development
     * possible:
     *
     *   M. Dion, H. Rydberg, E. Schroder, D. C. Langreth, and
     *   B. I. Lundqvist, Phys. Rev. Lett. 92, 246401 (2004).
     *
     *   T. Thonhauser, V. R. Cooper, S. Li, A. Puzder, P. Hyldgaard, and
     *   D. C. Langreth, Phys. Rev. B 76, 125112 (2007).
     *
     *   G. Roman-Perez and J. M. Soler, Phys. Rev. Lett. 103, 096102 (2009).
     *
     *
     * If you are using vdW-DF2, please also cite:
     *
     *   K. Lee, E. D. Murray, L. Kong, B. I. Lundqvist, and
     *   D. C. Langreth, Phys. Rev. B 82, 081101(R) (2010).
     *
     *
     * If you are calculating the stress with vdW-DF, please also cite:
     *
     *   R. Sabatini, E. Kucukbenli, B. Kolb, T. Thonhauser, and
     *   S. de Gironcoli, J. Phys.: Condens. Matter 24, 424209 (2012).
     *

     Carrying out vdW-DF run using the following parameters:

     Nqs =      20    Nr_points =    1024   r_max =   100.000
     q_mesh =
               0.00001000     0.04494208     0.09755937     0.15916263
               0.23128650     0.31572767     0.41458969     0.53033537
               0.66584808     0.82450364     1.01025438     1.22772762
               1.48234092     1.78043706     2.12944203     2.53805004
               3.01644009     3.57652955     4.23227104     5.00000000

     Gradients computed in reciprocal space

[...]

     Starting wfc are  156 randomized atomic wfcs

     Self-consistent Calculation

[...]

     total energy              =   -2328.73021056 Ry
     Harris-Foulkes estimate   =   -2328.73021026 Ry
     estimated scf accuracy    <       0.00000113 Ry

[...]

     iteration # 47     ecut=    36.75 Ry     beta=0.10
     Davidson diagonalization with overlap
     ethr =  6.37E-10,  avg # of iterations =  2.0

[...]

     negative rho (up, down):  2.413E-03 1.934E-03

[...]

     Adding external electric field

     Computed dipole along edir(3) :
        Dipole                0.0097 Ry au,          0.0247 Debye
        Dipole field          0.0000 Ry au

        Potential amp.       -0.0028 Ry
        Total length         44.7356 bohr

     Magnetic moment per site:
     atom:    1    charge:    5.9973    magn:    1.1328    constr:    0.0000
     atom:    2    charge:    5.9974    magn:    1.1328    constr:    0.0000
     atom:    3    charge:    5.9974    magn:    1.1328    constr:    0.0000
     atom:    4    charge:    1.8634    magn:   -0.0810    constr:    0.0000
     atom:    5    charge:    5.9917    magn:    0.8218    constr:    0.0000
     atom:    6    charge:    5.9917    magn:    0.8218    constr:    0.0000
     atom:    7    charge:    5.9916    magn:    0.8218    constr:    0.0000
     atom:    8    charge:    1.8702    magn:   -0.0620    constr:    0.0000
     atom:    9    charge:    6.0009    magn:    1.1984    constr:    0.0000
     atom:   10    charge:    6.0009    magn:    1.1985    constr:    0.0000
     atom:   11    charge:    6.0009    magn:    1.1985    constr:    0.0000
     atom:   12    charge:    1.8597    magn:   -0.0782    constr:    0.0000

     End of self-consistent calculation

 ------ SPIN UP ------------

[...]

 ------ SPIN DOWN ----------

[...]

          k = 0.0636-0.0000 0.0000 ( 14691 PWs)   bands (ev):

[...]

          k =-0.0954-0.1652 0.0000 ( 14638 PWs)   bands (ev):

   -76.4005 -76.3869 -76.3732 -75.8808 -75.8673 -75.8535 -75.7707 -75.7562
   -75.7427 -59.8988 -59.8247 -59.8090 -45.3546 -45.2723 -45.2225 -45.1694
   -45.1330 -45.1174 -45.1013 -45.0943 -45.0183 -44.8250 -44.7710 -44.7393
   -44.7340 -44.7044 -44.6805 -44.6452 -44.6317 -44.6022 -44.5608 -44.5494
   -44.5431 -44.5212 -44.5194 -44.4419 -44.4302 -44.4199 -44.4145 -34.0029
   -33.9854 -33.9775 -33.9669 -33.9407 -33.9153 -33.9061 -33.9020 -33.8947
    -3.5478  -3.4148  -2.4239  -1.9760  -1.8968  -1.8805  -1.5277  -1.2970
    -1.0924  -1.0595  -0.7814  -0.7712  -0.6529  -0.4385  -0.3444  -0.2573
    -0.1918  -0.1184   0.0047   0.3834   0.4267   0.5751   0.6863   0.7423
     0.9259   1.1337   1.1915   1.2498   1.3770   1.4291   1.5122   1.5192
     1.6151   1.7230   1.7648   1.9254   1.9415   2.0539   2.2023   2.2988
     2.3824   2.5996   2.6364   2.7147   2.7538   2.9506   3.0148   3.1604
     3.1970   3.2409   3.2805   3.3064   3.3241   3.3863   3.4963   3.5631
     3.7487   3.8223   4.0264   4.0393   4.1197   4.3334   4.4587   4.6901
     4.8114   5.0353   5.6399   6.2355   6.3293   6.5352

     the Fermi energy is     1.5769 ev

!    total energy              =   -2328.73021197 Ry
     Harris-Foulkes estimate   =   -2328.73021064 Ry
     estimated scf accuracy    <       0.00000080 Ry

     The total energy is the sum of the following terms:

     one-electron contribution =  -20374.84541373 Ry
     hartree contribution      =   10183.86187154 Ry
     xc contribution           =    -308.48035445 Ry
     ewald contribution        =    8170.83119508 Ry
     electric field correction =       0.00000030 Ry
     smearing contrib. (-TS)   =      -0.09751071 Ry

     total magnetization       =    21.04 Bohr mag/cell
     absolute magnetization    =    27.82 Bohr mag/cell

     convergence has been achieved in  47 iterations

 BEEF-vdW xc energy contributions
           1 :   -268.426872287376
           2 :    243.153543863375
           3 :   -200.748997241172
           4 :    153.488832190262
           5 :   -112.417920559271
           6 :    83.4972503723466
           7 :   -66.7979405707886
           8 :    58.3343291120612
           9 :   -53.0363737353538
          10 :    47.2440769081005
          11 :   -39.7752641480720
          12 :    31.4742527167929
          13 :   -23.9261817402859
          14 :    18.2532874418069
          15 :   -14.6135570811402
          16 :    12.4052389260204
          17 :   -10.7991642663013
          18 :    9.18225012017729
          19 :   -7.33853510977474
          20 :    5.38600063982580
          21 :   -3.59990872070148
          22 :    2.22895739968374
          23 :   -1.37569352028299
          24 :   0.948056960144470
          25 :  -0.692708464097109
          26 :   0.304805997671110
          27 :   0.407277031602860
          28 :   -1.39623344710316
          29 :    2.38377617159159
          30 :   -3.03394614680747
          31 :   -25.6051163493987
          32 :   -18.5264973322721

     Forces acting on atoms (Ry/au):

     negative rho (up, down):  2.413E-03 1.934E-03
     atom    1 type  1   force =     0.00000623   -0.00570206   -0.01427724
     atom    2 type  1   force =    -0.00493214    0.00285854   -0.01428410
     atom    3 type  1   force =     0.00493074    0.00285039   -0.01429045
     atom    4 type  2   force =    -0.00000059   -0.00000192    0.00457786
     atom    5 type  1   force =    -0.00000012   -0.00653560    0.00537972
     atom    6 type  1   force =    -0.00565379    0.00327126    0.00537315
     atom    7 type  1   force =     0.00565364    0.00327114    0.00537541
     atom    8 type  2   force =    -0.00000008   -0.00000319    0.02408427
     atom    9 type  1   force =    -0.00000598    0.00030780   -0.00017695
     atom   10 type  1   force =     0.00025615   -0.00016556   -0.00017942
     atom   11 type  1   force =    -0.00025522   -0.00015799   -0.00017307
     atom   12 type  2   force =     0.00000115    0.00000719   -0.00140919

     Total force =     0.039085     Total SCF correction =     0.002715

     entering subroutine stress ...

     negative rho (up, down):  2.413E-03 1.934E-03
          total   stress  (Ry/bohr**3)                   (kbar)     P=    0.54
  -0.00000510  -0.00000000  -0.00000001         -0.75     -0.00     -0.00
  -0.00000000  -0.00000511  -0.00000001         -0.00     -0.75     -0.00
  -0.00000001  -0.00000001   0.00002122         -0.00     -0.00      3.12

 !ASE

     Writing output data file calc.save

     General routines

     Parallel routines

   This run was terminated on:  23:39:22  26Dec2018

   JOB DONE.
Job  /afs/slac/g/suncat/bin/suncat-tsmpirun -x LD_LIBRARY_PATH -wdir /scratch/qe110070_XgXHM pw.x -in pw.inp

TID   HOST_NAME   COMMAND_LINE            STATUS            TERMINATION_TIME
00000 suncat0277 pw.x -in pw.inp   Done                     12/26/2018 23:39:22
00001 suncat0277 pw.x -in pw.inp   Done                     12/26/2018 23:39:22
00002 suncat0277 pw.x -in pw.inp   Done                     12/26/2018 23:39:22
00003 suncat0277 pw.x -in pw.inp   Done                     12/26/2018 23:39:22
00004 suncat0277 pw.x -in pw.inp   Done                     12/26/2018 23:39:22
00005 suncat0277 pw.x -in pw.inp   Done                     12/26/2018 23:39:22
00006 suncat0277 pw.x -in pw.inp   Done                     12/26/2018 23:39:22
00007 suncat0277 pw.x -in pw.inp   Done                     12/26/2018 23:39:22
00008 suncat0276 pw.x -in pw.inp   Done                     12/26/2018 23:39:22
00009 suncat0276 pw.x -in pw.inp   Done                     12/26/2018 23:39:22
00010 suncat0276 pw.x -in pw.inp   Done                     12/26/2018 23:39:22
00011 suncat0276 pw.x -in pw.inp   Done                     12/26/2018 23:39:22
00012 suncat0276 pw.x -in pw.inp   Done                     12/26/2018 23:39:22
00013 suncat0276 pw.x -in pw.inp   Done                     12/26/2018 23:39:22
00014 suncat0276 pw.x -in pw.inp   Done                     12/26/2018 23:39:22
00015 suncat0276 pw.x -in pw.inp   Done                     12/26/2018 23:39:22
00016 suncat0274 pw.x -in pw.inp   Done                     12/26/2018 23:39:22
00017 suncat0274 pw.x -in pw.inp   Done                     12/26/2018 23:39:22
00018 suncat0274 pw.x -in pw.inp   Done                     12/26/2018 23:39:22
00019 suncat0274 pw.x -in pw.inp   Done                     12/26/2018 23:39:22
00020 suncat0274 pw.x -in pw.inp   Done                     12/26/2018 23:39:22
00021 suncat0274 pw.x -in pw.inp   Done                     12/26/2018 23:39:22
00022 suncat0274 pw.x -in pw.inp   Done                     12/26/2018 23:39:22
00023 suncat0274 pw.x -in pw.inp   Done                     12/26/2018 23:39:22
00024 suncat0273 pw.x -in pw.inp   Done                     12/26/2018 23:39:22
00025 suncat0273 pw.x -in pw.inp   Done                     12/26/2018 23:39:22
00026 suncat0273 pw.x -in pw.inp   Done                     12/26/2018 23:39:22
00027 suncat0273 pw.x -in pw.inp   Done                     12/26/2018 23:39:22
00028 suncat0273 pw.x -in pw.inp   Done                     12/26/2018 23:39:22
00029 suncat0273 pw.x -in pw.inp   Done                     12/26/2018 23:39:22
00030 suncat0273 pw.x -in pw.inp   Done                     12/26/2018 23:39:22
00031 suncat0273 pw.x -in pw.inp   Done                     12/26/2018 23:39:22
00032 suncat0230 pw.x -in pw.inp   Done                     12/26/2018 23:39:22
00033 suncat0230 pw.x -in pw.inp   Done                     12/26/2018 23:39:22
00034 suncat0230 pw.x -in pw.inp   Done                     12/26/2018 23:39:22
00035 suncat0230 pw.x -in pw.inp   Done                     12/26/2018 23:39:22
00036 suncat0230 pw.x -in pw.inp   Done                     12/26/2018 23:39:22
00037 suncat0230 pw.x -in pw.inp   Done                     12/26/2018 23:39:22
00038 suncat0230 pw.x -in pw.inp   Done                     12/26/2018 23:39:22
00039 suncat0230 pw.x -in pw.inp   Done                     12/26/2018 23:39:22
00040 suncat0229 pw.x -in pw.inp   Done                     12/26/2018 23:39:22
00041 suncat0229 pw.x -in pw.inp   Done                     12/26/2018 23:39:22
00042 suncat0229 pw.x -in pw.inp   Done                     12/26/2018 23:39:22
00043 suncat0229 pw.x -in pw.inp   Done                     12/26/2018 23:39:22
00044 suncat0229 pw.x -in pw.inp   Done                     12/26/2018 23:39:22
00045 suncat0229 pw.x -in pw.inp   Done                     12/26/2018 23:39:22
00046 suncat0229 pw.x -in pw.inp   Done                     12/26/2018 23:39:22
00047 suncat0229 pw.x -in pw.inp   Done                     12/26/2018 23:39:22
00048 suncat0205 pw.x -in pw.inp   Done                     12/26/2018 23:39:22
00049 suncat0205 pw.x -in pw.inp   Done                     12/26/2018 23:39:22
00050 suncat0205 pw.x -in pw.inp   Done                     12/26/2018 23:39:22
00051 suncat0205 pw.x -in pw.inp   Done                     12/26/2018 23:39:22
00052 suncat0205 pw.x -in pw.inp   Done                     12/26/2018 23:39:22
00053 suncat0205 pw.x -in pw.inp   Done                     12/26/2018 23:39:22
00054 suncat0205 pw.x -in pw.inp   Done                     12/26/2018 23:39:22
00055 suncat0205 pw.x -in pw.inp   Done                     12/26/2018 23:39:22
00056 suncat0204 pw.x -in pw.inp   Done                     12/26/2018 23:39:22
00057 suncat0204 pw.x -in pw.inp   Done                     12/26/2018 23:39:22
00058 suncat0204 pw.x -in pw.inp   Done                     12/26/2018 23:39:22
00059 suncat0204 pw.x -in pw.inp   Done                     12/26/2018 23:39:22
00060 suncat0204 pw.x -in pw.inp   Done                     12/26/2018 23:39:22
00061 suncat0204 pw.x -in pw.inp   Done                     12/26/2018 23:39:22
00062 suncat0204 pw.x -in pw.inp   Done                     12/26/2018 23:39:22
00063 suncat0204 pw.x -in pw.inp   Done                     12/26/2018 23:39:22