     Program PWSCF v.5.1rc2 (svn rev. 11289) starts on  1Jan2019 at 11:41:54

     Current dimensions of program PWSCF are:
     Max number of different atomic species (ntypx) = 10
     Max number of k-points (npk) =  40000
     Max angular momentum in pseudopotentials (lmaxx) =  3
     Presently stress not available with electric field

     IMPORTANT: XC functional enforced from input :
     Exchange-correlation      = BEEF-VDW ( 1  4 27 13 2)
     Any further DFT definition will be discarded
     Please, verify this is what you really want

     Subspace diagonalization in iterative solution of the eigenvalue problem:
     a serial algorithm will be used

     bravais-lattice index     =            0
     lattice parameter (alat)  =       1.8897  a.u.
     unit-cell volume          =    6970.9021 (a.u.)^3
     number of atoms/cell      =           12
     number of atomic types    =            2
     number of electrons       =       162.00
     number of Kohn-Sham states=          111
     kinetic-energy cutoff     =      36.7493  Ry
     charge density cutoff     =     367.4932  Ry
     convergence threshold     =      1.0E-06
     mixing beta               =       0.1000
     number of iterations used =           10  plain     mixing
     Exchange-correlation      = BEEF-VDW ( 1  4 27 13 2)
     nstep                     =           50

     celldm(1)=   1.889726  celldm(2)=   0.000000  celldm(3)=   0.000000
     celldm(4)=   0.000000  celldm(5)=   0.000000  celldm(6)=   0.000000

     crystal axes: (cart. coord. in units of alat)
               a(1) = (   6.829123   0.000000   0.000000 )
               a(2) = (  -3.414562   5.914194   0.000000 )
               a(3) = (   0.000000   0.000000  25.575956 )

     reciprocal axes: (cart. coord. in units 2 pi/alat)
               b(1) = (  0.146432  0.084542  0.000000 )
               b(2) = (  0.000000  0.169085  0.000000 )
               b(3) = (  0.000000  0.000000  0.039099 )

     PseudoPot. # 1 for Sn read from file:
     /afs/slac.stanford.edu/u/if/mamunm/psp/gbrv1.5pbe/Sn.UPF
     MD5 check sum: 469debedee59599fedebd795477fea03
     Pseudo is Ultrasoft + core correction, Zval = 14.0
     Generated by new atomic code, or converted to UPF format
     Using radial grid of  891 points,  6 beta functions with:
                l(1) =   0
                l(2) =   0
                l(3) =   1
                l(4) =   1
                l(5) =   2
                l(6) =   2
     Q(r) pseudized with  8 coefficients,  rinner =    1.350   1.350   1.350
                                                       1.350   1.350

     PseudoPot. # 2 for Hg read from file:
     /afs/slac.stanford.edu/u/if/mamunm/psp/gbrv1.5pbe/Hg.UPF
     MD5 check sum: 8f42caffe07f7fd9c0a564347f8c5498
     Pseudo is Ultrasoft + core correction, Zval = 12.0
     Generated by new atomic code, or converted to UPF format
     Using radial grid of  985 points,  6 beta functions with:
                l(1) =   0
                l(2) =   0
                l(3) =   1
                l(4) =   1
                l(5) =   2
                l(6) =   2
     Q(r) pseudized with  8 coefficients,  rinner =    2.000   2.000   2.000
                                                       2.000   2.000

     vdW kernel table read from file vdW_kernel_table
     MD5 check sum: 095c7af220d748ca6e76c0b4c6cfb241

     atomic species   valence    mass     pseudopotential
        Sn1           14.00   118.71000     Sn( 1.00)
        Hg1           12.00   200.59200     Hg( 1.00)

     No symmetry found

   Cartesian axes

     site n.     atom                  positions (alat units)
         1           Sn1 tau(   1) = (   0.0000000   0.0000000  10.0000000  )
         2           Sn1 tau(   2) = (  -1.7072808   2.9570970  10.0000000  )
         3           Sn1 tau(   3) = (   1.7072808   2.9570970  10.0000000  )
         4           Hg1 tau(   4) = (   3.4145615   0.0000000  10.0000000  )
         5           Sn1 tau(   5) = (   3.4145615   1.9713980  12.7879778  )
         6           Sn1 tau(   6) = (   1.7072808   4.9284951  12.7879778  )
         7           Sn1 tau(   7) = (  -1.7072808   4.9284951  12.7879778  )
         8           Hg1 tau(   8) = (   0.0000000   1.9713980  12.7879778  )
         9           Sn1 tau(   9) = (  -0.0000000   3.9427961  15.5759556  )
        10           Sn1 tau(  10) = (   1.7072808   0.9856990  15.5759556  )
        11           Sn1 tau(  11) = (   5.1218423   0.9856990  15.5759556  )
        12           Hg1 tau(  12) = (   3.4145615   3.9427961  15.5759556  )

     number of k points=    20  Fermi-Dirac smearing, width (Ry)=  0.0110
                       cart. coord. in units 2pi/alat
        k(    1) = (   0.0000000   0.0000000   0.0000000), wk =   0.0555556
        k(    2) = (   0.0000000   0.0281808   0.0000000), wk =   0.1111111
        k(    3) = (   0.0000000   0.0563616   0.0000000), wk =   0.1111111
        k(    4) = (   0.0000000  -0.0845424   0.0000000), wk =   0.0555556
        k(    5) = (   0.0244053   0.0140904   0.0000000), wk =   0.1111111
        k(    6) = (   0.0244053   0.0422712   0.0000000), wk =   0.1111111
        k(    7) = (   0.0244053   0.0704520   0.0000000), wk =   0.1111111
        k(    8) = (   0.0244053  -0.0704520   0.0000000), wk =   0.1111111
        k(    9) = (   0.0244053  -0.0422712   0.0000000), wk =   0.1111111
        k(   10) = (   0.0244053  -0.0140904   0.0000000), wk =   0.1111111
        k(   11) = (   0.0488106   0.0281808   0.0000000), wk =   0.1111111
        k(   12) = (   0.0488106   0.0563616   0.0000000), wk =   0.1111111
        k(   13) = (   0.0488106   0.0845424   0.0000000), wk =   0.1111111
        k(   14) = (   0.0488106  -0.0563616   0.0000000), wk =   0.1111111
        k(   15) = (   0.0488106  -0.0281808   0.0000000), wk =   0.1111111
        k(   16) = (   0.0488106   0.0000000   0.0000000), wk =   0.1111111
        k(   17) = (  -0.0732158  -0.0422712   0.0000000), wk =   0.0555556
        k(   18) = (  -0.0732158  -0.0140904   0.0000000), wk =   0.1111111
        k(   19) = (  -0.0732158   0.0140904   0.0000000), wk =   0.1111111
        k(   20) = (  -0.0732158  -0.1268136   0.0000000), wk =   0.0555556

     Largest allocated arrays     est. size (Mb)     dimensions
     Largest temporary arrays     est. size (Mb)     dimensions

     Initial potential from superposition of free atoms
     Check: negative starting charge=   -0.001363

     starting charge  152.99942, renormalised to  162.00000

     negative rho (up, down):  1.444E-03 0.000E+00

     *
     * You are using vdW-DF for exchange-correlation in this calculation.
     * Please cite the following three references that made this development
     * possible:
     *
     *   M. Dion, H. Rydberg, E. Schroder, D. C. Langreth, and
     *   B. I. Lundqvist, Phys. Rev. Lett. 92, 246401 (2004).
     *
     *   T. Thonhauser, V. R. Cooper, S. Li, A. Puzder, P. Hyldgaard, and
     *   D. C. Langreth, Phys. Rev. B 76, 125112 (2007).
     *
     *   G. Roman-Perez and J. M. Soler, Phys. Rev. Lett. 103, 096102 (2009).
     *
     *
     * If you are using vdW-DF2, please also cite:
     *
     *   K. Lee, E. D. Murray, L. Kong, B. I. Lundqvist, and
     *   D. C. Langreth, Phys. Rev. B 82, 081101(R) (2010).
     *
     *
     * If you are calculating the stress with vdW-DF, please also cite:
     *
     *   R. Sabatini, E. Kucukbenli, B. Kolb, T. Thonhauser, and
     *   S. de Gironcoli, J. Phys.: Condens. Matter 24, 424209 (2012).
     *

     Carrying out vdW-DF run using the following parameters:

     Nqs =      20    Nr_points =    1024   r_max =   100.000
     q_mesh =
               0.00001000     0.04494208     0.09755937     0.15916263
               0.23128650     0.31572767     0.41458969     0.53033537
               0.66584808     0.82450364     1.01025438     1.22772762
               1.48234092     1.78043706     2.12944203     2.53805004
               3.01644009     3.57652955     4.23227104     5.00000000

     Gradients computed in reciprocal space

     Adding external electric field

     Computed dipole along edir(3) :
        Dipole               -0.0000 Ry au,         -0.0000 Debye
        Dipole field         -0.0000 Ry au

        Potential amp.        0.0000 Ry
        Total length         47.1233 bohr

     Starting wfc are  108 randomized atomic wfcs +    3 random wfc

     Self-consistent Calculation

     iteration #  1     ecut=    36.75 Ry     beta=0.10
     Davidson diagonalization with overlap
     ethr =  1.00E-02,  avg # of iterations =  9.8

[...]

     total energy              =   -1775.10056442 Ry
     Harris-Foulkes estimate   =   -1776.77366003 Ry
     estimated scf accuracy    <       9.76714037 Ry

[...]

     iteration #  8     ecut=    36.75 Ry     beta=0.10
     Davidson diagonalization with overlap
     c_bands:  1 eigenvalues not converged
     ethr =  1.09E-05,  avg # of iterations =  5.3

[...]

     iteration #  9     ecut=    36.75 Ry     beta=0.10
     Davidson diagonalization with overlap
     c_bands:  1 eigenvalues not converged
     ethr =  1.13E-06,  avg # of iterations =  5.4

[...]

     End of self-consistent calculation

          k = 0.0000 0.0000 0.0000 ( 26229 PWs)   bands (ev):

   -21.6017 -21.5985 -21.5953 -21.5953 -21.5919 -21.5919 -21.5741 -21.5700
   -21.5700 -21.5699 -21.5622 -21.5598 -21.5598 -21.5547 -21.5495 -21.5376
   -21.5352 -21.5352 -21.5321 -21.5321 -21.5229 -21.5229 -21.5131 -21.5131
   -21.4838 -21.4838 -21.4760 -21.4760 -21.4696 -21.4660 -21.4660 -21.4512
   -21.4494 -21.4265 -21.4069 -21.4069 -21.4004 -21.3947 -21.3947 -21.3827
   -21.3600 -21.3600 -21.3364 -21.3364 -21.3296  -9.4462  -8.4043  -7.3660
    -7.0252  -7.0252  -6.6722  -6.6722  -6.5681  -6.5681  -6.4104  -6.3794
    -6.3794  -6.2252  -6.2252  -6.2214  -6.2214  -6.1831  -5.7532  -5.2358
    -5.2358  -5.1028  -5.1028  -4.3849  -4.3849  -3.8103  -3.7281  -2.9265
    -2.5523  -2.4037  -2.4037  -2.1796  -1.4564  -1.4564  -1.1629  -1.1045
    -1.1045  -0.9514   0.5428   1.7893   1.7893   1.9002   1.9002   2.6488
     3.1272   3.3725   3.3727   3.9772   3.9772   4.0343   4.2264   4.3640
     4.3640   4.5719   4.7831   5.1540   5.1540   5.4362   6.0252   6.0252
     6.1603   6.2627   6.3174   6.4238   6.4238   7.0521   7.0522

[...]

          k =-0.0732-0.0423 0.0000 ( 26214 PWs)   bands (ev):

[...]

     the Fermi energy is     0.4840 ev

!    total energy              =   -1773.50936274 Ry
     Harris-Foulkes estimate   =   -1773.50936351 Ry
     estimated scf accuracy    <       0.00000088 Ry

     The total energy is the sum of the following terms:

     one-electron contribution =   -9235.90892480 Ry
     hartree contribution      =    4686.79601245 Ry
     xc contribution           =    -521.31810297 Ry
     ewald contribution        =    3296.96015418 Ry
     electric field correction =       0.00000000 Ry
     smearing contrib. (-TS)   =      -0.03850161 Ry

     convergence has been achieved in  16 iterations

 BEEF-vdW xc energy contributions
           1 :   -457.848308336018
           2 :    419.419871764960
           3 :   -353.971375249490
[...]
     MD5 check sum: 469debedee59599fedebd795477fea03
     Pseudo is Ultrasoft + core correction, Zval = 14.0
     Generated by new atomic code, or converted to UPF format
     Using radial grid of  891 points,  6 beta functions with:
                l(1) =   0
                l(2) =   0
                l(3) =   1
                l(4) =   1
                l(5) =   2
                l(6) =   2
     Q(r) pseudized with  8 coefficients,  rinner =    1.350   1.350   1.350
                                                       1.350   1.350

     PseudoPot. # 2 for Hg read from file:
     /afs/slac.stanford.edu/u/if/mamunm/psp/gbrv1.5pbe/Hg.UPF
     MD5 check sum: 8f42caffe07f7fd9c0a564347f8c5498
     Pseudo is Ultrasoft + core correction, Zval = 12.0
     Generated by new atomic code, or converted to UPF format
     Using radial grid of  985 points,  6 beta functions with:
                l(1) =   0
                l(2) =   0
                l(3) =   1
                l(4) =   1
                l(5) =   2
                l(6) =   2
     Q(r) pseudized with  8 coefficients,  rinner =    2.000   2.000   2.000
                                                       2.000   2.000

     vdW kernel table read from file vdW_kernel_table
     MD5 check sum: 095c7af220d748ca6e76c0b4c6cfb241

     atomic species   valence    mass     pseudopotential
        Sn1           14.00   118.71000     Sn( 1.00)
        Hg1           12.00   200.59200     Hg( 1.00)

     No symmetry found

   Cartesian axes

     site n.     atom                  positions (alat units)
         1           Sn1 tau(   1) = (   0.0000000   0.0000000  10.0000000  )
         2           Sn1 tau(   2) = (  -1.7072808   2.9570970  10.0000000  )
         3           Sn1 tau(   3) = (   1.7072808   2.9570970  10.0000000  )
         4           Hg1 tau(   4) = (   3.4145615   0.0000000  10.0000000  )
         5           Sn1 tau(   5) = (   3.4145615   1.9713980  12.7879778  )
         6           Sn1 tau(   6) = (   1.7072808   4.9284951  12.7879778  )
         7           Sn1 tau(   7) = (  -1.7072808   4.9284951  12.7879778  )
         8           Hg1 tau(   8) = (   0.0000000   1.9713980  12.7879778  )
         9           Sn1 tau(   9) = (   0.0000258   3.9539646  15.3533366  )
        10           Sn1 tau(  10) = (   1.7168996   0.9801550  15.3533140  )
        11           Sn1 tau(  11) = (   5.1122487   0.9801671  15.3533404  )
        12           Hg1 tau(  12) = (   3.4145379   3.9428341  16.3802426  )

     number of k points=    20  Fermi-Dirac smearing, width (Ry)=  0.0110
                       cart. coord. in units 2pi/alat
        k(    1) = (   0.0000000   0.0000000   0.0000000), wk =   0.0555556
        k(    2) = (   0.0000000   0.0281808   0.0000000), wk =   0.1111111
        k(    3) = (   0.0000000   0.0563616   0.0000000), wk =   0.1111111
        k(    4) = (   0.0000000  -0.0845424   0.0000000), wk =   0.0555556
        k(    5) = (   0.0244053   0.0140904   0.0000000), wk =   0.1111111
        k(    6) = (   0.0244053   0.0422712   0.0000000), wk =   0.1111111
        k(    7) = (   0.0244053   0.0704520   0.0000000), wk =   0.1111111
        k(    8) = (   0.0244053  -0.0704520   0.0000000), wk =   0.1111111
        k(    9) = (   0.0244053  -0.0422712   0.0000000), wk =   0.1111111
        k(   10) = (   0.0244053  -0.0140904   0.0000000), wk =   0.1111111
        k(   11) = (   0.0488106   0.0281808   0.0000000), wk =   0.1111111
        k(   12) = (   0.0488106   0.0563616   0.0000000), wk =   0.1111111
        k(   13) = (   0.0488106   0.0845424   0.0000000), wk =   0.1111111
        k(   14) = (   0.0488106  -0.0563616   0.0000000), wk =   0.1111111
        k(   15) = (   0.0488106  -0.0281808   0.0000000), wk =   0.1111111
        k(   16) = (   0.0488106   0.0000000   0.0000000), wk =   0.1111111
        k(   17) = (  -0.0732158  -0.0422712   0.0000000), wk =   0.0555556
        k(   18) = (  -0.0732158  -0.0140904   0.0000000), wk =   0.1111111
        k(   19) = (  -0.0732158   0.0140904   0.0000000), wk =   0.1111111
        k(   20) = (  -0.0732158  -0.1268136   0.0000000), wk =   0.0555556

     Largest allocated arrays     est. size (Mb)     dimensions
     Largest temporary arrays     est. size (Mb)     dimensions

     Initial potential from superposition of free atoms
     Check: negative starting charge=   -0.001252

     starting charge  152.99942, renormalised to  162.00000

[...]

     *
     * You are using vdW-DF for exchange-correlation in this calculation.
     * Please cite the following three references that made this development
     * possible:
     *
     *   M. Dion, H. Rydberg, E. Schroder, D. C. Langreth, and
     *   B. I. Lundqvist, Phys. Rev. Lett. 92, 246401 (2004).
     *
     *   T. Thonhauser, V. R. Cooper, S. Li, A. Puzder, P. Hyldgaard, and
     *   D. C. Langreth, Phys. Rev. B 76, 125112 (2007).
     *
     *   G. Roman-Perez and J. M. Soler, Phys. Rev. Lett. 103, 096102 (2009).
     *
     *
     * If you are using vdW-DF2, please also cite:
     *
     *   K. Lee, E. D. Murray, L. Kong, B. I. Lundqvist, and
     *   D. C. Langreth, Phys. Rev. B 82, 081101(R) (2010).
     *
     *
     * If you are calculating the stress with vdW-DF, please also cite:
     *
     *   R. Sabatini, E. Kucukbenli, B. Kolb, T. Thonhauser, and
     *   S. de Gironcoli, J. Phys.: Condens. Matter 24, 424209 (2012).
     *

     Carrying out vdW-DF run using the following parameters:

     Nqs =      20    Nr_points =    1024   r_max =   100.000
     q_mesh =
               0.00001000     0.04494208     0.09755937     0.15916263
               0.23128650     0.31572767     0.41458969     0.53033537
               0.66584808     0.82450364     1.01025438     1.22772762
               1.48234092     1.78043706     2.12944203     2.53805004
               3.01644009     3.57652955     4.23227104     5.00000000

     Gradients computed in reciprocal space

[...]

     Starting wfc are  108 randomized atomic wfcs +    3 random wfc

     Self-consistent Calculation

[...]

     total energy              =   -1773.51956760 Ry
     Harris-Foulkes estimate   =   -1773.51956693 Ry
     estimated scf accuracy    <       0.00000149 Ry

     iteration # 16     ecut=    36.75 Ry     beta=0.10
     Davidson diagonalization with overlap
     ethr =  9.23E-10,  avg # of iterations =  3.0

[...]

     negative rho (up, down):  3.762E-04 0.000E+00

     Adding external electric field

     Computed dipole along edir(3) :
        Dipole               -0.0567 Ry au,         -0.1441 Debye
        Dipole field         -0.0001 Ry au

        Potential amp.        0.0096 Ry
        Total length         47.1233 bohr

     End of self-consistent calculation

[...]

          k = 0.0488 0.0000 0.0000 ( 26229 PWs)   bands (ev):

[...]

          k =-0.0732-0.1268 0.0000 ( 26214 PWs)   bands (ev):

   -21.6708 -21.6441 -21.6347 -21.6344 -21.6315 -21.6301 -21.6287 -21.6259
   -21.6187 -21.6145 -21.6073 -21.5994 -21.5973 -21.5889 -21.5830 -21.5643
   -21.5574 -21.5539 -21.5539 -21.5462 -21.5447 -21.5427 -21.5402 -21.5392
   -21.5339 -21.5257 -21.5198 -21.5171 -21.4976 -21.4870 -21.4692 -21.4588
   -21.4446 -21.4435 -21.4284 -21.4226 -21.4211 -21.4102 -21.4055 -21.3986
   -21.3964 -21.3920 -21.3887 -21.3783 -21.3531  -8.7251  -8.4774  -7.5601
    -7.4508  -7.0411  -6.9696  -6.7572  -6.7095  -6.6945  -6.5923  -6.3847
    -6.3569  -6.3179  -6.2826  -6.1825  -5.9941  -5.9630  -5.9305  -5.8851
    -5.8616  -5.5424  -5.4462  -5.3422  -4.3630  -4.3506  -3.6589  -2.5895
    -1.4825  -1.1910  -0.8507  -0.8289  -0.6091  -0.4632  -0.0670  -0.0491
     0.5704   0.6262   1.0002   1.2031   1.3893   1.4592   1.4985   1.9846
     2.0051   2.1541   2.5342   3.0333   3.1953   3.2038   3.7040   3.9072
     4.1436   4.2312   4.5488   4.6040   4.8383   4.8960   4.9411   5.0079
     5.1227   5.4838   5.5205   5.6043   5.7539   5.8883   6.0533

     the Fermi energy is     0.4246 ev

!    total energy              =   -1773.51956878 Ry
     Harris-Foulkes estimate   =   -1773.51956792 Ry
     estimated scf accuracy    <       0.00000032 Ry

     The total energy is the sum of the following terms:

     one-electron contribution =   -9203.66102504 Ry
     hartree contribution      =    4670.58655456 Ry
     xc contribution           =    -521.37133943 Ry
     ewald contribution        =    3280.96377574 Ry
     electric field correction =       0.00000580 Ry
     smearing contrib. (-TS)   =      -0.03754039 Ry

     convergence has been achieved in  16 iterations

 BEEF-vdW xc energy contributions
           1 :   -457.891073357817
           2 :    419.430991427295
           3 :   -353.962401238680
           4 :    279.284570651372
           5 :   -212.369397017389
           6 :    163.508196278400
           7 :   -134.080542809479
           8 :    118.381338796515
           9 :   -108.093296135475
          10 :    96.8898393702689
          11 :   -82.9298211228590
          12 :    68.3928311960414
          13 :   -56.9045756439383
          14 :    50.6953684815400
          15 :   -49.1811467003010
          16 :    49.5530968103927
          17 :   -48.7023046601294
          18 :    45.1094505316571
          19 :   -39.5426543004601
          20 :    34.2653353683928
          21 :   -31.4029723788703
          22 :    31.5637138302302
          23 :   -33.5475818047177
          24 :    35.2209976797107
          25 :   -34.9058654362245
          26 :    32.3686868821823
          27 :   -28.8309296994175
          28 :    26.0786940742885
          29 :   -25.3038756264065
          30 :    26.4170707734036
          31 :   -40.5742375283812
          32 :   -29.5305666521091

     Forces acting on atoms (Ry/au):

     negative rho (up, down):  3.762E-04 0.000E+00
     atom    1 type  1   force =     0.00000036   -0.00013006    0.00932504
     atom    2 type  1   force =    -0.00011237    0.00006313    0.00932213
     atom    3 type  1   force =     0.00011328    0.00006432    0.00932425
     atom    4 type  2   force =    -0.00000013    0.00000019   -0.00830260
     atom    5 type  1   force =    -0.00000052    0.00543622   -0.00374121
     atom    6 type  1   force =     0.00470868   -0.00271779   -0.00374137
     atom    7 type  1   force =    -0.00470825   -0.00271777   -0.00374058
     atom    8 type  2   force =     0.00000082    0.00000050   -0.01283948
     atom    9 type  1   force =    -0.00000115    0.00145289    0.00123359
     atom   10 type  1   force =     0.00125951   -0.00072590    0.00123462
     atom   11 type  1   force =    -0.00126159   -0.00072481    0.00123471
     atom   12 type  2   force =     0.00000136   -0.00000093    0.00069089

     Total force =     0.025232     Total SCF correction =     0.002628
     SCF correction compared to forces is large: reduce conv_thr to get better values

     entering subroutine stress ...

     negative rho (up, down):  3.762E-04 0.000E+00
          total   stress  (Ry/bohr**3)                   (kbar)     P=   -3.91
  -0.00003194   0.00000000  -0.00000000         -4.70      0.00     -0.00
   0.00000000  -0.00003194  -0.00000000          0.00     -4.70     -0.00
  -0.00000000  -0.00000000  -0.00001583         -0.00     -0.00     -2.33

 !ASE

     Writing output data file calc.save

     General routines

     Parallel routines

   This run was terminated on:  14:30:54   1Jan2019

   JOB DONE.
Job  /afs/slac/g/suncat/bin/suncat-tsmpirun -x LD_LIBRARY_PATH -wdir /scratch/qe649009_Bryp6 pw.x -in pw.inp

TID   HOST_NAME   COMMAND_LINE            STATUS            TERMINATION_TIME
00000 suncat0178 pw.x -in pw.inp   Done                     01/01/2019 14:30:55
00001 suncat0178 pw.x -in pw.inp   Done                     01/01/2019 14:30:55
00002 suncat0178 pw.x -in pw.inp   Done                     01/01/2019 14:30:55
00003 suncat0178 pw.x -in pw.inp   Done                     01/01/2019 14:30:55
00004 suncat0178 pw.x -in pw.inp   Done                     01/01/2019 14:30:55
00005 suncat0178 pw.x -in pw.inp   Done                     01/01/2019 14:30:55
00006 suncat0178 pw.x -in pw.inp   Done                     01/01/2019 14:30:55
00007 suncat0178 pw.x -in pw.inp   Done                     01/01/2019 14:30:55
00008 suncat0177 pw.x -in pw.inp   Done                     01/01/2019 14:30:55
00009 suncat0177 pw.x -in pw.inp   Done                     01/01/2019 14:30:55
00010 suncat0177 pw.x -in pw.inp   Done                     01/01/2019 14:30:55
00011 suncat0177 pw.x -in pw.inp   Done                     01/01/2019 14:30:55
00012 suncat0177 pw.x -in pw.inp   Done                     01/01/2019 14:30:55
00013 suncat0177 pw.x -in pw.inp   Done                     01/01/2019 14:30:55
00014 suncat0177 pw.x -in pw.inp   Done                     01/01/2019 14:30:55
00015 suncat0177 pw.x -in pw.inp   Done                     01/01/2019 14:30:55
00016 suncat0113 pw.x -in pw.inp   Done                     01/01/2019 14:30:55
00017 suncat0113 pw.x -in pw.inp   Done                     01/01/2019 14:30:55
00018 suncat0113 pw.x -in pw.inp   Done                     01/01/2019 14:30:55
00019 suncat0113 pw.x -in pw.inp   Done                     01/01/2019 14:30:55
00020 suncat0113 pw.x -in pw.inp   Done                     01/01/2019 14:30:55
00021 suncat0113 pw.x -in pw.inp   Done                     01/01/2019 14:30:55
00022 suncat0113 pw.x -in pw.inp   Done                     01/01/2019 14:30:55
00023 suncat0113 pw.x -in pw.inp   Done                     01/01/2019 14:30:55
00024 suncat0267 pw.x -in pw.inp   Done                     01/01/2019 14:30:55
00025 suncat0267 pw.x -in pw.inp   Done                     01/01/2019 14:30:55
00026 suncat0267 pw.x -in pw.inp   Done                     01/01/2019 14:30:55
00027 suncat0267 pw.x -in pw.inp   Done                     01/01/2019 14:30:55
00028 suncat0267 pw.x -in pw.inp   Done                     01/01/2019 14:30:55
00029 suncat0267 pw.x -in pw.inp   Done                     01/01/2019 14:30:55
00030 suncat0267 pw.x -in pw.inp   Done                     01/01/2019 14:30:55
00031 suncat0267 pw.x -in pw.inp   Done                     01/01/2019 14:30:55
00032 suncat0254 pw.x -in pw.inp   Done                     01/01/2019 14:30:55
00033 suncat0254 pw.x -in pw.inp   Done                     01/01/2019 14:30:55
00034 suncat0254 pw.x -in pw.inp   Done                     01/01/2019 14:30:55
00035 suncat0254 pw.x -in pw.inp   Done                     01/01/2019 14:30:55
00036 suncat0254 pw.x -in pw.inp   Done                     01/01/2019 14:30:55
00037 suncat0254 pw.x -in pw.inp   Done                     01/01/2019 14:30:55
00038 suncat0254 pw.x -in pw.inp   Done                     01/01/2019 14:30:55
00039 suncat0254 pw.x -in pw.inp   Done                     01/01/2019 14:30:55
00040 suncat0253 pw.x -in pw.inp   Done                     01/01/2019 14:30:55
00041 suncat0253 pw.x -in pw.inp   Done                     01/01/2019 14:30:55
00042 suncat0253 pw.x -in pw.inp   Done                     01/01/2019 14:30:55
00043 suncat0253 pw.x -in pw.inp   Done                     01/01/2019 14:30:55
00044 suncat0253 pw.x -in pw.inp   Done                     01/01/2019 14:30:55
00045 suncat0253 pw.x -in pw.inp   Done                     01/01/2019 14:30:55
00046 suncat0253 pw.x -in pw.inp   Done                     01/01/2019 14:30:55
00047 suncat0253 pw.x -in pw.inp   Done                     01/01/2019 14:30:55
00048 suncat0228 pw.x -in pw.inp   Done                     01/01/2019 14:30:55
00049 suncat0228 pw.x -in pw.inp   Done                     01/01/2019 14:30:55
00050 suncat0228 pw.x -in pw.inp   Done                     01/01/2019 14:30:55
00051 suncat0228 pw.x -in pw.inp   Done                     01/01/2019 14:30:55
00052 suncat0228 pw.x -in pw.inp   Done                     01/01/2019 14:30:55
00053 suncat0228 pw.x -in pw.inp   Done                     01/01/2019 14:30:55
00054 suncat0228 pw.x -in pw.inp   Done                     01/01/2019 14:30:55
00055 suncat0228 pw.x -in pw.inp   Done                     01/01/2019 14:30:55
00056 suncat0227 pw.x -in pw.inp   Done                     01/01/2019 14:30:55
00057 suncat0227 pw.x -in pw.inp   Done                     01/01/2019 14:30:55
00058 suncat0227 pw.x -in pw.inp   Done                     01/01/2019 14:30:55
00059 suncat0227 pw.x -in pw.inp   Done                     01/01/2019 14:30:55
00060 suncat0227 pw.x -in pw.inp   Done                     01/01/2019 14:30:55
00061 suncat0227 pw.x -in pw.inp   Done                     01/01/2019 14:30:55
00062 suncat0227 pw.x -in pw.inp   Done                     01/01/2019 14:30:55
00063 suncat0227 pw.x -in pw.inp   Done                     01/01/2019 14:30:55