     Program PWSCF v.5.1rc2 (svn rev. 11289) starts on  1Jan2019 at  8:34:46

     Current dimensions of program PWSCF are:
     Max number of different atomic species (ntypx) = 10
     Max number of k-points (npk) =  40000
     Max angular momentum in pseudopotentials (lmaxx) =  3
     Presently stress not available with electric field

     IMPORTANT: XC functional enforced from input :
     Exchange-correlation      = BEEF-VDW ( 1  4 27 13 2)
     Any further DFT definition will be discarded
     Please, verify this is what you really want

     Subspace diagonalization in iterative solution of the eigenvalue problem:
     a serial algorithm will be used

     Generating pointlists ...
     new r_m :   0.4125 (alat units)  0.7795 (a.u.) for type    1
     new r_m :   0.4125 (alat units)  0.7795 (a.u.) for type    2

     bravais-lattice index     =            0
     lattice parameter (alat)  =       1.8897  a.u.
     unit-cell volume          =    5377.9635 (a.u.)^3
     number of atoms/cell      =           12
     number of atomic types    =            2
     number of electrons       =       153.00
     number of Kohn-Sham states=          106
     kinetic-energy cutoff     =      36.7493  Ry
     charge density cutoff     =     367.4932  Ry
     convergence threshold     =      1.0E-06
     mixing beta               =       0.1000
     number of iterations used =           10  plain     mixing
     Exchange-correlation      = BEEF-VDW ( 1  4 27 13 2)
     nstep                     =           50

     celldm(1)=   1.889726  celldm(2)=   0.000000  celldm(3)=   0.000000
     celldm(4)=   0.000000  celldm(5)=   0.000000  celldm(6)=   0.000000

     crystal axes: (cart. coord. in units of alat)
               a(1) = (   6.072136   0.000000   0.000000 )
               a(2) = (  -3.036068   5.258624   0.000000 )
               a(3) = (   0.000000   0.000000  24.957878 )

     reciprocal axes: (cart. coord. in units 2 pi/alat)
               b(1) = (  0.164687  0.095082  0.000000 )
               b(2) = (  0.000000  0.190164  0.000000 )
               b(3) = (  0.000000  0.000000  0.040068 )

     PseudoPot. # 1 for Sc read from file:
     /afs/slac.stanford.edu/u/if/mamunm/psp/gbrv1.5pbe/Sc.UPF
     MD5 check sum: db30a2753ba66ef00f23801d899b7e7f
     Pseudo is Ultrasoft + core correction, Zval = 11.0
     Generated by new atomic code, or converted to UPF format
     Using radial grid of  849 points,  6 beta functions with:
                l(1) =   0
                l(2) =   0
                l(3) =   1
                l(4) =   1
                l(5) =   2
                l(6) =   2
     Q(r) pseudized with  6 coefficients,  rinner =    1.200   1.200   1.200
                                                       1.200   1.200

     PseudoPot. # 2 for Ni read from file:
     /afs/slac.stanford.edu/u/if/mamunm/psp/gbrv1.5pbe/Ni.UPF
     MD5 check sum: 1ee80287db30b12d2bc1f57a5b5d6409
     Pseudo is Ultrasoft + core correction, Zval = 18.0
     Generated by new atomic code, or converted to UPF format
     Using radial grid of  865 points,  6 beta functions with:
                l(1) =   0
                l(2) =   0
                l(3) =   1
                l(4) =   1
                l(5) =   2
                l(6) =   2
     Q(r) pseudized with 10 coefficients,  rinner =    0.980   0.980   0.980
                                                       0.980   0.980

     vdW kernel table read from file vdW_kernel_table
     MD5 check sum: 095c7af220d748ca6e76c0b4c6cfb241

     atomic species   valence    mass     pseudopotential
        Sc1           11.00    44.95591     Sc( 1.00)
        Ni1           18.00    58.69340     Ni( 1.00)

     Starting magnetic structure
     atomic species   magnetization
        Sc1          0.182
        Ni1          0.111

     No symmetry found

   Cartesian axes

     site n.     atom                  positions (alat units)
         1           Sc1 tau(   1) = (   0.0000000   0.0000000  10.0000000  )
         2           Sc1 tau(   2) = (  -1.5180340   2.6293119  10.0000000  )
         3           Sc1 tau(   3) = (   1.5180340   2.6293119  10.0000000  )
         4           Ni1 tau(   4) = (   3.0360679   0.0000000  10.0000000  )
         5           Sc1 tau(   5) = (   3.0360679   1.7528746  12.4789391  )
         6           Sc1 tau(   6) = (   1.5180340   4.3821866  12.4789391  )
         7           Sc1 tau(   7) = (  -1.5180340   4.3821866  12.4789391  )
         8           Ni1 tau(   8) = (   0.0000000   1.7528746  12.4789391  )
         9           Sc1 tau(   9) = (  -0.0000000   3.5057493  14.9578782  )
        10           Sc1 tau(  10) = (   1.5180340   0.8764373  14.9578782  )
        11           Sc1 tau(  11) = (   4.5541019   0.8764373  14.9578782  )
        12           Ni1 tau(  12) = (   3.0360679   3.5057493  14.9578782  )

     number of k points=    40  Fermi-Dirac smearing, width (Ry)=  0.0110
                       cart. coord. in units 2pi/alat
        k(    1) = (   0.0000000   0.0000000   0.0000000), wk =   0.0277778
        k(    2) = (   0.0000000   0.0316940   0.0000000), wk =   0.0555556
        k(    3) = (   0.0000000   0.0633879   0.0000000), wk =   0.0555556
        k(    4) = (   0.0000000  -0.0950819   0.0000000), wk =   0.0277778
        k(    5) = (   0.0274478   0.0158470   0.0000000), wk =   0.0555556
        k(    6) = (   0.0274478   0.0475410   0.0000000), wk =   0.0555556
        k(    7) = (   0.0274478   0.0792349   0.0000000), wk =   0.0555556
        k(    8) = (   0.0274478  -0.0792349   0.0000000), wk =   0.0555556
        k(    9) = (   0.0274478  -0.0475410   0.0000000), wk =   0.0555556
        k(   10) = (   0.0274478  -0.0158470   0.0000000), wk =   0.0555556
        k(   11) = (   0.0548956   0.0316940   0.0000000), wk =   0.0555556
        k(   12) = (   0.0548956   0.0633879   0.0000000), wk =   0.0555556
        k(   13) = (   0.0548956   0.0950819   0.0000000), wk =   0.0555556
        k(   14) = (   0.0548956  -0.0633879   0.0000000), wk =   0.0555556
        k(   15) = (   0.0548956  -0.0316940   0.0000000), wk =   0.0555556
        k(   16) = (   0.0548956   0.0000000   0.0000000), wk =   0.0555556
        k(   17) = (  -0.0823433  -0.0475410   0.0000000), wk =   0.0277778
        k(   18) = (  -0.0823433  -0.0158470   0.0000000), wk =   0.0555556
        k(   19) = (  -0.0823433   0.0158470   0.0000000), wk =   0.0555556
        k(   20) = (  -0.0823433  -0.1426229   0.0000000), wk =   0.0277778
        k(   21) = (   0.0000000   0.0000000   0.0000000), wk =   0.0277778
        k(   22) = (   0.0000000   0.0316940   0.0000000), wk =   0.0555556
        k(   23) = (   0.0000000   0.0633879   0.0000000), wk =   0.0555556
        k(   24) = (   0.0000000  -0.0950819   0.0000000), wk =   0.0277778
        k(   25) = (   0.0274478   0.0158470   0.0000000), wk =   0.0555556
        k(   26) = (   0.0274478   0.0475410   0.0000000), wk =   0.0555556
        k(   27) = (   0.0274478   0.0792349   0.0000000), wk =   0.0555556
        k(   28) = (   0.0274478  -0.0792349   0.0000000), wk =   0.0555556
        k(   29) = (   0.0274478  -0.0475410   0.0000000), wk =   0.0555556
        k(   30) = (   0.0274478  -0.0158470   0.0000000), wk =   0.0555556
        k(   31) = (   0.0548956   0.0316940   0.0000000), wk =   0.0555556
        k(   32) = (   0.0548956   0.0633879   0.0000000), wk =   0.0555556
        k(   33) = (   0.0548956   0.0950819   0.0000000), wk =   0.0555556
        k(   34) = (   0.0548956  -0.0633879   0.0000000), wk =   0.0555556
        k(   35) = (   0.0548956  -0.0316940   0.0000000), wk =   0.0555556
        k(   36) = (   0.0548956   0.0000000   0.0000000), wk =   0.0555556
        k(   37) = (  -0.0823433  -0.0475410   0.0000000), wk =   0.0277778
        k(   38) = (  -0.0823433  -0.0158470   0.0000000), wk =   0.0555556
        k(   39) = (  -0.0823433   0.0158470   0.0000000), wk =   0.0555556
        k(   40) = (  -0.0823433  -0.1426229   0.0000000), wk =   0.0277778

     Largest allocated arrays     est. size (Mb)     dimensions
     Largest temporary arrays     est. size (Mb)     dimensions

     Check: negative/imaginary core charge=   -0.000001    0.000000

     Initial potential from superposition of free atoms
     Check: negative starting charge=(component1):   -0.000254
     Check: negative starting charge=(component2):   -0.000193

     starting charge  146.97838, renormalised to  153.00000

     negative rho (up, down):  2.645E-04 2.011E-04

     *
     * You are using vdW-DF for exchange-correlation in this calculation.
     * Please cite the following three references that made this development
     * possible:
     *
     *   M. Dion, H. Rydberg, E. Schroder, D. C. Langreth, and
     *   B. I. Lundqvist, Phys. Rev. Lett. 92, 246401 (2004).
     *
     *   T. Thonhauser, V. R. Cooper, S. Li, A. Puzder, P. Hyldgaard, and
     *   D. C. Langreth, Phys. Rev. B 76, 125112 (2007).
     *
     *   G. Roman-Perez and J. M. Soler, Phys. Rev. Lett. 103, 096102 (2009).
     *
     *
     * If you are using vdW-DF2, please also cite:
     *
     *   K. Lee, E. D. Murray, L. Kong, B. I. Lundqvist, and
     *   D. C. Langreth, Phys. Rev. B 82, 081101(R) (2010).
     *
     *
     * If you are calculating the stress with vdW-DF, please also cite:
     *
     *   R. Sabatini, E. Kucukbenli, B. Kolb, T. Thonhauser, and
     *   S. de Gironcoli, J. Phys.: Condens. Matter 24, 424209 (2012).
     *

     Carrying out vdW-DF run using the following parameters:

     Nqs =      20    Nr_points =    1024   r_max =   100.000
     q_mesh =
               0.00001000     0.04494208     0.09755937     0.15916263
               0.23128650     0.31572767     0.41458969     0.53033537
               0.66584808     0.82450364     1.01025438     1.22772762
               1.48234092     1.78043706     2.12944203     2.53805004
               3.01644009     3.57652955     4.23227104     5.00000000

     Gradients computed in reciprocal space

     Adding external electric field

     Computed dipole along edir(3) :
        Dipole                0.0000 Ry au,          0.0000 Debye
        Dipole field          0.0000 Ry au

        Potential amp.       -0.0000 Ry
        Total length         45.9845 bohr

[...]

     Starting wfc are  156 randomized atomic wfcs

     Self-consistent Calculation

     iteration #  1     ecut=    36.75 Ry     beta=0.10
     Davidson diagonalization with overlap
     ethr =  1.00E-02,  avg # of iterations =  2.7

[...]

     Magnetic moment per site:
     atom:    1    charge:    2.4716    magn:    0.4139    constr:    0.0000
     atom:    2    charge:    2.4716    magn:    0.4139    constr:    0.0000
     atom:    3    charge:    2.4716    magn:    0.4139    constr:    0.0000
     atom:    4    charge:    9.4823    magn:    1.0620    constr:    0.0000
     atom:    5    charge:    2.4926    magn:    0.4179    constr:    0.0000
     atom:    6    charge:    2.4926    magn:    0.4179    constr:    0.0000
     atom:    7    charge:    2.4926    magn:    0.4179    constr:    0.0000
     atom:    8    charge:    9.4837    magn:    1.0490    constr:    0.0000
[...]
        k(    1) = (   0.0000000   0.0000000   0.0000000), wk =   0.0277778
        k(    2) = (   0.0000000   0.0316940   0.0000000), wk =   0.0555556
        k(    3) = (   0.0000000   0.0633879   0.0000000), wk =   0.0555556
        k(    4) = (   0.0000000  -0.0950819   0.0000000), wk =   0.0277778
        k(    5) = (   0.0274478   0.0158470   0.0000000), wk =   0.0555556
        k(    6) = (   0.0274478   0.0475410   0.0000000), wk =   0.0555556
        k(    7) = (   0.0274478   0.0792349   0.0000000), wk =   0.0555556
        k(    8) = (   0.0274478  -0.0792349   0.0000000), wk =   0.0555556
        k(    9) = (   0.0274478  -0.0475410   0.0000000), wk =   0.0555556
        k(   10) = (   0.0274478  -0.0158470   0.0000000), wk =   0.0555556
        k(   11) = (   0.0548956   0.0316940   0.0000000), wk =   0.0555556
        k(   12) = (   0.0548956   0.0633879   0.0000000), wk =   0.0555556
        k(   13) = (   0.0548956   0.0950819   0.0000000), wk =   0.0555556
        k(   14) = (   0.0548956  -0.0633879   0.0000000), wk =   0.0555556
        k(   15) = (   0.0548956  -0.0316940   0.0000000), wk =   0.0555556
        k(   16) = (   0.0548956   0.0000000   0.0000000), wk =   0.0555556
        k(   17) = (  -0.0823433  -0.0475410   0.0000000), wk =   0.0277778
        k(   18) = (  -0.0823433  -0.0158470   0.0000000), wk =   0.0555556
        k(   19) = (  -0.0823433   0.0158470   0.0000000), wk =   0.0555556
        k(   20) = (  -0.0823433  -0.1426229   0.0000000), wk =   0.0277778
        k(   21) = (   0.0000000   0.0000000   0.0000000), wk =   0.0277778
        k(   22) = (   0.0000000   0.0316940   0.0000000), wk =   0.0555556
        k(   23) = (   0.0000000   0.0633879   0.0000000), wk =   0.0555556
        k(   24) = (   0.0000000  -0.0950819   0.0000000), wk =   0.0277778
        k(   25) = (   0.0274478   0.0158470   0.0000000), wk =   0.0555556
        k(   26) = (   0.0274478   0.0475410   0.0000000), wk =   0.0555556
        k(   27) = (   0.0274478   0.0792349   0.0000000), wk =   0.0555556
        k(   28) = (   0.0274478  -0.0792349   0.0000000), wk =   0.0555556
        k(   29) = (   0.0274478  -0.0475410   0.0000000), wk =   0.0555556
        k(   30) = (   0.0274478  -0.0158470   0.0000000), wk =   0.0555556
        k(   31) = (   0.0548956   0.0316940   0.0000000), wk =   0.0555556
        k(   32) = (   0.0548956   0.0633879   0.0000000), wk =   0.0555556
        k(   33) = (   0.0548956   0.0950819   0.0000000), wk =   0.0555556
        k(   34) = (   0.0548956  -0.0633879   0.0000000), wk =   0.0555556
        k(   35) = (   0.0548956  -0.0316940   0.0000000), wk =   0.0555556
        k(   36) = (   0.0548956   0.0000000   0.0000000), wk =   0.0555556
        k(   37) = (  -0.0823433  -0.0475410   0.0000000), wk =   0.0277778
        k(   38) = (  -0.0823433  -0.0158470   0.0000000), wk =   0.0555556
        k(   39) = (  -0.0823433   0.0158470   0.0000000), wk =   0.0555556
        k(   40) = (  -0.0823433  -0.1426229   0.0000000), wk =   0.0277778

     Largest allocated arrays     est. size (Mb)     dimensions
     Largest temporary arrays     est. size (Mb)     dimensions

     Check: negative/imaginary core charge=   -0.000001    0.000000

     Initial potential from superposition of free atoms
     Check: negative starting charge=(component1):   -0.000252
     Check: negative starting charge=(component2):   -0.000191

     starting charge  146.97838, renormalised to  153.00000

[...]

     *
     * You are using vdW-DF for exchange-correlation in this calculation.
     * Please cite the following three references that made this development
     * possible:
     *
     *   M. Dion, H. Rydberg, E. Schroder, D. C. Langreth, and
     *   B. I. Lundqvist, Phys. Rev. Lett. 92, 246401 (2004).
     *
     *   T. Thonhauser, V. R. Cooper, S. Li, A. Puzder, P. Hyldgaard, and
     *   D. C. Langreth, Phys. Rev. B 76, 125112 (2007).
     *
     *   G. Roman-Perez and J. M. Soler, Phys. Rev. Lett. 103, 096102 (2009).
     *
     *
     * If you are using vdW-DF2, please also cite:
     *
     *   K. Lee, E. D. Murray, L. Kong, B. I. Lundqvist, and
     *   D. C. Langreth, Phys. Rev. B 82, 081101(R) (2010).
     *
     *
     * If you are calculating the stress with vdW-DF, please also cite:
     *
     *   R. Sabatini, E. Kucukbenli, B. Kolb, T. Thonhauser, and
     *   S. de Gironcoli, J. Phys.: Condens. Matter 24, 424209 (2012).
     *

     Carrying out vdW-DF run using the following parameters:

     Nqs =      20    Nr_points =    1024   r_max =   100.000
     q_mesh =
               0.00001000     0.04494208     0.09755937     0.15916263
               0.23128650     0.31572767     0.41458969     0.53033537
               0.66584808     0.82450364     1.01025438     1.22772762
               1.48234092     1.78043706     2.12944203     2.53805004
               3.01644009     3.57652955     4.23227104     5.00000000

     Gradients computed in reciprocal space

[...]

     Starting wfc are  156 randomized atomic wfcs

     Self-consistent Calculation

[...]

     total energy              =   -1886.53847283 Ry
     Harris-Foulkes estimate   =   -1886.53846896 Ry
     estimated scf accuracy    <       0.00000151 Ry

[...]

     iteration # 38     ecut=    36.75 Ry     beta=0.10
     Davidson diagonalization with overlap
     ethr =  9.87E-10,  avg # of iterations =  2.3

[...]

     negative rho (up, down):  3.783E-04 4.102E-04

[...]

     Adding external electric field

     Computed dipole along edir(3) :
        Dipole                0.0540 Ry au,          0.1374 Debye
        Dipole field          0.0001 Ry au

        Potential amp.       -0.0116 Ry
        Total length         45.9845 bohr

     Magnetic moment per site:
     atom:    1    charge:    2.4025    magn:    0.0388    constr:    0.0000
     atom:    2    charge:    2.4025    magn:    0.0388    constr:    0.0000
     atom:    3    charge:    2.4025    magn:    0.0388    constr:    0.0000
     atom:    4    charge:    9.3397    magn:   -0.0124    constr:    0.0000
     atom:    5    charge:    2.4111    magn:    0.0097    constr:    0.0000
     atom:    6    charge:    2.4111    magn:    0.0097    constr:    0.0000
     atom:    7    charge:    2.4111    magn:    0.0097    constr:    0.0000
     atom:    8    charge:    9.3464    magn:    0.0124    constr:    0.0000
     atom:    9    charge:    2.4073    magn:    0.0335    constr:    0.0000
     atom:   10    charge:    2.4073    magn:    0.0335    constr:    0.0000
     atom:   11    charge:    2.4073    magn:    0.0335    constr:    0.0000
     atom:   12    charge:    9.3293    magn:   -0.0002    constr:    0.0000

     End of self-consistent calculation

 ------ SPIN UP ------------

[...]

 ------ SPIN DOWN ----------

[...]

          k = 0.0549 0.0000 0.0000 ( 20241 PWs)   bands (ev):

[...]

          k =-0.0823-0.1426 0.0000 ( 20276 PWs)   bands (ev):

  -102.4251-102.3899-102.1551 -62.8375 -62.7832 -62.7829 -62.7652 -62.7650
   -62.7423 -62.5557 -62.5554 -62.4946 -49.1642 -49.1368 -49.1258 -49.1151
   -49.1031 -49.0800 -48.7969 -48.7748 -48.7522 -27.9111 -27.8767 -27.8720
   -27.8483 -27.8250 -27.8149 -27.7915 -27.7824 -27.7655 -27.7625 -27.7184
   -27.7105 -27.7016 -27.6720 -27.6567 -27.6388 -27.5841 -27.4799 -27.4541
   -27.4234 -27.3751 -27.3510 -27.3379 -27.3372 -27.3366 -27.3134 -27.2008
    -3.2813  -3.1514  -2.1726  -1.8556  -1.4765  -1.2786  -1.1951  -1.1840
    -1.1722  -1.0301  -0.9958  -0.9695  -0.9179  -0.8470  -0.8337  -0.7542
    -0.7509  -0.6424  -0.6325  -0.5782  -0.5037  -0.3471  -0.0404   0.1975
     0.4644   0.5754   0.6317   0.7394   0.8879   0.8977   0.9394   1.0215
     1.1057   1.2011   1.2756   1.4407   1.5077   1.5639   1.5741   1.6949
     1.7718   2.0671   2.0674   2.1655   2.2524   2.2829   2.3488   2.4144
     2.5689   3.1006   3.1395   3.1796   3.2167   3.2670   3.3508   3.3885
     3.4565   3.4650

     the Fermi energy is     0.7082 ev

!    total energy              =   -1886.53848018 Ry
     Harris-Foulkes estimate   =   -1886.53847393 Ry
     estimated scf accuracy    <       0.00000097 Ry

     The total energy is the sum of the following terms:

     one-electron contribution =  -11723.93895201 Ry
     hartree contribution      =    5852.52247145 Ry
     xc contribution           =    -235.24095292 Ry
     ewald contribution        =    4220.23872768 Ry
     electric field correction =       0.00000682 Ry
     smearing contrib. (-TS)   =      -0.11978120 Ry

     total magnetization       =     2.91 Bohr mag/cell
     absolute magnetization    =     2.98 Bohr mag/cell

     convergence has been achieved in  38 iterations

 BEEF-vdW xc energy contributions
           1 :   -203.104376762249
           2 :    181.254775163426
           3 :   -146.023021083742
           4 :    109.502460328437
           5 :   -81.2100466181075
           6 :    64.3895929439283
           7 :   -56.4573661071288
           8 :    52.3264759086742
           9 :   -47.9758523109730
          10 :    42.1944475037565
          11 :   -36.0764731197589
          12 :    31.2637269545904
          13 :   -28.4292395752240
          14 :    26.9442936951228
          15 :   -25.6381278329744
          16 :    23.7902138976858
          17 :   -21.5374442490199
          18 :    19.5188063870853
          19 :   -18.2205557253151
          20 :    17.5977869054905
          21 :   -17.1999631912967
          22 :    16.5814994401960
          23 :   -15.6202190889451
          24 :    14.5227554131205
          25 :   -13.5929732734342
          26 :    12.9938744101706
          27 :   -12.6768883399154
          28 :    12.4701523138833
          29 :   -12.2116008565018
          30 :    11.8260952648037
          31 :   -20.5073060720881
          32 :   -14.5201389997717

     Forces acting on atoms (Ry/au):

     negative rho (up, down):  3.783E-04 4.102E-04
     atom    1 type  1   force =     0.00000177    0.01598794   -0.00858961
     atom    2 type  1   force =     0.01384481   -0.00799359   -0.00858973
     atom    3 type  1   force =    -0.01384499   -0.00799362   -0.00859016
     atom    4 type  2   force =    -0.00000301    0.00000030    0.03999078
     atom    5 type  1   force =     0.00000133    0.00043019   -0.00408853
     atom    6 type  1   force =     0.00037273   -0.00021505   -0.00408727
     atom    7 type  1   force =    -0.00037257   -0.00021639   -0.00408654
     atom    8 type  2   force =    -0.00000218    0.00000057   -0.00205503
     atom    9 type  1   force =    -0.00000001    0.00031961   -0.00055621
     atom   10 type  1   force =     0.00027585   -0.00015892   -0.00055475
     atom   11 type  1   force =    -0.00027611   -0.00015901   -0.00055577
     atom   12 type  2   force =     0.00000237   -0.00000202    0.00176280

     Total force =     0.051445     Total SCF correction =     0.001378

     entering subroutine stress ...

     negative rho (up, down):  3.783E-04 4.102E-04
          total   stress  (Ry/bohr**3)                   (kbar)     P=  -13.66
  -0.00009483  -0.00000000   0.00000000        -13.95     -0.00      0.00
  -0.00000000  -0.00009483   0.00000000         -0.00    -13.95      0.00
   0.00000000   0.00000000  -0.00008893          0.00      0.00    -13.08

 !ASE

     Writing output data file calc.save

     General routines

     Parallel routines

   This run was terminated on:  17:19:57   1Jan2019

   JOB DONE.
Job  /afs/slac/g/suncat/bin/suncat-tsmpirun -x LD_LIBRARY_PATH -wdir /scratch/qe648976_SBxzQ pw.x -in pw.inp

TID   HOST_NAME   COMMAND_LINE            STATUS            TERMINATION_TIME
00000 suncat0163 pw.x -in pw.inp   Done                     01/01/2019 17:19:57
00001 suncat0163 pw.x -in pw.inp   Done                     01/01/2019 17:19:57
00002 suncat0163 pw.x -in pw.inp   Done                     01/01/2019 17:19:57
00003 suncat0163 pw.x -in pw.inp   Done                     01/01/2019 17:19:57
00004 suncat0163 pw.x -in pw.inp   Done                     01/01/2019 17:19:57
00005 suncat0163 pw.x -in pw.inp   Done                     01/01/2019 17:19:57
00006 suncat0163 pw.x -in pw.inp   Done                     01/01/2019 17:19:57
00007 suncat0163 pw.x -in pw.inp   Done                     01/01/2019 17:19:57
00008 suncat0162 pw.x -in pw.inp   Done                     01/01/2019 17:19:57
00009 suncat0162 pw.x -in pw.inp   Done                     01/01/2019 17:19:57
00010 suncat0162 pw.x -in pw.inp   Done                     01/01/2019 17:19:57
00011 suncat0162 pw.x -in pw.inp   Done                     01/01/2019 17:19:57
00012 suncat0162 pw.x -in pw.inp   Done                     01/01/2019 17:19:57
00013 suncat0162 pw.x -in pw.inp   Done                     01/01/2019 17:19:57
00014 suncat0162 pw.x -in pw.inp   Done                     01/01/2019 17:19:57
00015 suncat0162 pw.x -in pw.inp   Done                     01/01/2019 17:19:57
00016 suncat0139 pw.x -in pw.inp   Done                     01/01/2019 17:19:57
00017 suncat0139 pw.x -in pw.inp   Done                     01/01/2019 17:19:57
00018 suncat0139 pw.x -in pw.inp   Done                     01/01/2019 17:19:57
00019 suncat0139 pw.x -in pw.inp   Done                     01/01/2019 17:19:57
00020 suncat0139 pw.x -in pw.inp   Done                     01/01/2019 17:19:57
00021 suncat0139 pw.x -in pw.inp   Done                     01/01/2019 17:19:57
00022 suncat0139 pw.x -in pw.inp   Done                     01/01/2019 17:19:57
00023 suncat0139 pw.x -in pw.inp   Done                     01/01/2019 17:19:57
00024 suncat0133 pw.x -in pw.inp   Done                     01/01/2019 17:19:57
00025 suncat0133 pw.x -in pw.inp   Done                     01/01/2019 17:19:57
00026 suncat0133 pw.x -in pw.inp   Done                     01/01/2019 17:19:57
00027 suncat0133 pw.x -in pw.inp   Done                     01/01/2019 17:19:57
00028 suncat0133 pw.x -in pw.inp   Done                     01/01/2019 17:19:57
00029 suncat0133 pw.x -in pw.inp   Done                     01/01/2019 17:19:57
00030 suncat0133 pw.x -in pw.inp   Done                     01/01/2019 17:19:57
00031 suncat0133 pw.x -in pw.inp   Done                     01/01/2019 17:19:57
00032 suncat0123 pw.x -in pw.inp   Done                     01/01/2019 17:19:57
00033 suncat0123 pw.x -in pw.inp   Done                     01/01/2019 17:19:57
00034 suncat0123 pw.x -in pw.inp   Done                     01/01/2019 17:19:57
00035 suncat0123 pw.x -in pw.inp   Done                     01/01/2019 17:19:57
00036 suncat0123 pw.x -in pw.inp   Done                     01/01/2019 17:19:57
00037 suncat0123 pw.x -in pw.inp   Done                     01/01/2019 17:19:57
00038 suncat0123 pw.x -in pw.inp   Done                     01/01/2019 17:19:57
00039 suncat0123 pw.x -in pw.inp   Done                     01/01/2019 17:19:57
00040 suncat0122 pw.x -in pw.inp   Done                     01/01/2019 17:19:57
00041 suncat0122 pw.x -in pw.inp   Done                     01/01/2019 17:19:57
00042 suncat0122 pw.x -in pw.inp   Done                     01/01/2019 17:19:57
00043 suncat0122 pw.x -in pw.inp   Done                     01/01/2019 17:19:57
00044 suncat0122 pw.x -in pw.inp   Done                     01/01/2019 17:19:57
00045 suncat0122 pw.x -in pw.inp   Done                     01/01/2019 17:19:57
00046 suncat0122 pw.x -in pw.inp   Done                     01/01/2019 17:19:57
00047 suncat0122 pw.x -in pw.inp   Done                     01/01/2019 17:19:57
00048 suncat0207 pw.x -in pw.inp   Done                     01/01/2019 17:19:57
00049 suncat0207 pw.x -in pw.inp   Done                     01/01/2019 17:19:57
00050 suncat0207 pw.x -in pw.inp   Done                     01/01/2019 17:19:57
00051 suncat0207 pw.x -in pw.inp   Done                     01/01/2019 17:19:57
00052 suncat0207 pw.x -in pw.inp   Done                     01/01/2019 17:19:57
00053 suncat0207 pw.x -in pw.inp   Done                     01/01/2019 17:19:57
00054 suncat0207 pw.x -in pw.inp   Done                     01/01/2019 17:19:57
00055 suncat0207 pw.x -in pw.inp   Done                     01/01/2019 17:19:57
00056 suncat0206 pw.x -in pw.inp   Done                     01/01/2019 17:19:57
00057 suncat0206 pw.x -in pw.inp   Done                     01/01/2019 17:19:57
00058 suncat0206 pw.x -in pw.inp   Done                     01/01/2019 17:19:57
00059 suncat0206 pw.x -in pw.inp   Done                     01/01/2019 17:19:57
00060 suncat0206 pw.x -in pw.inp   Done                     01/01/2019 17:19:57
00061 suncat0206 pw.x -in pw.inp   Done                     01/01/2019 17:19:57
00062 suncat0206 pw.x -in pw.inp   Done                     01/01/2019 17:19:57
00063 suncat0206 pw.x -in pw.inp   Done                     01/01/2019 17:19:57