     Program PWSCF v.5.1rc2 (svn rev. 11289) starts on 19Dec2018 at  9:42:39

     Current dimensions of program PWSCF are:
     Max number of different atomic species (ntypx) = 10
     Max number of k-points (npk) =  40000
     Max angular momentum in pseudopotentials (lmaxx) =  3
     Presently stress not available with electric field

     IMPORTANT: XC functional enforced from input :
     Exchange-correlation      = BEEF-VDW ( 1  4 27 13 2)
     Any further DFT definition will be discarded
     Please, verify this is what you really want

     Subspace diagonalization in iterative solution of the eigenvalue problem:
     a serial algorithm will be used

     Found symmetry operation: I + ( -0.5000 -0.5000  0.0000)
     This is a supercell, fractional translations are disabled

     bravais-lattice index     =            0
     lattice parameter (alat)  =       1.8897  a.u.
     unit-cell volume          =    4228.7239 (a.u.)^3
     number of atoms/cell      =           12
     number of atomic types    =            2
     number of electrons       =       174.00
     number of Kohn-Sham states=          117
     kinetic-energy cutoff     =      36.7493  Ry
     charge density cutoff     =     367.4932  Ry
     convergence threshold     =      1.0E-06
     mixing beta               =       0.1000
     number of iterations used =           10  plain     mixing
     Exchange-correlation      = BEEF-VDW ( 1  4 27 13 2)
     nstep                     =           50

     celldm(1)=   1.889726  celldm(2)=   0.000000  celldm(3)=   0.000000
     celldm(4)=   0.000000  celldm(5)=   0.000000  celldm(6)=   0.000000

     crystal axes: (cart. coord. in units of alat)
               a(1) = (   5.233335   0.000000   0.000000 )
               a(2) = (   1.748007   4.932775   0.000000 )
               a(3) = (   0.000000   0.000000  24.274086 )

     reciprocal axes: (cart. coord. in units 2 pi/alat)
               b(1) = (  0.191083 -0.067713  0.000000 )
               b(2) = (  0.000000  0.202726  0.000000 )
               b(3) = (  0.000000  0.000000  0.041196 )

     PseudoPot. # 1 for V  read from file:
     /afs/slac.stanford.edu/u/if/mamunm/psp/gbrv1.5pbe/V.UPF
     MD5 check sum: 22b79981416ebb76fdaf5b1b8640f6fb
     Pseudo is Ultrasoft + core correction, Zval = 13.0
     Generated by new atomic code, or converted to UPF format
     Using radial grid of  853 points,  6 beta functions with:
                l(1) =   0
                l(2) =   0
                l(3) =   1
                l(4) =   1
                l(5) =   2
                l(6) =   2
     Q(r) pseudized with  8 coefficients,  rinner =    1.100   1.100   1.100
                                                       1.100   1.100

     PseudoPot. # 2 for Os read from file:
     /afs/slac.stanford.edu/u/if/mamunm/psp/gbrv1.5pbe/Os.UPF
     MD5 check sum: a3fb40a04f0c37c25c34bbc47164c9a8
     Pseudo is Ultrasoft + core correction, Zval = 16.0
     Generated by new atomic code, or converted to UPF format
     Using radial grid of  983 points,  8 beta functions with:
                l(1) =   0
                l(2) =   0
                l(3) =   1
                l(4) =   1
                l(5) =   2
                l(6) =   2
                l(7) =   3
                l(8) =   3
     Q(r) pseudized with  8 coefficients,  rinner =    1.150   1.150   1.150
                                                       1.150   1.150   1.150
                                                       1.150

     vdW kernel table read from file vdW_kernel_table
     MD5 check sum: 095c7af220d748ca6e76c0b4c6cfb241

     atomic species   valence    mass     pseudopotential
        V1            13.00    50.94150     V ( 1.00)
        Os1           16.00   190.23000     Os( 1.00)

     No symmetry found

   Cartesian axes

     site n.     atom                  positions (alat units)
         1           V1  tau(   1) = (   0.0000000   0.0000000  10.0000000  )
         2           V1  tau(   2) = (   3.4906709   2.4663875  10.0000000  )
         3           Os1 tau(   3) = (   2.6166676   0.0000000  10.0000000  )
         4           Os1 tau(   4) = (   0.8740034   2.4663875  10.0000000  )
         5           V1  tau(   5) = (   5.2333351   3.6976938  12.1370428  )
         6           V1  tau(   6) = (   1.7426642   1.2313063  12.1370428  )
         7           Os1 tau(   7) = (   2.6166676   3.6976938  12.1370428  )
         8           Os1 tau(   8) = (   4.3593317   1.2313063  12.1370428  )
         9           V1  tau(   9) = (   3.4853283   2.4626126  14.2740856  )
        10           V1  tau(  10) = (   6.9759993   4.9290000  14.2740856  )
        11           Os1 tau(  11) = (   6.1019959   2.4626126  14.2740856  )
        12           Os1 tau(  12) = (   4.3593317   4.9290000  14.2740856  )

     number of k points=    20  Fermi-Dirac smearing, width (Ry)=  0.0110
                       cart. coord. in units 2pi/alat
        k(    1) = (   0.0000000   0.0000000   0.0000000), wk =   0.0555556
        k(    2) = (   0.0000000   0.0337876   0.0000000), wk =   0.1111111
        k(    3) = (   0.0000000   0.0675752   0.0000000), wk =   0.1111111
        k(    4) = (   0.0000000  -0.1013628   0.0000000), wk =   0.0555556
        k(    5) = (   0.0318471  -0.0112855   0.0000000), wk =   0.1111111
        k(    6) = (   0.0318471   0.0225021   0.0000000), wk =   0.1111111
        k(    7) = (   0.0318471   0.0562897   0.0000000), wk =   0.1111111
        k(    8) = (   0.0318471  -0.1126484   0.0000000), wk =   0.1111111
        k(    9) = (   0.0318471  -0.0788607   0.0000000), wk =   0.1111111
        k(   10) = (   0.0318471  -0.0450731   0.0000000), wk =   0.1111111
        k(   11) = (   0.0636942  -0.0225711   0.0000000), wk =   0.1111111
        k(   12) = (   0.0636942   0.0112165   0.0000000), wk =   0.1111111
        k(   13) = (   0.0636942   0.0450042   0.0000000), wk =   0.1111111
        k(   14) = (   0.0636942  -0.1239339   0.0000000), wk =   0.1111111
        k(   15) = (   0.0636942  -0.0901463   0.0000000), wk =   0.1111111
        k(   16) = (   0.0636942  -0.0563587   0.0000000), wk =   0.1111111
        k(   17) = (  -0.0955414   0.0338566   0.0000000), wk =   0.0555556
        k(   18) = (  -0.0955414   0.0676442   0.0000000), wk =   0.1111111
        k(   19) = (  -0.0955414   0.1014318   0.0000000), wk =   0.1111111
        k(   20) = (  -0.0955414  -0.0675062   0.0000000), wk =   0.0555556

     Largest allocated arrays     est. size (Mb)     dimensions
     Largest temporary arrays     est. size (Mb)     dimensions

     Initial potential from superposition of free atoms
     Check: negative starting charge=   -0.753092

     starting charge  170.99242, renormalised to  174.00000

     negative rho (up, down):  7.663E-01 0.000E+00

     *
     * You are using vdW-DF for exchange-correlation in this calculation.
     * Please cite the following three references that made this development
     * possible:
     *
     *   M. Dion, H. Rydberg, E. Schroder, D. C. Langreth, and
     *   B. I. Lundqvist, Phys. Rev. Lett. 92, 246401 (2004).
     *
     *   T. Thonhauser, V. R. Cooper, S. Li, A. Puzder, P. Hyldgaard, and
     *   D. C. Langreth, Phys. Rev. B 76, 125112 (2007).
     *
     *   G. Roman-Perez and J. M. Soler, Phys. Rev. Lett. 103, 096102 (2009).
     *
     *
     * If you are using vdW-DF2, please also cite:
     *
     *   K. Lee, E. D. Murray, L. Kong, B. I. Lundqvist, and
     *   D. C. Langreth, Phys. Rev. B 82, 081101(R) (2010).
     *
     *
     * If you are calculating the stress with vdW-DF, please also cite:
     *
     *   R. Sabatini, E. Kucukbenli, B. Kolb, T. Thonhauser, and
     *   S. de Gironcoli, J. Phys.: Condens. Matter 24, 424209 (2012).
     *

     Carrying out vdW-DF run using the following parameters:

     Nqs =      20    Nr_points =    1024   r_max =   100.000
     q_mesh =
               0.00001000     0.04494208     0.09755937     0.15916263
               0.23128650     0.31572767     0.41458969     0.53033537
               0.66584808     0.82450364     1.01025438     1.22772762
               1.48234092     1.78043706     2.12944203     2.53805004
               3.01644009     3.57652955     4.23227104     5.00000000

     Gradients computed in reciprocal space

     Adding external electric field

     Computed dipole along edir(3) :
        Dipole               -0.0000 Ry au,         -0.0000 Debye
        Dipole field         -0.0000 Ry au

        Potential amp.        0.0000 Ry
        Total length         44.7246 bohr

     Starting wfc are  138 randomized atomic wfcs

     Self-consistent Calculation

     iteration #  1     ecut=    36.75 Ry     beta=0.10
     Davidson diagonalization with overlap
     ethr =  1.00E-02,  avg # of iterations =  2.0

[...]

     total energy              =   -2073.24574017 Ry
     Harris-Foulkes estimate   =   -2074.09762438 Ry
     estimated scf accuracy    <       5.00497252 Ry

[...]

     End of self-consistent calculation

          k = 0.0000 0.0000 0.0000 ( 15901 PWs)   bands (ev):

   -85.0043 -84.9971 -84.3601 -84.3598 -84.3531 -84.3528 -63.1235 -63.1095
   -62.8738 -62.8729 -62.8605 -62.8603 -44.4467 -44.3062 -44.2885 -44.2668
   -44.2551 -44.2521 -43.7571 -43.7506 -43.6732 -43.6671 -43.6530 -43.6427
   -43.6239 -43.6211 -43.6053 -43.6024 -43.5667 -43.5658 -37.0151 -36.9171
   -36.9152 -36.8901 -36.8590 -36.8428 -36.7682 -36.7548 -36.7360 -36.7323
   -36.6557 -36.6446 -36.6009 -36.5973 -36.5951 -36.5897 -36.5275 -36.5242
    -6.3107  -4.2731  -3.8458  -3.5455  -3.4915  -3.4359  -3.3174  -3.1617
    -3.1469  -3.0246  -2.3077  -2.2964  -1.9031  -1.6941  -1.5260  -1.4695
    -1.4390  -1.2432  -1.2140  -1.1682  -0.9958  -0.8218  -0.4810  -0.4126
    -0.0538  -0.0195   0.1166   0.7639   0.7932   1.1288   1.1478   1.3072
     1.4772   1.8886   2.0946   2.2997   2.4107   2.5507   2.5532   2.6923
     2.7860   2.8402   2.8573   2.8937   2.9438   3.0267   3.0371   3.0653
     3.0786   3.2897   3.3143   3.3312   3.3416   3.4520   3.5552   3.6357
     3.6683   3.6889   3.7412   3.8098   4.1090   4.3595   4.3632   4.4112
     4.5744   4.9906   5.1208   5.1746   5.1874

[...]

          k =-0.0955 0.0339 0.0000 ( 15940 PWs)   bands (ev):

[...]

     the Fermi energy is     1.9152 ev

!    total energy              =   -2073.35444928 Ry
     Harris-Foulkes estimate   =   -2073.35444691 Ry
     estimated scf accuracy    <       0.00000052 Ry

     The total energy is the sum of the following terms:

     one-electron contribution =  -17944.48900212 Ry
     hartree contribution      =    8954.11805228 Ry
     xc contribution           =    -354.17516235 Ry
     ewald contribution        =    7271.27376103 Ry
     electric field correction =       0.00000001 Ry
     smearing contrib. (-TS)   =      -0.08209812 Ry

     convergence has been achieved in  18 iterations

 BEEF-vdW xc energy contributions
           1 :   -308.610514560847
           2 :    282.910860712928
           3 :   -238.716020805370
           4 :    187.318302172062
           5 :   -139.761853820502
           6 :    103.326628474317
           7 :   -80.1310067445020
[...]
00028 suncat2047 pw.x -in pw.inp   Done                     12/19/2018 09:47:03
00029 suncat2047 pw.x -in pw.inp   Done                     12/19/2018 09:47:03
00030 suncat2047 pw.x -in pw.inp   Done                     12/19/2018 09:47:03
00031 suncat2047 pw.x -in pw.inp   Done                     12/19/2018 09:47:03

     Program PWSCF v.5.1rc2 (svn rev. 11289) starts on 19Dec2018 at  9:47: 9

[...]

   This run was terminated on:   9:51:43  19Dec2018

[...]

     Program PWSCF v.5.1rc2 (svn rev. 11289) starts on 19Dec2018 at  9:51:50

     Current dimensions of program PWSCF are:
     Max number of different atomic species (ntypx) = 10
     Max number of k-points (npk) =  40000
     Max angular momentum in pseudopotentials (lmaxx) =  3
     Presently stress not available with electric field

     IMPORTANT: XC functional enforced from input :
     Exchange-correlation      = BEEF-VDW ( 1  4 27 13 2)
     Any further DFT definition will be discarded
     Please, verify this is what you really want

     Subspace diagonalization in iterative solution of the eigenvalue problem:
     a serial algorithm will be used

     bravais-lattice index     =            0
     lattice parameter (alat)  =       1.8897  a.u.
     unit-cell volume          =    4228.7239 (a.u.)^3
     number of atoms/cell      =           12
     number of atomic types    =            2
     number of electrons       =       174.00
     number of Kohn-Sham states=          117
     kinetic-energy cutoff     =      36.7493  Ry
     charge density cutoff     =     367.4932  Ry
     convergence threshold     =      1.0E-06
     mixing beta               =       0.1000
     number of iterations used =           10  plain     mixing
     Exchange-correlation      = BEEF-VDW ( 1  4 27 13 2)
     nstep                     =           50

     celldm(1)=   1.889726  celldm(2)=   0.000000  celldm(3)=   0.000000
     celldm(4)=   0.000000  celldm(5)=   0.000000  celldm(6)=   0.000000

     crystal axes: (cart. coord. in units of alat)
               a(1) = (   5.233335   0.000000   0.000000 )
               a(2) = (   1.748007   4.932775   0.000000 )
               a(3) = (   0.000000   0.000000  24.274086 )

     reciprocal axes: (cart. coord. in units 2 pi/alat)
               b(1) = (  0.191083 -0.067713  0.000000 )
               b(2) = (  0.000000  0.202726  0.000000 )
               b(3) = (  0.000000  0.000000  0.041196 )

     PseudoPot. # 1 for V  read from file:
     /afs/slac.stanford.edu/u/if/mamunm/psp/gbrv1.5pbe/V.UPF
     MD5 check sum: 22b79981416ebb76fdaf5b1b8640f6fb
     Pseudo is Ultrasoft + core correction, Zval = 13.0
     Generated by new atomic code, or converted to UPF format
     Using radial grid of  853 points,  6 beta functions with:
                l(1) =   0
                l(2) =   0
                l(3) =   1
                l(4) =   1
                l(5) =   2
                l(6) =   2
     Q(r) pseudized with  8 coefficients,  rinner =    1.100   1.100   1.100
                                                       1.100   1.100

     PseudoPot. # 2 for Os read from file:
     /afs/slac.stanford.edu/u/if/mamunm/psp/gbrv1.5pbe/Os.UPF
     MD5 check sum: a3fb40a04f0c37c25c34bbc47164c9a8
     Pseudo is Ultrasoft + core correction, Zval = 16.0
     Generated by new atomic code, or converted to UPF format
     Using radial grid of  983 points,  8 beta functions with:
                l(1) =   0
                l(2) =   0
                l(3) =   1
                l(4) =   1
                l(5) =   2
                l(6) =   2
                l(7) =   3
                l(8) =   3
     Q(r) pseudized with  8 coefficients,  rinner =    1.150   1.150   1.150
                                                       1.150   1.150   1.150
                                                       1.150

     vdW kernel table read from file vdW_kernel_table
     MD5 check sum: 095c7af220d748ca6e76c0b4c6cfb241

     atomic species   valence    mass     pseudopotential
        V1            13.00    50.94150     V ( 1.00)
        Os1           16.00   190.23000     Os( 1.00)

     No symmetry found

   Cartesian axes

     site n.     atom                  positions (alat units)
         1           V1  tau(   1) = (   0.0000000   0.0000000  10.0000000  )
         2           V1  tau(   2) = (   3.4906709   2.4663875  10.0000000  )
         3           Os1 tau(   3) = (   2.6166676   0.0000000  10.0000000  )
         4           Os1 tau(   4) = (   0.8740034   2.4663875  10.0000000  )
         5           V1  tau(   5) = (   5.2333351   3.6976938  12.1370428  )
         6           V1  tau(   6) = (   1.7426642   1.2313063  12.1370428  )
         7           Os1 tau(   7) = (   2.6166676   3.6976938  12.1370428  )
         8           Os1 tau(   8) = (   4.3593317   1.2313063  12.1370428  )
         9           V1  tau(   9) = (   3.4861309   2.4631818  14.3347571  )
        10           V1  tau(  10) = (   6.9767528   4.9295302  14.3347483  )
        11           Os1 tau(  11) = (   6.1027173   2.4631638  14.1253445  )
        12           Os1 tau(  12) = (   4.3601032   4.9295010  14.1253495  )

     number of k points=    20  Fermi-Dirac smearing, width (Ry)=  0.0110
                       cart. coord. in units 2pi/alat
        k(    1) = (   0.0000000   0.0000000   0.0000000), wk =   0.0555556
        k(    2) = (   0.0000000   0.0337876   0.0000000), wk =   0.1111111
        k(    3) = (   0.0000000   0.0675752   0.0000000), wk =   0.1111111
        k(    4) = (   0.0000000  -0.1013628   0.0000000), wk =   0.0555556
        k(    5) = (   0.0318471  -0.0112855   0.0000000), wk =   0.1111111
        k(    6) = (   0.0318471   0.0225021   0.0000000), wk =   0.1111111
        k(    7) = (   0.0318471   0.0562897   0.0000000), wk =   0.1111111
        k(    8) = (   0.0318471  -0.1126484   0.0000000), wk =   0.1111111
        k(    9) = (   0.0318471  -0.0788607   0.0000000), wk =   0.1111111
        k(   10) = (   0.0318471  -0.0450731   0.0000000), wk =   0.1111111
        k(   11) = (   0.0636942  -0.0225711   0.0000000), wk =   0.1111111
        k(   12) = (   0.0636942   0.0112165   0.0000000), wk =   0.1111111
        k(   13) = (   0.0636942   0.0450042   0.0000000), wk =   0.1111111
        k(   14) = (   0.0636942  -0.1239339   0.0000000), wk =   0.1111111
        k(   15) = (   0.0636942  -0.0901463   0.0000000), wk =   0.1111111
        k(   16) = (   0.0636942  -0.0563587   0.0000000), wk =   0.1111111
        k(   17) = (  -0.0955414   0.0338566   0.0000000), wk =   0.0555556
        k(   18) = (  -0.0955414   0.0676442   0.0000000), wk =   0.1111111
        k(   19) = (  -0.0955414   0.1014318   0.0000000), wk =   0.1111111
        k(   20) = (  -0.0955414  -0.0675062   0.0000000), wk =   0.0555556

     Largest allocated arrays     est. size (Mb)     dimensions
     Largest temporary arrays     est. size (Mb)     dimensions

     Initial potential from superposition of free atoms
     Check: negative starting charge=   -0.752979

     starting charge  170.99242, renormalised to  174.00000

[...]

     *
     * You are using vdW-DF for exchange-correlation in this calculation.
     * Please cite the following three references that made this development
     * possible:
     *
     *   M. Dion, H. Rydberg, E. Schroder, D. C. Langreth, and
     *   B. I. Lundqvist, Phys. Rev. Lett. 92, 246401 (2004).
     *
     *   T. Thonhauser, V. R. Cooper, S. Li, A. Puzder, P. Hyldgaard, and
     *   D. C. Langreth, Phys. Rev. B 76, 125112 (2007).
     *
     *   G. Roman-Perez and J. M. Soler, Phys. Rev. Lett. 103, 096102 (2009).
     *
     *
     * If you are using vdW-DF2, please also cite:
     *
     *   K. Lee, E. D. Murray, L. Kong, B. I. Lundqvist, and
     *   D. C. Langreth, Phys. Rev. B 82, 081101(R) (2010).
     *
     *
     * If you are calculating the stress with vdW-DF, please also cite:
     *
     *   R. Sabatini, E. Kucukbenli, B. Kolb, T. Thonhauser, and
     *   S. de Gironcoli, J. Phys.: Condens. Matter 24, 424209 (2012).
     *

     Carrying out vdW-DF run using the following parameters:

     Nqs =      20    Nr_points =    1024   r_max =   100.000
     q_mesh =
               0.00001000     0.04494208     0.09755937     0.15916263
               0.23128650     0.31572767     0.41458969     0.53033537
               0.66584808     0.82450364     1.01025438     1.22772762
               1.48234092     1.78043706     2.12944203     2.53805004
               3.01644009     3.57652955     4.23227104     5.00000000

     Gradients computed in reciprocal space

[...]

     Starting wfc are  138 randomized atomic wfcs

     Self-consistent Calculation

[...]

     total energy              =   -2073.37281510 Ry
     Harris-Foulkes estimate   =   -2073.37281463 Ry
     estimated scf accuracy    <       0.00000123 Ry

     iteration # 20     ecut=    36.75 Ry     beta=0.10
     Davidson diagonalization with overlap
     ethr =  7.08E-10,  avg # of iterations =  2.0

[...]

     negative rho (up, down):  7.606E-01 0.000E+00

     Adding external electric field

     Computed dipole along edir(3) :
        Dipole                0.0779 Ry au,          0.1980 Debye
        Dipole field          0.0002 Ry au

        Potential amp.       -0.0207 Ry
        Total length         44.7246 bohr

     End of self-consistent calculation

[...]

          k = 0.0637-0.0564 0.0000 ( 15923 PWs)   bands (ev):

[...]

          k =-0.0955-0.0675 0.0000 ( 15852 PWs)   bands (ev):

   -84.8771 -84.8702 -84.3132 -84.3061 -84.2585 -84.2515 -63.0457 -63.0316
   -62.7971 -62.7833 -62.7770 -62.7630 -44.3038 -44.1792 -44.1623 -44.1348
   -44.1223 -44.1120 -43.7362 -43.6384 -43.5909 -43.5908 -43.5779 -43.5769
   -43.5548 -43.5541 -43.5420 -43.5147 -43.4999 -43.4611 -36.9627 -36.8742
   -36.8493 -36.8243 -36.7940 -36.7910 -36.6979 -36.6854 -36.6545 -36.6429
   -36.5770 -36.5667 -36.5506 -36.5380 -36.5296 -36.5195 -36.4338 -36.4293
    -4.4670  -3.9181  -3.4084  -3.3306  -2.5017  -2.3261  -2.2957  -2.2290
    -2.2150  -1.9598  -1.7086  -1.6263  -1.6205  -1.6186  -1.3467  -1.2262
    -0.8757  -0.6620  -0.4236  -0.4012  -0.4011  -0.2525  -0.2234  -0.1987
    -0.0935   0.2535   0.4703   0.5090   0.5520   0.6026   0.7516   0.8137
     0.8153   0.8753   1.1021   1.1284   1.1731   1.3182   1.5088   1.5848
     1.7924   1.9177   2.0391   2.0488   2.1094   2.2398   2.3175   2.3807
     2.3978   2.4277   2.5657   2.6533   2.7142   2.8137   3.2502   3.2866
     3.3319   3.4222   3.4613   3.5403   3.6203   3.9958   4.0040   4.4363
     4.4919   4.6426   5.0411   5.4424   5.4940

     the Fermi energy is     2.0032 ev

!    total energy              =   -2073.37281660 Ry
     Harris-Foulkes estimate   =   -2073.37281638 Ry
     estimated scf accuracy    <       0.00000065 Ry

     The total energy is the sum of the following terms:

     one-electron contribution =  -18078.67841043 Ry
     hartree contribution      =    9021.74359386 Ry
     xc contribution           =    -354.29110582 Ry
     ewald contribution        =    7337.92790216 Ry
     electric field correction =       0.00001804 Ry
     smearing contrib. (-TS)   =      -0.07481442 Ry

     convergence has been achieved in  20 iterations

 BEEF-vdW xc energy contributions
           1 :   -308.728819766261
           2 :    283.076978264404
           3 :   -238.952907613762
           4 :    187.602652558415
           5 :   -140.021711267594
           6 :    103.475369129602
           7 :   -80.1231600263560
           8 :    67.7875111898140
           9 :   -62.0479649255709
          10 :    58.5122284325795
          11 :   -54.3506144618325
          12 :    48.6933410117711
          13 :   -42.0891838751886
          14 :    35.5902470223766
          15 :   -30.0380503306159
          16 :    25.8003625964970
          17 :   -22.8611678139642
          18 :    21.0052787663278
          19 :   -19.9271518636650
          20 :    19.2529857363793
          21 :   -18.5676055353235
          22 :    17.5103168256626
          23 :   -15.9210846599719
          24 :    13.9388197047937
          25 :   -11.9583719230364
          26 :    10.4325078754038
          27 :   -9.62287068486580
          28 :    9.45084181765395
          29 :   -9.54573348683829
          30 :    9.45983164183207
          31 :   -30.1327464415155
          32 :   -22.5344891530800

     Forces acting on atoms (Ry/au):

     negative rho (up, down):  7.606E-01 0.000E+00
     atom    1 type  1   force =    -0.00018157   -0.00012811   -0.02303232
     atom    2 type  1   force =    -0.00018155   -0.00012848   -0.02303219
     atom    3 type  2   force =    -0.00006314   -0.00004073    0.05045296
     atom    4 type  2   force =    -0.00005990   -0.00004652    0.05045284
     atom    5 type  1   force =     0.00006607    0.00004725   -0.02326521
     atom    6 type  1   force =     0.00006565    0.00004575   -0.02325580
     atom    7 type  2   force =    -0.00011844   -0.00007016   -0.00521416
     atom    8 type  2   force =    -0.00010675   -0.00008872   -0.00521343
     atom    9 type  1   force =     0.00012782    0.00008950   -0.00036658
     atom   10 type  1   force =     0.00014266    0.00010157   -0.00036348
     atom   11 type  2   force =     0.00016743    0.00009242    0.00142027
     atom   12 type  2   force =     0.00014174    0.00012623    0.00141710

     Total force =     0.085399     Total SCF correction =     0.003260

     entering subroutine stress ...

     negative rho (up, down):  7.606E-01 0.000E+00
          total   stress  (Ry/bohr**3)                   (kbar)     P=  -26.09
  -0.00020941   0.00007578   0.00000102        -30.81     11.15      0.15
   0.00007578  -0.00026312   0.00000072         11.15    -38.71      0.11
   0.00000102   0.00000072  -0.00005956          0.15      0.11     -8.76

 !ASE

     Writing output data file calc.save

     General routines

     Parallel routines

   This run was terminated on:   9:56:42  19Dec2018

   JOB DONE.
Job  /afs/slac/g/suncat/bin/suncat-tsmpirun -x LD_LIBRARY_PATH -wdir /scratch/qe530763_Ohpv1 pw.x -in pw.inp

TID   HOST_NAME   COMMAND_LINE            STATUS            TERMINATION_TIME
00000 suncat2048 pw.x -in pw.inp   Done                     12/19/2018 09:56:42
00001 suncat2048 pw.x -in pw.inp   Done                     12/19/2018 09:56:42
00002 suncat2048 pw.x -in pw.inp   Done                     12/19/2018 09:56:42
00003 suncat2048 pw.x -in pw.inp   Done                     12/19/2018 09:56:42
00004 suncat2048 pw.x -in pw.inp   Done                     12/19/2018 09:56:42
00005 suncat2048 pw.x -in pw.inp   Done                     12/19/2018 09:56:42
00006 suncat2048 pw.x -in pw.inp   Done                     12/19/2018 09:56:42
00007 suncat2048 pw.x -in pw.inp   Done                     12/19/2018 09:56:42
00008 suncat2048 pw.x -in pw.inp   Done                     12/19/2018 09:56:42
00009 suncat2048 pw.x -in pw.inp   Done                     12/19/2018 09:56:42
00010 suncat2048 pw.x -in pw.inp   Done                     12/19/2018 09:56:42
00011 suncat2048 pw.x -in pw.inp   Done                     12/19/2018 09:56:42
00012 suncat2048 pw.x -in pw.inp   Done                     12/19/2018 09:56:42
00013 suncat2048 pw.x -in pw.inp   Done                     12/19/2018 09:56:42
00014 suncat2048 pw.x -in pw.inp   Done                     12/19/2018 09:56:42
00015 suncat2048 pw.x -in pw.inp   Done                     12/19/2018 09:56:42
00016 suncat2047 pw.x -in pw.inp   Done                     12/19/2018 09:56:42
00017 suncat2047 pw.x -in pw.inp   Done                     12/19/2018 09:56:42
00018 suncat2047 pw.x -in pw.inp   Done                     12/19/2018 09:56:42
00019 suncat2047 pw.x -in pw.inp   Done                     12/19/2018 09:56:42
00020 suncat2047 pw.x -in pw.inp   Done                     12/19/2018 09:56:42
00021 suncat2047 pw.x -in pw.inp   Done                     12/19/2018 09:56:42
00022 suncat2047 pw.x -in pw.inp   Done                     12/19/2018 09:56:42
00023 suncat2047 pw.x -in pw.inp   Done                     12/19/2018 09:56:42
00024 suncat2047 pw.x -in pw.inp   Done                     12/19/2018 09:56:42
00025 suncat2047 pw.x -in pw.inp   Done                     12/19/2018 09:56:42
00026 suncat2047 pw.x -in pw.inp   Done                     12/19/2018 09:56:42
00027 suncat2047 pw.x -in pw.inp   Done                     12/19/2018 09:56:42
00028 suncat2047 pw.x -in pw.inp   Done                     12/19/2018 09:56:42
00029 suncat2047 pw.x -in pw.inp   Done                     12/19/2018 09:56:42
00030 suncat2047 pw.x -in pw.inp   Done                     12/19/2018 09:56:42
00031 suncat2047 pw.x -in pw.inp   Done                     12/19/2018 09:56:42