     Program PWSCF v.5.1rc2 (svn rev. 11289) starts on 30Dec2018 at 10:53: 1

     Current dimensions of program PWSCF are:
     Max number of different atomic species (ntypx) = 10
     Max number of k-points (npk) =  40000
     Max angular momentum in pseudopotentials (lmaxx) =  3
     Presently stress not available with electric field

     IMPORTANT: XC functional enforced from input :
     Exchange-correlation      = BEEF-VDW ( 1  4 27 13 2)
     Any further DFT definition will be discarded
     Please, verify this is what you really want

     Subspace diagonalization in iterative solution of the eigenvalue problem:
     a serial algorithm will be used

     bravais-lattice index     =            0
     lattice parameter (alat)  =       1.8897  a.u.
     unit-cell volume          =    4158.6984 (a.u.)^3
     number of atoms/cell      =           12
     number of atomic types    =            2
     number of electrons       =       177.00
     number of Kohn-Sham states=          118
     kinetic-energy cutoff     =      36.7493  Ry
     charge density cutoff     =     367.4932  Ry
     convergence threshold     =      1.0E-06
     mixing beta               =       0.1000
     number of iterations used =           10  plain     mixing
     Exchange-correlation      = BEEF-VDW ( 1  4 27 13 2)
     nstep                     =           50

     celldm(1)=   1.889726  celldm(2)=   0.000000  celldm(3)=   0.000000
     celldm(4)=   0.000000  celldm(5)=   0.000000  celldm(6)=   0.000000

     crystal axes: (cart. coord. in units of alat)
               a(1) = (   5.399380   0.000000   0.000000 )
               a(2) = (  -2.699690   4.676000   0.000000 )
               a(3) = (   0.000000   0.000000  24.408575 )

     reciprocal axes: (cart. coord. in units 2 pi/alat)
               b(1) = (  0.185206  0.106929  0.000000 )
               b(2) = (  0.000000  0.213858  0.000000 )
               b(3) = (  0.000000  0.000000  0.040969 )

     PseudoPot. # 1 for Ir read from file:
     /afs/slac.stanford.edu/u/if/mamunm/psp/gbrv1.5pbe/Ir.UPF
     MD5 check sum: 8836f839c3459d2b385c504ce6d91f2c
     Pseudo is Ultrasoft + core correction, Zval = 15.0
     Generated by new atomic code, or converted to UPF format
     Using radial grid of  983 points,  7 beta functions with:
                l(1) =   0
                l(2) =   0
                l(3) =   1
                l(4) =   1
                l(5) =   1
                l(6) =   2
                l(7) =   2
     Q(r) pseudized with  8 coefficients,  rinner =    1.400   1.400   1.400
                                                       1.400   1.400

     PseudoPot. # 2 for Cr read from file:
     /afs/slac.stanford.edu/u/if/mamunm/psp/gbrv1.5pbe/Cr.UPF
     MD5 check sum: 0d52af634a40206e4dee301ad30da4bf
     Pseudo is Ultrasoft + core correction, Zval = 14.0
     Generated by new atomic code, or converted to UPF format
     Using radial grid of  857 points,  6 beta functions with:
                l(1) =   0
                l(2) =   0
                l(3) =   1
                l(4) =   1
                l(5) =   2
                l(6) =   2
     Q(r) pseudized with  8 coefficients,  rinner =    0.950   0.950   0.950
                                                       0.950   0.950

     vdW kernel table read from file vdW_kernel_table
     MD5 check sum: 095c7af220d748ca6e76c0b4c6cfb241

     atomic species   valence    mass     pseudopotential
        Ir1           15.00   192.21700     Ir( 1.00)
        Cr1           14.00    51.99610     Cr( 1.00)

     No symmetry found

   Cartesian axes

     site n.     atom                  positions (alat units)
         1           Ir1 tau(   1) = (   0.0000000   0.0000000  10.0000000  )
         2           Ir1 tau(   2) = (  -1.3498450   2.3380001  10.0000000  )
         3           Ir1 tau(   3) = (   1.3498450   2.3380001  10.0000000  )
         4           Cr1 tau(   4) = (   2.6996899   0.0000000  10.0000000  )
         5           Ir1 tau(   5) = (   2.6996899   1.5586667  12.2042876  )
         6           Ir1 tau(   6) = (   1.3498450   3.8966668  12.2042876  )
         7           Ir1 tau(   7) = (  -1.3498450   3.8966668  12.2042876  )
         8           Cr1 tau(   8) = (   0.0000000   1.5586667  12.2042876  )
         9           Ir1 tau(   9) = (  -0.0000000   3.1173334  14.4085752  )
        10           Ir1 tau(  10) = (   1.3498450   0.7793334  14.4085752  )
        11           Ir1 tau(  11) = (   4.0495349   0.7793334  14.4085752  )
        12           Cr1 tau(  12) = (   2.6996899   3.1173334  14.4085752  )

     number of k points=    20  Fermi-Dirac smearing, width (Ry)=  0.0110
                       cart. coord. in units 2pi/alat
        k(    1) = (   0.0000000   0.0000000   0.0000000), wk =   0.0555556
        k(    2) = (   0.0000000   0.0356430   0.0000000), wk =   0.1111111
        k(    3) = (   0.0000000   0.0712860   0.0000000), wk =   0.1111111
        k(    4) = (   0.0000000  -0.1069290   0.0000000), wk =   0.0555556
        k(    5) = (   0.0308677   0.0178215   0.0000000), wk =   0.1111111
        k(    6) = (   0.0308677   0.0534645   0.0000000), wk =   0.1111111
        k(    7) = (   0.0308677   0.0891075   0.0000000), wk =   0.1111111
        k(    8) = (   0.0308677  -0.0891075   0.0000000), wk =   0.1111111
        k(    9) = (   0.0308677  -0.0534645   0.0000000), wk =   0.1111111
        k(   10) = (   0.0308677  -0.0178215   0.0000000), wk =   0.1111111
        k(   11) = (   0.0617355   0.0356430   0.0000000), wk =   0.1111111
        k(   12) = (   0.0617355   0.0712860   0.0000000), wk =   0.1111111
        k(   13) = (   0.0617355   0.1069290   0.0000000), wk =   0.1111111
        k(   14) = (   0.0617355  -0.0712860   0.0000000), wk =   0.1111111
        k(   15) = (   0.0617355  -0.0356430   0.0000000), wk =   0.1111111
        k(   16) = (   0.0617355   0.0000000   0.0000000), wk =   0.1111111
        k(   17) = (  -0.0926032  -0.0534645   0.0000000), wk =   0.0555556
        k(   18) = (  -0.0926032  -0.0178215   0.0000000), wk =   0.1111111
        k(   19) = (  -0.0926032   0.0178215   0.0000000), wk =   0.1111111
        k(   20) = (  -0.0926032  -0.1603935   0.0000000), wk =   0.0555556

     Largest allocated arrays     est. size (Mb)     dimensions
     Largest temporary arrays     est. size (Mb)     dimensions

     Check: negative/imaginary core charge=   -0.000001    0.000000

     Initial potential from superposition of free atoms
     Check: negative starting charge=   -3.279443

     starting charge  169.49967, renormalised to  177.00000

     negative rho (up, down):  3.425E+00 0.000E+00

     *
     * You are using vdW-DF for exchange-correlation in this calculation.
     * Please cite the following three references that made this development
     * possible:
     *
     *   M. Dion, H. Rydberg, E. Schroder, D. C. Langreth, and
     *   B. I. Lundqvist, Phys. Rev. Lett. 92, 246401 (2004).
     *
     *   T. Thonhauser, V. R. Cooper, S. Li, A. Puzder, P. Hyldgaard, and
     *   D. C. Langreth, Phys. Rev. B 76, 125112 (2007).
     *
     *   G. Roman-Perez and J. M. Soler, Phys. Rev. Lett. 103, 096102 (2009).
     *
     *
     * If you are using vdW-DF2, please also cite:
     *
     *   K. Lee, E. D. Murray, L. Kong, B. I. Lundqvist, and
     *   D. C. Langreth, Phys. Rev. B 82, 081101(R) (2010).
     *
     *
     * If you are calculating the stress with vdW-DF, please also cite:
     *
     *   R. Sabatini, E. Kucukbenli, B. Kolb, T. Thonhauser, and
     *   S. de Gironcoli, J. Phys.: Condens. Matter 24, 424209 (2012).
     *

     Carrying out vdW-DF run using the following parameters:

     Nqs =      20    Nr_points =    1024   r_max =   100.000
     q_mesh =
               0.00001000     0.04494208     0.09755937     0.15916263
               0.23128650     0.31572767     0.41458969     0.53033537
               0.66584808     0.82450364     1.01025438     1.22772762
               1.48234092     1.78043706     2.12944203     2.53805004
               3.01644009     3.57652955     4.23227104     5.00000000

     Gradients computed in reciprocal space

     Adding external electric field

     Computed dipole along edir(3) :
        Dipole               -0.0000 Ry au,         -0.0000 Debye
        Dipole field         -0.0000 Ry au

        Potential amp.        0.0000 Ry
        Total length         44.9724 bohr

     Starting wfc are  138 randomized atomic wfcs

     Self-consistent Calculation

     iteration #  1     ecut=    36.75 Ry     beta=0.10
     Davidson diagonalization with overlap
     ethr =  1.00E-02,  avg # of iterations =  7.8

[...]

     total energy              =   -2176.33917446 Ry
     Harris-Foulkes estimate   =   -2184.68762817 Ry
     estimated scf accuracy    <      48.23161325 Ry

[...]

     End of self-consistent calculation

          k = 0.0000 0.0000 0.0000 ( 15569 PWs)   bands (ev):

   -70.1623 -69.9390 -69.9389 -47.9086 -47.7199 -47.7199 -47.6878 -47.6066
   -47.6066 -47.4196 -47.4000 -47.3782 -47.3273 -47.3273 -47.1967 -47.1967
   -47.1538 -47.1538 -47.0353 -46.9749 -46.9749 -46.9720 -46.9384 -46.9383
   -46.9124 -46.9034 -46.8347 -46.8347 -46.8330 -46.8330 -41.4479 -41.4369
   -41.4369 -41.2851 -41.2787 -41.1865 -41.1865 -41.1849 -41.1849  -6.9084
    -5.0584  -4.6714  -4.5471  -4.1451  -4.1451  -4.1057  -3.7730  -3.7730
    -3.5779  -3.4530  -3.4530  -3.3310  -3.0410  -3.0410  -2.2828  -1.6149
    -1.6149  -1.4291  -1.4291  -1.0756  -0.9409  -0.7462  -0.7414  -0.4321
    -0.4321  -0.1804  -0.1804  -0.1446  -0.1446   0.2256   0.2256   0.3075
     0.3075   1.1911   1.2302   1.2469   1.4672   1.4672   1.5866   1.5866
     1.6851   1.6851   1.9445   2.5138   2.5138   2.6072   2.7282   2.7282
     2.8523   3.0685   3.0777   3.0777   3.1739   3.1739   3.4476   3.4946
     3.4946   3.5481   3.5481   3.6099   3.8686   3.8686   3.9143   3.9143
     3.9599   4.0280   5.5282   5.6973   5.6973   5.7245   5.8758   5.8758
     6.6314   6.8543   7.3031   8.2080   9.0591   9.1085

[...]

          k =-0.0926-0.0535 0.0000 ( 15660 PWs)   bands (ev):

[...]

     the Fermi energy is     2.1469 ev

!    total energy              =   -2178.73088875 Ry
     Harris-Foulkes estimate   =   -2178.73089172 Ry
     estimated scf accuracy    <       0.00000015 Ry

     The total energy is the sum of the following terms:

     one-electron contribution =  -18587.17507857 Ry
     hartree contribution      =    9312.94822107 Ry
     xc contribution           =    -537.42671927 Ry
     ewald contribution        =    7633.00980455 Ry
     electric field correction =       0.00000000 Ry
     smearing contrib. (-TS)   =      -0.08711654 Ry

     convergence has been achieved in  22 iterations

 BEEF-vdW xc energy contributions
           1 :   -474.734842081350
           2 :    439.923054117086
           3 :   -378.353658362705
           4 :    303.139830568457
           5 :   -228.115670393460
           6 :    163.954358626348
           7 :   -115.996339272110
           8 :    84.1785104726704
           9 :   -64.6457033156157
          10 :    52.1047993487258
          11 :   -41.9435550415783
[...]
                l(1) =   0
                l(2) =   0
                l(3) =   1
                l(4) =   1
                l(5) =   1
                l(6) =   2
                l(7) =   2
     Q(r) pseudized with  8 coefficients,  rinner =    1.400   1.400   1.400
                                                       1.400   1.400

     PseudoPot. # 2 for Cr read from file:
     /afs/slac.stanford.edu/u/if/mamunm/psp/gbrv1.5pbe/Cr.UPF
     MD5 check sum: 0d52af634a40206e4dee301ad30da4bf
     Pseudo is Ultrasoft + core correction, Zval = 14.0
     Generated by new atomic code, or converted to UPF format
     Using radial grid of  857 points,  6 beta functions with:
                l(1) =   0
                l(2) =   0
                l(3) =   1
                l(4) =   1
                l(5) =   2
                l(6) =   2
     Q(r) pseudized with  8 coefficients,  rinner =    0.950   0.950   0.950
                                                       0.950   0.950

     vdW kernel table read from file vdW_kernel_table
     MD5 check sum: 095c7af220d748ca6e76c0b4c6cfb241

     atomic species   valence    mass     pseudopotential
        Ir1           15.00   192.21700     Ir( 1.00)
        Cr1           14.00    51.99610     Cr( 1.00)

     No symmetry found

   Cartesian axes

     site n.     atom                  positions (alat units)
         1           Ir1 tau(   1) = (   0.0000000   0.0000000  10.0000000  )
         2           Ir1 tau(   2) = (  -1.3498450   2.3380001  10.0000000  )
         3           Ir1 tau(   3) = (   1.3498450   2.3380001  10.0000000  )
         4           Cr1 tau(   4) = (   2.6996899   0.0000000  10.0000000  )
         5           Ir1 tau(   5) = (   2.6996899   1.5586667  12.2042876  )
         6           Ir1 tau(   6) = (   1.3498450   3.8966668  12.2042876  )
         7           Ir1 tau(   7) = (  -1.3498450   3.8966668  12.2042876  )
         8           Cr1 tau(   8) = (   0.0000000   1.5586667  12.2042876  )
         9           Ir1 tau(   9) = (   0.0000005   3.0803115  14.3387335  )
        10           Ir1 tau(  10) = (   1.3177829   0.7978443  14.3387336  )
        11           Ir1 tau(  11) = (   4.0815962   0.7978443  14.3387329  )
        12           Cr1 tau(  12) = (   2.6996899   3.1173334  14.2882056  )

     number of k points=    20  Fermi-Dirac smearing, width (Ry)=  0.0110
                       cart. coord. in units 2pi/alat
        k(    1) = (   0.0000000   0.0000000   0.0000000), wk =   0.0555556
        k(    2) = (   0.0000000   0.0356430   0.0000000), wk =   0.1111111
        k(    3) = (   0.0000000   0.0712860   0.0000000), wk =   0.1111111
        k(    4) = (   0.0000000  -0.1069290   0.0000000), wk =   0.0555556
        k(    5) = (   0.0308677   0.0178215   0.0000000), wk =   0.1111111
        k(    6) = (   0.0308677   0.0534645   0.0000000), wk =   0.1111111
        k(    7) = (   0.0308677   0.0891075   0.0000000), wk =   0.1111111
        k(    8) = (   0.0308677  -0.0891075   0.0000000), wk =   0.1111111
        k(    9) = (   0.0308677  -0.0534645   0.0000000), wk =   0.1111111
        k(   10) = (   0.0308677  -0.0178215   0.0000000), wk =   0.1111111
        k(   11) = (   0.0617355   0.0356430   0.0000000), wk =   0.1111111
        k(   12) = (   0.0617355   0.0712860   0.0000000), wk =   0.1111111
        k(   13) = (   0.0617355   0.1069290   0.0000000), wk =   0.1111111
        k(   14) = (   0.0617355  -0.0712860   0.0000000), wk =   0.1111111
        k(   15) = (   0.0617355  -0.0356430   0.0000000), wk =   0.1111111
        k(   16) = (   0.0617355   0.0000000   0.0000000), wk =   0.1111111
        k(   17) = (  -0.0926032  -0.0534645   0.0000000), wk =   0.0555556
        k(   18) = (  -0.0926032  -0.0178215   0.0000000), wk =   0.1111111
        k(   19) = (  -0.0926032   0.0178215   0.0000000), wk =   0.1111111
        k(   20) = (  -0.0926032  -0.1603935   0.0000000), wk =   0.0555556

     Largest allocated arrays     est. size (Mb)     dimensions
     Largest temporary arrays     est. size (Mb)     dimensions

     Check: negative/imaginary core charge=   -0.000001    0.000000

     Initial potential from superposition of free atoms
     Check: negative starting charge=   -3.276387

     starting charge  169.49967, renormalised to  177.00000

[...]

     *
     * You are using vdW-DF for exchange-correlation in this calculation.
     * Please cite the following three references that made this development
     * possible:
     *
     *   M. Dion, H. Rydberg, E. Schroder, D. C. Langreth, and
     *   B. I. Lundqvist, Phys. Rev. Lett. 92, 246401 (2004).
     *
     *   T. Thonhauser, V. R. Cooper, S. Li, A. Puzder, P. Hyldgaard, and
     *   D. C. Langreth, Phys. Rev. B 76, 125112 (2007).
     *
     *   G. Roman-Perez and J. M. Soler, Phys. Rev. Lett. 103, 096102 (2009).
     *
     *
     * If you are using vdW-DF2, please also cite:
     *
     *   K. Lee, E. D. Murray, L. Kong, B. I. Lundqvist, and
     *   D. C. Langreth, Phys. Rev. B 82, 081101(R) (2010).
     *
     *
     * If you are calculating the stress with vdW-DF, please also cite:
     *
     *   R. Sabatini, E. Kucukbenli, B. Kolb, T. Thonhauser, and
     *   S. de Gironcoli, J. Phys.: Condens. Matter 24, 424209 (2012).
     *

     Carrying out vdW-DF run using the following parameters:

     Nqs =      20    Nr_points =    1024   r_max =   100.000
     q_mesh =
               0.00001000     0.04494208     0.09755937     0.15916263
               0.23128650     0.31572767     0.41458969     0.53033537
               0.66584808     0.82450364     1.01025438     1.22772762
               1.48234092     1.78043706     2.12944203     2.53805004
               3.01644009     3.57652955     4.23227104     5.00000000

     Gradients computed in reciprocal space

[...]

     Starting wfc are  138 randomized atomic wfcs

     Self-consistent Calculation

[...]

     iteration # 14     ecut=    36.75 Ry     beta=0.10
     Davidson diagonalization with overlap
     c_bands:  1 eigenvalues not converged
     ethr =  6.51E-07,  avg # of iterations =  4.6

[...]

     total energy              =   -2178.74298555 Ry
     Harris-Foulkes estimate   =   -2178.74298502 Ry
     estimated scf accuracy    <       0.00000238 Ry

     iteration # 21     ecut=    36.75 Ry     beta=0.10
     Davidson diagonalization with overlap
     ethr =  1.22E-09,  avg # of iterations =  2.4

[...]

     negative rho (up, down):  2.893E+00 0.000E+00

     Adding external electric field

     Computed dipole along edir(3) :
        Dipole                0.0022 Ry au,          0.0055 Debye
        Dipole field          0.0000 Ry au

        Potential amp.       -0.0006 Ry
        Total length         44.9724 bohr

     End of self-consistent calculation

[...]

          k = 0.0617 0.0000 0.0000 ( 15620 PWs)   bands (ev):

[...]

          k =-0.0926-0.1604 0.0000 ( 15660 PWs)   bands (ev):

   -70.1763 -69.9606 -69.9158 -47.8596 -47.7370 -47.7296 -47.6856 -47.6572
   -47.6378 -47.6238 -47.6070 -47.4101 -47.3567 -47.2464 -47.1865 -47.1358
   -47.0864 -47.0732 -47.0599 -47.0583 -47.0489 -47.0342 -47.0237 -47.0222
   -46.9973 -46.9606 -46.9372 -46.9302 -46.9148 -46.8277 -41.4708 -41.4616
   -41.4550 -41.3118 -41.2578 -41.2189 -41.2124 -41.1749 -41.1683  -5.3972
    -4.9504  -3.8317  -3.6726  -3.6531  -3.4376  -3.3748  -3.1270  -3.0662
    -2.9976  -2.8902  -2.7614  -2.4054  -2.3694  -2.2721  -2.1831  -2.1677
    -1.8674  -1.7348  -1.6449  -1.1127  -1.0459  -1.0100  -0.8948  -0.8382
    -0.8167  -0.7271  -0.6597  -0.5576  -0.5134  -0.4788  -0.2851  -0.2724
    -0.2221   0.0358   0.1445   0.1837   0.3265   0.4808   0.6694   0.7332
     0.8463   1.0803   1.1031   1.3531   1.4261   1.5273   1.5609   1.9140
     1.9405   1.9822   2.0245   2.2444   2.2542   2.3584   2.4203   2.5559
     2.5909   2.8977   3.0719   3.3006   3.3146   3.5100   3.5732   4.4435
     4.5694   5.3112   5.6399   5.9985   6.2906   6.8638   6.9602   7.9160
     7.9702   8.2652   8.2820   8.8719   8.8839   8.9623

     the Fermi energy is     2.1519 ev

!    total energy              =   -2178.74298166 Ry
     Harris-Foulkes estimate   =   -2178.74298565 Ry
     estimated scf accuracy    <       0.00000028 Ry

     The total energy is the sum of the following terms:

     one-electron contribution =  -18805.24084072 Ry
     hartree contribution      =    9421.79066043 Ry
     xc contribution           =    -537.60784216 Ry
     ewald contribution        =    7742.39829400 Ry
     electric field correction =       0.00000001 Ry
     smearing contrib. (-TS)   =      -0.08325323 Ry

     convergence has been achieved in  21 iterations

 BEEF-vdW xc energy contributions
           1 :   -474.922424698342
           2 :    440.188642546329
           3 :   -378.723266759101
           4 :    303.566870498999
           5 :   -228.503505831084
           6 :    164.207586056361
           7 :   -116.070300458299
           8 :    84.1006316403399
           9 :   -64.4998662103927
          10 :    51.9903906134386
          11 :   -41.9322244399865
          12 :    31.5748974209653
          13 :   -20.2845162369780
          14 :    8.99050143168517
          15 :   0.707867018379204
          16 :   -7.38398810576086
          17 :    10.3468559494119
          18 :   -9.85948162596617
          19 :    7.03671500890061
          20 :   -3.49044716726428
          21 :   0.814927208881443
          22 :  -5.571568467291854E-002
          23 :    1.34970719778806
          24 :   -3.90697939305505
          25 :    6.37822701090658
          26 :   -7.47237884289723
          27 :    6.54889159748308
          28 :   -3.90538423761598
          29 :   0.619489820580839
          30 :    1.97611978409805
          31 :   -41.4098276623605
          32 :   -30.8852203185289

     Forces acting on atoms (Ry/au):

     negative rho (up, down):  2.893E+00 0.000E+00
     atom    1 type  1   force =    -0.00000024    0.02628678    0.01754029
     atom    2 type  1   force =     0.02276497   -0.01314317    0.01754081
     atom    3 type  1   force =    -0.02276471   -0.01314273    0.01754045
     atom    4 type  2   force =     0.00000003   -0.00000034    0.02354227
     atom    5 type  1   force =    -0.00000036    0.00108688   -0.01885876
     atom    6 type  1   force =     0.00094099   -0.00054335   -0.01885923
     atom    7 type  1   force =    -0.00094098   -0.00054319   -0.01885837
     atom    8 type  2   force =    -0.00000014   -0.00000013   -0.01539803
     atom    9 type  1   force =     0.00000018   -0.00101158   -0.00137073
     atom   10 type  1   force =    -0.00087561    0.00050531   -0.00137101
     atom   11 type  1   force =     0.00087582    0.00050539   -0.00137006
     atom   12 type  2   force =     0.00000006    0.00000012   -0.00007765

     Total force =     0.069760     Total SCF correction =     0.001842

     entering subroutine stress ...

     negative rho (up, down):  2.893E+00 0.000E+00
          total   stress  (Ry/bohr**3)                   (kbar)     P=  -26.69
  -0.00021346  -0.00000000  -0.00000000        -31.40     -0.00     -0.00
  -0.00000000  -0.00021346   0.00000000         -0.00    -31.40      0.00
  -0.00000000   0.00000000  -0.00011730         -0.00      0.00    -17.26

 !ASE

     Writing output data file calc.save

     General routines

     Parallel routines

   This run was terminated on:  12:32:16  30Dec2018

   JOB DONE.
Job  /afs/slac/g/suncat/bin/suncat-tsmpirun -x LD_LIBRARY_PATH -wdir /scratch/qe648522_Go0Q0 pw.x -in pw.inp

TID   HOST_NAME   COMMAND_LINE            STATUS            TERMINATION_TIME
00000 suncat0251 pw.x -in pw.inp   Done                     12/30/2018 12:32:16
00001 suncat0251 pw.x -in pw.inp   Done                     12/30/2018 12:32:16
00002 suncat0251 pw.x -in pw.inp   Done                     12/30/2018 12:32:16
00003 suncat0251 pw.x -in pw.inp   Done                     12/30/2018 12:32:16
00004 suncat0251 pw.x -in pw.inp   Done                     12/30/2018 12:32:16
00005 suncat0251 pw.x -in pw.inp   Done                     12/30/2018 12:32:16
00006 suncat0251 pw.x -in pw.inp   Done                     12/30/2018 12:32:16
00007 suncat0251 pw.x -in pw.inp   Done                     12/30/2018 12:32:16
00008 suncat0244 pw.x -in pw.inp   Done                     12/30/2018 12:32:16
00009 suncat0244 pw.x -in pw.inp   Done                     12/30/2018 12:32:16
00010 suncat0244 pw.x -in pw.inp   Done                     12/30/2018 12:32:16
00011 suncat0244 pw.x -in pw.inp   Done                     12/30/2018 12:32:16
00012 suncat0244 pw.x -in pw.inp   Done                     12/30/2018 12:32:16
00013 suncat0244 pw.x -in pw.inp   Done                     12/30/2018 12:32:16
00014 suncat0244 pw.x -in pw.inp   Done                     12/30/2018 12:32:16
00015 suncat0244 pw.x -in pw.inp   Done                     12/30/2018 12:32:16
00016 suncat0243 pw.x -in pw.inp   Done                     12/30/2018 12:32:16
00017 suncat0243 pw.x -in pw.inp   Done                     12/30/2018 12:32:16
00018 suncat0243 pw.x -in pw.inp   Done                     12/30/2018 12:32:16
00019 suncat0243 pw.x -in pw.inp   Done                     12/30/2018 12:32:16
00020 suncat0243 pw.x -in pw.inp   Done                     12/30/2018 12:32:16
00021 suncat0243 pw.x -in pw.inp   Done                     12/30/2018 12:32:16
00022 suncat0243 pw.x -in pw.inp   Done                     12/30/2018 12:32:16
00023 suncat0243 pw.x -in pw.inp   Done                     12/30/2018 12:32:16
00024 suncat0242 pw.x -in pw.inp   Done                     12/30/2018 12:32:16
00025 suncat0242 pw.x -in pw.inp   Done                     12/30/2018 12:32:16
00026 suncat0242 pw.x -in pw.inp   Done                     12/30/2018 12:32:16
00027 suncat0242 pw.x -in pw.inp   Done                     12/30/2018 12:32:16
00028 suncat0242 pw.x -in pw.inp   Done                     12/30/2018 12:32:16
00029 suncat0242 pw.x -in pw.inp   Done                     12/30/2018 12:32:16
00030 suncat0242 pw.x -in pw.inp   Done                     12/30/2018 12:32:16
00031 suncat0242 pw.x -in pw.inp   Done                     12/30/2018 12:32:16
00032 suncat0209 pw.x -in pw.inp   Done                     12/30/2018 12:32:16
00033 suncat0209 pw.x -in pw.inp   Done                     12/30/2018 12:32:16
00034 suncat0209 pw.x -in pw.inp   Done                     12/30/2018 12:32:16
00035 suncat0209 pw.x -in pw.inp   Done                     12/30/2018 12:32:16
00036 suncat0209 pw.x -in pw.inp   Done                     12/30/2018 12:32:16
00037 suncat0209 pw.x -in pw.inp   Done                     12/30/2018 12:32:16
00038 suncat0209 pw.x -in pw.inp   Done                     12/30/2018 12:32:16
00039 suncat0209 pw.x -in pw.inp   Done                     12/30/2018 12:32:16
00040 suncat0205 pw.x -in pw.inp   Done                     12/30/2018 12:32:16
00041 suncat0205 pw.x -in pw.inp   Done                     12/30/2018 12:32:16
00042 suncat0205 pw.x -in pw.inp   Done                     12/30/2018 12:32:16
00043 suncat0205 pw.x -in pw.inp   Done                     12/30/2018 12:32:16
00044 suncat0205 pw.x -in pw.inp   Done                     12/30/2018 12:32:16
00045 suncat0205 pw.x -in pw.inp   Done                     12/30/2018 12:32:16
00046 suncat0205 pw.x -in pw.inp   Done                     12/30/2018 12:32:16
00047 suncat0205 pw.x -in pw.inp   Done                     12/30/2018 12:32:16
00048 suncat0204 pw.x -in pw.inp   Done                     12/30/2018 12:32:16
00049 suncat0204 pw.x -in pw.inp   Done                     12/30/2018 12:32:16
00050 suncat0204 pw.x -in pw.inp   Done                     12/30/2018 12:32:16
00051 suncat0204 pw.x -in pw.inp   Done                     12/30/2018 12:32:16
00052 suncat0204 pw.x -in pw.inp   Done                     12/30/2018 12:32:16
00053 suncat0204 pw.x -in pw.inp   Done                     12/30/2018 12:32:16
00054 suncat0204 pw.x -in pw.inp   Done                     12/30/2018 12:32:16
00055 suncat0204 pw.x -in pw.inp   Done                     12/30/2018 12:32:16
00056 suncat0203 pw.x -in pw.inp   Done                     12/30/2018 12:32:16
00057 suncat0203 pw.x -in pw.inp   Done                     12/30/2018 12:32:16
00058 suncat0203 pw.x -in pw.inp   Done                     12/30/2018 12:32:16
00059 suncat0203 pw.x -in pw.inp   Done                     12/30/2018 12:32:16
00060 suncat0203 pw.x -in pw.inp   Done                     12/30/2018 12:32:16
00061 suncat0203 pw.x -in pw.inp   Done                     12/30/2018 12:32:16
00062 suncat0203 pw.x -in pw.inp   Done                     12/30/2018 12:32:16
00063 suncat0203 pw.x -in pw.inp   Done                     12/30/2018 12:32:16