     Program PWSCF v.5.1rc2 (svn rev. 11289) starts on 30Dec2018 at 18:33: 4

     Current dimensions of program PWSCF are:
     Max number of different atomic species (ntypx) = 10
     Max number of k-points (npk) =  40000
     Max angular momentum in pseudopotentials (lmaxx) =  3
     Presently stress not available with electric field

     IMPORTANT: XC functional enforced from input :
     Exchange-correlation      = BEEF-VDW ( 1  4 27 13 2)
     Any further DFT definition will be discarded
     Please, verify this is what you really want

     Subspace diagonalization in iterative solution of the eigenvalue problem:
     a serial algorithm will be used

     bravais-lattice index     =            0
     lattice parameter (alat)  =       1.8897  a.u.
     unit-cell volume          =    4926.5048 (a.u.)^3
     number of atoms/cell      =           12
     number of atomic types    =            2
     number of electrons       =       162.00
     number of Kohn-Sham states=          111
     kinetic-energy cutoff     =      36.7493  Ry
     charge density cutoff     =     367.4932  Ry
     convergence threshold     =      1.0E-06
     mixing beta               =       0.1000
     number of iterations used =           10  plain     mixing
     Exchange-correlation      = BEEF-VDW ( 1  4 27 13 2)
     nstep                     =           50

     celldm(1)=   1.889726  celldm(2)=   0.000000  celldm(3)=   0.000000
     celldm(4)=   0.000000  celldm(5)=   0.000000  celldm(6)=   0.000000

     crystal axes: (cart. coord. in units of alat)
               a(1) = (   5.834416   0.000000   0.000000 )
               a(2) = (  -2.917208   5.052752   0.000000 )
               a(3) = (   0.000000   0.000000  24.763780 )

     reciprocal axes: (cart. coord. in units 2 pi/alat)
               b(1) = (  0.171397  0.098956  0.000000 )
               b(2) = (  0.000000  0.197912  0.000000 )
               b(3) = (  0.000000  0.000000  0.040382 )

     PseudoPot. # 1 for Mo read from file:
     /afs/slac.stanford.edu/u/if/mamunm/psp/gbrv1.5pbe/Mo.UPF
     MD5 check sum: 30c4dcd161f5d35cd49bb5239c51a633
     Pseudo is Ultrasoft + core correction, Zval = 14.0
     Generated by new atomic code, or converted to UPF format
     Using radial grid of  889 points,  6 beta functions with:
                l(1) =   0
                l(2) =   0
                l(3) =   1
                l(4) =   1
                l(5) =   2
                l(6) =   2
     Q(r) pseudized with  6 coefficients,  rinner =    1.000   1.000   1.000
                                                       1.000   1.000

     PseudoPot. # 2 for Hf read from file:
     /afs/slac.stanford.edu/u/if/mamunm/psp/gbrv1.5pbe/Hf.UPF
     MD5 check sum: 8ee9378dfe14276e333edf04c5e4aa26
     Pseudo is Ultrasoft + core correction, Zval = 12.0
     Generated by new atomic code, or converted to UPF format
     Using radial grid of  921 points,  8 beta functions with:
                l(1) =   0
                l(2) =   0
                l(3) =   0
                l(4) =   1
                l(5) =   1
                l(6) =   2
                l(7) =   2
                l(8) =   3
     Q(r) pseudized with  6 coefficients,  rinner =    1.200   1.200   1.200
                                                       1.200   1.200   1.200
                                                       1.200

     vdW kernel table read from file vdW_kernel_table
     MD5 check sum: 095c7af220d748ca6e76c0b4c6cfb241

     atomic species   valence    mass     pseudopotential
        Mo1           14.00    95.95000     Mo( 1.00)
        Hf1           12.00   178.49000     Hf( 1.00)

     No symmetry found

   Cartesian axes

     site n.     atom                  positions (alat units)
         1           Mo1 tau(   1) = (   0.0000000   0.0000000  10.0000000  )
         2           Mo1 tau(   2) = (  -1.4586039   2.5263761  10.0000000  )
         3           Mo1 tau(   3) = (   1.4586039   2.5263761  10.0000000  )
         4           Hf1 tau(   4) = (   2.9172078   0.0000000  10.0000000  )
         5           Mo1 tau(   5) = (   2.9172078   1.6842507  12.3818902  )
         6           Mo1 tau(   6) = (   1.4586039   4.2106268  12.3818902  )
         7           Mo1 tau(   7) = (  -1.4586039   4.2106268  12.3818902  )
         8           Hf1 tau(   8) = (   0.0000000   1.6842507  12.3818902  )
         9           Mo1 tau(   9) = (  -0.0000000   3.3685015  14.7637805  )
        10           Mo1 tau(  10) = (   1.4586039   0.8421254  14.7637805  )
        11           Mo1 tau(  11) = (   4.3758118   0.8421254  14.7637805  )
        12           Hf1 tau(  12) = (   2.9172078   3.3685015  14.7637805  )

     number of k points=    20  Fermi-Dirac smearing, width (Ry)=  0.0110
                       cart. coord. in units 2pi/alat
        k(    1) = (   0.0000000   0.0000000   0.0000000), wk =   0.0555556
        k(    2) = (   0.0000000   0.0329853   0.0000000), wk =   0.1111111
        k(    3) = (   0.0000000   0.0659706   0.0000000), wk =   0.1111111
        k(    4) = (   0.0000000  -0.0989560   0.0000000), wk =   0.0555556
        k(    5) = (   0.0285661   0.0164927   0.0000000), wk =   0.1111111
        k(    6) = (   0.0285661   0.0494780   0.0000000), wk =   0.1111111
        k(    7) = (   0.0285661   0.0824633   0.0000000), wk =   0.1111111
        k(    8) = (   0.0285661  -0.0824633   0.0000000), wk =   0.1111111
        k(    9) = (   0.0285661  -0.0494780   0.0000000), wk =   0.1111111
        k(   10) = (   0.0285661  -0.0164927   0.0000000), wk =   0.1111111
        k(   11) = (   0.0571323   0.0329853   0.0000000), wk =   0.1111111
        k(   12) = (   0.0571323   0.0659706   0.0000000), wk =   0.1111111
        k(   13) = (   0.0571323   0.0989560   0.0000000), wk =   0.1111111
        k(   14) = (   0.0571323  -0.0659706   0.0000000), wk =   0.1111111
        k(   15) = (   0.0571323  -0.0329853   0.0000000), wk =   0.1111111
        k(   16) = (   0.0571323   0.0000000   0.0000000), wk =   0.1111111
        k(   17) = (  -0.0856984  -0.0494780   0.0000000), wk =   0.0555556
        k(   18) = (  -0.0856984  -0.0164927   0.0000000), wk =   0.1111111
        k(   19) = (  -0.0856984   0.0164927   0.0000000), wk =   0.1111111
        k(   20) = (  -0.0856984  -0.1484340   0.0000000), wk =   0.0555556

     Largest allocated arrays     est. size (Mb)     dimensions
     Largest temporary arrays     est. size (Mb)     dimensions

     Check: negative/imaginary core charge=   -0.000003    0.000000

     Initial potential from superposition of free atoms
     Check: negative starting charge=   -0.322311

     starting charge  155.99042, renormalised to  162.00000

     negative rho (up, down):  3.347E-01 0.000E+00

     *
     * You are using vdW-DF for exchange-correlation in this calculation.
     * Please cite the following three references that made this development
     * possible:
     *
     *   M. Dion, H. Rydberg, E. Schroder, D. C. Langreth, and
     *   B. I. Lundqvist, Phys. Rev. Lett. 92, 246401 (2004).
     *
     *   T. Thonhauser, V. R. Cooper, S. Li, A. Puzder, P. Hyldgaard, and
     *   D. C. Langreth, Phys. Rev. B 76, 125112 (2007).
     *
     *   G. Roman-Perez and J. M. Soler, Phys. Rev. Lett. 103, 096102 (2009).
     *
     *
     * If you are using vdW-DF2, please also cite:
     *
     *   K. Lee, E. D. Murray, L. Kong, B. I. Lundqvist, and
     *   D. C. Langreth, Phys. Rev. B 82, 081101(R) (2010).
     *
     *
     * If you are calculating the stress with vdW-DF, please also cite:
     *
     *   R. Sabatini, E. Kucukbenli, B. Kolb, T. Thonhauser, and
     *   S. de Gironcoli, J. Phys.: Condens. Matter 24, 424209 (2012).
     *

     Carrying out vdW-DF run using the following parameters:

     Nqs =      20    Nr_points =    1024   r_max =   100.000
     q_mesh =
               0.00001000     0.04494208     0.09755937     0.15916263
               0.23128650     0.31572767     0.41458969     0.53033537
               0.66584808     0.82450364     1.01025438     1.22772762
               1.48234092     1.78043706     2.12944203     2.53805004
               3.01644009     3.57652955     4.23227104     5.00000000

     Gradients computed in reciprocal space

     Adding external electric field

     Computed dipole along edir(3) :
        Dipole                0.0000 Ry au,          0.0000 Debye
        Dipole field          0.0000 Ry au

        Potential amp.       -0.0000 Ry
        Total length         45.6268 bohr

     Starting wfc are  156 randomized atomic wfcs

     Self-consistent Calculation

     iteration #  1     ecut=    36.75 Ry     beta=0.10
     Davidson diagonalization with overlap
     ethr =  1.00E-02,  avg # of iterations =  2.0

[...]

     total energy              =   -1741.40049065 Ry
     Harris-Foulkes estimate   =   -1742.31353537 Ry
     estimated scf accuracy    <       5.86312775 Ry

[...]

     End of self-consistent calculation

          k = 0.0000 0.0000 0.0000 ( 18535 PWs)   bands (ev):

   -60.2325 -60.2317 -59.7205 -58.9932 -58.9166 -58.9166 -58.8569 -58.8477
   -58.7836 -58.7835 -58.7813 -58.7812 -33.4141 -33.2529 -33.2269 -33.2269
   -33.2162 -33.1712 -33.1404 -33.1404 -33.0023 -33.0022 -32.9395 -32.8764
   -32.8764 -32.8596 -32.8595 -32.8279 -32.7313 -32.7184 -32.7184 -32.7028
   -32.7028 -32.6401 -32.6088 -32.5605 -32.5605 -32.5567 -32.5567 -28.8835
   -28.8507 -28.6996 -28.6996 -28.6917 -28.6917 -28.3221 -28.2739 -28.2739
    -4.1361  -2.7465  -2.2539  -1.9951  -1.8746  -1.8746  -1.7758  -1.5273
    -1.5273  -1.2285  -1.2140  -1.1921  -1.1921  -1.0244  -1.0244  -0.0321
     0.1085   0.1085   0.9206   0.9206   0.9947   1.0484   1.3620   1.6862
     1.8090   1.8090   1.8781   1.9392   1.9393   1.9709   1.9709   2.1873
     2.1873   2.3100   2.3100   2.6008   2.9215   3.0320   3.0321   3.1216
     3.5024   3.5165   3.5165   3.8764   3.8764   4.2910   4.2910   4.3905
     4.3905   4.4136   4.7280   5.3437   5.3437   5.4567   5.5067   5.6575
     5.7552   5.8212   5.9496   5.9496   6.0018   6.4828   6.4828

[...]

          k =-0.0857-0.0495 0.0000 ( 18512 PWs)   bands (ev):

[...]

     the Fermi energy is     1.9979 ev

!    total energy              =   -1740.98366971 Ry
     Harris-Foulkes estimate   =   -1740.98465849 Ry
     estimated scf accuracy    <       0.00000054 Ry

     The total energy is the sum of the following terms:

     one-electron contribution =  -12991.69321217 Ry
     hartree contribution      =    6487.06683072 Ry
     xc contribution           =    -411.88408245 Ry
     ewald contribution        =    5175.63919779 Ry
     electric field correction =       0.00000001 Ry
     smearing contrib. (-TS)   =      -0.11240361 Ry

     convergence has been achieved in  17 iterations

 BEEF-vdW xc energy contributions
           1 :   -364.001833172649
           2 :    335.797876083213
           3 :   -286.574365872654
           4 :    227.836112575720
           5 :   -171.352977977954
           6 :    125.577404025480
           7 :   -93.9178040534430
           8 :    75.1302227386063
           9 :   -65.2189554825234
          10 :    59.7035125677053
[...]
     Pseudo is Ultrasoft + core correction, Zval = 14.0
     Generated by new atomic code, or converted to UPF format
     Using radial grid of  889 points,  6 beta functions with:
                l(1) =   0
                l(2) =   0
                l(3) =   1
                l(4) =   1
                l(5) =   2
                l(6) =   2
     Q(r) pseudized with  6 coefficients,  rinner =    1.000   1.000   1.000
                                                       1.000   1.000

     PseudoPot. # 2 for Hf read from file:
     /afs/slac.stanford.edu/u/if/mamunm/psp/gbrv1.5pbe/Hf.UPF
     MD5 check sum: 8ee9378dfe14276e333edf04c5e4aa26
     Pseudo is Ultrasoft + core correction, Zval = 12.0
     Generated by new atomic code, or converted to UPF format
     Using radial grid of  921 points,  8 beta functions with:
                l(1) =   0
                l(2) =   0
                l(3) =   0
                l(4) =   1
                l(5) =   1
                l(6) =   2
                l(7) =   2
                l(8) =   3
     Q(r) pseudized with  6 coefficients,  rinner =    1.200   1.200   1.200
                                                       1.200   1.200   1.200
                                                       1.200

     vdW kernel table read from file vdW_kernel_table
     MD5 check sum: 095c7af220d748ca6e76c0b4c6cfb241

     atomic species   valence    mass     pseudopotential
        Mo1           14.00    95.95000     Mo( 1.00)
        Hf1           12.00   178.49000     Hf( 1.00)

     No symmetry found

   Cartesian axes

     site n.     atom                  positions (alat units)
         1           Mo1 tau(   1) = (   0.0000000   0.0000000  10.0000000  )
         2           Mo1 tau(   2) = (  -1.4586039   2.5263761  10.0000000  )
         3           Mo1 tau(   3) = (   1.4586039   2.5263761  10.0000000  )
         4           Hf1 tau(   4) = (   2.9172078   0.0000000  10.0000000  )
         5           Mo1 tau(   5) = (   2.9172078   1.6842507  12.3818902  )
         6           Mo1 tau(   6) = (   1.4586039   4.2106268  12.3818902  )
         7           Mo1 tau(   7) = (  -1.4586039   4.2106268  12.3818902  )
         8           Hf1 tau(   8) = (   0.0000000   1.6842507  12.3818902  )
         9           Mo1 tau(   9) = (  -0.0000826   3.4846961  14.6345749  )
        10           Mo1 tau(  10) = (   1.5591134   0.7839651  14.6345727  )
        11           Mo1 tau(  11) = (   4.2752313   0.7840216  14.6345339  )
        12           Hf1 tau(  12) = (   2.9171389   3.3684490  15.0175518  )

     number of k points=    20  Fermi-Dirac smearing, width (Ry)=  0.0110
                       cart. coord. in units 2pi/alat
        k(    1) = (   0.0000000   0.0000000   0.0000000), wk =   0.0555556
        k(    2) = (   0.0000000   0.0329853   0.0000000), wk =   0.1111111
        k(    3) = (   0.0000000   0.0659706   0.0000000), wk =   0.1111111
        k(    4) = (   0.0000000  -0.0989560   0.0000000), wk =   0.0555556
        k(    5) = (   0.0285661   0.0164927   0.0000000), wk =   0.1111111
        k(    6) = (   0.0285661   0.0494780   0.0000000), wk =   0.1111111
        k(    7) = (   0.0285661   0.0824633   0.0000000), wk =   0.1111111
        k(    8) = (   0.0285661  -0.0824633   0.0000000), wk =   0.1111111
        k(    9) = (   0.0285661  -0.0494780   0.0000000), wk =   0.1111111
        k(   10) = (   0.0285661  -0.0164927   0.0000000), wk =   0.1111111
        k(   11) = (   0.0571323   0.0329853   0.0000000), wk =   0.1111111
        k(   12) = (   0.0571323   0.0659706   0.0000000), wk =   0.1111111
        k(   13) = (   0.0571323   0.0989560   0.0000000), wk =   0.1111111
        k(   14) = (   0.0571323  -0.0659706   0.0000000), wk =   0.1111111
        k(   15) = (   0.0571323  -0.0329853   0.0000000), wk =   0.1111111
        k(   16) = (   0.0571323   0.0000000   0.0000000), wk =   0.1111111
        k(   17) = (  -0.0856984  -0.0494780   0.0000000), wk =   0.0555556
        k(   18) = (  -0.0856984  -0.0164927   0.0000000), wk =   0.1111111
        k(   19) = (  -0.0856984   0.0164927   0.0000000), wk =   0.1111111
        k(   20) = (  -0.0856984  -0.1484340   0.0000000), wk =   0.0555556

     Largest allocated arrays     est. size (Mb)     dimensions
     Largest temporary arrays     est. size (Mb)     dimensions

     Check: negative/imaginary core charge=   -0.000003    0.000000

     Initial potential from superposition of free atoms
     Check: negative starting charge=   -0.322697

     starting charge  155.99042, renormalised to  162.00000

[...]

     *
     * You are using vdW-DF for exchange-correlation in this calculation.
     * Please cite the following three references that made this development
     * possible:
     *
     *   M. Dion, H. Rydberg, E. Schroder, D. C. Langreth, and
     *   B. I. Lundqvist, Phys. Rev. Lett. 92, 246401 (2004).
     *
     *   T. Thonhauser, V. R. Cooper, S. Li, A. Puzder, P. Hyldgaard, and
     *   D. C. Langreth, Phys. Rev. B 76, 125112 (2007).
     *
     *   G. Roman-Perez and J. M. Soler, Phys. Rev. Lett. 103, 096102 (2009).
     *
     *
     * If you are using vdW-DF2, please also cite:
     *
     *   K. Lee, E. D. Murray, L. Kong, B. I. Lundqvist, and
     *   D. C. Langreth, Phys. Rev. B 82, 081101(R) (2010).
     *
     *
     * If you are calculating the stress with vdW-DF, please also cite:
     *
     *   R. Sabatini, E. Kucukbenli, B. Kolb, T. Thonhauser, and
     *   S. de Gironcoli, J. Phys.: Condens. Matter 24, 424209 (2012).
     *

     Carrying out vdW-DF run using the following parameters:

     Nqs =      20    Nr_points =    1024   r_max =   100.000
     q_mesh =
               0.00001000     0.04494208     0.09755937     0.15916263
               0.23128650     0.31572767     0.41458969     0.53033537
               0.66584808     0.82450364     1.01025438     1.22772762
               1.48234092     1.78043706     2.12944203     2.53805004
               3.01644009     3.57652955     4.23227104     5.00000000

     Gradients computed in reciprocal space

[...]

     Starting wfc are  156 randomized atomic wfcs

     Self-consistent Calculation

[...]

     total energy              =   -1741.01602617 Ry
     Harris-Foulkes estimate   =   -1741.01602640 Ry
     estimated scf accuracy    <       0.00000143 Ry

     iteration # 19     ecut=    36.75 Ry     beta=0.10
     Davidson diagonalization with overlap
     ethr =  8.84E-10,  avg # of iterations =  2.0

[...]

     negative rho (up, down):  3.466E-01 0.000E+00

     Adding external electric field

     Computed dipole along edir(3) :
        Dipole                0.0975 Ry au,          0.2479 Debye
        Dipole field          0.0002 Ry au

        Potential amp.       -0.0227 Ry
        Total length         45.6268 bohr

     End of self-consistent calculation

[...]

          k = 0.0571 0.0000 0.0000 ( 18535 PWs)   bands (ev):

[...]

          k =-0.0857-0.1484 0.0000 ( 18512 PWs)   bands (ev):

   -60.5575 -60.0801 -59.5966 -58.8555 -58.8253 -58.7957 -58.7135 -58.7070
   -58.6888 -58.6662 -58.6434 -58.6297 -33.2323 -33.1526 -33.0820 -33.0498
   -33.0248 -32.9777 -32.9645 -32.9441 -32.8998 -32.8711 -32.8256 -32.7690
   -32.7588 -32.7322 -32.7209 -32.6924 -32.6824 -32.6541 -32.6437 -32.5984
   -32.5593 -32.5262 -32.5245 -32.5130 -32.5079 -32.4562 -32.4021 -29.2263
   -28.9914 -28.9630 -28.7142 -28.5975 -28.5637 -28.2162 -28.2021 -28.1705
    -2.4179  -2.3079  -1.3871  -1.3339  -1.0676  -1.0123  -0.7582  -0.6922
    -0.6690  -0.6454  -0.3693  -0.1984  -0.1118  -0.1039   0.1716   0.1839
     0.3668   0.4399   0.4995   0.6066   0.7029   0.8558   0.9425   1.2376
     1.2644   1.3092   1.3977   1.4543   1.4627   1.5406   1.5964   1.7129
     1.8123   1.8462   2.0426   2.1551   2.4002   2.4504   2.5484   2.6399
     2.9308   3.0580   3.0674   3.3535   3.4068   3.4478   3.4682   3.5151
     3.7671   3.8921   4.1850   4.2535   4.3384   4.7438   4.9033   5.1136
     5.2455   5.3818   5.5407   5.5856   5.7943   5.9533   6.0607

     the Fermi energy is     2.1182 ev

!    total energy              =   -1741.01602681 Ry
     Harris-Foulkes estimate   =   -1741.01602703 Ry
     estimated scf accuracy    <       0.00000060 Ry

     The total energy is the sum of the following terms:

     one-electron contribution =  -13072.95875179 Ry
     hartree contribution      =    6528.23663266 Ry
     xc contribution           =    -411.97806595 Ry
     ewald contribution        =    5215.79290393 Ry
     electric field correction =       0.00002426 Ry
     smearing contrib. (-TS)   =      -0.10876992 Ry

     convergence has been achieved in  19 iterations

 BEEF-vdW xc energy contributions
           1 :   -364.427219426703
           2 :    336.259740382112
           3 :   -287.092140432722
           4 :    228.393717340838
           5 :   -171.891583622921
           6 :    126.016465770965
           7 :   -94.2017025240879
           8 :    75.2684046716341
           9 :   -65.2873260692986
          10 :    59.8036267860658
          11 :   -55.4948697079694
          12 :    50.7814569998675
          13 :   -45.5065941640991
          14 :    40.1415173256331
          15 :   -35.0671935579392
          16 :    30.2584076145404
          17 :   -25.4109555590509
          18 :    20.2892750473969
          19 :   -15.0213547841827
          20 :    10.1417219262058
          21 :   -6.37299332432406
          22 :    4.27142242640662
          23 :   -3.93230171202538
          24 :    4.89198887083364
          25 :   -6.26855616216653
          26 :    7.06455005756715
          27 :   -6.50785011790288
          28 :    4.30082008584429
          29 :  -0.704875694795078
          30 :   -3.55803536205258
          31 :   -32.6547863987479
          32 :   -24.3059799050496

     Forces acting on atoms (Ry/au):

     negative rho (up, down):  3.466E-01 0.000E+00
     atom    1 type  1   force =     0.00000053   -0.02152659    0.01074807
     atom    2 type  1   force =    -0.01864171    0.01076241    0.01074787
     atom    3 type  1   force =     0.01864099    0.01076172    0.01075390
     atom    4 type  2   force =     0.00000355    0.00000039   -0.03282023
     atom    5 type  1   force =     0.00000422    0.02210771    0.00475071
     atom    6 type  1   force =     0.01914737   -0.01105053    0.00474694
     atom    7 type  1   force =    -0.01914457   -0.01105353    0.00474868
     atom    8 type  2   force =     0.00000467    0.00000760   -0.01223441
     atom    9 type  1   force =    -0.00000745   -0.00116117   -0.00054592
     atom   10 type  1   force =    -0.00101532    0.00057602   -0.00054669
     atom   11 type  1   force =     0.00101368    0.00058338   -0.00055207
     atom   12 type  2   force =    -0.00000595   -0.00000741    0.00020315

     Total force =     0.067100     Total SCF correction =     0.004331

     entering subroutine stress ...

     negative rho (up, down):  3.466E-01 0.000E+00
          total   stress  (Ry/bohr**3)                   (kbar)     P=  -23.94
  -0.00023918   0.00000001  -0.00000002        -35.18      0.00     -0.00
   0.00000001  -0.00023920  -0.00000001          0.00    -35.19     -0.00
  -0.00000002  -0.00000001  -0.00000978         -0.00     -0.00     -1.44

 !ASE

     Writing output data file calc.save

     General routines

     Parallel routines

   This run was terminated on:  21:20:35  30Dec2018

   JOB DONE.
Job  /afs/slac/g/suncat/bin/suncat-tsmpirun -x LD_LIBRARY_PATH -wdir /scratch/qe648603_Z09at pw.x -in pw.inp

TID   HOST_NAME   COMMAND_LINE            STATUS            TERMINATION_TIME
00000 suncat0146 pw.x -in pw.inp   Done                     12/30/2018 21:20:35
00001 suncat0146 pw.x -in pw.inp   Done                     12/30/2018 21:20:35
00002 suncat0146 pw.x -in pw.inp   Done                     12/30/2018 21:20:35
00003 suncat0146 pw.x -in pw.inp   Done                     12/30/2018 21:20:35
00004 suncat0146 pw.x -in pw.inp   Done                     12/30/2018 21:20:35
00005 suncat0146 pw.x -in pw.inp   Done                     12/30/2018 21:20:35
00006 suncat0146 pw.x -in pw.inp   Done                     12/30/2018 21:20:35
00007 suncat0146 pw.x -in pw.inp   Done                     12/30/2018 21:20:35
00008 suncat0136 pw.x -in pw.inp   Done                     12/30/2018 21:20:35
00009 suncat0136 pw.x -in pw.inp   Done                     12/30/2018 21:20:35
00010 suncat0136 pw.x -in pw.inp   Done                     12/30/2018 21:20:35
00011 suncat0136 pw.x -in pw.inp   Done                     12/30/2018 21:20:35
00012 suncat0136 pw.x -in pw.inp   Done                     12/30/2018 21:20:35
00013 suncat0136 pw.x -in pw.inp   Done                     12/30/2018 21:20:35
00014 suncat0136 pw.x -in pw.inp   Done                     12/30/2018 21:20:35
00015 suncat0136 pw.x -in pw.inp   Done                     12/30/2018 21:20:35
00016 suncat0248 pw.x -in pw.inp   Done                     12/30/2018 21:20:35
00017 suncat0248 pw.x -in pw.inp   Done                     12/30/2018 21:20:35
00018 suncat0248 pw.x -in pw.inp   Done                     12/30/2018 21:20:35
00019 suncat0248 pw.x -in pw.inp   Done                     12/30/2018 21:20:35
00020 suncat0248 pw.x -in pw.inp   Done                     12/30/2018 21:20:35
00021 suncat0248 pw.x -in pw.inp   Done                     12/30/2018 21:20:35
00022 suncat0248 pw.x -in pw.inp   Done                     12/30/2018 21:20:35
00023 suncat0248 pw.x -in pw.inp   Done                     12/30/2018 21:20:35
00024 suncat0247 pw.x -in pw.inp   Done                     12/30/2018 21:20:35
00025 suncat0247 pw.x -in pw.inp   Done                     12/30/2018 21:20:35
00026 suncat0247 pw.x -in pw.inp   Done                     12/30/2018 21:20:35
00027 suncat0247 pw.x -in pw.inp   Done                     12/30/2018 21:20:35
00028 suncat0247 pw.x -in pw.inp   Done                     12/30/2018 21:20:35
00029 suncat0247 pw.x -in pw.inp   Done                     12/30/2018 21:20:35
00030 suncat0247 pw.x -in pw.inp   Done                     12/30/2018 21:20:35
00031 suncat0247 pw.x -in pw.inp   Done                     12/30/2018 21:20:35
00032 suncat0246 pw.x -in pw.inp   Done                     12/30/2018 21:20:35
00033 suncat0246 pw.x -in pw.inp   Done                     12/30/2018 21:20:35
00034 suncat0246 pw.x -in pw.inp   Done                     12/30/2018 21:20:35
00035 suncat0246 pw.x -in pw.inp   Done                     12/30/2018 21:20:35
00036 suncat0246 pw.x -in pw.inp   Done                     12/30/2018 21:20:35
00037 suncat0246 pw.x -in pw.inp   Done                     12/30/2018 21:20:35
00038 suncat0246 pw.x -in pw.inp   Done                     12/30/2018 21:20:35
00039 suncat0246 pw.x -in pw.inp   Done                     12/30/2018 21:20:35
00040 suncat0245 pw.x -in pw.inp   Done                     12/30/2018 21:20:35
00041 suncat0245 pw.x -in pw.inp   Done                     12/30/2018 21:20:35
00042 suncat0245 pw.x -in pw.inp   Done                     12/30/2018 21:20:35
00043 suncat0245 pw.x -in pw.inp   Done                     12/30/2018 21:20:35
00044 suncat0245 pw.x -in pw.inp   Done                     12/30/2018 21:20:35
00045 suncat0245 pw.x -in pw.inp   Done                     12/30/2018 21:20:35
00046 suncat0245 pw.x -in pw.inp   Done                     12/30/2018 21:20:35
00047 suncat0245 pw.x -in pw.inp   Done                     12/30/2018 21:20:35
00048 suncat0214 pw.x -in pw.inp   Done                     12/30/2018 21:20:35
00049 suncat0214 pw.x -in pw.inp   Done                     12/30/2018 21:20:35
00050 suncat0214 pw.x -in pw.inp   Done                     12/30/2018 21:20:35
00051 suncat0214 pw.x -in pw.inp   Done                     12/30/2018 21:20:35
00052 suncat0214 pw.x -in pw.inp   Done                     12/30/2018 21:20:35
00053 suncat0214 pw.x -in pw.inp   Done                     12/30/2018 21:20:35
00054 suncat0214 pw.x -in pw.inp   Done                     12/30/2018 21:20:35
00055 suncat0214 pw.x -in pw.inp   Done                     12/30/2018 21:20:35
00056 suncat0213 pw.x -in pw.inp   Done                     12/30/2018 21:20:35
00057 suncat0213 pw.x -in pw.inp   Done                     12/30/2018 21:20:35
00058 suncat0213 pw.x -in pw.inp   Done                     12/30/2018 21:20:35
00059 suncat0213 pw.x -in pw.inp   Done                     12/30/2018 21:20:35
00060 suncat0213 pw.x -in pw.inp   Done                     12/30/2018 21:20:35
00061 suncat0213 pw.x -in pw.inp   Done                     12/30/2018 21:20:35
00062 suncat0213 pw.x -in pw.inp   Done                     12/30/2018 21:20:35
00063 suncat0213 pw.x -in pw.inp   Done                     12/30/2018 21:20:35