     Program PWSCF v.5.1rc2 (svn rev. 11289) starts on 19Dec2018 at 16:48:22

     Current dimensions of program PWSCF are:
     Max number of different atomic species (ntypx) = 10
     Max number of k-points (npk) =  40000
     Max angular momentum in pseudopotentials (lmaxx) =  3
     Presently stress not available with electric field

     IMPORTANT: XC functional enforced from input :
     Exchange-correlation      = BEEF-VDW ( 1  4 27 13 2)
     Any further DFT definition will be discarded
     Please, verify this is what you really want

     Subspace diagonalization in iterative solution of the eigenvalue problem:
     a serial algorithm will be used

     bravais-lattice index     =            0
     lattice parameter (alat)  =       1.8897  a.u.
     unit-cell volume          =    5425.5107 (a.u.)^3
     number of atoms/cell      =           12
     number of atomic types    =            2
     number of electrons       =       207.00
     number of Kohn-Sham states=          133
     kinetic-energy cutoff     =      36.7493  Ry
     charge density cutoff     =     367.4932  Ry
     convergence threshold     =      1.0E-06
     mixing beta               =       0.1000
     number of iterations used =           10  plain     mixing
     Exchange-correlation      = BEEF-VDW ( 1  4 27 13 2)
     nstep                     =           50

     celldm(1)=   1.889726  celldm(2)=   0.000000  celldm(3)=   0.000000
     celldm(4)=   0.000000  celldm(5)=   0.000000  celldm(6)=   0.000000

     crystal axes: (cart. coord. in units of alat)
               a(1) = (   6.096491   0.000000   0.000000 )
               a(2) = (  -3.048245   5.279716   0.000000 )
               a(3) = (   0.000000   0.000000  24.977764 )

     reciprocal axes: (cart. coord. in units 2 pi/alat)
               b(1) = (  0.164029  0.094702  0.000000 )
               b(2) = (  0.000000  0.189404  0.000000 )
               b(3) = (  0.000000  0.000000  0.040036 )

     PseudoPot. # 1 for Ag read from file:
     /afs/slac.stanford.edu/u/if/mamunm/psp/gbrv1.5pbe/Ag.UPF
     MD5 check sum: d66d668201baa78d5eb5b04ef7011058
     Pseudo is Ultrasoft + core correction, Zval = 19.0
     Generated by new atomic code, or converted to UPF format
     Using radial grid of  887 points,  6 beta functions with:
                l(1) =   0
                l(2) =   0
                l(3) =   1
                l(4) =   1
                l(5) =   2
                l(6) =   2
     Q(r) pseudized with  6 coefficients,  rinner =    1.300   1.300   1.300
                                                       1.300   1.300

     PseudoPot. # 2 for Zr read from file:
     /afs/slac.stanford.edu/u/if/mamunm/psp/gbrv1.5pbe/Zr.UPF
     MD5 check sum: 5db81b1e868ab7776c4564c113de050b
     Pseudo is Ultrasoft + core correction, Zval = 12.0
     Generated by new atomic code, or converted to UPF format
     Using radial grid of  887 points,  6 beta functions with:
                l(1) =   0
                l(2) =   0
                l(3) =   1
                l(4) =   1
                l(5) =   2
                l(6) =   2
     Q(r) pseudized with  6 coefficients,  rinner =    1.200   1.200   1.200
                                                       1.200   1.200

     vdW kernel table read from file vdW_kernel_table
     MD5 check sum: 095c7af220d748ca6e76c0b4c6cfb241

     atomic species   valence    mass     pseudopotential
        Ag1           19.00   107.86820     Ag( 1.00)
        Zr1           12.00    91.22400     Zr( 1.00)

     No symmetry found

   Cartesian axes

     site n.     atom                  positions (alat units)
         1           Ag1 tau(   1) = (   0.0000000   0.0000000  10.0000000  )
         2           Ag1 tau(   2) = (   4.5723681   2.6398579  10.0000000  )
         3           Ag1 tau(   3) = (   1.5241227   2.6398579  10.0000000  )
         4           Zr1 tau(   4) = (   3.0482454   0.0000000  10.0000000  )
         5           Ag1 tau(   5) = (   3.0482454   1.7599053  12.4888819  )
         6           Ag1 tau(   6) = (   1.5241227   4.3997632  12.4888819  )
         7           Ag1 tau(   7) = (  -1.5241227   4.3997632  12.4888819  )
         8           Zr1 tau(   8) = (   0.0000000   1.7599053  12.4888819  )
         9           Ag1 tau(   9) = (  -0.0000000   3.5198106  14.9777639  )
        10           Ag1 tau(  10) = (   1.5241227   0.8799526  14.9777639  )
        11           Ag1 tau(  11) = (   4.5723681   0.8799526  14.9777639  )
        12           Zr1 tau(  12) = (   3.0482454   3.5198106  14.9777639  )

     number of k points=    20  Fermi-Dirac smearing, width (Ry)=  0.0110
                       cart. coord. in units 2pi/alat
        k(    1) = (   0.0000000   0.0000000   0.0000000), wk =   0.0555556
        k(    2) = (   0.0000000   0.0315674   0.0000000), wk =   0.1111111
        k(    3) = (   0.0000000   0.0631347   0.0000000), wk =   0.1111111
        k(    4) = (   0.0000000  -0.0947021   0.0000000), wk =   0.0555556
        k(    5) = (   0.0273381   0.0157837   0.0000000), wk =   0.1111111
        k(    6) = (   0.0273381   0.0473510   0.0000000), wk =   0.1111111
        k(    7) = (   0.0273381   0.0789184   0.0000000), wk =   0.1111111
        k(    8) = (   0.0273381  -0.0789184   0.0000000), wk =   0.1111111
        k(    9) = (   0.0273381  -0.0473510   0.0000000), wk =   0.1111111
        k(   10) = (   0.0273381  -0.0157837   0.0000000), wk =   0.1111111
        k(   11) = (   0.0546763   0.0315674   0.0000000), wk =   0.1111111
        k(   12) = (   0.0546763   0.0631347   0.0000000), wk =   0.1111111
        k(   13) = (   0.0546763   0.0947021   0.0000000), wk =   0.1111111
        k(   14) = (   0.0546763  -0.0631347   0.0000000), wk =   0.1111111
        k(   15) = (   0.0546763  -0.0315674   0.0000000), wk =   0.1111111
        k(   16) = (   0.0546763   0.0000000   0.0000000), wk =   0.1111111
        k(   17) = (  -0.0820144  -0.0473510   0.0000000), wk =   0.0555556
        k(   18) = (  -0.0820144  -0.0157837   0.0000000), wk =   0.1111111
        k(   19) = (  -0.0820144   0.0157837   0.0000000), wk =   0.1111111
        k(   20) = (  -0.0820144  -0.1420531   0.0000000), wk =   0.0555556

     Largest allocated arrays     est. size (Mb)     dimensions
     Largest temporary arrays     est. size (Mb)     dimensions

     Initial potential from superposition of free atoms
     Check: negative starting charge=   -0.188177

     starting charge  202.49313, renormalised to  207.00000

     negative rho (up, down):  1.924E-01 0.000E+00

     *
     * You are using vdW-DF for exchange-correlation in this calculation.
     * Please cite the following three references that made this development
     * possible:
     *
     *   M. Dion, H. Rydberg, E. Schroder, D. C. Langreth, and
     *   B. I. Lundqvist, Phys. Rev. Lett. 92, 246401 (2004).
     *
     *   T. Thonhauser, V. R. Cooper, S. Li, A. Puzder, P. Hyldgaard, and
     *   D. C. Langreth, Phys. Rev. B 76, 125112 (2007).
     *
     *   G. Roman-Perez and J. M. Soler, Phys. Rev. Lett. 103, 096102 (2009).
     *
     *
     * If you are using vdW-DF2, please also cite:
     *
     *   K. Lee, E. D. Murray, L. Kong, B. I. Lundqvist, and
     *   D. C. Langreth, Phys. Rev. B 82, 081101(R) (2010).
     *
     *
     * If you are calculating the stress with vdW-DF, please also cite:
     *
     *   R. Sabatini, E. Kucukbenli, B. Kolb, T. Thonhauser, and
     *   S. de Gironcoli, J. Phys.: Condens. Matter 24, 424209 (2012).
     *

     Carrying out vdW-DF run using the following parameters:

     Nqs =      20    Nr_points =    1024   r_max =   100.000
     q_mesh =
               0.00001000     0.04494208     0.09755937     0.15916263
               0.23128650     0.31572767     0.41458969     0.53033537
               0.66584808     0.82450364     1.01025438     1.22772762
               1.48234092     1.78043706     2.12944203     2.53805004
               3.01644009     3.57652955     4.23227104     5.00000000

     Gradients computed in reciprocal space

     Adding external electric field

     Computed dipole along edir(3) :
        Dipole                0.0000 Ry au,          0.0000 Debye
        Dipole field          0.0000 Ry au

        Potential amp.       -0.0000 Ry
        Total length         46.0211 bohr

     Starting wfc are  156 randomized atomic wfcs

     Self-consistent Calculation

     iteration #  1     ecut=    36.75 Ry     beta=0.10
     Davidson diagonalization with overlap
     ethr =  1.00E-02,  avg # of iterations =  7.8

[...]

     total energy              =   -2968.87982281 Ry
     Harris-Foulkes estimate   =   -2971.52682109 Ry
     estimated scf accuracy    <      15.57799685 Ry

[...]

     End of self-consistent calculation

          k = 0.0000 0.0000 0.0000 ( 20395 PWs)   bands (ev):

   -90.6402 -90.6364 -90.6364 -90.5453 -90.5451 -90.5416 -90.5416 -90.5414
   -90.5414 -54.1742 -54.1698 -54.1698 -54.1526 -54.1526 -54.1445 -54.1114
   -54.1114 -54.1101 -54.1101 -54.0897 -54.0886 -54.0664 -54.0389 -54.0376
   -54.0264 -54.0264 -54.0140 -54.0140 -54.0115 -54.0115 -53.9671 -53.9630
   -53.9361 -53.9361 -53.9351 -53.9351 -48.7343 -48.7340 -48.5730 -26.7483
   -26.7455 -26.6088 -26.6088 -26.6082 -26.6082 -26.5091 -26.4746 -26.4746
    -4.6847  -4.0743  -4.0371  -4.0035  -4.0035  -3.9354  -3.8994  -3.8391
    -3.8391  -3.8168  -3.8154  -3.8154  -3.7807  -3.6869  -3.6869  -3.2430
    -3.2042  -3.2042  -3.1692  -3.1692  -3.0130  -2.9677  -2.8796  -2.8349
    -2.8349  -2.7484  -2.7484  -2.7242  -2.7242  -2.5909  -2.5909  -2.4827
    -2.3941  -2.3941  -2.3566  -2.2562  -2.2562  -2.1978  -2.1978  -2.0701
    -2.0701  -2.0323  -1.8216  -1.8216  -1.7884  -1.7199  -1.6789  -0.3044
     0.9557   1.2394   1.2394   1.3092   1.3092   1.4621   1.7164   1.7164
     1.9097   2.0127   2.0127   2.5284   2.5978   2.5978   2.6074   2.7598
     2.7598   3.0423   3.0423   4.0834   4.0834   4.1964   4.3259   4.3259
     4.3733   5.0068   5.2109   5.6556   6.4749   6.4749   6.5011   6.5011
     6.5669   6.7907   6.8937   7.3803   7.5297

[...]

          k =-0.0820-0.0474 0.0000 ( 20420 PWs)   bands (ev):

[...]

     the Fermi energy is     1.6161 ev

!    total energy              =   -2968.93179320 Ry
     Harris-Foulkes estimate   =   -2968.93179624 Ry
     estimated scf accuracy    <       0.00000081 Ry

     The total energy is the sum of the following terms:

     one-electron contribution =  -20167.24670919 Ry
     hartree contribution      =   10073.92709791 Ry
     xc contribution           =    -325.34938625 Ry
     ewald contribution        =    7449.81644193 Ry
     electric field correction =       0.00000000 Ry
     smearing contrib. (-TS)   =      -0.07923760 Ry

     convergence has been achieved in  16 iterations

 BEEF-vdW xc energy contributions
           1 :   -281.425357966047
           2 :    254.900261955911
           3 :   -210.444491210623
           4 :    161.210153652579
           5 :   -119.289237596814
           6 :    91.3517456090761
           7 :   -77.3558051284351
           8 :    72.3587183195004
           9 :   -70.0165062067396
          10 :    65.8079183432926
[...]
     Using radial grid of  887 points,  6 beta functions with:
                l(1) =   0
                l(2) =   0
                l(3) =   1
                l(4) =   1
                l(5) =   2
                l(6) =   2
     Q(r) pseudized with  6 coefficients,  rinner =    1.300   1.300   1.300
                                                       1.300   1.300

     PseudoPot. # 2 for Zr read from file:
     /afs/slac.stanford.edu/u/if/mamunm/psp/gbrv1.5pbe/Zr.UPF
     MD5 check sum: 5db81b1e868ab7776c4564c113de050b
     Pseudo is Ultrasoft + core correction, Zval = 12.0
     Generated by new atomic code, or converted to UPF format
     Using radial grid of  887 points,  6 beta functions with:
                l(1) =   0
                l(2) =   0
                l(3) =   1
                l(4) =   1
                l(5) =   2
                l(6) =   2
     Q(r) pseudized with  6 coefficients,  rinner =    1.200   1.200   1.200
                                                       1.200   1.200

     vdW kernel table read from file vdW_kernel_table
     MD5 check sum: 095c7af220d748ca6e76c0b4c6cfb241

     atomic species   valence    mass     pseudopotential
        Ag1           19.00   107.86820     Ag( 1.00)
        Zr1           12.00    91.22400     Zr( 1.00)

     No symmetry found

   Cartesian axes

     site n.     atom                  positions (alat units)
         1           Ag1 tau(   1) = (   0.0000000   0.0000000  10.0000000  )
         2           Ag1 tau(   2) = (   4.5723681   2.6398579  10.0000000  )
         3           Ag1 tau(   3) = (   1.5241227   2.6398579  10.0000000  )
         4           Zr1 tau(   4) = (   3.0482454   0.0000000  10.0000000  )
         5           Ag1 tau(   5) = (   3.0482454   1.7599053  12.4888819  )
         6           Ag1 tau(   6) = (   1.5241227   4.3997632  12.4888819  )
         7           Ag1 tau(   7) = (  -1.5241227   4.3997632  12.4888819  )
         8           Zr1 tau(   8) = (   0.0000000   1.7599053  12.4888819  )
         9           Ag1 tau(   9) = (   0.0000005   3.5315699  14.9419626  )
        10           Ag1 tau(  10) = (   1.5343068   0.8740716  14.9419615  )
        11           Ag1 tau(  11) = (   4.5621840   0.8740710  14.9419640  )
        12           Zr1 tau(  12) = (   3.0482464   3.5198084  14.8396424  )

     number of k points=    20  Fermi-Dirac smearing, width (Ry)=  0.0110
                       cart. coord. in units 2pi/alat
        k(    1) = (   0.0000000   0.0000000   0.0000000), wk =   0.0555556
        k(    2) = (   0.0000000   0.0315674   0.0000000), wk =   0.1111111
        k(    3) = (   0.0000000   0.0631347   0.0000000), wk =   0.1111111
        k(    4) = (   0.0000000  -0.0947021   0.0000000), wk =   0.0555556
        k(    5) = (   0.0273381   0.0157837   0.0000000), wk =   0.1111111
        k(    6) = (   0.0273381   0.0473510   0.0000000), wk =   0.1111111
        k(    7) = (   0.0273381   0.0789184   0.0000000), wk =   0.1111111
        k(    8) = (   0.0273381  -0.0789184   0.0000000), wk =   0.1111111
        k(    9) = (   0.0273381  -0.0473510   0.0000000), wk =   0.1111111
        k(   10) = (   0.0273381  -0.0157837   0.0000000), wk =   0.1111111
        k(   11) = (   0.0546763   0.0315674   0.0000000), wk =   0.1111111
        k(   12) = (   0.0546763   0.0631347   0.0000000), wk =   0.1111111
        k(   13) = (   0.0546763   0.0947021   0.0000000), wk =   0.1111111
        k(   14) = (   0.0546763  -0.0631347   0.0000000), wk =   0.1111111
        k(   15) = (   0.0546763  -0.0315674   0.0000000), wk =   0.1111111
        k(   16) = (   0.0546763   0.0000000   0.0000000), wk =   0.1111111
        k(   17) = (  -0.0820144  -0.0473510   0.0000000), wk =   0.0555556
        k(   18) = (  -0.0820144  -0.0157837   0.0000000), wk =   0.1111111
        k(   19) = (  -0.0820144   0.0157837   0.0000000), wk =   0.1111111
        k(   20) = (  -0.0820144  -0.1420531   0.0000000), wk =   0.0555556

     Largest allocated arrays     est. size (Mb)     dimensions
     Largest temporary arrays     est. size (Mb)     dimensions

     Initial potential from superposition of free atoms
     Check: negative starting charge=   -0.188101

     starting charge  202.49313, renormalised to  207.00000

[...]

     *
     * You are using vdW-DF for exchange-correlation in this calculation.
     * Please cite the following three references that made this development
     * possible:
     *
     *   M. Dion, H. Rydberg, E. Schroder, D. C. Langreth, and
     *   B. I. Lundqvist, Phys. Rev. Lett. 92, 246401 (2004).
     *
     *   T. Thonhauser, V. R. Cooper, S. Li, A. Puzder, P. Hyldgaard, and
     *   D. C. Langreth, Phys. Rev. B 76, 125112 (2007).
     *
     *   G. Roman-Perez and J. M. Soler, Phys. Rev. Lett. 103, 096102 (2009).
     *
     *
     * If you are using vdW-DF2, please also cite:
     *
     *   K. Lee, E. D. Murray, L. Kong, B. I. Lundqvist, and
     *   D. C. Langreth, Phys. Rev. B 82, 081101(R) (2010).
     *
     *
     * If you are calculating the stress with vdW-DF, please also cite:
     *
     *   R. Sabatini, E. Kucukbenli, B. Kolb, T. Thonhauser, and
     *   S. de Gironcoli, J. Phys.: Condens. Matter 24, 424209 (2012).
     *

     Carrying out vdW-DF run using the following parameters:

     Nqs =      20    Nr_points =    1024   r_max =   100.000
     q_mesh =
               0.00001000     0.04494208     0.09755937     0.15916263
               0.23128650     0.31572767     0.41458969     0.53033537
               0.66584808     0.82450364     1.01025438     1.22772762
               1.48234092     1.78043706     2.12944203     2.53805004
               3.01644009     3.57652955     4.23227104     5.00000000

     Gradients computed in reciprocal space

[...]

     Starting wfc are  156 randomized atomic wfcs

     Self-consistent Calculation

[...]

     total energy              =   -2968.93582679 Ry
     Harris-Foulkes estimate   =   -2968.93582715 Ry
     estimated scf accuracy    <       0.00000161 Ry

     iteration # 17     ecut=    36.75 Ry     beta=0.10
     Davidson diagonalization with overlap
     ethr =  7.76E-10,  avg # of iterations =  1.8

[...]

     negative rho (up, down):  1.908E-01 0.000E+00

     Adding external electric field

     Computed dipole along edir(3) :
        Dipole               -0.0206 Ry au,         -0.0524 Debye
        Dipole field         -0.0000 Ry au

        Potential amp.        0.0044 Ry
        Total length         46.0211 bohr

     End of self-consistent calculation

[...]

          k = 0.0547 0.0000 0.0000 ( 20401 PWs)   bands (ev):

[...]

          k =-0.0820-0.1421 0.0000 ( 20420 PWs)   bands (ev):

   -90.7375 -90.7363 -90.7350 -90.5848 -90.5835 -90.5823 -90.5700 -90.5688
   -90.5675 -54.2845 -54.2772 -54.2717 -54.2508 -54.2440 -54.2371 -54.1542
   -54.1453 -54.1450 -54.1377 -54.1371 -54.1311 -54.1286 -54.1242 -54.1148
   -54.0731 -54.0653 -54.0580 -54.0536 -54.0459 -54.0390 -53.9965 -53.9873
   -53.9836 -53.9760 -53.9742 -53.9627 -48.7670 -48.7162 -48.5747 -26.7827
   -26.7397 -26.6461 -26.6430 -26.6035 -26.6003 -26.5177 -26.4815 -26.4783
    -3.9230  -3.8311  -3.8123  -3.7654  -3.7374  -3.6374  -3.6371  -3.6246
    -3.5729  -3.5630  -3.5327  -3.4473  -3.4261  -3.3586  -3.3225  -3.2840
    -3.2645  -3.2064  -3.1950  -3.0156  -2.9975  -2.9645  -2.9110  -2.8991
    -2.8844  -2.8682  -2.8155  -2.7723  -2.7635  -2.7581  -2.7397  -2.7178
    -2.6232  -2.6175  -2.6046  -2.6029  -2.5004  -2.4880  -2.4722  -2.4322
    -2.4074  -2.3724  -2.3718  -2.2134  -2.1178  -1.9429  -1.8066  -1.6312
    -0.8937  -0.4566   0.4364   0.7351   0.8503   0.8762   1.3120   1.5379
     1.7119   1.8229   1.8830   1.9235   1.9666   2.2750   2.3305   2.5826
     2.7502   3.0014   3.5543   3.8626   4.6113   4.7533   4.9007   5.1344
     5.4868   5.6735   6.1563   6.2092   6.6793   6.7061   6.8925   6.9141
     7.1498   7.2448   7.6490   7.9348   7.9675

     the Fermi energy is     1.5878 ev

!    total energy              =   -2968.93582442 Ry
     Harris-Foulkes estimate   =   -2968.93582689 Ry
     estimated scf accuracy    <       0.00000028 Ry

     The total energy is the sum of the following terms:

     one-electron contribution =  -20314.08701557 Ry
     hartree contribution      =   10146.97872464 Ry
     xc contribution           =    -325.40339105 Ry
     ewald contribution        =    7523.65354217 Ry
     electric field correction =       0.00000099 Ry
     smearing contrib. (-TS)   =      -0.07768559 Ry

     convergence has been achieved in  17 iterations

 BEEF-vdW xc energy contributions
           1 :   -281.520514568236
           2 :    255.034976394592
           3 :   -210.624539488865
           4 :    161.397792210828
           5 :   -119.426670720793
           6 :    91.4013750093902
           7 :   -77.3282010722701
           8 :    72.3085150835974
           9 :   -70.0090861795005
          10 :    65.8785301070617
          11 :   -58.6631527737566
          12 :    49.8771472583603
          13 :   -42.0003566010009
          14 :    36.6769497504326
          15 :   -33.9176354784174
          16 :    32.5042084937876
          17 :   -31.0484224677140
          18 :    28.8860575168551
          19 :   -26.2830540943070
          20 :    23.9760095578746
          21 :   -22.4962478178639
          22 :    21.7763288517472
          23 :   -21.2622423293583
          24 :    20.3696901625510
          25 :   -18.9146320527184
          26 :    17.2149781241665
          27 :   -15.8305252507157
          28 :    15.1576899205515
          29 :   -15.1712139674118
          30 :    15.4692435708515
          31 :   -28.7985722106418
          32 :   -21.0590199862767

     Forces acting on atoms (Ry/au):

     negative rho (up, down):  1.908E-01 0.000E+00
     atom    1 type  1   force =    -0.00000000   -0.00184425    0.00362152
     atom    2 type  1   force =    -0.00159723    0.00092216    0.00362162
     atom    3 type  1   force =     0.00159713    0.00092213    0.00362159
     atom    4 type  2   force =     0.00000002   -0.00000005    0.01290333
     atom    5 type  1   force =     0.00000005   -0.00412457   -0.00666437
     atom    6 type  1   force =    -0.00357185    0.00206229   -0.00666435
     atom    7 type  1   force =     0.00357191    0.00206229   -0.00666426
     atom    8 type  2   force =    -0.00000001   -0.00000002   -0.00137765
     atom    9 type  1   force =     0.00000009   -0.00025103   -0.00081593
     atom   10 type  1   force =    -0.00021721    0.00012548   -0.00081578
     atom   11 type  1   force =     0.00021720    0.00012552   -0.00081589
     atom   12 type  2   force =    -0.00000008    0.00000006    0.00005017

     Total force =     0.020110     Total SCF correction =     0.002247
     SCF correction compared to forces is large: reduce conv_thr to get better values

     entering subroutine stress ...

     negative rho (up, down):  1.908E-01 0.000E+00
          total   stress  (Ry/bohr**3)                   (kbar)     P=   -8.45
  -0.00006853   0.00000000   0.00000000        -10.08      0.00      0.00
   0.00000000  -0.00006853   0.00000000          0.00    -10.08      0.00
   0.00000000   0.00000000  -0.00003522          0.00      0.00     -5.18

 !ASE

     Writing output data file calc.save

     General routines

     Parallel routines

   This run was terminated on:  17:58: 0  19Dec2018

   JOB DONE.
Job  /afs/slac/g/suncat/bin/suncat-tsmpirun -x LD_LIBRARY_PATH -wdir /scratch/qe773225_ptBkn pw.x -in pw.inp

TID   HOST_NAME   COMMAND_LINE            STATUS            TERMINATION_TIME
00000 suncat0167 pw.x -in pw.inp   Done                     12/19/2018 17:58:00
00001 suncat0167 pw.x -in pw.inp   Done                     12/19/2018 17:58:00
00002 suncat0167 pw.x -in pw.inp   Done                     12/19/2018 17:58:00
00003 suncat0167 pw.x -in pw.inp   Done                     12/19/2018 17:58:00
00004 suncat0167 pw.x -in pw.inp   Done                     12/19/2018 17:58:00
00005 suncat0167 pw.x -in pw.inp   Done                     12/19/2018 17:58:00
00006 suncat0167 pw.x -in pw.inp   Done                     12/19/2018 17:58:00
00007 suncat0167 pw.x -in pw.inp   Done                     12/19/2018 17:58:00
00008 suncat0166 pw.x -in pw.inp   Done                     12/19/2018 17:58:00
00009 suncat0166 pw.x -in pw.inp   Done                     12/19/2018 17:58:00
00010 suncat0166 pw.x -in pw.inp   Done                     12/19/2018 17:58:00
00011 suncat0166 pw.x -in pw.inp   Done                     12/19/2018 17:58:00
00012 suncat0166 pw.x -in pw.inp   Done                     12/19/2018 17:58:00
00013 suncat0166 pw.x -in pw.inp   Done                     12/19/2018 17:58:00
00014 suncat0166 pw.x -in pw.inp   Done                     12/19/2018 17:58:00
00015 suncat0166 pw.x -in pw.inp   Done                     12/19/2018 17:58:00
00016 suncat0165 pw.x -in pw.inp   Done                     12/19/2018 17:58:00
00017 suncat0165 pw.x -in pw.inp   Done                     12/19/2018 17:58:00
00018 suncat0165 pw.x -in pw.inp   Done                     12/19/2018 17:58:00
00019 suncat0165 pw.x -in pw.inp   Done                     12/19/2018 17:58:00
00020 suncat0165 pw.x -in pw.inp   Done                     12/19/2018 17:58:00
00021 suncat0165 pw.x -in pw.inp   Done                     12/19/2018 17:58:00
00022 suncat0165 pw.x -in pw.inp   Done                     12/19/2018 17:58:00
00023 suncat0165 pw.x -in pw.inp   Done                     12/19/2018 17:58:00
00024 suncat0164 pw.x -in pw.inp   Done                     12/19/2018 17:58:00
00025 suncat0164 pw.x -in pw.inp   Done                     12/19/2018 17:58:00
00026 suncat0164 pw.x -in pw.inp   Done                     12/19/2018 17:58:00
00027 suncat0164 pw.x -in pw.inp   Done                     12/19/2018 17:58:00
00028 suncat0164 pw.x -in pw.inp   Done                     12/19/2018 17:58:00
00029 suncat0164 pw.x -in pw.inp   Done                     12/19/2018 17:58:00
00030 suncat0164 pw.x -in pw.inp   Done                     12/19/2018 17:58:00
00031 suncat0164 pw.x -in pw.inp   Done                     12/19/2018 17:58:00
00032 suncat0163 pw.x -in pw.inp   Done                     12/19/2018 17:58:00
00033 suncat0163 pw.x -in pw.inp   Done                     12/19/2018 17:58:00
00034 suncat0163 pw.x -in pw.inp   Done                     12/19/2018 17:58:00
00035 suncat0163 pw.x -in pw.inp   Done                     12/19/2018 17:58:00
00036 suncat0163 pw.x -in pw.inp   Done                     12/19/2018 17:58:00
00037 suncat0163 pw.x -in pw.inp   Done                     12/19/2018 17:58:00
00038 suncat0163 pw.x -in pw.inp   Done                     12/19/2018 17:58:00
00039 suncat0163 pw.x -in pw.inp   Done                     12/19/2018 17:58:00
00040 suncat0162 pw.x -in pw.inp   Done                     12/19/2018 17:58:00
00041 suncat0162 pw.x -in pw.inp   Done                     12/19/2018 17:58:00
00042 suncat0162 pw.x -in pw.inp   Done                     12/19/2018 17:58:00
00043 suncat0162 pw.x -in pw.inp   Done                     12/19/2018 17:58:00
00044 suncat0162 pw.x -in pw.inp   Done                     12/19/2018 17:58:00
00045 suncat0162 pw.x -in pw.inp   Done                     12/19/2018 17:58:00
00046 suncat0162 pw.x -in pw.inp   Done                     12/19/2018 17:58:00
00047 suncat0162 pw.x -in pw.inp   Done                     12/19/2018 17:58:00
00048 suncat0161 pw.x -in pw.inp   Done                     12/19/2018 17:58:00
00049 suncat0161 pw.x -in pw.inp   Done                     12/19/2018 17:58:00
00050 suncat0161 pw.x -in pw.inp   Done                     12/19/2018 17:58:00
00051 suncat0161 pw.x -in pw.inp   Done                     12/19/2018 17:58:00
00052 suncat0161 pw.x -in pw.inp   Done                     12/19/2018 17:58:00
00053 suncat0161 pw.x -in pw.inp   Done                     12/19/2018 17:58:00
00054 suncat0161 pw.x -in pw.inp   Done                     12/19/2018 17:58:00
00055 suncat0161 pw.x -in pw.inp   Done                     12/19/2018 17:58:00
00056 suncat0159 pw.x -in pw.inp   Done                     12/19/2018 17:58:00
00057 suncat0159 pw.x -in pw.inp   Done                     12/19/2018 17:58:00
00058 suncat0159 pw.x -in pw.inp   Done                     12/19/2018 17:58:00
00059 suncat0159 pw.x -in pw.inp   Done                     12/19/2018 17:58:00
00060 suncat0159 pw.x -in pw.inp   Done                     12/19/2018 17:58:00
00061 suncat0159 pw.x -in pw.inp   Done                     12/19/2018 17:58:00
00062 suncat0159 pw.x -in pw.inp   Done                     12/19/2018 17:58:00
00063 suncat0159 pw.x -in pw.inp   Done                     12/19/2018 17:58:00