     Program PWSCF v.5.1rc2 (svn rev. 11289) starts on 30Dec2018 at 12:43:46

     Current dimensions of program PWSCF are:
     Max number of different atomic species (ntypx) = 10
     Max number of k-points (npk) =  40000
     Max angular momentum in pseudopotentials (lmaxx) =  3
     Presently stress not available with electric field

     IMPORTANT: XC functional enforced from input :
     Exchange-correlation      = BEEF-VDW ( 1  4 27 13 2)
     Any further DFT definition will be discarded
     Please, verify this is what you really want

     Subspace diagonalization in iterative solution of the eigenvalue problem:
     a serial algorithm will be used

     bravais-lattice index     =            0
     lattice parameter (alat)  =       1.8897  a.u.
     unit-cell volume          =    7824.2731 (a.u.)^3
     number of atoms/cell      =           12
     number of atomic types    =            2
     number of electrons       =       135.00
     number of Kohn-Sham states=           97
     kinetic-energy cutoff     =      36.7493  Ry
     charge density cutoff     =     367.4932  Ry
     convergence threshold     =      1.0E-06
     mixing beta               =       0.1000
     number of iterations used =           10  plain     mixing
     Exchange-correlation      = BEEF-VDW ( 1  4 27 13 2)
     nstep                     =           50

     celldm(1)=   1.889726  celldm(2)=   0.000000  celldm(3)=   0.000000
     celldm(4)=   0.000000  celldm(5)=   0.000000  celldm(6)=   0.000000

     crystal axes: (cart. coord. in units of alat)
               a(1) = (   7.193363   0.000000   0.000000 )
               a(2) = (  -3.596682   6.229635   0.000000 )
               a(3) = (   0.000000   0.000000  25.873357 )

     reciprocal axes: (cart. coord. in units 2 pi/alat)
               b(1) = (  0.139017  0.080262  0.000000 )
               b(2) = (  0.000000  0.160523  0.000000 )
               b(3) = (  0.000000  0.000000  0.038650 )

     PseudoPot. # 1 for La read from file:
     /afs/slac.stanford.edu/u/if/mamunm/psp/gbrv1.5pbe/La.UPF
     MD5 check sum: 5937b0c7494ba0601a847275249473aa
     Pseudo is Ultrasoft + core correction, Zval = 11.0
     Generated by new atomic code, or converted to UPF format
     Using radial grid of  995 points,  8 beta functions with:
                l(1) =   0
                l(2) =   0
                l(3) =   1
                l(4) =   1
                l(5) =   2
                l(6) =   2
                l(7) =   3
                l(8) =   3
     Q(r) pseudized with  8 coefficients,  rinner =    1.700   1.700   1.700
                                                       1.700   1.700   1.700
                                                       1.700

     PseudoPot. # 2 for Hg read from file:
     /afs/slac.stanford.edu/u/if/mamunm/psp/gbrv1.5pbe/Hg.UPF
     MD5 check sum: 8f42caffe07f7fd9c0a564347f8c5498
     Pseudo is Ultrasoft + core correction, Zval = 12.0
     Generated by new atomic code, or converted to UPF format
     Using radial grid of  985 points,  6 beta functions with:
                l(1) =   0
                l(2) =   0
                l(3) =   1
                l(4) =   1
                l(5) =   2
                l(6) =   2
     Q(r) pseudized with  8 coefficients,  rinner =    2.000   2.000   2.000
                                                       2.000   2.000

     vdW kernel table read from file vdW_kernel_table
     MD5 check sum: 095c7af220d748ca6e76c0b4c6cfb241

     atomic species   valence    mass     pseudopotential
        La1           11.00   138.90547     La( 1.00)
        Hg1           12.00   200.59200     Hg( 1.00)

     No symmetry found

   Cartesian axes

     site n.     atom                  positions (alat units)
         1           La1 tau(   1) = (   0.0000000   0.0000000  10.0000000  )
         2           La1 tau(   2) = (  -1.7983408   3.1148177  10.0000000  )
         3           La1 tau(   3) = (   1.7983408   3.1148177  10.0000000  )
         4           Hg1 tau(   4) = (   3.5966817   0.0000000  10.0000000  )
         5           La1 tau(   5) = (   3.5966817   2.0765451  12.9366783  )
         6           La1 tau(   6) = (   1.7983408   5.1913628  12.9366783  )
         7           La1 tau(   7) = (  -1.7983408   5.1913628  12.9366783  )
         8           Hg1 tau(   8) = (   0.0000000   2.0765451  12.9366783  )
         9           La1 tau(   9) = (  -0.0000000   4.1530903  15.8733566  )
        10           La1 tau(  10) = (   1.7983408   1.0382726  15.8733566  )
        11           La1 tau(  11) = (   5.3950225   1.0382726  15.8733566  )
        12           Hg1 tau(  12) = (   3.5966817   4.1530903  15.8733566  )

     number of k points=    20  Fermi-Dirac smearing, width (Ry)=  0.0110
                       cart. coord. in units 2pi/alat
        k(    1) = (   0.0000000   0.0000000   0.0000000), wk =   0.0555556
        k(    2) = (   0.0000000   0.0267538   0.0000000), wk =   0.1111111
        k(    3) = (   0.0000000   0.0535077   0.0000000), wk =   0.1111111
        k(    4) = (   0.0000000  -0.0802615   0.0000000), wk =   0.0555556
        k(    5) = (   0.0231695   0.0133769   0.0000000), wk =   0.1111111
        k(    6) = (   0.0231695   0.0401308   0.0000000), wk =   0.1111111
        k(    7) = (   0.0231695   0.0668846   0.0000000), wk =   0.1111111
        k(    8) = (   0.0231695  -0.0668846   0.0000000), wk =   0.1111111
        k(    9) = (   0.0231695  -0.0401308   0.0000000), wk =   0.1111111
        k(   10) = (   0.0231695  -0.0133769   0.0000000), wk =   0.1111111
        k(   11) = (   0.0463390   0.0267538   0.0000000), wk =   0.1111111
        k(   12) = (   0.0463390   0.0535077   0.0000000), wk =   0.1111111
        k(   13) = (   0.0463390   0.0802615   0.0000000), wk =   0.1111111
        k(   14) = (   0.0463390  -0.0535077   0.0000000), wk =   0.1111111
        k(   15) = (   0.0463390  -0.0267538   0.0000000), wk =   0.1111111
        k(   16) = (   0.0463390   0.0000000   0.0000000), wk =   0.1111111
        k(   17) = (  -0.0695085  -0.0401308   0.0000000), wk =   0.0555556
        k(   18) = (  -0.0695085  -0.0133769   0.0000000), wk =   0.1111111
        k(   19) = (  -0.0695085   0.0133769   0.0000000), wk =   0.1111111
        k(   20) = (  -0.0695085  -0.1203923   0.0000000), wk =   0.0555556

     Largest allocated arrays     est. size (Mb)     dimensions
     Largest temporary arrays     est. size (Mb)     dimensions

     Initial potential from superposition of free atoms
     Check: negative starting charge=   -0.631795

     starting charge  134.71121, renormalised to  135.00000

     negative rho (up, down):  6.331E-01 0.000E+00

     *
     * You are using vdW-DF for exchange-correlation in this calculation.
     * Please cite the following three references that made this development
     * possible:
     *
     *   M. Dion, H. Rydberg, E. Schroder, D. C. Langreth, and
     *   B. I. Lundqvist, Phys. Rev. Lett. 92, 246401 (2004).
     *
     *   T. Thonhauser, V. R. Cooper, S. Li, A. Puzder, P. Hyldgaard, and
     *   D. C. Langreth, Phys. Rev. B 76, 125112 (2007).
     *
     *   G. Roman-Perez and J. M. Soler, Phys. Rev. Lett. 103, 096102 (2009).
     *
     *
     * If you are using vdW-DF2, please also cite:
     *
     *   K. Lee, E. D. Murray, L. Kong, B. I. Lundqvist, and
     *   D. C. Langreth, Phys. Rev. B 82, 081101(R) (2010).
     *
     *
     * If you are calculating the stress with vdW-DF, please also cite:
     *
     *   R. Sabatini, E. Kucukbenli, B. Kolb, T. Thonhauser, and
     *   S. de Gironcoli, J. Phys.: Condens. Matter 24, 424209 (2012).
     *

     Carrying out vdW-DF run using the following parameters:

     Nqs =      20    Nr_points =    1024   r_max =   100.000
     q_mesh =
               0.00001000     0.04494208     0.09755937     0.15916263
               0.23128650     0.31572767     0.41458969     0.53033537
               0.66584808     0.82450364     1.01025438     1.22772762
               1.48234092     1.78043706     2.12944203     2.53805004
               3.01644009     3.57652955     4.23227104     5.00000000

     Gradients computed in reciprocal space

     Adding external electric field

     Computed dipole along edir(3) :
        Dipole               -0.0000 Ry au,         -0.0000 Debye
        Dipole field         -0.0000 Ry au

        Potential amp.        0.0000 Ry
        Total length         47.6712 bohr

     Starting wfc are  207 randomized atomic wfcs

     Self-consistent Calculation

     iteration #  1     ecut=    36.75 Ry     beta=0.10
     Davidson diagonalization with overlap
     ethr =  1.00E-02,  avg # of iterations =  2.0

[...]

     total energy              =   -1263.02569630 Ry
     Harris-Foulkes estimate   =   -1264.39774847 Ry
     estimated scf accuracy    <       7.67911617 Ry

[...]

     iteration #  8     ecut=    36.75 Ry     beta=0.10
     Davidson diagonalization with overlap
     c_bands:  1 eigenvalues not converged
     c_bands:  1 eigenvalues not converged
     c_bands:  1 eigenvalues not converged
     ethr =  1.28E-05,  avg # of iterations = 15.9

[...]

     End of self-consistent calculation

          k = 0.0000 0.0000 0.0000 ( 29381 PWs)   bands (ev):

   -31.6151 -31.6039 -31.4612 -31.4612 -31.4586 -31.4586 -31.2031 -31.0635
   -31.0635 -15.9116 -15.8224 -15.6120 -15.5147 -15.5147 -15.4086 -15.4047
   -15.4047 -15.3918 -15.3918 -15.2982 -15.1161 -15.1161 -14.8620 -14.8620
   -14.8062 -14.7579 -14.5776 -14.5489 -14.5489 -14.5412 -14.5412 -14.5138
   -14.5138 -14.3446 -14.2130 -14.2130  -5.1322  -5.1322  -5.1185  -5.1185
    -5.0859  -5.0708  -5.0708  -5.0634  -5.0246  -5.0246  -5.0155  -5.0155
    -5.0147  -4.9545  -4.9545  -3.3910  -2.9298  -2.8171  -0.3835   0.0399
     0.5139   0.9368   0.9810   1.2599   1.2599   1.3677   1.3677   1.5398
     1.5398   1.5536   1.5536   1.9166   1.9473   2.1334   2.1334   2.5659
     2.6085   2.6086   2.6978   2.8011   2.8252   2.8252   2.9144   2.9144
     2.9260   2.9260   2.9784   2.9949   3.0423   3.1218   3.1218   3.1338
     3.1444   3.1600   3.2150   3.2150   3.2408   3.2409   3.2443   3.2976
     3.2980

[...]

          k =-0.0695-0.0401 0.0000 ( 29464 PWs)   bands (ev):

[...]

     the Fermi energy is     1.8343 ev

!    total energy              =   -1263.53262670 Ry
     Harris-Foulkes estimate   =   -1263.53264621 Ry
     estimated scf accuracy    <       0.00000025 Ry

     The total energy is the sum of the following terms:

     one-electron contribution =   -5352.32941407 Ry
     hartree contribution      =    2708.78025597 Ry
     xc contribution           =    -577.77622421 Ry
     ewald contribution        =    1957.90646469 Ry
     electric field correction =       0.00000001 Ry
     smearing contrib. (-TS)   =      -0.11370908 Ry

     convergence has been achieved in  19 iterations

 BEEF-vdW xc energy contributions
           1 :   -510.550023155172
           2 :    469.843346026438
           3 :   -397.946991456990
           4 :    310.401187228121
           5 :   -223.661438078917
           6 :    150.567461127127
           7 :   -97.8443282855490
[...]
                l(5) =   2
                l(6) =   2
                l(7) =   3
                l(8) =   3
     Q(r) pseudized with  8 coefficients,  rinner =    1.700   1.700   1.700
                                                       1.700   1.700   1.700
                                                       1.700

     PseudoPot. # 2 for Hg read from file:
     /afs/slac.stanford.edu/u/if/mamunm/psp/gbrv1.5pbe/Hg.UPF
     MD5 check sum: 8f42caffe07f7fd9c0a564347f8c5498
     Pseudo is Ultrasoft + core correction, Zval = 12.0
     Generated by new atomic code, or converted to UPF format
     Using radial grid of  985 points,  6 beta functions with:
                l(1) =   0
                l(2) =   0
                l(3) =   1
                l(4) =   1
                l(5) =   2
                l(6) =   2
     Q(r) pseudized with  8 coefficients,  rinner =    2.000   2.000   2.000
                                                       2.000   2.000

     vdW kernel table read from file vdW_kernel_table
     MD5 check sum: 095c7af220d748ca6e76c0b4c6cfb241

     atomic species   valence    mass     pseudopotential
        La1           11.00   138.90547     La( 1.00)
        Hg1           12.00   200.59200     Hg( 1.00)

     No symmetry found

   Cartesian axes

     site n.     atom                  positions (alat units)
         1           La1 tau(   1) = (   0.0000000   0.0000000  10.0000000  )
         2           La1 tau(   2) = (  -1.7983408   3.1148177  10.0000000  )
         3           La1 tau(   3) = (   1.7983408   3.1148177  10.0000000  )
         4           Hg1 tau(   4) = (   3.5966817   0.0000000  10.0000000  )
         5           La1 tau(   5) = (   3.5966817   2.0765451  12.9366783  )
         6           La1 tau(   6) = (   1.7983408   5.1913628  12.9366783  )
         7           La1 tau(   7) = (  -1.7983408   5.1913628  12.9366783  )
         8           Hg1 tau(   8) = (   0.0000000   2.0765451  12.9366783  )
         9           La1 tau(   9) = (  -0.0000608   4.0848493  15.8855522  )
        10           La1 tau(  10) = (   1.7392359   1.0723525  15.8855700  )
        11           La1 tau(  11) = (   5.4540775   1.0724207  15.8855224  )
        12           Hg1 tau(  12) = (   3.5966223   4.1530801  15.6735786  )

     number of k points=    20  Fermi-Dirac smearing, width (Ry)=  0.0110
                       cart. coord. in units 2pi/alat
        k(    1) = (   0.0000000   0.0000000   0.0000000), wk =   0.0555556
        k(    2) = (   0.0000000   0.0267538   0.0000000), wk =   0.1111111
        k(    3) = (   0.0000000   0.0535077   0.0000000), wk =   0.1111111
        k(    4) = (   0.0000000  -0.0802615   0.0000000), wk =   0.0555556
        k(    5) = (   0.0231695   0.0133769   0.0000000), wk =   0.1111111
        k(    6) = (   0.0231695   0.0401308   0.0000000), wk =   0.1111111
        k(    7) = (   0.0231695   0.0668846   0.0000000), wk =   0.1111111
        k(    8) = (   0.0231695  -0.0668846   0.0000000), wk =   0.1111111
        k(    9) = (   0.0231695  -0.0401308   0.0000000), wk =   0.1111111
        k(   10) = (   0.0231695  -0.0133769   0.0000000), wk =   0.1111111
        k(   11) = (   0.0463390   0.0267538   0.0000000), wk =   0.1111111
        k(   12) = (   0.0463390   0.0535077   0.0000000), wk =   0.1111111
        k(   13) = (   0.0463390   0.0802615   0.0000000), wk =   0.1111111
        k(   14) = (   0.0463390  -0.0535077   0.0000000), wk =   0.1111111
        k(   15) = (   0.0463390  -0.0267538   0.0000000), wk =   0.1111111
        k(   16) = (   0.0463390   0.0000000   0.0000000), wk =   0.1111111
        k(   17) = (  -0.0695085  -0.0401308   0.0000000), wk =   0.0555556
        k(   18) = (  -0.0695085  -0.0133769   0.0000000), wk =   0.1111111
        k(   19) = (  -0.0695085   0.0133769   0.0000000), wk =   0.1111111
        k(   20) = (  -0.0695085  -0.1203923   0.0000000), wk =   0.0555556

     Largest allocated arrays     est. size (Mb)     dimensions
     Largest temporary arrays     est. size (Mb)     dimensions

     Initial potential from superposition of free atoms
     Check: negative starting charge=   -0.630882

     starting charge  134.71121, renormalised to  135.00000

[...]

     *
     * You are using vdW-DF for exchange-correlation in this calculation.
     * Please cite the following three references that made this development
     * possible:
     *
     *   M. Dion, H. Rydberg, E. Schroder, D. C. Langreth, and
     *   B. I. Lundqvist, Phys. Rev. Lett. 92, 246401 (2004).
     *
     *   T. Thonhauser, V. R. Cooper, S. Li, A. Puzder, P. Hyldgaard, and
     *   D. C. Langreth, Phys. Rev. B 76, 125112 (2007).
     *
     *   G. Roman-Perez and J. M. Soler, Phys. Rev. Lett. 103, 096102 (2009).
     *
     *
     * If you are using vdW-DF2, please also cite:
     *
     *   K. Lee, E. D. Murray, L. Kong, B. I. Lundqvist, and
     *   D. C. Langreth, Phys. Rev. B 82, 081101(R) (2010).
     *
     *
     * If you are calculating the stress with vdW-DF, please also cite:
     *
     *   R. Sabatini, E. Kucukbenli, B. Kolb, T. Thonhauser, and
     *   S. de Gironcoli, J. Phys.: Condens. Matter 24, 424209 (2012).
     *

     Carrying out vdW-DF run using the following parameters:

     Nqs =      20    Nr_points =    1024   r_max =   100.000
     q_mesh =
               0.00001000     0.04494208     0.09755937     0.15916263
               0.23128650     0.31572767     0.41458969     0.53033537
               0.66584808     0.82450364     1.01025438     1.22772762
               1.48234092     1.78043706     2.12944203     2.53805004
               3.01644009     3.57652955     4.23227104     5.00000000

     Gradients computed in reciprocal space

[...]

     Starting wfc are  207 randomized atomic wfcs

     Self-consistent Calculation

[...]

     iteration # 12     ecut=    36.75 Ry     beta=0.10
     Davidson diagonalization with overlap
     c_bands:  1 eigenvalues not converged
     c_bands:  1 eigenvalues not converged
     c_bands:  1 eigenvalues not converged
     c_bands:  1 eigenvalues not converged
     c_bands:  2 eigenvalues not converged
     c_bands:  1 eigenvalues not converged
     c_bands:  1 eigenvalues not converged
     c_bands:  1 eigenvalues not converged
     ethr =  6.66E-07,  avg # of iterations = 14.8

[...]

     total energy              =   -1263.55104302 Ry
     Harris-Foulkes estimate   =   -1263.55104700 Ry
     estimated scf accuracy    <       0.00000157 Ry

     iteration # 20     ecut=    36.75 Ry     beta=0.10
     Davidson diagonalization with overlap
     ethr =  1.16E-09,  avg # of iterations =  4.1

[...]

     negative rho (up, down):  4.227E-01 0.000E+00

     Adding external electric field

     Computed dipole along edir(3) :
        Dipole                0.0230 Ry au,          0.0584 Debye
        Dipole field          0.0000 Ry au

        Potential amp.       -0.0035 Ry
        Total length         47.6712 bohr

     End of self-consistent calculation

[...]

          k = 0.0463 0.0000 0.0000 ( 29443 PWs)   bands (ev):

[...]

          k =-0.0695-0.1204 0.0000 ( 29464 PWs)   bands (ev):

   -31.5549 -31.5404 -31.4928 -31.4835 -31.4415 -31.4389 -31.1360 -31.0909
   -31.0426 -15.6457 -15.5813 -15.5053 -15.3832 -15.3471 -15.2808 -15.2547
   -15.2052 -15.1819 -15.1778 -15.1528 -15.1144 -15.1120 -15.0801 -15.0395
   -15.0039 -14.9979 -14.7769 -14.6807 -14.6599 -14.6245 -14.5715 -14.5303
   -14.5125 -14.4937 -14.4590 -14.2302  -5.1427  -5.1116  -5.1065  -5.0930
    -5.0837  -5.0824  -5.0370  -5.0164  -5.0135  -5.0076  -4.9858  -4.9505
    -4.9462  -4.9264  -4.9093  -2.6718  -2.6335  -2.4297   0.0897   0.3286
     0.5430   0.7712   1.0968   1.1200   1.2529   1.3499   1.4740   1.5310
     1.5939   1.7164   1.7507   1.7978   2.0646   2.1536   2.2037   2.3239
     2.3433   2.3451   2.4668   2.5329   2.5910   2.6855   2.8264   2.8780
     2.8807   2.9132   2.9663   3.0681   3.0912   3.1054   3.1564   3.1627
     3.1751   3.1898   3.2040   3.2057   3.2430   3.2670   3.2763   3.3119
     3.3331

     the Fermi energy is     1.8544 ev

!    total energy              =   -1263.55102700 Ry
     Harris-Foulkes estimate   =   -1263.55104335 Ry
     estimated scf accuracy    <       0.00000067 Ry

     The total energy is the sum of the following terms:

     one-electron contribution =   -5387.16196783 Ry
     hartree contribution      =    2726.25709202 Ry
     xc contribution           =    -577.80581200 Ry
     ewald contribution        =    1975.27300891 Ry
     electric field correction =       0.00000085 Ry
     smearing contrib. (-TS)   =      -0.11334895 Ry

     convergence has been achieved in  20 iterations

 BEEF-vdW xc energy contributions
           1 :   -510.983748663118
           2 :    470.296096733233
           3 :   -398.420017927918
           4 :    310.873949637557
           5 :   -224.103517086423
           6 :    150.957660317017
           7 :   -98.1854186590990
           8 :    66.2477351202803
           9 :   -50.9114130638053
          10 :    45.7036475614925
          11 :   -44.2877195881966
          12 :    42.0503326816479
          13 :   -36.6543572383677
          14 :    27.7741312848848
          15 :   -16.4624208346218
          16 :    4.49798330691613
          17 :    6.16230144252290
          18 :   -13.8468245195446
          19 :    17.5556190782461
          20 :   -17.2179869270796
          21 :    13.7331011707382
          22 :   -8.73479980467221
          23 :    4.10183034424301
          24 :   -1.35664302559951
          25 :    1.17891569060225
          26 :   -3.23975148709678
          27 :    6.42123786906188
          28 :   -9.31639524637899
          29 :    10.7929537767060
          30 :   -10.3999750223036
          31 :   -44.1866043515728
          32 :   -31.9034581976895

     Forces acting on atoms (Ry/au):

     negative rho (up, down):  4.227E-01 0.000E+00
     atom    1 type  1   force =     0.00000055    0.01026719   -0.00219519
     atom    2 type  1   force =     0.00889047   -0.00513220   -0.00219018
     atom    3 type  1   force =    -0.00888859   -0.00513503   -0.00218500
     atom    4 type  2   force =    -0.00000098   -0.00000209    0.01196174
     atom    5 type  1   force =    -0.00000079   -0.00230168   -0.00119826
     atom    6 type  1   force =    -0.00198767    0.00115469   -0.00120673
     atom    7 type  1   force =     0.00198846    0.00114891   -0.00120295
     atom    8 type  2   force =    -0.00000207    0.00000212   -0.00059347
     atom    9 type  1   force =     0.00000329   -0.00007417   -0.00048879
     atom   10 type  1   force =    -0.00006412    0.00003917   -0.00049360
     atom   11 type  1   force =     0.00005936    0.00003166   -0.00049324
     atom   12 type  2   force =     0.00000209    0.00000145    0.00028568

     Total force =     0.022249     Total SCF correction =     0.001333

     entering subroutine stress ...

     negative rho (up, down):  4.227E-01 0.000E+00
          total   stress  (Ry/bohr**3)                   (kbar)     P=   -2.64
  -0.00002420  -0.00000000   0.00000000         -3.56     -0.00      0.00
  -0.00000000  -0.00002420   0.00000000         -0.00     -3.56      0.00
   0.00000000   0.00000000  -0.00000546          0.00      0.00     -0.80

 !ASE

     Writing output data file calc.save

     General routines

     Parallel routines

   This run was terminated on:  15:13:17  30Dec2018

   JOB DONE.
Job  /afs/slac/g/suncat/bin/suncat-tsmpirun -x LD_LIBRARY_PATH -wdir /scratch/qe648557_Np8Za pw.x -in pw.inp

TID   HOST_NAME   COMMAND_LINE            STATUS            TERMINATION_TIME
00000 suncat0040 pw.x -in pw.inp   Done                     12/30/2018 15:13:17
00001 suncat0040 pw.x -in pw.inp   Done                     12/30/2018 15:13:17
00002 suncat0040 pw.x -in pw.inp   Done                     12/30/2018 15:13:17
00003 suncat0040 pw.x -in pw.inp   Done                     12/30/2018 15:13:17
00004 suncat0040 pw.x -in pw.inp   Done                     12/30/2018 15:13:17
00005 suncat0040 pw.x -in pw.inp   Done                     12/30/2018 15:13:17
00006 suncat0040 pw.x -in pw.inp   Done                     12/30/2018 15:13:17
00007 suncat0040 pw.x -in pw.inp   Done                     12/30/2018 15:13:17
00008 suncat0017 pw.x -in pw.inp   Done                     12/30/2018 15:13:17
00009 suncat0017 pw.x -in pw.inp   Done                     12/30/2018 15:13:17
00010 suncat0017 pw.x -in pw.inp   Done                     12/30/2018 15:13:17
00011 suncat0017 pw.x -in pw.inp   Done                     12/30/2018 15:13:17
00012 suncat0017 pw.x -in pw.inp   Done                     12/30/2018 15:13:17
00013 suncat0017 pw.x -in pw.inp   Done                     12/30/2018 15:13:17
00014 suncat0017 pw.x -in pw.inp   Done                     12/30/2018 15:13:17
00015 suncat0017 pw.x -in pw.inp   Done                     12/30/2018 15:13:17
00016 suncat0195 pw.x -in pw.inp   Done                     12/30/2018 15:13:17
00017 suncat0195 pw.x -in pw.inp   Done                     12/30/2018 15:13:17
00018 suncat0195 pw.x -in pw.inp   Done                     12/30/2018 15:13:17
00019 suncat0195 pw.x -in pw.inp   Done                     12/30/2018 15:13:17
00020 suncat0195 pw.x -in pw.inp   Done                     12/30/2018 15:13:17
00021 suncat0195 pw.x -in pw.inp   Done                     12/30/2018 15:13:17
00022 suncat0195 pw.x -in pw.inp   Done                     12/30/2018 15:13:17
00023 suncat0195 pw.x -in pw.inp   Done                     12/30/2018 15:13:17
00024 suncat0003 pw.x -in pw.inp   Done                     12/30/2018 15:13:17
00025 suncat0003 pw.x -in pw.inp   Done                     12/30/2018 15:13:17
00026 suncat0003 pw.x -in pw.inp   Done                     12/30/2018 15:13:17
00027 suncat0003 pw.x -in pw.inp   Done                     12/30/2018 15:13:17
00028 suncat0003 pw.x -in pw.inp   Done                     12/30/2018 15:13:17
00029 suncat0003 pw.x -in pw.inp   Done                     12/30/2018 15:13:17
00030 suncat0003 pw.x -in pw.inp   Done                     12/30/2018 15:13:17
00031 suncat0003 pw.x -in pw.inp   Done                     12/30/2018 15:13:17
00032 suncat0002 pw.x -in pw.inp   Done                     12/30/2018 15:13:17
00033 suncat0002 pw.x -in pw.inp   Done                     12/30/2018 15:13:17
00034 suncat0002 pw.x -in pw.inp   Done                     12/30/2018 15:13:17
00035 suncat0002 pw.x -in pw.inp   Done                     12/30/2018 15:13:17
00036 suncat0002 pw.x -in pw.inp   Done                     12/30/2018 15:13:17
00037 suncat0002 pw.x -in pw.inp   Done                     12/30/2018 15:13:17
00038 suncat0002 pw.x -in pw.inp   Done                     12/30/2018 15:13:17
00039 suncat0002 pw.x -in pw.inp   Done                     12/30/2018 15:13:17
00040 suncat0179 pw.x -in pw.inp   Done                     12/30/2018 15:13:17
00041 suncat0179 pw.x -in pw.inp   Done                     12/30/2018 15:13:17
00042 suncat0179 pw.x -in pw.inp   Done                     12/30/2018 15:13:17
00043 suncat0179 pw.x -in pw.inp   Done                     12/30/2018 15:13:17
00044 suncat0179 pw.x -in pw.inp   Done                     12/30/2018 15:13:17
00045 suncat0179 pw.x -in pw.inp   Done                     12/30/2018 15:13:17
00046 suncat0179 pw.x -in pw.inp   Done                     12/30/2018 15:13:17
00047 suncat0179 pw.x -in pw.inp   Done                     12/30/2018 15:13:17
00048 suncat0283 pw.x -in pw.inp   Done                     12/30/2018 15:13:17
00049 suncat0283 pw.x -in pw.inp   Done                     12/30/2018 15:13:17
00050 suncat0283 pw.x -in pw.inp   Done                     12/30/2018 15:13:17
00051 suncat0283 pw.x -in pw.inp   Done                     12/30/2018 15:13:17
00052 suncat0283 pw.x -in pw.inp   Done                     12/30/2018 15:13:17
00053 suncat0283 pw.x -in pw.inp   Done                     12/30/2018 15:13:17
00054 suncat0283 pw.x -in pw.inp   Done                     12/30/2018 15:13:17
00055 suncat0283 pw.x -in pw.inp   Done                     12/30/2018 15:13:17
00056 suncat0282 pw.x -in pw.inp   Done                     12/30/2018 15:13:17
00057 suncat0282 pw.x -in pw.inp   Done                     12/30/2018 15:13:17
00058 suncat0282 pw.x -in pw.inp   Done                     12/30/2018 15:13:17
00059 suncat0282 pw.x -in pw.inp   Done                     12/30/2018 15:13:17
00060 suncat0282 pw.x -in pw.inp   Done                     12/30/2018 15:13:17
00061 suncat0282 pw.x -in pw.inp   Done                     12/30/2018 15:13:17
00062 suncat0282 pw.x -in pw.inp   Done                     12/30/2018 15:13:17
00063 suncat0282 pw.x -in pw.inp   Done                     12/30/2018 15:13:17