     Program PWSCF v.5.1rc2 (svn rev. 11289) starts on 26Dec2018 at 11:33:19

     Current dimensions of program PWSCF are:
     Max number of different atomic species (ntypx) = 10
     Max number of k-points (npk) =  40000
     Max angular momentum in pseudopotentials (lmaxx) =  3
     Presently stress not available with electric field

     IMPORTANT: XC functional enforced from input :
     Exchange-correlation      = BEEF-VDW ( 1  4 27 13 2)
     Any further DFT definition will be discarded
     Please, verify this is what you really want

     Subspace diagonalization in iterative solution of the eigenvalue problem:
     a serial algorithm will be used

     bravais-lattice index     =            0
     lattice parameter (alat)  =       1.8897  a.u.
     unit-cell volume          =    8342.0845 (a.u.)^3
     number of atoms/cell      =           12
     number of atomic types    =            2
     number of electrons       =       168.00
     number of Kohn-Sham states=          114
     kinetic-energy cutoff     =      36.7493  Ry
     charge density cutoff     =     367.4932  Ry
     convergence threshold     =      1.0E-06
     mixing beta               =       0.1000
     number of iterations used =           10  plain     mixing
     Exchange-correlation      = BEEF-VDW ( 1  4 27 13 2)
     nstep                     =           50

     celldm(1)=   1.889726  celldm(2)=   0.000000  celldm(3)=   0.000000
     celldm(4)=   0.000000  celldm(5)=   0.000000  celldm(6)=   0.000000

     crystal axes: (cart. coord. in units of alat)
               a(1) = (   7.403118   0.000000   0.000000 )
               a(2) = (  -3.701559   6.411288   0.000000 )
               a(3) = (   0.000000   0.000000  26.044620 )

     reciprocal axes: (cart. coord. in units 2 pi/alat)
               b(1) = (  0.135078  0.077987  0.000000 )
               b(2) = (  0.000000  0.155975  0.000000 )
               b(3) = (  0.000000  0.000000  0.038396 )

     PseudoPot. # 1 for Hg read from file:
     /afs/slac.stanford.edu/u/if/mamunm/psp/gbrv1.5pbe/Hg.UPF
     MD5 check sum: 8f42caffe07f7fd9c0a564347f8c5498
     Pseudo is Ultrasoft + core correction, Zval = 12.0
     Generated by new atomic code, or converted to UPF format
     Using radial grid of  985 points,  6 beta functions with:
                l(1) =   0
                l(2) =   0
                l(3) =   1
                l(4) =   1
                l(5) =   2
                l(6) =   2
     Q(r) pseudized with  8 coefficients,  rinner =    2.000   2.000   2.000
                                                       2.000   2.000

     PseudoPot. # 2 for Zn read from file:
     /afs/slac.stanford.edu/u/if/mamunm/psp/gbrv1.5pbe/Zn.UPF
     MD5 check sum: df62231357ef9e81f77b2b3087fa5675
     Pseudo is Ultrasoft, Zval = 20.0
     Generated by new atomic code, or converted to UPF format
     Using radial grid of  943 points,  6 beta functions with:
                l(1) =   0
                l(2) =   0
                l(3) =   1
                l(4) =   1
                l(5) =   2
                l(6) =   2
     Q(r) pseudized with  8 coefficients,  rinner =    1.100   1.100   1.100
                                                       1.100   1.100

     vdW kernel table read from file vdW_kernel_table
     MD5 check sum: 095c7af220d748ca6e76c0b4c6cfb241

     atomic species   valence    mass     pseudopotential
        Hg1           12.00   200.59200     Hg( 1.00)
        Zn1           20.00    65.38000     Zn( 1.00)

     No symmetry found

   Cartesian axes

     site n.     atom                  positions (alat units)
         1           Hg1 tau(   1) = (   0.0000000   0.0000000  10.0000000  )
         2           Hg1 tau(   2) = (  -1.8507794   3.2056440  10.0000000  )
         3           Hg1 tau(   3) = (   1.8507794   3.2056440  10.0000000  )
         4           Zn1 tau(   4) = (   3.7015589   0.0000000  10.0000000  )
         5           Hg1 tau(   5) = (   3.7015589   2.1370960  13.0223102  )
         6           Hg1 tau(   6) = (   1.8507794   5.3427401  13.0223102  )
         7           Hg1 tau(   7) = (  -1.8507794   5.3427401  13.0223102  )
         8           Zn1 tau(   8) = (   0.0000000   2.1370960  13.0223102  )
         9           Hg1 tau(   9) = (  -0.0000000   4.2741921  16.0446204  )
        10           Hg1 tau(  10) = (   1.8507794   1.0685480  16.0446204  )
        11           Hg1 tau(  11) = (   5.5523383   1.0685480  16.0446204  )
        12           Zn1 tau(  12) = (   3.7015589   4.2741921  16.0446204  )

     number of k points=    20  Fermi-Dirac smearing, width (Ry)=  0.0110
                       cart. coord. in units 2pi/alat
        k(    1) = (   0.0000000   0.0000000   0.0000000), wk =   0.0555556
        k(    2) = (   0.0000000   0.0259958   0.0000000), wk =   0.1111111
        k(    3) = (   0.0000000   0.0519916   0.0000000), wk =   0.1111111
        k(    4) = (   0.0000000  -0.0779874   0.0000000), wk =   0.0555556
        k(    5) = (   0.0225130   0.0129979   0.0000000), wk =   0.1111111
        k(    6) = (   0.0225130   0.0389937   0.0000000), wk =   0.1111111
        k(    7) = (   0.0225130   0.0649895   0.0000000), wk =   0.1111111
        k(    8) = (   0.0225130  -0.0649895   0.0000000), wk =   0.1111111
        k(    9) = (   0.0225130  -0.0389937   0.0000000), wk =   0.1111111
        k(   10) = (   0.0225130  -0.0129979   0.0000000), wk =   0.1111111
        k(   11) = (   0.0450261   0.0259958   0.0000000), wk =   0.1111111
        k(   12) = (   0.0450261   0.0519916   0.0000000), wk =   0.1111111
        k(   13) = (   0.0450261   0.0779874   0.0000000), wk =   0.1111111
        k(   14) = (   0.0450261  -0.0519916   0.0000000), wk =   0.1111111
        k(   15) = (   0.0450261  -0.0259958   0.0000000), wk =   0.1111111
        k(   16) = (   0.0450261  -0.0000000   0.0000000), wk =   0.1111111
        k(   17) = (  -0.0675391  -0.0389937   0.0000000), wk =   0.0555556
        k(   18) = (  -0.0675391  -0.0129979   0.0000000), wk =   0.1111111
        k(   19) = (  -0.0675391   0.0129979   0.0000000), wk =   0.1111111
        k(   20) = (  -0.0675391  -0.1169812   0.0000000), wk =   0.0555556

     Largest allocated arrays     est. size (Mb)     dimensions
     Largest temporary arrays     est. size (Mb)     dimensions

     Initial potential from superposition of free atoms
     Check: negative starting charge=   -0.000562

     starting charge  167.99905, renormalised to  168.00000

     negative rho (up, down):  5.615E-04 0.000E+00

     *
     * You are using vdW-DF for exchange-correlation in this calculation.
     * Please cite the following three references that made this development
     * possible:
     *
     *   M. Dion, H. Rydberg, E. Schroder, D. C. Langreth, and
     *   B. I. Lundqvist, Phys. Rev. Lett. 92, 246401 (2004).
     *
     *   T. Thonhauser, V. R. Cooper, S. Li, A. Puzder, P. Hyldgaard, and
     *   D. C. Langreth, Phys. Rev. B 76, 125112 (2007).
     *
     *   G. Roman-Perez and J. M. Soler, Phys. Rev. Lett. 103, 096102 (2009).
     *
     *
     * If you are using vdW-DF2, please also cite:
     *
     *   K. Lee, E. D. Murray, L. Kong, B. I. Lundqvist, and
     *   D. C. Langreth, Phys. Rev. B 82, 081101(R) (2010).
     *
     *
     * If you are calculating the stress with vdW-DF, please also cite:
     *
     *   R. Sabatini, E. Kucukbenli, B. Kolb, T. Thonhauser, and
     *   S. de Gironcoli, J. Phys.: Condens. Matter 24, 424209 (2012).
     *

     Carrying out vdW-DF run using the following parameters:

     Nqs =      20    Nr_points =    1024   r_max =   100.000
     q_mesh =
               0.00001000     0.04494208     0.09755937     0.15916263
               0.23128650     0.31572767     0.41458969     0.53033537
               0.66584808     0.82450364     1.01025438     1.22772762
               1.48234092     1.78043706     2.12944203     2.53805004
               3.01644009     3.57652955     4.23227104     5.00000000

     Gradients computed in reciprocal space

     Adding external electric field

     Computed dipole along edir(3) :
        Dipole               -0.0000 Ry au,         -0.0000 Debye
        Dipole field         -0.0000 Ry au

        Potential amp.        0.0000 Ry
        Total length         47.9868 bohr

     Starting wfc are  120 randomized atomic wfcs

     Self-consistent Calculation

     iteration #  1     ecut=    36.75 Ry     beta=0.10
     Davidson diagonalization with overlap
     ethr =  1.00E-02,  avg # of iterations =  9.2

     Threshold (ethr) on eigenvalues was too large:
     Diagonalizing with lowered threshold

     Davidson diagonalization with overlap
     ethr =  3.42E-05,  avg # of iterations =  8.9

[...]

     total energy              =   -2370.27852547 Ry
     Harris-Foulkes estimate   =   -2370.28645261 Ry
     estimated scf accuracy    <       0.04736730 Ry

[...]

     End of self-consistent calculation

          k = 0.0000 0.0000 0.0000 ( 31493 PWs)   bands (ev):

  -126.7020-126.6279-126.6279 -80.8890 -80.8867 -80.8867 -80.8164 -80.8164
   -80.8123 -80.8123 -80.8122 -80.8122  -7.6660  -7.6659  -7.6564  -7.6316
    -7.6316  -7.6176  -7.5870  -7.5870  -7.5701  -7.5701  -7.5574  -7.5469
    -7.5469  -7.5424  -7.5241  -7.5241  -7.4927  -7.4625  -7.4596  -7.4532
    -7.4530  -7.4335  -7.3762  -7.3762  -7.3435  -7.3433  -7.3401  -7.3401
    -7.2845  -7.2795  -7.2795  -7.2757  -7.2359  -7.1848  -7.1848  -7.1361
    -7.1253  -7.1220  -7.1218  -7.0857  -7.0855  -7.0586  -7.0585  -7.0585
    -7.0324  -7.0324  -7.0185  -7.0185  -6.9972  -6.9971  -6.9595  -6.9595
    -6.9439  -6.9439  -6.9406  -6.8954  -6.8687  -6.8687  -6.8164  -6.8109
    -6.7269  -5.7018  -4.3063  -3.4242  -3.4242  -3.0920  -3.0920  -2.7937
    -2.5696  -2.4866  -2.4866  -1.9626  -0.5562  -0.5562  -0.5331  -0.4494
     0.3734   0.3734   0.3969   0.4779   0.4779   0.5267   1.2888   2.6847
     2.9956   3.2570   3.3454   3.4248   3.4249   3.4997   3.4997   3.8768
     3.9279   4.8269   4.8269   4.8912   5.0846   5.0847   5.2338   5.5542
     5.6142   5.6143

[...]

          k =-0.0675-0.0390 0.0000 ( 31314 PWs)   bands (ev):

[...]

     the Fermi energy is    -1.1839 ev

!    total energy              =   -2370.27147425 Ry
     Harris-Foulkes estimate   =   -2370.27659103 Ry
     estimated scf accuracy    <       0.00000098 Ry

     The total energy is the sum of the following terms:

     one-electron contribution =   -9357.70014108 Ry
     hartree contribution      =    4737.27397528 Ry
     xc contribution           =    -493.40510872 Ry
     ewald contribution        =    2743.56080020 Ry
     electric field correction =       0.00000000 Ry
     smearing contrib. (-TS)   =      -0.00099993 Ry

     convergence has been achieved in   9 iterations

 BEEF-vdW xc energy contributions
           1 :   -433.394928278409
           2 :    395.290072075004
           3 :   -331.088907641796
           4 :    258.587022931264
           5 :   -193.393221097156
           6 :    143.627845207366
           7 :   -109.283799829125
           8 :    85.4685881952988
           9 :   -66.8604145869799
          10 :    50.6414558059816
[...]
     Using radial grid of  985 points,  6 beta functions with:
                l(1) =   0
                l(2) =   0
                l(3) =   1
                l(4) =   1
                l(5) =   2
                l(6) =   2
     Q(r) pseudized with  8 coefficients,  rinner =    2.000   2.000   2.000
                                                       2.000   2.000

     PseudoPot. # 2 for Zn read from file:
     /afs/slac.stanford.edu/u/if/mamunm/psp/gbrv1.5pbe/Zn.UPF
     MD5 check sum: df62231357ef9e81f77b2b3087fa5675
     Pseudo is Ultrasoft, Zval = 20.0
     Generated by new atomic code, or converted to UPF format
     Using radial grid of  943 points,  6 beta functions with:
                l(1) =   0
                l(2) =   0
                l(3) =   1
                l(4) =   1
                l(5) =   2
                l(6) =   2
     Q(r) pseudized with  8 coefficients,  rinner =    1.100   1.100   1.100
                                                       1.100   1.100

     vdW kernel table read from file vdW_kernel_table
     MD5 check sum: 095c7af220d748ca6e76c0b4c6cfb241

     atomic species   valence    mass     pseudopotential
        Hg1           12.00   200.59200     Hg( 1.00)
        Zn1           20.00    65.38000     Zn( 1.00)

     No symmetry found

   Cartesian axes

     site n.     atom                  positions (alat units)
         1           Hg1 tau(   1) = (   0.0000000   0.0000000  10.0000000  )
         2           Hg1 tau(   2) = (  -1.8507794   3.2056440  10.0000000  )
         3           Hg1 tau(   3) = (   1.8507794   3.2056440  10.0000000  )
         4           Zn1 tau(   4) = (   3.7015589   0.0000000  10.0000000  )
         5           Hg1 tau(   5) = (   3.7015589   2.1370960  13.0223102  )
         6           Hg1 tau(   6) = (   1.8507794   5.3427401  13.0223102  )
         7           Hg1 tau(   7) = (  -1.8507794   5.3427401  13.0223102  )
         8           Zn1 tau(   8) = (   0.0000000   2.1370960  13.0223102  )
         9           Hg1 tau(   9) = (  -0.0000062   4.2341052  16.1148835  )
        10           Hg1 tau(  10) = (   1.8164256   1.0888086  16.1146821  )
        11           Hg1 tau(  11) = (   5.5862019   1.0887536  16.1143315  )
        12           Zn1 tau(  12) = (   3.7013359   4.2739827  15.8229385  )

     number of k points=    20  Fermi-Dirac smearing, width (Ry)=  0.0110
                       cart. coord. in units 2pi/alat
        k(    1) = (   0.0000000   0.0000000   0.0000000), wk =   0.0555556
        k(    2) = (   0.0000000   0.0259958   0.0000000), wk =   0.1111111
        k(    3) = (   0.0000000   0.0519916   0.0000000), wk =   0.1111111
        k(    4) = (   0.0000000  -0.0779874   0.0000000), wk =   0.0555556
        k(    5) = (   0.0225130   0.0129979   0.0000000), wk =   0.1111111
        k(    6) = (   0.0225130   0.0389937   0.0000000), wk =   0.1111111
        k(    7) = (   0.0225130   0.0649895   0.0000000), wk =   0.1111111
        k(    8) = (   0.0225130  -0.0649895   0.0000000), wk =   0.1111111
        k(    9) = (   0.0225130  -0.0389937   0.0000000), wk =   0.1111111
        k(   10) = (   0.0225130  -0.0129979   0.0000000), wk =   0.1111111
        k(   11) = (   0.0450261   0.0259958   0.0000000), wk =   0.1111111
        k(   12) = (   0.0450261   0.0519916   0.0000000), wk =   0.1111111
        k(   13) = (   0.0450261   0.0779874   0.0000000), wk =   0.1111111
        k(   14) = (   0.0450261  -0.0519916   0.0000000), wk =   0.1111111
        k(   15) = (   0.0450261  -0.0259958   0.0000000), wk =   0.1111111
        k(   16) = (   0.0450261  -0.0000000   0.0000000), wk =   0.1111111
        k(   17) = (  -0.0675391  -0.0389937   0.0000000), wk =   0.0555556
        k(   18) = (  -0.0675391  -0.0129979   0.0000000), wk =   0.1111111
        k(   19) = (  -0.0675391   0.0129979   0.0000000), wk =   0.1111111
        k(   20) = (  -0.0675391  -0.1169812   0.0000000), wk =   0.0555556

     Largest allocated arrays     est. size (Mb)     dimensions
     Largest temporary arrays     est. size (Mb)     dimensions

     Initial potential from superposition of free atoms
     Check: negative starting charge=   -0.000557

     starting charge  167.99905, renormalised to  168.00000

[...]

     *
     * You are using vdW-DF for exchange-correlation in this calculation.
     * Please cite the following three references that made this development
     * possible:
     *
     *   M. Dion, H. Rydberg, E. Schroder, D. C. Langreth, and
     *   B. I. Lundqvist, Phys. Rev. Lett. 92, 246401 (2004).
     *
     *   T. Thonhauser, V. R. Cooper, S. Li, A. Puzder, P. Hyldgaard, and
     *   D. C. Langreth, Phys. Rev. B 76, 125112 (2007).
     *
     *   G. Roman-Perez and J. M. Soler, Phys. Rev. Lett. 103, 096102 (2009).
     *
     *
     * If you are using vdW-DF2, please also cite:
     *
     *   K. Lee, E. D. Murray, L. Kong, B. I. Lundqvist, and
     *   D. C. Langreth, Phys. Rev. B 82, 081101(R) (2010).
     *
     *
     * If you are calculating the stress with vdW-DF, please also cite:
     *
     *   R. Sabatini, E. Kucukbenli, B. Kolb, T. Thonhauser, and
     *   S. de Gironcoli, J. Phys.: Condens. Matter 24, 424209 (2012).
     *

     Carrying out vdW-DF run using the following parameters:

     Nqs =      20    Nr_points =    1024   r_max =   100.000
     q_mesh =
               0.00001000     0.04494208     0.09755937     0.15916263
               0.23128650     0.31572767     0.41458969     0.53033537
               0.66584808     0.82450364     1.01025438     1.22772762
               1.48234092     1.78043706     2.12944203     2.53805004
               3.01644009     3.57652955     4.23227104     5.00000000

     Gradients computed in reciprocal space

[...]

     Starting wfc are  120 randomized atomic wfcs

     Self-consistent Calculation

[...]

     Threshold (ethr) on eigenvalues was too large:
     Diagonalizing with lowered threshold

     Davidson diagonalization with overlap
     ethr =  3.43E-05,  avg # of iterations =  8.5

[...]

     total energy              =   -2370.28177381 Ry
     Harris-Foulkes estimate   =   -2370.28177124 Ry
     estimated scf accuracy    <       0.00000192 Ry

     iteration # 10     ecut=    36.75 Ry     beta=0.10
     Davidson diagonalization with overlap
     ethr =  1.15E-09,  avg # of iterations =  2.8

[...]

     negative rho (up, down):  7.070E-04 0.000E+00

     Adding external electric field

     Computed dipole along edir(3) :
        Dipole               -0.0012 Ry au,         -0.0031 Debye
        Dipole field         -0.0000 Ry au

        Potential amp.        0.0002 Ry
        Total length         47.9868 bohr

     End of self-consistent calculation

[...]

          k = 0.0450-0.0000 0.0000 ( 31423 PWs)   bands (ev):

[...]

          k =-0.0675-0.1170 0.0000 ( 31314 PWs)   bands (ev):

  -126.7094-126.6526-126.6324 -80.8967 -80.8938 -80.8937 -80.8397 -80.8374
   -80.8373 -80.8208 -80.8168 -80.8167  -7.6427  -7.6269  -7.6183  -7.6104
    -7.6091  -7.5974  -7.5807  -7.5806  -7.5641  -7.5560  -7.5515  -7.5372
    -7.5328  -7.5310  -7.5283  -7.4935  -7.4188  -7.4139  -7.3855  -7.3762
    -7.3456  -7.3333  -7.3261  -7.3235  -7.3206  -7.3177  -7.3011  -7.2729
    -7.2495  -7.2434  -7.2172  -7.2097  -7.1946  -7.1565  -7.1555  -7.1471
    -7.1442  -7.1375  -7.1289  -7.1272  -7.1212  -7.1184  -7.1081  -7.0992
    -7.0962  -7.0922  -7.0899  -7.0813  -7.0809  -7.0746  -7.0599  -7.0444
    -7.0366  -7.0319  -7.0255  -7.0065  -6.9837  -6.9552  -6.8960  -6.8651
    -5.7951  -5.6802  -4.8556  -4.7018  -3.9322  -3.9206  -3.5552  -3.2216
    -3.1870  -2.7446  -2.4085  -2.0219   0.5812   0.6126   0.9860   1.0249
     1.0775   1.1558   1.7809   1.7898   2.0013   2.0452   2.1035   2.1574
     2.9882   3.0909   3.1467   3.2090   3.4599   3.4674   3.5670   3.6592
     3.9116   3.9251   3.9588   3.9633   4.0057   4.0951   4.1106   4.2094
     4.6281   4.6522

     the Fermi energy is    -1.1772 ev

!    total energy              =   -2370.28178608 Ry
     Harris-Foulkes estimate   =   -2370.28177461 Ry
     estimated scf accuracy    <       0.00000089 Ry

     The total energy is the sum of the following terms:

     one-electron contribution =   -9393.40171475 Ry
     hartree contribution      =    4755.11457962 Ry
     xc contribution           =    -493.41934215 Ry
     ewald contribution        =    2761.42573280 Ry
     electric field correction =       0.00000000 Ry
     smearing contrib. (-TS)   =      -0.00104161 Ry

     convergence has been achieved in  10 iterations

 BEEF-vdW xc energy contributions
           1 :   -433.683660370712
           2 :    395.577067050907
           3 :   -331.377549446855
           4 :    258.881548184537
           5 :   -193.691633184236
           6 :    143.922107369814
           7 :   -109.567804023499
           8 :    85.7452533328624
           9 :   -67.1400155591102
          10 :    50.9321739404850
          11 :   -37.0353911266811
          12 :    26.4050601054485
          13 :   -19.2083518290359
          14 :    14.2591396768399
          15 :   -9.84730247237667
          16 :    4.99205347214559
          17 :  -1.159945903270909E-002
          18 :   -3.96303164581389
          19 :    6.01737825575572
          20 :   -6.18683291671346
          21 :    5.39836002017330
          22 :   -4.78032724639047
          23 :    4.93626071137083
          24 :   -5.71188115716456
          25 :    6.53135869892202
          26 :   -6.94383736936618
          27 :    6.92456127446735
          28 :   -6.75053418024936
          29 :    6.64466693544966
          30 :   -6.54509058914743
          31 :   -38.4530945020579
          32 :   -27.3182373120151

     Forces acting on atoms (Ry/au):

     negative rho (up, down):  7.070E-04 0.000E+00
     atom    1 type  1   force =     0.00000888    0.00026264   -0.00117471
     atom    2 type  1   force =     0.00023022   -0.00012704   -0.00116993
     atom    3 type  1   force =    -0.00022585   -0.00013561   -0.00116525
     atom    4 type  2   force =    -0.00000372   -0.00001142    0.00175127
     atom    5 type  1   force =    -0.00000679   -0.00056748    0.00008818
     atom    6 type  1   force =    -0.00049124    0.00028342    0.00009701
     atom    7 type  1   force =     0.00049647    0.00029312    0.00009287
     atom    8 type  2   force =     0.00000731   -0.00000780    0.00029196
     atom    9 type  1   force =    -0.00000465    0.00119551    0.00079988
     atom   10 type  1   force =     0.00102287   -0.00060564    0.00080040
     atom   11 type  1   force =    -0.00102230   -0.00059524    0.00080064
     atom   12 type  2   force =    -0.00001121    0.00001552   -0.00121231

     Total force =     0.004013     Total SCF correction =     0.001962
     SCF correction compared to forces is large: reduce conv_thr to get better values

     entering subroutine stress ...

     negative rho (up, down):  7.070E-04 0.000E+00
          total   stress  (Ry/bohr**3)                   (kbar)     P=    0.73
   0.00000669  -0.00000000   0.00000000          0.98     -0.00      0.00
  -0.00000000   0.00000669  -0.00000000         -0.00      0.98     -0.00
   0.00000000  -0.00000000   0.00000158          0.00     -0.00      0.23

 !ASE

     Writing output data file calc.save

     General routines

     Parallel routines

   This run was terminated on:  13:56:35  26Dec2018

   JOB DONE.
Job  /afs/slac/g/suncat/bin/suncat-tsmpirun -x LD_LIBRARY_PATH -wdir /scratch/qe109848_hdIiX pw.x -in pw.inp

TID   HOST_NAME   COMMAND_LINE            STATUS            TERMINATION_TIME
00000 suncat0108 pw.x -in pw.inp   Done                     12/26/2018 13:56:35
00001 suncat0108 pw.x -in pw.inp   Done                     12/26/2018 13:56:35
00002 suncat0108 pw.x -in pw.inp   Done                     12/26/2018 13:56:35
00003 suncat0108 pw.x -in pw.inp   Done                     12/26/2018 13:56:35
00004 suncat0108 pw.x -in pw.inp   Done                     12/26/2018 13:56:35
00005 suncat0108 pw.x -in pw.inp   Done                     12/26/2018 13:56:35
00006 suncat0108 pw.x -in pw.inp   Done                     12/26/2018 13:56:35
00007 suncat0108 pw.x -in pw.inp   Done                     12/26/2018 13:56:35
00008 suncat0107 pw.x -in pw.inp   Done                     12/26/2018 13:56:35
00009 suncat0107 pw.x -in pw.inp   Done                     12/26/2018 13:56:35
00010 suncat0107 pw.x -in pw.inp   Done                     12/26/2018 13:56:35
00011 suncat0107 pw.x -in pw.inp   Done                     12/26/2018 13:56:35
00012 suncat0107 pw.x -in pw.inp   Done                     12/26/2018 13:56:35
00013 suncat0107 pw.x -in pw.inp   Done                     12/26/2018 13:56:35
00014 suncat0107 pw.x -in pw.inp   Done                     12/26/2018 13:56:35
00015 suncat0107 pw.x -in pw.inp   Done                     12/26/2018 13:56:35
00016 suncat0106 pw.x -in pw.inp   Done                     12/26/2018 13:56:35
00017 suncat0106 pw.x -in pw.inp   Done                     12/26/2018 13:56:35
00018 suncat0106 pw.x -in pw.inp   Done                     12/26/2018 13:56:35
00019 suncat0106 pw.x -in pw.inp   Done                     12/26/2018 13:56:35
00020 suncat0106 pw.x -in pw.inp   Done                     12/26/2018 13:56:35
00021 suncat0106 pw.x -in pw.inp   Done                     12/26/2018 13:56:35
00022 suncat0106 pw.x -in pw.inp   Done                     12/26/2018 13:56:35
00023 suncat0106 pw.x -in pw.inp   Done                     12/26/2018 13:56:35
00024 suncat0105 pw.x -in pw.inp   Done                     12/26/2018 13:56:35
00025 suncat0105 pw.x -in pw.inp   Done                     12/26/2018 13:56:35
00026 suncat0105 pw.x -in pw.inp   Done                     12/26/2018 13:56:35
00027 suncat0105 pw.x -in pw.inp   Done                     12/26/2018 13:56:35
00028 suncat0105 pw.x -in pw.inp   Done                     12/26/2018 13:56:35
00029 suncat0105 pw.x -in pw.inp   Done                     12/26/2018 13:56:35
00030 suncat0105 pw.x -in pw.inp   Done                     12/26/2018 13:56:35
00031 suncat0105 pw.x -in pw.inp   Done                     12/26/2018 13:56:35
00032 suncat0238 pw.x -in pw.inp   Done                     12/26/2018 13:56:35
00033 suncat0238 pw.x -in pw.inp   Done                     12/26/2018 13:56:35
00034 suncat0238 pw.x -in pw.inp   Done                     12/26/2018 13:56:35
00035 suncat0238 pw.x -in pw.inp   Done                     12/26/2018 13:56:35
00036 suncat0238 pw.x -in pw.inp   Done                     12/26/2018 13:56:35
00037 suncat0238 pw.x -in pw.inp   Done                     12/26/2018 13:56:35
00038 suncat0238 pw.x -in pw.inp   Done                     12/26/2018 13:56:35
00039 suncat0238 pw.x -in pw.inp   Done                     12/26/2018 13:56:35
00040 suncat0237 pw.x -in pw.inp   Done                     12/26/2018 13:56:35
00041 suncat0237 pw.x -in pw.inp   Done                     12/26/2018 13:56:35
00042 suncat0237 pw.x -in pw.inp   Done                     12/26/2018 13:56:35
00043 suncat0237 pw.x -in pw.inp   Done                     12/26/2018 13:56:35
00044 suncat0237 pw.x -in pw.inp   Done                     12/26/2018 13:56:35
00045 suncat0237 pw.x -in pw.inp   Done                     12/26/2018 13:56:35
00046 suncat0237 pw.x -in pw.inp   Done                     12/26/2018 13:56:35
00047 suncat0237 pw.x -in pw.inp   Done                     12/26/2018 13:56:35
00048 suncat0236 pw.x -in pw.inp   Done                     12/26/2018 13:56:35
00049 suncat0236 pw.x -in pw.inp   Done                     12/26/2018 13:56:35
00050 suncat0236 pw.x -in pw.inp   Done                     12/26/2018 13:56:35
00051 suncat0236 pw.x -in pw.inp   Done                     12/26/2018 13:56:35
00052 suncat0236 pw.x -in pw.inp   Done                     12/26/2018 13:56:35
00053 suncat0236 pw.x -in pw.inp   Done                     12/26/2018 13:56:35
00054 suncat0236 pw.x -in pw.inp   Done                     12/26/2018 13:56:35
00055 suncat0236 pw.x -in pw.inp   Done                     12/26/2018 13:56:35
00056 suncat0235 pw.x -in pw.inp   Done                     12/26/2018 13:56:35
00057 suncat0235 pw.x -in pw.inp   Done                     12/26/2018 13:56:35
00058 suncat0235 pw.x -in pw.inp   Done                     12/26/2018 13:56:35
00059 suncat0235 pw.x -in pw.inp   Done                     12/26/2018 13:56:35
00060 suncat0235 pw.x -in pw.inp   Done                     12/26/2018 13:56:35
00061 suncat0235 pw.x -in pw.inp   Done                     12/26/2018 13:56:35
00062 suncat0235 pw.x -in pw.inp   Done                     12/26/2018 13:56:35
00063 suncat0235 pw.x -in pw.inp   Done                     12/26/2018 13:56:35