     Program PWSCF v.5.1rc2 (svn rev. 11289) starts on 26Dec2018 at  2:49:50

     Current dimensions of program PWSCF are:
     Max number of different atomic species (ntypx) = 10
     Max number of k-points (npk) =  40000
     Max angular momentum in pseudopotentials (lmaxx) =  3
     Presently stress not available with electric field

     IMPORTANT: XC functional enforced from input :
     Exchange-correlation      = BEEF-VDW ( 1  4 27 13 2)
     Any further DFT definition will be discarded
     Please, verify this is what you really want

     Subspace diagonalization in iterative solution of the eigenvalue problem:
     a serial algorithm will be used

     bravais-lattice index     =            0
     lattice parameter (alat)  =       1.8897  a.u.
     unit-cell volume          =    4493.0288 (a.u.)^3
     number of atoms/cell      =           12
     number of atomic types    =            2
     number of electrons       =       216.00
     number of Kohn-Sham states=          138
     kinetic-energy cutoff     =      36.7493  Ry
     charge density cutoff     =     367.4932  Ry
     convergence threshold     =      1.0E-06
     mixing beta               =       0.1000
     number of iterations used =           10  plain     mixing
     Exchange-correlation      = BEEF-VDW ( 1  4 27 13 2)
     nstep                     =           50

     celldm(1)=   1.889726  celldm(2)=   0.000000  celldm(3)=   0.000000
     celldm(4)=   0.000000  celldm(5)=   0.000000  celldm(6)=   0.000000

     crystal axes: (cart. coord. in units of alat)
               a(1) = (   5.594038   0.000000   0.000000 )
               a(2) = (  -2.797019   4.844579   0.000000 )
               a(3) = (   0.000000   0.000000  24.567513 )

     reciprocal axes: (cart. coord. in units 2 pi/alat)
               b(1) = (  0.178762  0.103208  0.000000 )
               b(2) = (  0.000000  0.206416  0.000000 )
               b(3) = (  0.000000  0.000000  0.040704 )

     PseudoPot. # 1 for Ga read from file:
     /afs/slac.stanford.edu/u/if/mamunm/psp/gbrv1.5pbe/Ga.UPF
     MD5 check sum: ccd671392a58a050fbb373893b4fcd66
     Pseudo is Ultrasoft + core correction, Zval = 19.0
     Generated by new atomic code, or converted to UPF format
     Using radial grid of  871 points,  6 beta functions with:
                l(1) =   0
                l(2) =   0
                l(3) =   1
                l(4) =   1
                l(5) =   2
                l(6) =   2
     Q(r) pseudized with  8 coefficients,  rinner =    1.250   1.250   1.250
                                                       1.250   1.250

     PseudoPot. # 2 for Re read from file:
     /afs/slac.stanford.edu/u/if/mamunm/psp/gbrv1.5pbe/Re.UPF
     MD5 check sum: 85f993410f3e006da9d71c142b4ad953
     Pseudo is Ultrasoft + core correction, Zval = 15.0
     Generated by new atomic code, or converted to UPF format
     Using radial grid of  981 points,  8 beta functions with:
                l(1) =   0
                l(2) =   0
                l(3) =   1
                l(4) =   1
                l(5) =   2
                l(6) =   2
                l(7) =   3
                l(8) =   3
     Q(r) pseudized with  8 coefficients,  rinner =    1.150   1.150   1.150
                                                       1.150   1.150   1.150
                                                       1.150

     vdW kernel table read from file vdW_kernel_table
     MD5 check sum: 095c7af220d748ca6e76c0b4c6cfb241

     atomic species   valence    mass     pseudopotential
        Ga1           19.00    69.72300     Ga( 1.00)
        Re1           15.00   186.20700     Re( 1.00)

     No symmetry found

   Cartesian axes

     site n.     atom                  positions (alat units)
         1           Ga1 tau(   1) = (   0.0000000   0.0000000  10.0000000  )
         2           Ga1 tau(   2) = (  -1.3985094   2.4222894  10.0000000  )
         3           Ga1 tau(   3) = (   1.3985094   2.4222894  10.0000000  )
         4           Re1 tau(   4) = (   2.7970189   0.0000000  10.0000000  )
         5           Ga1 tau(   5) = (   2.7970189   1.6148596  12.2837563  )
         6           Ga1 tau(   6) = (   1.3985094   4.0371490  12.2837563  )
         7           Ga1 tau(   7) = (  -1.3985094   4.0371490  12.2837563  )
         8           Re1 tau(   8) = (   0.0000000   1.6148596  12.2837563  )
         9           Ga1 tau(   9) = (  -0.0000000   3.2297192  14.5675127  )
        10           Ga1 tau(  10) = (   1.3985094   0.8074298  14.5675127  )
        11           Ga1 tau(  11) = (   4.1955283   0.8074298  14.5675127  )
        12           Re1 tau(  12) = (   2.7970189   3.2297192  14.5675127  )

     number of k points=    20  Fermi-Dirac smearing, width (Ry)=  0.0110
                       cart. coord. in units 2pi/alat
        k(    1) = (   0.0000000   0.0000000   0.0000000), wk =   0.0555556
        k(    2) = (   0.0000000   0.0344027   0.0000000), wk =   0.1111111
        k(    3) = (   0.0000000   0.0688054   0.0000000), wk =   0.1111111
        k(    4) = (   0.0000000  -0.1032081   0.0000000), wk =   0.0555556
        k(    5) = (   0.0297936   0.0172014   0.0000000), wk =   0.1111111
        k(    6) = (   0.0297936   0.0516041   0.0000000), wk =   0.1111111
        k(    7) = (   0.0297936   0.0860068   0.0000000), wk =   0.1111111
        k(    8) = (   0.0297936  -0.0860068   0.0000000), wk =   0.1111111
        k(    9) = (   0.0297936  -0.0516041   0.0000000), wk =   0.1111111
        k(   10) = (   0.0297936  -0.0172014   0.0000000), wk =   0.1111111
        k(   11) = (   0.0595873   0.0344027   0.0000000), wk =   0.1111111
        k(   12) = (   0.0595873   0.0688054   0.0000000), wk =   0.1111111
        k(   13) = (   0.0595873   0.1032081   0.0000000), wk =   0.1111111
        k(   14) = (   0.0595873  -0.0688054   0.0000000), wk =   0.1111111
        k(   15) = (   0.0595873  -0.0344027   0.0000000), wk =   0.1111111
        k(   16) = (   0.0595873   0.0000000   0.0000000), wk =   0.1111111
        k(   17) = (  -0.0893809  -0.0516041   0.0000000), wk =   0.0555556
        k(   18) = (  -0.0893809  -0.0172014   0.0000000), wk =   0.1111111
        k(   19) = (  -0.0893809   0.0172014   0.0000000), wk =   0.1111111
        k(   20) = (  -0.0893809  -0.1548122   0.0000000), wk =   0.0555556

     Largest allocated arrays     est. size (Mb)     dimensions
     Largest temporary arrays     est. size (Mb)     dimensions

     Initial potential from superposition of free atoms
     Check: negative starting charge=   -0.385654

     starting charge  205.49986, renormalised to  216.00000

     negative rho (up, down):  4.054E-01 0.000E+00

     *
     * You are using vdW-DF for exchange-correlation in this calculation.
     * Please cite the following three references that made this development
     * possible:
     *
     *   M. Dion, H. Rydberg, E. Schroder, D. C. Langreth, and
     *   B. I. Lundqvist, Phys. Rev. Lett. 92, 246401 (2004).
     *
     *   T. Thonhauser, V. R. Cooper, S. Li, A. Puzder, P. Hyldgaard, and
     *   D. C. Langreth, Phys. Rev. B 76, 125112 (2007).
     *
     *   G. Roman-Perez and J. M. Soler, Phys. Rev. Lett. 103, 096102 (2009).
     *
     *
     * If you are using vdW-DF2, please also cite:
     *
     *   K. Lee, E. D. Murray, L. Kong, B. I. Lundqvist, and
     *   D. C. Langreth, Phys. Rev. B 82, 081101(R) (2010).
     *
     *
     * If you are calculating the stress with vdW-DF, please also cite:
     *
     *   R. Sabatini, E. Kucukbenli, B. Kolb, T. Thonhauser, and
     *   S. de Gironcoli, J. Phys.: Condens. Matter 24, 424209 (2012).
     *

     Carrying out vdW-DF run using the following parameters:

     Nqs =      20    Nr_points =    1024   r_max =   100.000
     q_mesh =
               0.00001000     0.04494208     0.09755937     0.15916263
               0.23128650     0.31572767     0.41458969     0.53033537
               0.66584808     0.82450364     1.01025438     1.22772762
               1.48234092     1.78043706     2.12944203     2.53805004
               3.01644009     3.57652955     4.23227104     5.00000000

     Gradients computed in reciprocal space

     Adding external electric field

     Computed dipole along edir(3) :
        Dipole               -0.0000 Ry au,         -0.0000 Debye
        Dipole field         -0.0000 Ry au

        Potential amp.        0.0000 Ry
        Total length         45.2652 bohr

     Starting wfc are  147 randomized atomic wfcs

     Self-consistent Calculation

     iteration #  1     ecut=    36.75 Ry     beta=0.10
     Davidson diagonalization with overlap
     ethr =  1.00E-02,  avg # of iterations =  7.6

[...]

     total energy              =   -4322.62010917 Ry
     Harris-Foulkes estimate   =   -4341.55242465 Ry
     estimated scf accuracy    <     104.94302974 Ry

[...]

     End of self-consistent calculation

          k = 0.0000 0.0000 0.0000 ( 16835 PWs)   bands (ev):

   -93.9263 -93.9224 -93.9224 -93.8539 -93.8539 -93.8517 -93.8495 -93.8473
   -93.8473 -93.7622 -93.7621 -93.7590 -93.7590 -93.7588 -93.7588 -93.7278
   -93.7277 -93.7253 -93.7253 -93.7251 -93.7251 -93.6790 -93.6790 -93.6789
   -93.6789 -93.6770 -93.6769 -79.2195 -79.2195 -79.0410 -40.9573 -40.9573
   -40.9572 -40.9572 -40.8506 -40.8501 -40.8246 -40.8246 -40.7057 -14.5315
   -14.4727 -14.4727 -14.4719 -14.3617 -14.3441 -14.3387 -14.3387 -14.3350
   -14.3022 -14.3022 -14.2473 -14.2473 -14.2314 -14.2174 -14.2133 -14.2133
   -14.1746 -14.1746 -14.1553 -14.1553 -14.1535 -14.1357 -14.1072 -14.1072
   -14.0995 -14.0231 -14.0231 -14.0093 -14.0093 -13.9915 -13.9915 -13.9908
   -13.9908 -13.9898 -13.9839 -13.9629 -13.9629 -13.9551 -13.9551 -13.9139
   -13.9087 -13.9087 -13.8130 -13.8125 -10.3969  -8.4993  -6.1672  -5.0120
    -5.0120  -4.1284  -4.1284  -3.5212  -3.2743  -3.2743  -2.8028  -2.0363
    -1.9399  -1.9399  -1.2119  -0.4052  -0.4052  -0.2072   0.0489   0.0489
     0.3393   0.3393   0.5078   0.5078   0.8014   1.2462   1.3359   1.3359
     2.0378   2.7257   2.7257   2.7668   2.7668   3.0364   3.4803   3.5329
     3.5329   4.3150   4.9943   5.5119   5.9856   6.0259   6.0259   6.4560
     6.4858   6.4858   6.7043   7.0105   7.0463   8.1640   8.3546   8.5638
     8.5638   8.9319

[...]

          k =-0.0894-0.0516 0.0000 ( 16920 PWs)   bands (ev):

[...]

     the Fermi energy is     1.1388 ev

!    total energy              =   -4325.50798974 Ry
     Harris-Foulkes estimate   =   -4325.50798434 Ry
     estimated scf accuracy    <       0.00000072 Ry

     The total energy is the sum of the following terms:

     one-electron contribution =  -28074.98676909 Ry
     hartree contribution      =   14039.27170372 Ry
     xc contribution           =    -610.35449793 Ry
     ewald contribution        =   10320.60985674 Ry
     electric field correction =       0.00000001 Ry
     smearing contrib. (-TS)   =      -0.04828317 Ry

     convergence has been achieved in  17 iterations

 BEEF-vdW xc energy contributions
           1 :   -544.440206177049
           2 :    497.903698619197
           3 :   -418.505519961673
           4 :    327.291584290407
           5 :   -243.777812532454
[...]
                l(1) =   0
                l(2) =   0
                l(3) =   1
                l(4) =   1
                l(5) =   2
                l(6) =   2
     Q(r) pseudized with  8 coefficients,  rinner =    1.250   1.250   1.250
                                                       1.250   1.250

     PseudoPot. # 2 for Re read from file:
     /afs/slac.stanford.edu/u/if/mamunm/psp/gbrv1.5pbe/Re.UPF
     MD5 check sum: 85f993410f3e006da9d71c142b4ad953
     Pseudo is Ultrasoft + core correction, Zval = 15.0
     Generated by new atomic code, or converted to UPF format
     Using radial grid of  981 points,  8 beta functions with:
                l(1) =   0
                l(2) =   0
                l(3) =   1
                l(4) =   1
                l(5) =   2
                l(6) =   2
                l(7) =   3
                l(8) =   3
     Q(r) pseudized with  8 coefficients,  rinner =    1.150   1.150   1.150
                                                       1.150   1.150   1.150
                                                       1.150

     vdW kernel table read from file vdW_kernel_table
     MD5 check sum: 095c7af220d748ca6e76c0b4c6cfb241

     atomic species   valence    mass     pseudopotential
        Ga1           19.00    69.72300     Ga( 1.00)
        Re1           15.00   186.20700     Re( 1.00)

     No symmetry found

   Cartesian axes

     site n.     atom                  positions (alat units)
         1           Ga1 tau(   1) = (   0.0000000   0.0000000  10.0000000  )
         2           Ga1 tau(   2) = (  -1.3985094   2.4222894  10.0000000  )
         3           Ga1 tau(   3) = (   1.3985094   2.4222894  10.0000000  )
         4           Re1 tau(   4) = (   2.7970189   0.0000000  10.0000000  )
         5           Ga1 tau(   5) = (   2.7970189   1.6148596  12.2837563  )
         6           Ga1 tau(   6) = (   1.3985094   4.0371490  12.2837563  )
         7           Ga1 tau(   7) = (  -1.3985094   4.0371490  12.2837563  )
         8           Re1 tau(   8) = (   0.0000000   1.6148596  12.2837563  )
         9           Ga1 tau(   9) = (  -0.0000193   3.1935515  14.7552259  )
        10           Ga1 tau(  10) = (   1.3672231   0.8255009  14.7552007  )
        11           Ga1 tau(  11) = (   4.2268515   0.8255007  14.7552280  )
        12           Re1 tau(  12) = (   2.7969947   3.2297092  14.3532864  )

     number of k points=    20  Fermi-Dirac smearing, width (Ry)=  0.0110
                       cart. coord. in units 2pi/alat
        k(    1) = (   0.0000000   0.0000000   0.0000000), wk =   0.0555556
        k(    2) = (   0.0000000   0.0344027   0.0000000), wk =   0.1111111
        k(    3) = (   0.0000000   0.0688054   0.0000000), wk =   0.1111111
        k(    4) = (   0.0000000  -0.1032081   0.0000000), wk =   0.0555556
        k(    5) = (   0.0297936   0.0172014   0.0000000), wk =   0.1111111
        k(    6) = (   0.0297936   0.0516041   0.0000000), wk =   0.1111111
        k(    7) = (   0.0297936   0.0860068   0.0000000), wk =   0.1111111
        k(    8) = (   0.0297936  -0.0860068   0.0000000), wk =   0.1111111
        k(    9) = (   0.0297936  -0.0516041   0.0000000), wk =   0.1111111
        k(   10) = (   0.0297936  -0.0172014   0.0000000), wk =   0.1111111
        k(   11) = (   0.0595873   0.0344027   0.0000000), wk =   0.1111111
        k(   12) = (   0.0595873   0.0688054   0.0000000), wk =   0.1111111
        k(   13) = (   0.0595873   0.1032081   0.0000000), wk =   0.1111111
        k(   14) = (   0.0595873  -0.0688054   0.0000000), wk =   0.1111111
        k(   15) = (   0.0595873  -0.0344027   0.0000000), wk =   0.1111111
        k(   16) = (   0.0595873   0.0000000   0.0000000), wk =   0.1111111
        k(   17) = (  -0.0893809  -0.0516041   0.0000000), wk =   0.0555556
        k(   18) = (  -0.0893809  -0.0172014   0.0000000), wk =   0.1111111
        k(   19) = (  -0.0893809   0.0172014   0.0000000), wk =   0.1111111
        k(   20) = (  -0.0893809  -0.1548122   0.0000000), wk =   0.0555556

     Largest allocated arrays     est. size (Mb)     dimensions
     Largest temporary arrays     est. size (Mb)     dimensions

     Initial potential from superposition of free atoms
     Check: negative starting charge=   -0.385951

     starting charge  205.49986, renormalised to  216.00000

[...]

     *
     * You are using vdW-DF for exchange-correlation in this calculation.
     * Please cite the following three references that made this development
     * possible:
     *
     *   M. Dion, H. Rydberg, E. Schroder, D. C. Langreth, and
     *   B. I. Lundqvist, Phys. Rev. Lett. 92, 246401 (2004).
     *
     *   T. Thonhauser, V. R. Cooper, S. Li, A. Puzder, P. Hyldgaard, and
     *   D. C. Langreth, Phys. Rev. B 76, 125112 (2007).
     *
     *   G. Roman-Perez and J. M. Soler, Phys. Rev. Lett. 103, 096102 (2009).
     *
     *
     * If you are using vdW-DF2, please also cite:
     *
     *   K. Lee, E. D. Murray, L. Kong, B. I. Lundqvist, and
     *   D. C. Langreth, Phys. Rev. B 82, 081101(R) (2010).
     *
     *
     * If you are calculating the stress with vdW-DF, please also cite:
     *
     *   R. Sabatini, E. Kucukbenli, B. Kolb, T. Thonhauser, and
     *   S. de Gironcoli, J. Phys.: Condens. Matter 24, 424209 (2012).
     *

     Carrying out vdW-DF run using the following parameters:

     Nqs =      20    Nr_points =    1024   r_max =   100.000
     q_mesh =
               0.00001000     0.04494208     0.09755937     0.15916263
               0.23128650     0.31572767     0.41458969     0.53033537
               0.66584808     0.82450364     1.01025438     1.22772762
               1.48234092     1.78043706     2.12944203     2.53805004
               3.01644009     3.57652955     4.23227104     5.00000000

     Gradients computed in reciprocal space

[...]

     Starting wfc are  147 randomized atomic wfcs

     Self-consistent Calculation

[...]

     total energy              =   -4325.55899255 Ry
     Harris-Foulkes estimate   =   -4325.55899115 Ry
     estimated scf accuracy    <       0.00000227 Ry

     iteration # 18     ecut=    36.75 Ry     beta=0.10
     Davidson diagonalization with overlap
     ethr =  1.05E-09,  avg # of iterations =  1.9

[...]

     negative rho (up, down):  3.780E-01 0.000E+00

     Adding external electric field

     Computed dipole along edir(3) :
        Dipole                0.0986 Ry au,          0.2507 Debye
        Dipole field          0.0003 Ry au

        Potential amp.       -0.0250 Ry
        Total length         45.2652 bohr

     End of self-consistent calculation

[...]

          k = 0.0596 0.0000 0.0000 ( 16892 PWs)   bands (ev):

[...]

          k =-0.0894-0.1548 0.0000 ( 16920 PWs)   bands (ev):

   -93.7929 -93.7915 -93.7902 -93.7354 -93.7346 -93.7343 -93.7190 -93.7182
   -93.7174 -93.7160 -93.7135 -93.7123 -93.7072 -93.7065 -93.7058 -93.6613
   -93.6607 -93.6595 -93.6110 -93.6098 -93.6086 -93.5760 -93.5752 -93.5744
   -93.5298 -93.5291 -93.5283 -79.2298 -79.1144 -78.9474 -40.9868 -40.9864
   -40.8796 -40.8467 -40.8461 -40.7553 -40.7263 -40.7261 -40.6008 -14.3288
   -14.2638 -14.2463 -14.2359 -14.2168 -14.1887 -14.1755 -14.1645 -14.1549
   -14.1535 -14.1389 -14.1227 -14.1161 -14.1130 -14.0952 -14.0773 -14.0649
   -14.0604 -14.0559 -14.0546 -14.0394 -14.0302 -14.0158 -14.0142 -14.0133
   -14.0074 -13.9985 -13.9923 -13.9702 -13.9687 -13.9535 -13.9474 -13.9431
   -13.9286 -13.9048 -13.9013 -13.8958 -13.8902 -13.8781 -13.8780 -13.8674
   -13.8286 -13.8242 -13.8087 -13.7446  -8.6192  -8.2954  -6.7750  -6.6712
    -5.6250  -5.1890  -4.5745  -3.7935  -3.6826  -2.9404  -1.9731  -1.9422
    -1.7333  -1.2382  -1.1180  -1.1030  -1.0272  -0.3710  -0.1667   0.3391
     0.6092   0.9049   1.2330   1.2854   1.5030   1.7927   1.9782   1.9946
     2.4714   2.6647   3.5539   3.7535   3.8343   4.0255   4.1058   4.6775
     4.8430   5.0448   5.0548   5.3307   5.6802   6.2193   6.2246   6.2733
     6.5384   6.8279   7.0160   7.0670   7.3897   7.4962   7.6607   7.7660
     8.0071   8.2391

     the Fermi energy is     1.2519 ev

!    total energy              =   -4325.55899712 Ry
     Harris-Foulkes estimate   =   -4325.55899287 Ry
     estimated scf accuracy    <       0.00000018 Ry

     The total energy is the sum of the following terms:

     one-electron contribution =  -27687.45920178 Ry
     hartree contribution      =   13846.19669266 Ry
     xc contribution           =    -610.32120836 Ry
     ewald contribution        =   10126.07634958 Ry
     electric field correction =       0.00002721 Ry
     smearing contrib. (-TS)   =      -0.05165643 Ry

     convergence has been achieved in  18 iterations

 BEEF-vdW xc energy contributions
           1 :   -545.087884777177
           2 :    498.517980001398
           3 :   -419.070174252708
           4 :    327.815003244666
           5 :   -244.284432789311
           6 :    179.566340084972
           7 :   -134.465733450350
           8 :    102.778718259161
           9 :   -77.0218363757975
          10 :    53.0316949866831
          11 :   -31.1398209141626
          12 :    14.0844140411411
          13 :   -3.79910033020246
          14 :  -0.497182860630573
          15 :    1.81816526527268
          16 :   -3.29902886569539
          17 :    6.24494032604434
          18 :   -9.75123173054294
          19 :    11.9663498894672
          20 :   -11.8561262314199
          21 :    10.0872953993883
          22 :   -8.45657575742905
          23 :    8.43978165043836
          24 :   -10.0567367356166
          25 :    11.9158094078423
          26 :   -12.3461846342537
          27 :    10.6990365332299
          28 :   -7.82254496374276
          29 :    5.39151984623993
          30 :   -4.65346834942784
          31 :   -41.4620910333741
          32 :   -29.0268444559512

     Forces acting on atoms (Ry/au):

     negative rho (up, down):  3.780E-01 0.000E+00
     atom    1 type  1   force =     0.00000407    0.01186557   -0.02461926
     atom    2 type  1   force =     0.01027779   -0.00593443   -0.02462271
     atom    3 type  1   force =    -0.01027784   -0.00593225   -0.02461600
     atom    4 type  2   force =     0.00000108   -0.00000034    0.06846161
     atom    5 type  1   force =    -0.00000427   -0.01923799   -0.00721041
     atom    6 type  1   force =    -0.01666337    0.00961930   -0.00722033
     atom    7 type  1   force =     0.01665974    0.00962455   -0.00721212
     atom    8 type  2   force =    -0.00000165    0.00000038    0.02568323
     atom    9 type  1   force =     0.00000167    0.00015851    0.00059281
     atom   10 type  1   force =     0.00013702   -0.00008031    0.00058770
     atom   11 type  1   force =    -0.00013469   -0.00008190    0.00059586
     atom   12 type  2   force =     0.00000043   -0.00000110   -0.00042038

     Total force =     0.094103     Total SCF correction =     0.003125

     entering subroutine stress ...

     negative rho (up, down):  3.780E-01 0.000E+00
          total   stress  (Ry/bohr**3)                   (kbar)     P=  -24.63
  -0.00024913  -0.00000000  -0.00000000        -36.65     -0.00     -0.00
  -0.00000000  -0.00024913   0.00000000         -0.00    -36.65      0.00
  -0.00000000   0.00000000  -0.00000398         -0.00      0.00     -0.59

 !ASE

     Writing output data file calc.save

     General routines

     Parallel routines

   This run was terminated on:   5:31: 2  26Dec2018

   JOB DONE.
Job  /afs/slac/g/suncat/bin/suncat-tsmpirun -x LD_LIBRARY_PATH -wdir /scratch/qe109696_UmidH pw.x -in pw.inp

TID   HOST_NAME   COMMAND_LINE            STATUS            TERMINATION_TIME
00000 suncat0025 pw.x -in pw.inp   Done                     12/26/2018 05:31:02
00001 suncat0025 pw.x -in pw.inp   Done                     12/26/2018 05:31:02
00002 suncat0025 pw.x -in pw.inp   Done                     12/26/2018 05:31:02
00003 suncat0025 pw.x -in pw.inp   Done                     12/26/2018 05:31:02
00004 suncat0025 pw.x -in pw.inp   Done                     12/26/2018 05:31:02
00005 suncat0025 pw.x -in pw.inp   Done                     12/26/2018 05:31:02
00006 suncat0025 pw.x -in pw.inp   Done                     12/26/2018 05:31:02
00007 suncat0025 pw.x -in pw.inp   Done                     12/26/2018 05:31:02
00008 suncat0013 pw.x -in pw.inp   Done                     12/26/2018 05:31:02
00009 suncat0013 pw.x -in pw.inp   Done                     12/26/2018 05:31:02
00010 suncat0013 pw.x -in pw.inp   Done                     12/26/2018 05:31:02
00011 suncat0013 pw.x -in pw.inp   Done                     12/26/2018 05:31:02
00012 suncat0013 pw.x -in pw.inp   Done                     12/26/2018 05:31:02
00013 suncat0013 pw.x -in pw.inp   Done                     12/26/2018 05:31:02
00014 suncat0013 pw.x -in pw.inp   Done                     12/26/2018 05:31:02
00015 suncat0013 pw.x -in pw.inp   Done                     12/26/2018 05:31:02
00016 suncat0008 pw.x -in pw.inp   Done                     12/26/2018 05:31:02
00017 suncat0008 pw.x -in pw.inp   Done                     12/26/2018 05:31:02
00018 suncat0008 pw.x -in pw.inp   Done                     12/26/2018 05:31:02
00019 suncat0008 pw.x -in pw.inp   Done                     12/26/2018 05:31:02
00020 suncat0008 pw.x -in pw.inp   Done                     12/26/2018 05:31:02
00021 suncat0008 pw.x -in pw.inp   Done                     12/26/2018 05:31:02
00022 suncat0008 pw.x -in pw.inp   Done                     12/26/2018 05:31:02
00023 suncat0008 pw.x -in pw.inp   Done                     12/26/2018 05:31:02
00024 suncat0001 pw.x -in pw.inp   Done                     12/26/2018 05:31:02
00025 suncat0001 pw.x -in pw.inp   Done                     12/26/2018 05:31:02
00026 suncat0001 pw.x -in pw.inp   Done                     12/26/2018 05:31:02
00027 suncat0001 pw.x -in pw.inp   Done                     12/26/2018 05:31:02
00028 suncat0001 pw.x -in pw.inp   Done                     12/26/2018 05:31:02
00029 suncat0001 pw.x -in pw.inp   Done                     12/26/2018 05:31:02
00030 suncat0001 pw.x -in pw.inp   Done                     12/26/2018 05:31:02
00031 suncat0001 pw.x -in pw.inp   Done                     12/26/2018 05:31:02
00032 suncat0184 pw.x -in pw.inp   Done                     12/26/2018 05:31:02
00033 suncat0184 pw.x -in pw.inp   Done                     12/26/2018 05:31:02
00034 suncat0184 pw.x -in pw.inp   Done                     12/26/2018 05:31:02
00035 suncat0184 pw.x -in pw.inp   Done                     12/26/2018 05:31:02
00036 suncat0184 pw.x -in pw.inp   Done                     12/26/2018 05:31:02
00037 suncat0184 pw.x -in pw.inp   Done                     12/26/2018 05:31:02
00038 suncat0184 pw.x -in pw.inp   Done                     12/26/2018 05:31:02
00039 suncat0184 pw.x -in pw.inp   Done                     12/26/2018 05:31:02
00040 suncat0142 pw.x -in pw.inp   Done                     12/26/2018 05:31:02
00041 suncat0142 pw.x -in pw.inp   Done                     12/26/2018 05:31:02
00042 suncat0142 pw.x -in pw.inp   Done                     12/26/2018 05:31:02
00043 suncat0142 pw.x -in pw.inp   Done                     12/26/2018 05:31:02
00044 suncat0142 pw.x -in pw.inp   Done                     12/26/2018 05:31:02
00045 suncat0142 pw.x -in pw.inp   Done                     12/26/2018 05:31:02
00046 suncat0142 pw.x -in pw.inp   Done                     12/26/2018 05:31:02
00047 suncat0142 pw.x -in pw.inp   Done                     12/26/2018 05:31:02
00048 suncat0117 pw.x -in pw.inp   Done                     12/26/2018 05:31:02
00049 suncat0117 pw.x -in pw.inp   Done                     12/26/2018 05:31:02
00050 suncat0117 pw.x -in pw.inp   Done                     12/26/2018 05:31:02
00051 suncat0117 pw.x -in pw.inp   Done                     12/26/2018 05:31:02
00052 suncat0117 pw.x -in pw.inp   Done                     12/26/2018 05:31:02
00053 suncat0117 pw.x -in pw.inp   Done                     12/26/2018 05:31:02
00054 suncat0117 pw.x -in pw.inp   Done                     12/26/2018 05:31:02
00055 suncat0117 pw.x -in pw.inp   Done                     12/26/2018 05:31:02
00056 suncat0116 pw.x -in pw.inp   Done                     12/26/2018 05:31:02
00057 suncat0116 pw.x -in pw.inp   Done                     12/26/2018 05:31:02
00058 suncat0116 pw.x -in pw.inp   Done                     12/26/2018 05:31:02
00059 suncat0116 pw.x -in pw.inp   Done                     12/26/2018 05:31:02
00060 suncat0116 pw.x -in pw.inp   Done                     12/26/2018 05:31:02
00061 suncat0116 pw.x -in pw.inp   Done                     12/26/2018 05:31:02
00062 suncat0116 pw.x -in pw.inp   Done                     12/26/2018 05:31:02
00063 suncat0116 pw.x -in pw.inp   Done                     12/26/2018 05:31:02