     Program PWSCF v.5.1rc2 (svn rev. 11289) starts on 26Dec2018 at 17: 7:24

     Current dimensions of program PWSCF are:
     Max number of different atomic species (ntypx) = 10
     Max number of k-points (npk) =  40000
     Max angular momentum in pseudopotentials (lmaxx) =  3
     Presently stress not available with electric field

     IMPORTANT: XC functional enforced from input :
     Exchange-correlation      = BEEF-VDW ( 1  4 27 13 2)
     Any further DFT definition will be discarded
     Please, verify this is what you really want

     Subspace diagonalization in iterative solution of the eigenvalue problem:
     a serial algorithm will be used

     Generating pointlists ...
     new r_m :   0.4125 (alat units)  0.7795 (a.u.) for type    1
     new r_m :   0.4125 (alat units)  0.7795 (a.u.) for type    2

     bravais-lattice index     =            0
     lattice parameter (alat)  =       1.8897  a.u.
     unit-cell volume          =    7157.0952 (a.u.)^3
     number of atoms/cell      =           12
     number of atomic types    =            2
     number of electrons       =       153.00
     number of Kohn-Sham states=          106
     kinetic-energy cutoff     =      36.7493  Ry
     charge density cutoff     =     367.4932  Ry
     convergence threshold     =      1.0E-06
     mixing beta               =       0.1000
     number of iterations used =           10  plain     mixing
     Exchange-correlation      = BEEF-VDW ( 1  4 27 13 2)
     nstep                     =           50

     celldm(1)=   1.889726  celldm(2)=   0.000000  celldm(3)=   0.000000
     celldm(4)=   0.000000  celldm(5)=   0.000000  celldm(6)=   0.000000

     crystal axes: (cart. coord. in units of alat)
               a(1) = (   6.910729   0.000000   0.000000 )
               a(2) = (  -3.455365   5.984867   0.000000 )
               a(3) = (   0.000000   0.000000  25.642587 )

     reciprocal axes: (cart. coord. in units 2 pi/alat)
               b(1) = (  0.144703  0.083544  0.000000 )
               b(2) = (  0.000000  0.167088  0.000000 )
               b(3) = (  0.000000  0.000000  0.038998 )

     PseudoPot. # 1 for La read from file:
     /afs/slac.stanford.edu/u/if/mamunm/psp/gbrv1.5pbe/La.UPF
     MD5 check sum: 5937b0c7494ba0601a847275249473aa
     Pseudo is Ultrasoft + core correction, Zval = 11.0
     Generated by new atomic code, or converted to UPF format
     Using radial grid of  995 points,  8 beta functions with:
                l(1) =   0
                l(2) =   0
                l(3) =   1
                l(4) =   1
                l(5) =   2
                l(6) =   2
                l(7) =   3
                l(8) =   3
     Q(r) pseudized with  8 coefficients,  rinner =    1.700   1.700   1.700
                                                       1.700   1.700   1.700
                                                       1.700

     PseudoPot. # 2 for Ni read from file:
     /afs/slac.stanford.edu/u/if/mamunm/psp/gbrv1.5pbe/Ni.UPF
     MD5 check sum: 1ee80287db30b12d2bc1f57a5b5d6409
     Pseudo is Ultrasoft + core correction, Zval = 18.0
     Generated by new atomic code, or converted to UPF format
     Using radial grid of  865 points,  6 beta functions with:
                l(1) =   0
                l(2) =   0
                l(3) =   1
                l(4) =   1
                l(5) =   2
                l(6) =   2
     Q(r) pseudized with 10 coefficients,  rinner =    0.980   0.980   0.980
                                                       0.980   0.980

     vdW kernel table read from file vdW_kernel_table
     MD5 check sum: 095c7af220d748ca6e76c0b4c6cfb241

     atomic species   valence    mass     pseudopotential
        La1           11.00   138.90547     La( 1.00)
        Ni1           18.00    58.69340     Ni( 1.00)

     Starting magnetic structure
     atomic species   magnetization
        La1          0.182
        Ni1          0.111

     No symmetry found

   Cartesian axes

     site n.     atom                  positions (alat units)
         1           La1 tau(   1) = (   0.0000000   0.0000000  10.0000000  )
         2           La1 tau(   2) = (  -1.7276823   2.9924335  10.0000000  )
         3           La1 tau(   3) = (   1.7276823   2.9924335  10.0000000  )
         4           Ni1 tau(   4) = (   3.4553645   0.0000000  10.0000000  )
         5           La1 tau(   5) = (   3.4553645   1.9949556  12.8212933  )
         6           La1 tau(   6) = (   1.7276823   4.9873891  12.8212933  )
         7           La1 tau(   7) = (  -1.7276823   4.9873891  12.8212933  )
         8           Ni1 tau(   8) = (   0.0000000   1.9949556  12.8212933  )
         9           La1 tau(   9) = (  -0.0000000   3.9899113  15.6425866  )
        10           La1 tau(  10) = (   1.7276823   0.9974778  15.6425866  )
        11           La1 tau(  11) = (   5.1830468   0.9974778  15.6425866  )
        12           Ni1 tau(  12) = (   3.4553645   3.9899113  15.6425866  )

     number of k points=    40  Fermi-Dirac smearing, width (Ry)=  0.0110
                       cart. coord. in units 2pi/alat
        k(    1) = (   0.0000000   0.0000000   0.0000000), wk =   0.0277778
        k(    2) = (   0.0000000   0.0278480   0.0000000), wk =   0.0555556
        k(    3) = (   0.0000000   0.0556960   0.0000000), wk =   0.0555556
        k(    4) = (   0.0000000  -0.0835440   0.0000000), wk =   0.0277778
        k(    5) = (   0.0241171   0.0139240   0.0000000), wk =   0.0555556
        k(    6) = (   0.0241171   0.0417720   0.0000000), wk =   0.0555556
        k(    7) = (   0.0241171   0.0696200   0.0000000), wk =   0.0555556
        k(    8) = (   0.0241171  -0.0696200   0.0000000), wk =   0.0555556
        k(    9) = (   0.0241171  -0.0417720   0.0000000), wk =   0.0555556
        k(   10) = (   0.0241171  -0.0139240   0.0000000), wk =   0.0555556
        k(   11) = (   0.0482342   0.0278480   0.0000000), wk =   0.0555556
        k(   12) = (   0.0482342   0.0556960   0.0000000), wk =   0.0555556
        k(   13) = (   0.0482342   0.0835440   0.0000000), wk =   0.0555556
        k(   14) = (   0.0482342  -0.0556960   0.0000000), wk =   0.0555556
        k(   15) = (   0.0482342  -0.0278480   0.0000000), wk =   0.0555556
        k(   16) = (   0.0482342   0.0000000   0.0000000), wk =   0.0555556
        k(   17) = (  -0.0723513  -0.0417720   0.0000000), wk =   0.0277778
        k(   18) = (  -0.0723513  -0.0139240   0.0000000), wk =   0.0555556
        k(   19) = (  -0.0723513   0.0139240   0.0000000), wk =   0.0555556
        k(   20) = (  -0.0723513  -0.1253161   0.0000000), wk =   0.0277778
        k(   21) = (   0.0000000   0.0000000   0.0000000), wk =   0.0277778
        k(   22) = (   0.0000000   0.0278480   0.0000000), wk =   0.0555556
        k(   23) = (   0.0000000   0.0556960   0.0000000), wk =   0.0555556
        k(   24) = (   0.0000000  -0.0835440   0.0000000), wk =   0.0277778
        k(   25) = (   0.0241171   0.0139240   0.0000000), wk =   0.0555556
        k(   26) = (   0.0241171   0.0417720   0.0000000), wk =   0.0555556
        k(   27) = (   0.0241171   0.0696200   0.0000000), wk =   0.0555556
        k(   28) = (   0.0241171  -0.0696200   0.0000000), wk =   0.0555556
        k(   29) = (   0.0241171  -0.0417720   0.0000000), wk =   0.0555556
        k(   30) = (   0.0241171  -0.0139240   0.0000000), wk =   0.0555556
        k(   31) = (   0.0482342   0.0278480   0.0000000), wk =   0.0555556
        k(   32) = (   0.0482342   0.0556960   0.0000000), wk =   0.0555556
        k(   33) = (   0.0482342   0.0835440   0.0000000), wk =   0.0555556
        k(   34) = (   0.0482342  -0.0556960   0.0000000), wk =   0.0555556
        k(   35) = (   0.0482342  -0.0278480   0.0000000), wk =   0.0555556
        k(   36) = (   0.0482342   0.0000000   0.0000000), wk =   0.0555556
        k(   37) = (  -0.0723513  -0.0417720   0.0000000), wk =   0.0277778
        k(   38) = (  -0.0723513  -0.0139240   0.0000000), wk =   0.0555556
        k(   39) = (  -0.0723513   0.0139240   0.0000000), wk =   0.0555556
        k(   40) = (  -0.0723513  -0.1253161   0.0000000), wk =   0.0277778

     Largest allocated arrays     est. size (Mb)     dimensions
     Largest temporary arrays     est. size (Mb)     dimensions

     Initial potential from superposition of free atoms
     Check: negative starting charge=(component1):   -0.368957
     Check: negative starting charge=(component2):   -0.255441

     starting charge  146.71138, renormalised to  153.00000

     negative rho (up, down):  3.848E-01 2.664E-01

     *
     * You are using vdW-DF for exchange-correlation in this calculation.
     * Please cite the following three references that made this development
     * possible:
     *
     *   M. Dion, H. Rydberg, E. Schroder, D. C. Langreth, and
     *   B. I. Lundqvist, Phys. Rev. Lett. 92, 246401 (2004).
     *
     *   T. Thonhauser, V. R. Cooper, S. Li, A. Puzder, P. Hyldgaard, and
     *   D. C. Langreth, Phys. Rev. B 76, 125112 (2007).
     *
     *   G. Roman-Perez and J. M. Soler, Phys. Rev. Lett. 103, 096102 (2009).
     *
     *
     * If you are using vdW-DF2, please also cite:
     *
     *   K. Lee, E. D. Murray, L. Kong, B. I. Lundqvist, and
     *   D. C. Langreth, Phys. Rev. B 82, 081101(R) (2010).
     *
     *
     * If you are calculating the stress with vdW-DF, please also cite:
     *
     *   R. Sabatini, E. Kucukbenli, B. Kolb, T. Thonhauser, and
     *   S. de Gironcoli, J. Phys.: Condens. Matter 24, 424209 (2012).
     *

     Carrying out vdW-DF run using the following parameters:

     Nqs =      20    Nr_points =    1024   r_max =   100.000
     q_mesh =
               0.00001000     0.04494208     0.09755937     0.15916263
               0.23128650     0.31572767     0.41458969     0.53033537
               0.66584808     0.82450364     1.01025438     1.22772762
               1.48234092     1.78043706     2.12944203     2.53805004
               3.01644009     3.57652955     4.23227104     5.00000000

     Gradients computed in reciprocal space

     Adding external electric field

     Computed dipole along edir(3) :
        Dipole               -0.0000 Ry au,         -0.0000 Debye
        Dipole field         -0.0000 Ry au

        Potential amp.        0.0000 Ry
        Total length         47.2460 bohr

[...]

     Starting wfc are  219 randomized atomic wfcs

     Self-consistent Calculation

     iteration #  1     ecut=    36.75 Ry     beta=0.10
     Davidson diagonalization with overlap
     ethr =  1.00E-02,  avg # of iterations =  3.0

[...]

     Magnetic moment per site:
     atom:    1    charge:    0.1339    magn:    0.0236    constr:    0.0000
     atom:    2    charge:    0.1339    magn:    0.0236    constr:    0.0000
     atom:    3    charge:    0.1339    magn:    0.0236    constr:    0.0000
     atom:    4    charge:    9.4333    magn:    1.0793    constr:    0.0000
     atom:    5    charge:    0.1415    magn:    0.0247    constr:    0.0000
     atom:    6    charge:    0.1415    magn:    0.0247    constr:    0.0000
     atom:    7    charge:    0.1415    magn:    0.0247    constr:    0.0000
[...]
        k(    7) = (   0.0241171   0.0696200   0.0000000), wk =   0.0555556
        k(    8) = (   0.0241171  -0.0696200   0.0000000), wk =   0.0555556
        k(    9) = (   0.0241171  -0.0417720   0.0000000), wk =   0.0555556
        k(   10) = (   0.0241171  -0.0139240   0.0000000), wk =   0.0555556
        k(   11) = (   0.0482342   0.0278480   0.0000000), wk =   0.0555556
        k(   12) = (   0.0482342   0.0556960   0.0000000), wk =   0.0555556
        k(   13) = (   0.0482342   0.0835440   0.0000000), wk =   0.0555556
        k(   14) = (   0.0482342  -0.0556960   0.0000000), wk =   0.0555556
        k(   15) = (   0.0482342  -0.0278480   0.0000000), wk =   0.0555556
        k(   16) = (   0.0482342   0.0000000   0.0000000), wk =   0.0555556
        k(   17) = (  -0.0723513  -0.0417720   0.0000000), wk =   0.0277778
        k(   18) = (  -0.0723513  -0.0139240   0.0000000), wk =   0.0555556
        k(   19) = (  -0.0723513   0.0139240   0.0000000), wk =   0.0555556
        k(   20) = (  -0.0723513  -0.1253161   0.0000000), wk =   0.0277778
        k(   21) = (   0.0000000   0.0000000   0.0000000), wk =   0.0277778
        k(   22) = (   0.0000000   0.0278480   0.0000000), wk =   0.0555556
        k(   23) = (   0.0000000   0.0556960   0.0000000), wk =   0.0555556
        k(   24) = (   0.0000000  -0.0835440   0.0000000), wk =   0.0277778
        k(   25) = (   0.0241171   0.0139240   0.0000000), wk =   0.0555556
        k(   26) = (   0.0241171   0.0417720   0.0000000), wk =   0.0555556
        k(   27) = (   0.0241171   0.0696200   0.0000000), wk =   0.0555556
        k(   28) = (   0.0241171  -0.0696200   0.0000000), wk =   0.0555556
        k(   29) = (   0.0241171  -0.0417720   0.0000000), wk =   0.0555556
        k(   30) = (   0.0241171  -0.0139240   0.0000000), wk =   0.0555556
        k(   31) = (   0.0482342   0.0278480   0.0000000), wk =   0.0555556
        k(   32) = (   0.0482342   0.0556960   0.0000000), wk =   0.0555556
        k(   33) = (   0.0482342   0.0835440   0.0000000), wk =   0.0555556
        k(   34) = (   0.0482342  -0.0556960   0.0000000), wk =   0.0555556
        k(   35) = (   0.0482342  -0.0278480   0.0000000), wk =   0.0555556
        k(   36) = (   0.0482342   0.0000000   0.0000000), wk =   0.0555556
        k(   37) = (  -0.0723513  -0.0417720   0.0000000), wk =   0.0277778
        k(   38) = (  -0.0723513  -0.0139240   0.0000000), wk =   0.0555556
        k(   39) = (  -0.0723513   0.0139240   0.0000000), wk =   0.0555556
        k(   40) = (  -0.0723513  -0.1253161   0.0000000), wk =   0.0277778

     Largest allocated arrays     est. size (Mb)     dimensions
     Largest temporary arrays     est. size (Mb)     dimensions

     Initial potential from superposition of free atoms
     Check: negative starting charge=(component1):   -0.368210
     Check: negative starting charge=(component2):   -0.254923

     starting charge  146.71138, renormalised to  153.00000

[...]

     *
     * You are using vdW-DF for exchange-correlation in this calculation.
     * Please cite the following three references that made this development
     * possible:
     *
     *   M. Dion, H. Rydberg, E. Schroder, D. C. Langreth, and
     *   B. I. Lundqvist, Phys. Rev. Lett. 92, 246401 (2004).
     *
     *   T. Thonhauser, V. R. Cooper, S. Li, A. Puzder, P. Hyldgaard, and
     *   D. C. Langreth, Phys. Rev. B 76, 125112 (2007).
     *
     *   G. Roman-Perez and J. M. Soler, Phys. Rev. Lett. 103, 096102 (2009).
     *
     *
     * If you are using vdW-DF2, please also cite:
     *
     *   K. Lee, E. D. Murray, L. Kong, B. I. Lundqvist, and
     *   D. C. Langreth, Phys. Rev. B 82, 081101(R) (2010).
     *
     *
     * If you are calculating the stress with vdW-DF, please also cite:
     *
     *   R. Sabatini, E. Kucukbenli, B. Kolb, T. Thonhauser, and
     *   S. de Gironcoli, J. Phys.: Condens. Matter 24, 424209 (2012).
     *

     Carrying out vdW-DF run using the following parameters:

     Nqs =      20    Nr_points =    1024   r_max =   100.000
     q_mesh =
               0.00001000     0.04494208     0.09755937     0.15916263
               0.23128650     0.31572767     0.41458969     0.53033537
               0.66584808     0.82450364     1.01025438     1.22772762
               1.48234092     1.78043706     2.12944203     2.53805004
               3.01644009     3.57652955     4.23227104     5.00000000

     Gradients computed in reciprocal space

[...]

     Starting wfc are  219 randomized atomic wfcs

     Self-consistent Calculation

[...]

     iteration # 28     ecut=    36.75 Ry     beta=0.10
     Davidson diagonalization with overlap
     c_bands:  1 eigenvalues not converged
     c_bands:  1 eigenvalues not converged
     c_bands:  1 eigenvalues not converged
     c_bands:  1 eigenvalues not converged
     c_bands:  1 eigenvalues not converged
     c_bands:  1 eigenvalues not converged
     c_bands:  1 eigenvalues not converged
     c_bands:  1 eigenvalues not converged
     ethr =  1.35E-06,  avg # of iterations = 15.7

[...]

     total energy              =   -1969.29487823 Ry
     Harris-Foulkes estimate   =   -1969.29487633 Ry
     estimated scf accuracy    <       0.00000127 Ry

[...]

     iteration # 45     ecut=    36.75 Ry     beta=0.10
     Davidson diagonalization with overlap
     ethr =  8.31E-10,  avg # of iterations =  4.6

[...]

     negative rho (up, down):  1.976E-01 1.980E-01

[...]

     Adding external electric field

     Computed dipole along edir(3) :
        Dipole                0.0781 Ry au,          0.1986 Debye
        Dipole field          0.0001 Ry au

        Potential amp.       -0.0130 Ry
        Total length         47.2460 bohr

     Magnetic moment per site:
     atom:    1    charge:    0.1651    magn:    0.0004    constr:    0.0000
     atom:    2    charge:    0.1651    magn:    0.0004    constr:    0.0000
     atom:    3    charge:    0.1651    magn:    0.0004    constr:    0.0000
     atom:    4    charge:    9.3740    magn:   -0.0040    constr:    0.0000
     atom:    5    charge:    0.1620    magn:   -0.0000    constr:    0.0000
     atom:    6    charge:    0.1620    magn:   -0.0000    constr:    0.0000
     atom:    7    charge:    0.1620    magn:   -0.0000    constr:    0.0000
     atom:    8    charge:    9.3361    magn:    0.0082    constr:    0.0000
     atom:    9    charge:    0.1645    magn:   -0.0000    constr:    0.0000
     atom:   10    charge:    0.1645    magn:   -0.0000    constr:    0.0000
     atom:   11    charge:    0.1645    magn:   -0.0000    constr:    0.0000
     atom:   12    charge:    9.3388    magn:   -0.0034    constr:    0.0000

     End of self-consistent calculation

 ------ SPIN UP ------------

[...]

 ------ SPIN DOWN ----------

[...]

          k = 0.0482 0.0000 0.0000 ( 26929 PWs)   bands (ev):

[...]

          k =-0.0724-0.1253 0.0000 ( 26906 PWs)   bands (ev):

  -100.9323-100.7853-100.5614 -61.3463 -61.3045 -61.3043 -61.1748 -61.1603
   -61.1602 -60.9880 -60.9878 -60.8868 -31.3554 -31.3113 -31.2362 -31.2020
   -31.1545 -31.1406 -30.8152 -30.7479 -30.6721 -15.6981 -15.5807 -15.4639
   -15.2935 -15.2182 -15.1337 -15.1194 -15.0708 -14.9971 -14.9815 -14.9140
   -14.9082 -14.8951 -14.8848 -14.7805 -14.6802 -14.6656 -14.5060 -14.3361
   -14.2925 -14.2644 -14.1590 -14.1519 -14.0773 -14.0716 -14.0233 -13.7580
    -0.6057  -0.5733  -0.1221   0.2226   0.2913   0.3785   0.4644   0.4882
     0.5103   0.6046   0.6590   0.6656   0.6728   0.7688   0.7855   0.8564
     0.8847   0.9122   0.9245   0.9724   0.9972   1.0559   1.3077   1.4994
     1.6438   1.7448   1.7781   1.8754   2.0183   2.1115   2.2163   2.3530
     2.3724   2.3968   2.4830   2.6274   2.6682   2.6803   2.8572   2.8784
     2.9287   3.0151   3.0894   3.1767   3.2010   3.2468   3.3082   3.3279
     3.3800   3.3983   3.4531   3.4595   3.4715   3.4793   3.5023   3.5368
     3.5480   3.5907

     the Fermi energy is     1.9639 ev

!    total energy              =   -1969.29488235 Ry
     Harris-Foulkes estimate   =   -1969.29487794 Ry
     estimated scf accuracy    <       0.00000090 Ry

     The total energy is the sum of the following terms:

     one-electron contribution =   -8719.45101042 Ry
     hartree contribution      =    4375.24347192 Ry
     xc contribution           =    -567.24561816 Ry
     ewald contribution        =    2942.28273445 Ry
     electric field correction =       0.00001072 Ry
     smearing contrib. (-TS)   =      -0.12447087 Ry

     total magnetization       =     0.06 Bohr mag/cell
     absolute magnetization    =     0.13 Bohr mag/cell

     convergence has been achieved in  45 iterations

 BEEF-vdW xc energy contributions
           1 :   -502.178335079810
           2 :    460.726314390544
           3 :   -388.105929590173
           4 :    300.883745431403
           5 :   -216.100932553587
           6 :    146.291802431073
           7 :   -97.1194080771527
           8 :    67.8356453097643
           9 :   -53.5951885144206
          10 :    48.2120668698641
          11 :   -46.2537003911988
          12 :    43.9935325607620
          13 :   -39.4205299626451
          14 :    31.8541112567436
          15 :   -21.6481556745130
          16 :    10.0635388210178
          17 :   0.933870794278846
          18 :   -9.19831314670705
          19 :    13.1813907865269
          20 :   -12.6024837094660
          21 :    8.61570493814111
          22 :   -3.34689262851361
          23 :  -0.986440429669074
          24 :    2.93366900595186
          25 :   -2.25016335340115
          26 :  -0.242917471168994
          27 :    3.21899494431989
          28 :   -5.48777398361210
          29 :    6.40667442228414
          30 :   -5.95758252797066
          31 :   -42.3776895557617
          32 :   -30.2439199379359

     Forces acting on atoms (Ry/au):

     negative rho (up, down):  1.976E-01 1.980E-01
     atom    1 type  1   force =    -0.00000110    0.01765353   -0.00804496
     atom    2 type  1   force =     0.01528595   -0.00883085   -0.00804472
     atom    3 type  1   force =    -0.01528658   -0.00883008   -0.00804579
     atom    4 type  2   force =    -0.00000292   -0.00000825    0.03145208
     atom    5 type  1   force =    -0.00000089   -0.00704219   -0.00297222
     atom    6 type  1   force =    -0.00610127    0.00352156   -0.00298020
     atom    7 type  1   force =     0.00609799    0.00352181   -0.00298005
     atom    8 type  2   force =    -0.00000006   -0.00000064   -0.00129392
     atom    9 type  1   force =     0.00000205   -0.00100508    0.00090433
     atom   10 type  1   force =    -0.00086329    0.00050263    0.00090330
     atom   11 type  1   force =     0.00086169    0.00050159    0.00090336
     atom   12 type  2   force =     0.00000842    0.00001595    0.00019879

     Total force =     0.047968     Total SCF correction =     0.002835

     entering subroutine stress ...

     negative rho (up, down):  1.976E-01 1.980E-01
          total   stress  (Ry/bohr**3)                   (kbar)     P=  -10.25
  -0.00007486   0.00000000   0.00000000        -11.01      0.00      0.00
   0.00000000  -0.00007486  -0.00000000          0.00    -11.01     -0.00
   0.00000000  -0.00000000  -0.00005922          0.00     -0.00     -8.71

 !ASE

     Writing output data file calc.save

     General routines

     Parallel routines

   This run was terminated on:  12:26:42  27Dec2018

   JOB DONE.
Job  /afs/slac/g/suncat/bin/suncat-tsmpirun -x LD_LIBRARY_PATH -wdir /scratch/qe110011_ewY06 pw.x -in pw.inp

TID   HOST_NAME   COMMAND_LINE            STATUS            TERMINATION_TIME
00000 suncat0087 pw.x -in pw.inp   Done                     12/27/2018 12:26:42
00001 suncat0087 pw.x -in pw.inp   Done                     12/27/2018 12:26:42
00002 suncat0087 pw.x -in pw.inp   Done                     12/27/2018 12:26:42
00003 suncat0087 pw.x -in pw.inp   Done                     12/27/2018 12:26:42
00004 suncat0087 pw.x -in pw.inp   Done                     12/27/2018 12:26:42
00005 suncat0087 pw.x -in pw.inp   Done                     12/27/2018 12:26:42
00006 suncat0087 pw.x -in pw.inp   Done                     12/27/2018 12:26:42
00007 suncat0087 pw.x -in pw.inp   Done                     12/27/2018 12:26:42
00008 suncat0086 pw.x -in pw.inp   Done                     12/27/2018 12:26:42
00009 suncat0086 pw.x -in pw.inp   Done                     12/27/2018 12:26:42
00010 suncat0086 pw.x -in pw.inp   Done                     12/27/2018 12:26:42
00011 suncat0086 pw.x -in pw.inp   Done                     12/27/2018 12:26:42
00012 suncat0086 pw.x -in pw.inp   Done                     12/27/2018 12:26:42
00013 suncat0086 pw.x -in pw.inp   Done                     12/27/2018 12:26:42
00014 suncat0086 pw.x -in pw.inp   Done                     12/27/2018 12:26:42
00015 suncat0086 pw.x -in pw.inp   Done                     12/27/2018 12:26:42
00016 suncat0085 pw.x -in pw.inp   Done                     12/27/2018 12:26:42
00017 suncat0085 pw.x -in pw.inp   Done                     12/27/2018 12:26:42
00018 suncat0085 pw.x -in pw.inp   Done                     12/27/2018 12:26:42
00019 suncat0085 pw.x -in pw.inp   Done                     12/27/2018 12:26:42
00020 suncat0085 pw.x -in pw.inp   Done                     12/27/2018 12:26:42
00021 suncat0085 pw.x -in pw.inp   Done                     12/27/2018 12:26:42
00022 suncat0085 pw.x -in pw.inp   Done                     12/27/2018 12:26:42
00023 suncat0085 pw.x -in pw.inp   Done                     12/27/2018 12:26:42
00024 suncat0084 pw.x -in pw.inp   Done                     12/27/2018 12:26:42
00025 suncat0084 pw.x -in pw.inp   Done                     12/27/2018 12:26:42
00026 suncat0084 pw.x -in pw.inp   Done                     12/27/2018 12:26:42
00027 suncat0084 pw.x -in pw.inp   Done                     12/27/2018 12:26:42
00028 suncat0084 pw.x -in pw.inp   Done                     12/27/2018 12:26:42
00029 suncat0084 pw.x -in pw.inp   Done                     12/27/2018 12:26:42
00030 suncat0084 pw.x -in pw.inp   Done                     12/27/2018 12:26:42
00031 suncat0084 pw.x -in pw.inp   Done                     12/27/2018 12:26:42
00032 suncat0073 pw.x -in pw.inp   Done                     12/27/2018 12:26:42
00033 suncat0073 pw.x -in pw.inp   Done                     12/27/2018 12:26:42
00034 suncat0073 pw.x -in pw.inp   Done                     12/27/2018 12:26:42
00035 suncat0073 pw.x -in pw.inp   Done                     12/27/2018 12:26:42
00036 suncat0073 pw.x -in pw.inp   Done                     12/27/2018 12:26:42
00037 suncat0073 pw.x -in pw.inp   Done                     12/27/2018 12:26:42
00038 suncat0073 pw.x -in pw.inp   Done                     12/27/2018 12:26:42
00039 suncat0073 pw.x -in pw.inp   Done                     12/27/2018 12:26:42
00040 suncat0244 pw.x -in pw.inp   Done                     12/27/2018 12:26:42
00041 suncat0244 pw.x -in pw.inp   Done                     12/27/2018 12:26:42
00042 suncat0244 pw.x -in pw.inp   Done                     12/27/2018 12:26:42
00043 suncat0244 pw.x -in pw.inp   Done                     12/27/2018 12:26:42
00044 suncat0244 pw.x -in pw.inp   Done                     12/27/2018 12:26:42
00045 suncat0244 pw.x -in pw.inp   Done                     12/27/2018 12:26:42
00046 suncat0244 pw.x -in pw.inp   Done                     12/27/2018 12:26:42
00047 suncat0244 pw.x -in pw.inp   Done                     12/27/2018 12:26:42
00048 suncat0243 pw.x -in pw.inp   Done                     12/27/2018 12:26:42
00049 suncat0243 pw.x -in pw.inp   Done                     12/27/2018 12:26:42
00050 suncat0243 pw.x -in pw.inp   Done                     12/27/2018 12:26:42
00051 suncat0243 pw.x -in pw.inp   Done                     12/27/2018 12:26:42
00052 suncat0243 pw.x -in pw.inp   Done                     12/27/2018 12:26:42
00053 suncat0243 pw.x -in pw.inp   Done                     12/27/2018 12:26:42
00054 suncat0243 pw.x -in pw.inp   Done                     12/27/2018 12:26:42
00055 suncat0243 pw.x -in pw.inp   Done                     12/27/2018 12:26:42
00056 suncat0242 pw.x -in pw.inp   Done                     12/27/2018 12:26:42
00057 suncat0242 pw.x -in pw.inp   Done                     12/27/2018 12:26:42
00058 suncat0242 pw.x -in pw.inp   Done                     12/27/2018 12:26:42
00059 suncat0242 pw.x -in pw.inp   Done                     12/27/2018 12:26:42
00060 suncat0242 pw.x -in pw.inp   Done                     12/27/2018 12:26:42
00061 suncat0242 pw.x -in pw.inp   Done                     12/27/2018 12:26:42
00062 suncat0242 pw.x -in pw.inp   Done                     12/27/2018 12:26:42
00063 suncat0242 pw.x -in pw.inp   Done                     12/27/2018 12:26:42