     Program PWSCF v.5.1rc2 (svn rev. 11289) starts on 30Dec2018 at 23:37:12

     Current dimensions of program PWSCF are:
     Max number of different atomic species (ntypx) = 10
     Max number of k-points (npk) =  40000
     Max angular momentum in pseudopotentials (lmaxx) =  3
     Presently stress not available with electric field

     IMPORTANT: XC functional enforced from input :
     Exchange-correlation      = BEEF-VDW ( 1  4 27 13 2)
     Any further DFT definition will be discarded
     Please, verify this is what you really want

     Subspace diagonalization in iterative solution of the eigenvalue problem:
     a serial algorithm will be used

     Generating pointlists ...
     new r_m :   0.4125 (alat units)  0.7795 (a.u.) for type    1
     new r_m :   0.4125 (alat units)  0.7795 (a.u.) for type    2

     bravais-lattice index     =            0
     lattice parameter (alat)  =       1.8897  a.u.
     unit-cell volume          =    3660.4128 (a.u.)^3
     number of atoms/cell      =           12
     number of atomic types    =            2
     number of electrons       =       219.00
     number of Kohn-Sham states=          139
     kinetic-energy cutoff     =      36.7493  Ry
     charge density cutoff     =     367.4932  Ry
     convergence threshold     =      1.0E-06
     mixing beta               =       0.1000
     number of iterations used =           10  plain     mixing
     Exchange-correlation      = BEEF-VDW ( 1  4 27 13 2)
     nstep                     =           50

     celldm(1)=   1.889726  celldm(2)=   0.000000  celldm(3)=   0.000000
     celldm(4)=   0.000000  celldm(5)=   0.000000  celldm(6)=   0.000000

     crystal axes: (cart. coord. in units of alat)
               a(1) = (   5.091850   0.000000   0.000000 )
               a(2) = (  -2.545925   4.409672   0.000000 )
               a(3) = (   0.000000   0.000000  24.157478 )

     reciprocal axes: (cart. coord. in units 2 pi/alat)
               b(1) = (  0.196392  0.113387  0.000000 )
               b(2) = (  0.000000  0.226774  0.000000 )
               b(3) = (  0.000000  0.000000  0.041395 )

     PseudoPot. # 1 for Ni read from file:
     /afs/slac.stanford.edu/u/if/mamunm/psp/gbrv1.5pbe/Ni.UPF
     MD5 check sum: 1ee80287db30b12d2bc1f57a5b5d6409
     Pseudo is Ultrasoft + core correction, Zval = 18.0
     Generated by new atomic code, or converted to UPF format
     Using radial grid of  865 points,  6 beta functions with:
                l(1) =   0
                l(2) =   0
                l(3) =   1
                l(4) =   1
                l(5) =   2
                l(6) =   2
     Q(r) pseudized with 10 coefficients,  rinner =    0.980   0.980   0.980
                                                       0.980   0.980

     PseudoPot. # 2 for Ga read from file:
     /afs/slac.stanford.edu/u/if/mamunm/psp/gbrv1.5pbe/Ga.UPF
     MD5 check sum: ccd671392a58a050fbb373893b4fcd66
     Pseudo is Ultrasoft + core correction, Zval = 19.0
     Generated by new atomic code, or converted to UPF format
     Using radial grid of  871 points,  6 beta functions with:
                l(1) =   0
                l(2) =   0
                l(3) =   1
                l(4) =   1
                l(5) =   2
                l(6) =   2
     Q(r) pseudized with  8 coefficients,  rinner =    1.250   1.250   1.250
                                                       1.250   1.250

     vdW kernel table read from file vdW_kernel_table
     MD5 check sum: 095c7af220d748ca6e76c0b4c6cfb241

     atomic species   valence    mass     pseudopotential
        Ni1           18.00    58.69340     Ni( 1.00)
        Ga1           19.00    69.72300     Ga( 1.00)

     Starting magnetic structure
     atomic species   magnetization
        Ni1          0.111
        Ga1          0.105

     No symmetry found

   Cartesian axes

     site n.     atom                  positions (alat units)
         1           Ni1 tau(   1) = (   0.0000000   0.0000000  10.0000000  )
         2           Ni1 tau(   2) = (  -1.2729625   2.2048358  10.0000000  )
         3           Ni1 tau(   3) = (   1.2729625   2.2048358  10.0000000  )
         4           Ga1 tau(   4) = (   2.5459251   0.0000000  10.0000000  )
         5           Ni1 tau(   5) = (   2.5459251   1.4698905  12.0787391  )
         6           Ni1 tau(   6) = (   1.2729625   3.6747263  12.0787391  )
         7           Ni1 tau(   7) = (  -1.2729625   3.6747263  12.0787391  )
         8           Ga1 tau(   8) = (   0.0000000   1.4698905  12.0787391  )
         9           Ni1 tau(   9) = (  -0.0000000   2.9397811  14.1574783  )
        10           Ni1 tau(  10) = (   1.2729625   0.7349453  14.1574783  )
        11           Ni1 tau(  11) = (   3.8188876   0.7349453  14.1574783  )
        12           Ga1 tau(  12) = (   2.5459251   2.9397811  14.1574783  )

     number of k points=    40  Fermi-Dirac smearing, width (Ry)=  0.0110
                       cart. coord. in units 2pi/alat
        k(    1) = (   0.0000000   0.0000000   0.0000000), wk =   0.0277778
        k(    2) = (   0.0000000   0.0377957   0.0000000), wk =   0.0555556
        k(    3) = (   0.0000000   0.0755914   0.0000000), wk =   0.0555556
        k(    4) = (   0.0000000  -0.1133871   0.0000000), wk =   0.0277778
        k(    5) = (   0.0327320   0.0188979   0.0000000), wk =   0.0555556
        k(    6) = (   0.0327320   0.0566936   0.0000000), wk =   0.0555556
        k(    7) = (   0.0327320   0.0944893   0.0000000), wk =   0.0555556
        k(    8) = (   0.0327320  -0.0944893   0.0000000), wk =   0.0555556
        k(    9) = (   0.0327320  -0.0566936   0.0000000), wk =   0.0555556
        k(   10) = (   0.0327320  -0.0188979   0.0000000), wk =   0.0555556
        k(   11) = (   0.0654641   0.0377957   0.0000000), wk =   0.0555556
        k(   12) = (   0.0654641   0.0755914   0.0000000), wk =   0.0555556
        k(   13) = (   0.0654641   0.1133871   0.0000000), wk =   0.0555556
        k(   14) = (   0.0654641  -0.0755914   0.0000000), wk =   0.0555556
        k(   15) = (   0.0654641  -0.0377957   0.0000000), wk =   0.0555556
        k(   16) = (   0.0654641   0.0000000   0.0000000), wk =   0.0555556
        k(   17) = (  -0.0981961  -0.0566936   0.0000000), wk =   0.0277778
        k(   18) = (  -0.0981961  -0.0188979   0.0000000), wk =   0.0555556
        k(   19) = (  -0.0981961   0.0188979   0.0000000), wk =   0.0555556
        k(   20) = (  -0.0981961  -0.1700807   0.0000000), wk =   0.0277778
        k(   21) = (   0.0000000   0.0000000   0.0000000), wk =   0.0277778
        k(   22) = (   0.0000000   0.0377957   0.0000000), wk =   0.0555556
        k(   23) = (   0.0000000   0.0755914   0.0000000), wk =   0.0555556
        k(   24) = (   0.0000000  -0.1133871   0.0000000), wk =   0.0277778
        k(   25) = (   0.0327320   0.0188979   0.0000000), wk =   0.0555556
        k(   26) = (   0.0327320   0.0566936   0.0000000), wk =   0.0555556
        k(   27) = (   0.0327320   0.0944893   0.0000000), wk =   0.0555556
        k(   28) = (   0.0327320  -0.0944893   0.0000000), wk =   0.0555556
        k(   29) = (   0.0327320  -0.0566936   0.0000000), wk =   0.0555556
        k(   30) = (   0.0327320  -0.0188979   0.0000000), wk =   0.0555556
        k(   31) = (   0.0654641   0.0377957   0.0000000), wk =   0.0555556
        k(   32) = (   0.0654641   0.0755914   0.0000000), wk =   0.0555556
        k(   33) = (   0.0654641   0.1133871   0.0000000), wk =   0.0555556
        k(   34) = (   0.0654641  -0.0755914   0.0000000), wk =   0.0555556
        k(   35) = (   0.0654641  -0.0377957   0.0000000), wk =   0.0555556
        k(   36) = (   0.0654641   0.0000000   0.0000000), wk =   0.0555556
        k(   37) = (  -0.0981961  -0.0566936   0.0000000), wk =   0.0277778
        k(   38) = (  -0.0981961  -0.0188979   0.0000000), wk =   0.0555556
        k(   39) = (  -0.0981961   0.0188979   0.0000000), wk =   0.0555556
        k(   40) = (  -0.0981961  -0.1700807   0.0000000), wk =   0.0277778

     Largest allocated arrays     est. size (Mb)     dimensions
     Largest temporary arrays     est. size (Mb)     dimensions

     Check: negative/imaginary core charge=   -0.000002    0.000000

     Initial potential from superposition of free atoms
     Check: negative starting charge=(component1):   -0.000558
     Check: negative starting charge=(component2):   -0.000449

     starting charge  198.00000, renormalised to  219.00000

     negative rho (up, down):  6.173E-04 4.961E-04

     *
     * You are using vdW-DF for exchange-correlation in this calculation.
     * Please cite the following three references that made this development
     * possible:
     *
     *   M. Dion, H. Rydberg, E. Schroder, D. C. Langreth, and
     *   B. I. Lundqvist, Phys. Rev. Lett. 92, 246401 (2004).
     *
     *   T. Thonhauser, V. R. Cooper, S. Li, A. Puzder, P. Hyldgaard, and
     *   D. C. Langreth, Phys. Rev. B 76, 125112 (2007).
     *
     *   G. Roman-Perez and J. M. Soler, Phys. Rev. Lett. 103, 096102 (2009).
     *
     *
     * If you are using vdW-DF2, please also cite:
     *
     *   K. Lee, E. D. Murray, L. Kong, B. I. Lundqvist, and
     *   D. C. Langreth, Phys. Rev. B 82, 081101(R) (2010).
     *
     *
     * If you are calculating the stress with vdW-DF, please also cite:
     *
     *   R. Sabatini, E. Kucukbenli, B. Kolb, T. Thonhauser, and
     *   S. de Gironcoli, J. Phys.: Condens. Matter 24, 424209 (2012).
     *

     Carrying out vdW-DF run using the following parameters:

     Nqs =      20    Nr_points =    1024   r_max =   100.000
     q_mesh =
               0.00001000     0.04494208     0.09755937     0.15916263
               0.23128650     0.31572767     0.41458969     0.53033537
               0.66584808     0.82450364     1.01025438     1.22772762
               1.48234092     1.78043706     2.12944203     2.53805004
               3.01644009     3.57652955     4.23227104     5.00000000

     Gradients computed in reciprocal space

     Adding external electric field

     Computed dipole along edir(3) :
        Dipole                0.0000 Ry au,          0.0000 Debye
        Dipole field          0.0000 Ry au

        Potential amp.       -0.0000 Ry
        Total length         44.5097 bohr

[...]

     Starting wfc are  153 randomized atomic wfcs

     Self-consistent Calculation

     iteration #  1     ecut=    36.75 Ry     beta=0.10
     Davidson diagonalization with overlap
     ethr =  1.00E-02,  avg # of iterations =  7.2

[...]

     Magnetic moment per site:
     atom:    1    charge:    9.8281    magn:    1.0411    constr:    0.0000
     atom:    2    charge:    9.8281    magn:    1.0411    constr:    0.0000
     atom:    3    charge:    9.8281    magn:    1.0411    constr:    0.0000
     atom:    4    charge:   11.4477    magn:    1.1631    constr:    0.0000
     atom:    5    charge:    9.8255    magn:    1.0404    constr:    0.0000
     atom:    6    charge:    9.8255    magn:    1.0404    constr:    0.0000
     atom:    7    charge:    9.8255    magn:    1.0404    constr:    0.0000
     atom:    8    charge:   11.4501    magn:    1.1629    constr:    0.0000
[...]
        k(    5) = (   0.0327320   0.0188979   0.0000000), wk =   0.0555556
        k(    6) = (   0.0327320   0.0566936   0.0000000), wk =   0.0555556
        k(    7) = (   0.0327320   0.0944893   0.0000000), wk =   0.0555556
        k(    8) = (   0.0327320  -0.0944893   0.0000000), wk =   0.0555556
        k(    9) = (   0.0327320  -0.0566936   0.0000000), wk =   0.0555556
        k(   10) = (   0.0327320  -0.0188979   0.0000000), wk =   0.0555556
        k(   11) = (   0.0654641   0.0377957   0.0000000), wk =   0.0555556
        k(   12) = (   0.0654641   0.0755914   0.0000000), wk =   0.0555556
        k(   13) = (   0.0654641   0.1133871   0.0000000), wk =   0.0555556
        k(   14) = (   0.0654641  -0.0755914   0.0000000), wk =   0.0555556
        k(   15) = (   0.0654641  -0.0377957   0.0000000), wk =   0.0555556
        k(   16) = (   0.0654641   0.0000000   0.0000000), wk =   0.0555556
        k(   17) = (  -0.0981961  -0.0566936   0.0000000), wk =   0.0277778
        k(   18) = (  -0.0981961  -0.0188979   0.0000000), wk =   0.0555556
        k(   19) = (  -0.0981961   0.0188979   0.0000000), wk =   0.0555556
        k(   20) = (  -0.0981961  -0.1700807   0.0000000), wk =   0.0277778
        k(   21) = (   0.0000000   0.0000000   0.0000000), wk =   0.0277778
        k(   22) = (   0.0000000   0.0377957   0.0000000), wk =   0.0555556
        k(   23) = (   0.0000000   0.0755914   0.0000000), wk =   0.0555556
        k(   24) = (   0.0000000  -0.1133871   0.0000000), wk =   0.0277778
        k(   25) = (   0.0327320   0.0188979   0.0000000), wk =   0.0555556
        k(   26) = (   0.0327320   0.0566936   0.0000000), wk =   0.0555556
        k(   27) = (   0.0327320   0.0944893   0.0000000), wk =   0.0555556
        k(   28) = (   0.0327320  -0.0944893   0.0000000), wk =   0.0555556
        k(   29) = (   0.0327320  -0.0566936   0.0000000), wk =   0.0555556
        k(   30) = (   0.0327320  -0.0188979   0.0000000), wk =   0.0555556
        k(   31) = (   0.0654641   0.0377957   0.0000000), wk =   0.0555556
        k(   32) = (   0.0654641   0.0755914   0.0000000), wk =   0.0555556
        k(   33) = (   0.0654641   0.1133871   0.0000000), wk =   0.0555556
        k(   34) = (   0.0654641  -0.0755914   0.0000000), wk =   0.0555556
        k(   35) = (   0.0654641  -0.0377957   0.0000000), wk =   0.0555556
        k(   36) = (   0.0654641   0.0000000   0.0000000), wk =   0.0555556
        k(   37) = (  -0.0981961  -0.0566936   0.0000000), wk =   0.0277778
        k(   38) = (  -0.0981961  -0.0188979   0.0000000), wk =   0.0555556
        k(   39) = (  -0.0981961   0.0188979   0.0000000), wk =   0.0555556
        k(   40) = (  -0.0981961  -0.1700807   0.0000000), wk =   0.0277778

     Largest allocated arrays     est. size (Mb)     dimensions
     Largest temporary arrays     est. size (Mb)     dimensions

     Check: negative/imaginary core charge=   -0.000002    0.000000

     Initial potential from superposition of free atoms
     Check: negative starting charge=(component1):   -0.000548
     Check: negative starting charge=(component2):   -0.000441

     starting charge  198.00000, renormalised to  219.00000

[...]

     *
     * You are using vdW-DF for exchange-correlation in this calculation.
     * Please cite the following three references that made this development
     * possible:
     *
     *   M. Dion, H. Rydberg, E. Schroder, D. C. Langreth, and
     *   B. I. Lundqvist, Phys. Rev. Lett. 92, 246401 (2004).
     *
     *   T. Thonhauser, V. R. Cooper, S. Li, A. Puzder, P. Hyldgaard, and
     *   D. C. Langreth, Phys. Rev. B 76, 125112 (2007).
     *
     *   G. Roman-Perez and J. M. Soler, Phys. Rev. Lett. 103, 096102 (2009).
     *
     *
     * If you are using vdW-DF2, please also cite:
     *
     *   K. Lee, E. D. Murray, L. Kong, B. I. Lundqvist, and
     *   D. C. Langreth, Phys. Rev. B 82, 081101(R) (2010).
     *
     *
     * If you are calculating the stress with vdW-DF, please also cite:
     *
     *   R. Sabatini, E. Kucukbenli, B. Kolb, T. Thonhauser, and
     *   S. de Gironcoli, J. Phys.: Condens. Matter 24, 424209 (2012).
     *

     Carrying out vdW-DF run using the following parameters:

     Nqs =      20    Nr_points =    1024   r_max =   100.000
     q_mesh =
               0.00001000     0.04494208     0.09755937     0.15916263
               0.23128650     0.31572767     0.41458969     0.53033537
               0.66584808     0.82450364     1.01025438     1.22772762
               1.48234092     1.78043706     2.12944203     2.53805004
               3.01644009     3.57652955     4.23227104     5.00000000

     Gradients computed in reciprocal space

[...]

     Starting wfc are  153 randomized atomic wfcs

     Self-consistent Calculation

[...]

     total energy              =   -4349.73857158 Ry
     Harris-Foulkes estimate   =   -4349.73857057 Ry
     estimated scf accuracy    <       0.00000107 Ry

[...]

     iteration # 53     ecut=    36.75 Ry     beta=0.10
     Davidson diagonalization with overlap
     ethr =  4.87E-10,  avg # of iterations =  1.9

[...]

     negative rho (up, down):  8.048E-04 7.870E-04

[...]

     Adding external electric field

     Computed dipole along edir(3) :
        Dipole                0.0056 Ry au,          0.0141 Debye
        Dipole field          0.0000 Ry au

        Potential amp.       -0.0017 Ry
        Total length         44.5097 bohr

     Magnetic moment per site:
     atom:    1    charge:    9.3554    magn:    0.0554    constr:    0.0000
     atom:    2    charge:    9.3554    magn:    0.0554    constr:    0.0000
     atom:    3    charge:    9.3555    magn:    0.0554    constr:    0.0000
     atom:    4    charge:   11.0406    magn:   -0.0003    constr:    0.0000
     atom:    5    charge:    9.3513    magn:    0.0602    constr:    0.0000
     atom:    6    charge:    9.3513    magn:    0.0602    constr:    0.0000
     atom:    7    charge:    9.3514    magn:    0.0602    constr:    0.0000
     atom:    8    charge:   11.0429    magn:   -0.0005    constr:    0.0000
     atom:    9    charge:    9.3568    magn:    0.0516    constr:    0.0000
     atom:   10    charge:    9.3567    magn:    0.0516    constr:    0.0000
     atom:   11    charge:    9.3568    magn:    0.0517    constr:    0.0000
     atom:   12    charge:   11.0388    magn:   -0.0003    constr:    0.0000

     End of self-consistent calculation

 ------ SPIN UP ------------

[...]

 ------ SPIN DOWN ----------

[...]

          k = 0.0655 0.0000 0.0000 ( 13777 PWs)   bands (ev):

[...]

          k =-0.0982-0.1701 0.0000 ( 13730 PWs)   bands (ev):

  -102.3754-102.3711-102.3670-102.1897-102.1855-102.1815-102.1487-102.1445
  -102.1404 -93.7439 -93.7438 -93.7357 -93.5915 -93.5643 -93.5387 -93.5386
   -93.5186 -93.5185 -62.8056 -62.7977 -62.7928 -62.7920 -62.7709 -62.7608
   -62.7550 -62.7319 -62.6930 -62.6593 -62.6269 -62.6257 -62.6250 -62.6189
   -62.6129 -62.5914 -62.5889 -62.5830 -62.5808 -62.5725 -62.5392 -62.4948
   -62.4914 -62.4878 -62.4443 -62.4403 -62.4369 -14.1559 -14.1447 -14.1387
   -14.1288 -14.1264 -13.9451 -13.9270 -13.9182 -13.9173 -13.9052 -13.9020
   -13.8996 -13.8951 -13.8899 -13.8796  -7.5686  -6.9901  -5.8937  -4.7429
    -3.6136  -3.5980  -3.4456  -2.5782  -2.2819  -2.2678  -2.1719  -2.0122
    -1.9382  -1.8612  -1.8049  -1.6406  -1.4922  -1.4827  -1.4728  -1.4394
    -1.3437  -1.1329  -1.1166  -1.0691  -1.0318  -0.9367  -0.9017  -0.8483
    -0.7685  -0.6711  -0.6607  -0.6318  -0.6083  -0.3937  -0.3404  -0.2822
    -0.2763  -0.2552  -0.2338  -0.1257  -0.0891  -0.0662  -0.0246   0.0293
     0.0327   0.2290   0.3175   0.3922   0.5215   0.7056   1.0626   1.0816
     1.6458   1.7992   2.0853   2.8907   3.3739   3.7916   4.0431   5.8803
     6.0639   6.4203   6.7899   6.8237   6.9403   7.2146   7.2628   7.2716
     7.3291   7.7753   7.8528   8.1094   8.1657   8.3722   8.4242   8.7944
     9.0485   9.1794   9.2647

     the Fermi energy is     0.6467 ev

!    total energy              =   -4349.73857770 Ry
     Harris-Foulkes estimate   =   -4349.73857179 Ry
     estimated scf accuracy    <       0.00000091 Ry

     The total energy is the sum of the following terms:

     one-electron contribution =  -35180.82184572 Ry
     hartree contribution      =   17603.14101398 Ry
     xc contribution           =    -480.69481584 Ry
     ewald contribution        =   13708.71956558 Ry
     electric field correction =       0.00000011 Ry
     smearing contrib. (-TS)   =      -0.08249580 Ry

     total magnetization       =     0.78 Bohr mag/cell
     absolute magnetization    =     0.96 Bohr mag/cell

     convergence has been achieved in  53 iterations

 BEEF-vdW xc energy contributions
           1 :   -425.561349094956
           2 :    386.261428575400
           3 :   -320.134419714414
           4 :    246.256208037072
           5 :   -182.010219744647
           6 :    136.652216477858
           7 :   -109.647853895584
           8 :    93.8517317849904
           9 :   -81.0775506416520
          10 :    66.6778895415189
          11 :   -50.8898793365349
          12 :    36.9271722135759
          13 :   -27.7222014384588
          14 :    23.6446380929658
          15 :   -22.4705638501476
          16 :    21.1741363112553
          17 :   -18.0068474482573
          18 :    13.3866445437522
          19 :   -9.16991672024733
          20 :    7.03223969129783
          21 :   -7.20845865120731
          22 :    8.42405800850469
          23 :   -8.93091059218204
          24 :    7.78377500117074
          25 :   -5.42618337099623
          26 :    3.22927060794825
          27 :   -2.41299621329114
          28 :    3.16730663189560
          29 :   -4.58566228600080
          30 :    5.38719137309079
          31 :   -34.0306171426977
          32 :   -23.6723809566424

     Forces acting on atoms (Ry/au):

     negative rho (up, down):  8.048E-04 7.870E-04
     atom    1 type  1   force =    -0.00000935   -0.00385472    0.01158461
     atom    2 type  1   force =    -0.00333711    0.00192037    0.01158834
     atom    3 type  1   force =     0.00334274    0.00193429    0.01161402
     atom    4 type  2   force =     0.00001563    0.00000016   -0.01490899
     atom    5 type  1   force =     0.00000844    0.00508912   -0.00454033
     atom    6 type  1   force =     0.00440655   -0.00254061   -0.00453210
     atom    7 type  1   force =    -0.00440452   -0.00254924   -0.00453342
     atom    8 type  2   force =    -0.00001347   -0.00000178   -0.00966714
     atom    9 type  1   force =    -0.00000837    0.00050613    0.00061720
     atom   10 type  1   force =     0.00040575   -0.00027038    0.00063867
     atom   11 type  1   force =    -0.00040995   -0.00026416    0.00061696
     atom   12 type  2   force =     0.00000366    0.00003083    0.00152218

     Total force =     0.030121     Total SCF correction =     0.001584

     entering subroutine stress ...

     negative rho (up, down):  8.048E-04 7.870E-04
          total   stress  (Ry/bohr**3)                   (kbar)     P=  -60.55
  -0.00044228   0.00000000  -0.00000000        -65.06      0.00     -0.00
   0.00000000  -0.00044229  -0.00000000          0.00    -65.06     -0.00
  -0.00000000  -0.00000000  -0.00035035         -0.00     -0.00    -51.54

 !ASE

     Writing output data file calc.save

     General routines

     Parallel routines

   This run was terminated on:   6:50:53  31Dec2018

   JOB DONE.
Job  /afs/slac/g/suncat/bin/suncat-tsmpirun -x LD_LIBRARY_PATH -wdir /scratch/qe648660_WxgoT pw.x -in pw.inp

TID   HOST_NAME   COMMAND_LINE            STATUS            TERMINATION_TIME
00000 suncat0156 pw.x -in pw.inp   Done                     12/31/2018 06:50:53
00001 suncat0156 pw.x -in pw.inp   Done                     12/31/2018 06:50:53
00002 suncat0156 pw.x -in pw.inp   Done                     12/31/2018 06:50:53
00003 suncat0156 pw.x -in pw.inp   Done                     12/31/2018 06:50:53
00004 suncat0156 pw.x -in pw.inp   Done                     12/31/2018 06:50:53
00005 suncat0156 pw.x -in pw.inp   Done                     12/31/2018 06:50:53
00006 suncat0156 pw.x -in pw.inp   Done                     12/31/2018 06:50:53
00007 suncat0156 pw.x -in pw.inp   Done                     12/31/2018 06:50:53
00008 suncat0153 pw.x -in pw.inp   Done                     12/31/2018 06:50:53
00009 suncat0153 pw.x -in pw.inp   Done                     12/31/2018 06:50:53
00010 suncat0153 pw.x -in pw.inp   Done                     12/31/2018 06:50:53
00011 suncat0153 pw.x -in pw.inp   Done                     12/31/2018 06:50:53
00012 suncat0153 pw.x -in pw.inp   Done                     12/31/2018 06:50:53
00013 suncat0153 pw.x -in pw.inp   Done                     12/31/2018 06:50:53
00014 suncat0153 pw.x -in pw.inp   Done                     12/31/2018 06:50:53
00015 suncat0153 pw.x -in pw.inp   Done                     12/31/2018 06:50:53
00016 suncat0145 pw.x -in pw.inp   Done                     12/31/2018 06:50:53
00017 suncat0145 pw.x -in pw.inp   Done                     12/31/2018 06:50:53
00018 suncat0145 pw.x -in pw.inp   Done                     12/31/2018 06:50:53
00019 suncat0145 pw.x -in pw.inp   Done                     12/31/2018 06:50:53
00020 suncat0145 pw.x -in pw.inp   Done                     12/31/2018 06:50:53
00021 suncat0145 pw.x -in pw.inp   Done                     12/31/2018 06:50:53
00022 suncat0145 pw.x -in pw.inp   Done                     12/31/2018 06:50:53
00023 suncat0145 pw.x -in pw.inp   Done                     12/31/2018 06:50:53
00024 suncat0144 pw.x -in pw.inp   Done                     12/31/2018 06:50:53
00025 suncat0144 pw.x -in pw.inp   Done                     12/31/2018 06:50:53
00026 suncat0144 pw.x -in pw.inp   Done                     12/31/2018 06:50:53
00027 suncat0144 pw.x -in pw.inp   Done                     12/31/2018 06:50:53
00028 suncat0144 pw.x -in pw.inp   Done                     12/31/2018 06:50:53
00029 suncat0144 pw.x -in pw.inp   Done                     12/31/2018 06:50:53
00030 suncat0144 pw.x -in pw.inp   Done                     12/31/2018 06:50:53
00031 suncat0144 pw.x -in pw.inp   Done                     12/31/2018 06:50:53
00032 suncat0133 pw.x -in pw.inp   Done                     12/31/2018 06:50:53
00033 suncat0133 pw.x -in pw.inp   Done                     12/31/2018 06:50:53
00034 suncat0133 pw.x -in pw.inp   Done                     12/31/2018 06:50:53
00035 suncat0133 pw.x -in pw.inp   Done                     12/31/2018 06:50:53
00036 suncat0133 pw.x -in pw.inp   Done                     12/31/2018 06:50:53
00037 suncat0133 pw.x -in pw.inp   Done                     12/31/2018 06:50:53
00038 suncat0133 pw.x -in pw.inp   Done                     12/31/2018 06:50:53
00039 suncat0133 pw.x -in pw.inp   Done                     12/31/2018 06:50:53
00040 suncat0132 pw.x -in pw.inp   Done                     12/31/2018 06:50:53
00041 suncat0132 pw.x -in pw.inp   Done                     12/31/2018 06:50:53
00042 suncat0132 pw.x -in pw.inp   Done                     12/31/2018 06:50:53
00043 suncat0132 pw.x -in pw.inp   Done                     12/31/2018 06:50:53
00044 suncat0132 pw.x -in pw.inp   Done                     12/31/2018 06:50:53
00045 suncat0132 pw.x -in pw.inp   Done                     12/31/2018 06:50:53
00046 suncat0132 pw.x -in pw.inp   Done                     12/31/2018 06:50:53
00047 suncat0132 pw.x -in pw.inp   Done                     12/31/2018 06:50:53
00048 suncat0131 pw.x -in pw.inp   Done                     12/31/2018 06:50:53
00049 suncat0131 pw.x -in pw.inp   Done                     12/31/2018 06:50:53
00050 suncat0131 pw.x -in pw.inp   Done                     12/31/2018 06:50:53
00051 suncat0131 pw.x -in pw.inp   Done                     12/31/2018 06:50:53
00052 suncat0131 pw.x -in pw.inp   Done                     12/31/2018 06:50:53
00053 suncat0131 pw.x -in pw.inp   Done                     12/31/2018 06:50:53
00054 suncat0131 pw.x -in pw.inp   Done                     12/31/2018 06:50:53
00055 suncat0131 pw.x -in pw.inp   Done                     12/31/2018 06:50:53
00056 suncat0130 pw.x -in pw.inp   Done                     12/31/2018 06:50:53
00057 suncat0130 pw.x -in pw.inp   Done                     12/31/2018 06:50:53
00058 suncat0130 pw.x -in pw.inp   Done                     12/31/2018 06:50:53
00059 suncat0130 pw.x -in pw.inp   Done                     12/31/2018 06:50:53
00060 suncat0130 pw.x -in pw.inp   Done                     12/31/2018 06:50:53
00061 suncat0130 pw.x -in pw.inp   Done                     12/31/2018 06:50:53
00062 suncat0130 pw.x -in pw.inp   Done                     12/31/2018 06:50:53
00063 suncat0130 pw.x -in pw.inp   Done                     12/31/2018 06:50:53