     Program PWSCF v.5.1rc2 (svn rev. 11289) starts on 26Dec2018 at 11: 2: 5

     Current dimensions of program PWSCF are:
     Max number of different atomic species (ntypx) = 10
     Max number of k-points (npk) =  40000
     Max angular momentum in pseudopotentials (lmaxx) =  3
     Presently stress not available with electric field

     IMPORTANT: XC functional enforced from input :
     Exchange-correlation      = BEEF-VDW ( 1  4 27 13 2)
     Any further DFT definition will be discarded
     Please, verify this is what you really want

     Subspace diagonalization in iterative solution of the eigenvalue problem:
     a serial algorithm will be used

     bravais-lattice index     =            0
     lattice parameter (alat)  =       1.8897  a.u.
     unit-cell volume          =    7567.1564 (a.u.)^3
     number of atoms/cell      =           12
     number of atomic types    =            2
     number of electrons       =       147.00
     number of Kohn-Sham states=          103
     kinetic-energy cutoff     =      36.7493  Ry
     charge density cutoff     =     367.4932  Ry
     convergence threshold     =      1.0E-06
     mixing beta               =       0.1000
     number of iterations used =           10  plain     mixing
     Exchange-correlation      = BEEF-VDW ( 1  4 27 13 2)
     nstep                     =           50

     celldm(1)=   1.889726  celldm(2)=   0.000000  celldm(3)=   0.000000
     celldm(4)=   0.000000  celldm(5)=   0.000000  celldm(6)=   0.000000

     crystal axes: (cart. coord. in units of alat)
               a(1) = (   7.086179   0.000000   0.000000 )
               a(2) = (  -3.543089   6.136811   0.000000 )
               a(3) = (   0.000000   0.000000  25.785841 )

     reciprocal axes: (cart. coord. in units 2 pi/alat)
               b(1) = (  0.141120  0.081476  0.000000 )
               b(2) = (  0.000000  0.162951  0.000000 )
               b(3) = (  0.000000  0.000000  0.038781 )

     PseudoPot. # 1 for Hg read from file:
     /afs/slac.stanford.edu/u/if/mamunm/psp/gbrv1.5pbe/Hg.UPF
     MD5 check sum: 8f42caffe07f7fd9c0a564347f8c5498
     Pseudo is Ultrasoft + core correction, Zval = 12.0
     Generated by new atomic code, or converted to UPF format
     Using radial grid of  985 points,  6 beta functions with:
                l(1) =   0
                l(2) =   0
                l(3) =   1
                l(4) =   1
                l(5) =   2
                l(6) =   2
     Q(r) pseudized with  8 coefficients,  rinner =    2.000   2.000   2.000
                                                       2.000   2.000

     PseudoPot. # 2 for Tl read from file:
     /afs/slac.stanford.edu/u/if/mamunm/psp/gbrv1.5pbe/Tl.UPF
     MD5 check sum: b76cf1f7e72655a2b2c53cf6385d7059
     Pseudo is Ultrasoft + core correction, Zval = 13.0
     Generated by new atomic code, or converted to UPF format
     Using radial grid of  899 points,  6 beta functions with:
                l(1) =   0
                l(2) =   0
                l(3) =   1
                l(4) =   1
                l(5) =   2
                l(6) =   2
     Q(r) pseudized with  6 coefficients,  rinner =    1.100   1.100   1.100
                                                       1.100   1.100

     vdW kernel table read from file vdW_kernel_table
     MD5 check sum: 095c7af220d748ca6e76c0b4c6cfb241

     atomic species   valence    mass     pseudopotential
        Hg1           12.00   200.59200     Hg( 1.00)
        Tl1           13.00   204.38000     Tl( 1.00)

     No symmetry found

   Cartesian axes

     site n.     atom                  positions (alat units)
         1           Hg1 tau(   1) = (   0.0000000   0.0000000  10.0000000  )
         2           Hg1 tau(   2) = (  -1.7715446   3.0684053  10.0000000  )
         3           Hg1 tau(   3) = (   1.7715446   3.0684053  10.0000000  )
         4           Tl1 tau(   4) = (   3.5430893   0.0000000  10.0000000  )
         5           Hg1 tau(   5) = (   3.5430893   2.0456036  12.8929203  )
         6           Hg1 tau(   6) = (   1.7715446   5.1140089  12.8929203  )
         7           Hg1 tau(   7) = (  -1.7715446   5.1140089  12.8929203  )
         8           Tl1 tau(   8) = (   0.0000000   2.0456036  12.8929203  )
         9           Hg1 tau(   9) = (  -0.0000000   4.0912071  15.7858406  )
        10           Hg1 tau(  10) = (   1.7715446   1.0228018  15.7858406  )
        11           Hg1 tau(  11) = (   5.3146339   1.0228018  15.7858406  )
        12           Tl1 tau(  12) = (   3.5430893   4.0912071  15.7858406  )

     number of k points=    20  Fermi-Dirac smearing, width (Ry)=  0.0110
                       cart. coord. in units 2pi/alat
        k(    1) = (   0.0000000   0.0000000   0.0000000), wk =   0.0555556
        k(    2) = (   0.0000000   0.0271585   0.0000000), wk =   0.1111111
        k(    3) = (   0.0000000   0.0543170   0.0000000), wk =   0.1111111
        k(    4) = (   0.0000000  -0.0814755   0.0000000), wk =   0.0555556
        k(    5) = (   0.0235200   0.0135793   0.0000000), wk =   0.1111111
        k(    6) = (   0.0235200   0.0407378   0.0000000), wk =   0.1111111
        k(    7) = (   0.0235200   0.0678963   0.0000000), wk =   0.1111111
        k(    8) = (   0.0235200  -0.0678963   0.0000000), wk =   0.1111111
        k(    9) = (   0.0235200  -0.0407378   0.0000000), wk =   0.1111111
        k(   10) = (   0.0235200  -0.0135793   0.0000000), wk =   0.1111111
        k(   11) = (   0.0470399   0.0271585   0.0000000), wk =   0.1111111
        k(   12) = (   0.0470399   0.0543170   0.0000000), wk =   0.1111111
        k(   13) = (   0.0470399   0.0814755   0.0000000), wk =   0.1111111
        k(   14) = (   0.0470399  -0.0543170   0.0000000), wk =   0.1111111
        k(   15) = (   0.0470399  -0.0271585   0.0000000), wk =   0.1111111
        k(   16) = (   0.0470399   0.0000000   0.0000000), wk =   0.1111111
        k(   17) = (  -0.0705599  -0.0407378   0.0000000), wk =   0.0555556
        k(   18) = (  -0.0705599  -0.0135793   0.0000000), wk =   0.1111111
        k(   19) = (  -0.0705599   0.0135793   0.0000000), wk =   0.1111111
        k(   20) = (  -0.0705599  -0.1222133   0.0000000), wk =   0.0555556

     Largest allocated arrays     est. size (Mb)     dimensions
     Largest temporary arrays     est. size (Mb)     dimensions

     Initial potential from superposition of free atoms
     Check: negative starting charge=   -0.154244

     starting charge  146.98488, renormalised to  147.00000

     negative rho (up, down):  1.543E-01 0.000E+00

     *
     * You are using vdW-DF for exchange-correlation in this calculation.
     * Please cite the following three references that made this development
     * possible:
     *
     *   M. Dion, H. Rydberg, E. Schroder, D. C. Langreth, and
     *   B. I. Lundqvist, Phys. Rev. Lett. 92, 246401 (2004).
     *
     *   T. Thonhauser, V. R. Cooper, S. Li, A. Puzder, P. Hyldgaard, and
     *   D. C. Langreth, Phys. Rev. B 76, 125112 (2007).
     *
     *   G. Roman-Perez and J. M. Soler, Phys. Rev. Lett. 103, 096102 (2009).
     *
     *
     * If you are using vdW-DF2, please also cite:
     *
     *   K. Lee, E. D. Murray, L. Kong, B. I. Lundqvist, and
     *   D. C. Langreth, Phys. Rev. B 82, 081101(R) (2010).
     *
     *
     * If you are calculating the stress with vdW-DF, please also cite:
     *
     *   R. Sabatini, E. Kucukbenli, B. Kolb, T. Thonhauser, and
     *   S. de Gironcoli, J. Phys.: Condens. Matter 24, 424209 (2012).
     *

     Carrying out vdW-DF run using the following parameters:

     Nqs =      20    Nr_points =    1024   r_max =   100.000
     q_mesh =
               0.00001000     0.04494208     0.09755937     0.15916263
               0.23128650     0.31572767     0.41458969     0.53033537
               0.66584808     0.82450364     1.01025438     1.22772762
               1.48234092     1.78043706     2.12944203     2.53805004
               3.01644009     3.57652955     4.23227104     5.00000000

     Gradients computed in reciprocal space

     Adding external electric field

     Computed dipole along edir(3) :
        Dipole                0.0000 Ry au,          0.0000 Debye
        Dipole field          0.0000 Ry au

        Potential amp.       -0.0000 Ry
        Total length         47.5100 bohr

     Starting wfc are  108 randomized atomic wfcs

     Self-consistent Calculation

     iteration #  1     ecut=    36.75 Ry     beta=0.10
     Davidson diagonalization with overlap
     ethr =  1.00E-02,  avg # of iterations =  9.2

     Threshold (ethr) on eigenvalues was too large:
     Diagonalizing with lowered threshold

     Davidson diagonalization with overlap
     ethr =  3.10E-05,  avg # of iterations =  9.4

[...]

     total energy              =   -1422.44479106 Ry
     Harris-Foulkes estimate   =   -1422.45008287 Ry
     estimated scf accuracy    <       0.03915551 Ry

[...]

     End of self-consistent calculation

          k = 0.0000 0.0000 0.0000 ( 28385 PWs)   bands (ev):

   -12.0303 -12.0260 -12.0260 -12.0249 -12.0224 -12.0224 -12.0199 -12.0199
   -12.0104 -12.0104 -12.0086 -12.0025 -12.0025 -11.9862 -11.9862  -7.8700
    -7.5607  -7.3423  -7.1648  -7.0682  -7.0681  -7.0676  -7.0342  -7.0121
    -6.9597  -6.9597  -6.9216  -6.9214  -6.9049  -6.9049  -6.8164  -6.8163
    -6.7944  -6.7712  -6.6772  -6.6772  -6.6337  -6.6131  -6.6129  -6.5970
    -6.5329  -6.5327  -6.5183  -6.5183  -6.4866  -6.4866  -6.4823  -6.4096
    -6.4096  -6.3882  -6.3882  -6.3674  -6.3674  -6.3178  -6.3177  -6.3175
    -6.2467  -6.2091  -6.2090  -6.2008  -6.1546  -6.1454  -5.0828  -3.8066
    -3.6144  -3.1852  -2.7664  -2.7664  -2.5192  -2.5192  -1.6914  -1.6914
    -0.8564  -0.8564  -0.7227  -0.1707   0.3943   0.3944   0.4492   0.4492
     0.4909   0.8861   1.6842   3.1417   3.3106   3.5923   3.6342   4.1994
     4.1994   4.2811   4.2811   4.3836   4.5056   5.4949   5.4949   5.5470
     6.0092   6.0094   6.0390   6.0772   6.3424   6.4093   6.4095

[...]

          k =-0.0706-0.0407 0.0000 ( 28478 PWs)   bands (ev):

[...]

     the Fermi energy is     0.1868 ev

!    total energy              =   -1422.43823256 Ry
     Harris-Foulkes estimate   =   -1422.43819736 Ry
     estimated scf accuracy    <       0.00000049 Ry

     The total energy is the sum of the following terms:

     one-electron contribution =   -6766.37646774 Ry
     hartree contribution      =    3469.09175938 Ry
     xc contribution           =    -555.48649653 Ry
     ewald contribution        =    2430.36000110 Ry
     electric field correction =       0.00000000 Ry
     smearing contrib. (-TS)   =      -0.02702878 Ry

     convergence has been achieved in  11 iterations

 BEEF-vdW xc energy contributions
           1 :   -489.445341565136
           2 :    450.702406519737
           3 :   -383.882720599571
           4 :    305.446528746695
           5 :   -231.094582286585
           6 :    170.785458190838
           7 :   -127.122230152772
           8 :    97.0041405136426
           9 :   -75.0818047128163
          10 :    56.9986061681451
          11 :   -40.9454154251499
          12 :    27.2438000408855
[...]
     Pseudo is Ultrasoft + core correction, Zval = 12.0
     Generated by new atomic code, or converted to UPF format
     Using radial grid of  985 points,  6 beta functions with:
                l(1) =   0
                l(2) =   0
                l(3) =   1
                l(4) =   1
                l(5) =   2
                l(6) =   2
     Q(r) pseudized with  8 coefficients,  rinner =    2.000   2.000   2.000
                                                       2.000   2.000

     PseudoPot. # 2 for Tl read from file:
     /afs/slac.stanford.edu/u/if/mamunm/psp/gbrv1.5pbe/Tl.UPF
     MD5 check sum: b76cf1f7e72655a2b2c53cf6385d7059
     Pseudo is Ultrasoft + core correction, Zval = 13.0
     Generated by new atomic code, or converted to UPF format
     Using radial grid of  899 points,  6 beta functions with:
                l(1) =   0
                l(2) =   0
                l(3) =   1
                l(4) =   1
                l(5) =   2
                l(6) =   2
     Q(r) pseudized with  6 coefficients,  rinner =    1.100   1.100   1.100
                                                       1.100   1.100

     vdW kernel table read from file vdW_kernel_table
     MD5 check sum: 095c7af220d748ca6e76c0b4c6cfb241

     atomic species   valence    mass     pseudopotential
        Hg1           12.00   200.59200     Hg( 1.00)
        Tl1           13.00   204.38000     Tl( 1.00)

     No symmetry found

   Cartesian axes

     site n.     atom                  positions (alat units)
         1           Hg1 tau(   1) = (   0.0000000   0.0000000  10.0000000  )
         2           Hg1 tau(   2) = (  -1.7715446   3.0684053  10.0000000  )
         3           Hg1 tau(   3) = (   1.7715446   3.0684053  10.0000000  )
         4           Tl1 tau(   4) = (   3.5430893   0.0000000  10.0000000  )
         5           Hg1 tau(   5) = (   3.5430893   2.0456036  12.8929203  )
         6           Hg1 tau(   6) = (   1.7715446   5.1140089  12.8929203  )
         7           Hg1 tau(   7) = (  -1.7715446   5.1140089  12.8929203  )
         8           Tl1 tau(   8) = (   0.0000000   2.0456036  12.8929203  )
         9           Hg1 tau(   9) = (  -0.0000369   4.1217990  15.9361263  )
        10           Hg1 tau(  10) = (   1.7979780   1.0074579  15.9360793  )
        11           Hg1 tau(  11) = (   5.2881728   1.0074094  15.9360920  )
        12           Tl1 tau(  12) = (   3.5430614   4.0912340  15.6779542  )

     number of k points=    20  Fermi-Dirac smearing, width (Ry)=  0.0110
                       cart. coord. in units 2pi/alat
        k(    1) = (   0.0000000   0.0000000   0.0000000), wk =   0.0555556
        k(    2) = (   0.0000000   0.0271585   0.0000000), wk =   0.1111111
        k(    3) = (   0.0000000   0.0543170   0.0000000), wk =   0.1111111
        k(    4) = (   0.0000000  -0.0814755   0.0000000), wk =   0.0555556
        k(    5) = (   0.0235200   0.0135793   0.0000000), wk =   0.1111111
        k(    6) = (   0.0235200   0.0407378   0.0000000), wk =   0.1111111
        k(    7) = (   0.0235200   0.0678963   0.0000000), wk =   0.1111111
        k(    8) = (   0.0235200  -0.0678963   0.0000000), wk =   0.1111111
        k(    9) = (   0.0235200  -0.0407378   0.0000000), wk =   0.1111111
        k(   10) = (   0.0235200  -0.0135793   0.0000000), wk =   0.1111111
        k(   11) = (   0.0470399   0.0271585   0.0000000), wk =   0.1111111
        k(   12) = (   0.0470399   0.0543170   0.0000000), wk =   0.1111111
        k(   13) = (   0.0470399   0.0814755   0.0000000), wk =   0.1111111
        k(   14) = (   0.0470399  -0.0543170   0.0000000), wk =   0.1111111
        k(   15) = (   0.0470399  -0.0271585   0.0000000), wk =   0.1111111
        k(   16) = (   0.0470399   0.0000000   0.0000000), wk =   0.1111111
        k(   17) = (  -0.0705599  -0.0407378   0.0000000), wk =   0.0555556
        k(   18) = (  -0.0705599  -0.0135793   0.0000000), wk =   0.1111111
        k(   19) = (  -0.0705599   0.0135793   0.0000000), wk =   0.1111111
        k(   20) = (  -0.0705599  -0.1222133   0.0000000), wk =   0.0555556

     Largest allocated arrays     est. size (Mb)     dimensions
     Largest temporary arrays     est. size (Mb)     dimensions

     Initial potential from superposition of free atoms
     Check: negative starting charge=   -0.154418

     starting charge  146.98488, renormalised to  147.00000

[...]

     *
     * You are using vdW-DF for exchange-correlation in this calculation.
     * Please cite the following three references that made this development
     * possible:
     *
     *   M. Dion, H. Rydberg, E. Schroder, D. C. Langreth, and
     *   B. I. Lundqvist, Phys. Rev. Lett. 92, 246401 (2004).
     *
     *   T. Thonhauser, V. R. Cooper, S. Li, A. Puzder, P. Hyldgaard, and
     *   D. C. Langreth, Phys. Rev. B 76, 125112 (2007).
     *
     *   G. Roman-Perez and J. M. Soler, Phys. Rev. Lett. 103, 096102 (2009).
     *
     *
     * If you are using vdW-DF2, please also cite:
     *
     *   K. Lee, E. D. Murray, L. Kong, B. I. Lundqvist, and
     *   D. C. Langreth, Phys. Rev. B 82, 081101(R) (2010).
     *
     *
     * If you are calculating the stress with vdW-DF, please also cite:
     *
     *   R. Sabatini, E. Kucukbenli, B. Kolb, T. Thonhauser, and
     *   S. de Gironcoli, J. Phys.: Condens. Matter 24, 424209 (2012).
     *

     Carrying out vdW-DF run using the following parameters:

     Nqs =      20    Nr_points =    1024   r_max =   100.000
     q_mesh =
               0.00001000     0.04494208     0.09755937     0.15916263
               0.23128650     0.31572767     0.41458969     0.53033537
               0.66584808     0.82450364     1.01025438     1.22772762
               1.48234092     1.78043706     2.12944203     2.53805004
               3.01644009     3.57652955     4.23227104     5.00000000

     Gradients computed in reciprocal space

[...]

     Starting wfc are  108 randomized atomic wfcs

     Self-consistent Calculation

[...]

     Threshold (ethr) on eigenvalues was too large:
     Diagonalizing with lowered threshold

     Davidson diagonalization with overlap
     ethr =  3.13E-05,  avg # of iterations =  9.4

[...]

     total energy              =   -1422.44267024 Ry
     Harris-Foulkes estimate   =   -1422.44263831 Ry
     estimated scf accuracy    <       0.00000236 Ry

     iteration # 10     ecut=    36.75 Ry     beta=0.10
     Davidson diagonalization with overlap
     ethr =  1.60E-09,  avg # of iterations =  2.5

[...]

     negative rho (up, down):  1.562E-01 0.000E+00

     Adding external electric field

     Computed dipole along edir(3) :
        Dipole               -0.0122 Ry au,         -0.0310 Debye
        Dipole field         -0.0000 Ry au

        Potential amp.        0.0019 Ry
        Total length         47.5100 bohr

     End of self-consistent calculation

[...]

          k = 0.0470 0.0000 0.0000 ( 28443 PWs)   bands (ev):

[...]

          k =-0.0706-0.1222 0.0000 ( 28478 PWs)   bands (ev):

   -12.0237 -12.0160 -12.0140 -12.0139 -12.0136 -12.0098 -12.0070 -12.0049
   -12.0041 -12.0010 -12.0003 -11.9999 -11.9987 -11.9933 -11.9844  -7.2967
    -7.2866  -7.1208  -7.0803  -6.9789  -6.9662  -6.9487  -6.9232  -6.8856
    -6.8803  -6.8722  -6.8644  -6.8452  -6.8189  -6.7845  -6.7615  -6.7241
    -6.7215  -6.6921  -6.6576  -6.6342  -6.6318  -6.6064  -6.6022  -6.5962
    -6.5845  -6.5817  -6.5809  -6.5684  -6.5642  -6.5619  -6.5406  -6.5355
    -6.5307  -6.5137  -6.4994  -6.4750  -6.4707  -6.4634  -6.4338  -6.4014
    -6.3805  -6.3494  -6.3280  -6.2614  -6.2238  -6.2174  -5.7584  -5.0031
    -4.4408  -3.8650  -3.5818  -3.3760  -3.0165  -2.6559  -2.5563  -1.5946
     0.5804   0.6886   1.0229   1.1666   1.4397   1.5301   1.9549   1.9743
     2.1566   2.5181   2.6741   2.8749   3.0929   3.6540   3.7102   3.8397
     3.8644   3.9492   4.1299   4.4886   4.4970   4.5421   4.6296   4.7025
     4.7239   4.8068   4.9122   5.0660   5.2829   5.3127   5.5230

     the Fermi energy is     0.1787 ev

!    total energy              =   -1422.44273031 Ry
     Harris-Foulkes estimate   =   -1422.44267067 Ry
     estimated scf accuracy    <       0.00000060 Ry

     The total energy is the sum of the following terms:

     one-electron contribution =   -6686.10535001 Ry
     hartree contribution      =    3428.93172732 Ry
     xc contribution           =    -555.47240320 Ry
     ewald contribution        =    2390.23003985 Ry
     electric field correction =       0.00000025 Ry
     smearing contrib. (-TS)   =      -0.02674451 Ry

     convergence has been achieved in  10 iterations

 BEEF-vdW xc energy contributions
           1 :   -489.475431046436
           2 :    450.697166804225
           3 :   -383.846813455502
           4 :    305.425096847813
           5 :   -231.135953390471
           6 :    170.898754937154
           7 :   -127.264620396104
           8 :    97.1100693541621
           9 :   -75.1125761308853
          10 :    56.9725666309729
          11 :   -40.9248541493990
          12 :    27.2879197019498
          13 :   -16.9496125205668
          14 :    10.0477360360945
          15 :   -5.64989962185621
          16 :    2.36419478456605
          17 :   0.783602903120482
          18 :   -3.89720761217939
          19 :    6.41591282377487
          20 :   -7.72895950535940
          21 :    7.71972619092264
          22 :   -6.89692723628787
          23 :    6.08484021655659
          24 :   -5.93554244854988
          25 :    6.59219539033279
          26 :   -7.68842861064320
          27 :    8.62502548640748
          28 :   -8.91763383223019
          29 :    8.41426572998660
          30 :   -7.30856055161200
          31 :   -43.2919755156501
          32 :   -31.5020855992343

     Forces acting on atoms (Ry/au):

     negative rho (up, down):  1.562E-01 0.000E+00
     atom    1 type  1   force =     0.00000286   -0.00192364   -0.00386990
     atom    2 type  1   force =    -0.00166851    0.00097135   -0.00387786
     atom    3 type  1   force =     0.00166959    0.00096880   -0.00387666
     atom    4 type  2   force =    -0.00000364   -0.00003597    0.00320896
     atom    5 type  1   force =    -0.00000232   -0.00193566    0.00055658
     atom    6 type  1   force =    -0.00168063    0.00097589    0.00055739
     atom    7 type  1   force =     0.00168123    0.00097706    0.00055767
     atom    8 type  2   force =     0.00000499    0.00000283    0.00340084
     atom    9 type  1   force =    -0.00000154   -0.00055644    0.00126218
     atom   10 type  1   force =    -0.00048187    0.00028510    0.00125881
     atom   11 type  1   force =     0.00048273    0.00028643    0.00125951
     atom   12 type  2   force =    -0.00000287   -0.00001576   -0.00043753

     Total force =     0.009808     Total SCF correction =     0.002875
     SCF correction compared to forces is large: reduce conv_thr to get better values

     entering subroutine stress ...

     negative rho (up, down):  1.562E-01 0.000E+00
          total   stress  (Ry/bohr**3)                   (kbar)     P=   -1.25
  -0.00001182   0.00000000   0.00000000         -1.74      0.00      0.00
   0.00000000  -0.00001180   0.00000000          0.00     -1.74      0.00
   0.00000000   0.00000000  -0.00000183          0.00      0.00     -0.27

 !ASE

     Writing output data file calc.save

     General routines

     Parallel routines

   This run was terminated on:  13: 5:49  26Dec2018

   JOB DONE.
Job  /afs/slac/g/suncat/bin/suncat-tsmpirun -x LD_LIBRARY_PATH -wdir /scratch/qe109841_xPQca pw.x -in pw.inp

TID   HOST_NAME   COMMAND_LINE            STATUS            TERMINATION_TIME
00000 suncat0183 pw.x -in pw.inp   Done                     12/26/2018 13:05:49
00001 suncat0183 pw.x -in pw.inp   Done                     12/26/2018 13:05:49
00002 suncat0183 pw.x -in pw.inp   Done                     12/26/2018 13:05:49
00003 suncat0183 pw.x -in pw.inp   Done                     12/26/2018 13:05:49
00004 suncat0183 pw.x -in pw.inp   Done                     12/26/2018 13:05:49
00005 suncat0183 pw.x -in pw.inp   Done                     12/26/2018 13:05:49
00006 suncat0183 pw.x -in pw.inp   Done                     12/26/2018 13:05:49
00007 suncat0183 pw.x -in pw.inp   Done                     12/26/2018 13:05:49
00008 suncat0182 pw.x -in pw.inp   Done                     12/26/2018 13:05:49
00009 suncat0182 pw.x -in pw.inp   Done                     12/26/2018 13:05:49
00010 suncat0182 pw.x -in pw.inp   Done                     12/26/2018 13:05:49
00011 suncat0182 pw.x -in pw.inp   Done                     12/26/2018 13:05:49
00012 suncat0182 pw.x -in pw.inp   Done                     12/26/2018 13:05:49
00013 suncat0182 pw.x -in pw.inp   Done                     12/26/2018 13:05:49
00014 suncat0182 pw.x -in pw.inp   Done                     12/26/2018 13:05:49
00015 suncat0182 pw.x -in pw.inp   Done                     12/26/2018 13:05:49
00016 suncat0181 pw.x -in pw.inp   Done                     12/26/2018 13:05:49
00017 suncat0181 pw.x -in pw.inp   Done                     12/26/2018 13:05:49
00018 suncat0181 pw.x -in pw.inp   Done                     12/26/2018 13:05:49
00019 suncat0181 pw.x -in pw.inp   Done                     12/26/2018 13:05:49
00020 suncat0181 pw.x -in pw.inp   Done                     12/26/2018 13:05:49
00021 suncat0181 pw.x -in pw.inp   Done                     12/26/2018 13:05:49
00022 suncat0181 pw.x -in pw.inp   Done                     12/26/2018 13:05:49
00023 suncat0181 pw.x -in pw.inp   Done                     12/26/2018 13:05:49
00024 suncat0252 pw.x -in pw.inp   Done                     12/26/2018 13:05:49
00025 suncat0252 pw.x -in pw.inp   Done                     12/26/2018 13:05:49
00026 suncat0252 pw.x -in pw.inp   Done                     12/26/2018 13:05:49
00027 suncat0252 pw.x -in pw.inp   Done                     12/26/2018 13:05:49
00028 suncat0252 pw.x -in pw.inp   Done                     12/26/2018 13:05:49
00029 suncat0252 pw.x -in pw.inp   Done                     12/26/2018 13:05:49
00030 suncat0252 pw.x -in pw.inp   Done                     12/26/2018 13:05:49
00031 suncat0252 pw.x -in pw.inp   Done                     12/26/2018 13:05:49
00032 suncat0226 pw.x -in pw.inp   Done                     12/26/2018 13:05:49
00033 suncat0226 pw.x -in pw.inp   Done                     12/26/2018 13:05:49
00034 suncat0226 pw.x -in pw.inp   Done                     12/26/2018 13:05:49
00035 suncat0226 pw.x -in pw.inp   Done                     12/26/2018 13:05:49
00036 suncat0226 pw.x -in pw.inp   Done                     12/26/2018 13:05:49
00037 suncat0226 pw.x -in pw.inp   Done                     12/26/2018 13:05:49
00038 suncat0226 pw.x -in pw.inp   Done                     12/26/2018 13:05:49
00039 suncat0226 pw.x -in pw.inp   Done                     12/26/2018 13:05:49
00040 suncat0225 pw.x -in pw.inp   Done                     12/26/2018 13:05:49
00041 suncat0225 pw.x -in pw.inp   Done                     12/26/2018 13:05:49
00042 suncat0225 pw.x -in pw.inp   Done                     12/26/2018 13:05:49
00043 suncat0225 pw.x -in pw.inp   Done                     12/26/2018 13:05:49
00044 suncat0225 pw.x -in pw.inp   Done                     12/26/2018 13:05:49
00045 suncat0225 pw.x -in pw.inp   Done                     12/26/2018 13:05:49
00046 suncat0225 pw.x -in pw.inp   Done                     12/26/2018 13:05:49
00047 suncat0225 pw.x -in pw.inp   Done                     12/26/2018 13:05:49
00048 suncat0224 pw.x -in pw.inp   Done                     12/26/2018 13:05:49
00049 suncat0224 pw.x -in pw.inp   Done                     12/26/2018 13:05:49
00050 suncat0224 pw.x -in pw.inp   Done                     12/26/2018 13:05:49
00051 suncat0224 pw.x -in pw.inp   Done                     12/26/2018 13:05:49
00052 suncat0224 pw.x -in pw.inp   Done                     12/26/2018 13:05:49
00053 suncat0224 pw.x -in pw.inp   Done                     12/26/2018 13:05:49
00054 suncat0224 pw.x -in pw.inp   Done                     12/26/2018 13:05:49
00055 suncat0224 pw.x -in pw.inp   Done                     12/26/2018 13:05:49
00056 suncat0223 pw.x -in pw.inp   Done                     12/26/2018 13:05:49
00057 suncat0223 pw.x -in pw.inp   Done                     12/26/2018 13:05:49
00058 suncat0223 pw.x -in pw.inp   Done                     12/26/2018 13:05:49
00059 suncat0223 pw.x -in pw.inp   Done                     12/26/2018 13:05:49
00060 suncat0223 pw.x -in pw.inp   Done                     12/26/2018 13:05:49
00061 suncat0223 pw.x -in pw.inp   Done                     12/26/2018 13:05:49
00062 suncat0223 pw.x -in pw.inp   Done                     12/26/2018 13:05:49
00063 suncat0223 pw.x -in pw.inp   Done                     12/26/2018 13:05:49