     Program PWSCF v.5.1rc2 (svn rev. 11289) starts on 19Dec2018 at  8:56: 6

     Current dimensions of program PWSCF are:
     Max number of different atomic species (ntypx) = 10
     Max number of k-points (npk) =  40000
     Max angular momentum in pseudopotentials (lmaxx) =  3
     Presently stress not available with electric field

     IMPORTANT: XC functional enforced from input :
     Exchange-correlation      = BEEF-VDW ( 1  4 27 13 2)
     Any further DFT definition will be discarded
     Please, verify this is what you really want

     Subspace diagonalization in iterative solution of the eigenvalue problem:
     a serial algorithm will be used

     Found symmetry operation: I + ( -0.5000  0.0000  0.0000)
     This is a supercell, fractional translations are disabled

     bravais-lattice index     =            0
     lattice parameter (alat)  =       1.8897  a.u.
     unit-cell volume          =    3932.4755 (a.u.)^3
     number of atoms/cell      =           12
     number of atomic types    =            2
     number of electrons       =       162.00
     number of Kohn-Sham states=          111
     kinetic-energy cutoff     =      36.7493  Ry
     charge density cutoff     =     367.4932  Ry
     convergence threshold     =      1.0E-06
     mixing beta               =       0.1000
     number of iterations used =           10  plain     mixing
     Exchange-correlation      = BEEF-VDW ( 1  4 27 13 2)
     nstep                     =           50

     celldm(1)=   1.889726  celldm(2)=   0.000000  celldm(3)=   0.000000
     celldm(4)=   0.000000  celldm(5)=   0.000000  celldm(6)=   0.000000

     crystal axes: (cart. coord. in units of alat)
               a(1) = (   4.809163   0.000000   0.000000 )
               a(2) = (  -2.404581   5.003484   0.000000 )
               a(3) = (   0.000000   0.000000  24.217396 )

     reciprocal axes: (cart. coord. in units 2 pi/alat)
               b(1) = (  0.207936  0.099930  0.000000 )
               b(2) = (  0.000000  0.199861  0.000000 )
               b(3) = (  0.000000  0.000000  0.041293 )

     PseudoPot. # 1 for V  read from file:
     /afs/slac.stanford.edu/u/if/mamunm/psp/gbrv1.5pbe/V.UPF
     MD5 check sum: 22b79981416ebb76fdaf5b1b8640f6fb
     Pseudo is Ultrasoft + core correction, Zval = 13.0
     Generated by new atomic code, or converted to UPF format
     Using radial grid of  853 points,  6 beta functions with:
                l(1) =   0
                l(2) =   0
                l(3) =   1
                l(4) =   1
                l(5) =   2
                l(6) =   2
     Q(r) pseudized with  8 coefficients,  rinner =    1.100   1.100   1.100
                                                       1.100   1.100

     PseudoPot. # 2 for Cr read from file:
     /afs/slac.stanford.edu/u/if/mamunm/psp/gbrv1.5pbe/Cr.UPF
     MD5 check sum: 0d52af634a40206e4dee301ad30da4bf
     Pseudo is Ultrasoft + core correction, Zval = 14.0
     Generated by new atomic code, or converted to UPF format
     Using radial grid of  857 points,  6 beta functions with:
                l(1) =   0
                l(2) =   0
                l(3) =   1
                l(4) =   1
                l(5) =   2
                l(6) =   2
     Q(r) pseudized with  8 coefficients,  rinner =    0.950   0.950   0.950
                                                       0.950   0.950

     vdW kernel table read from file vdW_kernel_table
     MD5 check sum: 095c7af220d748ca6e76c0b4c6cfb241

     atomic species   valence    mass     pseudopotential
        V1            13.00    50.94150     V ( 1.00)
        Cr1           14.00    51.99610     Cr( 1.00)

     No symmetry found

   Cartesian axes

     site n.     atom                  positions (alat units)
         1           V1  tau(   1) = (   0.0000000   0.0000000  10.0000000  )
         2           V1  tau(   2) = (   2.4045814   0.0000000  10.0000000  )
         3           Cr1 tau(   3) = (   1.2022907   2.5017419  10.0000000  )
         4           Cr1 tau(   4) = (  -1.2022907   2.5017419  10.0000000  )
         5           V1  tau(   5) = (   2.4045814   1.1555972  12.1086979  )
         6           V1  tau(   6) = (   0.0000000   1.1555972  12.1086979  )
         7           Cr1 tau(   7) = (  -1.2022907   3.6573391  12.1086979  )
         8           Cr1 tau(   8) = (   1.2022907   3.6573391  12.1086979  )
         9           V1  tau(   9) = (   0.0000000   2.3111944  14.2173959  )
        10           V1  tau(  10) = (   2.4045814   2.3111944  14.2173959  )
        11           Cr1 tau(  11) = (   1.2022907   4.8129363  14.2173959  )
        12           Cr1 tau(  12) = (  -1.2022907   4.8129363  14.2173959  )

     number of k points=    20  Fermi-Dirac smearing, width (Ry)=  0.0110
                       cart. coord. in units 2pi/alat
        k(    1) = (   0.0000000   0.0000000   0.0000000), wk =   0.0555556
        k(    2) = (   0.0000000   0.0333101   0.0000000), wk =   0.1111111
        k(    3) = (   0.0000000   0.0666202   0.0000000), wk =   0.1111111
        k(    4) = (   0.0000000  -0.0999304   0.0000000), wk =   0.0555556
        k(    5) = (   0.0346561   0.0166551   0.0000000), wk =   0.1111111
        k(    6) = (   0.0346561   0.0499652   0.0000000), wk =   0.1111111
        k(    7) = (   0.0346561   0.0832753   0.0000000), wk =   0.1111111
        k(    8) = (   0.0346561  -0.0832753   0.0000000), wk =   0.1111111
        k(    9) = (   0.0346561  -0.0499652   0.0000000), wk =   0.1111111
        k(   10) = (   0.0346561  -0.0166551   0.0000000), wk =   0.1111111
        k(   11) = (   0.0693121   0.0333101   0.0000000), wk =   0.1111111
        k(   12) = (   0.0693121   0.0666202   0.0000000), wk =   0.1111111
        k(   13) = (   0.0693121   0.0999304   0.0000000), wk =   0.1111111
        k(   14) = (   0.0693121  -0.0666202   0.0000000), wk =   0.1111111
        k(   15) = (   0.0693121  -0.0333101   0.0000000), wk =   0.1111111
        k(   16) = (   0.0693121  -0.0000000   0.0000000), wk =   0.1111111
        k(   17) = (  -0.1039682  -0.0499652   0.0000000), wk =   0.0555556
        k(   18) = (  -0.1039682  -0.0166551   0.0000000), wk =   0.1111111
        k(   19) = (  -0.1039682   0.0166551   0.0000000), wk =   0.1111111
        k(   20) = (  -0.1039682  -0.1498956   0.0000000), wk =   0.0555556

     Largest allocated arrays     est. size (Mb)     dimensions
     Largest temporary arrays     est. size (Mb)     dimensions

     Check: negative/imaginary core charge=   -0.000003    0.000000

     Initial potential from superposition of free atoms
     Check: negative starting charge=   -0.012017

     starting charge  155.99254, renormalised to  162.00000

     negative rho (up, down):  1.248E-02 0.000E+00

     *
     * You are using vdW-DF for exchange-correlation in this calculation.
     * Please cite the following three references that made this development
     * possible:
     *
     *   M. Dion, H. Rydberg, E. Schroder, D. C. Langreth, and
     *   B. I. Lundqvist, Phys. Rev. Lett. 92, 246401 (2004).
     *
     *   T. Thonhauser, V. R. Cooper, S. Li, A. Puzder, P. Hyldgaard, and
     *   D. C. Langreth, Phys. Rev. B 76, 125112 (2007).
     *
     *   G. Roman-Perez and J. M. Soler, Phys. Rev. Lett. 103, 096102 (2009).
     *
     *
     * If you are using vdW-DF2, please also cite:
     *
     *   K. Lee, E. D. Murray, L. Kong, B. I. Lundqvist, and
     *   D. C. Langreth, Phys. Rev. B 82, 081101(R) (2010).
     *
     *
     * If you are calculating the stress with vdW-DF, please also cite:
     *
     *   R. Sabatini, E. Kucukbenli, B. Kolb, T. Thonhauser, and
     *   S. de Gironcoli, J. Phys.: Condens. Matter 24, 424209 (2012).
     *

     Carrying out vdW-DF run using the following parameters:

     Nqs =      20    Nr_points =    1024   r_max =   100.000
     q_mesh =
               0.00001000     0.04494208     0.09755937     0.15916263
               0.23128650     0.31572767     0.41458969     0.53033537
               0.66584808     0.82450364     1.01025438     1.22772762
               1.48234092     1.78043706     2.12944203     2.53805004
               3.01644009     3.57652955     4.23227104     5.00000000

     Gradients computed in reciprocal space

     Adding external electric field

     Computed dipole along edir(3) :
        Dipole               -0.0000 Ry au,         -0.0000 Debye
        Dipole field         -0.0000 Ry au

        Potential amp.        0.0000 Ry
        Total length         44.6201 bohr

     Starting wfc are  120 randomized atomic wfcs

     Self-consistent Calculation

     iteration #  1     ecut=    36.75 Ry     beta=0.10
     Davidson diagonalization with overlap
     ethr =  1.00E-02,  avg # of iterations =  3.4

[...]

     total energy              =   -1928.85389886 Ry
     Harris-Foulkes estimate   =   -1935.57873165 Ry
     estimated scf accuracy    <      37.41054601 Ry

[...]

     End of self-consistent calculation

          k = 0.0000 0.0000 0.0000 ( 14735 PWs)   bands (ev):

   -70.8142 -70.6993 -70.6118 -70.6033 -70.4979 -70.4900 -63.2008 -63.1686
   -63.0306 -63.0135 -62.9839 -62.8469 -42.4536 -42.3059 -42.2016 -42.1937
   -42.1884 -42.1034 -42.0077 -41.9753 -41.9100 -41.8916 -41.8879 -41.8175
   -41.7980 -41.7334 -41.6958 -41.6578 -41.4381 -41.4358 -37.4668 -37.4118
   -37.3607 -37.3474 -37.2022 -37.0738 -36.9711 -36.9356 -36.9231 -36.8420
   -36.8363 -36.7893 -36.7091 -36.5223 -36.4067 -36.3263 -36.2940 -36.2521
    -5.3854  -3.6755  -2.6610  -2.4623  -2.4334  -2.4052  -2.1747  -2.1420
    -2.1109  -1.6235  -1.4767  -1.4733  -1.4728  -1.4679  -1.4626  -0.8932
    -0.7672  -0.6063  -0.5898  -0.3495  -0.1390  -0.0910  -0.0245   0.1236
     0.3579   0.4902   0.7469   0.8314   0.8976   1.1601   1.2541   1.3387
     1.6362   1.6538   1.7211   1.7753   1.7811   1.9114   1.9369   2.1884
     2.2001   2.2052   2.2816   2.3087   2.4110   2.4294   2.5792   2.7851
     2.8407   2.8607   3.0941   3.3004   3.3630   3.4218   3.4640   3.4827
     3.4842   3.4880   3.6414   3.7763   3.8652   3.9340   3.9391

[...]

          k =-0.1040-0.0500 0.0000 ( 14802 PWs)   bands (ev):

[...]

     the Fermi energy is     1.0061 ev

!    total energy              =   -1931.90031163 Ry
     Harris-Foulkes estimate   =   -1931.90031313 Ry
     estimated scf accuracy    <       0.00000065 Ry

     The total energy is the sum of the following terms:

     one-electron contribution =  -17068.27129196 Ry
     hartree contribution      =    8522.63850925 Ry
     xc contribution           =    -261.90950462 Ry
     ewald contribution        =    6875.74998971 Ry
     electric field correction =       0.00000000 Ry
     smearing contrib. (-TS)   =      -0.10801401 Ry

     convergence has been achieved in  26 iterations

 BEEF-vdW xc energy contributions
           1 :   -226.356217904439
           2 :    203.587188183380
           3 :   -165.691257459729
           4 :    124.254705452538
           5 :   -89.6746052597346
           6 :    67.2761349188879
           7 :   -56.4040898731954
           8 :    52.3985804830777
           9 :   -49.9206848980534
          10 :    45.6874370805886
[...]
   This run was terminated on:   9: 8: 0  19Dec2018

[...]

     Program PWSCF v.5.1rc2 (svn rev. 11289) starts on 19Dec2018 at  9: 8: 6

[...]

     Total force =     0.032989     Total SCF correction =     0.005152
     SCF correction compared to forces is large: reduce conv_thr to get better values

[...]

   This run was terminated on:   9:14: 5  19Dec2018

[...]

     Program PWSCF v.5.1rc2 (svn rev. 11289) starts on 19Dec2018 at  9:14:11

     Current dimensions of program PWSCF are:
     Max number of different atomic species (ntypx) = 10
     Max number of k-points (npk) =  40000
     Max angular momentum in pseudopotentials (lmaxx) =  3
     Presently stress not available with electric field

     IMPORTANT: XC functional enforced from input :
     Exchange-correlation      = BEEF-VDW ( 1  4 27 13 2)
     Any further DFT definition will be discarded
     Please, verify this is what you really want

     Subspace diagonalization in iterative solution of the eigenvalue problem:
     a serial algorithm will be used

     Found symmetry operation: I + ( -0.5000  0.0000  0.0000)
     This is a supercell, fractional translations are disabled

     bravais-lattice index     =            0
     lattice parameter (alat)  =       1.8897  a.u.
     unit-cell volume          =    3932.4755 (a.u.)^3
     number of atoms/cell      =           12
     number of atomic types    =            2
     number of electrons       =       162.00
     number of Kohn-Sham states=          111
     kinetic-energy cutoff     =      36.7493  Ry
     charge density cutoff     =     367.4932  Ry
     convergence threshold     =      1.0E-06
     mixing beta               =       0.1000
     number of iterations used =           10  plain     mixing
     Exchange-correlation      = BEEF-VDW ( 1  4 27 13 2)
     nstep                     =           50

     celldm(1)=   1.889726  celldm(2)=   0.000000  celldm(3)=   0.000000
     celldm(4)=   0.000000  celldm(5)=   0.000000  celldm(6)=   0.000000

     crystal axes: (cart. coord. in units of alat)
               a(1) = (   4.809163   0.000000   0.000000 )
               a(2) = (  -2.404581   5.003484   0.000000 )
               a(3) = (   0.000000   0.000000  24.217396 )

     reciprocal axes: (cart. coord. in units 2 pi/alat)
               b(1) = (  0.207936  0.099930  0.000000 )
               b(2) = (  0.000000  0.199861  0.000000 )
               b(3) = (  0.000000  0.000000  0.041293 )

     PseudoPot. # 1 for V  read from file:
     /afs/slac.stanford.edu/u/if/mamunm/psp/gbrv1.5pbe/V.UPF
     MD5 check sum: 22b79981416ebb76fdaf5b1b8640f6fb
     Pseudo is Ultrasoft + core correction, Zval = 13.0
     Generated by new atomic code, or converted to UPF format
     Using radial grid of  853 points,  6 beta functions with:
                l(1) =   0
                l(2) =   0
                l(3) =   1
                l(4) =   1
                l(5) =   2
                l(6) =   2
     Q(r) pseudized with  8 coefficients,  rinner =    1.100   1.100   1.100
                                                       1.100   1.100

     PseudoPot. # 2 for Cr read from file:
     /afs/slac.stanford.edu/u/if/mamunm/psp/gbrv1.5pbe/Cr.UPF
     MD5 check sum: 0d52af634a40206e4dee301ad30da4bf
     Pseudo is Ultrasoft + core correction, Zval = 14.0
     Generated by new atomic code, or converted to UPF format
     Using radial grid of  857 points,  6 beta functions with:
                l(1) =   0
                l(2) =   0
                l(3) =   1
                l(4) =   1
                l(5) =   2
                l(6) =   2
     Q(r) pseudized with  8 coefficients,  rinner =    0.950   0.950   0.950
                                                       0.950   0.950

     vdW kernel table read from file vdW_kernel_table
     MD5 check sum: 095c7af220d748ca6e76c0b4c6cfb241

     atomic species   valence    mass     pseudopotential
        V1            13.00    50.94150     V ( 1.00)
        Cr1           14.00    51.99610     Cr( 1.00)

     No symmetry found

   Cartesian axes

     site n.     atom                  positions (alat units)
         1           V1  tau(   1) = (   0.0000000   0.0000000  10.0000000  )
         2           V1  tau(   2) = (   2.4045814   0.0000000  10.0000000  )
         3           Cr1 tau(   3) = (   1.2022907   2.5017419  10.0000000  )
         4           Cr1 tau(   4) = (  -1.2022907   2.5017419  10.0000000  )
         5           V1  tau(   5) = (   2.4045814   1.1555972  12.1086979  )
         6           V1  tau(   6) = (   0.0000000   1.1555972  12.1086979  )
         7           Cr1 tau(   7) = (  -1.2022907   3.6573391  12.1086979  )
         8           Cr1 tau(   8) = (   1.2022907   3.6573391  12.1086979  )
         9           V1  tau(   9) = (   0.0000177   2.3318127  14.2432257  )
        10           V1  tau(  10) = (   2.4046028   2.3318158  14.2432176  )
        11           Cr1 tau(  11) = (   1.2022697   4.8033122  14.1236664  )
        12           Cr1 tau(  12) = (  -1.2023105   4.8033137  14.1236186  )

     number of k points=    20  Fermi-Dirac smearing, width (Ry)=  0.0110
                       cart. coord. in units 2pi/alat
        k(    1) = (   0.0000000   0.0000000   0.0000000), wk =   0.0555556
        k(    2) = (   0.0000000   0.0333101   0.0000000), wk =   0.1111111
        k(    3) = (   0.0000000   0.0666202   0.0000000), wk =   0.1111111
        k(    4) = (   0.0000000  -0.0999304   0.0000000), wk =   0.0555556
        k(    5) = (   0.0346561   0.0166551   0.0000000), wk =   0.1111111
        k(    6) = (   0.0346561   0.0499652   0.0000000), wk =   0.1111111
        k(    7) = (   0.0346561   0.0832753   0.0000000), wk =   0.1111111
        k(    8) = (   0.0346561  -0.0832753   0.0000000), wk =   0.1111111
        k(    9) = (   0.0346561  -0.0499652   0.0000000), wk =   0.1111111
        k(   10) = (   0.0346561  -0.0166551   0.0000000), wk =   0.1111111
        k(   11) = (   0.0693121   0.0333101   0.0000000), wk =   0.1111111
        k(   12) = (   0.0693121   0.0666202   0.0000000), wk =   0.1111111
        k(   13) = (   0.0693121   0.0999304   0.0000000), wk =   0.1111111
        k(   14) = (   0.0693121  -0.0666202   0.0000000), wk =   0.1111111
        k(   15) = (   0.0693121  -0.0333101   0.0000000), wk =   0.1111111
        k(   16) = (   0.0693121  -0.0000000   0.0000000), wk =   0.1111111
        k(   17) = (  -0.1039682  -0.0499652   0.0000000), wk =   0.0555556
        k(   18) = (  -0.1039682  -0.0166551   0.0000000), wk =   0.1111111
        k(   19) = (  -0.1039682   0.0166551   0.0000000), wk =   0.1111111
        k(   20) = (  -0.1039682  -0.1498956   0.0000000), wk =   0.0555556

     Largest allocated arrays     est. size (Mb)     dimensions
     Largest temporary arrays     est. size (Mb)     dimensions

     Check: negative/imaginary core charge=   -0.000003    0.000000

     Initial potential from superposition of free atoms
     Check: negative starting charge=   -0.011354

     starting charge  155.99254, renormalised to  162.00000

[...]

     *
     * You are using vdW-DF for exchange-correlation in this calculation.
     * Please cite the following three references that made this development
     * possible:
     *
     *   M. Dion, H. Rydberg, E. Schroder, D. C. Langreth, and
     *   B. I. Lundqvist, Phys. Rev. Lett. 92, 246401 (2004).
     *
     *   T. Thonhauser, V. R. Cooper, S. Li, A. Puzder, P. Hyldgaard, and
     *   D. C. Langreth, Phys. Rev. B 76, 125112 (2007).
     *
     *   G. Roman-Perez and J. M. Soler, Phys. Rev. Lett. 103, 096102 (2009).
     *
     *
     * If you are using vdW-DF2, please also cite:
     *
     *   K. Lee, E. D. Murray, L. Kong, B. I. Lundqvist, and
     *   D. C. Langreth, Phys. Rev. B 82, 081101(R) (2010).
     *
     *
     * If you are calculating the stress with vdW-DF, please also cite:
     *
     *   R. Sabatini, E. Kucukbenli, B. Kolb, T. Thonhauser, and
     *   S. de Gironcoli, J. Phys.: Condens. Matter 24, 424209 (2012).
     *

     Carrying out vdW-DF run using the following parameters:

     Nqs =      20    Nr_points =    1024   r_max =   100.000
     q_mesh =
               0.00001000     0.04494208     0.09755937     0.15916263
               0.23128650     0.31572767     0.41458969     0.53033537
               0.66584808     0.82450364     1.01025438     1.22772762
               1.48234092     1.78043706     2.12944203     2.53805004
               3.01644009     3.57652955     4.23227104     5.00000000

     Gradients computed in reciprocal space

[...]

     Starting wfc are  120 randomized atomic wfcs

     Self-consistent Calculation

[...]

     total energy              =   -1931.90425228 Ry
     Harris-Foulkes estimate   =   -1931.90425329 Ry
     estimated scf accuracy    <       0.00000227 Ry

     iteration # 25     ecut=    36.75 Ry     beta=0.10
     Davidson diagonalization with overlap
     ethr =  1.40E-09,  avg # of iterations =  1.2

[...]

     negative rho (up, down):  1.278E-02 0.000E+00

     Adding external electric field

     Computed dipole along edir(3) :
        Dipole                0.0214 Ry au,          0.0543 Debye
        Dipole field          0.0001 Ry au

        Potential amp.       -0.0061 Ry
        Total length         44.6201 bohr

     End of self-consistent calculation

[...]

          k = 0.0693-0.0000 0.0000 ( 14785 PWs)   bands (ev):

[...]

          k =-0.1040-0.1499 0.0000 ( 14802 PWs)   bands (ev):

   -70.7405 -70.7405 -70.5356 -70.5355 -70.5141 -70.5140 -63.0962 -63.0962
   -63.0594 -63.0594 -62.9274 -62.9274 -42.2939 -42.2939 -42.0598 -42.0598
   -42.0329 -42.0329 -41.9126 -41.9126 -41.8272 -41.8271 -41.8196 -41.8196
   -41.8027 -41.8027 -41.7909 -41.7909 -41.6348 -41.6348 -37.2501 -37.2501
   -36.9997 -36.9997 -36.8986 -36.8986 -36.8907 -36.8907 -36.8503 -36.8503
   -36.8425 -36.8425 -36.7955 -36.7955 -36.7688 -36.7688 -36.4655 -36.4655
    -3.4552  -3.4552  -2.1739  -2.1739  -1.8268  -1.8268  -1.4614  -1.4614
    -1.3990  -1.3990  -1.1283  -1.1283  -0.7248  -0.7247  -0.5013  -0.5012
    -0.4536  -0.4536  -0.1101  -0.1101   0.0231   0.0231   0.2759   0.2759
     0.3740   0.3741   0.5114   0.5114   0.5891   0.5891   0.7950   0.7950
     0.9311   0.9311   1.0411   1.0411   1.1740   1.1740   1.6195   1.6196
     1.8106   1.8106   1.9457   1.9457   2.0774   2.0774   2.1620   2.1621
     2.2217   2.2218   2.2869   2.2870   2.4817   2.4817   2.5084   2.5084
     3.0528   3.0528   3.1873   3.1873   3.4253   3.4254   3.4986

     the Fermi energy is     1.0301 ev

!    total energy              =   -1931.90424792 Ry
     Harris-Foulkes estimate   =   -1931.90425203 Ry
     estimated scf accuracy    <       0.00000094 Ry

     The total energy is the sum of the following terms:

     one-electron contribution =  -17153.30392550 Ry
     hartree contribution      =    8565.26456148 Ry
     xc contribution           =    -261.96741802 Ry
     ewald contribution        =    6918.21048091 Ry
     electric field correction =       0.00000146 Ry
     smearing contrib. (-TS)   =      -0.10794825 Ry

     convergence has been achieved in  25 iterations

 BEEF-vdW xc energy contributions
           1 :   -226.416467847907
           2 :    203.670819773805
           3 :   -165.800596545598
           4 :    124.365112876991
           5 :   -89.7490435572642
           6 :    67.2908819914163
           7 :   -56.3681131986640
           8 :    52.3510085259454
           9 :   -49.9060014779618
          10 :    45.7254246901748
          11 :   -39.4717444959052
          12 :    32.9013845884763
          13 :   -28.0947644879428
          14 :    25.9721643513958
          15 :   -25.8696721508743
          16 :    26.1933532253049
          17 :   -25.5515416413201
          18 :    23.5779544843480
          19 :   -20.9765477735707
          20 :    18.8717687186640
          21 :   -17.9839206683830
          22 :    18.1898481815371
          23 :   -18.7061198453216
          24 :    18.6866737141045
          25 :   -17.7851345743670
          26 :    16.3136762200099
          27 :   -14.9482632481072
          28 :    14.2320006504739
          29 :   -14.2301029516012
          30 :    14.5433376449583
          31 :   -22.8067559945931
          32 :   -16.4255775717783

     Forces acting on atoms (Ry/au):

     negative rho (up, down):  1.278E-02 0.000E+00
     atom    1 type  1   force =     0.00000289   -0.00635944   -0.00648558
     atom    2 type  1   force =     0.00000352   -0.00636026   -0.00648484
     atom    3 type  2   force =     0.00000037    0.00112355    0.01728156
     atom    4 type  2   force =    -0.00000100    0.00111587    0.01727545
     atom    5 type  1   force =     0.00000349    0.00860365   -0.00216910
     atom    6 type  1   force =    -0.00000021    0.00860510   -0.00216913
     atom    7 type  2   force =    -0.00000768   -0.00328664   -0.00738286
     atom    8 type  2   force =    -0.00000662   -0.00328448   -0.00737556
     atom    9 type  1   force =     0.00000631   -0.00042860   -0.00082737
     atom   10 type  1   force =     0.00000445   -0.00042896   -0.00082554
     atom   11 type  2   force =    -0.00000270    0.00034844   -0.00042478
     atom   12 type  2   force =    -0.00000282    0.00035177   -0.00041224

     Total force =     0.032480     Total SCF correction =     0.004419
     SCF correction compared to forces is large: reduce conv_thr to get better values

     entering subroutine stress ...

     negative rho (up, down):  1.278E-02 0.000E+00
          total   stress  (Ry/bohr**3)                   (kbar)     P=  -19.84
  -0.00016014  -0.00000000   0.00000000        -23.56     -0.00      0.00
  -0.00000000  -0.00021342   0.00001073         -0.00    -31.40      1.58
   0.00000000   0.00001073  -0.00003109          0.00      1.58     -4.57

 !ASE

     Writing output data file calc.save

     General routines

     Parallel routines

   This run was terminated on:   9:20: 0  19Dec2018

   JOB DONE.
Job  /afs/slac/g/suncat/bin/suncat-tsmpirun -x LD_LIBRARY_PATH -wdir /scratch/qe530746_QNzm2 pw.x -in pw.inp

TID   HOST_NAME   COMMAND_LINE            STATUS            TERMINATION_TIME
00000 suncat2040 pw.x -in pw.inp   Done                     12/19/2018 09:20:00
00001 suncat2040 pw.x -in pw.inp   Done                     12/19/2018 09:20:00
00002 suncat2040 pw.x -in pw.inp   Done                     12/19/2018 09:20:00
00003 suncat2040 pw.x -in pw.inp   Done                     12/19/2018 09:20:00
00004 suncat2040 pw.x -in pw.inp   Done                     12/19/2018 09:20:00
00005 suncat2040 pw.x -in pw.inp   Done                     12/19/2018 09:20:00
00006 suncat2040 pw.x -in pw.inp   Done                     12/19/2018 09:20:00
00007 suncat2040 pw.x -in pw.inp   Done                     12/19/2018 09:20:00
00008 suncat2040 pw.x -in pw.inp   Done                     12/19/2018 09:20:00
00009 suncat2040 pw.x -in pw.inp   Done                     12/19/2018 09:20:00
00010 suncat2040 pw.x -in pw.inp   Done                     12/19/2018 09:20:00
00011 suncat2040 pw.x -in pw.inp   Done                     12/19/2018 09:20:00
00012 suncat2040 pw.x -in pw.inp   Done                     12/19/2018 09:20:00
00013 suncat2040 pw.x -in pw.inp   Done                     12/19/2018 09:20:00
00014 suncat2040 pw.x -in pw.inp   Done                     12/19/2018 09:20:00
00015 suncat2040 pw.x -in pw.inp   Done                     12/19/2018 09:20:00
00016 suncat2039 pw.x -in pw.inp   Done                     12/19/2018 09:20:00
00017 suncat2039 pw.x -in pw.inp   Done                     12/19/2018 09:20:00
00018 suncat2039 pw.x -in pw.inp   Done                     12/19/2018 09:20:00
00019 suncat2039 pw.x -in pw.inp   Done                     12/19/2018 09:20:00
00020 suncat2039 pw.x -in pw.inp   Done                     12/19/2018 09:20:00
00021 suncat2039 pw.x -in pw.inp   Done                     12/19/2018 09:20:00
00022 suncat2039 pw.x -in pw.inp   Done                     12/19/2018 09:20:00
00023 suncat2039 pw.x -in pw.inp   Done                     12/19/2018 09:20:00
00024 suncat2039 pw.x -in pw.inp   Done                     12/19/2018 09:20:00
00025 suncat2039 pw.x -in pw.inp   Done                     12/19/2018 09:20:00
00026 suncat2039 pw.x -in pw.inp   Done                     12/19/2018 09:20:00
00027 suncat2039 pw.x -in pw.inp   Done                     12/19/2018 09:20:00
00028 suncat2039 pw.x -in pw.inp   Done                     12/19/2018 09:20:00
00029 suncat2039 pw.x -in pw.inp   Done                     12/19/2018 09:20:00
00030 suncat2039 pw.x -in pw.inp   Done                     12/19/2018 09:20:00
00031 suncat2039 pw.x -in pw.inp   Done                     12/19/2018 09:20:00