     Program PWSCF v.5.1rc2 (svn rev. 11289) starts on 31Dec2018 at 19:56: 7

     Current dimensions of program PWSCF are:
     Max number of different atomic species (ntypx) = 10
     Max number of k-points (npk) =  40000
     Max angular momentum in pseudopotentials (lmaxx) =  3
     Presently stress not available with electric field

     IMPORTANT: XC functional enforced from input :
     Exchange-correlation      = BEEF-VDW ( 1  4 27 13 2)
     Any further DFT definition will be discarded
     Please, verify this is what you really want

     Subspace diagonalization in iterative solution of the eigenvalue problem:
     a serial algorithm will be used

     bravais-lattice index     =            0
     lattice parameter (alat)  =       1.8897  a.u.
     unit-cell volume          =    4564.6043 (a.u.)^3
     number of atoms/cell      =           12
     number of atomic types    =            2
     number of electrons       =       174.00
     number of Kohn-Sham states=          117
     kinetic-energy cutoff     =      36.7493  Ry
     charge density cutoff     =     367.4932  Ry
     convergence threshold     =      1.0E-06
     mixing beta               =       0.1000
     number of iterations used =           10  plain     mixing
     Exchange-correlation      = BEEF-VDW ( 1  4 27 13 2)
     nstep                     =           50

     celldm(1)=   1.889726  celldm(2)=   0.000000  celldm(3)=   0.000000
     celldm(4)=   0.000000  celldm(5)=   0.000000  celldm(6)=   0.000000

     crystal axes: (cart. coord. in units of alat)
               a(1) = (   5.634621   0.000000   0.000000 )
               a(2) = (  -2.817310   4.879725   0.000000 )
               a(3) = (   0.000000   0.000000  24.600648 )

     reciprocal axes: (cart. coord. in units 2 pi/alat)
               b(1) = (  0.177474  0.102465  0.000000 )
               b(2) = (  0.000000  0.204930  0.000000 )
               b(3) = (  0.000000  0.000000  0.040649 )

     PseudoPot. # 1 for Re read from file:
     /afs/slac.stanford.edu/u/if/mamunm/psp/gbrv1.5pbe/Re.UPF
     MD5 check sum: 85f993410f3e006da9d71c142b4ad953
     Pseudo is Ultrasoft + core correction, Zval = 15.0
     Generated by new atomic code, or converted to UPF format
     Using radial grid of  981 points,  8 beta functions with:
                l(1) =   0
                l(2) =   0
                l(3) =   1
                l(4) =   1
                l(5) =   2
                l(6) =   2
                l(7) =   3
                l(8) =   3
     Q(r) pseudized with  8 coefficients,  rinner =    1.150   1.150   1.150
                                                       1.150   1.150   1.150
                                                       1.150

     PseudoPot. # 2 for Nb read from file:
     /afs/slac.stanford.edu/u/if/mamunm/psp/gbrv1.5pbe/Nb.UPF
     MD5 check sum: 573aab8a2fa660278ed4a62cd769473f
     Pseudo is Ultrasoft + core correction, Zval = 13.0
     Generated by new atomic code, or converted to UPF format
     Using radial grid of  887 points,  6 beta functions with:
                l(1) =   0
                l(2) =   0
                l(3) =   1
                l(4) =   1
                l(5) =   2
                l(6) =   2
     Q(r) pseudized with  6 coefficients,  rinner =    1.000   1.000   1.000
                                                       1.000   1.000

     vdW kernel table read from file vdW_kernel_table
     MD5 check sum: 095c7af220d748ca6e76c0b4c6cfb241

     atomic species   valence    mass     pseudopotential
        Re1           15.00   186.20700     Re( 1.00)
        Nb1           13.00    92.90637     Nb( 1.00)

     No symmetry found

   Cartesian axes

     site n.     atom                  positions (alat units)
         1           Re1 tau(   1) = (   0.0000000   0.0000000  10.0000000  )
         2           Re1 tau(   2) = (  -1.4086551   2.4398623  10.0000000  )
         3           Re1 tau(   3) = (   1.4086551   2.4398623  10.0000000  )
         4           Nb1 tau(   4) = (   2.8173103   0.0000000  10.0000000  )
         5           Re1 tau(   5) = (   2.8173103   1.6265748  12.3003242  )
         6           Re1 tau(   6) = (   1.4086551   4.0664371  12.3003242  )
         7           Re1 tau(   7) = (  -1.4086551   4.0664371  12.3003242  )
         8           Nb1 tau(   8) = (   0.0000000   1.6265748  12.3003242  )
         9           Re1 tau(   9) = (  -0.0000000   3.2531497  14.6006484  )
        10           Re1 tau(  10) = (   1.4086551   0.8132874  14.6006484  )
        11           Re1 tau(  11) = (   4.2259654   0.8132874  14.6006484  )
        12           Nb1 tau(  12) = (   2.8173103   3.2531497  14.6006484  )

     number of k points=    20  Fermi-Dirac smearing, width (Ry)=  0.0110
                       cart. coord. in units 2pi/alat
        k(    1) = (   0.0000000   0.0000000   0.0000000), wk =   0.0555556
        k(    2) = (   0.0000000   0.0341549   0.0000000), wk =   0.1111111
        k(    3) = (   0.0000000   0.0683099   0.0000000), wk =   0.1111111
        k(    4) = (   0.0000000  -0.1024648   0.0000000), wk =   0.0555556
        k(    5) = (   0.0295790   0.0170775   0.0000000), wk =   0.1111111
        k(    6) = (   0.0295790   0.0512324   0.0000000), wk =   0.1111111
        k(    7) = (   0.0295790   0.0853873   0.0000000), wk =   0.1111111
        k(    8) = (   0.0295790  -0.0853873   0.0000000), wk =   0.1111111
        k(    9) = (   0.0295790  -0.0512324   0.0000000), wk =   0.1111111
        k(   10) = (   0.0295790  -0.0170775   0.0000000), wk =   0.1111111
        k(   11) = (   0.0591581   0.0341549   0.0000000), wk =   0.1111111
        k(   12) = (   0.0591581   0.0683099   0.0000000), wk =   0.1111111
        k(   13) = (   0.0591581   0.1024648   0.0000000), wk =   0.1111111
        k(   14) = (   0.0591581  -0.0683099   0.0000000), wk =   0.1111111
        k(   15) = (   0.0591581  -0.0341549   0.0000000), wk =   0.1111111
        k(   16) = (   0.0591581   0.0000000   0.0000000), wk =   0.1111111
        k(   17) = (  -0.0887371  -0.0512324   0.0000000), wk =   0.0555556
        k(   18) = (  -0.0887371  -0.0170775   0.0000000), wk =   0.1111111
        k(   19) = (  -0.0887371   0.0170775   0.0000000), wk =   0.1111111
        k(   20) = (  -0.0887371  -0.1536972   0.0000000), wk =   0.0555556

     Largest allocated arrays     est. size (Mb)     dimensions
     Largest temporary arrays     est. size (Mb)     dimensions

     Initial potential from superposition of free atoms
     Check: negative starting charge=   -1.149349

     starting charge  169.49140, renormalised to  174.00000

     negative rho (up, down):  1.180E+00 0.000E+00

     *
     * You are using vdW-DF for exchange-correlation in this calculation.
     * Please cite the following three references that made this development
     * possible:
     *
     *   M. Dion, H. Rydberg, E. Schroder, D. C. Langreth, and
     *   B. I. Lundqvist, Phys. Rev. Lett. 92, 246401 (2004).
     *
     *   T. Thonhauser, V. R. Cooper, S. Li, A. Puzder, P. Hyldgaard, and
     *   D. C. Langreth, Phys. Rev. B 76, 125112 (2007).
     *
     *   G. Roman-Perez and J. M. Soler, Phys. Rev. Lett. 103, 096102 (2009).
     *
     *
     * If you are using vdW-DF2, please also cite:
     *
     *   K. Lee, E. D. Murray, L. Kong, B. I. Lundqvist, and
     *   D. C. Langreth, Phys. Rev. B 82, 081101(R) (2010).
     *
     *
     * If you are calculating the stress with vdW-DF, please also cite:
     *
     *   R. Sabatini, E. Kucukbenli, B. Kolb, T. Thonhauser, and
     *   S. de Gironcoli, J. Phys.: Condens. Matter 24, 424209 (2012).
     *

     Carrying out vdW-DF run using the following parameters:

     Nqs =      20    Nr_points =    1024   r_max =   100.000
     q_mesh =
               0.00001000     0.04494208     0.09755937     0.15916263
               0.23128650     0.31572767     0.41458969     0.53033537
               0.66584808     0.82450364     1.01025438     1.22772762
               1.48234092     1.78043706     2.12944203     2.53805004
               3.01644009     3.57652955     4.23227104     5.00000000

     Gradients computed in reciprocal space

     Adding external electric field

     Computed dipole along edir(3) :
        Dipole               -0.0000 Ry au,         -0.0000 Debye
        Dipole field         -0.0000 Ry au

        Potential amp.        0.0000 Ry
        Total length         45.3263 bohr

     Starting wfc are  156 randomized atomic wfcs

     Self-consistent Calculation

     iteration #  1     ecut=    36.75 Ry     beta=0.10
     Davidson diagonalization with overlap
     ethr =  1.00E-02,  avg # of iterations =  2.1

[...]

     total energy              =   -2085.14026378 Ry
     Harris-Foulkes estimate   =   -2085.78654989 Ry
     estimated scf accuracy    <       4.03228401 Ry

[...]

     End of self-consistent calculation

          k = 0.0000 0.0000 0.0000 ( 17171 PWs)   bands (ev):

   -77.8022 -77.7590 -77.7582 -77.6974 -77.6938 -77.6571 -77.6570 -77.6562
   -77.6561 -52.4599 -52.4591 -52.2430 -39.9089 -39.7324 -39.7321 -39.7081
   -39.6904 -39.6391 -39.6007 -39.6004 -39.4854 -39.4544 -39.4544 -39.4135
   -39.4135 -39.3714 -39.3714 -39.3501 -39.2625 -39.2517 -39.2514 -39.1842
   -39.1838 -39.1214 -39.0962 -39.0489 -39.0489 -39.0449 -39.0449 -28.5949
   -28.5700 -28.4243 -28.4243 -28.4181 -28.4181 -28.3083 -28.3082 -28.2803
    -5.4596  -3.7691  -3.2433  -2.7956  -2.7955  -2.5745  -2.5702  -2.5701
    -1.9994  -1.8428  -1.8428  -1.8328  -1.7688  -1.7687  -1.5222  -0.4380
    -0.2522  -0.2522   0.6261   0.6261   0.7159   0.7440   1.0557   1.4709
     1.4711   1.5033   1.6080   1.6081   1.7735   1.7736   2.0239   2.0409
     2.0409   2.0742   2.0743   2.3606   3.1551   3.1552   3.1752   3.2852
     3.3128   3.6653   3.6653   4.1029   4.1029   4.3913   4.6614   4.6614
     4.6769   4.6769   4.9624   4.9624   5.3146   5.5425   6.0853   6.0853
     6.1847   6.1848   6.2489   6.5419   6.6562   6.7642   6.8782   6.8783
     6.8805   7.0042   7.0044   7.1176   7.2634

[...]

          k =-0.0887-0.0512 0.0000 ( 17192 PWs)   bands (ev):

[...]

     the Fermi energy is     2.5288 ev

!    total energy              =   -2084.85928338 Ry
     Harris-Foulkes estimate   =   -2084.85928176 Ry
     estimated scf accuracy    <       0.00000083 Ry

     The total energy is the sum of the following terms:

     one-electron contribution =  -16197.00155145 Ry
     hartree contribution      =    8085.19589467 Ry
     xc contribution           =    -543.72937937 Ry
     ewald contribution        =    6570.75515336 Ry
     electric field correction =       0.00000000 Ry
     smearing contrib. (-TS)   =      -0.07940060 Ry

     convergence has been achieved in  16 iterations

 BEEF-vdW xc energy contributions
           1 :   -481.352200151872
           2 :    446.454835466978
           3 :   -384.157312979407
           4 :    306.855106752814
           5 :   -228.005711957863
           6 :    158.500786913299
           7 :   -104.418922256310
           8 :    66.6419481279547
           9 :   -42.1374110320498
          10 :    26.1435519938864
[...]
     Pseudo is Ultrasoft + core correction, Zval = 15.0
     Generated by new atomic code, or converted to UPF format
     Using radial grid of  981 points,  8 beta functions with:
                l(1) =   0
                l(2) =   0
                l(3) =   1
                l(4) =   1
                l(5) =   2
                l(6) =   2
                l(7) =   3
                l(8) =   3
     Q(r) pseudized with  8 coefficients,  rinner =    1.150   1.150   1.150
                                                       1.150   1.150   1.150
                                                       1.150

     PseudoPot. # 2 for Nb read from file:
     /afs/slac.stanford.edu/u/if/mamunm/psp/gbrv1.5pbe/Nb.UPF
     MD5 check sum: 573aab8a2fa660278ed4a62cd769473f
     Pseudo is Ultrasoft + core correction, Zval = 13.0
     Generated by new atomic code, or converted to UPF format
     Using radial grid of  887 points,  6 beta functions with:
                l(1) =   0
                l(2) =   0
                l(3) =   1
                l(4) =   1
                l(5) =   2
                l(6) =   2
     Q(r) pseudized with  6 coefficients,  rinner =    1.000   1.000   1.000
                                                       1.000   1.000

     vdW kernel table read from file vdW_kernel_table
     MD5 check sum: 095c7af220d748ca6e76c0b4c6cfb241

     atomic species   valence    mass     pseudopotential
        Re1           15.00   186.20700     Re( 1.00)
        Nb1           13.00    92.90637     Nb( 1.00)

     No symmetry found

   Cartesian axes

     site n.     atom                  positions (alat units)
         1           Re1 tau(   1) = (   0.0000000   0.0000000  10.0000000  )
         2           Re1 tau(   2) = (  -1.4086551   2.4398623  10.0000000  )
         3           Re1 tau(   3) = (   1.4086551   2.4398623  10.0000000  )
         4           Nb1 tau(   4) = (   2.8173103   0.0000000  10.0000000  )
         5           Re1 tau(   5) = (   2.8173103   1.6265748  12.3003242  )
         6           Re1 tau(   6) = (   1.4086551   4.0664371  12.3003242  )
         7           Re1 tau(   7) = (  -1.4086551   4.0664371  12.3003242  )
         8           Nb1 tau(   8) = (   0.0000000   1.6265748  12.3003242  )
         9           Re1 tau(   9) = (  -0.0000135   3.2861670  14.4868950  )
        10           Re1 tau(  10) = (   1.4374644   0.7968685  14.4868703  )
        11           Re1 tau(  11) = (   4.1971566   0.7968787  14.4868727  )
        12           Nb1 tau(  12) = (   2.8173094   3.2531605  14.5888812  )

     number of k points=    20  Fermi-Dirac smearing, width (Ry)=  0.0110
                       cart. coord. in units 2pi/alat
        k(    1) = (   0.0000000   0.0000000   0.0000000), wk =   0.0555556
        k(    2) = (   0.0000000   0.0341549   0.0000000), wk =   0.1111111
        k(    3) = (   0.0000000   0.0683099   0.0000000), wk =   0.1111111
        k(    4) = (   0.0000000  -0.1024648   0.0000000), wk =   0.0555556
        k(    5) = (   0.0295790   0.0170775   0.0000000), wk =   0.1111111
        k(    6) = (   0.0295790   0.0512324   0.0000000), wk =   0.1111111
        k(    7) = (   0.0295790   0.0853873   0.0000000), wk =   0.1111111
        k(    8) = (   0.0295790  -0.0853873   0.0000000), wk =   0.1111111
        k(    9) = (   0.0295790  -0.0512324   0.0000000), wk =   0.1111111
        k(   10) = (   0.0295790  -0.0170775   0.0000000), wk =   0.1111111
        k(   11) = (   0.0591581   0.0341549   0.0000000), wk =   0.1111111
        k(   12) = (   0.0591581   0.0683099   0.0000000), wk =   0.1111111
        k(   13) = (   0.0591581   0.1024648   0.0000000), wk =   0.1111111
        k(   14) = (   0.0591581  -0.0683099   0.0000000), wk =   0.1111111
        k(   15) = (   0.0591581  -0.0341549   0.0000000), wk =   0.1111111
        k(   16) = (   0.0591581   0.0000000   0.0000000), wk =   0.1111111
        k(   17) = (  -0.0887371  -0.0512324   0.0000000), wk =   0.0555556
        k(   18) = (  -0.0887371  -0.0170775   0.0000000), wk =   0.1111111
        k(   19) = (  -0.0887371   0.0170775   0.0000000), wk =   0.1111111
        k(   20) = (  -0.0887371  -0.1536972   0.0000000), wk =   0.0555556

     Largest allocated arrays     est. size (Mb)     dimensions
     Largest temporary arrays     est. size (Mb)     dimensions

     Initial potential from superposition of free atoms
     Check: negative starting charge=   -1.153258

     starting charge  169.49140, renormalised to  174.00000

[...]

     *
     * You are using vdW-DF for exchange-correlation in this calculation.
     * Please cite the following three references that made this development
     * possible:
     *
     *   M. Dion, H. Rydberg, E. Schroder, D. C. Langreth, and
     *   B. I. Lundqvist, Phys. Rev. Lett. 92, 246401 (2004).
     *
     *   T. Thonhauser, V. R. Cooper, S. Li, A. Puzder, P. Hyldgaard, and
     *   D. C. Langreth, Phys. Rev. B 76, 125112 (2007).
     *
     *   G. Roman-Perez and J. M. Soler, Phys. Rev. Lett. 103, 096102 (2009).
     *
     *
     * If you are using vdW-DF2, please also cite:
     *
     *   K. Lee, E. D. Murray, L. Kong, B. I. Lundqvist, and
     *   D. C. Langreth, Phys. Rev. B 82, 081101(R) (2010).
     *
     *
     * If you are calculating the stress with vdW-DF, please also cite:
     *
     *   R. Sabatini, E. Kucukbenli, B. Kolb, T. Thonhauser, and
     *   S. de Gironcoli, J. Phys.: Condens. Matter 24, 424209 (2012).
     *

     Carrying out vdW-DF run using the following parameters:

     Nqs =      20    Nr_points =    1024   r_max =   100.000
     q_mesh =
               0.00001000     0.04494208     0.09755937     0.15916263
               0.23128650     0.31572767     0.41458969     0.53033537
               0.66584808     0.82450364     1.01025438     1.22772762
               1.48234092     1.78043706     2.12944203     2.53805004
               3.01644009     3.57652955     4.23227104     5.00000000

     Gradients computed in reciprocal space

[...]

     Starting wfc are  156 randomized atomic wfcs

     Self-consistent Calculation

[...]

     total energy              =   -2084.88331301 Ry
     Harris-Foulkes estimate   =   -2084.88331292 Ry
     estimated scf accuracy    <       0.00000295 Ry

     iteration # 16     ecut=    36.75 Ry     beta=0.10
     Davidson diagonalization with overlap
     ethr =  1.69E-09,  avg # of iterations =  2.0

[...]

     negative rho (up, down):  1.197E+00 0.000E+00

     Adding external electric field

     Computed dipole along edir(3) :
        Dipole                0.0361 Ry au,          0.0918 Debye
        Dipole field          0.0001 Ry au

        Potential amp.       -0.0090 Ry
        Total length         45.3263 bohr

     End of self-consistent calculation

[...]

          k = 0.0592 0.0000 0.0000 ( 17162 PWs)   bands (ev):

[...]

          k =-0.0887-0.1537 0.0000 ( 17192 PWs)   bands (ev):

   -77.7202 -77.7060 -77.6901 -77.6608 -77.6489 -77.6359 -77.5520 -77.5365
   -77.5243 -52.4336 -52.3709 -52.0897 -39.7738 -39.6825 -39.6194 -39.5840
   -39.5467 -39.5212 -39.5033 -39.4530 -39.4378 -39.3967 -39.3861 -39.3361
   -39.3155 -39.2990 -39.2956 -39.2578 -39.2535 -39.2220 -39.1929 -39.1693
   -39.1643 -39.1172 -39.1130 -39.0951 -39.0778 -39.0390 -38.9475 -28.5584
   -28.5070 -28.4299 -28.4060 -28.3750 -28.3506 -28.2152 -28.1896 -28.1347
    -3.8040  -3.4821  -2.2069  -2.1181  -1.7892  -1.7016  -1.6274  -1.5776
    -1.5569  -1.1769  -0.9543  -0.8234  -0.7209  -0.5373  -0.4314  -0.3363
    -0.2499  -0.0686   0.1040   0.2093   0.2811   0.4423   0.7582   0.9381
     0.9565   1.0742   1.0994   1.1339   1.1905   1.2197   1.4229   1.4269
     1.6077   1.6096   1.8553   1.9140   1.9955   2.1758   2.2905   2.3261
     2.7755   2.8497   2.9633   3.2793   3.3468   3.3983   3.5482   3.7086
     3.7847   4.0798   4.0979   4.2110   4.3728   4.5235   4.5362   4.8681
     5.0546   5.2510   5.4802   5.4830   6.1133   6.2986   6.4616   6.4720
     6.6132   7.0808   7.8566   7.9950   8.1147

     the Fermi energy is     2.5747 ev

!    total energy              =   -2084.88331434 Ry
     Harris-Foulkes estimate   =   -2084.88331417 Ry
     estimated scf accuracy    <       0.00000075 Ry

     The total energy is the sum of the following terms:

     one-electron contribution =  -16409.92011368 Ry
     hartree contribution      =    8192.09062476 Ry
     xc contribution           =    -543.99320332 Ry
     ewald contribution        =    6677.01601428 Ry
     electric field correction =       0.00000359 Ry
     smearing contrib. (-TS)   =      -0.07663997 Ry

     convergence has been achieved in  16 iterations

 BEEF-vdW xc energy contributions
           1 :   -481.996711435622
           2 :    447.176103233536
           3 :   -384.983264624106
           4 :    307.741231589826
           5 :   -228.849408721283
           6 :    159.189141394189
           7 :   -104.888340838710
           8 :    66.9172601444850
           9 :   -42.3264033111394
          10 :    26.3870143852395
          11 :   -14.7231407847512
          12 :    4.68078563526410
          13 :    4.37385397626110
          14 :   -11.6765622592934
          15 :    16.1208666113620
          16 :   -17.2028523028765
          17 :    15.4607080598149
          18 :   -12.3098226730825
          19 :    9.44287780183822
          20 :   -8.13129455218598
          21 :    8.75455040083847
          22 :   -10.7511090850527
          23 :    12.9725315329876
          24 :   -14.2514814841206
          25 :    13.9144200658961
          26 :   -12.0234499002551
          27 :    9.26753897835806
          28 :   -6.59126619685219
          29 :    4.75551346322004
          30 :   -4.03760698399662
          31 :   -41.5631704557472
          32 :   -30.9015474650357

     Forces acting on atoms (Ry/au):

     negative rho (up, down):  1.197E+00 0.000E+00
     atom    1 type  1   force =     0.00000920   -0.01311255    0.02567870
     atom    2 type  1   force =    -0.01134966    0.00656454    0.02567770
     atom    3 type  1   force =     0.01134862    0.00655558    0.02567999
     atom    4 type  2   force =    -0.00000190    0.00000055    0.00334737
     atom    5 type  1   force =    -0.00000303    0.00612897   -0.01601612
     atom    6 type  1   force =     0.00529387   -0.00306819   -0.01599067
     atom    7 type  1   force =    -0.00529458   -0.00306500   -0.01600007
     atom    8 type  2   force =    -0.00000004   -0.00000206   -0.03287802
     atom    9 type  1   force =     0.00000436    0.00005856   -0.00021940
     atom   10 type  1   force =    -0.00001593   -0.00007010   -0.00020518
     atom   11 type  1   force =     0.00001450   -0.00007793   -0.00020613
     atom   12 type  2   force =    -0.00000540    0.00008763    0.00113183

     Total force =     0.066844     Total SCF correction =     0.004816

     entering subroutine stress ...

     negative rho (up, down):  1.197E+00 0.000E+00
          total   stress  (Ry/bohr**3)                   (kbar)     P=  -32.29
  -0.00027989   0.00000000  -0.00000000        -41.17      0.00     -0.00
   0.00000000  -0.00027990  -0.00000001          0.00    -41.18     -0.00
  -0.00000000  -0.00000001  -0.00009869         -0.00     -0.00    -14.52

 !ASE

     Writing output data file calc.save

     General routines

     Parallel routines

   This run was terminated on:  20:57: 4  31Dec2018

   JOB DONE.
Job  /afs/slac/g/suncat/bin/suncat-tsmpirun -x LD_LIBRARY_PATH -wdir /scratch/qe648850_CREjb pw.x -in pw.inp

TID   HOST_NAME   COMMAND_LINE            STATUS            TERMINATION_TIME
00000 suncat0056 pw.x -in pw.inp   Done                     12/31/2018 20:57:04
00001 suncat0056 pw.x -in pw.inp   Done                     12/31/2018 20:57:04
00002 suncat0056 pw.x -in pw.inp   Done                     12/31/2018 20:57:04
00003 suncat0056 pw.x -in pw.inp   Done                     12/31/2018 20:57:04
00004 suncat0056 pw.x -in pw.inp   Done                     12/31/2018 20:57:04
00005 suncat0056 pw.x -in pw.inp   Done                     12/31/2018 20:57:04
00006 suncat0056 pw.x -in pw.inp   Done                     12/31/2018 20:57:04
00007 suncat0056 pw.x -in pw.inp   Done                     12/31/2018 20:57:04
00008 suncat0052 pw.x -in pw.inp   Done                     12/31/2018 20:57:04
00009 suncat0052 pw.x -in pw.inp   Done                     12/31/2018 20:57:04
00010 suncat0052 pw.x -in pw.inp   Done                     12/31/2018 20:57:04
00011 suncat0052 pw.x -in pw.inp   Done                     12/31/2018 20:57:04
00012 suncat0052 pw.x -in pw.inp   Done                     12/31/2018 20:57:04
00013 suncat0052 pw.x -in pw.inp   Done                     12/31/2018 20:57:04
00014 suncat0052 pw.x -in pw.inp   Done                     12/31/2018 20:57:04
00015 suncat0052 pw.x -in pw.inp   Done                     12/31/2018 20:57:04
00016 suncat0048 pw.x -in pw.inp   Done                     12/31/2018 20:57:04
00017 suncat0048 pw.x -in pw.inp   Done                     12/31/2018 20:57:04
00018 suncat0048 pw.x -in pw.inp   Done                     12/31/2018 20:57:04
00019 suncat0048 pw.x -in pw.inp   Done                     12/31/2018 20:57:04
00020 suncat0048 pw.x -in pw.inp   Done                     12/31/2018 20:57:04
00021 suncat0048 pw.x -in pw.inp   Done                     12/31/2018 20:57:04
00022 suncat0048 pw.x -in pw.inp   Done                     12/31/2018 20:57:04
00023 suncat0048 pw.x -in pw.inp   Done                     12/31/2018 20:57:04
00024 suncat0047 pw.x -in pw.inp   Done                     12/31/2018 20:57:04
00025 suncat0047 pw.x -in pw.inp   Done                     12/31/2018 20:57:04
00026 suncat0047 pw.x -in pw.inp   Done                     12/31/2018 20:57:04
00027 suncat0047 pw.x -in pw.inp   Done                     12/31/2018 20:57:04
00028 suncat0047 pw.x -in pw.inp   Done                     12/31/2018 20:57:04
00029 suncat0047 pw.x -in pw.inp   Done                     12/31/2018 20:57:04
00030 suncat0047 pw.x -in pw.inp   Done                     12/31/2018 20:57:04
00031 suncat0047 pw.x -in pw.inp   Done                     12/31/2018 20:57:04
00032 suncat0041 pw.x -in pw.inp   Done                     12/31/2018 20:57:04
00033 suncat0041 pw.x -in pw.inp   Done                     12/31/2018 20:57:04
00034 suncat0041 pw.x -in pw.inp   Done                     12/31/2018 20:57:04
00035 suncat0041 pw.x -in pw.inp   Done                     12/31/2018 20:57:04
00036 suncat0041 pw.x -in pw.inp   Done                     12/31/2018 20:57:04
00037 suncat0041 pw.x -in pw.inp   Done                     12/31/2018 20:57:04
00038 suncat0041 pw.x -in pw.inp   Done                     12/31/2018 20:57:04
00039 suncat0041 pw.x -in pw.inp   Done                     12/31/2018 20:57:04
00040 suncat0039 pw.x -in pw.inp   Done                     12/31/2018 20:57:04
00041 suncat0039 pw.x -in pw.inp   Done                     12/31/2018 20:57:04
00042 suncat0039 pw.x -in pw.inp   Done                     12/31/2018 20:57:04
00043 suncat0039 pw.x -in pw.inp   Done                     12/31/2018 20:57:04
00044 suncat0039 pw.x -in pw.inp   Done                     12/31/2018 20:57:04
00045 suncat0039 pw.x -in pw.inp   Done                     12/31/2018 20:57:04
00046 suncat0039 pw.x -in pw.inp   Done                     12/31/2018 20:57:04
00047 suncat0039 pw.x -in pw.inp   Done                     12/31/2018 20:57:04
00048 suncat0207 pw.x -in pw.inp   Done                     12/31/2018 20:57:04
00049 suncat0207 pw.x -in pw.inp   Done                     12/31/2018 20:57:04
00050 suncat0207 pw.x -in pw.inp   Done                     12/31/2018 20:57:04
00051 suncat0207 pw.x -in pw.inp   Done                     12/31/2018 20:57:04
00052 suncat0207 pw.x -in pw.inp   Done                     12/31/2018 20:57:04
00053 suncat0207 pw.x -in pw.inp   Done                     12/31/2018 20:57:04
00054 suncat0207 pw.x -in pw.inp   Done                     12/31/2018 20:57:04
00055 suncat0207 pw.x -in pw.inp   Done                     12/31/2018 20:57:04
00056 suncat0206 pw.x -in pw.inp   Done                     12/31/2018 20:57:04
00057 suncat0206 pw.x -in pw.inp   Done                     12/31/2018 20:57:04
00058 suncat0206 pw.x -in pw.inp   Done                     12/31/2018 20:57:04
00059 suncat0206 pw.x -in pw.inp   Done                     12/31/2018 20:57:04
00060 suncat0206 pw.x -in pw.inp   Done                     12/31/2018 20:57:04
00061 suncat0206 pw.x -in pw.inp   Done                     12/31/2018 20:57:04
00062 suncat0206 pw.x -in pw.inp   Done                     12/31/2018 20:57:04
00063 suncat0206 pw.x -in pw.inp   Done                     12/31/2018 20:57:04