     Program PWSCF v.5.1rc2 (svn rev. 11289) starts on  2Jan2019 at 21: 2:57

     Current dimensions of program PWSCF are:
     Max number of different atomic species (ntypx) = 10
     Max number of k-points (npk) =  40000
     Max angular momentum in pseudopotentials (lmaxx) =  3
     Presently stress not available with electric field

     IMPORTANT: XC functional enforced from input :
     Exchange-correlation      = BEEF-VDW ( 1  4 27 13 2)
     Any further DFT definition will be discarded
     Please, verify this is what you really want

     Subspace diagonalization in iterative solution of the eigenvalue problem:
     a serial algorithm will be used

     bravais-lattice index     =            0
     lattice parameter (alat)  =       1.8897  a.u.
     unit-cell volume          =    5512.8278 (a.u.)^3
     number of atoms/cell      =           12
     number of atomic types    =            2
     number of electrons       =       156.00
     number of Kohn-Sham states=          108
     kinetic-energy cutoff     =      36.7493  Ry
     charge density cutoff     =     367.4932  Ry
     convergence threshold     =      1.0E-06
     mixing beta               =       0.1000
     number of iterations used =           10  plain     mixing
     Exchange-correlation      = BEEF-VDW ( 1  4 27 13 2)
     nstep                     =           50

     celldm(1)=   1.889726  celldm(2)=   0.000000  celldm(3)=   0.000000
     celldm(4)=   0.000000  celldm(5)=   0.000000  celldm(6)=   0.000000

     crystal axes: (cart. coord. in units of alat)
               a(1) = (   6.140897   0.000000   0.000000 )
               a(2) = (  -3.070449   5.318173   0.000000 )
               a(3) = (   0.000000   0.000000  25.014022 )

     reciprocal axes: (cart. coord. in units 2 pi/alat)
               b(1) = (  0.162843  0.094017  0.000000 )
               b(2) = (  0.000000  0.188034  0.000000 )
               b(3) = (  0.000000  0.000000  0.039978 )

     PseudoPot. # 1 for Zr read from file:
     /afs/slac.stanford.edu/u/if/mamunm/psp/gbrv1.5pbe/Zr.UPF
     MD5 check sum: 5db81b1e868ab7776c4564c113de050b
     Pseudo is Ultrasoft + core correction, Zval = 12.0
     Generated by new atomic code, or converted to UPF format
     Using radial grid of  887 points,  6 beta functions with:
                l(1) =   0
                l(2) =   0
                l(3) =   1
                l(4) =   1
                l(5) =   2
                l(6) =   2
     Q(r) pseudized with  6 coefficients,  rinner =    1.200   1.200   1.200
                                                       1.200   1.200

     PseudoPot. # 2 for Ru read from file:
     /afs/slac.stanford.edu/u/if/mamunm/psp/gbrv1.5pbe/Ru.UPF
     MD5 check sum: 7158a806dd851261a58e6920c40ebe78
     Pseudo is Ultrasoft + core correction, Zval = 16.0
     Generated by new atomic code, or converted to UPF format
     Using radial grid of  967 points,  6 beta functions with:
                l(1) =   0
                l(2) =   0
                l(3) =   1
                l(4) =   1
                l(5) =   2
                l(6) =   2
     Q(r) pseudized with  8 coefficients,  rinner =    1.300   1.300   1.300
                                                       1.300   1.300

     vdW kernel table read from file vdW_kernel_table
     MD5 check sum: 095c7af220d748ca6e76c0b4c6cfb241

     atomic species   valence    mass     pseudopotential
        Zr1           12.00    91.22400     Zr( 1.00)
        Ru1           16.00   101.07000     Ru( 1.00)

     No symmetry found

   Cartesian axes

     site n.     atom                  positions (alat units)
         1           Zr1 tau(   1) = (   0.0000000   0.0000000  10.0000000  )
         2           Zr1 tau(   2) = (  -1.5352243   2.6590866  10.0000000  )
         3           Zr1 tau(   3) = (   1.5352243   2.6590866  10.0000000  )
         4           Ru1 tau(   4) = (   3.0704487   0.0000000  10.0000000  )
         5           Zr1 tau(   5) = (   3.0704487   1.7727244  12.5070108  )
         6           Zr1 tau(   6) = (   1.5352243   4.4318109  12.5070108  )
         7           Zr1 tau(   7) = (  -1.5352243   4.4318109  12.5070108  )
         8           Ru1 tau(   8) = (   0.0000000   1.7727244  12.5070108  )
         9           Zr1 tau(   9) = (  -0.0000000   3.5454487  15.0140217  )
        10           Zr1 tau(  10) = (   1.5352243   0.8863622  15.0140217  )
        11           Zr1 tau(  11) = (   4.6056730   0.8863622  15.0140217  )
        12           Ru1 tau(  12) = (   3.0704487   3.5454487  15.0140217  )

     number of k points=    20  Fermi-Dirac smearing, width (Ry)=  0.0110
                       cart. coord. in units 2pi/alat
        k(    1) = (   0.0000000   0.0000000   0.0000000), wk =   0.0555556
        k(    2) = (   0.0000000   0.0313391   0.0000000), wk =   0.1111111
        k(    3) = (   0.0000000   0.0626782   0.0000000), wk =   0.1111111
        k(    4) = (   0.0000000  -0.0940172   0.0000000), wk =   0.0555556
        k(    5) = (   0.0271404   0.0156695   0.0000000), wk =   0.1111111
        k(    6) = (   0.0271404   0.0470086   0.0000000), wk =   0.1111111
        k(    7) = (   0.0271404   0.0783477   0.0000000), wk =   0.1111111
        k(    8) = (   0.0271404  -0.0783477   0.0000000), wk =   0.1111111
        k(    9) = (   0.0271404  -0.0470086   0.0000000), wk =   0.1111111
        k(   10) = (   0.0271404  -0.0156695   0.0000000), wk =   0.1111111
        k(   11) = (   0.0542809   0.0313391   0.0000000), wk =   0.1111111
        k(   12) = (   0.0542809   0.0626782   0.0000000), wk =   0.1111111
        k(   13) = (   0.0542809   0.0940172   0.0000000), wk =   0.1111111
        k(   14) = (   0.0542809  -0.0626782   0.0000000), wk =   0.1111111
        k(   15) = (   0.0542809  -0.0313391   0.0000000), wk =   0.1111111
        k(   16) = (   0.0542809   0.0000000   0.0000000), wk =   0.1111111
        k(   17) = (  -0.0814213  -0.0470086   0.0000000), wk =   0.0555556
        k(   18) = (  -0.0814213  -0.0156695   0.0000000), wk =   0.1111111
        k(   19) = (  -0.0814213   0.0156695   0.0000000), wk =   0.1111111
        k(   20) = (  -0.0814213  -0.1410259   0.0000000), wk =   0.0555556

     Largest allocated arrays     est. size (Mb)     dimensions
     Largest temporary arrays     est. size (Mb)     dimensions

     Initial potential from superposition of free atoms
     Check: negative starting charge=   -0.769562

     starting charge  152.98061, renormalised to  156.00000

     negative rho (up, down):  7.848E-01 0.000E+00

     *
     * You are using vdW-DF for exchange-correlation in this calculation.
     * Please cite the following three references that made this development
     * possible:
     *
     *   M. Dion, H. Rydberg, E. Schroder, D. C. Langreth, and
     *   B. I. Lundqvist, Phys. Rev. Lett. 92, 246401 (2004).
     *
     *   T. Thonhauser, V. R. Cooper, S. Li, A. Puzder, P. Hyldgaard, and
     *   D. C. Langreth, Phys. Rev. B 76, 125112 (2007).
     *
     *   G. Roman-Perez and J. M. Soler, Phys. Rev. Lett. 103, 096102 (2009).
     *
     *
     * If you are using vdW-DF2, please also cite:
     *
     *   K. Lee, E. D. Murray, L. Kong, B. I. Lundqvist, and
     *   D. C. Langreth, Phys. Rev. B 82, 081101(R) (2010).
     *
     *
     * If you are calculating the stress with vdW-DF, please also cite:
     *
     *   R. Sabatini, E. Kucukbenli, B. Kolb, T. Thonhauser, and
     *   S. de Gironcoli, J. Phys.: Condens. Matter 24, 424209 (2012).
     *

     Carrying out vdW-DF run using the following parameters:

     Nqs =      20    Nr_points =    1024   r_max =   100.000
     q_mesh =
               0.00001000     0.04494208     0.09755937     0.15916263
               0.23128650     0.31572767     0.41458969     0.53033537
               0.66584808     0.82450364     1.01025438     1.22772762
               1.48234092     1.78043706     2.12944203     2.53805004
               3.01644009     3.57652955     4.23227104     5.00000000

     Gradients computed in reciprocal space

     Adding external electric field

     Computed dipole along edir(3) :
        Dipole                0.0000 Ry au,          0.0000 Debye
        Dipole field          0.0000 Ry au

        Potential amp.       -0.0000 Ry
        Total length         46.0879 bohr

     Starting wfc are  156 randomized atomic wfcs

     Self-consistent Calculation

     iteration #  1     ecut=    36.75 Ry     beta=0.10
     Davidson diagonalization with overlap
     ethr =  1.00E-02,  avg # of iterations =  2.0

[...]

     total energy              =   -1482.66401374 Ry
     Harris-Foulkes estimate   =   -1483.92051172 Ry
     estimated scf accuracy    <       7.20198608 Ry

[...]

     End of self-consistent calculation

          k = 0.0000 0.0000 0.0000 ( 20767 PWs)   bands (ev):

   -70.5607 -70.2897 -70.2896 -47.4945 -47.4859 -47.3777 -47.3777 -47.3757
   -47.3757 -47.1843 -47.0793 -47.0793 -40.5063 -40.5063 -40.4964 -40.2691
   -40.2691 -40.2688 -40.2688 -40.2144 -40.2134 -25.9669 -25.8978 -25.7587
   -25.6735 -25.6735 -25.5993 -25.5993 -25.5931 -25.5902 -25.5902 -25.5441
   -25.4228 -25.4228 -25.2107 -25.2107 -25.1708 -25.1355 -24.9872 -24.9715
   -24.9715 -24.9638 -24.9638 -24.9486 -24.9486 -24.8329 -24.7285 -24.7285
    -3.4149  -2.2265  -1.6671  -1.4075  -1.4016  -1.4016  -1.2239  -1.1693
    -1.1693  -0.8191  -0.8191  -0.7914  -0.7914  -0.7568  -0.7034   0.0946
     0.0946   0.4408   0.6188   0.6188   0.8128   0.9941   1.4274   1.7976
     1.7976   1.8308   1.8861   1.9781   1.9781   2.0768   2.0768   2.3551
     2.3551   2.4002   2.4002   2.6950   2.8090   2.9894   2.9894   3.0192
     3.0192   3.0714   3.4893   3.4893   3.9246   3.9624   3.9624   3.9696
     4.4942   4.9498   4.9498   5.0848   5.0848   5.3901   5.4592   5.5744
     5.5745   5.7525   5.7526   5.8198

[...]

          k =-0.0814-0.0470 0.0000 ( 20740 PWs)   bands (ev):

[...]

     the Fermi energy is     1.7886 ev

!    total energy              =   -1483.01644503 Ry
     Harris-Foulkes estimate   =   -1483.01644380 Ry
     estimated scf accuracy    <       0.00000083 Ry

     The total energy is the sum of the following terms:

     one-electron contribution =  -10766.90701494 Ry
     hartree contribution      =    5377.84125427 Ry
     xc contribution           =    -246.00393910 Ry
     ewald contribution        =    4152.17150113 Ry
     electric field correction =       0.00000001 Ry
     smearing contrib. (-TS)   =      -0.11824640 Ry

     convergence has been achieved in  19 iterations

 BEEF-vdW xc energy contributions
           1 :   -211.581486172087
           2 :    192.391742471485
           3 :   -159.714185287679
           4 :    122.365699950111
           5 :   -88.6719998192268
           6 :    63.6388062258902
           7 :   -47.9973497719586
           8 :    39.1784392551714
           9 :   -33.3749819981911
          10 :    27.5508715863550
          11 :   -20.5413327589997
          12 :    12.9873559967913
          13 :   -6.42165831132692
          14 :    2.13852540061777
          15 :  -0.452733418719475
          16 :   0.645726918165423
[...]
               b(3) = (  0.000000  0.000000  0.039978 )

     PseudoPot. # 1 for Zr read from file:
     /afs/slac.stanford.edu/u/if/mamunm/psp/gbrv1.5pbe/Zr.UPF
     MD5 check sum: 5db81b1e868ab7776c4564c113de050b
     Pseudo is Ultrasoft + core correction, Zval = 12.0
     Generated by new atomic code, or converted to UPF format
     Using radial grid of  887 points,  6 beta functions with:
                l(1) =   0
                l(2) =   0
                l(3) =   1
                l(4) =   1
                l(5) =   2
                l(6) =   2
     Q(r) pseudized with  6 coefficients,  rinner =    1.200   1.200   1.200
                                                       1.200   1.200

     PseudoPot. # 2 for Ru read from file:
     /afs/slac.stanford.edu/u/if/mamunm/psp/gbrv1.5pbe/Ru.UPF
     MD5 check sum: 7158a806dd851261a58e6920c40ebe78
     Pseudo is Ultrasoft + core correction, Zval = 16.0
     Generated by new atomic code, or converted to UPF format
     Using radial grid of  967 points,  6 beta functions with:
                l(1) =   0
                l(2) =   0
                l(3) =   1
                l(4) =   1
                l(5) =   2
                l(6) =   2
     Q(r) pseudized with  8 coefficients,  rinner =    1.300   1.300   1.300
                                                       1.300   1.300

     vdW kernel table read from file vdW_kernel_table
     MD5 check sum: 095c7af220d748ca6e76c0b4c6cfb241

     atomic species   valence    mass     pseudopotential
        Zr1           12.00    91.22400     Zr( 1.00)
        Ru1           16.00   101.07000     Ru( 1.00)

     No symmetry found

   Cartesian axes

     site n.     atom                  positions (alat units)
         1           Zr1 tau(   1) = (   0.0000000   0.0000000  10.0000000  )
         2           Zr1 tau(   2) = (  -1.5352243   2.6590866  10.0000000  )
         3           Zr1 tau(   3) = (   1.5352243   2.6590866  10.0000000  )
         4           Ru1 tau(   4) = (   3.0704487   0.0000000  10.0000000  )
         5           Zr1 tau(   5) = (   3.0704487   1.7727244  12.5070108  )
         6           Zr1 tau(   6) = (   1.5352243   4.4318109  12.5070108  )
         7           Zr1 tau(   7) = (  -1.5352243   4.4318109  12.5070108  )
         8           Ru1 tau(   8) = (   0.0000000   1.7727244  12.5070108  )
         9           Zr1 tau(   9) = (   0.0000026   3.4901157  15.0203096  )
        10           Zr1 tau(  10) = (   1.4873193   0.9140299  15.0203157  )
        11           Zr1 tau(  11) = (   4.6535927   0.9140316  15.0203013  )
        12           Ru1 tau(  12) = (   3.0704431   3.5454439  14.5303877  )

     number of k points=    20  Fermi-Dirac smearing, width (Ry)=  0.0110
                       cart. coord. in units 2pi/alat
        k(    1) = (   0.0000000   0.0000000   0.0000000), wk =   0.0555556
        k(    2) = (   0.0000000   0.0313391   0.0000000), wk =   0.1111111
        k(    3) = (   0.0000000   0.0626782   0.0000000), wk =   0.1111111
        k(    4) = (   0.0000000  -0.0940172   0.0000000), wk =   0.0555556
        k(    5) = (   0.0271404   0.0156695   0.0000000), wk =   0.1111111
        k(    6) = (   0.0271404   0.0470086   0.0000000), wk =   0.1111111
        k(    7) = (   0.0271404   0.0783477   0.0000000), wk =   0.1111111
        k(    8) = (   0.0271404  -0.0783477   0.0000000), wk =   0.1111111
        k(    9) = (   0.0271404  -0.0470086   0.0000000), wk =   0.1111111
        k(   10) = (   0.0271404  -0.0156695   0.0000000), wk =   0.1111111
        k(   11) = (   0.0542809   0.0313391   0.0000000), wk =   0.1111111
        k(   12) = (   0.0542809   0.0626782   0.0000000), wk =   0.1111111
        k(   13) = (   0.0542809   0.0940172   0.0000000), wk =   0.1111111
        k(   14) = (   0.0542809  -0.0626782   0.0000000), wk =   0.1111111
        k(   15) = (   0.0542809  -0.0313391   0.0000000), wk =   0.1111111
        k(   16) = (   0.0542809   0.0000000   0.0000000), wk =   0.1111111
        k(   17) = (  -0.0814213  -0.0470086   0.0000000), wk =   0.0555556
        k(   18) = (  -0.0814213  -0.0156695   0.0000000), wk =   0.1111111
        k(   19) = (  -0.0814213   0.0156695   0.0000000), wk =   0.1111111
        k(   20) = (  -0.0814213  -0.1410259   0.0000000), wk =   0.0555556

     Largest allocated arrays     est. size (Mb)     dimensions
     Largest temporary arrays     est. size (Mb)     dimensions

     Initial potential from superposition of free atoms
     Check: negative starting charge=   -0.767037

     starting charge  152.98061, renormalised to  156.00000

[...]

     *
     * You are using vdW-DF for exchange-correlation in this calculation.
     * Please cite the following three references that made this development
     * possible:
     *
     *   M. Dion, H. Rydberg, E. Schroder, D. C. Langreth, and
     *   B. I. Lundqvist, Phys. Rev. Lett. 92, 246401 (2004).
     *
     *   T. Thonhauser, V. R. Cooper, S. Li, A. Puzder, P. Hyldgaard, and
     *   D. C. Langreth, Phys. Rev. B 76, 125112 (2007).
     *
     *   G. Roman-Perez and J. M. Soler, Phys. Rev. Lett. 103, 096102 (2009).
     *
     *
     * If you are using vdW-DF2, please also cite:
     *
     *   K. Lee, E. D. Murray, L. Kong, B. I. Lundqvist, and
     *   D. C. Langreth, Phys. Rev. B 82, 081101(R) (2010).
     *
     *
     * If you are calculating the stress with vdW-DF, please also cite:
     *
     *   R. Sabatini, E. Kucukbenli, B. Kolb, T. Thonhauser, and
     *   S. de Gironcoli, J. Phys.: Condens. Matter 24, 424209 (2012).
     *

     Carrying out vdW-DF run using the following parameters:

     Nqs =      20    Nr_points =    1024   r_max =   100.000
     q_mesh =
               0.00001000     0.04494208     0.09755937     0.15916263
               0.23128650     0.31572767     0.41458969     0.53033537
               0.66584808     0.82450364     1.01025438     1.22772762
               1.48234092     1.78043706     2.12944203     2.53805004
               3.01644009     3.57652955     4.23227104     5.00000000

     Gradients computed in reciprocal space

[...]

     Starting wfc are  156 randomized atomic wfcs

     Self-consistent Calculation

[...]

     total energy              =   -1483.04259761 Ry
     Harris-Foulkes estimate   =   -1483.04259746 Ry
     estimated scf accuracy    <       0.00000106 Ry

     iteration # 21     ecut=    36.75 Ry     beta=0.10
     Davidson diagonalization with overlap
     ethr =  6.80E-10,  avg # of iterations =  2.0

[...]

     negative rho (up, down):  7.871E-01 0.000E+00

     Adding external electric field

     Computed dipole along edir(3) :
        Dipole                0.0861 Ry au,          0.2189 Debye
        Dipole field          0.0002 Ry au

        Potential amp.       -0.0181 Ry
        Total length         46.0879 bohr

     End of self-consistent calculation

[...]

          k = 0.0543 0.0000 0.0000 ( 20707 PWs)   bands (ev):

[...]

          k =-0.0814-0.1410 0.0000 ( 20740 PWs)   bands (ev):

   -70.4822 -70.3835 -70.1943 -47.3837 -47.3599 -47.3311 -47.3214 -47.2970
   -47.2839 -47.0205 -46.9849 -46.9482 -40.4264 -40.4248 -40.4238 -40.4078
   -40.3474 -40.3467 -40.1686 -40.1676 -40.1306 -25.6868 -25.6398 -25.6045
   -25.5180 -25.5021 -25.4482 -25.4196 -25.4024 -25.3819 -25.3735 -25.3490
   -25.3145 -25.3065 -25.2658 -25.2597 -25.2363 -25.2077 -25.0408 -24.9597
   -24.9530 -24.9233 -24.9093 -24.8598 -24.8461 -24.8357 -24.8107 -24.6425
    -1.9063  -1.8522  -1.0492  -0.9697  -0.8095  -0.6736  -0.6132  -0.5473
    -0.5441  -0.3657  -0.2066  -0.1991  -0.0660  -0.0202   0.1270   0.1849
     0.3549   0.4240   0.5152   0.6526   0.6559   0.7770   0.9433   1.0125
     1.1355   1.2815   1.4746   1.5782   1.7005   1.7570   1.7674   1.9132
     1.9693   1.9886   2.0947   2.1650   2.3601   2.4653   2.6071   2.6715
     2.7204   3.1154   3.2582   3.3734   3.4039   3.4583   3.6127   3.7237
     3.7697   4.2715   4.3049   4.4330   4.5026   4.6273   4.8194   4.8467
     4.9959   5.0686   5.1896   5.2649

     the Fermi energy is     1.8795 ev

!    total energy              =   -1483.04260171 Ry
     Harris-Foulkes estimate   =   -1483.04259694 Ry
     estimated scf accuracy    <       0.00000031 Ry

     The total energy is the sum of the following terms:

     one-electron contribution =  -10979.14516503 Ry
     hartree contribution      =    5484.37186841 Ry
     xc contribution           =    -246.18543359 Ry
     ewald contribution        =    4258.02874476 Ry
     electric field correction =       0.00001690 Ry
     smearing contrib. (-TS)   =      -0.11263316 Ry

     convergence has been achieved in  21 iterations

 BEEF-vdW xc energy contributions
           1 :   -211.827111728913
           2 :    192.706978581794
           3 :   -160.111732560823
           4 :    122.779857955437
           5 :   -88.9843085797424
           6 :    63.7400112613670
           7 :   -47.8548725360511
           8 :    38.8671514825164
           9 :   -33.0448741092320
          10 :    27.3455339902168
          11 :   -20.5183420045133
          12 :    13.0931859280212
          13 :   -6.53530786579503
          14 :    2.15040743606778
          15 :  -0.325533888933393
          16 :   0.423745338159819
          17 :   -1.26106843789691
          18 :    1.79366917793075
          19 :   -1.59218614176925
          20 :   0.881709079521158
          21 :  -0.218537957011819
          22 :   6.405310993656599E-002
          23 :  -0.515151918786160
          24 :    1.30436919561251
          25 :   -2.00879474798498
          26 :    2.30813668409198
          27 :   -2.14000827339063
          28 :    1.68506842825744
          29 :   -1.21966863193180
          30 :   0.943057747574841
          31 :   -23.6364604225526
          32 :   -17.7027947491056

     Forces acting on atoms (Ry/au):

     negative rho (up, down):  7.871E-01 0.000E+00
     atom    1 type  1   force =     0.00000018    0.02509710   -0.00401935
     atom    2 type  1   force =     0.02173422   -0.01254860   -0.00401969
     atom    3 type  1   force =    -0.02173455   -0.01254910   -0.00401880
     atom    4 type  2   force =    -0.00000029    0.00000037    0.03745435
     atom    5 type  1   force =    -0.00000140   -0.01037575   -0.00539750
     atom    6 type  1   force =    -0.00898657    0.00518705   -0.00539702
     atom    7 type  1   force =     0.00898652    0.00518849   -0.00539477
     atom    8 type  2   force =     0.00000021    0.00000036   -0.00576636
     atom    9 type  1   force =     0.00000050   -0.00157528   -0.00064001
     atom   10 type  1   force =    -0.00136402    0.00078817   -0.00063877
     atom   11 type  1   force =     0.00136520    0.00078783   -0.00063830
     atom   12 type  2   force =     0.00000000   -0.00000064   -0.00152379

     Total force =     0.061607     Total SCF correction =     0.001922

     entering subroutine stress ...

     negative rho (up, down):  7.871E-01 0.000E+00
          total   stress  (Ry/bohr**3)                   (kbar)     P=  -11.26
  -0.00010178   0.00000000   0.00000000        -14.97      0.00      0.00
   0.00000000  -0.00010178  -0.00000000          0.00    -14.97     -0.00
   0.00000000  -0.00000000  -0.00002604          0.00     -0.00     -3.83

 !ASE

     Writing output data file calc.save

     General routines

     Parallel routines

   This run was terminated on:  23:33:14   2Jan2019

   JOB DONE.
Job  /afs/slac/g/suncat/bin/suncat-tsmpirun -x LD_LIBRARY_PATH -wdir /scratch/qe649564_jRbuU pw.x -in pw.inp

TID   HOST_NAME   COMMAND_LINE            STATUS            TERMINATION_TIME
00000 suncat0278 pw.x -in pw.inp   Done                     01/02/2019 23:33:14
00001 suncat0278 pw.x -in pw.inp   Done                     01/02/2019 23:33:14
00002 suncat0278 pw.x -in pw.inp   Done                     01/02/2019 23:33:14
00003 suncat0278 pw.x -in pw.inp   Done                     01/02/2019 23:33:14
00004 suncat0278 pw.x -in pw.inp   Done                     01/02/2019 23:33:14
00005 suncat0278 pw.x -in pw.inp   Done                     01/02/2019 23:33:14
00006 suncat0278 pw.x -in pw.inp   Done                     01/02/2019 23:33:14
00007 suncat0278 pw.x -in pw.inp   Done                     01/02/2019 23:33:14
00008 suncat0271 pw.x -in pw.inp   Done                     01/02/2019 23:33:14
00009 suncat0271 pw.x -in pw.inp   Done                     01/02/2019 23:33:14
00010 suncat0271 pw.x -in pw.inp   Done                     01/02/2019 23:33:14
00011 suncat0271 pw.x -in pw.inp   Done                     01/02/2019 23:33:14
00012 suncat0271 pw.x -in pw.inp   Done                     01/02/2019 23:33:14
00013 suncat0271 pw.x -in pw.inp   Done                     01/02/2019 23:33:14
00014 suncat0271 pw.x -in pw.inp   Done                     01/02/2019 23:33:14
00015 suncat0271 pw.x -in pw.inp   Done                     01/02/2019 23:33:14
00016 suncat0266 pw.x -in pw.inp   Done                     01/02/2019 23:33:14
00017 suncat0266 pw.x -in pw.inp   Done                     01/02/2019 23:33:14
00018 suncat0266 pw.x -in pw.inp   Done                     01/02/2019 23:33:14
00019 suncat0266 pw.x -in pw.inp   Done                     01/02/2019 23:33:14
00020 suncat0266 pw.x -in pw.inp   Done                     01/02/2019 23:33:14
00021 suncat0266 pw.x -in pw.inp   Done                     01/02/2019 23:33:14
00022 suncat0266 pw.x -in pw.inp   Done                     01/02/2019 23:33:14
00023 suncat0266 pw.x -in pw.inp   Done                     01/02/2019 23:33:14
00024 suncat0251 pw.x -in pw.inp   Done                     01/02/2019 23:33:14
00025 suncat0251 pw.x -in pw.inp   Done                     01/02/2019 23:33:14
00026 suncat0251 pw.x -in pw.inp   Done                     01/02/2019 23:33:14
00027 suncat0251 pw.x -in pw.inp   Done                     01/02/2019 23:33:14
00028 suncat0251 pw.x -in pw.inp   Done                     01/02/2019 23:33:14
00029 suncat0251 pw.x -in pw.inp   Done                     01/02/2019 23:33:14
00030 suncat0251 pw.x -in pw.inp   Done                     01/02/2019 23:33:14
00031 suncat0251 pw.x -in pw.inp   Done                     01/02/2019 23:33:14
00032 suncat0244 pw.x -in pw.inp   Done                     01/02/2019 23:33:14
00033 suncat0244 pw.x -in pw.inp   Done                     01/02/2019 23:33:14
00034 suncat0244 pw.x -in pw.inp   Done                     01/02/2019 23:33:14
00035 suncat0244 pw.x -in pw.inp   Done                     01/02/2019 23:33:14
00036 suncat0244 pw.x -in pw.inp   Done                     01/02/2019 23:33:14
00037 suncat0244 pw.x -in pw.inp   Done                     01/02/2019 23:33:14
00038 suncat0244 pw.x -in pw.inp   Done                     01/02/2019 23:33:14
00039 suncat0244 pw.x -in pw.inp   Done                     01/02/2019 23:33:14
00040 suncat0239 pw.x -in pw.inp   Done                     01/02/2019 23:33:14
00041 suncat0239 pw.x -in pw.inp   Done                     01/02/2019 23:33:14
00042 suncat0239 pw.x -in pw.inp   Done                     01/02/2019 23:33:14
00043 suncat0239 pw.x -in pw.inp   Done                     01/02/2019 23:33:14
00044 suncat0239 pw.x -in pw.inp   Done                     01/02/2019 23:33:14
00045 suncat0239 pw.x -in pw.inp   Done                     01/02/2019 23:33:14
00046 suncat0239 pw.x -in pw.inp   Done                     01/02/2019 23:33:14
00047 suncat0239 pw.x -in pw.inp   Done                     01/02/2019 23:33:14
00048 suncat0099 pw.x -in pw.inp   Done                     01/02/2019 23:33:14
00049 suncat0099 pw.x -in pw.inp   Done                     01/02/2019 23:33:14
00050 suncat0099 pw.x -in pw.inp   Done                     01/02/2019 23:33:14
00051 suncat0099 pw.x -in pw.inp   Done                     01/02/2019 23:33:14
00052 suncat0099 pw.x -in pw.inp   Done                     01/02/2019 23:33:14
00053 suncat0099 pw.x -in pw.inp   Done                     01/02/2019 23:33:14
00054 suncat0099 pw.x -in pw.inp   Done                     01/02/2019 23:33:14
00055 suncat0099 pw.x -in pw.inp   Done                     01/02/2019 23:33:14
00056 suncat0098 pw.x -in pw.inp   Done                     01/02/2019 23:33:14
00057 suncat0098 pw.x -in pw.inp   Done                     01/02/2019 23:33:14
00058 suncat0098 pw.x -in pw.inp   Done                     01/02/2019 23:33:14
00059 suncat0098 pw.x -in pw.inp   Done                     01/02/2019 23:33:14
00060 suncat0098 pw.x -in pw.inp   Done                     01/02/2019 23:33:14
00061 suncat0098 pw.x -in pw.inp   Done                     01/02/2019 23:33:14
00062 suncat0098 pw.x -in pw.inp   Done                     01/02/2019 23:33:14
00063 suncat0098 pw.x -in pw.inp   Done                     01/02/2019 23:33:14