     Program PWSCF v.5.1rc2 (svn rev. 11289) starts on  2Jan2019 at  3: 6:47

     Current dimensions of program PWSCF are:
     Max number of different atomic species (ntypx) = 10
     Max number of k-points (npk) =  40000
     Max angular momentum in pseudopotentials (lmaxx) =  3
     Presently stress not available with electric field

     IMPORTANT: XC functional enforced from input :
     Exchange-correlation      = BEEF-VDW ( 1  4 27 13 2)
     Any further DFT definition will be discarded
     Please, verify this is what you really want

     Subspace diagonalization in iterative solution of the eigenvalue problem:
     a serial algorithm will be used

     bravais-lattice index     =            0
     lattice parameter (alat)  =       1.8897  a.u.
     unit-cell volume          =    6713.3654 (a.u.)^3
     number of atoms/cell      =           12
     number of atomic types    =            2
     number of electrons       =       150.00
     number of Kohn-Sham states=          105
     kinetic-energy cutoff     =      36.7493  Ry
     charge density cutoff     =     367.4932  Ry
     convergence threshold     =      1.0E-06
     mixing beta               =       0.1000
     number of iterations used =           10  plain     mixing
     Exchange-correlation      = BEEF-VDW ( 1  4 27 13 2)
     nstep                     =           50

     celldm(1)=   1.889726  celldm(2)=   0.000000  celldm(3)=   0.000000
     celldm(4)=   0.000000  celldm(5)=   0.000000  celldm(6)=   0.000000

     crystal axes: (cart. coord. in units of alat)
               a(1) = (   6.714123   0.000000   0.000000 )
               a(2) = (  -3.357061   5.814601   0.000000 )
               a(3) = (   0.000000   0.000000  25.482058 )

     reciprocal axes: (cart. coord. in units 2 pi/alat)
               b(1) = (  0.148940  0.085990  0.000000 )
               b(2) = (  0.000000  0.171981  0.000000 )
               b(3) = (  0.000000  0.000000  0.039243 )

     PseudoPot. # 1 for Tl read from file:
     /afs/slac.stanford.edu/u/if/mamunm/psp/gbrv1.5pbe/Tl.UPF
     MD5 check sum: b76cf1f7e72655a2b2c53cf6385d7059
     Pseudo is Ultrasoft + core correction, Zval = 13.0
     Generated by new atomic code, or converted to UPF format
     Using radial grid of  899 points,  6 beta functions with:
                l(1) =   0
                l(2) =   0
                l(3) =   1
                l(4) =   1
                l(5) =   2
                l(6) =   2
     Q(r) pseudized with  6 coefficients,  rinner =    1.100   1.100   1.100
                                                       1.100   1.100

     PseudoPot. # 2 for Sc read from file:
     /afs/slac.stanford.edu/u/if/mamunm/psp/gbrv1.5pbe/Sc.UPF
     MD5 check sum: db30a2753ba66ef00f23801d899b7e7f
     Pseudo is Ultrasoft + core correction, Zval = 11.0
     Generated by new atomic code, or converted to UPF format
     Using radial grid of  849 points,  6 beta functions with:
                l(1) =   0
                l(2) =   0
                l(3) =   1
                l(4) =   1
                l(5) =   2
                l(6) =   2
     Q(r) pseudized with  6 coefficients,  rinner =    1.200   1.200   1.200
                                                       1.200   1.200

     vdW kernel table read from file vdW_kernel_table
     MD5 check sum: 095c7af220d748ca6e76c0b4c6cfb241

     atomic species   valence    mass     pseudopotential
        Tl1           13.00   204.38000     Tl( 1.00)
        Sc1           11.00    44.95591     Sc( 1.00)

     No symmetry found

   Cartesian axes

     site n.     atom                  positions (alat units)
         1           Tl1 tau(   1) = (   0.0000000   0.0000000  10.0000000  )
         2           Tl1 tau(   2) = (  -1.6785307   2.9073004  10.0000000  )
         3           Tl1 tau(   3) = (   1.6785307   2.9073004  10.0000000  )
         4           Sc1 tau(   4) = (   3.3570614   0.0000000  10.0000000  )
         5           Tl1 tau(   5) = (   3.3570614   1.9382003  12.7410291  )
         6           Tl1 tau(   6) = (   1.6785307   4.8455007  12.7410291  )
         7           Tl1 tau(   7) = (  -1.6785307   4.8455007  12.7410291  )
         8           Sc1 tau(   8) = (   0.0000000   1.9382003  12.7410291  )
         9           Tl1 tau(   9) = (   0.0000000   3.8764006  15.4820583  )
        10           Tl1 tau(  10) = (   1.6785307   0.9691001  15.4820583  )
        11           Tl1 tau(  11) = (   5.0355920   0.9691001  15.4820583  )
        12           Sc1 tau(  12) = (   3.3570614   3.8764006  15.4820583  )

     number of k points=    20  Fermi-Dirac smearing, width (Ry)=  0.0110
                       cart. coord. in units 2pi/alat
        k(    1) = (   0.0000000   0.0000000   0.0000000), wk =   0.0555556
        k(    2) = (   0.0000000   0.0286635   0.0000000), wk =   0.1111111
        k(    3) = (   0.0000000   0.0573270   0.0000000), wk =   0.1111111
        k(    4) = (   0.0000000  -0.0859904   0.0000000), wk =   0.0555556
        k(    5) = (   0.0248233   0.0143317   0.0000000), wk =   0.1111111
        k(    6) = (   0.0248233   0.0429952   0.0000000), wk =   0.1111111
        k(    7) = (   0.0248233   0.0716587   0.0000000), wk =   0.1111111
        k(    8) = (   0.0248233  -0.0716587   0.0000000), wk =   0.1111111
        k(    9) = (   0.0248233  -0.0429952   0.0000000), wk =   0.1111111
        k(   10) = (   0.0248233  -0.0143317   0.0000000), wk =   0.1111111
        k(   11) = (   0.0496466   0.0286635   0.0000000), wk =   0.1111111
        k(   12) = (   0.0496466   0.0573270   0.0000000), wk =   0.1111111
        k(   13) = (   0.0496466   0.0859904   0.0000000), wk =   0.1111111
        k(   14) = (   0.0496466  -0.0573270   0.0000000), wk =   0.1111111
        k(   15) = (   0.0496466  -0.0286635   0.0000000), wk =   0.1111111
        k(   16) = (   0.0496466   0.0000000   0.0000000), wk =   0.1111111
        k(   17) = (  -0.0744699  -0.0429952   0.0000000), wk =   0.0555556
        k(   18) = (  -0.0744699  -0.0143317   0.0000000), wk =   0.1111111
        k(   19) = (  -0.0744699   0.0143317   0.0000000), wk =   0.1111111
        k(   20) = (  -0.0744699  -0.1289856   0.0000000), wk =   0.0555556

     Largest allocated arrays     est. size (Mb)     dimensions
     Largest temporary arrays     est. size (Mb)     dimensions

     Check: negative/imaginary core charge=   -0.000001    0.000000

     Initial potential from superposition of free atoms
     Check: negative starting charge=   -0.454853

     starting charge  149.94900, renormalised to  150.00000

     negative rho (up, down):  4.550E-01 0.000E+00

     *
     * You are using vdW-DF for exchange-correlation in this calculation.
     * Please cite the following three references that made this development
     * possible:
     *
     *   M. Dion, H. Rydberg, E. Schroder, D. C. Langreth, and
     *   B. I. Lundqvist, Phys. Rev. Lett. 92, 246401 (2004).
     *
     *   T. Thonhauser, V. R. Cooper, S. Li, A. Puzder, P. Hyldgaard, and
     *   D. C. Langreth, Phys. Rev. B 76, 125112 (2007).
     *
     *   G. Roman-Perez and J. M. Soler, Phys. Rev. Lett. 103, 096102 (2009).
     *
     *
     * If you are using vdW-DF2, please also cite:
     *
     *   K. Lee, E. D. Murray, L. Kong, B. I. Lundqvist, and
     *   D. C. Langreth, Phys. Rev. B 82, 081101(R) (2010).
     *
     *
     * If you are calculating the stress with vdW-DF, please also cite:
     *
     *   R. Sabatini, E. Kucukbenli, B. Kolb, T. Thonhauser, and
     *   S. de Gironcoli, J. Phys.: Condens. Matter 24, 424209 (2012).
     *

     Carrying out vdW-DF run using the following parameters:

     Nqs =      20    Nr_points =    1024   r_max =   100.000
     q_mesh =
               0.00001000     0.04494208     0.09755937     0.15916263
               0.23128650     0.31572767     0.41458969     0.53033537
               0.66584808     0.82450364     1.01025438     1.22772762
               1.48234092     1.78043706     2.12944203     2.53805004
               3.01644009     3.57652955     4.23227104     5.00000000

     Gradients computed in reciprocal space

     Adding external electric field

     Computed dipole along edir(3) :
        Dipole               -0.0000 Ry au,         -0.0000 Debye
        Dipole field         -0.0000 Ry au

        Potential amp.        0.0000 Ry
        Total length         46.9503 bohr

     Starting wfc are  120 randomized atomic wfcs

     Self-consistent Calculation

     iteration #  1     ecut=    36.75 Ry     beta=0.10
     Davidson diagonalization with overlap
     ethr =  1.00E-02,  avg # of iterations =  3.0

     Threshold (ethr) on eigenvalues was too large:
     Diagonalizing with lowered threshold

     Davidson diagonalization with overlap
     ethr =  3.83E-04,  avg # of iterations =  9.0

[...]

     total energy              =   -1605.56999680 Ry
     Harris-Foulkes estimate   =   -1605.66925647 Ry
     estimated scf accuracy    <       0.61076649 Ry

[...]

     End of self-consistent calculation

          k = 0.0000 0.0000 0.0000 ( 25317 PWs)   bands (ev):

   -49.9597 -49.9596 -49.7437 -28.6302 -28.6298 -28.4768 -28.4768 -28.4767
   -28.4767 -28.3467 -28.3045 -28.3045 -11.2163 -11.1531 -11.1529 -11.1529
   -11.1410 -11.1112 -11.0186 -11.0185 -11.0178 -11.0178 -11.0141 -10.9376
   -10.9376 -10.9278 -10.9123 -10.9123 -10.8460 -10.8444 -10.7920 -10.7920
   -10.7437 -10.7377 -10.6923 -10.6923 -10.6614 -10.6614 -10.6557 -10.6557
   -10.6228 -10.6228 -10.6184 -10.6040 -10.6040 -10.5837 -10.5837 -10.5354
   -10.5354 -10.4426 -10.4426 -10.4225 -10.3827 -10.3827 -10.3621 -10.3255
   -10.3174  -8.3303  -7.1109  -5.4813  -4.5051  -4.5051  -3.9829  -3.9829
    -3.1642  -3.1642  -1.6954  -1.1251  -0.8759  -0.8141  -0.8141  -0.4492
     0.4526   0.4526   0.4837   0.4837   0.7653   1.5247   1.5247   1.6025
     1.6025   1.9054   1.9922   2.2398   2.2398   2.2666   2.2666   2.3190
     2.3190   2.5680   2.5904   2.5904   2.7644   3.2208   3.4559   3.9886
     4.1767   4.5963   4.5963   4.6972   4.6972   5.0288   5.1246   5.3567
     5.7662

[...]

          k =-0.0745-0.0430 0.0000 ( 25258 PWs)   bands (ev):

[...]

     the Fermi energy is     0.9020 ev

!    total energy              =   -1605.61636957 Ry
     Harris-Foulkes estimate   =   -1605.61635315 Ry
     estimated scf accuracy    <       0.00000044 Ry

     The total energy is the sum of the following terms:

     one-electron contribution =   -8033.32025756 Ry
     hartree contribution      =    4073.25389269 Ry
     xc contribution           =    -617.68065274 Ry
     ewald contribution        =    2972.19122197 Ry
     electric field correction =       0.00000000 Ry
     smearing contrib. (-TS)   =      -0.06057392 Ry

     convergence has been achieved in  15 iterations

 BEEF-vdW xc energy contributions
           1 :   -548.668717251507
           2 :    507.829294182803
           3 :   -436.834406722385
           4 :    352.280529120020
           5 :   -270.215830562189
           6 :    201.212495328499
           7 :   -148.786868761325
           8 :    110.836978021448
           9 :   -82.6123511110407
          10 :    59.5791415248237
[...]
     Pseudo is Ultrasoft + core correction, Zval = 13.0
     Generated by new atomic code, or converted to UPF format
     Using radial grid of  899 points,  6 beta functions with:
                l(1) =   0
                l(2) =   0
                l(3) =   1
                l(4) =   1
                l(5) =   2
                l(6) =   2
     Q(r) pseudized with  6 coefficients,  rinner =    1.100   1.100   1.100
                                                       1.100   1.100

     PseudoPot. # 2 for Sc read from file:
     /afs/slac.stanford.edu/u/if/mamunm/psp/gbrv1.5pbe/Sc.UPF
     MD5 check sum: db30a2753ba66ef00f23801d899b7e7f
     Pseudo is Ultrasoft + core correction, Zval = 11.0
     Generated by new atomic code, or converted to UPF format
     Using radial grid of  849 points,  6 beta functions with:
                l(1) =   0
                l(2) =   0
                l(3) =   1
                l(4) =   1
                l(5) =   2
                l(6) =   2
     Q(r) pseudized with  6 coefficients,  rinner =    1.200   1.200   1.200
                                                       1.200   1.200

     vdW kernel table read from file vdW_kernel_table
     MD5 check sum: 095c7af220d748ca6e76c0b4c6cfb241

     atomic species   valence    mass     pseudopotential
        Tl1           13.00   204.38000     Tl( 1.00)
        Sc1           11.00    44.95591     Sc( 1.00)

     No symmetry found

   Cartesian axes

     site n.     atom                  positions (alat units)
         1           Tl1 tau(   1) = (   0.0000000   0.0000000  10.0000000  )
         2           Tl1 tau(   2) = (  -1.6785307   2.9073004  10.0000000  )
         3           Tl1 tau(   3) = (   1.6785307   2.9073004  10.0000000  )
         4           Sc1 tau(   4) = (   3.3570614   0.0000000  10.0000000  )
         5           Tl1 tau(   5) = (   3.3570614   1.9382003  12.7410291  )
         6           Tl1 tau(   6) = (   1.6785307   4.8455007  12.7410291  )
         7           Tl1 tau(   7) = (  -1.6785307   4.8455007  12.7410291  )
         8           Sc1 tau(   8) = (   0.0000000   1.9382003  12.7410291  )
         9           Tl1 tau(   9) = (  -0.0000293   3.8775215  15.7138633  )
        10           Tl1 tau(  10) = (   1.6793883   0.9685507  15.7140090  )
        11           Tl1 tau(  11) = (   5.0346622   0.9685635  15.7139145  )
        12           Sc1 tau(  12) = (   3.3570552   3.8764456  15.1734421  )

     number of k points=    20  Fermi-Dirac smearing, width (Ry)=  0.0110
                       cart. coord. in units 2pi/alat
        k(    1) = (   0.0000000   0.0000000   0.0000000), wk =   0.0555556
        k(    2) = (   0.0000000   0.0286635   0.0000000), wk =   0.1111111
        k(    3) = (   0.0000000   0.0573270   0.0000000), wk =   0.1111111
        k(    4) = (   0.0000000  -0.0859904   0.0000000), wk =   0.0555556
        k(    5) = (   0.0248233   0.0143317   0.0000000), wk =   0.1111111
        k(    6) = (   0.0248233   0.0429952   0.0000000), wk =   0.1111111
        k(    7) = (   0.0248233   0.0716587   0.0000000), wk =   0.1111111
        k(    8) = (   0.0248233  -0.0716587   0.0000000), wk =   0.1111111
        k(    9) = (   0.0248233  -0.0429952   0.0000000), wk =   0.1111111
        k(   10) = (   0.0248233  -0.0143317   0.0000000), wk =   0.1111111
        k(   11) = (   0.0496466   0.0286635   0.0000000), wk =   0.1111111
        k(   12) = (   0.0496466   0.0573270   0.0000000), wk =   0.1111111
        k(   13) = (   0.0496466   0.0859904   0.0000000), wk =   0.1111111
        k(   14) = (   0.0496466  -0.0573270   0.0000000), wk =   0.1111111
        k(   15) = (   0.0496466  -0.0286635   0.0000000), wk =   0.1111111
        k(   16) = (   0.0496466   0.0000000   0.0000000), wk =   0.1111111
        k(   17) = (  -0.0744699  -0.0429952   0.0000000), wk =   0.0555556
        k(   18) = (  -0.0744699  -0.0143317   0.0000000), wk =   0.1111111
        k(   19) = (  -0.0744699   0.0143317   0.0000000), wk =   0.1111111
        k(   20) = (  -0.0744699  -0.1289856   0.0000000), wk =   0.0555556

     Largest allocated arrays     est. size (Mb)     dimensions
     Largest temporary arrays     est. size (Mb)     dimensions

     Check: negative/imaginary core charge=   -0.000001    0.000000

     Initial potential from superposition of free atoms
     Check: negative starting charge=   -0.452645

     starting charge  149.94900, renormalised to  150.00000

[...]

     *
     * You are using vdW-DF for exchange-correlation in this calculation.
     * Please cite the following three references that made this development
     * possible:
     *
     *   M. Dion, H. Rydberg, E. Schroder, D. C. Langreth, and
     *   B. I. Lundqvist, Phys. Rev. Lett. 92, 246401 (2004).
     *
     *   T. Thonhauser, V. R. Cooper, S. Li, A. Puzder, P. Hyldgaard, and
     *   D. C. Langreth, Phys. Rev. B 76, 125112 (2007).
     *
     *   G. Roman-Perez and J. M. Soler, Phys. Rev. Lett. 103, 096102 (2009).
     *
     *
     * If you are using vdW-DF2, please also cite:
     *
     *   K. Lee, E. D. Murray, L. Kong, B. I. Lundqvist, and
     *   D. C. Langreth, Phys. Rev. B 82, 081101(R) (2010).
     *
     *
     * If you are calculating the stress with vdW-DF, please also cite:
     *
     *   R. Sabatini, E. Kucukbenli, B. Kolb, T. Thonhauser, and
     *   S. de Gironcoli, J. Phys.: Condens. Matter 24, 424209 (2012).
     *

     Carrying out vdW-DF run using the following parameters:

     Nqs =      20    Nr_points =    1024   r_max =   100.000
     q_mesh =
               0.00001000     0.04494208     0.09755937     0.15916263
               0.23128650     0.31572767     0.41458969     0.53033537
               0.66584808     0.82450364     1.01025438     1.22772762
               1.48234092     1.78043706     2.12944203     2.53805004
               3.01644009     3.57652955     4.23227104     5.00000000

     Gradients computed in reciprocal space

[...]

     Starting wfc are  120 randomized atomic wfcs

     Self-consistent Calculation

[...]

     Threshold (ethr) on eigenvalues was too large:
     Diagonalizing with lowered threshold

     Davidson diagonalization with overlap
     ethr =  3.36E-04,  avg # of iterations =  8.4

[...]

     total energy              =   -1605.63500494 Ry
     Harris-Foulkes estimate   =   -1605.63497882 Ry
     estimated scf accuracy    <       0.00000242 Ry

     iteration # 15     ecut=    36.75 Ry     beta=0.10
     Davidson diagonalization with overlap
     ethr =  1.62E-09,  avg # of iterations =  3.0

[...]

     negative rho (up, down):  4.788E-01 0.000E+00

     Adding external electric field

     Computed dipole along edir(3) :
        Dipole               -0.0330 Ry au,         -0.0840 Debye
        Dipole field         -0.0001 Ry au

        Potential amp.        0.0058 Ry
        Total length         46.9503 bohr

     End of self-consistent calculation

[...]

          k = 0.0496 0.0000 0.0000 ( 25236 PWs)   bands (ev):

[...]

          k =-0.0745-0.1290 0.0000 ( 25258 PWs)   bands (ev):

   -49.9542 -49.8659 -49.8290 -28.6145 -28.4783 -28.4779 -28.4733 -28.4665
   -28.4188 -28.4185 -28.3695 -28.3693 -11.1499 -11.0903 -11.0698 -11.0527
   -11.0212 -10.9989 -10.9629 -10.9394 -10.9348 -10.9233 -10.9149 -10.9086
   -10.8971 -10.8650 -10.8523 -10.8354 -10.8206 -10.8087 -10.7938 -10.7915
   -10.7892 -10.7787 -10.7714 -10.7629 -10.7618 -10.7593 -10.7365 -10.7319
   -10.7237 -10.7164 -10.7093 -10.7074 -10.6840 -10.6732 -10.6613 -10.6545
   -10.6481 -10.6444 -10.6308 -10.6280 -10.6026 -10.5682 -10.5050 -10.4679
   -10.4125  -7.2793  -6.9409  -6.0644  -5.7610  -5.0385  -4.9546  -4.6432
    -4.0203  -3.0189  -1.7769  -1.1858  -0.4131   0.1945   0.2786   0.4058
     0.6230   0.7014   1.0343   1.1052   1.3957   1.4235   1.7745   1.8101
     2.0005   2.0151   2.1572   2.2202   2.2581   2.2832   2.3814   2.5368
     2.6050   2.9154   3.0216   3.0829   3.0922   3.5791   3.7575   3.7626
     3.9805   4.4805   4.7764   4.8015   4.8524   4.9164   5.0645   5.1737
     5.2459

     the Fermi energy is     0.8577 ev

!    total energy              =   -1605.63502819 Ry
     Harris-Foulkes estimate   =   -1605.63500506 Ry
     estimated scf accuracy    <       0.00000088 Ry

     The total energy is the sum of the following terms:

     one-electron contribution =   -7898.41651393 Ry
     hartree contribution      =    4005.61874522 Ry
     xc contribution           =    -617.62733135 Ry
     ewald contribution        =    2904.85093356 Ry
     electric field correction =       0.00000204 Ry
     smearing contrib. (-TS)   =      -0.06086373 Ry

     convergence has been achieved in  15 iterations

 BEEF-vdW xc energy contributions
           1 :   -548.608544391292
           2 :    507.717542122139
           3 :   -436.670283865593
           4 :    352.120988450814
           5 :   -270.135047561763
           6 :    201.244630607938
           7 :   -148.894485595096
           8 :    110.932132372654
           9 :   -82.6170766349867
          10 :    59.4794340605711
          11 :   -39.0235790619735
          12 :    21.0064655037531
          13 :   -6.63190940175855
          14 :   -2.74645484285918
          15 :    6.76953663972154
          16 :   -6.58063013791900
          17 :    4.47075139347362
          18 :   -2.85777206320392
          19 :    3.16065559797812
          20 :   -5.24521113049423
          21 :    7.77211999117924
          22 :   -9.20511004047432
          23 :    8.80672592632777
          24 :   -7.00892394335813
          25 :    4.99964514999010
          26 :   -3.89428504996044
          27 :    4.06398368155453
          28 :   -5.00931576381436
          29 :    5.76379642201755
          30 :   -5.51325890646081
          31 :   -45.3015800845138
          32 :   -33.0804349651361

     Forces acting on atoms (Ry/au):

     negative rho (up, down):  4.788E-01 0.000E+00
     atom    1 type  1   force =    -0.00000247    0.00259252   -0.01504518
     atom    2 type  1   force =     0.00224325   -0.00129036   -0.01504629
     atom    3 type  1   force =    -0.00224381   -0.00130168   -0.01504207
     atom    4 type  2   force =     0.00000078   -0.00000120    0.02884385
     atom    5 type  1   force =    -0.00000488   -0.01058043    0.00312642
     atom    6 type  1   force =    -0.00915607    0.00529034    0.00312144
     atom    7 type  1   force =     0.00915972    0.00528844    0.00312260
     atom    8 type  2   force =     0.00000160   -0.00000023    0.00669512
     atom    9 type  1   force =     0.00000362   -0.00031573   -0.00026148
     atom   10 type  1   force =    -0.00026956    0.00016141   -0.00024832
     atom   11 type  1   force =     0.00027034    0.00016099   -0.00025672
     atom   12 type  2   force =    -0.00000251   -0.00000405    0.00099063

     Total force =     0.044072     Total SCF correction =     0.002293

     entering subroutine stress ...

     negative rho (up, down):  4.788E-01 0.000E+00
          total   stress  (Ry/bohr**3)                   (kbar)     P=   -8.67
  -0.00007951  -0.00000000   0.00000000        -11.70     -0.00      0.00
  -0.00000000  -0.00007951   0.00000000         -0.00    -11.70      0.00
   0.00000000   0.00000000  -0.00001780          0.00      0.00     -2.62

 !ASE

     Writing output data file calc.save

     General routines

     Parallel routines

   This run was terminated on:   5:54:10   2Jan2019

   JOB DONE.
Job  /afs/slac/g/suncat/bin/suncat-tsmpirun -x LD_LIBRARY_PATH -wdir /scratch/qe649278_uMxcK pw.x -in pw.inp

TID   HOST_NAME   COMMAND_LINE            STATUS            TERMINATION_TIME
00000 suncat0036 pw.x -in pw.inp   Done                     01/02/2019 05:54:10
00001 suncat0036 pw.x -in pw.inp   Done                     01/02/2019 05:54:10
00002 suncat0036 pw.x -in pw.inp   Done                     01/02/2019 05:54:10
00003 suncat0036 pw.x -in pw.inp   Done                     01/02/2019 05:54:10
00004 suncat0036 pw.x -in pw.inp   Done                     01/02/2019 05:54:10
00005 suncat0036 pw.x -in pw.inp   Done                     01/02/2019 05:54:10
00006 suncat0036 pw.x -in pw.inp   Done                     01/02/2019 05:54:10
00007 suncat0036 pw.x -in pw.inp   Done                     01/02/2019 05:54:10
00008 suncat0035 pw.x -in pw.inp   Done                     01/02/2019 05:54:10
00009 suncat0035 pw.x -in pw.inp   Done                     01/02/2019 05:54:10
00010 suncat0035 pw.x -in pw.inp   Done                     01/02/2019 05:54:10
00011 suncat0035 pw.x -in pw.inp   Done                     01/02/2019 05:54:10
00012 suncat0035 pw.x -in pw.inp   Done                     01/02/2019 05:54:10
00013 suncat0035 pw.x -in pw.inp   Done                     01/02/2019 05:54:10
00014 suncat0035 pw.x -in pw.inp   Done                     01/02/2019 05:54:10
00015 suncat0035 pw.x -in pw.inp   Done                     01/02/2019 05:54:10
00016 suncat0033 pw.x -in pw.inp   Done                     01/02/2019 05:54:10
00017 suncat0033 pw.x -in pw.inp   Done                     01/02/2019 05:54:10
00018 suncat0033 pw.x -in pw.inp   Done                     01/02/2019 05:54:10
00019 suncat0033 pw.x -in pw.inp   Done                     01/02/2019 05:54:10
00020 suncat0033 pw.x -in pw.inp   Done                     01/02/2019 05:54:10
00021 suncat0033 pw.x -in pw.inp   Done                     01/02/2019 05:54:10
00022 suncat0033 pw.x -in pw.inp   Done                     01/02/2019 05:54:10
00023 suncat0033 pw.x -in pw.inp   Done                     01/02/2019 05:54:10
00024 suncat0032 pw.x -in pw.inp   Done                     01/02/2019 05:54:10
00025 suncat0032 pw.x -in pw.inp   Done                     01/02/2019 05:54:10
00026 suncat0032 pw.x -in pw.inp   Done                     01/02/2019 05:54:10
00027 suncat0032 pw.x -in pw.inp   Done                     01/02/2019 05:54:10
00028 suncat0032 pw.x -in pw.inp   Done                     01/02/2019 05:54:10
00029 suncat0032 pw.x -in pw.inp   Done                     01/02/2019 05:54:10
00030 suncat0032 pw.x -in pw.inp   Done                     01/02/2019 05:54:10
00031 suncat0032 pw.x -in pw.inp   Done                     01/02/2019 05:54:10
00032 suncat0274 pw.x -in pw.inp   Done                     01/02/2019 05:54:10
00033 suncat0274 pw.x -in pw.inp   Done                     01/02/2019 05:54:10
00034 suncat0274 pw.x -in pw.inp   Done                     01/02/2019 05:54:10
00035 suncat0274 pw.x -in pw.inp   Done                     01/02/2019 05:54:10
00036 suncat0274 pw.x -in pw.inp   Done                     01/02/2019 05:54:10
00037 suncat0274 pw.x -in pw.inp   Done                     01/02/2019 05:54:10
00038 suncat0274 pw.x -in pw.inp   Done                     01/02/2019 05:54:10
00039 suncat0274 pw.x -in pw.inp   Done                     01/02/2019 05:54:10
00040 suncat0273 pw.x -in pw.inp   Done                     01/02/2019 05:54:10
00041 suncat0273 pw.x -in pw.inp   Done                     01/02/2019 05:54:10
00042 suncat0273 pw.x -in pw.inp   Done                     01/02/2019 05:54:10
00043 suncat0273 pw.x -in pw.inp   Done                     01/02/2019 05:54:10
00044 suncat0273 pw.x -in pw.inp   Done                     01/02/2019 05:54:10
00045 suncat0273 pw.x -in pw.inp   Done                     01/02/2019 05:54:10
00046 suncat0273 pw.x -in pw.inp   Done                     01/02/2019 05:54:10
00047 suncat0273 pw.x -in pw.inp   Done                     01/02/2019 05:54:10
00048 suncat0230 pw.x -in pw.inp   Done                     01/02/2019 05:54:10
00049 suncat0230 pw.x -in pw.inp   Done                     01/02/2019 05:54:10
00050 suncat0230 pw.x -in pw.inp   Done                     01/02/2019 05:54:10
00051 suncat0230 pw.x -in pw.inp   Done                     01/02/2019 05:54:10
00052 suncat0230 pw.x -in pw.inp   Done                     01/02/2019 05:54:10
00053 suncat0230 pw.x -in pw.inp   Done                     01/02/2019 05:54:10
00054 suncat0230 pw.x -in pw.inp   Done                     01/02/2019 05:54:10
00055 suncat0230 pw.x -in pw.inp   Done                     01/02/2019 05:54:10
00056 suncat0229 pw.x -in pw.inp   Done                     01/02/2019 05:54:10
00057 suncat0229 pw.x -in pw.inp   Done                     01/02/2019 05:54:10
00058 suncat0229 pw.x -in pw.inp   Done                     01/02/2019 05:54:10
00059 suncat0229 pw.x -in pw.inp   Done                     01/02/2019 05:54:10
00060 suncat0229 pw.x -in pw.inp   Done                     01/02/2019 05:54:10
00061 suncat0229 pw.x -in pw.inp   Done                     01/02/2019 05:54:10
00062 suncat0229 pw.x -in pw.inp   Done                     01/02/2019 05:54:10
00063 suncat0229 pw.x -in pw.inp   Done                     01/02/2019 05:54:10