     Program PWSCF v.5.1rc2 (svn rev. 11289) starts on 19Dec2018 at  8:31:33

     Current dimensions of program PWSCF are:
     Max number of different atomic species (ntypx) = 10
     Max number of k-points (npk) =  40000
     Max angular momentum in pseudopotentials (lmaxx) =  3
     Presently stress not available with electric field

     IMPORTANT: XC functional enforced from input :
     Exchange-correlation      = BEEF-VDW ( 1  4 27 13 2)
     Any further DFT definition will be discarded
     Please, verify this is what you really want

     Subspace diagonalization in iterative solution of the eigenvalue problem:
     a serial algorithm will be used

     Found symmetry operation: I + ( -0.5000  0.0000  0.0000)
     This is a supercell, fractional translations are disabled

     bravais-lattice index     =            0
     lattice parameter (alat)  =       1.8897  a.u.
     unit-cell volume          =    4486.6721 (a.u.)^3
     number of atoms/cell      =           12
     number of atomic types    =            2
     number of electrons       =       150.00
     number of Kohn-Sham states=          105
     kinetic-energy cutoff     =      36.7493  Ry
     charge density cutoff     =     367.4932  Ry
     convergence threshold     =      1.0E-06
     mixing beta               =       0.1000
     number of iterations used =           10  plain     mixing
     Exchange-correlation      = BEEF-VDW ( 1  4 27 13 2)
     nstep                     =           50

     celldm(1)=   1.889726  celldm(2)=   0.000000  celldm(3)=   0.000000
     celldm(4)=   0.000000  celldm(5)=   0.000000  celldm(6)=   0.000000

     crystal axes: (cart. coord. in units of alat)
               a(1) = (   5.235709   0.000000   0.000000 )
               a(2) = (  -2.617855   5.179321   0.000000 )
               a(3) = (   0.000000   0.000000  24.517682 )

     reciprocal axes: (cart. coord. in units 2 pi/alat)
               b(1) = (  0.190996  0.096538  0.000000 )
               b(2) = (  0.000000  0.193076  0.000000 )
               b(3) = (  0.000000  0.000000  0.040787 )

     PseudoPot. # 1 for Ti read from file:
     /afs/slac.stanford.edu/u/if/mamunm/psp/gbrv1.5pbe/Ti.UPF
     MD5 check sum: 88a00a6731bd790ddea75d31a80cb452
     Pseudo is Ultrasoft + core correction, Zval = 12.0
     Generated by new atomic code, or converted to UPF format
     Using radial grid of  851 points,  6 beta functions with:
                l(1) =   0
                l(2) =   0
                l(3) =   1
                l(4) =   1
                l(5) =   2
                l(6) =   2
     Q(r) pseudized with  6 coefficients,  rinner =    1.000   1.000   1.000
                                                       1.000   1.000

     PseudoPot. # 2 for V  read from file:
     /afs/slac.stanford.edu/u/if/mamunm/psp/gbrv1.5pbe/V.UPF
     MD5 check sum: 22b79981416ebb76fdaf5b1b8640f6fb
     Pseudo is Ultrasoft + core correction, Zval = 13.0
     Generated by new atomic code, or converted to UPF format
     Using radial grid of  853 points,  6 beta functions with:
                l(1) =   0
                l(2) =   0
                l(3) =   1
                l(4) =   1
                l(5) =   2
                l(6) =   2
     Q(r) pseudized with  8 coefficients,  rinner =    1.100   1.100   1.100
                                                       1.100   1.100

     vdW kernel table read from file vdW_kernel_table
     MD5 check sum: 095c7af220d748ca6e76c0b4c6cfb241

     atomic species   valence    mass     pseudopotential
        Ti1           12.00    47.86700     Ti( 1.00)
        V1            13.00    50.94150     V ( 1.00)

     No symmetry found

   Cartesian axes

     site n.     atom                  positions (alat units)
         1           Ti1 tau(   1) = (   0.0000000   0.0000000  10.0000000  )
         2           Ti1 tau(   2) = (   2.6178546   0.0000000  10.0000000  )
         3           V1  tau(   3) = (   1.3089273   2.5896603  10.0000000  )
         4           V1  tau(   4) = (  -1.3089273   2.5896603  10.0000000  )
         5           Ti1 tau(   5) = (   2.6178546   1.3231780  12.2588411  )
         6           Ti1 tau(   6) = (   0.0000000   1.3231780  12.2588411  )
         7           V1  tau(   7) = (  -1.3089273   3.9128383  12.2588411  )
         8           V1  tau(   8) = (   1.3089273   3.9128383  12.2588411  )
         9           Ti1 tau(   9) = (   0.0000000   2.6463559  14.5176821  )
        10           Ti1 tau(  10) = (   2.6178546   2.6463559  14.5176821  )
        11           V1  tau(  11) = (   3.9267819   0.0566956  14.5176821  )
        12           V1  tau(  12) = (   1.3089273   0.0566956  14.5176821  )

     number of k points=    20  Fermi-Dirac smearing, width (Ry)=  0.0110
                       cart. coord. in units 2pi/alat
        k(    1) = (   0.0000000   0.0000000   0.0000000), wk =   0.0555556
        k(    2) = (   0.0000000   0.0321793   0.0000000), wk =   0.1111111
        k(    3) = (   0.0000000   0.0643585   0.0000000), wk =   0.1111111
        k(    4) = (   0.0000000  -0.0965378   0.0000000), wk =   0.0555556
        k(    5) = (   0.0318327   0.0160896   0.0000000), wk =   0.1111111
        k(    6) = (   0.0318327   0.0482689   0.0000000), wk =   0.1111111
        k(    7) = (   0.0318327   0.0804481   0.0000000), wk =   0.1111111
        k(    8) = (   0.0318327  -0.0804481   0.0000000), wk =   0.1111111
        k(    9) = (   0.0318327  -0.0482689   0.0000000), wk =   0.1111111
        k(   10) = (   0.0318327  -0.0160896   0.0000000), wk =   0.1111111
        k(   11) = (   0.0636654   0.0321793   0.0000000), wk =   0.1111111
        k(   12) = (   0.0636654   0.0643585   0.0000000), wk =   0.1111111
        k(   13) = (   0.0636654   0.0965378   0.0000000), wk =   0.1111111
        k(   14) = (   0.0636654  -0.0643585   0.0000000), wk =   0.1111111
        k(   15) = (   0.0636654  -0.0321793   0.0000000), wk =   0.1111111
        k(   16) = (   0.0636654   0.0000000   0.0000000), wk =   0.1111111
        k(   17) = (  -0.0954980  -0.0482689   0.0000000), wk =   0.0555556
        k(   18) = (  -0.0954980  -0.0160896   0.0000000), wk =   0.1111111
        k(   19) = (  -0.0954980   0.0160896   0.0000000), wk =   0.1111111
        k(   20) = (  -0.0954980  -0.1448066   0.0000000), wk =   0.0555556

     Largest allocated arrays     est. size (Mb)     dimensions
     Largest temporary arrays     est. size (Mb)     dimensions

     Check: negative/imaginary core charge=   -0.000005    0.000000

     Initial potential from superposition of free atoms
     Check: negative starting charge=   -0.012951

     starting charge  143.99237, renormalised to  150.00000

     negative rho (up, down):  1.349E-02 0.000E+00

     *
     * You are using vdW-DF for exchange-correlation in this calculation.
     * Please cite the following three references that made this development
     * possible:
     *
     *   M. Dion, H. Rydberg, E. Schroder, D. C. Langreth, and
     *   B. I. Lundqvist, Phys. Rev. Lett. 92, 246401 (2004).
     *
     *   T. Thonhauser, V. R. Cooper, S. Li, A. Puzder, P. Hyldgaard, and
     *   D. C. Langreth, Phys. Rev. B 76, 125112 (2007).
     *
     *   G. Roman-Perez and J. M. Soler, Phys. Rev. Lett. 103, 096102 (2009).
     *
     *
     * If you are using vdW-DF2, please also cite:
     *
     *   K. Lee, E. D. Murray, L. Kong, B. I. Lundqvist, and
     *   D. C. Langreth, Phys. Rev. B 82, 081101(R) (2010).
     *
     *
     * If you are calculating the stress with vdW-DF, please also cite:
     *
     *   R. Sabatini, E. Kucukbenli, B. Kolb, T. Thonhauser, and
     *   S. de Gironcoli, J. Phys.: Condens. Matter 24, 424209 (2012).
     *

     Carrying out vdW-DF run using the following parameters:

     Nqs =      20    Nr_points =    1024   r_max =   100.000
     q_mesh =
               0.00001000     0.04494208     0.09755937     0.15916263
               0.23128650     0.31572767     0.41458969     0.53033537
               0.66584808     0.82450364     1.01025438     1.22772762
               1.48234092     1.78043706     2.12944203     2.53805004
               3.01644009     3.57652955     4.23227104     5.00000000

     Gradients computed in reciprocal space

     Adding external electric field

     Computed dipole along edir(3) :
        Dipole               -0.0000 Ry au,         -0.0000 Debye
        Dipole field         -0.0000 Ry au

        Potential amp.        0.0000 Ry
        Total length         45.1734 bohr

     Starting wfc are  120 randomized atomic wfcs

     Self-consistent Calculation

     iteration #  1     ecut=    36.75 Ry     beta=0.10
     Davidson diagonalization with overlap
     ethr =  1.00E-02,  avg # of iterations =  3.7

[...]

     total energy              =   -1588.50381985 Ry
     Harris-Foulkes estimate   =   -1600.61070555 Ry
     estimated scf accuracy    <      66.84619016 Ry

[...]

     iteration # 11     ecut=    36.75 Ry     beta=0.10
     Davidson diagonalization with overlap
     c_bands:  1 eigenvalues not converged
     ethr =  7.49E-06,  avg # of iterations =  7.5

[...]

     End of self-consistent calculation

          k = 0.0000 0.0000 0.0000 ( 16919 PWs)   bands (ev):

   -63.3572 -63.3448 -63.2881 -63.2825 -63.2709 -63.2151 -56.0560 -56.0469
   -55.9278 -55.9193 -55.8238 -55.6967 -37.3849 -37.3596 -37.3542 -37.3289
   -37.2865 -37.2150 -37.1555 -37.1536 -37.1361 -37.0870 -37.0764 -37.0686
   -37.0079 -36.9502 -36.8966 -36.8305 -36.8096 -36.7951 -32.6459 -32.6379
   -32.5469 -32.4515 -32.4311 -32.3521 -32.2487 -32.2356 -32.2235 -32.1373
   -32.1239 -32.0007 -31.9012 -31.8900 -31.8028 -31.7919 -31.7879 -31.6105
    -4.8529  -3.4373  -2.2589  -1.8107  -1.8093  -1.7283  -1.6566  -1.5985
    -1.5261  -1.1915  -1.1142  -1.0648  -0.9646  -0.9456  -0.8472  -0.3992
    -0.3131  -0.1569   0.1579   0.3889   0.4888   0.5444   0.6270   0.6706
     0.8420   0.8435   0.9584   1.3073   1.3135   1.4565   1.4801   1.5160
     1.6060   1.8128   2.0529   2.0599   2.0835   2.0890   2.1243   2.1324
     2.3090   2.3124   2.5632   2.6196   2.7269   2.8085   2.9368   3.0254
     3.0287   3.1483   3.2084   3.2680   3.2814   3.6849   3.7017   3.8894
     3.9342

[...]

          k =-0.0955-0.0483 0.0000 ( 16866 PWs)   bands (ev):

[...]

     the Fermi energy is     0.8002 ev

!    total energy              =   -1593.64774151 Ry
     Harris-Foulkes estimate   =   -1593.64774134 Ry
     estimated scf accuracy    <       0.00000070 Ry

     The total energy is the sum of the following terms:

     one-electron contribution =  -12694.44922897 Ry
     hartree contribution      =    6333.42076656 Ry
     xc contribution           =    -234.60432103 Ry
     ewald contribution        =    5002.12189470 Ry
     electric field correction =       0.00000000 Ry
     smearing contrib. (-TS)   =      -0.13685277 Ry

     convergence has been achieved in  26 iterations

 BEEF-vdW xc energy contributions
           1 :   -201.990466078814
           2 :    180.952765397908
           3 :   -146.279419929032
           4 :    108.932274997662
           5 :   -78.2603713212517
           6 :    58.3712967428837
[...]
00028 suncat2042 pw.x -in pw.inp   Done                     12/19/2018 08:37:45
00029 suncat2042 pw.x -in pw.inp   Done                     12/19/2018 08:37:45
00030 suncat2042 pw.x -in pw.inp   Done                     12/19/2018 08:37:45
00031 suncat2042 pw.x -in pw.inp   Done                     12/19/2018 08:37:45

[...]

   This run was terminated on:   8:50: 6  19Dec2018

[...]

   This run was terminated on:   8:56:13  19Dec2018

[...]

     Program PWSCF v.5.1rc2 (svn rev. 11289) starts on 19Dec2018 at  8:56:19

     Current dimensions of program PWSCF are:
     Max number of different atomic species (ntypx) = 10
     Max number of k-points (npk) =  40000
     Max angular momentum in pseudopotentials (lmaxx) =  3
     Presently stress not available with electric field

     IMPORTANT: XC functional enforced from input :
     Exchange-correlation      = BEEF-VDW ( 1  4 27 13 2)
     Any further DFT definition will be discarded
     Please, verify this is what you really want

     Subspace diagonalization in iterative solution of the eigenvalue problem:
     a serial algorithm will be used

     Found symmetry operation: I + ( -0.5000  0.0000  0.0000)
     This is a supercell, fractional translations are disabled

     bravais-lattice index     =            0
     lattice parameter (alat)  =       1.8897  a.u.
     unit-cell volume          =    4486.6721 (a.u.)^3
     number of atoms/cell      =           12
     number of atomic types    =            2
     number of electrons       =       150.00
     number of Kohn-Sham states=          105
     kinetic-energy cutoff     =      36.7493  Ry
     charge density cutoff     =     367.4932  Ry
     convergence threshold     =      1.0E-06
     mixing beta               =       0.1000
     number of iterations used =           10  plain     mixing
     Exchange-correlation      = BEEF-VDW ( 1  4 27 13 2)
     nstep                     =           50

     celldm(1)=   1.889726  celldm(2)=   0.000000  celldm(3)=   0.000000
     celldm(4)=   0.000000  celldm(5)=   0.000000  celldm(6)=   0.000000

     crystal axes: (cart. coord. in units of alat)
               a(1) = (   5.235709   0.000000   0.000000 )
               a(2) = (  -2.617855   5.179321   0.000000 )
               a(3) = (   0.000000   0.000000  24.517682 )

     reciprocal axes: (cart. coord. in units 2 pi/alat)
               b(1) = (  0.190996  0.096538  0.000000 )
               b(2) = (  0.000000  0.193076  0.000000 )
               b(3) = (  0.000000  0.000000  0.040787 )

     PseudoPot. # 1 for Ti read from file:
     /afs/slac.stanford.edu/u/if/mamunm/psp/gbrv1.5pbe/Ti.UPF
     MD5 check sum: 88a00a6731bd790ddea75d31a80cb452
     Pseudo is Ultrasoft + core correction, Zval = 12.0
     Generated by new atomic code, or converted to UPF format
     Using radial grid of  851 points,  6 beta functions with:
                l(1) =   0
                l(2) =   0
                l(3) =   1
                l(4) =   1
                l(5) =   2
                l(6) =   2
     Q(r) pseudized with  6 coefficients,  rinner =    1.000   1.000   1.000
                                                       1.000   1.000

     PseudoPot. # 2 for V  read from file:
     /afs/slac.stanford.edu/u/if/mamunm/psp/gbrv1.5pbe/V.UPF
     MD5 check sum: 22b79981416ebb76fdaf5b1b8640f6fb
     Pseudo is Ultrasoft + core correction, Zval = 13.0
     Generated by new atomic code, or converted to UPF format
     Using radial grid of  853 points,  6 beta functions with:
                l(1) =   0
                l(2) =   0
                l(3) =   1
                l(4) =   1
                l(5) =   2
                l(6) =   2
     Q(r) pseudized with  8 coefficients,  rinner =    1.100   1.100   1.100
                                                       1.100   1.100

     vdW kernel table read from file vdW_kernel_table
     MD5 check sum: 095c7af220d748ca6e76c0b4c6cfb241

     atomic species   valence    mass     pseudopotential
        Ti1           12.00    47.86700     Ti( 1.00)
        V1            13.00    50.94150     V ( 1.00)

     No symmetry found

   Cartesian axes

     site n.     atom                  positions (alat units)
         1           Ti1 tau(   1) = (   0.0000000   0.0000000  10.0000000  )
         2           Ti1 tau(   2) = (   2.6178546   0.0000000  10.0000000  )
         3           V1  tau(   3) = (   1.3089273   2.5896603  10.0000000  )
         4           V1  tau(   4) = (  -1.3089273   2.5896603  10.0000000  )
         5           Ti1 tau(   5) = (   2.6178546   1.3231780  12.2588411  )
         6           Ti1 tau(   6) = (   0.0000000   1.3231780  12.2588411  )
         7           V1  tau(   7) = (  -1.3089273   3.9128383  12.2588411  )
         8           V1  tau(   8) = (   1.3089273   3.9128383  12.2588411  )
         9           Ti1 tau(   9) = (  -0.0000221   2.7207948  14.5702601  )
        10           Ti1 tau(  10) = (   2.6178295   2.7207919  14.5702548  )
        11           V1  tau(  11) = (   3.9268384   0.0176490  14.3106793  )
        12           V1  tau(  12) = (   1.3089860   0.0176790  14.3106618  )

     number of k points=    20  Fermi-Dirac smearing, width (Ry)=  0.0110
                       cart. coord. in units 2pi/alat
        k(    1) = (   0.0000000   0.0000000   0.0000000), wk =   0.0555556
        k(    2) = (   0.0000000   0.0321793   0.0000000), wk =   0.1111111
        k(    3) = (   0.0000000   0.0643585   0.0000000), wk =   0.1111111
        k(    4) = (   0.0000000  -0.0965378   0.0000000), wk =   0.0555556
        k(    5) = (   0.0318327   0.0160896   0.0000000), wk =   0.1111111
        k(    6) = (   0.0318327   0.0482689   0.0000000), wk =   0.1111111
        k(    7) = (   0.0318327   0.0804481   0.0000000), wk =   0.1111111
        k(    8) = (   0.0318327  -0.0804481   0.0000000), wk =   0.1111111
        k(    9) = (   0.0318327  -0.0482689   0.0000000), wk =   0.1111111
        k(   10) = (   0.0318327  -0.0160896   0.0000000), wk =   0.1111111
        k(   11) = (   0.0636654   0.0321793   0.0000000), wk =   0.1111111
        k(   12) = (   0.0636654   0.0643585   0.0000000), wk =   0.1111111
        k(   13) = (   0.0636654   0.0965378   0.0000000), wk =   0.1111111
        k(   14) = (   0.0636654  -0.0643585   0.0000000), wk =   0.1111111
        k(   15) = (   0.0636654  -0.0321793   0.0000000), wk =   0.1111111
        k(   16) = (   0.0636654   0.0000000   0.0000000), wk =   0.1111111
        k(   17) = (  -0.0954980  -0.0482689   0.0000000), wk =   0.0555556
        k(   18) = (  -0.0954980  -0.0160896   0.0000000), wk =   0.1111111
        k(   19) = (  -0.0954980   0.0160896   0.0000000), wk =   0.1111111
        k(   20) = (  -0.0954980  -0.1448066   0.0000000), wk =   0.0555556

     Largest allocated arrays     est. size (Mb)     dimensions
     Largest temporary arrays     est. size (Mb)     dimensions

     Check: negative/imaginary core charge=   -0.000005    0.000000

     Initial potential from superposition of free atoms
     Check: negative starting charge=   -0.013023

     starting charge  143.99237, renormalised to  150.00000

[...]

     *
     * You are using vdW-DF for exchange-correlation in this calculation.
     * Please cite the following three references that made this development
     * possible:
     *
     *   M. Dion, H. Rydberg, E. Schroder, D. C. Langreth, and
     *   B. I. Lundqvist, Phys. Rev. Lett. 92, 246401 (2004).
     *
     *   T. Thonhauser, V. R. Cooper, S. Li, A. Puzder, P. Hyldgaard, and
     *   D. C. Langreth, Phys. Rev. B 76, 125112 (2007).
     *
     *   G. Roman-Perez and J. M. Soler, Phys. Rev. Lett. 103, 096102 (2009).
     *
     *
     * If you are using vdW-DF2, please also cite:
     *
     *   K. Lee, E. D. Murray, L. Kong, B. I. Lundqvist, and
     *   D. C. Langreth, Phys. Rev. B 82, 081101(R) (2010).
     *
     *
     * If you are calculating the stress with vdW-DF, please also cite:
     *
     *   R. Sabatini, E. Kucukbenli, B. Kolb, T. Thonhauser, and
     *   S. de Gironcoli, J. Phys.: Condens. Matter 24, 424209 (2012).
     *

     Carrying out vdW-DF run using the following parameters:

     Nqs =      20    Nr_points =    1024   r_max =   100.000
     q_mesh =
               0.00001000     0.04494208     0.09755937     0.15916263
               0.23128650     0.31572767     0.41458969     0.53033537
               0.66584808     0.82450364     1.01025438     1.22772762
               1.48234092     1.78043706     2.12944203     2.53805004
               3.01644009     3.57652955     4.23227104     5.00000000

     Gradients computed in reciprocal space

[...]

     Starting wfc are  120 randomized atomic wfcs

     Self-consistent Calculation

[...]

     total energy              =   -1593.66363928 Ry
     Harris-Foulkes estimate   =   -1593.66363837 Ry
     estimated scf accuracy    <       0.00000203 Ry

     iteration # 24     ecut=    36.75 Ry     beta=0.10
     Davidson diagonalization with overlap
     ethr =  1.36E-09,  avg # of iterations =  2.0

[...]

     negative rho (up, down):  1.128E-02 0.000E+00

     Adding external electric field

     Computed dipole along edir(3) :
        Dipole                0.0520 Ry au,          0.1321 Debye
        Dipole field          0.0001 Ry au

        Potential amp.       -0.0131 Ry
        Total length         45.1734 bohr

     End of self-consistent calculation

[...]

          k = 0.0637 0.0000 0.0000 ( 16911 PWs)   bands (ev):

[...]

          k =-0.0955-0.1448 0.0000 ( 16866 PWs)   bands (ev):

   -63.2507 -63.2507 -63.1860 -63.1858 -63.0997 -63.0995 -55.9858 -55.9857
   -55.9226 -55.9224 -55.6958 -55.6957 -37.2967 -37.2965 -37.1035 -37.1035
   -37.0375 -37.0375 -37.0338 -37.0338 -37.0086 -37.0085 -36.9725 -36.9723
   -36.9475 -36.9473 -36.8997 -36.8996 -36.6884 -36.6882 -32.4236 -32.4235
   -32.2871 -32.2870 -32.1931 -32.1930 -32.1865 -32.1864 -32.1595 -32.1594
   -32.1202 -32.1200 -31.9836 -31.9835 -31.8954 -31.8953 -31.8071 -31.8070
    -3.0655  -3.0654  -1.8799  -1.8799  -1.3466  -1.3466  -0.9955  -0.9955
    -0.8974  -0.8974  -0.5165  -0.5164  -0.1965  -0.1965  -0.0638  -0.0638
     0.0445   0.0446   0.1939   0.1939   0.3904   0.3904   0.5595   0.5595
     0.7130   0.7130   0.7662   0.7662   0.9606   0.9606   1.1735   1.1736
     1.2597   1.2598   1.3529   1.3529   1.5336   1.5336   2.0244   2.0244
     2.2652   2.2653   2.3506   2.3507   2.4967   2.4967   2.6052   2.6053
     2.7044   2.7044   2.8011   2.8012   2.8547   2.8548   3.0818   3.0818
     3.4027

     the Fermi energy is     0.8629 ev

!    total energy              =   -1593.66364002 Ry
     Harris-Foulkes estimate   =   -1593.66364016 Ry
     estimated scf accuracy    <       0.00000070 Ry

     The total energy is the sum of the following terms:

     one-electron contribution =  -12838.59521650 Ry
     hartree contribution      =    6405.91826610 Ry
     xc contribution           =    -234.74696912 Ry
     ewald contribution        =    5073.89142121 Ry
     electric field correction =       0.00000756 Ry
     smearing contrib. (-TS)   =      -0.13114927 Ry

     convergence has been achieved in  24 iterations

 BEEF-vdW xc energy contributions
           1 :   -202.136125159805
           2 :    181.142419717382
           3 :   -146.510797852862
           4 :    109.145281134238
           5 :   -78.3721624649684
           6 :    58.3365187028045
           7 :   -47.6052234463285
           8 :    41.5585620355676
           9 :   -35.7251040692774
          10 :    28.0646938278174
          11 :   -19.2553537277075
          12 :    11.3439119409213
          13 :   -5.96112114926999
          14 :    3.26093649508567
          15 :   -2.07779649774480
          16 :   0.944425884468046
          17 :   0.857838640337803
          18 :   -2.93861735970140
          19 :    4.27163670253125
          20 :   -4.06113615286986
          21 :    2.33966814899330
          22 :   8.770319042892538E-002
          23 :   -2.23860193149366
          24 :    3.60475707940006
          25 :   -4.39933971223840
          26 :    5.27031796582381
          27 :   -6.74136426964660
          28 :    8.80093083375064
          29 :   -10.9169974943681
          30 :    12.4244325508094
          31 :   -21.1266886289241
          32 :   -15.1519624945176

     Forces acting on atoms (Ry/au):

     negative rho (up, down):  1.128E-02 0.000E+00
     atom    1 type  1   force =    -0.00000463   -0.01070598   -0.01179285
     atom    2 type  1   force =    -0.00000281   -0.01070554   -0.01178785
     atom    3 type  2   force =    -0.00000172    0.00726908    0.02842767
     atom    4 type  2   force =    -0.00000146    0.00726909    0.02843006
     atom    5 type  1   force =    -0.00001026    0.00886960   -0.00261539
     atom    6 type  1   force =    -0.00002341    0.00886910   -0.00261611
     atom    7 type  2   force =     0.00000617   -0.00609365   -0.01130365
     atom    8 type  2   force =     0.00000439   -0.00610046   -0.01132030
     atom    9 type  1   force =     0.00001504   -0.00045795   -0.00123542
     atom   10 type  1   force =     0.00000929   -0.00045589   -0.00123642
     atom   11 type  2   force =     0.00000418    0.00112049   -0.00147989
     atom   12 type  2   force =     0.00000521    0.00112211   -0.00146985

     Total force =     0.052354     Total SCF correction =     0.003207

     entering subroutine stress ...

     negative rho (up, down):  1.128E-02 0.000E+00
          total   stress  (Ry/bohr**3)                   (kbar)     P=  -11.25
  -0.00009442  -0.00000001   0.00000000        -13.89     -0.00      0.00
  -0.00000001  -0.00009455   0.00000784         -0.00    -13.91      1.15
   0.00000000   0.00000784  -0.00004044          0.00      1.15     -5.95

 !ASE

     Writing output data file calc.save

     General routines

     Parallel routines

   This run was terminated on:   9: 2: 6  19Dec2018

   JOB DONE.
Job  /afs/slac/g/suncat/bin/suncat-tsmpirun -x LD_LIBRARY_PATH -wdir /scratch/qe530730_UXlLj pw.x -in pw.inp

TID   HOST_NAME   COMMAND_LINE            STATUS            TERMINATION_TIME
00000 suncat2063 pw.x -in pw.inp   Done                     12/19/2018 09:02:06
00001 suncat2063 pw.x -in pw.inp   Done                     12/19/2018 09:02:06
00002 suncat2063 pw.x -in pw.inp   Done                     12/19/2018 09:02:06
00003 suncat2063 pw.x -in pw.inp   Done                     12/19/2018 09:02:06
00004 suncat2063 pw.x -in pw.inp   Done                     12/19/2018 09:02:06
00005 suncat2063 pw.x -in pw.inp   Done                     12/19/2018 09:02:06
00006 suncat2063 pw.x -in pw.inp   Done                     12/19/2018 09:02:06
00007 suncat2063 pw.x -in pw.inp   Done                     12/19/2018 09:02:06
00008 suncat2063 pw.x -in pw.inp   Done                     12/19/2018 09:02:06
00009 suncat2063 pw.x -in pw.inp   Done                     12/19/2018 09:02:06
00010 suncat2063 pw.x -in pw.inp   Done                     12/19/2018 09:02:06
00011 suncat2063 pw.x -in pw.inp   Done                     12/19/2018 09:02:06
00012 suncat2063 pw.x -in pw.inp   Done                     12/19/2018 09:02:06
00013 suncat2063 pw.x -in pw.inp   Done                     12/19/2018 09:02:06
00014 suncat2063 pw.x -in pw.inp   Done                     12/19/2018 09:02:06
00015 suncat2063 pw.x -in pw.inp   Done                     12/19/2018 09:02:06
00016 suncat2042 pw.x -in pw.inp   Done                     12/19/2018 09:02:06
00017 suncat2042 pw.x -in pw.inp   Done                     12/19/2018 09:02:06
00018 suncat2042 pw.x -in pw.inp   Done                     12/19/2018 09:02:06
00019 suncat2042 pw.x -in pw.inp   Done                     12/19/2018 09:02:06
00020 suncat2042 pw.x -in pw.inp   Done                     12/19/2018 09:02:06
00021 suncat2042 pw.x -in pw.inp   Done                     12/19/2018 09:02:06
00022 suncat2042 pw.x -in pw.inp   Done                     12/19/2018 09:02:06
00023 suncat2042 pw.x -in pw.inp   Done                     12/19/2018 09:02:06
00024 suncat2042 pw.x -in pw.inp   Done                     12/19/2018 09:02:06
00025 suncat2042 pw.x -in pw.inp   Done                     12/19/2018 09:02:06
00026 suncat2042 pw.x -in pw.inp   Done                     12/19/2018 09:02:06
00027 suncat2042 pw.x -in pw.inp   Done                     12/19/2018 09:02:06
00028 suncat2042 pw.x -in pw.inp   Done                     12/19/2018 09:02:06
00029 suncat2042 pw.x -in pw.inp   Done                     12/19/2018 09:02:06
00030 suncat2042 pw.x -in pw.inp   Done                     12/19/2018 09:02:06
00031 suncat2042 pw.x -in pw.inp   Done                     12/19/2018 09:02:06