     Program PWSCF v.5.1rc2 (svn rev. 11289) starts on 19Dec2018 at 18:58: 6

     Current dimensions of program PWSCF are:
     Max number of different atomic species (ntypx) = 10
     Max number of k-points (npk) =  40000
     Max angular momentum in pseudopotentials (lmaxx) =  3
     Presently stress not available with electric field

     IMPORTANT: XC functional enforced from input :
     Exchange-correlation      = BEEF-VDW ( 1  4 27 13 2)
     Any further DFT definition will be discarded
     Please, verify this is what you really want

     Subspace diagonalization in iterative solution of the eigenvalue problem:
     a serial algorithm will be used

     bravais-lattice index     =            0
     lattice parameter (alat)  =       1.8897  a.u.
     unit-cell volume          =    4891.2910 (a.u.)^3
     number of atoms/cell      =           12
     number of atomic types    =            2
     number of electrons       =       144.00
     number of Kohn-Sham states=          102
     kinetic-energy cutoff     =      36.7493  Ry
     charge density cutoff     =     367.4932  Ry
     convergence threshold     =      1.0E-06
     mixing beta               =       0.1000
     number of iterations used =           10  plain     mixing
     Exchange-correlation      = BEEF-VDW ( 1  4 27 13 2)
     nstep                     =           50

     celldm(1)=   1.889726  celldm(2)=   0.000000  celldm(3)=   0.000000
     celldm(4)=   0.000000  celldm(5)=   0.000000  celldm(6)=   0.000000

     crystal axes: (cart. coord. in units of alat)
               a(1) = (   5.815354   0.000000   0.000000 )
               a(2) = (  -2.907677   5.036245   0.000000 )
               a(3) = (   0.000000   0.000000  24.748217 )

     reciprocal axes: (cart. coord. in units 2 pi/alat)
               b(1) = (  0.171959  0.099280  0.000000 )
               b(2) = (  0.000000  0.198561  0.000000 )
               b(3) = (  0.000000  0.000000  0.040407 )

     PseudoPot. # 1 for Au read from file:
     /afs/slac.stanford.edu/u/if/mamunm/psp/gbrv1.5pbe/Au.UPF
     MD5 check sum: 9d7f43293ad2c663164586bc4b293ffc
     Pseudo is Ultrasoft + core correction, Zval = 11.0
     Generated by new atomic code, or converted to UPF format
     Using radial grid of  985 points,  7 beta functions with:
                l(1) =   0
                l(2) =   0
                l(3) =   1
                l(4) =   1
                l(5) =   2
                l(6) =   2
                l(7) =   3
     Q(r) pseudized with  6 coefficients,  rinner =    1.900   1.900   1.900
                                                       1.900   1.900   1.900
                                                       1.900

     PseudoPot. # 2 for Ir read from file:
     /afs/slac.stanford.edu/u/if/mamunm/psp/gbrv1.5pbe/Ir.UPF
     MD5 check sum: 8836f839c3459d2b385c504ce6d91f2c
     Pseudo is Ultrasoft + core correction, Zval = 15.0
     Generated by new atomic code, or converted to UPF format
     Using radial grid of  983 points,  7 beta functions with:
                l(1) =   0
                l(2) =   0
                l(3) =   1
                l(4) =   1
                l(5) =   1
                l(6) =   2
                l(7) =   2
     Q(r) pseudized with  8 coefficients,  rinner =    1.400   1.400   1.400
                                                       1.400   1.400

     vdW kernel table read from file vdW_kernel_table
     MD5 check sum: 095c7af220d748ca6e76c0b4c6cfb241

     atomic species   valence    mass     pseudopotential
        Au1           11.00   196.96657     Au( 1.00)
        Ir1           15.00   192.21700     Ir( 1.00)

     No symmetry found

   Cartesian axes

     site n.     atom                  positions (alat units)
         1           Au1 tau(   1) = (   0.0000000   0.0000000  10.0000000  )
         2           Au1 tau(   2) = (  -1.4538386   2.5181223  10.0000000  )
         3           Au1 tau(   3) = (   1.4538386   2.5181223  10.0000000  )
         4           Ir1 tau(   4) = (   2.9076771   0.0000000  10.0000000  )
         5           Au1 tau(   5) = (   2.9076771   1.6787482  12.3741084  )
         6           Au1 tau(   6) = (   1.4538386   4.1968704  12.3741084  )
         7           Au1 tau(   7) = (  -1.4538386   4.1968704  12.3741084  )
         8           Ir1 tau(   8) = (   0.0000000   1.6787482  12.3741084  )
         9           Au1 tau(   9) = (  -0.0000000   3.3574964  14.7482169  )
        10           Au1 tau(  10) = (   1.4538386   0.8393741  14.7482169  )
        11           Au1 tau(  11) = (   4.3615157   0.8393741  14.7482169  )
        12           Ir1 tau(  12) = (   2.9076771   3.3574964  14.7482169  )

     number of k points=    20  Fermi-Dirac smearing, width (Ry)=  0.0110
                       cart. coord. in units 2pi/alat
        k(    1) = (   0.0000000   0.0000000   0.0000000), wk =   0.0555556
        k(    2) = (   0.0000000   0.0330934   0.0000000), wk =   0.1111111
        k(    3) = (   0.0000000   0.0661869   0.0000000), wk =   0.1111111
        k(    4) = (   0.0000000  -0.0992803   0.0000000), wk =   0.0555556
        k(    5) = (   0.0286598   0.0165467   0.0000000), wk =   0.1111111
        k(    6) = (   0.0286598   0.0496402   0.0000000), wk =   0.1111111
        k(    7) = (   0.0286598   0.0827336   0.0000000), wk =   0.1111111
        k(    8) = (   0.0286598  -0.0827336   0.0000000), wk =   0.1111111
        k(    9) = (   0.0286598  -0.0496402   0.0000000), wk =   0.1111111
        k(   10) = (   0.0286598  -0.0165467   0.0000000), wk =   0.1111111
        k(   11) = (   0.0573195   0.0330934   0.0000000), wk =   0.1111111
        k(   12) = (   0.0573195   0.0661869   0.0000000), wk =   0.1111111
        k(   13) = (   0.0573195   0.0992803   0.0000000), wk =   0.1111111
        k(   14) = (   0.0573195  -0.0661869   0.0000000), wk =   0.1111111
        k(   15) = (   0.0573195  -0.0330934   0.0000000), wk =   0.1111111
        k(   16) = (   0.0573195   0.0000000   0.0000000), wk =   0.1111111
        k(   17) = (  -0.0859793  -0.0496402   0.0000000), wk =   0.0555556
        k(   18) = (  -0.0859793  -0.0165467   0.0000000), wk =   0.1111111
        k(   19) = (  -0.0859793   0.0165467   0.0000000), wk =   0.1111111
        k(   20) = (  -0.0859793  -0.1489205   0.0000000), wk =   0.0555556

     Largest allocated arrays     est. size (Mb)     dimensions
     Largest temporary arrays     est. size (Mb)     dimensions

     Check: negative/imaginary core charge=   -0.000002    0.000000

     Initial potential from superposition of free atoms
     Check: negative starting charge=   -1.094083

     starting charge  142.49881, renormalised to  144.00000

     negative rho (up, down):  1.106E+00 0.000E+00

     *
     * You are using vdW-DF for exchange-correlation in this calculation.
     * Please cite the following three references that made this development
     * possible:
     *
     *   M. Dion, H. Rydberg, E. Schroder, D. C. Langreth, and
     *   B. I. Lundqvist, Phys. Rev. Lett. 92, 246401 (2004).
     *
     *   T. Thonhauser, V. R. Cooper, S. Li, A. Puzder, P. Hyldgaard, and
     *   D. C. Langreth, Phys. Rev. B 76, 125112 (2007).
     *
     *   G. Roman-Perez and J. M. Soler, Phys. Rev. Lett. 103, 096102 (2009).
     *
     *
     * If you are using vdW-DF2, please also cite:
     *
     *   K. Lee, E. D. Murray, L. Kong, B. I. Lundqvist, and
     *   D. C. Langreth, Phys. Rev. B 82, 081101(R) (2010).
     *
     *
     * If you are calculating the stress with vdW-DF, please also cite:
     *
     *   R. Sabatini, E. Kucukbenli, B. Kolb, T. Thonhauser, and
     *   S. de Gironcoli, J. Phys.: Condens. Matter 24, 424209 (2012).
     *

     Carrying out vdW-DF run using the following parameters:

     Nqs =      20    Nr_points =    1024   r_max =   100.000
     q_mesh =
               0.00001000     0.04494208     0.09755937     0.15916263
               0.23128650     0.31572767     0.41458969     0.53033537
               0.66584808     0.82450364     1.01025438     1.22772762
               1.48234092     1.78043706     2.12944203     2.53805004
               3.01644009     3.57652955     4.23227104     5.00000000

     Gradients computed in reciprocal space

     Adding external electric field

     Computed dipole along edir(3) :
        Dipole                0.0000 Ry au,          0.0000 Debye
        Dipole field          0.0000 Ry au

        Potential amp.       -0.0000 Ry
        Total length         45.5982 bohr

     Starting wfc are  117 randomized atomic wfcs

     Self-consistent Calculation

     iteration #  1     ecut=    36.75 Ry     beta=0.10
     Davidson diagonalization with overlap
     ethr =  1.00E-02,  avg # of iterations =  8.2

[...]

     total energy              =   -1600.11044010 Ry
     Harris-Foulkes estimate   =   -1600.36362176 Ry
     estimated scf accuracy    <       1.71572313 Ry

[...]

     End of self-consistent calculation

          k = 0.0000 0.0000 0.0000 ( 18439 PWs)   bands (ev):

   -47.7324 -47.6663 -47.6663 -47.5615 -47.5615 -47.5614 -47.5614 -47.4455
   -47.4451  -7.6223  -6.1521  -5.7667  -5.5488  -5.4288  -5.3888  -5.3887
    -5.2175  -5.2175  -5.0297  -4.9893  -4.9311  -4.9311  -4.7843  -4.7843
    -4.0155  -3.7297  -3.7297  -3.6937  -3.6937  -3.4790  -3.3568  -3.3337
    -3.1767  -3.1767  -3.1446  -3.0778  -3.0778  -2.8982  -2.8982  -2.7543
    -2.7543  -2.6807  -2.6807  -2.2831  -2.0453  -2.0453  -1.9976  -1.9975
    -1.7429  -1.7429  -1.4540  -1.2854  -1.2854  -1.1327  -1.1282  -1.0498
    -0.9647  -0.9059  -0.2852  -0.1439  -0.1439   0.0161   0.0161   0.2078
     0.2078   0.3750   0.3750   0.4090   0.4090   0.5517   0.7644   0.7644
     1.3319   1.5638   1.6372   1.6372   2.6785   2.6786   2.8129   2.8129
     2.9443   3.0396   4.8380   4.8380   4.9749   5.2592   5.2844   5.2844
     5.3458   5.5869   5.7091   6.2543   6.2543   6.5999   6.6127   7.1672
     8.8699   9.0335   9.2703   9.2704   9.4313   9.7992

[...]

          k =-0.0860-0.0496 0.0000 ( 18356 PWs)   bands (ev):

[...]

     the Fermi energy is     0.5348 ev

!    total energy              =   -1599.97399296 Ry
     Harris-Foulkes estimate   =   -1599.97397546 Ry
     estimated scf accuracy    <       0.00000099 Ry

     The total energy is the sum of the following terms:

     one-electron contribution =  -10133.11773989 Ry
     hartree contribution      =    5146.54706066 Ry
     xc contribution           =    -731.84343380 Ry
     ewald contribution        =    4118.50716292 Ry
     electric field correction =       0.00000000 Ry
     smearing contrib. (-TS)   =      -0.06704284 Ry

     convergence has been achieved in  15 iterations

 BEEF-vdW xc energy contributions
           1 :   -652.457845265609
           2 :    606.661761129554
           3 :   -524.670983414883
           4 :    422.337838709937
           5 :   -316.957857386265
           6 :    222.799027315262
           7 :   -148.293854806619
           8 :    95.4252586898291
           9 :   -61.1230313677738
          10 :    39.8088763535042
          11 :   -25.9763181461718
          12 :    15.8591814989403
[...]
     MD5 check sum: 9d7f43293ad2c663164586bc4b293ffc
     Pseudo is Ultrasoft + core correction, Zval = 11.0
     Generated by new atomic code, or converted to UPF format
     Using radial grid of  985 points,  7 beta functions with:
                l(1) =   0
                l(2) =   0
                l(3) =   1
                l(4) =   1
                l(5) =   2
                l(6) =   2
                l(7) =   3
     Q(r) pseudized with  6 coefficients,  rinner =    1.900   1.900   1.900
                                                       1.900   1.900   1.900
                                                       1.900

     PseudoPot. # 2 for Ir read from file:
     /afs/slac.stanford.edu/u/if/mamunm/psp/gbrv1.5pbe/Ir.UPF
     MD5 check sum: 8836f839c3459d2b385c504ce6d91f2c
     Pseudo is Ultrasoft + core correction, Zval = 15.0
     Generated by new atomic code, or converted to UPF format
     Using radial grid of  983 points,  7 beta functions with:
                l(1) =   0
                l(2) =   0
                l(3) =   1
                l(4) =   1
                l(5) =   1
                l(6) =   2
                l(7) =   2
     Q(r) pseudized with  8 coefficients,  rinner =    1.400   1.400   1.400
                                                       1.400   1.400

     vdW kernel table read from file vdW_kernel_table
     MD5 check sum: 095c7af220d748ca6e76c0b4c6cfb241

     atomic species   valence    mass     pseudopotential
        Au1           11.00   196.96657     Au( 1.00)
        Ir1           15.00   192.21700     Ir( 1.00)

     No symmetry found

   Cartesian axes

     site n.     atom                  positions (alat units)
         1           Au1 tau(   1) = (   0.0000000   0.0000000  10.0000000  )
         2           Au1 tau(   2) = (  -1.4538386   2.5181223  10.0000000  )
         3           Au1 tau(   3) = (   1.4538386   2.5181223  10.0000000  )
         4           Ir1 tau(   4) = (   2.9076771   0.0000000  10.0000000  )
         5           Au1 tau(   5) = (   2.9076771   1.6787482  12.3741084  )
         6           Au1 tau(   6) = (   1.4538386   4.1968704  12.3741084  )
         7           Au1 tau(   7) = (  -1.4538386   4.1968704  12.3741084  )
         8           Ir1 tau(   8) = (   0.0000000   1.6787482  12.3741084  )
         9           Au1 tau(   9) = (   0.0000066   3.3506197  14.8343658  )
        10           Au1 tau(  10) = (   1.4478811   0.8428085  14.8343558  )
        11           Au1 tau(  11) = (   4.3674784   0.8428086  14.8343776  )
        12           Ir1 tau(  12) = (   2.9076672   3.3574936  14.6077465  )

     number of k points=    20  Fermi-Dirac smearing, width (Ry)=  0.0110
                       cart. coord. in units 2pi/alat
        k(    1) = (   0.0000000   0.0000000   0.0000000), wk =   0.0555556
        k(    2) = (   0.0000000   0.0330934   0.0000000), wk =   0.1111111
        k(    3) = (   0.0000000   0.0661869   0.0000000), wk =   0.1111111
        k(    4) = (   0.0000000  -0.0992803   0.0000000), wk =   0.0555556
        k(    5) = (   0.0286598   0.0165467   0.0000000), wk =   0.1111111
        k(    6) = (   0.0286598   0.0496402   0.0000000), wk =   0.1111111
        k(    7) = (   0.0286598   0.0827336   0.0000000), wk =   0.1111111
        k(    8) = (   0.0286598  -0.0827336   0.0000000), wk =   0.1111111
        k(    9) = (   0.0286598  -0.0496402   0.0000000), wk =   0.1111111
        k(   10) = (   0.0286598  -0.0165467   0.0000000), wk =   0.1111111
        k(   11) = (   0.0573195   0.0330934   0.0000000), wk =   0.1111111
        k(   12) = (   0.0573195   0.0661869   0.0000000), wk =   0.1111111
        k(   13) = (   0.0573195   0.0992803   0.0000000), wk =   0.1111111
        k(   14) = (   0.0573195  -0.0661869   0.0000000), wk =   0.1111111
        k(   15) = (   0.0573195  -0.0330934   0.0000000), wk =   0.1111111
        k(   16) = (   0.0573195   0.0000000   0.0000000), wk =   0.1111111
        k(   17) = (  -0.0859793  -0.0496402   0.0000000), wk =   0.0555556
        k(   18) = (  -0.0859793  -0.0165467   0.0000000), wk =   0.1111111
        k(   19) = (  -0.0859793   0.0165467   0.0000000), wk =   0.1111111
        k(   20) = (  -0.0859793  -0.1489205   0.0000000), wk =   0.0555556

     Largest allocated arrays     est. size (Mb)     dimensions
     Largest temporary arrays     est. size (Mb)     dimensions

     Check: negative/imaginary core charge=   -0.000002    0.000000

     Initial potential from superposition of free atoms
     Check: negative starting charge=   -1.098075

     starting charge  142.49881, renormalised to  144.00000

[...]

     *
     * You are using vdW-DF for exchange-correlation in this calculation.
     * Please cite the following three references that made this development
     * possible:
     *
     *   M. Dion, H. Rydberg, E. Schroder, D. C. Langreth, and
     *   B. I. Lundqvist, Phys. Rev. Lett. 92, 246401 (2004).
     *
     *   T. Thonhauser, V. R. Cooper, S. Li, A. Puzder, P. Hyldgaard, and
     *   D. C. Langreth, Phys. Rev. B 76, 125112 (2007).
     *
     *   G. Roman-Perez and J. M. Soler, Phys. Rev. Lett. 103, 096102 (2009).
     *
     *
     * If you are using vdW-DF2, please also cite:
     *
     *   K. Lee, E. D. Murray, L. Kong, B. I. Lundqvist, and
     *   D. C. Langreth, Phys. Rev. B 82, 081101(R) (2010).
     *
     *
     * If you are calculating the stress with vdW-DF, please also cite:
     *
     *   R. Sabatini, E. Kucukbenli, B. Kolb, T. Thonhauser, and
     *   S. de Gironcoli, J. Phys.: Condens. Matter 24, 424209 (2012).
     *

     Carrying out vdW-DF run using the following parameters:

     Nqs =      20    Nr_points =    1024   r_max =   100.000
     q_mesh =
               0.00001000     0.04494208     0.09755937     0.15916263
               0.23128650     0.31572767     0.41458969     0.53033537
               0.66584808     0.82450364     1.01025438     1.22772762
               1.48234092     1.78043706     2.12944203     2.53805004
               3.01644009     3.57652955     4.23227104     5.00000000

     Gradients computed in reciprocal space

[...]

     Starting wfc are  117 randomized atomic wfcs

     Self-consistent Calculation

[...]

     total energy              =   -1600.00306568 Ry
     Harris-Foulkes estimate   =   -1600.00305890 Ry
     estimated scf accuracy    <       0.00000324 Ry

     iteration # 15     ecut=    36.75 Ry     beta=0.10
     Davidson diagonalization with overlap
     ethr =  2.25E-09,  avg # of iterations =  2.0

[...]

     negative rho (up, down):  1.014E+00 0.000E+00

     Adding external electric field

     Computed dipole along edir(3) :
        Dipole               -0.0055 Ry au,         -0.0141 Debye
        Dipole field         -0.0000 Ry au

        Potential amp.        0.0013 Ry
        Total length         45.5982 bohr

     End of self-consistent calculation

[...]

          k = 0.0573 0.0000 0.0000 ( 18413 PWs)   bands (ev):

[...]

          k =-0.0860-0.1489 0.0000 ( 18356 PWs)   bands (ev):

   -47.7226 -47.6698 -47.6694 -47.6550 -47.6546 -47.5885 -47.5759 -47.5755
   -47.4599  -6.1169  -5.9478  -5.0325  -4.9478  -4.8440  -4.8218  -4.7005
    -4.6676  -4.4925  -4.4778  -4.4624  -4.3429  -4.0872  -4.0690  -3.9854
    -3.9132  -3.8855  -3.8847  -3.8352  -3.7262  -3.4218  -3.3348  -3.3180
    -3.2395  -3.2228  -3.1801  -3.1608  -3.1424  -3.0984  -3.0420  -2.9793
    -2.9590  -2.9031  -2.8719  -2.8494  -2.8052  -2.6729  -2.5889  -2.5461
    -2.4562  -2.4441  -2.3176  -2.2125  -2.1838  -1.8599  -1.7714  -1.7198
    -1.6092  -1.4257  -1.2050  -1.1576  -1.1417  -0.6226  -0.5072  -0.4708
    -0.4438  -0.4081  -0.3762  -0.1365  -0.0707   0.0157   0.0317   0.1663
     0.6874   1.0411   1.3405   1.6818   2.2075   2.3161   2.9187   4.2786
     4.3349   4.4862   4.5792   6.2344   6.2578   6.7000   6.9102   6.9393
     6.9691   6.9720   7.0631   7.2609   7.4811   7.6303   7.6565   8.1136
     8.1475   8.3824   8.4447   8.7222   8.8793   9.0280

     the Fermi energy is     0.5183 ev

!    total energy              =   -1600.00308970 Ry
     Harris-Foulkes estimate   =   -1600.00306601 Ry
     estimated scf accuracy    <       0.00000090 Ry

     The total energy is the sum of the following terms:

     one-electron contribution =  -10107.55860843 Ry
     hartree contribution      =    5133.75174053 Ry
     xc contribution           =    -731.83510932 Ry
     ewald contribution        =    4105.70472352 Ry
     electric field correction =       0.00000008 Ry
     smearing contrib. (-TS)   =      -0.06583608 Ry

     convergence has been achieved in  15 iterations

 BEEF-vdW xc energy contributions
           1 :   -653.031916025177
           2 :    607.209880155577
           3 :   -525.187264061728
           4 :    422.840628894069
           5 :   -317.477840847532
           6 :    223.359974895369
           7 :   -148.898121198182
           8 :    96.0516114731961
           9 :   -61.7379582123389
          10 :    40.3863368846838
          11 :   -26.5136166136182
          12 :    16.3797974029189
          13 :   -8.36564601058149
          14 :    2.31130153393451
          15 :    1.55205891532933
          16 :   -3.44623515142848
          17 :    4.28778180329687
          18 :   -5.33965626928216
          19 :    7.56800876824514
          20 :   -11.1197105501487
          21 :    15.2192433658735
          22 :   -18.5445025287729
          23 :    19.8756288792463
          24 :   -18.6863462111339
          25 :    15.3864260646113
          26 :   -11.1204222473120
          27 :    7.24549272719287
          28 :   -4.76174019072005
          29 :    3.96261306812517
          30 :   -4.44801976824181
          31 :   -52.4260012268392
          32 :   -38.4378980280119

     Forces acting on atoms (Ry/au):

     negative rho (up, down):  1.014E+00 0.000E+00
     atom    1 type  1   force =     0.00000039    0.00446787   -0.01497654
     atom    2 type  1   force =     0.00386379   -0.00223046   -0.01498068
     atom    3 type  1   force =    -0.00386897   -0.00223298   -0.01497634
     atom    4 type  2   force =    -0.00000024   -0.00000165    0.03505721
     atom    5 type  1   force =     0.00000152   -0.01151338   -0.00061084
     atom    6 type  1   force =    -0.00996875    0.00575585   -0.00061027
     atom    7 type  1   force =     0.00997356    0.00575316   -0.00060958
     atom    8 type  2   force =    -0.00000128   -0.00000011    0.00769210
     atom    9 type  1   force =    -0.00000203   -0.00077155    0.00116247
     atom   10 type  1   force =    -0.00066702    0.00038524    0.00115567
     atom   11 type  1   force =     0.00066579    0.00038829    0.00116111
     atom   12 type  2   force =     0.00000324   -0.00000029    0.00053570

     Total force =     0.049253     Total SCF correction =     0.001748

     entering subroutine stress ...

     negative rho (up, down):  1.014E+00 0.000E+00
          total   stress  (Ry/bohr**3)                   (kbar)     P=  -14.49
  -0.00014797  -0.00000000  -0.00000000        -21.77     -0.00     -0.00
  -0.00000000  -0.00014797  -0.00000000         -0.00    -21.77     -0.00
  -0.00000000  -0.00000000   0.00000046         -0.00     -0.00      0.07

 !ASE

     Writing output data file calc.save

     General routines

     Parallel routines

   This run was terminated on:  19:47:57  19Dec2018

   JOB DONE.
Job  /afs/slac/g/suncat/bin/suncat-tsmpirun -x LD_LIBRARY_PATH -wdir /scratch/qe773357_h0Z6E pw.x -in pw.inp

TID   HOST_NAME   COMMAND_LINE            STATUS            TERMINATION_TIME
00000 suncat0169 pw.x -in pw.inp   Done                     12/19/2018 19:47:57
00001 suncat0169 pw.x -in pw.inp   Done                     12/19/2018 19:47:57
00002 suncat0169 pw.x -in pw.inp   Done                     12/19/2018 19:47:57
00003 suncat0169 pw.x -in pw.inp   Done                     12/19/2018 19:47:57
00004 suncat0169 pw.x -in pw.inp   Done                     12/19/2018 19:47:57
00005 suncat0169 pw.x -in pw.inp   Done                     12/19/2018 19:47:57
00006 suncat0169 pw.x -in pw.inp   Done                     12/19/2018 19:47:57
00007 suncat0169 pw.x -in pw.inp   Done                     12/19/2018 19:47:57
00008 suncat0168 pw.x -in pw.inp   Done                     12/19/2018 19:47:57
00009 suncat0168 pw.x -in pw.inp   Done                     12/19/2018 19:47:57
00010 suncat0168 pw.x -in pw.inp   Done                     12/19/2018 19:47:57
00011 suncat0168 pw.x -in pw.inp   Done                     12/19/2018 19:47:57
00012 suncat0168 pw.x -in pw.inp   Done                     12/19/2018 19:47:57
00013 suncat0168 pw.x -in pw.inp   Done                     12/19/2018 19:47:57
00014 suncat0168 pw.x -in pw.inp   Done                     12/19/2018 19:47:57
00015 suncat0168 pw.x -in pw.inp   Done                     12/19/2018 19:47:57
00016 suncat0110 pw.x -in pw.inp   Done                     12/19/2018 19:47:57
00017 suncat0110 pw.x -in pw.inp   Done                     12/19/2018 19:47:57
00018 suncat0110 pw.x -in pw.inp   Done                     12/19/2018 19:47:57
00019 suncat0110 pw.x -in pw.inp   Done                     12/19/2018 19:47:57
00020 suncat0110 pw.x -in pw.inp   Done                     12/19/2018 19:47:57
00021 suncat0110 pw.x -in pw.inp   Done                     12/19/2018 19:47:57
00022 suncat0110 pw.x -in pw.inp   Done                     12/19/2018 19:47:57
00023 suncat0110 pw.x -in pw.inp   Done                     12/19/2018 19:47:57
00024 suncat0109 pw.x -in pw.inp   Done                     12/19/2018 19:47:57
00025 suncat0109 pw.x -in pw.inp   Done                     12/19/2018 19:47:57
00026 suncat0109 pw.x -in pw.inp   Done                     12/19/2018 19:47:57
00027 suncat0109 pw.x -in pw.inp   Done                     12/19/2018 19:47:57
00028 suncat0109 pw.x -in pw.inp   Done                     12/19/2018 19:47:57
00029 suncat0109 pw.x -in pw.inp   Done                     12/19/2018 19:47:57
00030 suncat0109 pw.x -in pw.inp   Done                     12/19/2018 19:47:57
00031 suncat0109 pw.x -in pw.inp   Done                     12/19/2018 19:47:57
00032 suncat0108 pw.x -in pw.inp   Done                     12/19/2018 19:47:57
00033 suncat0108 pw.x -in pw.inp   Done                     12/19/2018 19:47:57
00034 suncat0108 pw.x -in pw.inp   Done                     12/19/2018 19:47:57
00035 suncat0108 pw.x -in pw.inp   Done                     12/19/2018 19:47:57
00036 suncat0108 pw.x -in pw.inp   Done                     12/19/2018 19:47:57
00037 suncat0108 pw.x -in pw.inp   Done                     12/19/2018 19:47:57
00038 suncat0108 pw.x -in pw.inp   Done                     12/19/2018 19:47:57
00039 suncat0108 pw.x -in pw.inp   Done                     12/19/2018 19:47:57
00040 suncat0107 pw.x -in pw.inp   Done                     12/19/2018 19:47:57
00041 suncat0107 pw.x -in pw.inp   Done                     12/19/2018 19:47:57
00042 suncat0107 pw.x -in pw.inp   Done                     12/19/2018 19:47:57
00043 suncat0107 pw.x -in pw.inp   Done                     12/19/2018 19:47:57
00044 suncat0107 pw.x -in pw.inp   Done                     12/19/2018 19:47:57
00045 suncat0107 pw.x -in pw.inp   Done                     12/19/2018 19:47:57
00046 suncat0107 pw.x -in pw.inp   Done                     12/19/2018 19:47:57
00047 suncat0107 pw.x -in pw.inp   Done                     12/19/2018 19:47:57
00048 suncat0106 pw.x -in pw.inp   Done                     12/19/2018 19:47:57
00049 suncat0106 pw.x -in pw.inp   Done                     12/19/2018 19:47:57
00050 suncat0106 pw.x -in pw.inp   Done                     12/19/2018 19:47:57
00051 suncat0106 pw.x -in pw.inp   Done                     12/19/2018 19:47:57
00052 suncat0106 pw.x -in pw.inp   Done                     12/19/2018 19:47:57
00053 suncat0106 pw.x -in pw.inp   Done                     12/19/2018 19:47:57
00054 suncat0106 pw.x -in pw.inp   Done                     12/19/2018 19:47:57
00055 suncat0106 pw.x -in pw.inp   Done                     12/19/2018 19:47:57
00056 suncat0105 pw.x -in pw.inp   Done                     12/19/2018 19:47:57
00057 suncat0105 pw.x -in pw.inp   Done                     12/19/2018 19:47:57
00058 suncat0105 pw.x -in pw.inp   Done                     12/19/2018 19:47:57
00059 suncat0105 pw.x -in pw.inp   Done                     12/19/2018 19:47:57
00060 suncat0105 pw.x -in pw.inp   Done                     12/19/2018 19:47:57
00061 suncat0105 pw.x -in pw.inp   Done                     12/19/2018 19:47:57
00062 suncat0105 pw.x -in pw.inp   Done                     12/19/2018 19:47:57
00063 suncat0105 pw.x -in pw.inp   Done                     12/19/2018 19:47:57