     Program PWSCF v.5.1rc2 (svn rev. 11289) starts on 20Dec2018 at  8:35:56

     Current dimensions of program PWSCF are:
     Max number of different atomic species (ntypx) = 10
     Max number of k-points (npk) =  40000
     Max angular momentum in pseudopotentials (lmaxx) =  3
     Presently stress not available with electric field

     IMPORTANT: XC functional enforced from input :
     Exchange-correlation      = BEEF-VDW ( 1  4 27 13 2)
     Any further DFT definition will be discarded
     Please, verify this is what you really want

     Subspace diagonalization in iterative solution of the eigenvalue problem:
     a serial algorithm will be used

     Generating pointlists ...
     new r_m :   0.4125 (alat units)  0.7795 (a.u.) for type    1
     new r_m :   0.4125 (alat units)  0.7795 (a.u.) for type    2

     bravais-lattice index     =            0
     lattice parameter (alat)  =       1.8897  a.u.
     unit-cell volume          =    3758.4587 (a.u.)^3
     number of atoms/cell      =           12
     number of atomic types    =            2
     number of electrons       =       192.00
     number of Kohn-Sham states=          126
     kinetic-energy cutoff     =      36.7493  Ry
     charge density cutoff     =     367.4932  Ry
     convergence threshold     =      1.0E-06
     mixing beta               =       0.1000
     number of iterations used =           10  plain     mixing
     Exchange-correlation      = BEEF-VDW ( 1  4 27 13 2)
     nstep                     =           50

     celldm(1)=   1.889726  celldm(2)=   0.000000  celldm(3)=   0.000000
     celldm(4)=   0.000000  celldm(5)=   0.000000  celldm(6)=   0.000000

     crystal axes: (cart. coord. in units of alat)
               a(1) = (   5.154168   0.000000   0.000000 )
               a(2) = (  -2.577084   4.463641   0.000000 )
               a(3) = (   0.000000   0.000000  24.208361 )

     reciprocal axes: (cart. coord. in units 2 pi/alat)
               b(1) = (  0.194018  0.112016  0.000000 )
               b(2) = (  0.000000  0.224032  0.000000 )
               b(3) = (  0.000000  0.000000  0.041308 )

     PseudoPot. # 1 for Co read from file:
     /afs/slac.stanford.edu/u/if/mamunm/psp/gbrv1.5pbe/Co.UPF
     MD5 check sum: 5f91765df6ddd3222702df6e7b74a16d
     Pseudo is Ultrasoft + core correction, Zval = 17.0
     Generated by new atomic code, or converted to UPF format
     Using radial grid of  863 points,  6 beta functions with:
                l(1) =   0
                l(2) =   0
                l(3) =   1
                l(4) =   1
                l(5) =   2
                l(6) =   2
     Q(r) pseudized with  8 coefficients,  rinner =    1.200   1.200   1.200
                                                       1.200   1.200

     PseudoPot. # 2 for Nb read from file:
     /afs/slac.stanford.edu/u/if/mamunm/psp/gbrv1.5pbe/Nb.UPF
     MD5 check sum: 573aab8a2fa660278ed4a62cd769473f
     Pseudo is Ultrasoft + core correction, Zval = 13.0
     Generated by new atomic code, or converted to UPF format
     Using radial grid of  887 points,  6 beta functions with:
                l(1) =   0
                l(2) =   0
                l(3) =   1
                l(4) =   1
                l(5) =   2
                l(6) =   2
     Q(r) pseudized with  6 coefficients,  rinner =    1.000   1.000   1.000
                                                       1.000   1.000

     vdW kernel table read from file vdW_kernel_table
     MD5 check sum: 095c7af220d748ca6e76c0b4c6cfb241

     atomic species   valence    mass     pseudopotential
        Co1           17.00    58.93319     Co( 1.00)
        Nb1           13.00    92.90637     Nb( 1.00)

     Starting magnetic structure
     atomic species   magnetization
        Co1          0.118
        Nb1          0.154

     No symmetry found

   Cartesian axes

     site n.     atom                  positions (alat units)
         1           Co1 tau(   1) = (   0.0000000   0.0000000  10.0000000  )
         2           Co1 tau(   2) = (  -1.2885420   2.2318203  10.0000000  )
         3           Co1 tau(   3) = (   1.2885420   2.2318203  10.0000000  )
         4           Nb1 tau(   4) = (   2.5770841   0.0000000  10.0000000  )
         5           Co1 tau(   5) = (   2.5770841   1.4878802  12.1041803  )
         6           Co1 tau(   6) = (   1.2885420   3.7197005  12.1041803  )
         7           Co1 tau(   7) = (  -1.2885420   3.7197005  12.1041803  )
         8           Nb1 tau(   8) = (   0.0000000   1.4878802  12.1041803  )
         9           Co1 tau(   9) = (  -0.0000000   2.9757604  14.2083607  )
        10           Co1 tau(  10) = (   1.2885420   0.7439401  14.2083607  )
        11           Co1 tau(  11) = (   3.8656261   0.7439401  14.2083607  )
        12           Nb1 tau(  12) = (   2.5770841   2.9757604  14.2083607  )

     number of k points=    40  Fermi-Dirac smearing, width (Ry)=  0.0110
                       cart. coord. in units 2pi/alat
        k(    1) = (   0.0000000   0.0000000   0.0000000), wk =   0.0277778
        k(    2) = (   0.0000000   0.0373387   0.0000000), wk =   0.0555556
        k(    3) = (   0.0000000   0.0746775   0.0000000), wk =   0.0555556
        k(    4) = (   0.0000000  -0.1120162   0.0000000), wk =   0.0277778
        k(    5) = (   0.0323363   0.0186694   0.0000000), wk =   0.0555556
        k(    6) = (   0.0323363   0.0560081   0.0000000), wk =   0.0555556
        k(    7) = (   0.0323363   0.0933468   0.0000000), wk =   0.0555556
        k(    8) = (   0.0323363  -0.0933468   0.0000000), wk =   0.0555556
        k(    9) = (   0.0323363  -0.0560081   0.0000000), wk =   0.0555556
        k(   10) = (   0.0323363  -0.0186694   0.0000000), wk =   0.0555556
        k(   11) = (   0.0646726   0.0373387   0.0000000), wk =   0.0555556
        k(   12) = (   0.0646726   0.0746775   0.0000000), wk =   0.0555556
        k(   13) = (   0.0646726   0.1120162   0.0000000), wk =   0.0555556
        k(   14) = (   0.0646726  -0.0746775   0.0000000), wk =   0.0555556
        k(   15) = (   0.0646726  -0.0373387   0.0000000), wk =   0.0555556
        k(   16) = (   0.0646726   0.0000000   0.0000000), wk =   0.0555556
        k(   17) = (  -0.0970089  -0.0560081   0.0000000), wk =   0.0277778
        k(   18) = (  -0.0970089  -0.0186694   0.0000000), wk =   0.0555556
        k(   19) = (  -0.0970089   0.0186694   0.0000000), wk =   0.0555556
        k(   20) = (  -0.0970089  -0.1680243   0.0000000), wk =   0.0277778
        k(   21) = (   0.0000000   0.0000000   0.0000000), wk =   0.0277778
        k(   22) = (   0.0000000   0.0373387   0.0000000), wk =   0.0555556
        k(   23) = (   0.0000000   0.0746775   0.0000000), wk =   0.0555556
        k(   24) = (   0.0000000  -0.1120162   0.0000000), wk =   0.0277778
        k(   25) = (   0.0323363   0.0186694   0.0000000), wk =   0.0555556
        k(   26) = (   0.0323363   0.0560081   0.0000000), wk =   0.0555556
        k(   27) = (   0.0323363   0.0933468   0.0000000), wk =   0.0555556
        k(   28) = (   0.0323363  -0.0933468   0.0000000), wk =   0.0555556
        k(   29) = (   0.0323363  -0.0560081   0.0000000), wk =   0.0555556
        k(   30) = (   0.0323363  -0.0186694   0.0000000), wk =   0.0555556
        k(   31) = (   0.0646726   0.0373387   0.0000000), wk =   0.0555556
        k(   32) = (   0.0646726   0.0746775   0.0000000), wk =   0.0555556
        k(   33) = (   0.0646726   0.1120162   0.0000000), wk =   0.0555556
        k(   34) = (   0.0646726  -0.0746775   0.0000000), wk =   0.0555556
        k(   35) = (   0.0646726  -0.0373387   0.0000000), wk =   0.0555556
        k(   36) = (   0.0646726   0.0000000   0.0000000), wk =   0.0555556
        k(   37) = (  -0.0970089  -0.0560081   0.0000000), wk =   0.0277778
        k(   38) = (  -0.0970089  -0.0186694   0.0000000), wk =   0.0555556
        k(   39) = (  -0.0970089   0.0186694   0.0000000), wk =   0.0555556
        k(   40) = (  -0.0970089  -0.1680243   0.0000000), wk =   0.0277778

     Largest allocated arrays     est. size (Mb)     dimensions
     Largest temporary arrays     est. size (Mb)     dimensions

     Check: negative/imaginary core charge=   -0.000005    0.000000

     Initial potential from superposition of free atoms
     Check: negative starting charge=(component1):   -0.001445
     Check: negative starting charge=(component2):   -0.001060

     starting charge  182.99174, renormalised to  192.00000

     negative rho (up, down):  1.516E-03 1.113E-03

     *
     * You are using vdW-DF for exchange-correlation in this calculation.
     * Please cite the following three references that made this development
     * possible:
     *
     *   M. Dion, H. Rydberg, E. Schroder, D. C. Langreth, and
     *   B. I. Lundqvist, Phys. Rev. Lett. 92, 246401 (2004).
     *
     *   T. Thonhauser, V. R. Cooper, S. Li, A. Puzder, P. Hyldgaard, and
     *   D. C. Langreth, Phys. Rev. B 76, 125112 (2007).
     *
     *   G. Roman-Perez and J. M. Soler, Phys. Rev. Lett. 103, 096102 (2009).
     *
     *
     * If you are using vdW-DF2, please also cite:
     *
     *   K. Lee, E. D. Murray, L. Kong, B. I. Lundqvist, and
     *   D. C. Langreth, Phys. Rev. B 82, 081101(R) (2010).
     *
     *
     * If you are calculating the stress with vdW-DF, please also cite:
     *
     *   R. Sabatini, E. Kucukbenli, B. Kolb, T. Thonhauser, and
     *   S. de Gironcoli, J. Phys.: Condens. Matter 24, 424209 (2012).
     *

     Carrying out vdW-DF run using the following parameters:

     Nqs =      20    Nr_points =    1024   r_max =   100.000
     q_mesh =
               0.00001000     0.04494208     0.09755937     0.15916263
               0.23128650     0.31572767     0.41458969     0.53033537
               0.66584808     0.82450364     1.01025438     1.22772762
               1.48234092     1.78043706     2.12944203     2.53805004
               3.01644009     3.57652955     4.23227104     5.00000000

     Gradients computed in reciprocal space

     Adding external electric field

     Computed dipole along edir(3) :
        Dipole               -0.0000 Ry au,         -0.0000 Debye
        Dipole field         -0.0000 Ry au

        Potential amp.        0.0000 Ry
        Total length         44.6035 bohr

[...]

     Starting wfc are  156 randomized atomic wfcs

     Self-consistent Calculation

     iteration #  1     ecut=    36.75 Ry     beta=0.10
     Davidson diagonalization with overlap
     ethr =  1.00E-02,  avg # of iterations =  7.5

[...]

     Magnetic moment per site:
     atom:    1    charge:    8.4400    magn:    0.9673    constr:    0.0000
     atom:    2    charge:    8.4400    magn:    0.9673    constr:    0.0000
     atom:    3    charge:    8.4400    magn:    0.9673    constr:    0.0000
     atom:    4    charge:    1.5528    magn:    0.2175    constr:    0.0000
     atom:    5    charge:    8.4559    magn:    0.9628    constr:    0.0000
     atom:    6    charge:    8.4559    magn:    0.9628    constr:    0.0000
     atom:    7    charge:    8.4559    magn:    0.9628    constr:    0.0000
     atom:    8    charge:    1.5571    magn:    0.2175    constr:    0.0000
[...]
        k(    5) = (   0.0323363   0.0186694   0.0000000), wk =   0.0555556
        k(    6) = (   0.0323363   0.0560081   0.0000000), wk =   0.0555556
        k(    7) = (   0.0323363   0.0933468   0.0000000), wk =   0.0555556
        k(    8) = (   0.0323363  -0.0933468   0.0000000), wk =   0.0555556
        k(    9) = (   0.0323363  -0.0560081   0.0000000), wk =   0.0555556
        k(   10) = (   0.0323363  -0.0186694   0.0000000), wk =   0.0555556
        k(   11) = (   0.0646726   0.0373387   0.0000000), wk =   0.0555556
        k(   12) = (   0.0646726   0.0746775   0.0000000), wk =   0.0555556
        k(   13) = (   0.0646726   0.1120162   0.0000000), wk =   0.0555556
        k(   14) = (   0.0646726  -0.0746775   0.0000000), wk =   0.0555556
        k(   15) = (   0.0646726  -0.0373387   0.0000000), wk =   0.0555556
        k(   16) = (   0.0646726   0.0000000   0.0000000), wk =   0.0555556
        k(   17) = (  -0.0970089  -0.0560081   0.0000000), wk =   0.0277778
        k(   18) = (  -0.0970089  -0.0186694   0.0000000), wk =   0.0555556
        k(   19) = (  -0.0970089   0.0186694   0.0000000), wk =   0.0555556
        k(   20) = (  -0.0970089  -0.1680243   0.0000000), wk =   0.0277778
        k(   21) = (   0.0000000   0.0000000   0.0000000), wk =   0.0277778
        k(   22) = (   0.0000000   0.0373387   0.0000000), wk =   0.0555556
        k(   23) = (   0.0000000   0.0746775   0.0000000), wk =   0.0555556
        k(   24) = (   0.0000000  -0.1120162   0.0000000), wk =   0.0277778
        k(   25) = (   0.0323363   0.0186694   0.0000000), wk =   0.0555556
        k(   26) = (   0.0323363   0.0560081   0.0000000), wk =   0.0555556
        k(   27) = (   0.0323363   0.0933468   0.0000000), wk =   0.0555556
        k(   28) = (   0.0323363  -0.0933468   0.0000000), wk =   0.0555556
        k(   29) = (   0.0323363  -0.0560081   0.0000000), wk =   0.0555556
        k(   30) = (   0.0323363  -0.0186694   0.0000000), wk =   0.0555556
        k(   31) = (   0.0646726   0.0373387   0.0000000), wk =   0.0555556
        k(   32) = (   0.0646726   0.0746775   0.0000000), wk =   0.0555556
        k(   33) = (   0.0646726   0.1120162   0.0000000), wk =   0.0555556
        k(   34) = (   0.0646726  -0.0746775   0.0000000), wk =   0.0555556
        k(   35) = (   0.0646726  -0.0373387   0.0000000), wk =   0.0555556
        k(   36) = (   0.0646726   0.0000000   0.0000000), wk =   0.0555556
        k(   37) = (  -0.0970089  -0.0560081   0.0000000), wk =   0.0277778
        k(   38) = (  -0.0970089  -0.0186694   0.0000000), wk =   0.0555556
        k(   39) = (  -0.0970089   0.0186694   0.0000000), wk =   0.0555556
        k(   40) = (  -0.0970089  -0.1680243   0.0000000), wk =   0.0277778

     Largest allocated arrays     est. size (Mb)     dimensions
     Largest temporary arrays     est. size (Mb)     dimensions

     Check: negative/imaginary core charge=   -0.000005    0.000000

     Initial potential from superposition of free atoms
     Check: negative starting charge=(component1):   -0.001444
     Check: negative starting charge=(component2):   -0.001059

     starting charge  182.99174, renormalised to  192.00000

[...]

     *
     * You are using vdW-DF for exchange-correlation in this calculation.
     * Please cite the following three references that made this development
     * possible:
     *
     *   M. Dion, H. Rydberg, E. Schroder, D. C. Langreth, and
     *   B. I. Lundqvist, Phys. Rev. Lett. 92, 246401 (2004).
     *
     *   T. Thonhauser, V. R. Cooper, S. Li, A. Puzder, P. Hyldgaard, and
     *   D. C. Langreth, Phys. Rev. B 76, 125112 (2007).
     *
     *   G. Roman-Perez and J. M. Soler, Phys. Rev. Lett. 103, 096102 (2009).
     *
     *
     * If you are using vdW-DF2, please also cite:
     *
     *   K. Lee, E. D. Murray, L. Kong, B. I. Lundqvist, and
     *   D. C. Langreth, Phys. Rev. B 82, 081101(R) (2010).
     *
     *
     * If you are calculating the stress with vdW-DF, please also cite:
     *
     *   R. Sabatini, E. Kucukbenli, B. Kolb, T. Thonhauser, and
     *   S. de Gironcoli, J. Phys.: Condens. Matter 24, 424209 (2012).
     *

     Carrying out vdW-DF run using the following parameters:

     Nqs =      20    Nr_points =    1024   r_max =   100.000
     q_mesh =
               0.00001000     0.04494208     0.09755937     0.15916263
               0.23128650     0.31572767     0.41458969     0.53033537
               0.66584808     0.82450364     1.01025438     1.22772762
               1.48234092     1.78043706     2.12944203     2.53805004
               3.01644009     3.57652955     4.23227104     5.00000000

     Gradients computed in reciprocal space

[...]

     Starting wfc are  156 randomized atomic wfcs

     Self-consistent Calculation

[...]

     total energy              =   -3051.36509654 Ry
     Harris-Foulkes estimate   =   -3051.36509644 Ry
     estimated scf accuracy    <       0.00000202 Ry

[...]

     iteration # 36     ecut=    36.75 Ry     beta=0.10
     Davidson diagonalization with overlap
     ethr =  1.03E-09,  avg # of iterations =  1.5

[...]

     negative rho (up, down):  1.255E-03 1.200E-03

[...]

     Adding external electric field

     Computed dipole along edir(3) :
        Dipole                0.0029 Ry au,          0.0074 Debye
        Dipole field          0.0000 Ry au

        Potential amp.       -0.0009 Ry
        Total length         44.6035 bohr

     Magnetic moment per site:
     atom:    1    charge:    8.2929    magn:    0.6119    constr:    0.0000
     atom:    2    charge:    8.2928    magn:    0.6120    constr:    0.0000
     atom:    3    charge:    8.2928    magn:    0.6119    constr:    0.0000
     atom:    4    charge:    1.4933    magn:   -0.0290    constr:    0.0000
     atom:    5    charge:    8.2884    magn:    0.4459    constr:    0.0000
     atom:    6    charge:    8.2883    magn:    0.4459    constr:    0.0000
     atom:    7    charge:    8.2883    magn:    0.4459    constr:    0.0000
     atom:    8    charge:    1.4967    magn:   -0.0230    constr:    0.0000
     atom:    9    charge:    8.2840    magn:    0.6082    constr:    0.0000
     atom:   10    charge:    8.2840    magn:    0.6081    constr:    0.0000
     atom:   11    charge:    8.2841    magn:    0.6080    constr:    0.0000
     atom:   12    charge:    1.4869    magn:   -0.0282    constr:    0.0000

     End of self-consistent calculation

 ------ SPIN UP ------------

[...]

 ------ SPIN DOWN ----------

[...]

          k = 0.0647 0.0000 0.0000 ( 14143 PWs)   bands (ev):

[...]

          k =-0.0970-0.1680 0.0000 ( 14114 PWs)   bands (ev):

   -93.1206 -93.1145 -93.1086 -92.7192 -92.7124 -92.7115 -92.7068 -92.7055
   -92.6997 -56.5808 -56.5476 -56.5231 -56.4741 -56.4472 -56.4269 -56.3665
   -56.3438 -56.3098 -56.1856 -56.1803 -56.1568 -56.1490 -56.1375 -56.1332
   -56.0457 -56.0336 -56.0090 -55.9990 -55.9910 -55.9904 -55.9836 -55.9817
   -55.9761 -55.9678 -55.9376 -55.9300 -54.1886 -54.1597 -54.0089 -30.3486
   -30.3197 -30.2395 -30.2303 -30.2174 -30.2050 -30.1423 -30.1252 -30.0503
    -4.1944  -4.1614  -3.0033  -2.5497  -2.3747  -2.3731  -2.1608  -1.9453
    -1.6053  -1.5414  -1.4805  -1.2427  -1.1324  -1.1177  -1.0763  -0.8339
    -0.7898  -0.7307  -0.5455  -0.5414  -0.5071  -0.3201  -0.1667  -0.0447
     0.0924   0.1246   0.1664   0.1689   0.2225   0.2463   0.2716   0.3349
     0.3595   0.4339   0.4396   0.5143   0.5411   0.5626   0.6316   0.8386
     0.8654   0.9464   1.0410   1.1410   1.2913   1.3413   1.4164   1.4543
     1.6188   1.6469   1.8770   1.9507   2.0577   2.1211   2.3951   2.5190
     2.5989   2.6453   2.8271   2.8986   3.1178   3.2813   3.3078   3.8155
     3.9298   4.0855   4.5961   5.4207   6.1115   6.3505   6.4503   6.5010
     7.3140   7.3628   7.5318   7.6469   7.8350   7.9079

     the Fermi energy is     1.3765 ev

!    total energy              =   -3051.36509874 Ry
     Harris-Foulkes estimate   =   -3051.36509685 Ry
     estimated scf accuracy    <       0.00000095 Ry

     The total energy is the sum of the following terms:

     one-electron contribution =  -25790.54214770 Ry
     hartree contribution      =   12900.74839328 Ry
     xc contribution           =    -361.09573679 Ry
     ewald contribution        =   10199.60492211 Ry
     electric field correction =       0.00000003 Ry
     smearing contrib. (-TS)   =      -0.08052967 Ry

     total magnetization       =     7.05 Bohr mag/cell
     absolute magnetization    =    11.54 Bohr mag/cell

     convergence has been achieved in  36 iterations

 BEEF-vdW xc energy contributions
           1 :   -316.791730275133
           2 :    287.615134257888
           3 :   -237.744364691636
           4 :    180.327907662087
           5 :   -127.802459903004
           6 :    87.5542376544998
           7 :   -60.5061703129301
           8 :    42.7653900751703
           9 :   -29.0081464614337
          10 :    15.6012329497005
          11 :   -1.99547405068353
          12 :   -9.94946574221063
          13 :    17.8613498646512
          14 :   -20.6672696974571
          15 :    19.2794821992399
          16 :   -15.9749837787337
          17 :    13.0469976762914
          18 :   -11.6565708865734
          19 :    11.5148651750146
          20 :   -11.4614555427525
          21 :    10.4409580268598
          22 :   -8.23788890467750
          23 :    5.54585050699706
          24 :   -3.43223251959893
          25 :    2.60910684341803
          26 :   -3.01080438498320
          27 :    3.90597817525929
          28 :   -4.42296158626482
          29 :    4.10060354110414
          30 :   -3.11950479805893
          31 :   -28.3402715488183
          32 :   -20.0561085771993

     Forces acting on atoms (Ry/au):

     negative rho (up, down):  1.255E-03 1.200E-03
     atom    1 type  1   force =     0.00000301   -0.00683208    0.00391065
     atom    2 type  1   force =    -0.00590271    0.00342568    0.00389271
     atom    3 type  1   force =     0.00590584    0.00342473    0.00389688
     atom    4 type  2   force =     0.00000050    0.00000618    0.00543548
     atom    5 type  1   force =    -0.00001332   -0.00018170   -0.00474692
     atom    6 type  1   force =    -0.00019860    0.00007343   -0.00470888
     atom    7 type  1   force =     0.00020296    0.00009221   -0.00469130
     atom    8 type  2   force =     0.00000440    0.00000320   -0.00186907
     atom    9 type  1   force =    -0.00001033   -0.00084054   -0.00051823
     atom   10 type  1   force =    -0.00078142    0.00039051   -0.00048395
     atom   11 type  1   force =     0.00077108    0.00039653   -0.00048349
     atom   12 type  2   force =     0.00001860    0.00004183    0.00036614

     Total force =     0.016984     Total SCF correction =     0.001840
     SCF correction compared to forces is large: reduce conv_thr to get better values

     entering subroutine stress ...

     negative rho (up, down):  1.255E-03 1.200E-03
          total   stress  (Ry/bohr**3)                   (kbar)     P=  -15.11
  -0.00012581   0.00000001  -0.00000000        -18.51      0.00     -0.00
   0.00000001  -0.00012582  -0.00000001          0.00    -18.51     -0.00
  -0.00000000  -0.00000001  -0.00005660         -0.00     -0.00     -8.33

 !ASE

     Writing output data file calc.save

     General routines

     Parallel routines

   This run was terminated on:  10:44:31  20Dec2018

   JOB DONE.
Job  /afs/slac/g/suncat/bin/suncat-tsmpirun -x LD_LIBRARY_PATH -wdir /scratch/qe773521_NDtqP pw.x -in pw.inp

TID   HOST_NAME   COMMAND_LINE            STATUS            TERMINATION_TIME
00000 suncat0001 pw.x -in pw.inp   Done                     12/20/2018 10:44:31
00001 suncat0001 pw.x -in pw.inp   Done                     12/20/2018 10:44:31
00002 suncat0001 pw.x -in pw.inp   Done                     12/20/2018 10:44:31
00003 suncat0001 pw.x -in pw.inp   Done                     12/20/2018 10:44:31
00004 suncat0001 pw.x -in pw.inp   Done                     12/20/2018 10:44:31
00005 suncat0001 pw.x -in pw.inp   Done                     12/20/2018 10:44:31
00006 suncat0001 pw.x -in pw.inp   Done                     12/20/2018 10:44:31
00007 suncat0001 pw.x -in pw.inp   Done                     12/20/2018 10:44:31
00008 suncat0188 pw.x -in pw.inp   Done                     12/20/2018 10:44:31
00009 suncat0188 pw.x -in pw.inp   Done                     12/20/2018 10:44:31
00010 suncat0188 pw.x -in pw.inp   Done                     12/20/2018 10:44:31
00011 suncat0188 pw.x -in pw.inp   Done                     12/20/2018 10:44:31
00012 suncat0188 pw.x -in pw.inp   Done                     12/20/2018 10:44:31
00013 suncat0188 pw.x -in pw.inp   Done                     12/20/2018 10:44:31
00014 suncat0188 pw.x -in pw.inp   Done                     12/20/2018 10:44:31
00015 suncat0188 pw.x -in pw.inp   Done                     12/20/2018 10:44:31
00016 suncat0100 pw.x -in pw.inp   Done                     12/20/2018 10:44:31
00017 suncat0100 pw.x -in pw.inp   Done                     12/20/2018 10:44:31
00018 suncat0100 pw.x -in pw.inp   Done                     12/20/2018 10:44:31
00019 suncat0100 pw.x -in pw.inp   Done                     12/20/2018 10:44:31
00020 suncat0100 pw.x -in pw.inp   Done                     12/20/2018 10:44:31
00021 suncat0100 pw.x -in pw.inp   Done                     12/20/2018 10:44:31
00022 suncat0100 pw.x -in pw.inp   Done                     12/20/2018 10:44:31
00023 suncat0100 pw.x -in pw.inp   Done                     12/20/2018 10:44:31
00024 suncat0283 pw.x -in pw.inp   Done                     12/20/2018 10:44:31
00025 suncat0283 pw.x -in pw.inp   Done                     12/20/2018 10:44:31
00026 suncat0283 pw.x -in pw.inp   Done                     12/20/2018 10:44:31
00027 suncat0283 pw.x -in pw.inp   Done                     12/20/2018 10:44:31
00028 suncat0283 pw.x -in pw.inp   Done                     12/20/2018 10:44:31
00029 suncat0283 pw.x -in pw.inp   Done                     12/20/2018 10:44:31
00030 suncat0283 pw.x -in pw.inp   Done                     12/20/2018 10:44:31
00031 suncat0283 pw.x -in pw.inp   Done                     12/20/2018 10:44:31
00032 suncat0272 pw.x -in pw.inp   Done                     12/20/2018 10:44:31
00033 suncat0272 pw.x -in pw.inp   Done                     12/20/2018 10:44:31
00034 suncat0272 pw.x -in pw.inp   Done                     12/20/2018 10:44:31
00035 suncat0272 pw.x -in pw.inp   Done                     12/20/2018 10:44:31
00036 suncat0272 pw.x -in pw.inp   Done                     12/20/2018 10:44:31
00037 suncat0272 pw.x -in pw.inp   Done                     12/20/2018 10:44:31
00038 suncat0272 pw.x -in pw.inp   Done                     12/20/2018 10:44:31
00039 suncat0272 pw.x -in pw.inp   Done                     12/20/2018 10:44:31
00040 suncat0271 pw.x -in pw.inp   Done                     12/20/2018 10:44:31
00041 suncat0271 pw.x -in pw.inp   Done                     12/20/2018 10:44:31
00042 suncat0271 pw.x -in pw.inp   Done                     12/20/2018 10:44:31
00043 suncat0271 pw.x -in pw.inp   Done                     12/20/2018 10:44:31
00044 suncat0271 pw.x -in pw.inp   Done                     12/20/2018 10:44:31
00045 suncat0271 pw.x -in pw.inp   Done                     12/20/2018 10:44:31
00046 suncat0271 pw.x -in pw.inp   Done                     12/20/2018 10:44:31
00047 suncat0271 pw.x -in pw.inp   Done                     12/20/2018 10:44:31
00048 suncat0270 pw.x -in pw.inp   Done                     12/20/2018 10:44:31
00049 suncat0270 pw.x -in pw.inp   Done                     12/20/2018 10:44:31
00050 suncat0270 pw.x -in pw.inp   Done                     12/20/2018 10:44:31
00051 suncat0270 pw.x -in pw.inp   Done                     12/20/2018 10:44:31
00052 suncat0270 pw.x -in pw.inp   Done                     12/20/2018 10:44:31
00053 suncat0270 pw.x -in pw.inp   Done                     12/20/2018 10:44:31
00054 suncat0270 pw.x -in pw.inp   Done                     12/20/2018 10:44:31
00055 suncat0270 pw.x -in pw.inp   Done                     12/20/2018 10:44:31
00056 suncat0268 pw.x -in pw.inp   Done                     12/20/2018 10:44:31
00057 suncat0268 pw.x -in pw.inp   Done                     12/20/2018 10:44:31
00058 suncat0268 pw.x -in pw.inp   Done                     12/20/2018 10:44:31
00059 suncat0268 pw.x -in pw.inp   Done                     12/20/2018 10:44:31
00060 suncat0268 pw.x -in pw.inp   Done                     12/20/2018 10:44:31
00061 suncat0268 pw.x -in pw.inp   Done                     12/20/2018 10:44:31
00062 suncat0268 pw.x -in pw.inp   Done                     12/20/2018 10:44:31
00063 suncat0268 pw.x -in pw.inp   Done                     12/20/2018 10:44:31