     Program PWSCF v.5.1rc2 (svn rev. 11289) starts on 26Dec2018 at 20:25:36

     Current dimensions of program PWSCF are:
     Max number of different atomic species (ntypx) = 10
     Max number of k-points (npk) =  40000
     Max angular momentum in pseudopotentials (lmaxx) =  3
     Presently stress not available with electric field

     IMPORTANT: XC functional enforced from input :
     Exchange-correlation      = BEEF-VDW ( 1  4 27 13 2)
     Any further DFT definition will be discarded
     Please, verify this is what you really want

     Subspace diagonalization in iterative solution of the eigenvalue problem:
     a serial algorithm will be used

     Generating pointlists ...
     new r_m :   0.4125 (alat units)  0.7795 (a.u.) for type    1
     new r_m :   0.4125 (alat units)  0.7795 (a.u.) for type    2

     bravais-lattice index     =            0
     lattice parameter (alat)  =       1.8897  a.u.
     unit-cell volume          =    4656.8226 (a.u.)^3
     number of atoms/cell      =           12
     number of atomic types    =            2
     number of electrons       =       177.00
     number of Kohn-Sham states=          118
     kinetic-energy cutoff     =      36.7493  Ry
     charge density cutoff     =     367.4932  Ry
     convergence threshold     =      1.0E-06
     mixing beta               =       0.1000
     number of iterations used =           10  plain     mixing
     Exchange-correlation      = BEEF-VDW ( 1  4 27 13 2)
     nstep                     =           50

     celldm(1)=   1.889726  celldm(2)=   0.000000  celldm(3)=   0.000000
     celldm(4)=   0.000000  celldm(5)=   0.000000  celldm(6)=   0.000000

     crystal axes: (cart. coord. in units of alat)
               a(1) = (   5.686372   0.000000   0.000000 )
               a(2) = (  -2.843186   4.924543   0.000000 )
               a(3) = (   0.000000   0.000000  24.642904 )

     reciprocal axes: (cart. coord. in units 2 pi/alat)
               b(1) = (  0.175859  0.101532  0.000000 )
               b(2) = (  0.000000  0.203065  0.000000 )
               b(3) = (  0.000000  0.000000  0.040580 )

     PseudoPot. # 1 for Mn read from file:
     /afs/slac.stanford.edu/u/if/mamunm/psp/gbrv1.5pbe/Mn.UPF
     MD5 check sum: 82ef2b46521d7a7d9e736dc3972e4928
     Pseudo is Ultrasoft + core correction, Zval = 15.0
     Generated by new atomic code, or converted to UPF format
     Using radial grid of  859 points,  6 beta functions with:
                l(1) =   0
                l(2) =   0
                l(3) =   1
                l(4) =   1
                l(5) =   2
                l(6) =   2
     Q(r) pseudized with  8 coefficients,  rinner =    0.950   0.950   0.950
                                                       0.950   0.950

     PseudoPot. # 2 for Pb read from file:
     /afs/slac.stanford.edu/u/if/mamunm/psp/gbrv1.5pbe/Pb.UPF
     MD5 check sum: 3d1c1779aa92214d1e8f3a7db79003e2
     Pseudo is Ultrasoft + core correction, Zval = 14.0
     Generated by new atomic code, or converted to UPF format
     Using radial grid of  899 points,  6 beta functions with:
                l(1) =   0
                l(2) =   0
                l(3) =   1
                l(4) =   1
                l(5) =   2
                l(6) =   2
     Q(r) pseudized with  6 coefficients,  rinner =    1.000   1.000   1.000
                                                       1.000   1.000

     vdW kernel table read from file vdW_kernel_table
     MD5 check sum: 095c7af220d748ca6e76c0b4c6cfb241

     atomic species   valence    mass     pseudopotential
        Mn1           15.00    54.93804     Mn( 1.00)
        Pb1           14.00   207.20000     Pb( 1.00)

     Starting magnetic structure
     atomic species   magnetization
        Mn1          0.133
        Pb1          0.143

     No symmetry found

   Cartesian axes

     site n.     atom                  positions (alat units)
         1           Mn1 tau(   1) = (   0.0000000   0.0000000  10.0000000  )
         2           Mn1 tau(   2) = (  -1.4215931   2.4622714  10.0000000  )
         3           Mn1 tau(   3) = (   1.4215931   2.4622714  10.0000000  )
         4           Pb1 tau(   4) = (   2.8431862   0.0000000  10.0000000  )
         5           Mn1 tau(   5) = (   2.8431862   1.6415143  12.3214518  )
         6           Mn1 tau(   6) = (   1.4215931   4.1037857  12.3214518  )
         7           Mn1 tau(   7) = (  -1.4215931   4.1037857  12.3214518  )
         8           Pb1 tau(   8) = (   0.0000000   1.6415143  12.3214518  )
         9           Mn1 tau(   9) = (  -0.0000000   3.2830286  14.6429036  )
        10           Mn1 tau(  10) = (   1.4215931   0.8207571  14.6429036  )
        11           Mn1 tau(  11) = (   4.2647792   0.8207571  14.6429036  )
        12           Pb1 tau(  12) = (   2.8431862   3.2830286  14.6429036  )

     number of k points=    40  Fermi-Dirac smearing, width (Ry)=  0.0110
                       cart. coord. in units 2pi/alat
        k(    1) = (   0.0000000   0.0000000   0.0000000), wk =   0.0277778
        k(    2) = (   0.0000000   0.0338441   0.0000000), wk =   0.0555556
        k(    3) = (   0.0000000   0.0676882   0.0000000), wk =   0.0555556
        k(    4) = (   0.0000000  -0.1015323   0.0000000), wk =   0.0277778
        k(    5) = (   0.0293098   0.0169220   0.0000000), wk =   0.0555556
        k(    6) = (   0.0293098   0.0507661   0.0000000), wk =   0.0555556
        k(    7) = (   0.0293098   0.0846102   0.0000000), wk =   0.0555556
        k(    8) = (   0.0293098  -0.0846102   0.0000000), wk =   0.0555556
        k(    9) = (   0.0293098  -0.0507661   0.0000000), wk =   0.0555556
        k(   10) = (   0.0293098  -0.0169220   0.0000000), wk =   0.0555556
        k(   11) = (   0.0586197   0.0338441   0.0000000), wk =   0.0555556
        k(   12) = (   0.0586197   0.0676882   0.0000000), wk =   0.0555556
        k(   13) = (   0.0586197   0.1015323   0.0000000), wk =   0.0555556
        k(   14) = (   0.0586197  -0.0676882   0.0000000), wk =   0.0555556
        k(   15) = (   0.0586197  -0.0338441   0.0000000), wk =   0.0555556
        k(   16) = (   0.0586197   0.0000000   0.0000000), wk =   0.0555556
        k(   17) = (  -0.0879295  -0.0507661   0.0000000), wk =   0.0277778
        k(   18) = (  -0.0879295  -0.0169220   0.0000000), wk =   0.0555556
        k(   19) = (  -0.0879295   0.0169220   0.0000000), wk =   0.0555556
        k(   20) = (  -0.0879295  -0.1522984   0.0000000), wk =   0.0277778
        k(   21) = (   0.0000000   0.0000000   0.0000000), wk =   0.0277778
        k(   22) = (   0.0000000   0.0338441   0.0000000), wk =   0.0555556
        k(   23) = (   0.0000000   0.0676882   0.0000000), wk =   0.0555556
        k(   24) = (   0.0000000  -0.1015323   0.0000000), wk =   0.0277778
        k(   25) = (   0.0293098   0.0169220   0.0000000), wk =   0.0555556
        k(   26) = (   0.0293098   0.0507661   0.0000000), wk =   0.0555556
        k(   27) = (   0.0293098   0.0846102   0.0000000), wk =   0.0555556
        k(   28) = (   0.0293098  -0.0846102   0.0000000), wk =   0.0555556
        k(   29) = (   0.0293098  -0.0507661   0.0000000), wk =   0.0555556
        k(   30) = (   0.0293098  -0.0169220   0.0000000), wk =   0.0555556
        k(   31) = (   0.0586197   0.0338441   0.0000000), wk =   0.0555556
        k(   32) = (   0.0586197   0.0676882   0.0000000), wk =   0.0555556
        k(   33) = (   0.0586197   0.1015323   0.0000000), wk =   0.0555556
        k(   34) = (   0.0586197  -0.0676882   0.0000000), wk =   0.0555556
        k(   35) = (   0.0586197  -0.0338441   0.0000000), wk =   0.0555556
        k(   36) = (   0.0586197   0.0000000   0.0000000), wk =   0.0555556
        k(   37) = (  -0.0879295  -0.0507661   0.0000000), wk =   0.0277778
        k(   38) = (  -0.0879295  -0.0169220   0.0000000), wk =   0.0555556
        k(   39) = (  -0.0879295   0.0169220   0.0000000), wk =   0.0555556
        k(   40) = (  -0.0879295  -0.1522984   0.0000000), wk =   0.0277778

     Largest allocated arrays     est. size (Mb)     dimensions
     Largest temporary arrays     est. size (Mb)     dimensions

     Check: negative/imaginary core charge=   -0.000007    0.000000

     Initial potential from superposition of free atoms
     Check: negative starting charge=(component1):   -0.029014
     Check: negative starting charge=(component2):   -0.021769

     starting charge  172.49218, renormalised to  177.00000

     negative rho (up, down):  2.977E-02 2.234E-02

     *
     * You are using vdW-DF for exchange-correlation in this calculation.
     * Please cite the following three references that made this development
     * possible:
     *
     *   M. Dion, H. Rydberg, E. Schroder, D. C. Langreth, and
     *   B. I. Lundqvist, Phys. Rev. Lett. 92, 246401 (2004).
     *
     *   T. Thonhauser, V. R. Cooper, S. Li, A. Puzder, P. Hyldgaard, and
     *   D. C. Langreth, Phys. Rev. B 76, 125112 (2007).
     *
     *   G. Roman-Perez and J. M. Soler, Phys. Rev. Lett. 103, 096102 (2009).
     *
     *
     * If you are using vdW-DF2, please also cite:
     *
     *   K. Lee, E. D. Murray, L. Kong, B. I. Lundqvist, and
     *   D. C. Langreth, Phys. Rev. B 82, 081101(R) (2010).
     *
     *
     * If you are calculating the stress with vdW-DF, please also cite:
     *
     *   R. Sabatini, E. Kucukbenli, B. Kolb, T. Thonhauser, and
     *   S. de Gironcoli, J. Phys.: Condens. Matter 24, 424209 (2012).
     *

     Carrying out vdW-DF run using the following parameters:

     Nqs =      20    Nr_points =    1024   r_max =   100.000
     q_mesh =
               0.00001000     0.04494208     0.09755937     0.15916263
               0.23128650     0.31572767     0.41458969     0.53033537
               0.66584808     0.82450364     1.01025438     1.22772762
               1.48234092     1.78043706     2.12944203     2.53805004
               3.01644009     3.57652955     4.23227104     5.00000000

     Gradients computed in reciprocal space

     Adding external electric field

     Computed dipole along edir(3) :
        Dipole                0.0000 Ry au,          0.0000 Debye
        Dipole field          0.0000 Ry au

        Potential amp.       -0.0000 Ry
        Total length         45.4041 bohr

[...]

     Starting wfc are  144 randomized atomic wfcs

     Self-consistent Calculation

     iteration #  1     ecut=    36.75 Ry     beta=0.10
     Davidson diagonalization with overlap
     ethr =  1.00E-02,  avg # of iterations =  4.9

[...]

     Magnetic moment per site:
     atom:    1    charge:    6.0591    magn:    0.8088    constr:    0.0000
     atom:    2    charge:    6.0591    magn:    0.8088    constr:    0.0000
     atom:    3    charge:    6.0591    magn:    0.8088    constr:    0.0000
     atom:    4    charge:    1.7753    magn:    0.2301    constr:    0.0000
     atom:    5    charge:    6.0696    magn:    0.8043    constr:    0.0000
     atom:    6    charge:    6.0696    magn:    0.8043    constr:    0.0000
     atom:    7    charge:    6.0696    magn:    0.8043    constr:    0.0000
     atom:    8    charge:    1.7769    magn:    0.2303    constr:    0.0000
[...]
        k(    3) = (   0.0000000   0.0676882   0.0000000), wk =   0.0555556
        k(    4) = (   0.0000000  -0.1015323   0.0000000), wk =   0.0277778
        k(    5) = (   0.0293098   0.0169220   0.0000000), wk =   0.0555556
        k(    6) = (   0.0293098   0.0507661   0.0000000), wk =   0.0555556
        k(    7) = (   0.0293098   0.0846102   0.0000000), wk =   0.0555556
        k(    8) = (   0.0293098  -0.0846102   0.0000000), wk =   0.0555556
        k(    9) = (   0.0293098  -0.0507661   0.0000000), wk =   0.0555556
        k(   10) = (   0.0293098  -0.0169220   0.0000000), wk =   0.0555556
        k(   11) = (   0.0586197   0.0338441   0.0000000), wk =   0.0555556
        k(   12) = (   0.0586197   0.0676882   0.0000000), wk =   0.0555556
        k(   13) = (   0.0586197   0.1015323   0.0000000), wk =   0.0555556
        k(   14) = (   0.0586197  -0.0676882   0.0000000), wk =   0.0555556
        k(   15) = (   0.0586197  -0.0338441   0.0000000), wk =   0.0555556
        k(   16) = (   0.0586197   0.0000000   0.0000000), wk =   0.0555556
        k(   17) = (  -0.0879295  -0.0507661   0.0000000), wk =   0.0277778
        k(   18) = (  -0.0879295  -0.0169220   0.0000000), wk =   0.0555556
        k(   19) = (  -0.0879295   0.0169220   0.0000000), wk =   0.0555556
        k(   20) = (  -0.0879295  -0.1522984   0.0000000), wk =   0.0277778
        k(   21) = (   0.0000000   0.0000000   0.0000000), wk =   0.0277778
        k(   22) = (   0.0000000   0.0338441   0.0000000), wk =   0.0555556
        k(   23) = (   0.0000000   0.0676882   0.0000000), wk =   0.0555556
        k(   24) = (   0.0000000  -0.1015323   0.0000000), wk =   0.0277778
        k(   25) = (   0.0293098   0.0169220   0.0000000), wk =   0.0555556
        k(   26) = (   0.0293098   0.0507661   0.0000000), wk =   0.0555556
        k(   27) = (   0.0293098   0.0846102   0.0000000), wk =   0.0555556
        k(   28) = (   0.0293098  -0.0846102   0.0000000), wk =   0.0555556
        k(   29) = (   0.0293098  -0.0507661   0.0000000), wk =   0.0555556
        k(   30) = (   0.0293098  -0.0169220   0.0000000), wk =   0.0555556
        k(   31) = (   0.0586197   0.0338441   0.0000000), wk =   0.0555556
        k(   32) = (   0.0586197   0.0676882   0.0000000), wk =   0.0555556
        k(   33) = (   0.0586197   0.1015323   0.0000000), wk =   0.0555556
        k(   34) = (   0.0586197  -0.0676882   0.0000000), wk =   0.0555556
        k(   35) = (   0.0586197  -0.0338441   0.0000000), wk =   0.0555556
        k(   36) = (   0.0586197   0.0000000   0.0000000), wk =   0.0555556
        k(   37) = (  -0.0879295  -0.0507661   0.0000000), wk =   0.0277778
        k(   38) = (  -0.0879295  -0.0169220   0.0000000), wk =   0.0555556
        k(   39) = (  -0.0879295   0.0169220   0.0000000), wk =   0.0555556
        k(   40) = (  -0.0879295  -0.1522984   0.0000000), wk =   0.0277778

     Largest allocated arrays     est. size (Mb)     dimensions
     Largest temporary arrays     est. size (Mb)     dimensions

     Check: negative/imaginary core charge=   -0.000007    0.000000

     Initial potential from superposition of free atoms
     Check: negative starting charge=(component1):   -0.028911
     Check: negative starting charge=(component2):   -0.021693

     starting charge  172.49218, renormalised to  177.00000

[...]

     *
     * You are using vdW-DF for exchange-correlation in this calculation.
     * Please cite the following three references that made this development
     * possible:
     *
     *   M. Dion, H. Rydberg, E. Schroder, D. C. Langreth, and
     *   B. I. Lundqvist, Phys. Rev. Lett. 92, 246401 (2004).
     *
     *   T. Thonhauser, V. R. Cooper, S. Li, A. Puzder, P. Hyldgaard, and
     *   D. C. Langreth, Phys. Rev. B 76, 125112 (2007).
     *
     *   G. Roman-Perez and J. M. Soler, Phys. Rev. Lett. 103, 096102 (2009).
     *
     *
     * If you are using vdW-DF2, please also cite:
     *
     *   K. Lee, E. D. Murray, L. Kong, B. I. Lundqvist, and
     *   D. C. Langreth, Phys. Rev. B 82, 081101(R) (2010).
     *
     *
     * If you are calculating the stress with vdW-DF, please also cite:
     *
     *   R. Sabatini, E. Kucukbenli, B. Kolb, T. Thonhauser, and
     *   S. de Gironcoli, J. Phys.: Condens. Matter 24, 424209 (2012).
     *

     Carrying out vdW-DF run using the following parameters:

     Nqs =      20    Nr_points =    1024   r_max =   100.000
     q_mesh =
               0.00001000     0.04494208     0.09755937     0.15916263
               0.23128650     0.31572767     0.41458969     0.53033537
               0.66584808     0.82450364     1.01025438     1.22772762
               1.48234092     1.78043706     2.12944203     2.53805004
               3.01644009     3.57652955     4.23227104     5.00000000

     Gradients computed in reciprocal space

[...]

     Starting wfc are  144 randomized atomic wfcs

     Self-consistent Calculation

[...]

     total energy              =   -2406.84816810 Ry
     Harris-Foulkes estimate   =   -2406.84816625 Ry
     estimated scf accuracy    <       0.00000183 Ry

[...]

     iteration # 29     ecut=    36.75 Ry     beta=0.10
     Davidson diagonalization with overlap
     ethr =  1.04E-09,  avg # of iterations =  3.0

[...]

     negative rho (up, down):  2.837E-02 3.084E-02

[...]

     Adding external electric field

     Computed dipole along edir(3) :
        Dipole               -0.0060 Ry au,         -0.0153 Debye
        Dipole field         -0.0000 Ry au

        Potential amp.        0.0015 Ry
        Total length         45.4041 bohr

     Magnetic moment per site:
     atom:    1    charge:    6.0058    magn:    1.4552    constr:    0.0000
     atom:    2    charge:    6.0058    magn:    1.4552    constr:    0.0000
     atom:    3    charge:    6.0059    magn:    1.4552    constr:    0.0000
     atom:    4    charge:    1.7470    magn:   -0.0047    constr:    0.0000
     atom:    5    charge:    5.9971    magn:    1.3077    constr:    0.0000
     atom:    6    charge:    5.9971    magn:    1.3077    constr:    0.0000
     atom:    7    charge:    5.9972    magn:    1.3077    constr:    0.0000
     atom:    8    charge:    1.7489    magn:   -0.0046    constr:    0.0000
     atom:    9    charge:    6.0164    magn:    1.4440    constr:    0.0000
     atom:   10    charge:    6.0164    magn:    1.4440    constr:    0.0000
     atom:   11    charge:    6.0164    magn:    1.4440    constr:    0.0000
     atom:   12    charge:    1.7510    magn:   -0.0054    constr:    0.0000

     End of self-consistent calculation

 ------ SPIN UP ------------

[...]

 ------ SPIN DOWN ----------

[...]

          k = 0.0586 0.0000 0.0000 ( 17543 PWs)   bands (ev):

[...]

          k =-0.0879-0.1523 0.0000 ( 17472 PWs)   bands (ev):

   -75.6966 -75.6917 -75.6866 -75.6501 -75.6392 -75.6348 -75.6338 -75.6308
   -75.6263 -44.5902 -44.5653 -44.5512 -44.5429 -44.5283 -44.5269 -44.5165
   -44.5134 -44.5089 -44.4932 -44.4920 -44.4894 -44.4807 -44.4766 -44.4611
   -44.4565 -44.4489 -44.4415 -44.4386 -44.4212 -44.4194 -44.3843 -44.3763
   -44.3484 -44.3264 -44.3186 -44.3011 -15.9534 -15.9454 -15.9412 -15.9199
   -15.9192 -15.7616 -15.7479 -15.7414 -15.7197 -15.7152 -15.6280 -15.6063
   -15.5996 -15.5953 -15.5928  -8.4284  -7.8039  -7.3437  -3.7513  -2.7512
    -2.5438  -2.4913  -1.0705  -0.9447  -0.7294  -0.3211  -0.1432  -0.1073
    -0.0168   0.7473   0.8890   0.9810   1.0538   1.2389   1.2604   1.2686
     1.3983   1.4399   1.5556   1.5968   1.7262   1.8068   1.9845   2.0081
     2.1328   2.1855   2.3016   2.3477   2.5753   2.7460   2.7537   2.8931
     2.9394   2.9457   2.9945   3.0338   3.0499   3.1045   3.1644   3.2654
     3.3388   3.3582   3.3971   3.4332   3.6965   3.7296   3.7643   3.9526
     4.0002   4.2577   4.3651   4.5051   4.5540   4.8330   5.4500   5.6630
     6.1198   6.2181   6.3425   6.4733   6.7244   6.8435

     the Fermi energy is     1.3528 ev

!    total energy              =   -2406.84817327 Ry
     Harris-Foulkes estimate   =   -2406.84816830 Ry
     estimated scf accuracy    <       0.00000094 Ry

     The total energy is the sum of the following terms:

     one-electron contribution =  -17014.16384617 Ry
     hartree contribution      =    8523.90156041 Ry
     xc contribution           =    -445.33589301 Ry
     ewald contribution        =    6528.82299480 Ry
     electric field correction =       0.00000010 Ry
     smearing contrib. (-TS)   =      -0.07298939 Ry

     total magnetization       =    32.17 Bohr mag/cell
     absolute magnetization    =    33.83 Bohr mag/cell

     convergence has been achieved in  29 iterations

 BEEF-vdW xc energy contributions
           1 :   -392.501658432605
           2 :    358.929556297659
           3 :   -302.163715998131
           4 :    237.631002553504
           5 :   -178.953905746388
           6 :    133.534844833130
           7 :   -102.083352197427
           8 :    80.9868606329650
           9 :   -65.4489130672018
          10 :    51.7982139888942
          11 :   -38.3941842134850
          12 :    25.3740705740693
          13 :   -13.8514762722413
          14 :    5.05644959903134
          15 :   0.353802925855462
          16 :   -2.68293648159056
          17 :    3.10971603360491
          18 :   -3.10525849908862
          19 :    3.66790591797201
          20 :   -4.88597255442613
          21 :    6.11163208764685
          22 :   -6.58047835997206
          23 :    6.00995349479797
          24 :   -4.77977052797428
          25 :    3.62544980017549
          26 :   -3.12358868112005
          27 :    3.35453381118890
          28 :   -3.94887949614747
          29 :    4.41347815693098
          30 :   -4.46359364660003
          31 :   -33.5061394029553
          32 :   -24.0641977295993

     Forces acting on atoms (Ry/au):

     negative rho (up, down):  2.837E-02 3.084E-02
     atom    1 type  1   force =    -0.00000575   -0.01308097    0.00040409
     atom    2 type  1   force =    -0.01133288    0.00653419    0.00039779
     atom    3 type  1   force =     0.01134153    0.00654702    0.00039904
     atom    4 type  2   force =     0.00001703    0.00001513   -0.04594891
     atom    5 type  1   force =     0.00000697    0.00948071    0.01127874
     atom    6 type  1   force =     0.00820613   -0.00473878    0.01128036
     atom    7 type  1   force =    -0.00820898   -0.00474724    0.01128132
     atom    8 type  2   force =    -0.00001607    0.00001254    0.01038415
     atom    9 type  1   force =    -0.00000119   -0.00066080   -0.00002432
     atom   10 type  1   force =    -0.00055915    0.00032349   -0.00002717
     atom   11 type  1   force =     0.00056009    0.00032736   -0.00002726
     atom   12 type  2   force =    -0.00000774   -0.00001266    0.00060218

     Total force =     0.058192     Total SCF correction =     0.003681

     entering subroutine stress ...

     negative rho (up, down):  2.837E-02 3.084E-02
          total   stress  (Ry/bohr**3)                   (kbar)     P=    1.27
  -0.00000361   0.00000000   0.00000001         -0.53      0.00      0.00
   0.00000000  -0.00000362   0.00000001          0.00     -0.53      0.00
   0.00000001   0.00000001   0.00003319          0.00      0.00      4.88

 !ASE

     Writing output data file calc.save

     General routines

     Parallel routines

   This run was terminated on:   0:52:45  27Dec2018

   JOB DONE.
Job  /afs/slac/g/suncat/bin/suncat-tsmpirun -x LD_LIBRARY_PATH -wdir /scratch/qe110076_TXExX pw.x -in pw.inp

TID   HOST_NAME   COMMAND_LINE            STATUS            TERMINATION_TIME
00000 suncat0138 pw.x -in pw.inp   Done                     12/27/2018 00:52:45
00001 suncat0138 pw.x -in pw.inp   Done                     12/27/2018 00:52:45
00002 suncat0138 pw.x -in pw.inp   Done                     12/27/2018 00:52:45
00003 suncat0138 pw.x -in pw.inp   Done                     12/27/2018 00:52:45
00004 suncat0138 pw.x -in pw.inp   Done                     12/27/2018 00:52:45
00005 suncat0138 pw.x -in pw.inp   Done                     12/27/2018 00:52:45
00006 suncat0138 pw.x -in pw.inp   Done                     12/27/2018 00:52:45
00007 suncat0138 pw.x -in pw.inp   Done                     12/27/2018 00:52:45
00008 suncat0113 pw.x -in pw.inp   Done                     12/27/2018 00:52:45
00009 suncat0113 pw.x -in pw.inp   Done                     12/27/2018 00:52:45
00010 suncat0113 pw.x -in pw.inp   Done                     12/27/2018 00:52:45
00011 suncat0113 pw.x -in pw.inp   Done                     12/27/2018 00:52:45
00012 suncat0113 pw.x -in pw.inp   Done                     12/27/2018 00:52:45
00013 suncat0113 pw.x -in pw.inp   Done                     12/27/2018 00:52:45
00014 suncat0113 pw.x -in pw.inp   Done                     12/27/2018 00:52:45
00015 suncat0113 pw.x -in pw.inp   Done                     12/27/2018 00:52:45
00016 suncat0110 pw.x -in pw.inp   Done                     12/27/2018 00:52:45
00017 suncat0110 pw.x -in pw.inp   Done                     12/27/2018 00:52:45
00018 suncat0110 pw.x -in pw.inp   Done                     12/27/2018 00:52:45
00019 suncat0110 pw.x -in pw.inp   Done                     12/27/2018 00:52:45
00020 suncat0110 pw.x -in pw.inp   Done                     12/27/2018 00:52:45
00021 suncat0110 pw.x -in pw.inp   Done                     12/27/2018 00:52:45
00022 suncat0110 pw.x -in pw.inp   Done                     12/27/2018 00:52:45
00023 suncat0110 pw.x -in pw.inp   Done                     12/27/2018 00:52:45
00024 suncat0109 pw.x -in pw.inp   Done                     12/27/2018 00:52:45
00025 suncat0109 pw.x -in pw.inp   Done                     12/27/2018 00:52:45
00026 suncat0109 pw.x -in pw.inp   Done                     12/27/2018 00:52:45
00027 suncat0109 pw.x -in pw.inp   Done                     12/27/2018 00:52:45
00028 suncat0109 pw.x -in pw.inp   Done                     12/27/2018 00:52:45
00029 suncat0109 pw.x -in pw.inp   Done                     12/27/2018 00:52:45
00030 suncat0109 pw.x -in pw.inp   Done                     12/27/2018 00:52:45
00031 suncat0109 pw.x -in pw.inp   Done                     12/27/2018 00:52:45
00032 suncat0262 pw.x -in pw.inp   Done                     12/27/2018 00:52:45
00033 suncat0262 pw.x -in pw.inp   Done                     12/27/2018 00:52:45
00034 suncat0262 pw.x -in pw.inp   Done                     12/27/2018 00:52:45
00035 suncat0262 pw.x -in pw.inp   Done                     12/27/2018 00:52:45
00036 suncat0262 pw.x -in pw.inp   Done                     12/27/2018 00:52:45
00037 suncat0262 pw.x -in pw.inp   Done                     12/27/2018 00:52:45
00038 suncat0262 pw.x -in pw.inp   Done                     12/27/2018 00:52:45
00039 suncat0262 pw.x -in pw.inp   Done                     12/27/2018 00:52:45
00040 suncat0258 pw.x -in pw.inp   Done                     12/27/2018 00:52:45
00041 suncat0258 pw.x -in pw.inp   Done                     12/27/2018 00:52:45
00042 suncat0258 pw.x -in pw.inp   Done                     12/27/2018 00:52:45
00043 suncat0258 pw.x -in pw.inp   Done                     12/27/2018 00:52:45
00044 suncat0258 pw.x -in pw.inp   Done                     12/27/2018 00:52:45
00045 suncat0258 pw.x -in pw.inp   Done                     12/27/2018 00:52:45
00046 suncat0258 pw.x -in pw.inp   Done                     12/27/2018 00:52:45
00047 suncat0258 pw.x -in pw.inp   Done                     12/27/2018 00:52:45
00048 suncat0257 pw.x -in pw.inp   Done                     12/27/2018 00:52:45
00049 suncat0257 pw.x -in pw.inp   Done                     12/27/2018 00:52:45
00050 suncat0257 pw.x -in pw.inp   Done                     12/27/2018 00:52:45
00051 suncat0257 pw.x -in pw.inp   Done                     12/27/2018 00:52:45
00052 suncat0257 pw.x -in pw.inp   Done                     12/27/2018 00:52:45
00053 suncat0257 pw.x -in pw.inp   Done                     12/27/2018 00:52:45
00054 suncat0257 pw.x -in pw.inp   Done                     12/27/2018 00:52:45
00055 suncat0257 pw.x -in pw.inp   Done                     12/27/2018 00:52:45
00056 suncat0251 pw.x -in pw.inp   Done                     12/27/2018 00:52:45
00057 suncat0251 pw.x -in pw.inp   Done                     12/27/2018 00:52:45
00058 suncat0251 pw.x -in pw.inp   Done                     12/27/2018 00:52:45
00059 suncat0251 pw.x -in pw.inp   Done                     12/27/2018 00:52:45
00060 suncat0251 pw.x -in pw.inp   Done                     12/27/2018 00:52:45
00061 suncat0251 pw.x -in pw.inp   Done                     12/27/2018 00:52:45
00062 suncat0251 pw.x -in pw.inp   Done                     12/27/2018 00:52:45
00063 suncat0251 pw.x -in pw.inp   Done                     12/27/2018 00:52:45