     Program PWSCF v.5.1rc2 (svn rev. 11289) starts on  2Jan2019 at 20: 8:48

     Current dimensions of program PWSCF are:
     Max number of different atomic species (ntypx) = 10
     Max number of k-points (npk) =  40000
     Max angular momentum in pseudopotentials (lmaxx) =  3
     Presently stress not available with electric field

     IMPORTANT: XC functional enforced from input :
     Exchange-correlation      = BEEF-VDW ( 1  4 27 13 2)
     Any further DFT definition will be discarded
     Please, verify this is what you really want

     Subspace diagonalization in iterative solution of the eigenvalue problem:
     a serial algorithm will be used

     Generating pointlists ...
     new r_m :   0.4125 (alat units)  0.7795 (a.u.) for type    1
     new r_m :   0.4125 (alat units)  0.7795 (a.u.) for type    2

     bravais-lattice index     =            0
     lattice parameter (alat)  =       1.8897  a.u.
     unit-cell volume          =    5630.8716 (a.u.)^3
     number of atoms/cell      =           12
     number of atomic types    =            2
     number of electrons       =       153.00
     number of Kohn-Sham states=          106
     kinetic-energy cutoff     =      36.7493  Ry
     charge density cutoff     =     367.4932  Ry
     convergence threshold     =      1.0E-06
     mixing beta               =       0.1000
     number of iterations used =           10  plain     mixing
     Exchange-correlation      = BEEF-VDW ( 1  4 27 13 2)
     nstep                     =           50

     celldm(1)=   1.889726  celldm(2)=   0.000000  celldm(3)=   0.000000
     celldm(4)=   0.000000  celldm(5)=   0.000000  celldm(6)=   0.000000

     crystal axes: (cart. coord. in units of alat)
               a(1) = (   6.200288   0.000000   0.000000 )
               a(2) = (  -3.100144   5.369607   0.000000 )
               a(3) = (   0.000000   0.000000  25.062514 )

     reciprocal axes: (cart. coord. in units 2 pi/alat)
               b(1) = (  0.161283  0.093117  0.000000 )
               b(2) = (  0.000000  0.186233  0.000000 )
               b(3) = (  0.000000  0.000000  0.039900 )

     PseudoPot. # 1 for Zr read from file:
     /afs/slac.stanford.edu/u/if/mamunm/psp/gbrv1.5pbe/Zr.UPF
     MD5 check sum: 5db81b1e868ab7776c4564c113de050b
     Pseudo is Ultrasoft + core correction, Zval = 12.0
     Generated by new atomic code, or converted to UPF format
     Using radial grid of  887 points,  6 beta functions with:
                l(1) =   0
                l(2) =   0
                l(3) =   1
                l(4) =   1
                l(5) =   2
                l(6) =   2
     Q(r) pseudized with  6 coefficients,  rinner =    1.200   1.200   1.200
                                                       1.200   1.200

     PseudoPot. # 2 for Mn read from file:
     /afs/slac.stanford.edu/u/if/mamunm/psp/gbrv1.5pbe/Mn.UPF
     MD5 check sum: 82ef2b46521d7a7d9e736dc3972e4928
     Pseudo is Ultrasoft + core correction, Zval = 15.0
     Generated by new atomic code, or converted to UPF format
     Using radial grid of  859 points,  6 beta functions with:
                l(1) =   0
                l(2) =   0
                l(3) =   1
                l(4) =   1
                l(5) =   2
                l(6) =   2
     Q(r) pseudized with  8 coefficients,  rinner =    0.950   0.950   0.950
                                                       0.950   0.950

     vdW kernel table read from file vdW_kernel_table
     MD5 check sum: 095c7af220d748ca6e76c0b4c6cfb241

     atomic species   valence    mass     pseudopotential
        Zr1           12.00    91.22400     Zr( 1.00)
        Mn1           15.00    54.93804     Mn( 1.00)

     Starting magnetic structure
     atomic species   magnetization
        Zr1          0.167
        Mn1          0.133

     No symmetry found

   Cartesian axes

     site n.     atom                  positions (alat units)
         1           Zr1 tau(   1) = (   0.0000000   0.0000000  10.0000000  )
         2           Zr1 tau(   2) = (  -1.5500721   2.6848036  10.0000000  )
         3           Zr1 tau(   3) = (   1.5500721   2.6848036  10.0000000  )
         4           Mn1 tau(   4) = (   3.1001441   0.0000000  10.0000000  )
         5           Zr1 tau(   5) = (   3.1001441   1.7898690  12.5312571  )
         6           Zr1 tau(   6) = (   1.5500721   4.4746726  12.5312571  )
         7           Zr1 tau(   7) = (  -1.5500721   4.4746726  12.5312571  )
         8           Mn1 tau(   8) = (   0.0000000   1.7898690  12.5312571  )
         9           Zr1 tau(   9) = (  -0.0000000   3.5797381  15.0625141  )
        10           Zr1 tau(  10) = (   1.5500721   0.8949345  15.0625141  )
        11           Zr1 tau(  11) = (   4.6502162   0.8949345  15.0625141  )
        12           Mn1 tau(  12) = (   3.1001441   3.5797381  15.0625141  )

     number of k points=    40  Fermi-Dirac smearing, width (Ry)=  0.0110
                       cart. coord. in units 2pi/alat
        k(    1) = (   0.0000000   0.0000000   0.0000000), wk =   0.0277778
        k(    2) = (   0.0000000   0.0310389   0.0000000), wk =   0.0555556
        k(    3) = (   0.0000000   0.0620778   0.0000000), wk =   0.0555556
        k(    4) = (   0.0000000  -0.0931167   0.0000000), wk =   0.0277778
        k(    5) = (   0.0268805   0.0155194   0.0000000), wk =   0.0555556
        k(    6) = (   0.0268805   0.0465583   0.0000000), wk =   0.0555556
        k(    7) = (   0.0268805   0.0775972   0.0000000), wk =   0.0555556
        k(    8) = (   0.0268805  -0.0775972   0.0000000), wk =   0.0555556
        k(    9) = (   0.0268805  -0.0465583   0.0000000), wk =   0.0555556
        k(   10) = (   0.0268805  -0.0155194   0.0000000), wk =   0.0555556
        k(   11) = (   0.0537609   0.0310389   0.0000000), wk =   0.0555556
        k(   12) = (   0.0537609   0.0620778   0.0000000), wk =   0.0555556
        k(   13) = (   0.0537609   0.0931167   0.0000000), wk =   0.0555556
        k(   14) = (   0.0537609  -0.0620778   0.0000000), wk =   0.0555556
        k(   15) = (   0.0537609  -0.0310389   0.0000000), wk =   0.0555556
        k(   16) = (   0.0537609   0.0000000   0.0000000), wk =   0.0555556
        k(   17) = (  -0.0806414  -0.0465583   0.0000000), wk =   0.0277778
        k(   18) = (  -0.0806414  -0.0155194   0.0000000), wk =   0.0555556
        k(   19) = (  -0.0806414   0.0155194   0.0000000), wk =   0.0555556
        k(   20) = (  -0.0806414  -0.1396750   0.0000000), wk =   0.0277778
        k(   21) = (   0.0000000   0.0000000   0.0000000), wk =   0.0277778
        k(   22) = (   0.0000000   0.0310389   0.0000000), wk =   0.0555556
        k(   23) = (   0.0000000   0.0620778   0.0000000), wk =   0.0555556
        k(   24) = (   0.0000000  -0.0931167   0.0000000), wk =   0.0277778
        k(   25) = (   0.0268805   0.0155194   0.0000000), wk =   0.0555556
        k(   26) = (   0.0268805   0.0465583   0.0000000), wk =   0.0555556
        k(   27) = (   0.0268805   0.0775972   0.0000000), wk =   0.0555556
        k(   28) = (   0.0268805  -0.0775972   0.0000000), wk =   0.0555556
        k(   29) = (   0.0268805  -0.0465583   0.0000000), wk =   0.0555556
        k(   30) = (   0.0268805  -0.0155194   0.0000000), wk =   0.0555556
        k(   31) = (   0.0537609   0.0310389   0.0000000), wk =   0.0555556
        k(   32) = (   0.0537609   0.0620778   0.0000000), wk =   0.0555556
        k(   33) = (   0.0537609   0.0931167   0.0000000), wk =   0.0555556
        k(   34) = (   0.0537609  -0.0620778   0.0000000), wk =   0.0555556
        k(   35) = (   0.0537609  -0.0310389   0.0000000), wk =   0.0555556
        k(   36) = (   0.0537609   0.0000000   0.0000000), wk =   0.0555556
        k(   37) = (  -0.0806414  -0.0465583   0.0000000), wk =   0.0277778
        k(   38) = (  -0.0806414  -0.0155194   0.0000000), wk =   0.0555556
        k(   39) = (  -0.0806414   0.0155194   0.0000000), wk =   0.0555556
        k(   40) = (  -0.0806414  -0.1396750   0.0000000), wk =   0.0277778

     Largest allocated arrays     est. size (Mb)     dimensions
     Largest temporary arrays     est. size (Mb)     dimensions

     Check: negative/imaginary core charge=   -0.000003    0.000000

     Initial potential from superposition of free atoms
     Check: negative starting charge=(component1):   -0.323790
     Check: negative starting charge=(component2):   -0.231301

     starting charge  151.48040, renormalised to  153.00000

     negative rho (up, down):  3.270E-01 2.336E-01

     *
     * You are using vdW-DF for exchange-correlation in this calculation.
     * Please cite the following three references that made this development
     * possible:
     *
     *   M. Dion, H. Rydberg, E. Schroder, D. C. Langreth, and
     *   B. I. Lundqvist, Phys. Rev. Lett. 92, 246401 (2004).
     *
     *   T. Thonhauser, V. R. Cooper, S. Li, A. Puzder, P. Hyldgaard, and
     *   D. C. Langreth, Phys. Rev. B 76, 125112 (2007).
     *
     *   G. Roman-Perez and J. M. Soler, Phys. Rev. Lett. 103, 096102 (2009).
     *
     *
     * If you are using vdW-DF2, please also cite:
     *
     *   K. Lee, E. D. Murray, L. Kong, B. I. Lundqvist, and
     *   D. C. Langreth, Phys. Rev. B 82, 081101(R) (2010).
     *
     *
     * If you are calculating the stress with vdW-DF, please also cite:
     *
     *   R. Sabatini, E. Kucukbenli, B. Kolb, T. Thonhauser, and
     *   S. de Gironcoli, J. Phys.: Condens. Matter 24, 424209 (2012).
     *

     Carrying out vdW-DF run using the following parameters:

     Nqs =      20    Nr_points =    1024   r_max =   100.000
     q_mesh =
               0.00001000     0.04494208     0.09755937     0.15916263
               0.23128650     0.31572767     0.41458969     0.53033537
               0.66584808     0.82450364     1.01025438     1.22772762
               1.48234092     1.78043706     2.12944203     2.53805004
               3.01644009     3.57652955     4.23227104     5.00000000

     Gradients computed in reciprocal space

     Adding external electric field

     Computed dipole along edir(3) :
        Dipole                0.0000 Ry au,          0.0000 Debye
        Dipole field          0.0000 Ry au

        Potential amp.       -0.0000 Ry
        Total length         46.1773 bohr

[...]

     Starting wfc are  156 randomized atomic wfcs

     Self-consistent Calculation

     iteration #  1     ecut=    36.75 Ry     beta=0.10
     Davidson diagonalization with overlap
     ethr =  1.00E-02,  avg # of iterations =  2.0

[...]

     Magnetic moment per site:
     atom:    1    charge:    1.1159    magn:    0.1703    constr:    0.0000
     atom:    2    charge:    1.1159    magn:    0.1703    constr:    0.0000
     atom:    3    charge:    1.1159    magn:    0.1703    constr:    0.0000
     atom:    4    charge:    6.0468    magn:    0.8164    constr:    0.0000
     atom:    5    charge:    1.1283    magn:    0.1720    constr:    0.0000
     atom:    6    charge:    1.1283    magn:    0.1720    constr:    0.0000
     atom:    7    charge:    1.1284    magn:    0.1719    constr:    0.0000
     atom:    8    charge:    6.0785    magn:    0.7938    constr:    0.0000
[...]
        k(    1) = (   0.0000000   0.0000000   0.0000000), wk =   0.0277778
        k(    2) = (   0.0000000   0.0310389   0.0000000), wk =   0.0555556
        k(    3) = (   0.0000000   0.0620778   0.0000000), wk =   0.0555556
        k(    4) = (   0.0000000  -0.0931167   0.0000000), wk =   0.0277778
        k(    5) = (   0.0268805   0.0155194   0.0000000), wk =   0.0555556
        k(    6) = (   0.0268805   0.0465583   0.0000000), wk =   0.0555556
        k(    7) = (   0.0268805   0.0775972   0.0000000), wk =   0.0555556
        k(    8) = (   0.0268805  -0.0775972   0.0000000), wk =   0.0555556
        k(    9) = (   0.0268805  -0.0465583   0.0000000), wk =   0.0555556
        k(   10) = (   0.0268805  -0.0155194   0.0000000), wk =   0.0555556
        k(   11) = (   0.0537609   0.0310389   0.0000000), wk =   0.0555556
        k(   12) = (   0.0537609   0.0620778   0.0000000), wk =   0.0555556
        k(   13) = (   0.0537609   0.0931167   0.0000000), wk =   0.0555556
        k(   14) = (   0.0537609  -0.0620778   0.0000000), wk =   0.0555556
        k(   15) = (   0.0537609  -0.0310389   0.0000000), wk =   0.0555556
        k(   16) = (   0.0537609   0.0000000   0.0000000), wk =   0.0555556
        k(   17) = (  -0.0806414  -0.0465583   0.0000000), wk =   0.0277778
        k(   18) = (  -0.0806414  -0.0155194   0.0000000), wk =   0.0555556
        k(   19) = (  -0.0806414   0.0155194   0.0000000), wk =   0.0555556
        k(   20) = (  -0.0806414  -0.1396750   0.0000000), wk =   0.0277778
        k(   21) = (   0.0000000   0.0000000   0.0000000), wk =   0.0277778
        k(   22) = (   0.0000000   0.0310389   0.0000000), wk =   0.0555556
        k(   23) = (   0.0000000   0.0620778   0.0000000), wk =   0.0555556
        k(   24) = (   0.0000000  -0.0931167   0.0000000), wk =   0.0277778
        k(   25) = (   0.0268805   0.0155194   0.0000000), wk =   0.0555556
        k(   26) = (   0.0268805   0.0465583   0.0000000), wk =   0.0555556
        k(   27) = (   0.0268805   0.0775972   0.0000000), wk =   0.0555556
        k(   28) = (   0.0268805  -0.0775972   0.0000000), wk =   0.0555556
        k(   29) = (   0.0268805  -0.0465583   0.0000000), wk =   0.0555556
        k(   30) = (   0.0268805  -0.0155194   0.0000000), wk =   0.0555556
        k(   31) = (   0.0537609   0.0310389   0.0000000), wk =   0.0555556
        k(   32) = (   0.0537609   0.0620778   0.0000000), wk =   0.0555556
        k(   33) = (   0.0537609   0.0931167   0.0000000), wk =   0.0555556
        k(   34) = (   0.0537609  -0.0620778   0.0000000), wk =   0.0555556
        k(   35) = (   0.0537609  -0.0310389   0.0000000), wk =   0.0555556
        k(   36) = (   0.0537609   0.0000000   0.0000000), wk =   0.0555556
        k(   37) = (  -0.0806414  -0.0465583   0.0000000), wk =   0.0277778
        k(   38) = (  -0.0806414  -0.0155194   0.0000000), wk =   0.0555556
        k(   39) = (  -0.0806414   0.0155194   0.0000000), wk =   0.0555556
        k(   40) = (  -0.0806414  -0.1396750   0.0000000), wk =   0.0277778

     Largest allocated arrays     est. size (Mb)     dimensions
     Largest temporary arrays     est. size (Mb)     dimensions

     Check: negative/imaginary core charge=   -0.000003    0.000000

     Initial potential from superposition of free atoms
     Check: negative starting charge=(component1):   -0.322439
     Check: negative starting charge=(component2):   -0.230335

     starting charge  151.48040, renormalised to  153.00000

[...]

     *
     * You are using vdW-DF for exchange-correlation in this calculation.
     * Please cite the following three references that made this development
     * possible:
     *
     *   M. Dion, H. Rydberg, E. Schroder, D. C. Langreth, and
     *   B. I. Lundqvist, Phys. Rev. Lett. 92, 246401 (2004).
     *
     *   T. Thonhauser, V. R. Cooper, S. Li, A. Puzder, P. Hyldgaard, and
     *   D. C. Langreth, Phys. Rev. B 76, 125112 (2007).
     *
     *   G. Roman-Perez and J. M. Soler, Phys. Rev. Lett. 103, 096102 (2009).
     *
     *
     * If you are using vdW-DF2, please also cite:
     *
     *   K. Lee, E. D. Murray, L. Kong, B. I. Lundqvist, and
     *   D. C. Langreth, Phys. Rev. B 82, 081101(R) (2010).
     *
     *
     * If you are calculating the stress with vdW-DF, please also cite:
     *
     *   R. Sabatini, E. Kucukbenli, B. Kolb, T. Thonhauser, and
     *   S. de Gironcoli, J. Phys.: Condens. Matter 24, 424209 (2012).
     *

     Carrying out vdW-DF run using the following parameters:

     Nqs =      20    Nr_points =    1024   r_max =   100.000
     q_mesh =
               0.00001000     0.04494208     0.09755937     0.15916263
               0.23128650     0.31572767     0.41458969     0.53033537
               0.66584808     0.82450364     1.01025438     1.22772762
               1.48234092     1.78043706     2.12944203     2.53805004
               3.01644009     3.57652955     4.23227104     5.00000000

     Gradients computed in reciprocal space

[...]

     Starting wfc are  156 randomized atomic wfcs

     Self-consistent Calculation

[...]

     total energy              =   -1533.92358843 Ry
     Harris-Foulkes estimate   =   -1533.92358566 Ry
     estimated scf accuracy    <       0.00000140 Ry

[...]

     iteration # 34     ecut=    36.75 Ry     beta=0.10
     Davidson diagonalization with overlap
     ethr =  9.13E-10,  avg # of iterations =  4.0

[...]

     negative rho (up, down):  2.835E-01 2.808E-01

[...]

     Adding external electric field

     Computed dipole along edir(3) :
        Dipole                0.0198 Ry au,          0.0504 Debye
        Dipole field          0.0000 Ry au

        Potential amp.       -0.0041 Ry
        Total length         46.1773 bohr

     Magnetic moment per site:
     atom:    1    charge:    1.1058    magn:   -0.0071    constr:    0.0000
     atom:    2    charge:    1.1058    magn:   -0.0071    constr:    0.0000
     atom:    3    charge:    1.1058    magn:   -0.0071    constr:    0.0000
     atom:    4    charge:    6.0043    magn:    1.4853    constr:    0.0000
     atom:    5    charge:    1.1143    magn:   -0.0037    constr:    0.0000
     atom:    6    charge:    1.1143    magn:   -0.0037    constr:    0.0000
     atom:    7    charge:    1.1143    magn:   -0.0037    constr:    0.0000
     atom:    8    charge:    6.0057    magn:    1.3588    constr:    0.0000
     atom:    9    charge:    1.1061    magn:   -0.0059    constr:    0.0000
     atom:   10    charge:    1.1061    magn:   -0.0059    constr:    0.0000
     atom:   11    charge:    1.1061    magn:   -0.0059    constr:    0.0000
     atom:   12    charge:    6.0011    magn:    1.4520    constr:    0.0000

     End of self-consistent calculation

 ------ SPIN UP ------------

[...]

 ------ SPIN DOWN ----------

[...]

          k = 0.0538 0.0000 0.0000 ( 21171 PWs)   bands (ev):

[...]

          k =-0.0806-0.1397 0.0000 ( 21196 PWs)   bands (ev):

   -75.9694 -75.9532 -75.9428 -47.8735 -47.8400 -47.8344 -47.8061 -47.7849
   -47.7542 -47.4776 -47.4465 -47.4143 -44.7476 -44.7337 -44.7261 -44.7259
   -44.7182 -44.7179 -44.7176 -44.7173 -44.7116 -26.1583 -26.1072 -26.0874
   -26.0148 -26.0024 -25.9542 -25.9145 -25.8990 -25.8910 -25.8608 -25.8565
   -25.8257 -25.7882 -25.7811 -25.7269 -25.7268 -25.6891 -25.4865 -25.4745
   -25.4285 -25.4236 -25.3932 -25.3367 -25.3139 -25.2919 -25.2799 -25.1079
    -2.4555  -2.4389  -1.4469  -1.3362  -0.9710  -0.7805  -0.6167  -0.4561
    -0.1846  -0.1570  -0.0009   0.1839   0.2986   0.4631   0.5093   0.5296
     0.5606   0.6332   0.7451   0.8239   0.9687   1.0465   1.1348   1.1868
     1.2107   1.2950   1.3247   1.4017   1.5325   1.5964   1.6616   1.7768
     2.0101   2.0170   2.0969   2.1972   2.1984   2.2620   2.5603   2.6500
     2.7568   2.9511   2.9939   3.0786   3.0998   3.1996   3.2594   3.3583
     3.4723   3.6476   3.7836   3.8447   3.9743   4.0824   4.2045   4.3851
     4.4069   4.4323

     the Fermi energy is     1.3413 ev

!    total energy              =   -1533.92359777 Ry
     Harris-Foulkes estimate   =   -1533.92359326 Ry
     estimated scf accuracy    <       0.00000069 Ry

     The total energy is the sum of the following terms:

     one-electron contribution =  -10483.90185780 Ry
     hartree contribution      =    5233.90772442 Ry
     xc contribution           =    -248.39948591 Ry
     ewald contribution        =    3964.57489156 Ry
     electric field correction =       0.00000088 Ry
     smearing contrib. (-TS)   =      -0.10487091 Ry

     total magnetization       =     9.33 Bohr mag/cell
     absolute magnetization    =    14.05 Bohr mag/cell

     convergence has been achieved in  34 iterations

 BEEF-vdW xc energy contributions
           1 :   -214.212119781041
           2 :    193.744004197932
           3 :   -159.476941973789
           4 :    121.316394492942
           5 :   -87.9043441004404
           6 :    63.6204652778430
           7 :   -48.2377934595905
           8 :    38.6598219745258
           9 :   -31.2890153343309
          10 :    23.7707407412035
          11 :   -15.5912906728766
          12 :    7.65851779104565
          13 :   -1.34772752894554
          14 :   -2.43262400133801
          15 :    3.73337249365886
          16 :   -3.46893612819974
          17 :    2.87452820357964
          18 :   -2.84980872985375
          19 :    3.54824004941042
          20 :   -4.43246691691621
          21 :    4.74481912863541
          22 :   -4.07912458521065
          23 :    2.66707282378846
          24 :   -1.20243469020454
          25 :   0.363623102190616
          26 :  -0.395036493866712
          27 :    1.01901970477294
          28 :   -1.68503959328598
          29 :    1.93990195672569
          30 :   -1.67132295026073
          31 :   -22.8782014252689
          32 :   -16.8009952776626

     Forces acting on atoms (Ry/au):

     negative rho (up, down):  2.835E-01 2.808E-01
     atom    1 type  1   force =     0.00000063    0.01613431    0.00649658
     atom    2 type  1   force =     0.01397244   -0.00806721    0.00649611
     atom    3 type  1   force =    -0.01397229   -0.00806790    0.00649640
     atom    4 type  2   force =     0.00000061   -0.00000034    0.01248259
     atom    5 type  1   force =     0.00000070    0.00048851   -0.00779419
     atom    6 type  1   force =     0.00042316   -0.00024430   -0.00779457
     atom    7 type  1   force =    -0.00042367   -0.00024494   -0.00779564
     atom    8 type  2   force =     0.00000001   -0.00000032   -0.00827961
     atom    9 type  1   force =    -0.00000059    0.00015913    0.00017507
     atom   10 type  1   force =     0.00013817   -0.00007913    0.00017618
     atom   11 type  1   force =    -0.00013885   -0.00007859    0.00017535
     atom   12 type  2   force =    -0.00000032    0.00000078   -0.00083426

     Total force =     0.036274     Total SCF correction =     0.002040

     entering subroutine stress ...

     negative rho (up, down):  2.835E-01 2.808E-01
          total   stress  (Ry/bohr**3)                   (kbar)     P=   -7.47
  -0.00006140  -0.00000000  -0.00000000         -9.03     -0.00     -0.00
  -0.00000000  -0.00006140   0.00000000         -0.00     -9.03      0.00
  -0.00000000   0.00000000  -0.00002955         -0.00      0.00     -4.35

 !ASE

     Writing output data file calc.save

     General routines

     Parallel routines

   This run was terminated on:   1:15:58   3Jan2019

   JOB DONE.
Job  /afs/slac/g/suncat/bin/suncat-tsmpirun -x LD_LIBRARY_PATH -wdir /scratch/qe649548_smzgv pw.x -in pw.inp

TID   HOST_NAME   COMMAND_LINE            STATUS            TERMINATION_TIME
00000 suncat0047 pw.x -in pw.inp   Done                     01/03/2019 01:15:58
00001 suncat0047 pw.x -in pw.inp   Done                     01/03/2019 01:15:58
00002 suncat0047 pw.x -in pw.inp   Done                     01/03/2019 01:15:58
00003 suncat0047 pw.x -in pw.inp   Done                     01/03/2019 01:15:58
00004 suncat0047 pw.x -in pw.inp   Done                     01/03/2019 01:15:58
00005 suncat0047 pw.x -in pw.inp   Done                     01/03/2019 01:15:58
00006 suncat0047 pw.x -in pw.inp   Done                     01/03/2019 01:15:58
00007 suncat0047 pw.x -in pw.inp   Done                     01/03/2019 01:15:58
00008 suncat0141 pw.x -in pw.inp   Done                     01/03/2019 01:15:58
00009 suncat0141 pw.x -in pw.inp   Done                     01/03/2019 01:15:58
00010 suncat0141 pw.x -in pw.inp   Done                     01/03/2019 01:15:58
00011 suncat0141 pw.x -in pw.inp   Done                     01/03/2019 01:15:58
00012 suncat0141 pw.x -in pw.inp   Done                     01/03/2019 01:15:58
00013 suncat0141 pw.x -in pw.inp   Done                     01/03/2019 01:15:58
00014 suncat0141 pw.x -in pw.inp   Done                     01/03/2019 01:15:58
00015 suncat0141 pw.x -in pw.inp   Done                     01/03/2019 01:15:58
00016 suncat0140 pw.x -in pw.inp   Done                     01/03/2019 01:15:58
00017 suncat0140 pw.x -in pw.inp   Done                     01/03/2019 01:15:58
00018 suncat0140 pw.x -in pw.inp   Done                     01/03/2019 01:15:58
00019 suncat0140 pw.x -in pw.inp   Done                     01/03/2019 01:15:58
00020 suncat0140 pw.x -in pw.inp   Done                     01/03/2019 01:15:58
00021 suncat0140 pw.x -in pw.inp   Done                     01/03/2019 01:15:58
00022 suncat0140 pw.x -in pw.inp   Done                     01/03/2019 01:15:58
00023 suncat0140 pw.x -in pw.inp   Done                     01/03/2019 01:15:58
00024 suncat0135 pw.x -in pw.inp   Done                     01/03/2019 01:15:58
00025 suncat0135 pw.x -in pw.inp   Done                     01/03/2019 01:15:58
00026 suncat0135 pw.x -in pw.inp   Done                     01/03/2019 01:15:58
00027 suncat0135 pw.x -in pw.inp   Done                     01/03/2019 01:15:58
00028 suncat0135 pw.x -in pw.inp   Done                     01/03/2019 01:15:58
00029 suncat0135 pw.x -in pw.inp   Done                     01/03/2019 01:15:58
00030 suncat0135 pw.x -in pw.inp   Done                     01/03/2019 01:15:58
00031 suncat0135 pw.x -in pw.inp   Done                     01/03/2019 01:15:58
00032 suncat0134 pw.x -in pw.inp   Done                     01/03/2019 01:15:58
00033 suncat0134 pw.x -in pw.inp   Done                     01/03/2019 01:15:58
00034 suncat0134 pw.x -in pw.inp   Done                     01/03/2019 01:15:58
00035 suncat0134 pw.x -in pw.inp   Done                     01/03/2019 01:15:58
00036 suncat0134 pw.x -in pw.inp   Done                     01/03/2019 01:15:58
00037 suncat0134 pw.x -in pw.inp   Done                     01/03/2019 01:15:58
00038 suncat0134 pw.x -in pw.inp   Done                     01/03/2019 01:15:58
00039 suncat0134 pw.x -in pw.inp   Done                     01/03/2019 01:15:58
00040 suncat0121 pw.x -in pw.inp   Done                     01/03/2019 01:15:58
00041 suncat0121 pw.x -in pw.inp   Done                     01/03/2019 01:15:58
00042 suncat0121 pw.x -in pw.inp   Done                     01/03/2019 01:15:58
00043 suncat0121 pw.x -in pw.inp   Done                     01/03/2019 01:15:58
00044 suncat0121 pw.x -in pw.inp   Done                     01/03/2019 01:15:58
00045 suncat0121 pw.x -in pw.inp   Done                     01/03/2019 01:15:58
00046 suncat0121 pw.x -in pw.inp   Done                     01/03/2019 01:15:58
00047 suncat0121 pw.x -in pw.inp   Done                     01/03/2019 01:15:58
00048 suncat0115 pw.x -in pw.inp   Done                     01/03/2019 01:15:58
00049 suncat0115 pw.x -in pw.inp   Done                     01/03/2019 01:15:58
00050 suncat0115 pw.x -in pw.inp   Done                     01/03/2019 01:15:58
00051 suncat0115 pw.x -in pw.inp   Done                     01/03/2019 01:15:58
00052 suncat0115 pw.x -in pw.inp   Done                     01/03/2019 01:15:58
00053 suncat0115 pw.x -in pw.inp   Done                     01/03/2019 01:15:58
00054 suncat0115 pw.x -in pw.inp   Done                     01/03/2019 01:15:58
00055 suncat0115 pw.x -in pw.inp   Done                     01/03/2019 01:15:58
00056 suncat0272 pw.x -in pw.inp   Done                     01/03/2019 01:15:58
00057 suncat0272 pw.x -in pw.inp   Done                     01/03/2019 01:15:58
00058 suncat0272 pw.x -in pw.inp   Done                     01/03/2019 01:15:58
00059 suncat0272 pw.x -in pw.inp   Done                     01/03/2019 01:15:58
00060 suncat0272 pw.x -in pw.inp   Done                     01/03/2019 01:15:58
00061 suncat0272 pw.x -in pw.inp   Done                     01/03/2019 01:15:58
00062 suncat0272 pw.x -in pw.inp   Done                     01/03/2019 01:15:58
00063 suncat0272 pw.x -in pw.inp   Done                     01/03/2019 01:15:58