     Program PWSCF v.5.1rc2 (svn rev. 11289) starts on  2Jan2019 at  0:51:20

     Current dimensions of program PWSCF are:
     Max number of different atomic species (ntypx) = 10
     Max number of k-points (npk) =  40000
     Max angular momentum in pseudopotentials (lmaxx) =  3
     Presently stress not available with electric field

     IMPORTANT: XC functional enforced from input :
     Exchange-correlation      = BEEF-VDW ( 1  4 27 13 2)
     Any further DFT definition will be discarded
     Please, verify this is what you really want

     Subspace diagonalization in iterative solution of the eigenvalue problem:
     a serial algorithm will be used

     bravais-lattice index     =            0
     lattice parameter (alat)  =       1.8897  a.u.
     unit-cell volume          =    7596.6903 (a.u.)^3
     number of atoms/cell      =           12
     number of atomic types    =            2
     number of electrons       =       153.00
     number of Kohn-Sham states=          106
     kinetic-energy cutoff     =      36.7493  Ry
     charge density cutoff     =     367.4932  Ry
     convergence threshold     =      1.0E-06
     mixing beta               =       0.1000
     number of iterations used =           10  plain     mixing
     Exchange-correlation      = BEEF-VDW ( 1  4 27 13 2)
     nstep                     =           50

     celldm(1)=   1.889726  celldm(2)=   0.000000  celldm(3)=   0.000000
     celldm(4)=   0.000000  celldm(5)=   0.000000  celldm(6)=   0.000000

     crystal axes: (cart. coord. in units of alat)
               a(1) = (   7.098598   0.000000   0.000000 )
               a(2) = (  -3.549299   6.147566   0.000000 )
               a(3) = (   0.000000   0.000000  25.795981 )

     reciprocal axes: (cart. coord. in units 2 pi/alat)
               b(1) = (  0.140873  0.081333  0.000000 )
               b(2) = (  0.000000  0.162666  0.000000 )
               b(3) = (  0.000000  0.000000  0.038766 )

     PseudoPot. # 1 for Tl read from file:
     /afs/slac.stanford.edu/u/if/mamunm/psp/gbrv1.5pbe/Tl.UPF
     MD5 check sum: b76cf1f7e72655a2b2c53cf6385d7059
     Pseudo is Ultrasoft + core correction, Zval = 13.0
     Generated by new atomic code, or converted to UPF format
     Using radial grid of  899 points,  6 beta functions with:
                l(1) =   0
                l(2) =   0
                l(3) =   1
                l(4) =   1
                l(5) =   2
                l(6) =   2
     Q(r) pseudized with  6 coefficients,  rinner =    1.100   1.100   1.100
                                                       1.100   1.100

     PseudoPot. # 2 for Hg read from file:
     /afs/slac.stanford.edu/u/if/mamunm/psp/gbrv1.5pbe/Hg.UPF
     MD5 check sum: 8f42caffe07f7fd9c0a564347f8c5498
     Pseudo is Ultrasoft + core correction, Zval = 12.0
     Generated by new atomic code, or converted to UPF format
     Using radial grid of  985 points,  6 beta functions with:
                l(1) =   0
                l(2) =   0
                l(3) =   1
                l(4) =   1
                l(5) =   2
                l(6) =   2
     Q(r) pseudized with  8 coefficients,  rinner =    2.000   2.000   2.000
                                                       2.000   2.000

     vdW kernel table read from file vdW_kernel_table
     MD5 check sum: 095c7af220d748ca6e76c0b4c6cfb241

     atomic species   valence    mass     pseudopotential
        Tl1           13.00   204.38000     Tl( 1.00)
        Hg1           12.00   200.59200     Hg( 1.00)

     No symmetry found

   Cartesian axes

     site n.     atom                  positions (alat units)
         1           Tl1 tau(   1) = (   0.0000000   0.0000000  10.0000000  )
         2           Tl1 tau(   2) = (  -1.7746495   3.0737830  10.0000000  )
         3           Tl1 tau(   3) = (   1.7746495   3.0737830  10.0000000  )
         4           Hg1 tau(   4) = (   3.5492989   0.0000000  10.0000000  )
         5           Tl1 tau(   5) = (   3.5492989   2.0491887  12.8979904  )
         6           Tl1 tau(   6) = (   1.7746495   5.1229717  12.8979904  )
         7           Tl1 tau(   7) = (  -1.7746495   5.1229717  12.8979904  )
         8           Hg1 tau(   8) = (   0.0000000   2.0491887  12.8979904  )
         9           Tl1 tau(   9) = (  -0.0000000   4.0983774  15.7959809  )
        10           Tl1 tau(  10) = (   1.7746495   1.0245943  15.7959809  )
        11           Tl1 tau(  11) = (   5.3239484   1.0245943  15.7959809  )
        12           Hg1 tau(  12) = (   3.5492989   4.0983774  15.7959809  )

     number of k points=    20  Fermi-Dirac smearing, width (Ry)=  0.0110
                       cart. coord. in units 2pi/alat
        k(    1) = (   0.0000000   0.0000000   0.0000000), wk =   0.0555556
        k(    2) = (   0.0000000   0.0271110   0.0000000), wk =   0.1111111
        k(    3) = (   0.0000000   0.0542220   0.0000000), wk =   0.1111111
        k(    4) = (   0.0000000  -0.0813330   0.0000000), wk =   0.0555556
        k(    5) = (   0.0234788   0.0135555   0.0000000), wk =   0.1111111
        k(    6) = (   0.0234788   0.0406665   0.0000000), wk =   0.1111111
        k(    7) = (   0.0234788   0.0677775   0.0000000), wk =   0.1111111
        k(    8) = (   0.0234788  -0.0677775   0.0000000), wk =   0.1111111
        k(    9) = (   0.0234788  -0.0406665   0.0000000), wk =   0.1111111
        k(   10) = (   0.0234788  -0.0135555   0.0000000), wk =   0.1111111
        k(   11) = (   0.0469576   0.0271110   0.0000000), wk =   0.1111111
        k(   12) = (   0.0469576   0.0542220   0.0000000), wk =   0.1111111
        k(   13) = (   0.0469576   0.0813330   0.0000000), wk =   0.1111111
        k(   14) = (   0.0469576  -0.0542220   0.0000000), wk =   0.1111111
        k(   15) = (   0.0469576  -0.0271110   0.0000000), wk =   0.1111111
        k(   16) = (   0.0469576   0.0000000   0.0000000), wk =   0.1111111
        k(   17) = (  -0.0704364  -0.0406665   0.0000000), wk =   0.0555556
        k(   18) = (  -0.0704364  -0.0135555   0.0000000), wk =   0.1111111
        k(   19) = (  -0.0704364   0.0135555   0.0000000), wk =   0.1111111
        k(   20) = (  -0.0704364  -0.1219995   0.0000000), wk =   0.0555556

     Largest allocated arrays     est. size (Mb)     dimensions
     Largest temporary arrays     est. size (Mb)     dimensions

     Check: negative/imaginary core charge=   -0.000001    0.000000

     Initial potential from superposition of free atoms
     Check: negative starting charge=   -0.458183

     starting charge  152.95603, renormalised to  153.00000

     negative rho (up, down):  4.583E-01 0.000E+00

     *
     * You are using vdW-DF for exchange-correlation in this calculation.
     * Please cite the following three references that made this development
     * possible:
     *
     *   M. Dion, H. Rydberg, E. Schroder, D. C. Langreth, and
     *   B. I. Lundqvist, Phys. Rev. Lett. 92, 246401 (2004).
     *
     *   T. Thonhauser, V. R. Cooper, S. Li, A. Puzder, P. Hyldgaard, and
     *   D. C. Langreth, Phys. Rev. B 76, 125112 (2007).
     *
     *   G. Roman-Perez and J. M. Soler, Phys. Rev. Lett. 103, 096102 (2009).
     *
     *
     * If you are using vdW-DF2, please also cite:
     *
     *   K. Lee, E. D. Murray, L. Kong, B. I. Lundqvist, and
     *   D. C. Langreth, Phys. Rev. B 82, 081101(R) (2010).
     *
     *
     * If you are calculating the stress with vdW-DF, please also cite:
     *
     *   R. Sabatini, E. Kucukbenli, B. Kolb, T. Thonhauser, and
     *   S. de Gironcoli, J. Phys.: Condens. Matter 24, 424209 (2012).
     *

     Carrying out vdW-DF run using the following parameters:

     Nqs =      20    Nr_points =    1024   r_max =   100.000
     q_mesh =
               0.00001000     0.04494208     0.09755937     0.15916263
               0.23128650     0.31572767     0.41458969     0.53033537
               0.66584808     0.82450364     1.01025438     1.22772762
               1.48234092     1.78043706     2.12944203     2.53805004
               3.01644009     3.57652955     4.23227104     5.00000000

     Gradients computed in reciprocal space

     Adding external electric field

     Computed dipole along edir(3) :
        Dipole                0.0000 Ry au,          0.0000 Debye
        Dipole field          0.0000 Ry au

        Potential amp.       -0.0000 Ry
        Total length         47.5287 bohr

     Starting wfc are  108 randomized atomic wfcs

     Self-consistent Calculation

     iteration #  1     ecut=    36.75 Ry     beta=0.10
     Davidson diagonalization with overlap
     ethr =  1.00E-02,  avg # of iterations =  8.5

     Threshold (ethr) on eigenvalues was too large:
     Diagonalizing with lowered threshold

     Davidson diagonalization with overlap
     ethr =  5.93E-05,  avg # of iterations =  8.0

[...]

     total energy              =   -1648.53199049 Ry
     Harris-Foulkes estimate   =   -1648.54512786 Ry
     estimated scf accuracy    <       0.09332698 Ry

[...]

     iteration #  3     ecut=    36.75 Ry     beta=0.10
     Davidson diagonalization with overlap
     c_bands:  1 eigenvalues not converged
     ethr =  2.24E-05,  avg # of iterations =  8.4

[...]

     End of self-consistent calculation

          k = 0.0000 0.0000 0.0000 ( 28529 PWs)   bands (ev):

   -11.6468 -11.6294 -11.6192 -11.6192 -11.5952 -11.5771 -11.5771 -11.5413
   -11.5336 -11.5076 -11.5075 -11.4997 -11.4978 -11.4977 -11.4734 -11.4485
   -11.4484 -11.4434 -11.4431 -11.4431 -11.3523 -11.3523 -11.3511 -11.3471
   -11.3422 -11.3422 -11.3167 -11.3102 -11.3102 -11.2941 -11.2941 -11.2576
   -11.2574 -11.2454 -11.2454 -11.2046 -11.2045 -11.1681 -11.1672 -11.1672
   -11.1367 -11.1291 -11.1031 -11.1030 -11.0433  -8.2740  -7.3271  -6.6893
    -6.5622  -6.5622  -6.4221  -6.4221  -6.4035  -6.4035  -6.3094  -6.3094
    -6.2947  -6.2881  -6.2881  -6.2607  -6.2607  -6.2091  -5.3878  -4.6392
    -4.6390  -4.4199  -4.4198  -3.7579  -3.7577  -3.0809  -2.9070  -2.1016
    -1.4333  -1.0534  -1.0534  -0.8391  -0.1050  -0.0856  -0.0856  -0.0054
     0.1073   0.1073   1.4160   3.1439   3.2108   3.2109   3.3261   3.3261
     3.5344   3.8412   3.9890   4.3902   4.5220   4.7704   5.1941   5.1941
     5.3664   5.3665   5.7885   5.8828   6.0797   6.2134   6.3264   6.3276
     6.3876   6.5355

[...]

          k =-0.0704-0.0407 0.0000 ( 28550 PWs)   bands (ev):

[...]

     the Fermi energy is     0.5273 ev

!    total energy              =   -1648.52967155 Ry
     Harris-Foulkes estimate   =   -1648.52952713 Ry
     estimated scf accuracy    <       0.00000083 Ry

     The total energy is the sum of the following terms:

     one-electron contribution =   -7304.11144934 Ry
     hartree contribution      =    3733.73372622 Ry
     xc contribution           =    -696.97715098 Ry
     ewald contribution        =    2618.87319721 Ry
     electric field correction =       0.00000000 Ry
     smearing contrib. (-TS)   =      -0.04799466 Ry

     convergence has been achieved in  12 iterations

 BEEF-vdW xc energy contributions
           1 :   -619.038931009831
           2 :    573.228058541527
           3 :   -493.278583970172
           4 :    397.577357960891
[...]

     PseudoPot. # 2 for Hg read from file:
     /afs/slac.stanford.edu/u/if/mamunm/psp/gbrv1.5pbe/Hg.UPF
     MD5 check sum: 8f42caffe07f7fd9c0a564347f8c5498
     Pseudo is Ultrasoft + core correction, Zval = 12.0
     Generated by new atomic code, or converted to UPF format
     Using radial grid of  985 points,  6 beta functions with:
                l(1) =   0
                l(2) =   0
                l(3) =   1
                l(4) =   1
                l(5) =   2
                l(6) =   2
     Q(r) pseudized with  8 coefficients,  rinner =    2.000   2.000   2.000
                                                       2.000   2.000

     vdW kernel table read from file vdW_kernel_table
     MD5 check sum: 095c7af220d748ca6e76c0b4c6cfb241

     atomic species   valence    mass     pseudopotential
        Tl1           13.00   204.38000     Tl( 1.00)
        Hg1           12.00   200.59200     Hg( 1.00)

     No symmetry found

   Cartesian axes

     site n.     atom                  positions (alat units)
         1           Tl1 tau(   1) = (   0.0000000   0.0000000  10.0000000  )
         2           Tl1 tau(   2) = (  -1.7746495   3.0737830  10.0000000  )
         3           Tl1 tau(   3) = (   1.7746495   3.0737830  10.0000000  )
         4           Hg1 tau(   4) = (   3.5492989   0.0000000  10.0000000  )
         5           Tl1 tau(   5) = (   3.5492989   2.0491887  12.8979904  )
         6           Tl1 tau(   6) = (   1.7746495   5.1229717  12.8979904  )
         7           Tl1 tau(   7) = (  -1.7746495   5.1229717  12.8979904  )
         8           Hg1 tau(   8) = (   0.0000000   2.0491887  12.8979904  )
         9           Tl1 tau(   9) = (   0.0000540   4.0998580  15.8655717  )
        10           Tl1 tau(  10) = (   1.7753973   1.0245127  15.8676879  )
        11           Tl1 tau(  11) = (   5.3231774   1.0245739  15.8676198  )
        12           Hg1 tau(  12) = (   3.5493355   4.0981823  15.9264205  )

     number of k points=    20  Fermi-Dirac smearing, width (Ry)=  0.0110
                       cart. coord. in units 2pi/alat
        k(    1) = (   0.0000000   0.0000000   0.0000000), wk =   0.0555556
        k(    2) = (   0.0000000   0.0271110   0.0000000), wk =   0.1111111
        k(    3) = (   0.0000000   0.0542220   0.0000000), wk =   0.1111111
        k(    4) = (   0.0000000  -0.0813330   0.0000000), wk =   0.0555556
        k(    5) = (   0.0234788   0.0135555   0.0000000), wk =   0.1111111
        k(    6) = (   0.0234788   0.0406665   0.0000000), wk =   0.1111111
        k(    7) = (   0.0234788   0.0677775   0.0000000), wk =   0.1111111
        k(    8) = (   0.0234788  -0.0677775   0.0000000), wk =   0.1111111
        k(    9) = (   0.0234788  -0.0406665   0.0000000), wk =   0.1111111
        k(   10) = (   0.0234788  -0.0135555   0.0000000), wk =   0.1111111
        k(   11) = (   0.0469576   0.0271110   0.0000000), wk =   0.1111111
        k(   12) = (   0.0469576   0.0542220   0.0000000), wk =   0.1111111
        k(   13) = (   0.0469576   0.0813330   0.0000000), wk =   0.1111111
        k(   14) = (   0.0469576  -0.0542220   0.0000000), wk =   0.1111111
        k(   15) = (   0.0469576  -0.0271110   0.0000000), wk =   0.1111111
        k(   16) = (   0.0469576   0.0000000   0.0000000), wk =   0.1111111
        k(   17) = (  -0.0704364  -0.0406665   0.0000000), wk =   0.0555556
        k(   18) = (  -0.0704364  -0.0135555   0.0000000), wk =   0.1111111
        k(   19) = (  -0.0704364   0.0135555   0.0000000), wk =   0.1111111
        k(   20) = (  -0.0704364  -0.1219995   0.0000000), wk =   0.0555556

     Largest allocated arrays     est. size (Mb)     dimensions
     Largest temporary arrays     est. size (Mb)     dimensions

     Check: negative/imaginary core charge=   -0.000001    0.000000

     Initial potential from superposition of free atoms
     Check: negative starting charge=   -0.458667

     starting charge  152.95603, renormalised to  153.00000

[...]

     *
     * You are using vdW-DF for exchange-correlation in this calculation.
     * Please cite the following three references that made this development
     * possible:
     *
     *   M. Dion, H. Rydberg, E. Schroder, D. C. Langreth, and
     *   B. I. Lundqvist, Phys. Rev. Lett. 92, 246401 (2004).
     *
     *   T. Thonhauser, V. R. Cooper, S. Li, A. Puzder, P. Hyldgaard, and
     *   D. C. Langreth, Phys. Rev. B 76, 125112 (2007).
     *
     *   G. Roman-Perez and J. M. Soler, Phys. Rev. Lett. 103, 096102 (2009).
     *
     *
     * If you are using vdW-DF2, please also cite:
     *
     *   K. Lee, E. D. Murray, L. Kong, B. I. Lundqvist, and
     *   D. C. Langreth, Phys. Rev. B 82, 081101(R) (2010).
     *
     *
     * If you are calculating the stress with vdW-DF, please also cite:
     *
     *   R. Sabatini, E. Kucukbenli, B. Kolb, T. Thonhauser, and
     *   S. de Gironcoli, J. Phys.: Condens. Matter 24, 424209 (2012).
     *

     Carrying out vdW-DF run using the following parameters:

     Nqs =      20    Nr_points =    1024   r_max =   100.000
     q_mesh =
               0.00001000     0.04494208     0.09755937     0.15916263
               0.23128650     0.31572767     0.41458969     0.53033537
               0.66584808     0.82450364     1.01025438     1.22772762
               1.48234092     1.78043706     2.12944203     2.53805004
               3.01644009     3.57652955     4.23227104     5.00000000

     Gradients computed in reciprocal space

[...]

     Starting wfc are  108 randomized atomic wfcs

     Self-consistent Calculation

[...]

     Threshold (ethr) on eigenvalues was too large:
     Diagonalizing with lowered threshold

     Davidson diagonalization with overlap
     ethr =  6.08E-05,  avg # of iterations =  8.3

[...]

     iteration #  6     ecut=    36.75 Ry     beta=0.10
     Davidson diagonalization with overlap
     c_bands:  1 eigenvalues not converged
     c_bands:  1 eigenvalues not converged
     c_bands:  1 eigenvalues not converged
     c_bands:  1 eigenvalues not converged
     c_bands:  1 eigenvalues not converged
     ethr =  1.62E-06,  avg # of iterations = 11.9

[...]

     total energy              =   -1648.53607488 Ry
     Harris-Foulkes estimate   =   -1648.53600979 Ry
     estimated scf accuracy    <       0.00000187 Ry

     iteration # 12     ecut=    36.75 Ry     beta=0.10
     Davidson diagonalization with overlap
     ethr =  1.22E-09,  avg # of iterations =  4.8

[...]

     negative rho (up, down):  4.740E-01 0.000E+00

     Adding external electric field

     Computed dipole along edir(3) :
        Dipole                0.0058 Ry au,          0.0147 Debye
        Dipole field          0.0000 Ry au

        Potential amp.       -0.0009 Ry
        Total length         47.5287 bohr

     End of self-consistent calculation

[...]

          k = 0.0470 0.0000 0.0000 ( 28579 PWs)   bands (ev):

[...]

          k =-0.0704-0.1220 0.0000 ( 28550 PWs)   bands (ev):

   -11.5937 -11.5797 -11.5226 -11.5217 -11.4963 -11.4836 -11.4713 -11.4682
   -11.4622 -11.4583 -11.4557 -11.4422 -11.4310 -11.4264 -11.4167 -11.4058
   -11.3990 -11.3967 -11.3961 -11.3934 -11.3874 -11.3871 -11.3830 -11.3800
   -11.3766 -11.3362 -11.3322 -11.3203 -11.3085 -11.3034 -11.2979 -11.2853
   -11.2758 -11.2655 -11.2575 -11.2441 -11.2422 -11.2389 -11.2339 -11.2306
   -11.2069 -11.1854 -11.1584 -11.1546 -11.0752  -7.2930  -7.1852  -6.6955
    -6.4869  -6.4674  -6.4029  -6.3537  -6.3458  -6.3391  -6.3112  -6.3055
    -6.2946  -6.2906  -6.2758  -6.2557  -6.2443  -6.2219  -6.1669  -5.7431
    -5.3059  -4.9265  -4.8533  -4.5640  -3.7593  -3.6489  -3.1145  -2.3589
     0.2233   0.2759   0.6184   0.6750   0.7862   0.8213   1.3139   1.6029
     1.7515   1.9452   2.1126   2.3430   2.8587   3.0027   3.0048   3.3737
     3.3948   3.4582   3.5973   3.9367   4.0513   4.1569   4.2799   4.3525
     4.4436   4.5316   4.5868   4.6546   4.9544   5.1290   5.3193   5.4517
     5.5115   5.6415

     the Fermi energy is     0.5382 ev

!    total energy              =   -1648.53622373 Ry
     Harris-Foulkes estimate   =   -1648.53607519 Ry
     estimated scf accuracy    <       0.00000047 Ry

     The total energy is the sum of the following terms:

     one-electron contribution =   -7215.84238700 Ry
     hartree contribution      =    3689.66738434 Ry
     xc contribution           =    -696.95119802 Ry
     ewald contribution        =    2574.63791199 Ry
     electric field correction =       0.00000006 Ry
     smearing contrib. (-TS)   =      -0.04793510 Ry

     convergence has been achieved in  12 iterations

 BEEF-vdW xc energy contributions
           1 :   -619.166372705734
           2 :    573.320562822339
           3 :   -493.335928984088
           4 :    397.639363919071
           5 :   -304.445280212016
           6 :    226.081375593720
           7 :   -166.716278930629
           8 :    123.701593478881
           9 :   -91.2242522415028
          10 :    64.1363835650133
          11 :   -40.1729860116519
          12 :    19.8782881405917
          13 :   -4.91505364563022
          14 :   -3.86605945501810
          15 :    7.37733435806808
          16 :   -7.90934623589703
          17 :    7.90874498125277
          18 :   -8.82275008555803
          19 :    10.6800169242728
          20 :   -12.5330533211304
          21 :    13.3551579860207
          22 :   -12.7982943456888
          23 :    11.3799174467733
          24 :   -10.0773138571599
          25 :    9.65998039965928
          26 :   -10.2152064558331
          27 :    11.1388726446930
          28 :   -11.5528057324732
          29 :    10.8534572629503
          30 :   -9.06007069251825
          31 :   -50.9766243531759
          32 :   -37.1443839553407

     Forces acting on atoms (Ry/au):

     negative rho (up, down):  4.740E-01 0.000E+00
     atom    1 type  1   force =    -0.00000010    0.00132647   -0.00240800
     atom    2 type  1   force =     0.00116971   -0.00067004   -0.00243341
     atom    3 type  1   force =    -0.00117156   -0.00066975   -0.00243542
     atom    4 type  2   force =     0.00000007    0.00000876   -0.00308312
     atom    5 type  1   force =    -0.00000067    0.00003696    0.00286561
     atom    6 type  1   force =     0.00007030   -0.00000659    0.00284139
     atom    7 type  1   force =    -0.00006994   -0.00000684    0.00284079
     atom    8 type  2   force =     0.00000039   -0.00000622    0.00161099
     atom    9 type  1   force =    -0.00000012   -0.00101060   -0.00017924
     atom   10 type  1   force =    -0.00081862    0.00048828   -0.00015729
     atom   11 type  1   force =     0.00082134    0.00048784   -0.00014976
     atom   12 type  2   force =    -0.00000080    0.00002173    0.00068747

     Total force =     0.007932     Total SCF correction =     0.002231
     SCF correction compared to forces is large: reduce conv_thr to get better values

     entering subroutine stress ...

     negative rho (up, down):  4.740E-01 0.000E+00
          total   stress  (Ry/bohr**3)                   (kbar)     P=   -5.82
  -0.00004658  -0.00000000   0.00000000         -6.85     -0.00      0.00
  -0.00000000  -0.00004658  -0.00000000         -0.00     -6.85     -0.00
   0.00000000  -0.00000000  -0.00002548          0.00     -0.00     -3.75

 !ASE

     Writing output data file calc.save

     General routines

     Parallel routines

   This run was terminated on:   2:49:15   2Jan2019

   JOB DONE.
Job  /afs/slac/g/suncat/bin/suncat-tsmpirun -x LD_LIBRARY_PATH -wdir /scratch/qe649250_lltgR pw.x -in pw.inp

TID   HOST_NAME   COMMAND_LINE            STATUS            TERMINATION_TIME
00000 suncat0078 pw.x -in pw.inp   Done                     01/02/2019 02:49:15
00001 suncat0078 pw.x -in pw.inp   Done                     01/02/2019 02:49:15
00002 suncat0078 pw.x -in pw.inp   Done                     01/02/2019 02:49:15
00003 suncat0078 pw.x -in pw.inp   Done                     01/02/2019 02:49:15
00004 suncat0078 pw.x -in pw.inp   Done                     01/02/2019 02:49:15
00005 suncat0078 pw.x -in pw.inp   Done                     01/02/2019 02:49:15
00006 suncat0078 pw.x -in pw.inp   Done                     01/02/2019 02:49:15
00007 suncat0078 pw.x -in pw.inp   Done                     01/02/2019 02:49:15
00008 suncat0077 pw.x -in pw.inp   Done                     01/02/2019 02:49:15
00009 suncat0077 pw.x -in pw.inp   Done                     01/02/2019 02:49:15
00010 suncat0077 pw.x -in pw.inp   Done                     01/02/2019 02:49:15
00011 suncat0077 pw.x -in pw.inp   Done                     01/02/2019 02:49:15
00012 suncat0077 pw.x -in pw.inp   Done                     01/02/2019 02:49:15
00013 suncat0077 pw.x -in pw.inp   Done                     01/02/2019 02:49:15
00014 suncat0077 pw.x -in pw.inp   Done                     01/02/2019 02:49:15
00015 suncat0077 pw.x -in pw.inp   Done                     01/02/2019 02:49:15
00016 suncat0076 pw.x -in pw.inp   Done                     01/02/2019 02:49:15
00017 suncat0076 pw.x -in pw.inp   Done                     01/02/2019 02:49:15
00018 suncat0076 pw.x -in pw.inp   Done                     01/02/2019 02:49:15
00019 suncat0076 pw.x -in pw.inp   Done                     01/02/2019 02:49:15
00020 suncat0076 pw.x -in pw.inp   Done                     01/02/2019 02:49:15
00021 suncat0076 pw.x -in pw.inp   Done                     01/02/2019 02:49:15
00022 suncat0076 pw.x -in pw.inp   Done                     01/02/2019 02:49:15
00023 suncat0076 pw.x -in pw.inp   Done                     01/02/2019 02:49:15
00024 suncat0074 pw.x -in pw.inp   Done                     01/02/2019 02:49:15
00025 suncat0074 pw.x -in pw.inp   Done                     01/02/2019 02:49:15
00026 suncat0074 pw.x -in pw.inp   Done                     01/02/2019 02:49:15
00027 suncat0074 pw.x -in pw.inp   Done                     01/02/2019 02:49:15
00028 suncat0074 pw.x -in pw.inp   Done                     01/02/2019 02:49:15
00029 suncat0074 pw.x -in pw.inp   Done                     01/02/2019 02:49:15
00030 suncat0074 pw.x -in pw.inp   Done                     01/02/2019 02:49:15
00031 suncat0074 pw.x -in pw.inp   Done                     01/02/2019 02:49:15
00032 suncat0073 pw.x -in pw.inp   Done                     01/02/2019 02:49:15
00033 suncat0073 pw.x -in pw.inp   Done                     01/02/2019 02:49:15
00034 suncat0073 pw.x -in pw.inp   Done                     01/02/2019 02:49:15
00035 suncat0073 pw.x -in pw.inp   Done                     01/02/2019 02:49:15
00036 suncat0073 pw.x -in pw.inp   Done                     01/02/2019 02:49:15
00037 suncat0073 pw.x -in pw.inp   Done                     01/02/2019 02:49:15
00038 suncat0073 pw.x -in pw.inp   Done                     01/02/2019 02:49:15
00039 suncat0073 pw.x -in pw.inp   Done                     01/02/2019 02:49:15
00040 suncat0069 pw.x -in pw.inp   Done                     01/02/2019 02:49:15
00041 suncat0069 pw.x -in pw.inp   Done                     01/02/2019 02:49:15
00042 suncat0069 pw.x -in pw.inp   Done                     01/02/2019 02:49:15
00043 suncat0069 pw.x -in pw.inp   Done                     01/02/2019 02:49:15
00044 suncat0069 pw.x -in pw.inp   Done                     01/02/2019 02:49:15
00045 suncat0069 pw.x -in pw.inp   Done                     01/02/2019 02:49:15
00046 suncat0069 pw.x -in pw.inp   Done                     01/02/2019 02:49:15
00047 suncat0069 pw.x -in pw.inp   Done                     01/02/2019 02:49:15
00048 suncat0217 pw.x -in pw.inp   Done                     01/02/2019 02:49:15
00049 suncat0217 pw.x -in pw.inp   Done                     01/02/2019 02:49:15
00050 suncat0217 pw.x -in pw.inp   Done                     01/02/2019 02:49:15
00051 suncat0217 pw.x -in pw.inp   Done                     01/02/2019 02:49:15
00052 suncat0217 pw.x -in pw.inp   Done                     01/02/2019 02:49:15
00053 suncat0217 pw.x -in pw.inp   Done                     01/02/2019 02:49:15
00054 suncat0217 pw.x -in pw.inp   Done                     01/02/2019 02:49:15
00055 suncat0217 pw.x -in pw.inp   Done                     01/02/2019 02:49:15
00056 suncat0216 pw.x -in pw.inp   Done                     01/02/2019 02:49:15
00057 suncat0216 pw.x -in pw.inp   Done                     01/02/2019 02:49:15
00058 suncat0216 pw.x -in pw.inp   Done                     01/02/2019 02:49:15
00059 suncat0216 pw.x -in pw.inp   Done                     01/02/2019 02:49:15
00060 suncat0216 pw.x -in pw.inp   Done                     01/02/2019 02:49:15
00061 suncat0216 pw.x -in pw.inp   Done                     01/02/2019 02:49:15
00062 suncat0216 pw.x -in pw.inp   Done                     01/02/2019 02:49:15
00063 suncat0216 pw.x -in pw.inp   Done                     01/02/2019 02:49:15