     Program PWSCF v.5.1rc2 (svn rev. 11289) starts on 27Dec2018 at  3:34:43

     Current dimensions of program PWSCF are:
     Max number of different atomic species (ntypx) = 10
     Max number of k-points (npk) =  40000
     Max angular momentum in pseudopotentials (lmaxx) =  3
     Presently stress not available with electric field

     IMPORTANT: XC functional enforced from input :
     Exchange-correlation      = BEEF-VDW ( 1  4 27 13 2)
     Any further DFT definition will be discarded
     Please, verify this is what you really want

     Subspace diagonalization in iterative solution of the eigenvalue problem:
     a serial algorithm will be used

     bravais-lattice index     =            0
     lattice parameter (alat)  =       1.8897  a.u.
     unit-cell volume          =    4496.0500 (a.u.)^3
     number of atoms/cell      =           12
     number of atomic types    =            2
     number of electrons       =       171.00
     number of Kohn-Sham states=          115
     kinetic-energy cutoff     =      36.7493  Ry
     charge density cutoff     =     367.4932  Ry
     convergence threshold     =      1.0E-06
     mixing beta               =       0.1000
     number of iterations used =           10  plain     mixing
     Exchange-correlation      = BEEF-VDW ( 1  4 27 13 2)
     nstep                     =           50

     celldm(1)=   1.889726  celldm(2)=   0.000000  celldm(3)=   0.000000
     celldm(4)=   0.000000  celldm(5)=   0.000000  celldm(6)=   0.000000

     crystal axes: (cart. coord. in units of alat)
               a(1) = (   5.595758   0.000000   0.000000 )
               a(2) = (  -2.797879   4.846069   0.000000 )
               a(3) = (   0.000000   0.000000  24.568917 )

     reciprocal axes: (cart. coord. in units 2 pi/alat)
               b(1) = (  0.178707  0.103176  0.000000 )
               b(2) = (  0.000000  0.206353  0.000000 )
               b(3) = (  0.000000  0.000000  0.040702 )

     PseudoPot. # 1 for Mo read from file:
     /afs/slac.stanford.edu/u/if/mamunm/psp/gbrv1.5pbe/Mo.UPF
     MD5 check sum: 30c4dcd161f5d35cd49bb5239c51a633
     Pseudo is Ultrasoft + core correction, Zval = 14.0
     Generated by new atomic code, or converted to UPF format
     Using radial grid of  889 points,  6 beta functions with:
                l(1) =   0
                l(2) =   0
                l(3) =   1
                l(4) =   1
                l(5) =   2
                l(6) =   2
     Q(r) pseudized with  6 coefficients,  rinner =    1.000   1.000   1.000
                                                       1.000   1.000

     PseudoPot. # 2 for Rh read from file:
     /afs/slac.stanford.edu/u/if/mamunm/psp/gbrv1.5pbe/Rh.UPF
     MD5 check sum: 761627e959a2e3a1f56b0b5fe687810e
     Pseudo is Ultrasoft + core correction, Zval = 15.0
     Generated by new atomic code, or converted to UPF format
     Using radial grid of  969 points,  7 beta functions with:
                l(1) =   0
                l(2) =   0
                l(3) =   1
                l(4) =   1
                l(5) =   2
                l(6) =   2
                l(7) =   2
     Q(r) pseudized with  8 coefficients,  rinner =    1.200   1.200   1.200
                                                       1.200   1.200

     vdW kernel table read from file vdW_kernel_table
     MD5 check sum: 095c7af220d748ca6e76c0b4c6cfb241

     atomic species   valence    mass     pseudopotential
        Mo1           14.00    95.95000     Mo( 1.00)
        Rh1           15.00   102.90550     Rh( 1.00)

     No symmetry found

   Cartesian axes

     site n.     atom                  positions (alat units)
         1           Mo1 tau(   1) = (   0.0000000   0.0000000  10.0000000  )
         2           Mo1 tau(   2) = (   4.1968186   2.4230344  10.0000000  )
         3           Mo1 tau(   3) = (   1.3989395   2.4230344  10.0000000  )
         4           Rh1 tau(   4) = (   2.7978791   0.0000000  10.0000000  )
         5           Mo1 tau(   5) = (   2.7978791   1.6153562  12.2844587  )
         6           Mo1 tau(   6) = (   1.3989395   4.0383906  12.2844587  )
         7           Mo1 tau(   7) = (  -1.3989395   4.0383906  12.2844587  )
         8           Rh1 tau(   8) = (   0.0000000   1.6153562  12.2844587  )
         9           Mo1 tau(   9) = (  -0.0000000   3.2307125  14.5689174  )
        10           Mo1 tau(  10) = (   1.3989395   0.8076781  14.5689174  )
        11           Mo1 tau(  11) = (   4.1968186   0.8076781  14.5689174  )
        12           Rh1 tau(  12) = (   2.7978791   3.2307125  14.5689174  )

     number of k points=    20  Fermi-Dirac smearing, width (Ry)=  0.0110
                       cart. coord. in units 2pi/alat
        k(    1) = (   0.0000000   0.0000000   0.0000000), wk =   0.0555556
        k(    2) = (   0.0000000   0.0343921   0.0000000), wk =   0.1111111
        k(    3) = (   0.0000000   0.0687843   0.0000000), wk =   0.1111111
        k(    4) = (   0.0000000  -0.1031764   0.0000000), wk =   0.0555556
        k(    5) = (   0.0297845   0.0171961   0.0000000), wk =   0.1111111
        k(    6) = (   0.0297845   0.0515882   0.0000000), wk =   0.1111111
        k(    7) = (   0.0297845   0.0859803   0.0000000), wk =   0.1111111
        k(    8) = (   0.0297845  -0.0859803   0.0000000), wk =   0.1111111
        k(    9) = (   0.0297845  -0.0515882   0.0000000), wk =   0.1111111
        k(   10) = (   0.0297845  -0.0171961   0.0000000), wk =   0.1111111
        k(   11) = (   0.0595689   0.0343921   0.0000000), wk =   0.1111111
        k(   12) = (   0.0595689   0.0687843   0.0000000), wk =   0.1111111
        k(   13) = (   0.0595689   0.1031764   0.0000000), wk =   0.1111111
        k(   14) = (   0.0595689  -0.0687843   0.0000000), wk =   0.1111111
        k(   15) = (   0.0595689  -0.0343921   0.0000000), wk =   0.1111111
        k(   16) = (   0.0595689   0.0000000   0.0000000), wk =   0.1111111
        k(   17) = (  -0.0893534  -0.0515882   0.0000000), wk =   0.0555556
        k(   18) = (  -0.0893534  -0.0171961   0.0000000), wk =   0.1111111
        k(   19) = (  -0.0893534   0.0171961   0.0000000), wk =   0.1111111
        k(   20) = (  -0.0893534  -0.1547646   0.0000000), wk =   0.0555556

     Largest allocated arrays     est. size (Mb)     dimensions
     Largest temporary arrays     est. size (Mb)     dimensions

     Initial potential from superposition of free atoms
     Check: negative starting charge=   -0.166894

     starting charge  169.49013, renormalised to  171.00000

     negative rho (up, down):  1.684E-01 0.000E+00

     *
     * You are using vdW-DF for exchange-correlation in this calculation.
     * Please cite the following three references that made this development
     * possible:
     *
     *   M. Dion, H. Rydberg, E. Schroder, D. C. Langreth, and
     *   B. I. Lundqvist, Phys. Rev. Lett. 92, 246401 (2004).
     *
     *   T. Thonhauser, V. R. Cooper, S. Li, A. Puzder, P. Hyldgaard, and
     *   D. C. Langreth, Phys. Rev. B 76, 125112 (2007).
     *
     *   G. Roman-Perez and J. M. Soler, Phys. Rev. Lett. 103, 096102 (2009).
     *
     *
     * If you are using vdW-DF2, please also cite:
     *
     *   K. Lee, E. D. Murray, L. Kong, B. I. Lundqvist, and
     *   D. C. Langreth, Phys. Rev. B 82, 081101(R) (2010).
     *
     *
     * If you are calculating the stress with vdW-DF, please also cite:
     *
     *   R. Sabatini, E. Kucukbenli, B. Kolb, T. Thonhauser, and
     *   S. de Gironcoli, J. Phys.: Condens. Matter 24, 424209 (2012).
     *

     Carrying out vdW-DF run using the following parameters:

     Nqs =      20    Nr_points =    1024   r_max =   100.000
     q_mesh =
               0.00001000     0.04494208     0.09755937     0.15916263
               0.23128650     0.31572767     0.41458969     0.53033537
               0.66584808     0.82450364     1.01025438     1.22772762
               1.48234092     1.78043706     2.12944203     2.53805004
               3.01644009     3.57652955     4.23227104     5.00000000

     Gradients computed in reciprocal space

     Adding external electric field

     Computed dipole along edir(3) :
        Dipole               -0.0000 Ry au,         -0.0000 Debye
        Dipole field         -0.0000 Ry au

        Potential amp.        0.0000 Ry
        Total length         45.2678 bohr

     Starting wfc are  153 randomized atomic wfcs

     Self-consistent Calculation

     iteration #  1     ecut=    36.75 Ry     beta=0.10
     Davidson diagonalization with overlap
     ethr =  1.00E-02,  avg # of iterations =  2.0

[...]

     total energy              =   -1775.93586886 Ry
     Harris-Foulkes estimate   =   -1776.60540052 Ry
     estimated scf accuracy    <       3.88518856 Ry

[...]

     End of self-consistent calculation

          k = 0.0000 0.0000 0.0000 ( 16847 PWs)   bands (ev):

   -58.9838 -58.9054 -58.8620 -58.8332 -58.8332 -58.7833 -58.7832 -58.7671
   -58.7671 -44.5380 -44.4836 -44.4836 -44.1641 -44.1641 -44.1634 -44.1634
   -44.1351 -44.1325 -33.5639 -33.3610 -33.3496 -33.2536 -33.2536 -33.2394
   -33.1967 -33.1967 -33.0624 -33.0624 -33.0043 -32.8844 -32.8843 -32.8566
   -32.8566 -32.7318 -32.6168 -32.6112 -32.6112 -32.6040 -32.5096 -32.4947
   -32.4947 -32.4009 -32.4008 -32.3937 -32.3937  -4.0022  -2.6590  -2.6260
    -2.6260  -2.5805  -2.5348  -2.2209  -2.2209  -2.1906  -2.0224  -2.0213
    -2.0213  -1.7817  -1.7817  -1.6074  -0.7622  -0.7622  -0.3841  -0.1979
    -0.1979   0.1304   0.2357   0.4435   0.8295   0.8295   1.0273   1.0274
     1.1390   1.1390   1.2532   1.2532   1.3144   1.7806   1.9142   1.9142
     1.9213   2.3071   2.3071   2.5569   2.5569   2.5944   3.0387   3.0387
     3.2033   3.4063   3.5020   4.0580   4.0580   4.2983   4.2983   4.6255
     4.6255   4.6531   4.6531   4.7636   4.7989   4.7989   5.0634   5.0634
     5.1277   5.1277   5.3061   5.4252   5.4252   6.1702   6.2057   6.3606
     6.4192   6.4989   6.7538

[...]

          k =-0.0894-0.0516 0.0000 ( 16920 PWs)   bands (ev):

[...]

     the Fermi energy is     2.2025 ev

!    total energy              =   -1776.14142816 Ry
     Harris-Foulkes estimate   =   -1776.14142661 Ry
     estimated scf accuracy    <       0.00000075 Ry

     The total energy is the sum of the following terms:

     one-electron contribution =  -15954.63482232 Ry
     hartree contribution      =    7982.69240873 Ry
     xc contribution           =    -272.87018419 Ry
     ewald contribution        =    6468.76005328 Ry
     electric field correction =       0.00000000 Ry
     smearing contrib. (-TS)   =      -0.08888365 Ry

     convergence has been achieved in  16 iterations

 BEEF-vdW xc energy contributions
           1 :   -235.476914273437
           2 :    215.543394798022
           3 :   -181.255637969569
           4 :    141.489127625170
           5 :   -105.185611369663
           6 :    78.4888835367382
           7 :   -63.3211057966939
           8 :    57.6770646819285
           9 :   -57.2516698110428
          10 :    57.5333687036646
          11 :   -55.5006500041783
          12 :    50.3493283747408
          13 :   -43.1861367392827
          14 :    36.0167162958479
[...]
     /afs/slac.stanford.edu/u/if/mamunm/psp/gbrv1.5pbe/Mo.UPF
     MD5 check sum: 30c4dcd161f5d35cd49bb5239c51a633
     Pseudo is Ultrasoft + core correction, Zval = 14.0
     Generated by new atomic code, or converted to UPF format
     Using radial grid of  889 points,  6 beta functions with:
                l(1) =   0
                l(2) =   0
                l(3) =   1
                l(4) =   1
                l(5) =   2
                l(6) =   2
     Q(r) pseudized with  6 coefficients,  rinner =    1.000   1.000   1.000
                                                       1.000   1.000

     PseudoPot. # 2 for Rh read from file:
     /afs/slac.stanford.edu/u/if/mamunm/psp/gbrv1.5pbe/Rh.UPF
     MD5 check sum: 761627e959a2e3a1f56b0b5fe687810e
     Pseudo is Ultrasoft + core correction, Zval = 15.0
     Generated by new atomic code, or converted to UPF format
     Using radial grid of  969 points,  7 beta functions with:
                l(1) =   0
                l(2) =   0
                l(3) =   1
                l(4) =   1
                l(5) =   2
                l(6) =   2
                l(7) =   2
     Q(r) pseudized with  8 coefficients,  rinner =    1.200   1.200   1.200
                                                       1.200   1.200

     vdW kernel table read from file vdW_kernel_table
     MD5 check sum: 095c7af220d748ca6e76c0b4c6cfb241

     atomic species   valence    mass     pseudopotential
        Mo1           14.00    95.95000     Mo( 1.00)
        Rh1           15.00   102.90550     Rh( 1.00)

     No symmetry found

   Cartesian axes

     site n.     atom                  positions (alat units)
         1           Mo1 tau(   1) = (   0.0000000   0.0000000  10.0000000  )
         2           Mo1 tau(   2) = (   4.1968186   2.4230344  10.0000000  )
         3           Mo1 tau(   3) = (   1.3989395   2.4230344  10.0000000  )
         4           Rh1 tau(   4) = (   2.7978791   0.0000000  10.0000000  )
         5           Mo1 tau(   5) = (   2.7978791   1.6153562  12.2844587  )
         6           Mo1 tau(   6) = (   1.3989395   4.0383906  12.2844587  )
         7           Mo1 tau(   7) = (  -1.3989395   4.0383906  12.2844587  )
         8           Rh1 tau(   8) = (   0.0000000   1.6153562  12.2844587  )
         9           Mo1 tau(   9) = (  -0.0000003   3.2212732  14.4437143  )
        10           Mo1 tau(  10) = (   1.3907662   0.8123955  14.4437144  )
        11           Mo1 tau(  11) = (   4.2049921   0.8123963  14.4437148  )
        12           Rh1 tau(  12) = (   2.7978798   3.2307120  14.5426524  )

     number of k points=    20  Fermi-Dirac smearing, width (Ry)=  0.0110
                       cart. coord. in units 2pi/alat
        k(    1) = (   0.0000000   0.0000000   0.0000000), wk =   0.0555556
        k(    2) = (   0.0000000   0.0343921   0.0000000), wk =   0.1111111
        k(    3) = (   0.0000000   0.0687843   0.0000000), wk =   0.1111111
        k(    4) = (   0.0000000  -0.1031764   0.0000000), wk =   0.0555556
        k(    5) = (   0.0297845   0.0171961   0.0000000), wk =   0.1111111
        k(    6) = (   0.0297845   0.0515882   0.0000000), wk =   0.1111111
        k(    7) = (   0.0297845   0.0859803   0.0000000), wk =   0.1111111
        k(    8) = (   0.0297845  -0.0859803   0.0000000), wk =   0.1111111
        k(    9) = (   0.0297845  -0.0515882   0.0000000), wk =   0.1111111
        k(   10) = (   0.0297845  -0.0171961   0.0000000), wk =   0.1111111
        k(   11) = (   0.0595689   0.0343921   0.0000000), wk =   0.1111111
        k(   12) = (   0.0595689   0.0687843   0.0000000), wk =   0.1111111
        k(   13) = (   0.0595689   0.1031764   0.0000000), wk =   0.1111111
        k(   14) = (   0.0595689  -0.0687843   0.0000000), wk =   0.1111111
        k(   15) = (   0.0595689  -0.0343921   0.0000000), wk =   0.1111111
        k(   16) = (   0.0595689   0.0000000   0.0000000), wk =   0.1111111
        k(   17) = (  -0.0893534  -0.0515882   0.0000000), wk =   0.0555556
        k(   18) = (  -0.0893534  -0.0171961   0.0000000), wk =   0.1111111
        k(   19) = (  -0.0893534   0.0171961   0.0000000), wk =   0.1111111
        k(   20) = (  -0.0893534  -0.1547646   0.0000000), wk =   0.0555556

     Largest allocated arrays     est. size (Mb)     dimensions
     Largest temporary arrays     est. size (Mb)     dimensions

     Initial potential from superposition of free atoms
     Check: negative starting charge=   -0.168728

     starting charge  169.49013, renormalised to  171.00000

[...]

     *
     * You are using vdW-DF for exchange-correlation in this calculation.
     * Please cite the following three references that made this development
     * possible:
     *
     *   M. Dion, H. Rydberg, E. Schroder, D. C. Langreth, and
     *   B. I. Lundqvist, Phys. Rev. Lett. 92, 246401 (2004).
     *
     *   T. Thonhauser, V. R. Cooper, S. Li, A. Puzder, P. Hyldgaard, and
     *   D. C. Langreth, Phys. Rev. B 76, 125112 (2007).
     *
     *   G. Roman-Perez and J. M. Soler, Phys. Rev. Lett. 103, 096102 (2009).
     *
     *
     * If you are using vdW-DF2, please also cite:
     *
     *   K. Lee, E. D. Murray, L. Kong, B. I. Lundqvist, and
     *   D. C. Langreth, Phys. Rev. B 82, 081101(R) (2010).
     *
     *
     * If you are calculating the stress with vdW-DF, please also cite:
     *
     *   R. Sabatini, E. Kucukbenli, B. Kolb, T. Thonhauser, and
     *   S. de Gironcoli, J. Phys.: Condens. Matter 24, 424209 (2012).
     *

     Carrying out vdW-DF run using the following parameters:

     Nqs =      20    Nr_points =    1024   r_max =   100.000
     q_mesh =
               0.00001000     0.04494208     0.09755937     0.15916263
               0.23128650     0.31572767     0.41458969     0.53033537
               0.66584808     0.82450364     1.01025438     1.22772762
               1.48234092     1.78043706     2.12944203     2.53805004
               3.01644009     3.57652955     4.23227104     5.00000000

     Gradients computed in reciprocal space

[...]

     Starting wfc are  153 randomized atomic wfcs

     Self-consistent Calculation

[...]

     total energy              =   -1776.15534702 Ry
     Harris-Foulkes estimate   =   -1776.15534595 Ry
     estimated scf accuracy    <       0.00000243 Ry

     iteration # 16     ecut=    36.75 Ry     beta=0.10
     Davidson diagonalization with overlap
     ethr =  1.42E-09,  avg # of iterations =  2.0

[...]

     negative rho (up, down):  1.810E-01 0.000E+00

     Adding external electric field

     Computed dipole along edir(3) :
        Dipole                0.0259 Ry au,          0.0658 Debye
        Dipole field          0.0001 Ry au

        Potential amp.       -0.0065 Ry
        Total length         45.2678 bohr

     End of self-consistent calculation

[...]

          k = 0.0596 0.0000 0.0000 ( 16908 PWs)   bands (ev):

[...]

          k =-0.0894-0.1548 0.0000 ( 16920 PWs)   bands (ev):

   -58.9211 -58.8985 -58.8489 -58.8289 -58.8258 -58.7853 -58.7595 -58.7279
   -58.6953 -44.6323 -44.5660 -44.5637 -44.1601 -44.1577 -44.1550 -44.1526
   -44.1262 -44.1173 -33.4013 -33.3335 -33.2475 -33.1617 -33.1563 -33.1005
   -33.0798 -33.0581 -33.0068 -32.9535 -32.9227 -32.8962 -32.8445 -32.8406
   -32.8289 -32.8243 -32.8042 -32.7612 -32.6961 -32.6696 -32.6440 -32.5288
   -32.5232 -32.4673 -32.4562 -32.4405 -32.3585  -2.5644  -2.4335  -1.9391
    -1.9112  -1.8036  -1.6156  -1.5447  -1.5029  -1.4680  -1.3518  -1.1688
    -1.1382  -0.9411  -0.9108  -0.8338  -0.6459  -0.5783  -0.4327  -0.3375
    -0.2599   0.1277   0.1623   0.1906   0.2215   0.2945   0.3821   0.6433
     0.7694   0.8723   0.8737   1.1683   1.1857   1.2644   1.2955   1.3290
     1.3714   1.4198   1.4848   1.5746   1.6313   2.0921   2.1084   2.3084
     2.4741   2.5520   2.6587   2.8681   2.9793   3.0680   3.0774   3.1782
     3.6000   3.6486   3.6972   3.8009   3.8977   4.0806   4.2318   4.3927
     4.5187   4.6342   5.1434   5.3623   5.4884   5.8193   6.0972   6.6888
     7.1342   7.2030   7.4567

     the Fermi energy is     2.2045 ev

!    total energy              =   -1776.15534838 Ry
     Harris-Foulkes estimate   =   -1776.15534729 Ry
     estimated scf accuracy    <       0.00000084 Ry

     The total energy is the sum of the following terms:

     one-electron contribution =  -16181.55574481 Ry
     hartree contribution      =    8096.19068975 Ry
     xc contribution           =    -273.10440873 Ry
     ewald contribution        =    6582.39883246 Ry
     electric field correction =       0.00000187 Ry
     smearing contrib. (-TS)   =      -0.08471893 Ry

     convergence has been achieved in  16 iterations

 BEEF-vdW xc energy contributions
           1 :   -235.761044421389
           2 :    215.906680839351
           3 :   -181.725004323369
           4 :    142.014054405771
           5 :   -105.656076922930
           6 :    78.7892334410706
           7 :   -63.3927856506701
           8 :    57.5555591869122
           9 :   -57.0555174420986
          10 :    57.4086069274435
          11 :   -55.5502851555694
          12 :    50.5843622169976
          13 :   -43.5225469841283
          14 :    36.3199558167479
          15 :   -30.7415599425727
          16 :    27.5505803939677
          17 :   -26.3115140900723
          18 :    25.7844365307309
          19 :   -24.6438726198582
          20 :    22.1343466879465
          21 :   -18.3627641907086
          22 :    14.1301801040133
          23 :   -10.4483222905339
          24 :    8.01230209397255
          25 :   -6.89246175158974
          26 :    6.56408278387784
          27 :   -6.22250831231406
          28 :    5.19818195694901
          29 :   -3.26448333930836
          30 :   0.700466068786568
          31 :   -25.6211507895300
          32 :   -19.5375860579463

     Forces acting on atoms (Ry/au):

     negative rho (up, down):  1.810E-01 0.000E+00
     atom    1 type  1   force =    -0.00000017    0.00488109    0.02441686
     atom    2 type  1   force =     0.00422675   -0.00244035    0.02441547
     atom    3 type  1   force =    -0.00422734   -0.00244043    0.02441681
     atom    4 type  2   force =     0.00000022   -0.00000006   -0.00026909
     atom    5 type  1   force =    -0.00000032    0.00108163   -0.01462428
     atom    6 type  1   force =     0.00093713   -0.00054088   -0.01462470
     atom    7 type  1   force =    -0.00093701   -0.00054039   -0.01462425
     atom    8 type  2   force =     0.00000121   -0.00000121   -0.02817403
     atom    9 type  1   force =     0.00000027   -0.00021545   -0.00024862
     atom   10 type  1   force =    -0.00018682    0.00010792   -0.00024913
     atom   11 type  1   force =     0.00018676    0.00010770   -0.00024899
     atom   12 type  2   force =    -0.00000068    0.00000042   -0.00018605

     Total force =     0.057439     Total SCF correction =     0.003555

     entering subroutine stress ...

     negative rho (up, down):  1.810E-01 0.000E+00
          total   stress  (Ry/bohr**3)                   (kbar)     P=  -25.06
  -0.00020134  -0.00000000  -0.00000000        -29.62     -0.00     -0.00
  -0.00000000  -0.00020134   0.00000000         -0.00    -29.62      0.00
  -0.00000000   0.00000000  -0.00010831         -0.00      0.00    -15.93

 !ASE

     Writing output data file calc.save

     General routines

     Parallel routines

   This run was terminated on:   4:18:29  27Dec2018

   JOB DONE.
Job  /afs/slac/g/suncat/bin/suncat-tsmpirun -x LD_LIBRARY_PATH -wdir /scratch/qe110147_GAiJC pw.x -in pw.inp

TID   HOST_NAME   COMMAND_LINE            STATUS            TERMINATION_TIME
00000 suncat0277 pw.x -in pw.inp   Done                     12/27/2018 04:18:29
00001 suncat0277 pw.x -in pw.inp   Done                     12/27/2018 04:18:29
00002 suncat0277 pw.x -in pw.inp   Done                     12/27/2018 04:18:29
00003 suncat0277 pw.x -in pw.inp   Done                     12/27/2018 04:18:29
00004 suncat0277 pw.x -in pw.inp   Done                     12/27/2018 04:18:29
00005 suncat0277 pw.x -in pw.inp   Done                     12/27/2018 04:18:29
00006 suncat0277 pw.x -in pw.inp   Done                     12/27/2018 04:18:29
00007 suncat0277 pw.x -in pw.inp   Done                     12/27/2018 04:18:29
00008 suncat0276 pw.x -in pw.inp   Done                     12/27/2018 04:18:29
00009 suncat0276 pw.x -in pw.inp   Done                     12/27/2018 04:18:29
00010 suncat0276 pw.x -in pw.inp   Done                     12/27/2018 04:18:29
00011 suncat0276 pw.x -in pw.inp   Done                     12/27/2018 04:18:29
00012 suncat0276 pw.x -in pw.inp   Done                     12/27/2018 04:18:29
00013 suncat0276 pw.x -in pw.inp   Done                     12/27/2018 04:18:29
00014 suncat0276 pw.x -in pw.inp   Done                     12/27/2018 04:18:29
00015 suncat0276 pw.x -in pw.inp   Done                     12/27/2018 04:18:29
00016 suncat0274 pw.x -in pw.inp   Done                     12/27/2018 04:18:29
00017 suncat0274 pw.x -in pw.inp   Done                     12/27/2018 04:18:29
00018 suncat0274 pw.x -in pw.inp   Done                     12/27/2018 04:18:29
00019 suncat0274 pw.x -in pw.inp   Done                     12/27/2018 04:18:29
00020 suncat0274 pw.x -in pw.inp   Done                     12/27/2018 04:18:29
00021 suncat0274 pw.x -in pw.inp   Done                     12/27/2018 04:18:29
00022 suncat0274 pw.x -in pw.inp   Done                     12/27/2018 04:18:29
00023 suncat0274 pw.x -in pw.inp   Done                     12/27/2018 04:18:29
00024 suncat0273 pw.x -in pw.inp   Done                     12/27/2018 04:18:29
00025 suncat0273 pw.x -in pw.inp   Done                     12/27/2018 04:18:29
00026 suncat0273 pw.x -in pw.inp   Done                     12/27/2018 04:18:29
00027 suncat0273 pw.x -in pw.inp   Done                     12/27/2018 04:18:29
00028 suncat0273 pw.x -in pw.inp   Done                     12/27/2018 04:18:29
00029 suncat0273 pw.x -in pw.inp   Done                     12/27/2018 04:18:29
00030 suncat0273 pw.x -in pw.inp   Done                     12/27/2018 04:18:29
00031 suncat0273 pw.x -in pw.inp   Done                     12/27/2018 04:18:29
00032 suncat0230 pw.x -in pw.inp   Done                     12/27/2018 04:18:29
00033 suncat0230 pw.x -in pw.inp   Done                     12/27/2018 04:18:29
00034 suncat0230 pw.x -in pw.inp   Done                     12/27/2018 04:18:29
00035 suncat0230 pw.x -in pw.inp   Done                     12/27/2018 04:18:29
00036 suncat0230 pw.x -in pw.inp   Done                     12/27/2018 04:18:29
00037 suncat0230 pw.x -in pw.inp   Done                     12/27/2018 04:18:29
00038 suncat0230 pw.x -in pw.inp   Done                     12/27/2018 04:18:29
00039 suncat0230 pw.x -in pw.inp   Done                     12/27/2018 04:18:29
00040 suncat0229 pw.x -in pw.inp   Done                     12/27/2018 04:18:29
00041 suncat0229 pw.x -in pw.inp   Done                     12/27/2018 04:18:29
00042 suncat0229 pw.x -in pw.inp   Done                     12/27/2018 04:18:29
00043 suncat0229 pw.x -in pw.inp   Done                     12/27/2018 04:18:29
00044 suncat0229 pw.x -in pw.inp   Done                     12/27/2018 04:18:29
00045 suncat0229 pw.x -in pw.inp   Done                     12/27/2018 04:18:29
00046 suncat0229 pw.x -in pw.inp   Done                     12/27/2018 04:18:29
00047 suncat0229 pw.x -in pw.inp   Done                     12/27/2018 04:18:29
00048 suncat0205 pw.x -in pw.inp   Done                     12/27/2018 04:18:29
00049 suncat0205 pw.x -in pw.inp   Done                     12/27/2018 04:18:29
00050 suncat0205 pw.x -in pw.inp   Done                     12/27/2018 04:18:29
00051 suncat0205 pw.x -in pw.inp   Done                     12/27/2018 04:18:29
00052 suncat0205 pw.x -in pw.inp   Done                     12/27/2018 04:18:29
00053 suncat0205 pw.x -in pw.inp   Done                     12/27/2018 04:18:29
00054 suncat0205 pw.x -in pw.inp   Done                     12/27/2018 04:18:29
00055 suncat0205 pw.x -in pw.inp   Done                     12/27/2018 04:18:29
00056 suncat0204 pw.x -in pw.inp   Done                     12/27/2018 04:18:29
00057 suncat0204 pw.x -in pw.inp   Done                     12/27/2018 04:18:29
00058 suncat0204 pw.x -in pw.inp   Done                     12/27/2018 04:18:29
00059 suncat0204 pw.x -in pw.inp   Done                     12/27/2018 04:18:29
00060 suncat0204 pw.x -in pw.inp   Done                     12/27/2018 04:18:29
00061 suncat0204 pw.x -in pw.inp   Done                     12/27/2018 04:18:29
00062 suncat0204 pw.x -in pw.inp   Done                     12/27/2018 04:18:29
00063 suncat0204 pw.x -in pw.inp   Done                     12/27/2018 04:18:29