     Program PWSCF v.5.1rc2 (svn rev. 11289) starts on  2Jan2019 at  3:20:29

     Current dimensions of program PWSCF are:
     Max number of different atomic species (ntypx) = 10
     Max number of k-points (npk) =  40000
     Max angular momentum in pseudopotentials (lmaxx) =  3
     Presently stress not available with electric field

     IMPORTANT: XC functional enforced from input :
     Exchange-correlation      = BEEF-VDW ( 1  4 27 13 2)
     Any further DFT definition will be discarded
     Please, verify this is what you really want

     Subspace diagonalization in iterative solution of the eigenvalue problem:
     a serial algorithm will be used

     bravais-lattice index     =            0
     lattice parameter (alat)  =       1.8897  a.u.
     unit-cell volume          =    6166.1351 (a.u.)^3
     number of atoms/cell      =           12
     number of atomic types    =            2
     number of electrons       =       162.00
     number of Kohn-Sham states=          111
     kinetic-energy cutoff     =      36.7493  Ry
     charge density cutoff     =     367.4932  Ry
     convergence threshold     =      1.0E-06
     mixing beta               =       0.1000
     number of iterations used =           10  plain     mixing
     Exchange-correlation      = BEEF-VDW ( 1  4 27 13 2)
     nstep                     =           50

     celldm(1)=   1.889726  celldm(2)=   0.000000  celldm(3)=   0.000000
     celldm(4)=   0.000000  celldm(5)=   0.000000  celldm(6)=   0.000000

     crystal axes: (cart. coord. in units of alat)
               a(1) = (   6.460923   0.000000   0.000000 )
               a(2) = (  -3.230461   5.595323   0.000000 )
               a(3) = (   0.000000   0.000000  25.275321 )

     reciprocal axes: (cart. coord. in units 2 pi/alat)
               b(1) = (  0.154777  0.089360  0.000000 )
               b(2) = (  0.000000  0.178721  0.000000 )
               b(3) = (  0.000000  0.000000  0.039564 )

     PseudoPot. # 1 for Tl read from file:
     /afs/slac.stanford.edu/u/if/mamunm/psp/gbrv1.5pbe/Tl.UPF
     MD5 check sum: b76cf1f7e72655a2b2c53cf6385d7059
     Pseudo is Ultrasoft + core correction, Zval = 13.0
     Generated by new atomic code, or converted to UPF format
     Using radial grid of  899 points,  6 beta functions with:
                l(1) =   0
                l(2) =   0
                l(3) =   1
                l(4) =   1
                l(5) =   2
                l(6) =   2
     Q(r) pseudized with  6 coefficients,  rinner =    1.100   1.100   1.100
                                                       1.100   1.100

     PseudoPot. # 2 for Tc read from file:
     /afs/slac.stanford.edu/u/if/mamunm/psp/gbrv1.5pbe/Tc.UPF
     MD5 check sum: 9eb49e5b028550b2339a02317eb7b844
     Pseudo is Ultrasoft + core correction, Zval = 15.0
     Generated by new atomic code, or converted to UPF format
     Using radial grid of  965 points,  6 beta functions with:
                l(1) =   0
                l(2) =   0
                l(3) =   1
                l(4) =   1
                l(5) =   2
                l(6) =   2
     Q(r) pseudized with  8 coefficients,  rinner =    1.300   1.300   1.300
                                                       1.300   1.300

     vdW kernel table read from file vdW_kernel_table
     MD5 check sum: 095c7af220d748ca6e76c0b4c6cfb241

     atomic species   valence    mass     pseudopotential
        Tl1           13.00   204.38000     Tl( 1.00)
        Tc1           15.00    97.90721     Tc( 1.00)

     No symmetry found

   Cartesian axes

     site n.     atom                  positions (alat units)
         1           Tl1 tau(   1) = (   0.0000000   0.0000000  10.0000000  )
         2           Tl1 tau(   2) = (  -1.6152307   2.7976617  10.0000000  )
         3           Tl1 tau(   3) = (   1.6152307   2.7976617  10.0000000  )
         4           Tc1 tau(   4) = (   3.2304614   0.0000000  10.0000000  )
         5           Tl1 tau(   5) = (   3.2304614   1.8651078  12.6376607  )
         6           Tl1 tau(   6) = (   1.6152307   4.6627695  12.6376607  )
         7           Tl1 tau(   7) = (  -1.6152307   4.6627695  12.6376607  )
         8           Tc1 tau(   8) = (   0.0000000   1.8651078  12.6376607  )
         9           Tl1 tau(   9) = (  -0.0000000   3.7302156  15.2753214  )
        10           Tl1 tau(  10) = (   1.6152307   0.9325539  15.2753214  )
        11           Tl1 tau(  11) = (   4.8456922   0.9325539  15.2753214  )
        12           Tc1 tau(  12) = (   3.2304614   3.7302156  15.2753214  )

     number of k points=    20  Fermi-Dirac smearing, width (Ry)=  0.0110
                       cart. coord. in units 2pi/alat
        k(    1) = (   0.0000000   0.0000000   0.0000000), wk =   0.0555556
        k(    2) = (   0.0000000   0.0297868   0.0000000), wk =   0.1111111
        k(    3) = (   0.0000000   0.0595736   0.0000000), wk =   0.1111111
        k(    4) = (   0.0000000  -0.0893603   0.0000000), wk =   0.0555556
        k(    5) = (   0.0257961   0.0148934   0.0000000), wk =   0.1111111
        k(    6) = (   0.0257961   0.0446802   0.0000000), wk =   0.1111111
        k(    7) = (   0.0257961   0.0744670   0.0000000), wk =   0.1111111
        k(    8) = (   0.0257961  -0.0744670   0.0000000), wk =   0.1111111
        k(    9) = (   0.0257961  -0.0446802   0.0000000), wk =   0.1111111
        k(   10) = (   0.0257961  -0.0148934   0.0000000), wk =   0.1111111
        k(   11) = (   0.0515922   0.0297868   0.0000000), wk =   0.1111111
        k(   12) = (   0.0515922   0.0595736   0.0000000), wk =   0.1111111
        k(   13) = (   0.0515922   0.0893603   0.0000000), wk =   0.1111111
        k(   14) = (   0.0515922  -0.0595736   0.0000000), wk =   0.1111111
        k(   15) = (   0.0515922  -0.0297868   0.0000000), wk =   0.1111111
        k(   16) = (   0.0515922   0.0000000   0.0000000), wk =   0.1111111
        k(   17) = (  -0.0773883  -0.0446802   0.0000000), wk =   0.0555556
        k(   18) = (  -0.0773883  -0.0148934   0.0000000), wk =   0.1111111
        k(   19) = (  -0.0773883   0.0148934   0.0000000), wk =   0.1111111
        k(   20) = (  -0.0773883  -0.1340405   0.0000000), wk =   0.0555556

     Largest allocated arrays     est. size (Mb)     dimensions
     Largest temporary arrays     est. size (Mb)     dimensions

     Check: negative/imaginary core charge=   -0.000007    0.000000

     Initial potential from superposition of free atoms
     Check: negative starting charge=   -0.831077

     starting charge  158.95612, renormalised to  162.00000

     negative rho (up, down):  8.470E-01 0.000E+00

     *
     * You are using vdW-DF for exchange-correlation in this calculation.
     * Please cite the following three references that made this development
     * possible:
     *
     *   M. Dion, H. Rydberg, E. Schroder, D. C. Langreth, and
     *   B. I. Lundqvist, Phys. Rev. Lett. 92, 246401 (2004).
     *
     *   T. Thonhauser, V. R. Cooper, S. Li, A. Puzder, P. Hyldgaard, and
     *   D. C. Langreth, Phys. Rev. B 76, 125112 (2007).
     *
     *   G. Roman-Perez and J. M. Soler, Phys. Rev. Lett. 103, 096102 (2009).
     *
     *
     * If you are using vdW-DF2, please also cite:
     *
     *   K. Lee, E. D. Murray, L. Kong, B. I. Lundqvist, and
     *   D. C. Langreth, Phys. Rev. B 82, 081101(R) (2010).
     *
     *
     * If you are calculating the stress with vdW-DF, please also cite:
     *
     *   R. Sabatini, E. Kucukbenli, B. Kolb, T. Thonhauser, and
     *   S. de Gironcoli, J. Phys.: Condens. Matter 24, 424209 (2012).
     *

     Carrying out vdW-DF run using the following parameters:

     Nqs =      20    Nr_points =    1024   r_max =   100.000
     q_mesh =
               0.00001000     0.04494208     0.09755937     0.15916263
               0.23128650     0.31572767     0.41458969     0.53033537
               0.66584808     0.82450364     1.01025438     1.22772762
               1.48234092     1.78043706     2.12944203     2.53805004
               3.01644009     3.57652955     4.23227104     5.00000000

     Gradients computed in reciprocal space

     Adding external electric field

     Computed dipole along edir(3) :
        Dipole                0.0000 Ry au,          0.0000 Debye
        Dipole field          0.0000 Ry au

        Potential amp.       -0.0000 Ry
        Total length         46.5693 bohr

     Starting wfc are  120 randomized atomic wfcs

     Self-consistent Calculation

     iteration #  1     ecut=    36.75 Ry     beta=0.10
     Davidson diagonalization with overlap
     ethr =  1.00E-02,  avg # of iterations =  8.0

[...]

     total energy              =   -1846.00404485 Ry
     Harris-Foulkes estimate   =   -1847.20621951 Ry
     estimated scf accuracy    <       6.73990345 Ry

[...]

     End of self-consistent calculation

          k = 0.0000 0.0000 0.0000 ( 23247 PWs)   bands (ev):

   -65.3191 -65.3191 -65.2289 -37.3981 -37.3981 -37.3981 -37.3981 -37.3186
   -37.3186 -37.2863 -37.2862 -37.1778 -11.3441 -11.2336 -11.2183 -11.2181
   -11.1726 -11.1560 -11.0477 -11.0477 -10.9803 -10.9803 -10.9632 -10.9125
   -10.9123 -10.8643 -10.8362 -10.8361 -10.7783 -10.7000 -10.6573 -10.6573
   -10.6521 -10.5809 -10.5772 -10.5769 -10.5459 -10.5456 -10.4662 -10.4662
   -10.4207 -10.4206 -10.4195 -10.4089 -10.4089 -10.3977 -10.3977 -10.3433
   -10.3433 -10.2446 -10.2445 -10.1966 -10.1764 -10.1718 -10.1718 -10.0584
   -10.0552  -8.6545  -7.2456  -5.3673  -4.2951  -4.2950  -3.6876  -3.6876
    -2.7778  -2.7778  -1.8792  -1.2232  -0.8720  -0.6648  -0.6648  -0.2535
     0.3391   0.3391   0.6217   0.6217   0.6511   0.7375   0.7376   0.8410
     0.8410   1.0766   1.1954   1.1955   1.2503   1.3584   1.3584   1.4088
     1.4088   2.0228   2.0229   2.1589   3.1464   3.5430   3.9629   4.5252
     4.6296   5.2503   5.2504   5.3049   5.3049   5.5454   5.6444   6.0878
     6.5420   6.6943   7.3371   7.4257   7.4257   7.6457   8.0994

[...]

          k =-0.0774-0.0447 0.0000 ( 23216 PWs)   bands (ev):

[...]

     the Fermi energy is     1.0630 ev

!    total energy              =   -1846.35485071 Ry
     Harris-Foulkes estimate   =   -1846.35477809 Ry
     estimated scf accuracy    <       0.00000032 Ry

     The total energy is the sum of the following terms:

     one-electron contribution =  -10222.00906639 Ry
     hartree contribution      =    5171.93089968 Ry
     xc contribution           =    -675.34774780 Ry
     ewald contribution        =    3879.17118142 Ry
     electric field correction =       0.00000000 Ry
     smearing contrib. (-TS)   =      -0.10011761 Ry

     convergence has been achieved in  17 iterations

 BEEF-vdW xc energy contributions
           1 :   -600.181177325598
           2 :    556.342314229696
           3 :   -479.110857526838
           4 :    385.245179025394
           5 :   -291.997002666372
           6 :    211.906159234063
           7 :   -150.231210702499
           8 :    105.498301263992
           9 :   -72.4361199744542
          10 :    45.5847376784984
          11 :   -21.9239609602263
          12 :    1.51625760120737
          13 :    13.6698897046952
          14 :   -21.7815953123874
[...]
     /afs/slac.stanford.edu/u/if/mamunm/psp/gbrv1.5pbe/Tl.UPF
     MD5 check sum: b76cf1f7e72655a2b2c53cf6385d7059
     Pseudo is Ultrasoft + core correction, Zval = 13.0
     Generated by new atomic code, or converted to UPF format
     Using radial grid of  899 points,  6 beta functions with:
                l(1) =   0
                l(2) =   0
                l(3) =   1
                l(4) =   1
                l(5) =   2
                l(6) =   2
     Q(r) pseudized with  6 coefficients,  rinner =    1.100   1.100   1.100
                                                       1.100   1.100

     PseudoPot. # 2 for Tc read from file:
     /afs/slac.stanford.edu/u/if/mamunm/psp/gbrv1.5pbe/Tc.UPF
     MD5 check sum: 9eb49e5b028550b2339a02317eb7b844
     Pseudo is Ultrasoft + core correction, Zval = 15.0
     Generated by new atomic code, or converted to UPF format
     Using radial grid of  965 points,  6 beta functions with:
                l(1) =   0
                l(2) =   0
                l(3) =   1
                l(4) =   1
                l(5) =   2
                l(6) =   2
     Q(r) pseudized with  8 coefficients,  rinner =    1.300   1.300   1.300
                                                       1.300   1.300

     vdW kernel table read from file vdW_kernel_table
     MD5 check sum: 095c7af220d748ca6e76c0b4c6cfb241

     atomic species   valence    mass     pseudopotential
        Tl1           13.00   204.38000     Tl( 1.00)
        Tc1           15.00    97.90721     Tc( 1.00)

     No symmetry found

   Cartesian axes

     site n.     atom                  positions (alat units)
         1           Tl1 tau(   1) = (   0.0000000   0.0000000  10.0000000  )
         2           Tl1 tau(   2) = (  -1.6152307   2.7976617  10.0000000  )
         3           Tl1 tau(   3) = (   1.6152307   2.7976617  10.0000000  )
         4           Tc1 tau(   4) = (   3.2304614   0.0000000  10.0000000  )
         5           Tl1 tau(   5) = (   3.2304614   1.8651078  12.6376607  )
         6           Tl1 tau(   6) = (   1.6152307   4.6627695  12.6376607  )
         7           Tl1 tau(   7) = (  -1.6152307   4.6627695  12.6376607  )
         8           Tc1 tau(   8) = (   0.0000000   1.8651078  12.6376607  )
         9           Tl1 tau(   9) = (   0.0000110   3.7045536  15.5267366  )
        10           Tl1 tau(  10) = (   1.5931159   0.9452432  15.5270301  )
        11           Tl1 tau(  11) = (   4.8678152   0.9452560  15.5270310  )
        12           Tc1 tau(  12) = (   3.2304638   3.7302632  14.7499014  )

     number of k points=    20  Fermi-Dirac smearing, width (Ry)=  0.0110
                       cart. coord. in units 2pi/alat
        k(    1) = (   0.0000000   0.0000000   0.0000000), wk =   0.0555556
        k(    2) = (   0.0000000   0.0297868   0.0000000), wk =   0.1111111
        k(    3) = (   0.0000000   0.0595736   0.0000000), wk =   0.1111111
        k(    4) = (   0.0000000  -0.0893603   0.0000000), wk =   0.0555556
        k(    5) = (   0.0257961   0.0148934   0.0000000), wk =   0.1111111
        k(    6) = (   0.0257961   0.0446802   0.0000000), wk =   0.1111111
        k(    7) = (   0.0257961   0.0744670   0.0000000), wk =   0.1111111
        k(    8) = (   0.0257961  -0.0744670   0.0000000), wk =   0.1111111
        k(    9) = (   0.0257961  -0.0446802   0.0000000), wk =   0.1111111
        k(   10) = (   0.0257961  -0.0148934   0.0000000), wk =   0.1111111
        k(   11) = (   0.0515922   0.0297868   0.0000000), wk =   0.1111111
        k(   12) = (   0.0515922   0.0595736   0.0000000), wk =   0.1111111
        k(   13) = (   0.0515922   0.0893603   0.0000000), wk =   0.1111111
        k(   14) = (   0.0515922  -0.0595736   0.0000000), wk =   0.1111111
        k(   15) = (   0.0515922  -0.0297868   0.0000000), wk =   0.1111111
        k(   16) = (   0.0515922   0.0000000   0.0000000), wk =   0.1111111
        k(   17) = (  -0.0773883  -0.0446802   0.0000000), wk =   0.0555556
        k(   18) = (  -0.0773883  -0.0148934   0.0000000), wk =   0.1111111
        k(   19) = (  -0.0773883   0.0148934   0.0000000), wk =   0.1111111
        k(   20) = (  -0.0773883  -0.1340405   0.0000000), wk =   0.0555556

     Largest allocated arrays     est. size (Mb)     dimensions
     Largest temporary arrays     est. size (Mb)     dimensions

     Check: negative/imaginary core charge=   -0.000007    0.000000

     Initial potential from superposition of free atoms
     Check: negative starting charge=   -0.829948

     starting charge  158.95612, renormalised to  162.00000

[...]

     *
     * You are using vdW-DF for exchange-correlation in this calculation.
     * Please cite the following three references that made this development
     * possible:
     *
     *   M. Dion, H. Rydberg, E. Schroder, D. C. Langreth, and
     *   B. I. Lundqvist, Phys. Rev. Lett. 92, 246401 (2004).
     *
     *   T. Thonhauser, V. R. Cooper, S. Li, A. Puzder, P. Hyldgaard, and
     *   D. C. Langreth, Phys. Rev. B 76, 125112 (2007).
     *
     *   G. Roman-Perez and J. M. Soler, Phys. Rev. Lett. 103, 096102 (2009).
     *
     *
     * If you are using vdW-DF2, please also cite:
     *
     *   K. Lee, E. D. Murray, L. Kong, B. I. Lundqvist, and
     *   D. C. Langreth, Phys. Rev. B 82, 081101(R) (2010).
     *
     *
     * If you are calculating the stress with vdW-DF, please also cite:
     *
     *   R. Sabatini, E. Kucukbenli, B. Kolb, T. Thonhauser, and
     *   S. de Gironcoli, J. Phys.: Condens. Matter 24, 424209 (2012).
     *

     Carrying out vdW-DF run using the following parameters:

     Nqs =      20    Nr_points =    1024   r_max =   100.000
     q_mesh =
               0.00001000     0.04494208     0.09755937     0.15916263
               0.23128650     0.31572767     0.41458969     0.53033537
               0.66584808     0.82450364     1.01025438     1.22772762
               1.48234092     1.78043706     2.12944203     2.53805004
               3.01644009     3.57652955     4.23227104     5.00000000

     Gradients computed in reciprocal space

[...]

     Starting wfc are  120 randomized atomic wfcs

     Self-consistent Calculation

[...]

     total energy              =   -1846.41024011 Ry
     Harris-Foulkes estimate   =   -1846.41023119 Ry
     estimated scf accuracy    <       0.00000143 Ry

     iteration # 20     ecut=    36.75 Ry     beta=0.10
     Davidson diagonalization with overlap
     ethr =  8.82E-10,  avg # of iterations =  3.0

[...]

     negative rho (up, down):  8.609E-01 0.000E+00

     Adding external electric field

     Computed dipole along edir(3) :
        Dipole                0.1135 Ry au,          0.2885 Debye
        Dipole field          0.0002 Ry au

        Potential amp.       -0.0215 Ry
        Total length         46.5693 bohr

     End of self-consistent calculation

[...]

          k = 0.0516 0.0000 0.0000 ( 23188 PWs)   bands (ev):

[...]

          k =-0.0774-0.1340 0.0000 ( 23216 PWs)   bands (ev):

   -65.2630 -65.2459 -65.1002 -37.3295 -37.3293 -37.3149 -37.3148 -37.2781
   -37.2463 -37.1848 -37.1847 -37.0586 -11.0983 -10.9787 -10.9558 -10.9176
   -10.8991 -10.8539 -10.8167 -10.7884 -10.7715 -10.7533 -10.7184 -10.7122
   -10.6622 -10.6484 -10.6388 -10.6189 -10.6011 -10.5492 -10.5459 -10.5270
   -10.5219 -10.5184 -10.4910 -10.4810 -10.4741 -10.4642 -10.4395 -10.4362
   -10.4338 -10.4225 -10.4197 -10.4134 -10.3982 -10.3950 -10.3752 -10.3708
   -10.3356 -10.3308 -10.3048 -10.2905 -10.2734 -10.2318 -10.1765 -10.1051
   -10.0667  -7.3710  -6.9446  -5.9065  -5.6479  -4.8819  -4.6522  -4.3152
    -3.5351  -2.5056  -1.8113  -1.2115  -0.5892  -0.2375  -0.1106  -0.0408
     0.0458   0.0766   0.3485   0.5323   0.7382   0.8986   1.0597   1.1184
     1.2504   1.2534   1.3896   1.6429   1.8911   2.0519   2.6186   3.0019
     3.0583   3.0800   3.6309   3.7520   3.7793   4.1422   4.2983   4.4535
     4.8424   5.1999   5.3673   5.4866   5.5851   5.6049   5.6441   5.7336
     5.8191   6.3725   6.4314   6.4524   6.6360   6.7915   6.9882

     the Fermi energy is     1.1670 ev

!    total energy              =   -1846.41027944 Ry
     Harris-Foulkes estimate   =   -1846.41024143 Ry
     estimated scf accuracy    <       0.00000046 Ry

     The total energy is the sum of the following terms:

     one-electron contribution =  -10149.10898097 Ry
     hartree contribution      =    5135.98117022 Ry
     xc contribution           =    -675.35053230 Ry
     ewald contribution        =    3842.16110283 Ry
     electric field correction =       0.00002626 Ry
     smearing contrib. (-TS)   =      -0.09306548 Ry

     convergence has been achieved in  20 iterations

 BEEF-vdW xc energy contributions
           1 :   -600.331310875556
           2 :    556.464759114784
           3 :   -479.208434981493
           4 :    385.352921580459
           5 :   -292.146071799174
           6 :    212.089149469000
           7 :   -150.397254342397
           8 :    105.584186986947
           9 :   -72.4131764672533
          10 :    45.4912308211433
          11 :   -21.8562160864815
          12 :    1.57779090466761
          13 :    13.4347951596625
          14 :   -21.4252556878421
          15 :    22.3341220782874
          16 :   -18.1454021585146
          17 :    12.0267902718147
          18 :   -6.91484654639930
          19 :    4.35922985588252
          20 :   -4.20879682486964
          21 :    5.17907999891668
          22 :   -5.88711565447670
          23 :    5.72186313700888
          24 :   -5.09856645822208
          25 :    5.02733305468007
          26 :   -6.33793577397216
          27 :    9.05530258369095
          28 :   -12.2992249159720
          29 :    14.7380270887944
          30 :   -15.3095395853502
          31 :   -49.4016404568581
          32 :   -36.1055914202873

     Forces acting on atoms (Ry/au):

     negative rho (up, down):  8.609E-01 0.000E+00
     atom    1 type  1   force =     0.00000009    0.01541254   -0.02486866
     atom    2 type  1   force =     0.01342424   -0.00771699   -0.02477771
     atom    3 type  1   force =    -0.01342278   -0.00771390   -0.02477680
     atom    4 type  2   force =    -0.00000012    0.00002866    0.06883235
     atom    5 type  1   force =    -0.00000237   -0.02254648   -0.00023536
     atom    6 type  1   force =    -0.01953089    0.01128382   -0.00025212
     atom    7 type  1   force =     0.01953303    0.01128833   -0.00025332
     atom    8 type  2   force =     0.00000018    0.00000755    0.00290362
     atom    9 type  1   force =    -0.00000106   -0.00084216    0.00145537
     atom   10 type  1   force =    -0.00070747    0.00042250    0.00151822
     atom   11 type  1   force =     0.00070733    0.00042502    0.00151781
     atom   12 type  2   force =    -0.00000017   -0.00004891   -0.00106340

     Total force =     0.094052     Total SCF correction =     0.002689

     entering subroutine stress ...

     negative rho (up, down):  8.609E-01 0.000E+00
          total   stress  (Ry/bohr**3)                   (kbar)     P=  -10.38
  -0.00009217   0.00000000   0.00000000        -13.56      0.00      0.00
   0.00000000  -0.00009216  -0.00000000          0.00    -13.56     -0.00
   0.00000000  -0.00000000  -0.00002745          0.00     -0.00     -4.04

 !ASE

     Writing output data file calc.save

     General routines

     Parallel routines

   This run was terminated on:   5:11:58   2Jan2019

   JOB DONE.
Job  /afs/slac/g/suncat/bin/suncat-tsmpirun -x LD_LIBRARY_PATH -wdir /scratch/qe649284_31tGD pw.x -in pw.inp

TID   HOST_NAME   COMMAND_LINE            STATUS            TERMINATION_TIME
00000 suncat0090 pw.x -in pw.inp   Done                     01/02/2019 05:11:58
00001 suncat0090 pw.x -in pw.inp   Done                     01/02/2019 05:11:58
00002 suncat0090 pw.x -in pw.inp   Done                     01/02/2019 05:11:58
00003 suncat0090 pw.x -in pw.inp   Done                     01/02/2019 05:11:58
00004 suncat0090 pw.x -in pw.inp   Done                     01/02/2019 05:11:58
00005 suncat0090 pw.x -in pw.inp   Done                     01/02/2019 05:11:58
00006 suncat0090 pw.x -in pw.inp   Done                     01/02/2019 05:11:58
00007 suncat0090 pw.x -in pw.inp   Done                     01/02/2019 05:11:58
00008 suncat0089 pw.x -in pw.inp   Done                     01/02/2019 05:11:58
00009 suncat0089 pw.x -in pw.inp   Done                     01/02/2019 05:11:58
00010 suncat0089 pw.x -in pw.inp   Done                     01/02/2019 05:11:58
00011 suncat0089 pw.x -in pw.inp   Done                     01/02/2019 05:11:58
00012 suncat0089 pw.x -in pw.inp   Done                     01/02/2019 05:11:58
00013 suncat0089 pw.x -in pw.inp   Done                     01/02/2019 05:11:58
00014 suncat0089 pw.x -in pw.inp   Done                     01/02/2019 05:11:58
00015 suncat0089 pw.x -in pw.inp   Done                     01/02/2019 05:11:58
00016 suncat0088 pw.x -in pw.inp   Done                     01/02/2019 05:11:58
00017 suncat0088 pw.x -in pw.inp   Done                     01/02/2019 05:11:58
00018 suncat0088 pw.x -in pw.inp   Done                     01/02/2019 05:11:58
00019 suncat0088 pw.x -in pw.inp   Done                     01/02/2019 05:11:58
00020 suncat0088 pw.x -in pw.inp   Done                     01/02/2019 05:11:58
00021 suncat0088 pw.x -in pw.inp   Done                     01/02/2019 05:11:58
00022 suncat0088 pw.x -in pw.inp   Done                     01/02/2019 05:11:58
00023 suncat0088 pw.x -in pw.inp   Done                     01/02/2019 05:11:58
00024 suncat0079 pw.x -in pw.inp   Done                     01/02/2019 05:11:58
00025 suncat0079 pw.x -in pw.inp   Done                     01/02/2019 05:11:58
00026 suncat0079 pw.x -in pw.inp   Done                     01/02/2019 05:11:58
00027 suncat0079 pw.x -in pw.inp   Done                     01/02/2019 05:11:58
00028 suncat0079 pw.x -in pw.inp   Done                     01/02/2019 05:11:58
00029 suncat0079 pw.x -in pw.inp   Done                     01/02/2019 05:11:58
00030 suncat0079 pw.x -in pw.inp   Done                     01/02/2019 05:11:58
00031 suncat0079 pw.x -in pw.inp   Done                     01/02/2019 05:11:58
00032 suncat0050 pw.x -in pw.inp   Done                     01/02/2019 05:11:58
00033 suncat0050 pw.x -in pw.inp   Done                     01/02/2019 05:11:58
00034 suncat0050 pw.x -in pw.inp   Done                     01/02/2019 05:11:58
00035 suncat0050 pw.x -in pw.inp   Done                     01/02/2019 05:11:58
00036 suncat0050 pw.x -in pw.inp   Done                     01/02/2019 05:11:58
00037 suncat0050 pw.x -in pw.inp   Done                     01/02/2019 05:11:58
00038 suncat0050 pw.x -in pw.inp   Done                     01/02/2019 05:11:58
00039 suncat0050 pw.x -in pw.inp   Done                     01/02/2019 05:11:58
00040 suncat0049 pw.x -in pw.inp   Done                     01/02/2019 05:11:58
00041 suncat0049 pw.x -in pw.inp   Done                     01/02/2019 05:11:58
00042 suncat0049 pw.x -in pw.inp   Done                     01/02/2019 05:11:58
00043 suncat0049 pw.x -in pw.inp   Done                     01/02/2019 05:11:58
00044 suncat0049 pw.x -in pw.inp   Done                     01/02/2019 05:11:58
00045 suncat0049 pw.x -in pw.inp   Done                     01/02/2019 05:11:58
00046 suncat0049 pw.x -in pw.inp   Done                     01/02/2019 05:11:58
00047 suncat0049 pw.x -in pw.inp   Done                     01/02/2019 05:11:58
00048 suncat0038 pw.x -in pw.inp   Done                     01/02/2019 05:11:58
00049 suncat0038 pw.x -in pw.inp   Done                     01/02/2019 05:11:58
00050 suncat0038 pw.x -in pw.inp   Done                     01/02/2019 05:11:58
00051 suncat0038 pw.x -in pw.inp   Done                     01/02/2019 05:11:58
00052 suncat0038 pw.x -in pw.inp   Done                     01/02/2019 05:11:58
00053 suncat0038 pw.x -in pw.inp   Done                     01/02/2019 05:11:58
00054 suncat0038 pw.x -in pw.inp   Done                     01/02/2019 05:11:58
00055 suncat0038 pw.x -in pw.inp   Done                     01/02/2019 05:11:58
00056 suncat0037 pw.x -in pw.inp   Done                     01/02/2019 05:11:58
00057 suncat0037 pw.x -in pw.inp   Done                     01/02/2019 05:11:58
00058 suncat0037 pw.x -in pw.inp   Done                     01/02/2019 05:11:58
00059 suncat0037 pw.x -in pw.inp   Done                     01/02/2019 05:11:58
00060 suncat0037 pw.x -in pw.inp   Done                     01/02/2019 05:11:58
00061 suncat0037 pw.x -in pw.inp   Done                     01/02/2019 05:11:58
00062 suncat0037 pw.x -in pw.inp   Done                     01/02/2019 05:11:58
00063 suncat0037 pw.x -in pw.inp   Done                     01/02/2019 05:11:58