     Program PWSCF v.5.1rc2 (svn rev. 11289) starts on 27Dec2018 at 17:31: 5

     Current dimensions of program PWSCF are:
     Max number of different atomic species (ntypx) = 10
     Max number of k-points (npk) =  40000
     Max angular momentum in pseudopotentials (lmaxx) =  3
     Presently stress not available with electric field

     IMPORTANT: XC functional enforced from input :
     Exchange-correlation      = BEEF-VDW ( 1  4 27 13 2)
     Any further DFT definition will be discarded
     Please, verify this is what you really want

     Subspace diagonalization in iterative solution of the eigenvalue problem:
     a serial algorithm will be used

     bravais-lattice index     =            0
     lattice parameter (alat)  =       1.8897  a.u.
     unit-cell volume          =    4464.0796 (a.u.)^3
     number of atoms/cell      =           12
     number of atomic types    =            2
     number of electrons       =       189.00
     number of Kohn-Sham states=          124
     kinetic-energy cutoff     =      36.7493  Ry
     charge density cutoff     =     367.4932  Ry
     convergence threshold     =      1.0E-06
     mixing beta               =       0.1000
     number of iterations used =           10  plain     mixing
     Exchange-correlation      = BEEF-VDW ( 1  4 27 13 2)
     nstep                     =           50

     celldm(1)=   1.889726  celldm(2)=   0.000000  celldm(3)=   0.000000
     celldm(4)=   0.000000  celldm(5)=   0.000000  celldm(6)=   0.000000

     crystal axes: (cart. coord. in units of alat)
               a(1) = (   5.577518   0.000000   0.000000 )
               a(2) = (  -2.788759   4.830273   0.000000 )
               a(3) = (   0.000000   0.000000  24.554025 )

     reciprocal axes: (cart. coord. in units 2 pi/alat)
               b(1) = (  0.179291  0.103514  0.000000 )
               b(2) = (  0.000000  0.207028  0.000000 )
               b(3) = (  0.000000  0.000000  0.040727 )

     PseudoPot. # 1 for Pd read from file:
     /afs/slac.stanford.edu/u/if/mamunm/psp/gbrv1.5pbe/Pd.UPF
     MD5 check sum: 2d733d2bc2cbfd217af676df1668a4bc
     Pseudo is Ultrasoft + core correction, Zval = 16.0
     Generated by new atomic code, or converted to UPF format
     Using radial grid of  887 points,  6 beta functions with:
                l(1) =   0
                l(2) =   0
                l(3) =   1
                l(4) =   1
                l(5) =   2
                l(6) =   2
     Q(r) pseudized with  8 coefficients,  rinner =    1.130   1.130   1.130
                                                       1.130   1.130

     PseudoPot. # 2 for Rh read from file:
     /afs/slac.stanford.edu/u/if/mamunm/psp/gbrv1.5pbe/Rh.UPF
     MD5 check sum: 761627e959a2e3a1f56b0b5fe687810e
     Pseudo is Ultrasoft + core correction, Zval = 15.0
     Generated by new atomic code, or converted to UPF format
     Using radial grid of  969 points,  7 beta functions with:
                l(1) =   0
                l(2) =   0
                l(3) =   1
                l(4) =   1
                l(5) =   2
                l(6) =   2
                l(7) =   2
     Q(r) pseudized with  8 coefficients,  rinner =    1.200   1.200   1.200
                                                       1.200   1.200

     vdW kernel table read from file vdW_kernel_table
     MD5 check sum: 095c7af220d748ca6e76c0b4c6cfb241

     atomic species   valence    mass     pseudopotential
        Pd1           16.00   106.42000     Pd( 1.00)
        Rh1           15.00   102.90550     Rh( 1.00)

     No symmetry found

   Cartesian axes

     site n.     atom                  positions (alat units)
         1           Pd1 tau(   1) = (   0.0000000   0.0000000  10.0000000  )
         2           Pd1 tau(   2) = (  -1.3943796   2.4151363  10.0000000  )
         3           Pd1 tau(   3) = (   1.3943796   2.4151363  10.0000000  )
         4           Rh1 tau(   4) = (   2.7887591   0.0000000  10.0000000  )
         5           Pd1 tau(   5) = (   2.7887591   1.6100908  12.2770123  )
         6           Pd1 tau(   6) = (   1.3943796   4.0252271  12.2770123  )
         7           Pd1 tau(   7) = (  -1.3943796   4.0252271  12.2770123  )
         8           Rh1 tau(   8) = (   0.0000000   1.6100908  12.2770123  )
         9           Pd1 tau(   9) = (  -0.0000000   3.2201817  14.5540246  )
        10           Pd1 tau(  10) = (   1.3943796   0.8050454  14.5540246  )
        11           Pd1 tau(  11) = (   4.1831387   0.8050454  14.5540246  )
        12           Rh1 tau(  12) = (   2.7887591   3.2201817  14.5540246  )

     number of k points=    20  Fermi-Dirac smearing, width (Ry)=  0.0110
                       cart. coord. in units 2pi/alat
        k(    1) = (   0.0000000   0.0000000   0.0000000), wk =   0.0555556
        k(    2) = (   0.0000000   0.0345046   0.0000000), wk =   0.1111111
        k(    3) = (   0.0000000   0.0690092   0.0000000), wk =   0.1111111
        k(    4) = (   0.0000000  -0.1035138   0.0000000), wk =   0.0555556
        k(    5) = (   0.0298819   0.0172523   0.0000000), wk =   0.1111111
        k(    6) = (   0.0298819   0.0517569   0.0000000), wk =   0.1111111
        k(    7) = (   0.0298819   0.0862615   0.0000000), wk =   0.1111111
        k(    8) = (   0.0298819  -0.0862615   0.0000000), wk =   0.1111111
        k(    9) = (   0.0298819  -0.0517569   0.0000000), wk =   0.1111111
        k(   10) = (   0.0298819  -0.0172523   0.0000000), wk =   0.1111111
        k(   11) = (   0.0597637   0.0345046   0.0000000), wk =   0.1111111
        k(   12) = (   0.0597637   0.0690092   0.0000000), wk =   0.1111111
        k(   13) = (   0.0597637   0.1035138   0.0000000), wk =   0.1111111
        k(   14) = (   0.0597637  -0.0690092   0.0000000), wk =   0.1111111
        k(   15) = (   0.0597637  -0.0345046   0.0000000), wk =   0.1111111
        k(   16) = (   0.0597637   0.0000000   0.0000000), wk =   0.1111111
        k(   17) = (  -0.0896456  -0.0517569   0.0000000), wk =   0.0555556
        k(   18) = (  -0.0896456  -0.0172523   0.0000000), wk =   0.1111111
        k(   19) = (  -0.0896456   0.0172523   0.0000000), wk =   0.1111111
        k(   20) = (  -0.0896456  -0.1552707   0.0000000), wk =   0.0555556

     Largest allocated arrays     est. size (Mb)     dimensions
     Largest temporary arrays     est. size (Mb)     dimensions

     Initial potential from superposition of free atoms
     Check: negative starting charge=   -0.850531

     starting charge  182.99964, renormalised to  189.00000

     negative rho (up, down):  8.784E-01 0.000E+00

     *
     * You are using vdW-DF for exchange-correlation in this calculation.
     * Please cite the following three references that made this development
     * possible:
     *
     *   M. Dion, H. Rydberg, E. Schroder, D. C. Langreth, and
     *   B. I. Lundqvist, Phys. Rev. Lett. 92, 246401 (2004).
     *
     *   T. Thonhauser, V. R. Cooper, S. Li, A. Puzder, P. Hyldgaard, and
     *   D. C. Langreth, Phys. Rev. B 76, 125112 (2007).
     *
     *   G. Roman-Perez and J. M. Soler, Phys. Rev. Lett. 103, 096102 (2009).
     *
     *
     * If you are using vdW-DF2, please also cite:
     *
     *   K. Lee, E. D. Murray, L. Kong, B. I. Lundqvist, and
     *   D. C. Langreth, Phys. Rev. B 82, 081101(R) (2010).
     *
     *
     * If you are calculating the stress with vdW-DF, please also cite:
     *
     *   R. Sabatini, E. Kucukbenli, B. Kolb, T. Thonhauser, and
     *   S. de Gironcoli, J. Phys.: Condens. Matter 24, 424209 (2012).
     *

     Carrying out vdW-DF run using the following parameters:

     Nqs =      20    Nr_points =    1024   r_max =   100.000
     q_mesh =
               0.00001000     0.04494208     0.09755937     0.15916263
               0.23128650     0.31572767     0.41458969     0.53033537
               0.66584808     0.82450364     1.01025438     1.22772762
               1.48234092     1.78043706     2.12944203     2.53805004
               3.01644009     3.57652955     4.23227104     5.00000000

     Gradients computed in reciprocal space

     Adding external electric field

     Computed dipole along edir(3) :
        Dipole               -0.0000 Ry au,         -0.0000 Debye
        Dipole field         -0.0000 Ry au

        Potential amp.        0.0000 Ry
        Total length         45.2404 bohr

     Starting wfc are  144 randomized atomic wfcs

     Self-consistent Calculation

     iteration #  1     ecut=    36.75 Ry     beta=0.10
     Davidson diagonalization with overlap
     ethr =  1.00E-02,  avg # of iterations =  7.5

[...]

     total energy              =   -2313.72104329 Ry
     Harris-Foulkes estimate   =   -2318.91724459 Ry
     estimated scf accuracy    <      30.37982556 Ry

[...]

     End of self-consistent calculation

          k = 0.0000 0.0000 0.0000 ( 16763 PWs)   bands (ev):

   -49.0961 -49.0364 -49.0364 -48.9780 -48.9712 -48.9712 -48.9159 -48.8405
   -48.8405 -48.8002 -48.7965 -48.7713 -48.7713 -48.7502 -48.7502 -48.6588
   -48.6556 -48.5713 -48.5713 -48.5712 -48.5712 -48.5033 -48.4862 -48.4747
   -48.4747 -48.4657 -48.4657 -45.0970 -45.0642 -45.0642 -44.7735 -44.7735
   -44.7725 -44.7725 -44.6024 -44.5986  -4.9203  -3.6360  -3.6322  -3.6228
    -3.6039  -3.6039  -3.4440  -3.3747  -3.3747  -3.2201  -3.2080  -3.2080
    -3.0322  -2.9685  -2.9685  -2.0767  -1.9891  -1.9890  -1.7453  -1.7453
    -1.6750  -1.5418  -1.4533  -1.4533  -1.2756  -1.2573  -1.2573  -1.0867
    -1.0867  -1.0817  -1.0599  -1.0599  -0.5530  -0.5530  -0.1779  -0.1198
    -0.0222  -0.0222   0.0167   0.0167   0.1443   0.1444   0.3828   0.6370
     0.6370   0.6399   0.7811   0.7811   0.9361   1.0103   1.0103   1.1131
     1.1485   1.1485   1.1580   1.2030   1.2595   1.3438   1.3438   1.5658
     1.5658   1.6362   1.6362   2.5574   3.3375   3.3375   3.3556   4.6860
     4.6860   4.7641   4.9719   4.9719   5.0269   5.6431   5.9314   6.2779
     7.2336   8.0547   8.1303   8.1303   8.2285   8.2323   8.2323   8.3199
     9.3838   9.3838   9.4564   9.5892

[...]

          k =-0.0896-0.0518 0.0000 ( 16808 PWs)   bands (ev):

[...]

     the Fermi energy is     1.0889 ev

!    total energy              =   -2314.56190360 Ry
     Harris-Foulkes estimate   =   -2314.56190557 Ry
     estimated scf accuracy    <       0.00000041 Ry

     The total energy is the sum of the following terms:

     one-electron contribution =  -19896.97679964 Ry
     hartree contribution      =    9995.24509000 Ry
     xc contribution           =    -385.56140555 Ry
     ewald contribution        =    7972.86295953 Ry
     electric field correction =       0.00000000 Ry
     smearing contrib. (-TS)   =      -0.13174794 Ry

     convergence has been achieved in  17 iterations

 BEEF-vdW xc energy contributions
           1 :   -335.723253005920
           2 :    307.178013675098
           3 :   -258.307070354784
           4 :    202.034080796889
           5 :   -151.017446526435
           6 :    113.495346368095
           7 :   -91.4589070753631
           8 :    81.4879206428477
           9 :   -77.4772135990553
          10 :    73.7966264882672
          11 :   -67.4747033308954
[...]
     Generated by new atomic code, or converted to UPF format
     Using radial grid of  887 points,  6 beta functions with:
                l(1) =   0
                l(2) =   0
                l(3) =   1
                l(4) =   1
                l(5) =   2
                l(6) =   2
     Q(r) pseudized with  8 coefficients,  rinner =    1.130   1.130   1.130
                                                       1.130   1.130

     PseudoPot. # 2 for Rh read from file:
     /afs/slac.stanford.edu/u/if/mamunm/psp/gbrv1.5pbe/Rh.UPF
     MD5 check sum: 761627e959a2e3a1f56b0b5fe687810e
     Pseudo is Ultrasoft + core correction, Zval = 15.0
     Generated by new atomic code, or converted to UPF format
     Using radial grid of  969 points,  7 beta functions with:
                l(1) =   0
                l(2) =   0
                l(3) =   1
                l(4) =   1
                l(5) =   2
                l(6) =   2
                l(7) =   2
     Q(r) pseudized with  8 coefficients,  rinner =    1.200   1.200   1.200
                                                       1.200   1.200

     vdW kernel table read from file vdW_kernel_table
     MD5 check sum: 095c7af220d748ca6e76c0b4c6cfb241

     atomic species   valence    mass     pseudopotential
        Pd1           16.00   106.42000     Pd( 1.00)
        Rh1           15.00   102.90550     Rh( 1.00)

     No symmetry found

   Cartesian axes

     site n.     atom                  positions (alat units)
         1           Pd1 tau(   1) = (   0.0000000   0.0000000  10.0000000  )
         2           Pd1 tau(   2) = (  -1.3943796   2.4151363  10.0000000  )
         3           Pd1 tau(   3) = (   1.3943796   2.4151363  10.0000000  )
         4           Rh1 tau(   4) = (   2.7887591   0.0000000  10.0000000  )
         5           Pd1 tau(   5) = (   2.7887591   1.6100908  12.2770123  )
         6           Pd1 tau(   6) = (   1.3943796   4.0252271  12.2770123  )
         7           Pd1 tau(   7) = (  -1.3943796   4.0252271  12.2770123  )
         8           Rh1 tau(   8) = (   0.0000000   1.6100908  12.2770123  )
         9           Pd1 tau(   9) = (  -0.0000004   3.2103002  14.5825989  )
        10           Pd1 tau(  10) = (   1.3858195   0.8099864  14.5826003  )
        11           Pd1 tau(  11) = (   4.1916980   0.8099861  14.5825986  )
        12           Rh1 tau(  12) = (   2.7887585   3.2201831  14.4670125  )

     number of k points=    20  Fermi-Dirac smearing, width (Ry)=  0.0110
                       cart. coord. in units 2pi/alat
        k(    1) = (   0.0000000   0.0000000   0.0000000), wk =   0.0555556
        k(    2) = (   0.0000000   0.0345046   0.0000000), wk =   0.1111111
        k(    3) = (   0.0000000   0.0690092   0.0000000), wk =   0.1111111
        k(    4) = (   0.0000000  -0.1035138   0.0000000), wk =   0.0555556
        k(    5) = (   0.0298819   0.0172523   0.0000000), wk =   0.1111111
        k(    6) = (   0.0298819   0.0517569   0.0000000), wk =   0.1111111
        k(    7) = (   0.0298819   0.0862615   0.0000000), wk =   0.1111111
        k(    8) = (   0.0298819  -0.0862615   0.0000000), wk =   0.1111111
        k(    9) = (   0.0298819  -0.0517569   0.0000000), wk =   0.1111111
        k(   10) = (   0.0298819  -0.0172523   0.0000000), wk =   0.1111111
        k(   11) = (   0.0597637   0.0345046   0.0000000), wk =   0.1111111
        k(   12) = (   0.0597637   0.0690092   0.0000000), wk =   0.1111111
        k(   13) = (   0.0597637   0.1035138   0.0000000), wk =   0.1111111
        k(   14) = (   0.0597637  -0.0690092   0.0000000), wk =   0.1111111
        k(   15) = (   0.0597637  -0.0345046   0.0000000), wk =   0.1111111
        k(   16) = (   0.0597637   0.0000000   0.0000000), wk =   0.1111111
        k(   17) = (  -0.0896456  -0.0517569   0.0000000), wk =   0.0555556
        k(   18) = (  -0.0896456  -0.0172523   0.0000000), wk =   0.1111111
        k(   19) = (  -0.0896456   0.0172523   0.0000000), wk =   0.1111111
        k(   20) = (  -0.0896456  -0.1552707   0.0000000), wk =   0.0555556

     Largest allocated arrays     est. size (Mb)     dimensions
     Largest temporary arrays     est. size (Mb)     dimensions

     Initial potential from superposition of free atoms
     Check: negative starting charge=   -0.847528

     starting charge  182.99964, renormalised to  189.00000

[...]

     *
     * You are using vdW-DF for exchange-correlation in this calculation.
     * Please cite the following three references that made this development
     * possible:
     *
     *   M. Dion, H. Rydberg, E. Schroder, D. C. Langreth, and
     *   B. I. Lundqvist, Phys. Rev. Lett. 92, 246401 (2004).
     *
     *   T. Thonhauser, V. R. Cooper, S. Li, A. Puzder, P. Hyldgaard, and
     *   D. C. Langreth, Phys. Rev. B 76, 125112 (2007).
     *
     *   G. Roman-Perez and J. M. Soler, Phys. Rev. Lett. 103, 096102 (2009).
     *
     *
     * If you are using vdW-DF2, please also cite:
     *
     *   K. Lee, E. D. Murray, L. Kong, B. I. Lundqvist, and
     *   D. C. Langreth, Phys. Rev. B 82, 081101(R) (2010).
     *
     *
     * If you are calculating the stress with vdW-DF, please also cite:
     *
     *   R. Sabatini, E. Kucukbenli, B. Kolb, T. Thonhauser, and
     *   S. de Gironcoli, J. Phys.: Condens. Matter 24, 424209 (2012).
     *

     Carrying out vdW-DF run using the following parameters:

     Nqs =      20    Nr_points =    1024   r_max =   100.000
     q_mesh =
               0.00001000     0.04494208     0.09755937     0.15916263
               0.23128650     0.31572767     0.41458969     0.53033537
               0.66584808     0.82450364     1.01025438     1.22772762
               1.48234092     1.78043706     2.12944203     2.53805004
               3.01644009     3.57652955     4.23227104     5.00000000

     Gradients computed in reciprocal space

[...]

     Starting wfc are  144 randomized atomic wfcs

     Self-consistent Calculation

[...]

     total energy              =   -2314.56610665 Ry
     Harris-Foulkes estimate   =   -2314.56610927 Ry
     estimated scf accuracy    <       0.00004013 Ry

     iteration # 18     ecut=    36.75 Ry     beta=0.10
     Davidson diagonalization with overlap
     ethr =  2.12E-08,  avg # of iterations =  1.0

[...]

     negative rho (up, down):  8.828E-01 0.000E+00

     Adding external electric field

     Computed dipole along edir(3) :
        Dipole                0.0039 Ry au,          0.0099 Debye
        Dipole field          0.0000 Ry au

        Potential amp.       -0.0010 Ry
        Total length         45.2404 bohr

     End of self-consistent calculation

[...]

          k = 0.0598 0.0000 0.0000 ( 16772 PWs)   bands (ev):

[...]

          k =-0.0896-0.1553 0.0000 ( 16808 PWs)   bands (ev):

   -49.0838 -49.0307 -49.0084 -49.0079 -48.9849 -48.9583 -48.9468 -48.9185
   -48.8519 -48.7670 -48.7451 -48.7132 -48.6983 -48.6960 -48.6921 -48.6768
   -48.6725 -48.6585 -48.6316 -48.5780 -48.5524 -48.4840 -48.4767 -48.4667
   -48.4545 -48.4441 -48.4369 -45.0785 -45.0537 -45.0498 -44.8355 -44.8316
   -44.7790 -44.7750 -44.6958 -44.6019  -3.5494  -3.5099  -3.0203  -2.9603
    -2.9418  -2.8581  -2.7370  -2.7270  -2.6826  -2.6004  -2.5942  -2.4534
    -2.3872  -2.2684  -2.2394  -2.2017  -1.9482  -1.8986  -1.8765  -1.8552
    -1.7038  -1.6832  -1.5044  -1.4637  -1.2502  -1.2264  -1.1867  -1.1391
    -1.0611  -1.0231  -0.9718  -0.9368  -0.9050  -0.8872  -0.8587  -0.8126
    -0.7909  -0.7290  -0.5551  -0.5307  -0.4361  -0.4329  -0.3837  -0.2070
    -0.1574  -0.1285  -0.0858   0.0761   0.0849   0.2318   0.2776   0.2786
     0.3293   0.4150   0.5943   0.6272   0.8120   0.8944   0.9637   1.0930
     1.1034   1.1171   1.2131   1.4899   3.3471   3.4594   3.5841   3.9362
     4.6664   4.8301   5.6017   5.6788   6.7494   6.7771   7.1653   7.1759
     7.7476   7.7562   7.8280   7.8306   8.9705   8.9859   9.0416   9.0494
     9.5080   9.5162  10.1000  10.1248

     the Fermi energy is     1.0893 ev

!    total energy              =   -2314.56610522 Ry
     Harris-Foulkes estimate   =   -2314.56610740 Ry
     estimated scf accuracy    <       0.00000082 Ry

     The total energy is the sum of the following terms:

     one-electron contribution =  -19893.14850312 Ry
     hartree contribution      =    9993.32996568 Ry
     xc contribution           =    -385.56902038 Ry
     ewald contribution        =    7970.95122530 Ry
     electric field correction =       0.00000004 Ry
     smearing contrib. (-TS)   =      -0.12977274 Ry

     convergence has been achieved in  18 iterations

 BEEF-vdW xc energy contributions
           1 :   -335.786721847299
           2 :    307.241915089853
           3 :   -258.372088784294
           4 :    202.100176703715
           5 :   -151.082742819650
           6 :    113.556271216316
           7 :   -91.5121724593556
           8 :    81.5330063870490
           9 :   -77.5176674945045
          10 :    73.8390369117591
          11 :   -67.5256706553987
          12 :    58.7187634822791
          13 :   -49.5804346308215
          14 :    42.5108309880627
          15 :   -38.6977918377775
          16 :    37.6459034760784
          17 :   -37.7148572739117
          18 :    37.1785281071201
          19 :   -35.1444127701873
          20 :    31.8597151281650
          21 :   -28.3448663689123
          22 :    25.6696591802792
          23 :   -24.3296219630076
          24 :    24.0454480836172
          25 :   -24.0309329083530
          26 :    23.5106727499070
          27 :   -22.1627608000789
          28 :    20.2421905149475
          29 :   -18.3533276157686
          30 :    17.0440315392864
          31 :   -32.7645634972174
          32 :   -24.2894616276434

     Forces acting on atoms (Ry/au):

     negative rho (up, down):  8.828E-01 0.000E+00
     atom    1 type  1   force =    -0.00000074    0.00566156   -0.00610468
     atom    2 type  1   force =     0.00490263   -0.00283120   -0.00610496
     atom    3 type  1   force =    -0.00490251   -0.00283036   -0.00610496
     atom    4 type  2   force =    -0.00000003    0.00000003    0.01880258
     atom    5 type  1   force =     0.00000036   -0.00515154   -0.00132589
     atom    6 type  1   force =    -0.00446033    0.00257614   -0.00132595
     atom    7 type  1   force =     0.00446064    0.00257584   -0.00132548
     atom    8 type  2   force =    -0.00000019   -0.00000006    0.00285064
     atom    9 type  1   force =     0.00000003   -0.00003499    0.00021383
     atom   10 type  1   force =    -0.00003000    0.00001729    0.00021381
     atom   11 type  1   force =     0.00003021    0.00001730    0.00021368
     atom   12 type  2   force =    -0.00000008   -0.00000000   -0.00000264

     Total force =     0.025586     Total SCF correction =     0.005774
     SCF correction compared to forces is large: reduce conv_thr to get better values

     entering subroutine stress ...

     negative rho (up, down):  8.828E-01 0.000E+00
          total   stress  (Ry/bohr**3)                   (kbar)     P=  -14.73
  -0.00012459   0.00000000   0.00000000        -18.33      0.00      0.00
   0.00000000  -0.00012459   0.00000000          0.00    -18.33      0.00
   0.00000000   0.00000000  -0.00005125          0.00      0.00     -7.54

 !ASE

     Writing output data file calc.save

     General routines

     Parallel routines

   This run was terminated on:  18:38:14  27Dec2018

   JOB DONE.
Job  /afs/slac/g/suncat/bin/suncat-tsmpirun -x LD_LIBRARY_PATH -wdir /scratch/qe110473_72Bhc pw.x -in pw.inp

TID   HOST_NAME   COMMAND_LINE            STATUS            TERMINATION_TIME
00000 suncat0266 pw.x -in pw.inp   Done                     12/27/2018 18:38:14
00001 suncat0266 pw.x -in pw.inp   Done                     12/27/2018 18:38:14
00002 suncat0266 pw.x -in pw.inp   Done                     12/27/2018 18:38:14
00003 suncat0266 pw.x -in pw.inp   Done                     12/27/2018 18:38:14
00004 suncat0266 pw.x -in pw.inp   Done                     12/27/2018 18:38:14
00005 suncat0266 pw.x -in pw.inp   Done                     12/27/2018 18:38:14
00006 suncat0266 pw.x -in pw.inp   Done                     12/27/2018 18:38:14
00007 suncat0266 pw.x -in pw.inp   Done                     12/27/2018 18:38:14
00008 suncat0264 pw.x -in pw.inp   Done                     12/27/2018 18:38:14
00009 suncat0264 pw.x -in pw.inp   Done                     12/27/2018 18:38:14
00010 suncat0264 pw.x -in pw.inp   Done                     12/27/2018 18:38:14
00011 suncat0264 pw.x -in pw.inp   Done                     12/27/2018 18:38:14
00012 suncat0264 pw.x -in pw.inp   Done                     12/27/2018 18:38:14
00013 suncat0264 pw.x -in pw.inp   Done                     12/27/2018 18:38:14
00014 suncat0264 pw.x -in pw.inp   Done                     12/27/2018 18:38:14
00015 suncat0264 pw.x -in pw.inp   Done                     12/27/2018 18:38:14
00016 suncat0256 pw.x -in pw.inp   Done                     12/27/2018 18:38:14
00017 suncat0256 pw.x -in pw.inp   Done                     12/27/2018 18:38:14
00018 suncat0256 pw.x -in pw.inp   Done                     12/27/2018 18:38:14
00019 suncat0256 pw.x -in pw.inp   Done                     12/27/2018 18:38:14
00020 suncat0256 pw.x -in pw.inp   Done                     12/27/2018 18:38:14
00021 suncat0256 pw.x -in pw.inp   Done                     12/27/2018 18:38:14
00022 suncat0256 pw.x -in pw.inp   Done                     12/27/2018 18:38:14
00023 suncat0256 pw.x -in pw.inp   Done                     12/27/2018 18:38:14
00024 suncat0255 pw.x -in pw.inp   Done                     12/27/2018 18:38:14
00025 suncat0255 pw.x -in pw.inp   Done                     12/27/2018 18:38:14
00026 suncat0255 pw.x -in pw.inp   Done                     12/27/2018 18:38:14
00027 suncat0255 pw.x -in pw.inp   Done                     12/27/2018 18:38:14
00028 suncat0255 pw.x -in pw.inp   Done                     12/27/2018 18:38:14
00029 suncat0255 pw.x -in pw.inp   Done                     12/27/2018 18:38:14
00030 suncat0255 pw.x -in pw.inp   Done                     12/27/2018 18:38:14
00031 suncat0255 pw.x -in pw.inp   Done                     12/27/2018 18:38:14
00032 suncat0234 pw.x -in pw.inp   Done                     12/27/2018 18:38:14
00033 suncat0234 pw.x -in pw.inp   Done                     12/27/2018 18:38:14
00034 suncat0234 pw.x -in pw.inp   Done                     12/27/2018 18:38:14
00035 suncat0234 pw.x -in pw.inp   Done                     12/27/2018 18:38:14
00036 suncat0234 pw.x -in pw.inp   Done                     12/27/2018 18:38:14
00037 suncat0234 pw.x -in pw.inp   Done                     12/27/2018 18:38:14
00038 suncat0234 pw.x -in pw.inp   Done                     12/27/2018 18:38:14
00039 suncat0234 pw.x -in pw.inp   Done                     12/27/2018 18:38:14
00040 suncat0233 pw.x -in pw.inp   Done                     12/27/2018 18:38:14
00041 suncat0233 pw.x -in pw.inp   Done                     12/27/2018 18:38:14
00042 suncat0233 pw.x -in pw.inp   Done                     12/27/2018 18:38:14
00043 suncat0233 pw.x -in pw.inp   Done                     12/27/2018 18:38:14
00044 suncat0233 pw.x -in pw.inp   Done                     12/27/2018 18:38:14
00045 suncat0233 pw.x -in pw.inp   Done                     12/27/2018 18:38:14
00046 suncat0233 pw.x -in pw.inp   Done                     12/27/2018 18:38:14
00047 suncat0233 pw.x -in pw.inp   Done                     12/27/2018 18:38:14
00048 suncat0222 pw.x -in pw.inp   Done                     12/27/2018 18:38:14
00049 suncat0222 pw.x -in pw.inp   Done                     12/27/2018 18:38:14
00050 suncat0222 pw.x -in pw.inp   Done                     12/27/2018 18:38:14
00051 suncat0222 pw.x -in pw.inp   Done                     12/27/2018 18:38:14
00052 suncat0222 pw.x -in pw.inp   Done                     12/27/2018 18:38:14
00053 suncat0222 pw.x -in pw.inp   Done                     12/27/2018 18:38:14
00054 suncat0222 pw.x -in pw.inp   Done                     12/27/2018 18:38:14
00055 suncat0222 pw.x -in pw.inp   Done                     12/27/2018 18:38:14
00056 suncat0221 pw.x -in pw.inp   Done                     12/27/2018 18:38:14
00057 suncat0221 pw.x -in pw.inp   Done                     12/27/2018 18:38:14
00058 suncat0221 pw.x -in pw.inp   Done                     12/27/2018 18:38:14
00059 suncat0221 pw.x -in pw.inp   Done                     12/27/2018 18:38:14
00060 suncat0221 pw.x -in pw.inp   Done                     12/27/2018 18:38:14
00061 suncat0221 pw.x -in pw.inp   Done                     12/27/2018 18:38:14
00062 suncat0221 pw.x -in pw.inp   Done                     12/27/2018 18:38:14
00063 suncat0221 pw.x -in pw.inp   Done                     12/27/2018 18:38:14