     Program PWSCF v.5.1rc2 (svn rev. 11289) starts on 28Dec2018 at 21: 0:44

     Current dimensions of program PWSCF are:
     Max number of different atomic species (ntypx) = 10
     Max number of k-points (npk) =  40000
     Max angular momentum in pseudopotentials (lmaxx) =  3
     Presently stress not available with electric field

     IMPORTANT: XC functional enforced from input :
     Exchange-correlation      = BEEF-VDW ( 1  4 27 13 2)
     Any further DFT definition will be discarded
     Please, verify this is what you really want

     Subspace diagonalization in iterative solution of the eigenvalue problem:
     a serial algorithm will be used

     bravais-lattice index     =            0
     lattice parameter (alat)  =       1.8897  a.u.
     unit-cell volume          =    4231.1028 (a.u.)^3
     number of atoms/cell      =           12
     number of atomic types    =            2
     number of electrons       =       159.00
     number of Kohn-Sham states=          109
     kinetic-energy cutoff     =      36.7493  Ry
     charge density cutoff     =     367.4932  Ry
     convergence threshold     =      1.0E-06
     mixing beta               =       0.1000
     number of iterations used =           10  plain     mixing
     Exchange-correlation      = BEEF-VDW ( 1  4 27 13 2)
     nstep                     =           50

     celldm(1)=   1.889726  celldm(2)=   0.000000  celldm(3)=   0.000000
     celldm(4)=   0.000000  celldm(5)=   0.000000  celldm(6)=   0.000000

     crystal axes: (cart. coord. in units of alat)
               a(1) = (   5.442276   0.000000   0.000000 )
               a(2) = (  -2.721138   4.713150   0.000000 )
               a(3) = (   0.000000   0.000000  24.443600 )

     reciprocal axes: (cart. coord. in units 2 pi/alat)
               b(1) = (  0.183747  0.106086  0.000000 )
               b(2) = (  0.000000  0.212172  0.000000 )
               b(3) = (  0.000000  0.000000  0.040911 )

     PseudoPot. # 1 for Cr read from file:
     /afs/slac.stanford.edu/u/if/mamunm/psp/gbrv1.5pbe/Cr.UPF
     MD5 check sum: 0d52af634a40206e4dee301ad30da4bf
     Pseudo is Ultrasoft + core correction, Zval = 14.0
     Generated by new atomic code, or converted to UPF format
     Using radial grid of  857 points,  6 beta functions with:
                l(1) =   0
                l(2) =   0
                l(3) =   1
                l(4) =   1
                l(5) =   2
                l(6) =   2
     Q(r) pseudized with  8 coefficients,  rinner =    0.950   0.950   0.950
                                                       0.950   0.950

     PseudoPot. # 2 for Sc read from file:
     /afs/slac.stanford.edu/u/if/mamunm/psp/gbrv1.5pbe/Sc.UPF
     MD5 check sum: db30a2753ba66ef00f23801d899b7e7f
     Pseudo is Ultrasoft + core correction, Zval = 11.0
     Generated by new atomic code, or converted to UPF format
     Using radial grid of  849 points,  6 beta functions with:
                l(1) =   0
                l(2) =   0
                l(3) =   1
                l(4) =   1
                l(5) =   2
                l(6) =   2
     Q(r) pseudized with  6 coefficients,  rinner =    1.200   1.200   1.200
                                                       1.200   1.200

     vdW kernel table read from file vdW_kernel_table
     MD5 check sum: 095c7af220d748ca6e76c0b4c6cfb241

     atomic species   valence    mass     pseudopotential
        Cr1           14.00    51.99610     Cr( 1.00)
        Sc1           11.00    44.95591     Sc( 1.00)

     No symmetry found

   Cartesian axes

     site n.     atom                  positions (alat units)
         1           Cr1 tau(   1) = (   0.0000000   0.0000000  10.0000000  )
         2           Cr1 tau(   2) = (  -1.3605691   2.3565748  10.0000000  )
         3           Cr1 tau(   3) = (   1.3605691   2.3565748  10.0000000  )
         4           Sc1 tau(   4) = (   2.7211382   0.0000000  10.0000000  )
         5           Cr1 tau(   5) = (   2.7211382   1.5710498  12.2218000  )
         6           Cr1 tau(   6) = (   1.3605691   3.9276246  12.2218000  )
         7           Cr1 tau(   7) = (  -1.3605691   3.9276246  12.2218000  )
         8           Sc1 tau(   8) = (   0.0000000   1.5710498  12.2218000  )
         9           Cr1 tau(   9) = (  -0.0000312   3.3730048  14.2229196  )
        10           Cr1 tau(  10) = (   1.5605396   0.6700625  14.2228255  )
        11           Cr1 tau(  11) = (   3.8816920   0.6700718  14.2227303  )
        12           Sc1 tau(  12) = (   2.7212017   3.1420728  14.9355072  )

     number of k points=    20  Fermi-Dirac smearing, width (Ry)=  0.0110
                       cart. coord. in units 2pi/alat
        k(    1) = (   0.0000000   0.0000000   0.0000000), wk =   0.0555556
        k(    2) = (   0.0000000   0.0353621   0.0000000), wk =   0.1111111
        k(    3) = (   0.0000000   0.0707241   0.0000000), wk =   0.1111111
        k(    4) = (   0.0000000  -0.1060862   0.0000000), wk =   0.0555556
        k(    5) = (   0.0306244   0.0176810   0.0000000), wk =   0.1111111
        k(    6) = (   0.0306244   0.0530431   0.0000000), wk =   0.1111111
        k(    7) = (   0.0306244   0.0884051   0.0000000), wk =   0.1111111
        k(    8) = (   0.0306244  -0.0884051   0.0000000), wk =   0.1111111
        k(    9) = (   0.0306244  -0.0530431   0.0000000), wk =   0.1111111
        k(   10) = (   0.0306244  -0.0176810   0.0000000), wk =   0.1111111
        k(   11) = (   0.0612489   0.0353621   0.0000000), wk =   0.1111111
        k(   12) = (   0.0612489   0.0707241   0.0000000), wk =   0.1111111
        k(   13) = (   0.0612489   0.1060862   0.0000000), wk =   0.1111111
        k(   14) = (   0.0612489  -0.0707241   0.0000000), wk =   0.1111111
        k(   15) = (   0.0612489  -0.0353621   0.0000000), wk =   0.1111111
        k(   16) = (   0.0612489   0.0000000   0.0000000), wk =   0.1111111
        k(   17) = (  -0.0918733  -0.0530431   0.0000000), wk =   0.0555556
        k(   18) = (  -0.0918733  -0.0176810   0.0000000), wk =   0.1111111
        k(   19) = (  -0.0918733   0.0176810   0.0000000), wk =   0.1111111
        k(   20) = (  -0.0918733  -0.1591293   0.0000000), wk =   0.0555556

     Largest allocated arrays     est. size (Mb)     dimensions
     Largest temporary arrays     est. size (Mb)     dimensions

     Check: negative/imaginary core charge=   -0.000004    0.000000

     Initial potential from superposition of free atoms
     Check: negative starting charge=   -0.011079

     starting charge  149.99265, renormalised to  159.00000

     negative rho (up, down):  1.174E-02 0.000E+00

     *
     * You are using vdW-DF for exchange-correlation in this calculation.
     * Please cite the following three references that made this development
     * possible:
     *
     *   M. Dion, H. Rydberg, E. Schroder, D. C. Langreth, and
     *   B. I. Lundqvist, Phys. Rev. Lett. 92, 246401 (2004).
     *
     *   T. Thonhauser, V. R. Cooper, S. Li, A. Puzder, P. Hyldgaard, and
     *   D. C. Langreth, Phys. Rev. B 76, 125112 (2007).
     *
     *   G. Roman-Perez and J. M. Soler, Phys. Rev. Lett. 103, 096102 (2009).
     *
     *
     * If you are using vdW-DF2, please also cite:
     *
     *   K. Lee, E. D. Murray, L. Kong, B. I. Lundqvist, and
     *   D. C. Langreth, Phys. Rev. B 82, 081101(R) (2010).
     *
     *
     * If you are calculating the stress with vdW-DF, please also cite:
     *
     *   R. Sabatini, E. Kucukbenli, B. Kolb, T. Thonhauser, and
     *   S. de Gironcoli, J. Phys.: Condens. Matter 24, 424209 (2012).
     *

     Carrying out vdW-DF run using the following parameters:

     Nqs =      20    Nr_points =    1024   r_max =   100.000
     q_mesh =
               0.00001000     0.04494208     0.09755937     0.15916263
               0.23128650     0.31572767     0.41458969     0.53033537
               0.66584808     0.82450364     1.01025438     1.22772762
               1.48234092     1.78043706     2.12944203     2.53805004
               3.01644009     3.57652955     4.23227104     5.00000000

     Gradients computed in reciprocal space

     Adding external electric field

     Computed dipole along edir(3) :
        Dipole               -0.8862 Ry au,         -2.2525 Debye
        Dipole field         -0.0026 Ry au

        Potential amp.        0.2371 Ry
        Total length         45.0369 bohr

     Starting wfc are  129 randomized atomic wfcs

     Self-consistent Calculation

     iteration #  1     ecut=    36.75 Ry     beta=0.10
     Davidson diagonalization with overlap
     ethr =  1.00E-02,  avg # of iterations =  3.9

[...]

     total energy              =   -1867.55390679 Ry
     Harris-Foulkes estimate   =   -1874.23723359 Ry
     estimated scf accuracy    <      37.63581618 Ry

[...]

     End of self-consistent calculation

          k = 0.0000 0.0000 0.0000 ( 15845 PWs)   bands (ev):

   -70.4441 -70.3878 -70.3876 -70.3280 -70.2530 -70.2130 -70.2130 -70.2104
   -70.2102 -48.6255 -47.7312 -47.3033 -42.0959 -41.9406 -41.8785 -41.8785
   -41.8194 -41.8194 -41.8023 -41.7119 -41.6350 -41.6350 -41.6267 -41.6059
   -41.5761 -41.5761 -41.5595 -41.5595 -41.5458 -41.5457 -41.4704 -41.4569
   -41.4569 -41.4223 -41.3878 -41.3878 -41.3337 -41.3089 -41.3088 -27.3023
   -27.1783 -27.1783 -26.4160 -26.3648 -26.3648 -26.0339 -25.9650 -25.9650
    -4.7784  -3.1831  -2.1842  -1.9198  -1.7019  -1.7019  -1.5696  -1.5695
    -1.4596  -1.0441  -1.0441  -1.0304  -0.9545  -0.9544  -0.8914  -0.3909
    -0.0407  -0.0407   0.1819   0.6236   0.6237   0.7443   0.8687   1.0147
     1.0444   1.0445   1.1831   1.1832   1.2021   1.2443   1.2443   1.5186
     1.5186   1.7533   1.7533   1.7745   2.0059   2.0136   2.1759   2.1759
     2.2838   2.2839   2.5715   2.5715   2.5809   2.8028   2.8030   2.8548
     2.8548   3.0096   3.0747   3.2592   3.3879   3.5774   3.7540   3.7541
     3.8548   3.8548   3.9241   4.3401   4.3403

[...]

          k =-0.0919-0.0530 0.0000 ( 15968 PWs)   bands (ev):

[...]

     the Fermi energy is     1.2377 ev

!    total energy              =   -1870.36970214 Ry
     Harris-Foulkes estimate   =   -1870.36970876 Ry
     estimated scf accuracy    <       0.00000066 Ry

     The total energy is the sum of the following terms:

     one-electron contribution =  -15419.81601531 Ry
     hartree contribution      =    7700.62272911 Ry
     xc contribution           =    -251.09611990 Ry
     ewald contribution        =    6100.05552310 Ry
     electric field correction =       0.00015744 Ry
     smearing contrib. (-TS)   =      -0.13597658 Ry

     convergence has been achieved in  29 iterations

 BEEF-vdW xc energy contributions
           1 :   -216.686938491597
           2 :    194.327093715291
           3 :   -157.405654508374
           4 :    117.572006143779
           5 :   -84.9745892138180
           6 :    64.4518916112297
           7 :   -54.9037805792473
           8 :    51.5203331388919
           9 :   -49.1765902681412
          10 :    45.0315607136891
          11 :   -39.1767904635445
          12 :    33.4700023090131
          13 :   -29.6892531634833
          14 :    28.2702384436701
[...]

     PseudoPot. # 1 for Cr read from file:
     /afs/slac.stanford.edu/u/if/mamunm/psp/gbrv1.5pbe/Cr.UPF
     MD5 check sum: 0d52af634a40206e4dee301ad30da4bf
     Pseudo is Ultrasoft + core correction, Zval = 14.0
     Generated by new atomic code, or converted to UPF format
     Using radial grid of  857 points,  6 beta functions with:
                l(1) =   0
                l(2) =   0
                l(3) =   1
                l(4) =   1
                l(5) =   2
                l(6) =   2
     Q(r) pseudized with  8 coefficients,  rinner =    0.950   0.950   0.950
                                                       0.950   0.950

     PseudoPot. # 2 for Sc read from file:
     /afs/slac.stanford.edu/u/if/mamunm/psp/gbrv1.5pbe/Sc.UPF
     MD5 check sum: db30a2753ba66ef00f23801d899b7e7f
     Pseudo is Ultrasoft + core correction, Zval = 11.0
     Generated by new atomic code, or converted to UPF format
     Using radial grid of  849 points,  6 beta functions with:
                l(1) =   0
                l(2) =   0
                l(3) =   1
                l(4) =   1
                l(5) =   2
                l(6) =   2
     Q(r) pseudized with  6 coefficients,  rinner =    1.200   1.200   1.200
                                                       1.200   1.200

     vdW kernel table read from file vdW_kernel_table
     MD5 check sum: 095c7af220d748ca6e76c0b4c6cfb241

     atomic species   valence    mass     pseudopotential
        Cr1           14.00    51.99610     Cr( 1.00)
        Sc1           11.00    44.95591     Sc( 1.00)

     No symmetry found

   Cartesian axes

     site n.     atom                  positions (alat units)
         1           Cr1 tau(   1) = (   0.0000000   0.0000000  10.0000000  )
         2           Cr1 tau(   2) = (  -1.3605691   2.3565748  10.0000000  )
         3           Cr1 tau(   3) = (   1.3605691   2.3565748  10.0000000  )
         4           Sc1 tau(   4) = (   2.7211382   0.0000000  10.0000000  )
         5           Cr1 tau(   5) = (   2.7211382   1.5710498  12.2218000  )
         6           Cr1 tau(   6) = (   1.3605691   3.9276246  12.2218000  )
         7           Cr1 tau(   7) = (  -1.3605691   3.9276246  12.2218000  )
         8           Sc1 tau(   8) = (   0.0000000   1.5710498  12.2218000  )
         9           Cr1 tau(   9) = (  -0.0000430   3.3463231  14.1290498  )
        10           Cr1 tau(  10) = (   1.5375839   0.6832440  14.1290043  )
        11           Cr1 tau(  11) = (   3.9047611   0.6833233  14.1289836  )
        12           Sc1 tau(  12) = (   2.7210885   3.1420473  14.9094725  )

     number of k points=    20  Fermi-Dirac smearing, width (Ry)=  0.0110
                       cart. coord. in units 2pi/alat
        k(    1) = (   0.0000000   0.0000000   0.0000000), wk =   0.0555556
        k(    2) = (   0.0000000   0.0353621   0.0000000), wk =   0.1111111
        k(    3) = (   0.0000000   0.0707241   0.0000000), wk =   0.1111111
        k(    4) = (   0.0000000  -0.1060862   0.0000000), wk =   0.0555556
        k(    5) = (   0.0306244   0.0176810   0.0000000), wk =   0.1111111
        k(    6) = (   0.0306244   0.0530431   0.0000000), wk =   0.1111111
        k(    7) = (   0.0306244   0.0884051   0.0000000), wk =   0.1111111
        k(    8) = (   0.0306244  -0.0884051   0.0000000), wk =   0.1111111
        k(    9) = (   0.0306244  -0.0530431   0.0000000), wk =   0.1111111
        k(   10) = (   0.0306244  -0.0176810   0.0000000), wk =   0.1111111
        k(   11) = (   0.0612489   0.0353621   0.0000000), wk =   0.1111111
        k(   12) = (   0.0612489   0.0707241   0.0000000), wk =   0.1111111
        k(   13) = (   0.0612489   0.1060862   0.0000000), wk =   0.1111111
        k(   14) = (   0.0612489  -0.0707241   0.0000000), wk =   0.1111111
        k(   15) = (   0.0612489  -0.0353621   0.0000000), wk =   0.1111111
        k(   16) = (   0.0612489   0.0000000   0.0000000), wk =   0.1111111
        k(   17) = (  -0.0918733  -0.0530431   0.0000000), wk =   0.0555556
        k(   18) = (  -0.0918733  -0.0176810   0.0000000), wk =   0.1111111
        k(   19) = (  -0.0918733   0.0176810   0.0000000), wk =   0.1111111
        k(   20) = (  -0.0918733  -0.1591293   0.0000000), wk =   0.0555556

     Largest allocated arrays     est. size (Mb)     dimensions
     Largest temporary arrays     est. size (Mb)     dimensions

     Check: negative/imaginary core charge=   -0.000003    0.000000

     Initial potential from superposition of free atoms
     Check: negative starting charge=   -0.008523

     starting charge  149.99265, renormalised to  159.00000

[...]

     *
     * You are using vdW-DF for exchange-correlation in this calculation.
     * Please cite the following three references that made this development
     * possible:
     *
     *   M. Dion, H. Rydberg, E. Schroder, D. C. Langreth, and
     *   B. I. Lundqvist, Phys. Rev. Lett. 92, 246401 (2004).
     *
     *   T. Thonhauser, V. R. Cooper, S. Li, A. Puzder, P. Hyldgaard, and
     *   D. C. Langreth, Phys. Rev. B 76, 125112 (2007).
     *
     *   G. Roman-Perez and J. M. Soler, Phys. Rev. Lett. 103, 096102 (2009).
     *
     *
     * If you are using vdW-DF2, please also cite:
     *
     *   K. Lee, E. D. Murray, L. Kong, B. I. Lundqvist, and
     *   D. C. Langreth, Phys. Rev. B 82, 081101(R) (2010).
     *
     *
     * If you are calculating the stress with vdW-DF, please also cite:
     *
     *   R. Sabatini, E. Kucukbenli, B. Kolb, T. Thonhauser, and
     *   S. de Gironcoli, J. Phys.: Condens. Matter 24, 424209 (2012).
     *

     Carrying out vdW-DF run using the following parameters:

     Nqs =      20    Nr_points =    1024   r_max =   100.000
     q_mesh =
               0.00001000     0.04494208     0.09755937     0.15916263
               0.23128650     0.31572767     0.41458969     0.53033537
               0.66584808     0.82450364     1.01025438     1.22772762
               1.48234092     1.78043706     2.12944203     2.53805004
               3.01644009     3.57652955     4.23227104     5.00000000

     Gradients computed in reciprocal space

[...]

     Starting wfc are  129 randomized atomic wfcs

     Self-consistent Calculation

[...]

     total energy              =   -1870.37298659 Ry
     Harris-Foulkes estimate   =   -1870.37298721 Ry
     estimated scf accuracy    <       0.00000116 Ry

     iteration # 29     ecut=    36.75 Ry     beta=0.10
     Davidson diagonalization with overlap
     ethr =  7.30E-10,  avg # of iterations =  2.0

[...]

     negative rho (up, down):  8.177E-03 0.000E+00

     Adding external electric field

     Computed dipole along edir(3) :
        Dipole                0.2720 Ry au,          0.6914 Debye
        Dipole field          0.0008 Ry au

        Potential amp.       -0.0728 Ry
        Total length         45.0369 bohr

     End of self-consistent calculation

[...]

          k = 0.0612 0.0000 0.0000 ( 15910 PWs)   bands (ev):

[...]

          k =-0.0919-0.1591 0.0000 ( 15968 PWs)   bands (ev):

   -70.3906 -70.3632 -70.3460 -70.2340 -70.1961 -70.1828 -70.1692 -70.1534
   -70.1492 -48.6081 -47.6916 -47.1844 -41.9927 -41.8910 -41.8521 -41.8177
   -41.7911 -41.7495 -41.6800 -41.6772 -41.6213 -41.6017 -41.5650 -41.5347
   -41.5309 -41.5125 -41.4871 -41.4859 -41.4816 -41.4774 -41.4591 -41.4487
   -41.3803 -41.3713 -41.3693 -41.3521 -41.3046 -41.3044 -41.2728 -27.2932
   -27.1595 -27.1555 -26.3732 -26.3423 -26.3305 -25.9301 -25.8732 -25.8609
    -3.1806  -2.9691  -1.8022  -1.7191  -1.5418  -1.1809  -1.0358  -0.9169
    -0.8894  -0.8879  -0.6671  -0.5622  -0.5509  -0.3213  -0.2178  -0.1436
    -0.0743   0.0316   0.0540   0.2396   0.2924   0.2956   0.4863   0.5586
     0.5809   0.6473   0.7446   0.7991   0.8878   0.9503   0.9930   1.1589
     1.1684   1.3562   1.4754   1.5562   1.6243   1.6706   1.8569   1.8713
     1.9455   2.0288   2.1772   2.1828   2.2214   2.3059   2.3696   2.6199
     2.7202   2.7805   2.8189   2.8897   3.1989   3.2820   3.4060   3.4803
     3.8047   4.0094   4.0655   4.2818   4.3543

     the Fermi energy is     1.2749 ev

!    total energy              =   -1870.37298242 Ry
     Harris-Foulkes estimate   =   -1870.37298582 Ry
     estimated scf accuracy    <       0.00000075 Ry

     The total energy is the sum of the following terms:

     one-electron contribution =  -15580.53811544 Ry
     hartree contribution      =    7781.27634430 Ry
     xc contribution           =    -251.20521699 Ry
     ewald contribution        =    6180.22761463 Ry
     electric field correction =       0.00021977 Ry
     smearing contrib. (-TS)   =      -0.13382868 Ry

     convergence has been achieved in  29 iterations

 BEEF-vdW xc energy contributions
           1 :   -216.798385449516
           2 :    194.476451721205
           3 :   -157.592048042400
           4 :    117.747612840998
           5 :   -85.0755186388141
           6 :    64.4472812995589
           7 :   -54.8245567457661
           8 :    51.4418801354243
           9 :   -49.1665323454442
          10 :    45.1029247884325
          11 :   -39.2818730872729
          12 :    33.5373583690388
          13 :   -29.6749760855915
          14 :    28.1867876850733
          15 :   -28.1495620511602
          16 :    28.0782998660169
          17 :   -26.9783292664823
          18 :    24.8758107490452
          19 :   -22.5857976827832
          20 :    21.0087005007230
          21 :   -20.4964966216193
          22 :    20.6869257037537
          23 :   -20.8403740373495
          24 :    20.3823893247189
          25 :   -19.2621973643683
          26 :    17.9096818427415
          27 :   -16.8753047413273
          28 :    16.4397477122721
          29 :   -16.4610837599998
          30 :    16.5276634599858
          31 :   -22.0380041334608
          32 :   -15.8048098205496

     Forces acting on atoms (Ry/au):

     negative rho (up, down):  8.177E-03 0.000E+00
     atom    1 type  1   force =    -0.00000153   -0.02919415    0.02657528
     atom    2 type  1   force =    -0.02527418    0.01459057    0.02657455
     atom    3 type  1   force =     0.02527370    0.01459068    0.02657127
     atom    4 type  2   force =    -0.00000038   -0.00000993   -0.05524991
     atom    5 type  1   force =     0.00000042    0.03186221    0.00307727
     atom    6 type  1   force =     0.02759817   -0.01593101    0.00308534
     atom    7 type  1   force =    -0.02760129   -0.01593349    0.00308724
     atom    8 type  2   force =     0.00001398    0.00002065   -0.03121047
     atom    9 type  1   force =    -0.00000792    0.00031373   -0.00045170
     atom   10 type  1   force =     0.00024865   -0.00015713   -0.00043684
     atom   11 type  1   force =    -0.00025182   -0.00014987   -0.00045033
     atom   12 type  2   force =     0.00000221   -0.00000226   -0.00117169

     Total force =     0.108526     Total SCF correction =     0.002371

     entering subroutine stress ...

     negative rho (up, down):  8.177E-03 0.000E+00
          total   stress  (Ry/bohr**3)                   (kbar)     P=   -9.66
  -0.00008173   0.00000001  -0.00000000        -12.02      0.00     -0.00
   0.00000001  -0.00008171  -0.00000001          0.00    -12.02     -0.00
  -0.00000000  -0.00000001  -0.00003362         -0.00     -0.00     -4.95

 !ASE

     Writing output data file calc.save

     General routines

     Parallel routines

   This run was terminated on:  22: 3: 9  28Dec2018

   JOB DONE.
Job  /afs/slac/g/suncat/bin/suncat-tsmpirun -x LD_LIBRARY_PATH -wdir /scratch/qe304803_LQ94L pw.x -in pw.inp

TID   HOST_NAME   COMMAND_LINE            STATUS            TERMINATION_TIME
00000 suncat0183 pw.x -in pw.inp   Done                     12/28/2018 22:03:09
00001 suncat0183 pw.x -in pw.inp   Done                     12/28/2018 22:03:09
00002 suncat0183 pw.x -in pw.inp   Done                     12/28/2018 22:03:09
00003 suncat0183 pw.x -in pw.inp   Done                     12/28/2018 22:03:09
00004 suncat0183 pw.x -in pw.inp   Done                     12/28/2018 22:03:09
00005 suncat0183 pw.x -in pw.inp   Done                     12/28/2018 22:03:09
00006 suncat0183 pw.x -in pw.inp   Done                     12/28/2018 22:03:09
00007 suncat0183 pw.x -in pw.inp   Done                     12/28/2018 22:03:09
00008 suncat0182 pw.x -in pw.inp   Done                     12/28/2018 22:03:09
00009 suncat0182 pw.x -in pw.inp   Done                     12/28/2018 22:03:09
00010 suncat0182 pw.x -in pw.inp   Done                     12/28/2018 22:03:09
00011 suncat0182 pw.x -in pw.inp   Done                     12/28/2018 22:03:09
00012 suncat0182 pw.x -in pw.inp   Done                     12/28/2018 22:03:09
00013 suncat0182 pw.x -in pw.inp   Done                     12/28/2018 22:03:09
00014 suncat0182 pw.x -in pw.inp   Done                     12/28/2018 22:03:09
00015 suncat0182 pw.x -in pw.inp   Done                     12/28/2018 22:03:09
00016 suncat0181 pw.x -in pw.inp   Done                     12/28/2018 22:03:09
00017 suncat0181 pw.x -in pw.inp   Done                     12/28/2018 22:03:09
00018 suncat0181 pw.x -in pw.inp   Done                     12/28/2018 22:03:09
00019 suncat0181 pw.x -in pw.inp   Done                     12/28/2018 22:03:09
00020 suncat0181 pw.x -in pw.inp   Done                     12/28/2018 22:03:09
00021 suncat0181 pw.x -in pw.inp   Done                     12/28/2018 22:03:09
00022 suncat0181 pw.x -in pw.inp   Done                     12/28/2018 22:03:09
00023 suncat0181 pw.x -in pw.inp   Done                     12/28/2018 22:03:09
00024 suncat0252 pw.x -in pw.inp   Done                     12/28/2018 22:03:09
00025 suncat0252 pw.x -in pw.inp   Done                     12/28/2018 22:03:09
00026 suncat0252 pw.x -in pw.inp   Done                     12/28/2018 22:03:09
00027 suncat0252 pw.x -in pw.inp   Done                     12/28/2018 22:03:09
00028 suncat0252 pw.x -in pw.inp   Done                     12/28/2018 22:03:09
00029 suncat0252 pw.x -in pw.inp   Done                     12/28/2018 22:03:09
00030 suncat0252 pw.x -in pw.inp   Done                     12/28/2018 22:03:09
00031 suncat0252 pw.x -in pw.inp   Done                     12/28/2018 22:03:09
00032 suncat0226 pw.x -in pw.inp   Done                     12/28/2018 22:03:09
00033 suncat0226 pw.x -in pw.inp   Done                     12/28/2018 22:03:09
00034 suncat0226 pw.x -in pw.inp   Done                     12/28/2018 22:03:09
00035 suncat0226 pw.x -in pw.inp   Done                     12/28/2018 22:03:09
00036 suncat0226 pw.x -in pw.inp   Done                     12/28/2018 22:03:09
00037 suncat0226 pw.x -in pw.inp   Done                     12/28/2018 22:03:09
00038 suncat0226 pw.x -in pw.inp   Done                     12/28/2018 22:03:09
00039 suncat0226 pw.x -in pw.inp   Done                     12/28/2018 22:03:09
00040 suncat0225 pw.x -in pw.inp   Done                     12/28/2018 22:03:09
00041 suncat0225 pw.x -in pw.inp   Done                     12/28/2018 22:03:09
00042 suncat0225 pw.x -in pw.inp   Done                     12/28/2018 22:03:09
00043 suncat0225 pw.x -in pw.inp   Done                     12/28/2018 22:03:09
00044 suncat0225 pw.x -in pw.inp   Done                     12/28/2018 22:03:09
00045 suncat0225 pw.x -in pw.inp   Done                     12/28/2018 22:03:09
00046 suncat0225 pw.x -in pw.inp   Done                     12/28/2018 22:03:09
00047 suncat0225 pw.x -in pw.inp   Done                     12/28/2018 22:03:09
00048 suncat0224 pw.x -in pw.inp   Done                     12/28/2018 22:03:09
00049 suncat0224 pw.x -in pw.inp   Done                     12/28/2018 22:03:09
00050 suncat0224 pw.x -in pw.inp   Done                     12/28/2018 22:03:09
00051 suncat0224 pw.x -in pw.inp   Done                     12/28/2018 22:03:09
00052 suncat0224 pw.x -in pw.inp   Done                     12/28/2018 22:03:09
00053 suncat0224 pw.x -in pw.inp   Done                     12/28/2018 22:03:09
00054 suncat0224 pw.x -in pw.inp   Done                     12/28/2018 22:03:09
00055 suncat0224 pw.x -in pw.inp   Done                     12/28/2018 22:03:09
00056 suncat0223 pw.x -in pw.inp   Done                     12/28/2018 22:03:09
00057 suncat0223 pw.x -in pw.inp   Done                     12/28/2018 22:03:09
00058 suncat0223 pw.x -in pw.inp   Done                     12/28/2018 22:03:09
00059 suncat0223 pw.x -in pw.inp   Done                     12/28/2018 22:03:09
00060 suncat0223 pw.x -in pw.inp   Done                     12/28/2018 22:03:09
00061 suncat0223 pw.x -in pw.inp   Done                     12/28/2018 22:03:09
00062 suncat0223 pw.x -in pw.inp   Done                     12/28/2018 22:03:09
00063 suncat0223 pw.x -in pw.inp   Done                     12/28/2018 22:03:09