     Program PWSCF v.5.1rc2 (svn rev. 11289) starts on 25Dec2018 at 23:28: 8

     Current dimensions of program PWSCF are:
     Max number of different atomic species (ntypx) = 10
     Max number of k-points (npk) =  40000
     Max angular momentum in pseudopotentials (lmaxx) =  3
     Presently stress not available with electric field

     IMPORTANT: XC functional enforced from input :
     Exchange-correlation      = BEEF-VDW ( 1  4 27 13 2)
     Any further DFT definition will be discarded
     Please, verify this is what you really want

     Subspace diagonalization in iterative solution of the eigenvalue problem:
     a serial algorithm will be used

     Generating pointlists ...
     new r_m :   0.4125 (alat units)  0.7795 (a.u.) for type    1
     new r_m :   0.4125 (alat units)  0.7795 (a.u.) for type    2

     bravais-lattice index     =            0
     lattice parameter (alat)  =       1.8897  a.u.
     unit-cell volume          =    4188.7485 (a.u.)^3
     number of atoms/cell      =           12
     number of atomic types    =            2
     number of electrons       =       180.00
     number of Kohn-Sham states=          120
     kinetic-energy cutoff     =      36.7493  Ry
     charge density cutoff     =     367.4932  Ry
     convergence threshold     =      1.0E-06
     mixing beta               =       0.1000
     number of iterations used =           10  plain     mixing
     Exchange-correlation      = BEEF-VDW ( 1  4 27 13 2)
     nstep                     =           50

     celldm(1)=   1.889726  celldm(2)=   0.000000  celldm(3)=   0.000000
     celldm(4)=   0.000000  celldm(5)=   0.000000  celldm(6)=   0.000000

     crystal axes: (cart. coord. in units of alat)
               a(1) = (   5.417235   0.000000   0.000000 )
               a(2) = (  -2.708617   4.691463   0.000000 )
               a(3) = (   0.000000   0.000000  24.423154 )

     reciprocal axes: (cart. coord. in units 2 pi/alat)
               b(1) = (  0.184596  0.106577  0.000000 )
               b(2) = (  0.000000  0.213153  0.000000 )
               b(3) = (  0.000000  0.000000  0.040945 )

     PseudoPot. # 1 for Fe read from file:
     /afs/slac.stanford.edu/u/if/mamunm/psp/gbrv1.5pbe/Fe.UPF
     MD5 check sum: a130daea23fe5165f5d574ae7f82ed95
     Pseudo is Ultrasoft + core correction, Zval = 16.0
     Generated by new atomic code, or converted to UPF format
     Using radial grid of  861 points,  6 beta functions with:
                l(1) =   0
                l(2) =   0
                l(3) =   1
                l(4) =   1
                l(5) =   2
                l(6) =   2
     Q(r) pseudized with  8 coefficients,  rinner =    1.000   1.000   1.000
                                                       1.000   1.000

     PseudoPot. # 2 for Zr read from file:
     /afs/slac.stanford.edu/u/if/mamunm/psp/gbrv1.5pbe/Zr.UPF
     MD5 check sum: 5db81b1e868ab7776c4564c113de050b
     Pseudo is Ultrasoft + core correction, Zval = 12.0
     Generated by new atomic code, or converted to UPF format
     Using radial grid of  887 points,  6 beta functions with:
                l(1) =   0
                l(2) =   0
                l(3) =   1
                l(4) =   1
                l(5) =   2
                l(6) =   2
     Q(r) pseudized with  6 coefficients,  rinner =    1.200   1.200   1.200
                                                       1.200   1.200

     vdW kernel table read from file vdW_kernel_table
     MD5 check sum: 095c7af220d748ca6e76c0b4c6cfb241

     atomic species   valence    mass     pseudopotential
        Fe1           16.00    55.84500     Fe( 1.00)
        Zr1           12.00    91.22400     Zr( 1.00)

     Starting magnetic structure
     atomic species   magnetization
        Fe1          0.125
        Zr1          0.167

     No symmetry found

   Cartesian axes

     site n.     atom                  positions (alat units)
         1           Fe1 tau(   1) = (   0.0000000   0.0000000  10.0000000  )
         2           Fe1 tau(   2) = (  -1.3543087   2.3457314  10.0000000  )
         3           Fe1 tau(   3) = (   1.3543087   2.3457314  10.0000000  )
         4           Zr1 tau(   4) = (   2.7086174   0.0000000  10.0000000  )
         5           Fe1 tau(   5) = (   2.7086174   1.5638210  12.2115768  )
         6           Fe1 tau(   6) = (   1.3543087   3.9095524  12.2115768  )
         7           Fe1 tau(   7) = (  -1.3543087   3.9095524  12.2115768  )
         8           Zr1 tau(   8) = (   0.0000000   1.5638210  12.2115768  )
         9           Fe1 tau(   9) = (  -0.0000000   3.1276419  14.4231536  )
        10           Fe1 tau(  10) = (   1.3543087   0.7819105  14.4231536  )
        11           Fe1 tau(  11) = (   4.0629260   0.7819105  14.4231536  )
        12           Zr1 tau(  12) = (   2.7086174   3.1276419  14.4231536  )

     number of k points=    40  Fermi-Dirac smearing, width (Ry)=  0.0110
                       cart. coord. in units 2pi/alat
        k(    1) = (   0.0000000   0.0000000   0.0000000), wk =   0.0277778
        k(    2) = (   0.0000000   0.0355255   0.0000000), wk =   0.0555556
        k(    3) = (   0.0000000   0.0710510   0.0000000), wk =   0.0555556
        k(    4) = (   0.0000000  -0.1065766   0.0000000), wk =   0.0277778
        k(    5) = (   0.0307660   0.0177628   0.0000000), wk =   0.0555556
        k(    6) = (   0.0307660   0.0532883   0.0000000), wk =   0.0555556
        k(    7) = (   0.0307660   0.0888138   0.0000000), wk =   0.0555556
        k(    8) = (   0.0307660  -0.0888138   0.0000000), wk =   0.0555556
        k(    9) = (   0.0307660  -0.0532883   0.0000000), wk =   0.0555556
        k(   10) = (   0.0307660  -0.0177628   0.0000000), wk =   0.0555556
        k(   11) = (   0.0615320   0.0355255   0.0000000), wk =   0.0555556
        k(   12) = (   0.0615320   0.0710510   0.0000000), wk =   0.0555556
        k(   13) = (   0.0615320   0.1065766   0.0000000), wk =   0.0555556
        k(   14) = (   0.0615320  -0.0710510   0.0000000), wk =   0.0555556
        k(   15) = (   0.0615320  -0.0355255   0.0000000), wk =   0.0555556
        k(   16) = (   0.0615320   0.0000000   0.0000000), wk =   0.0555556
        k(   17) = (  -0.0922980  -0.0532883   0.0000000), wk =   0.0277778
        k(   18) = (  -0.0922980  -0.0177628   0.0000000), wk =   0.0555556
        k(   19) = (  -0.0922980   0.0177628   0.0000000), wk =   0.0555556
        k(   20) = (  -0.0922980  -0.1598648   0.0000000), wk =   0.0277778
        k(   21) = (   0.0000000   0.0000000   0.0000000), wk =   0.0277778
        k(   22) = (   0.0000000   0.0355255   0.0000000), wk =   0.0555556
        k(   23) = (   0.0000000   0.0710510   0.0000000), wk =   0.0555556
        k(   24) = (   0.0000000  -0.1065766   0.0000000), wk =   0.0277778
        k(   25) = (   0.0307660   0.0177628   0.0000000), wk =   0.0555556
        k(   26) = (   0.0307660   0.0532883   0.0000000), wk =   0.0555556
        k(   27) = (   0.0307660   0.0888138   0.0000000), wk =   0.0555556
        k(   28) = (   0.0307660  -0.0888138   0.0000000), wk =   0.0555556
        k(   29) = (   0.0307660  -0.0532883   0.0000000), wk =   0.0555556
        k(   30) = (   0.0307660  -0.0177628   0.0000000), wk =   0.0555556
        k(   31) = (   0.0615320   0.0355255   0.0000000), wk =   0.0555556
        k(   32) = (   0.0615320   0.0710510   0.0000000), wk =   0.0555556
        k(   33) = (   0.0615320   0.1065766   0.0000000), wk =   0.0555556
        k(   34) = (   0.0615320  -0.0710510   0.0000000), wk =   0.0555556
        k(   35) = (   0.0615320  -0.0355255   0.0000000), wk =   0.0555556
        k(   36) = (   0.0615320   0.0000000   0.0000000), wk =   0.0555556
        k(   37) = (  -0.0922980  -0.0532883   0.0000000), wk =   0.0277778
        k(   38) = (  -0.0922980  -0.0177628   0.0000000), wk =   0.0555556
        k(   39) = (  -0.0922980   0.0177628   0.0000000), wk =   0.0555556
        k(   40) = (  -0.0922980  -0.1598648   0.0000000), wk =   0.0277778

     Largest allocated arrays     est. size (Mb)     dimensions
     Largest temporary arrays     est. size (Mb)     dimensions

     Check: negative/imaginary core charge=   -0.000006    0.000000

     Initial potential from superposition of free atoms
     Check: negative starting charge=(component1):   -0.107055
     Check: negative starting charge=(component2):   -0.076426

     starting charge  170.99350, renormalised to  180.00000

     negative rho (up, down):  1.127E-01 8.045E-02

     *
     * You are using vdW-DF for exchange-correlation in this calculation.
     * Please cite the following three references that made this development
     * possible:
     *
     *   M. Dion, H. Rydberg, E. Schroder, D. C. Langreth, and
     *   B. I. Lundqvist, Phys. Rev. Lett. 92, 246401 (2004).
     *
     *   T. Thonhauser, V. R. Cooper, S. Li, A. Puzder, P. Hyldgaard, and
     *   D. C. Langreth, Phys. Rev. B 76, 125112 (2007).
     *
     *   G. Roman-Perez and J. M. Soler, Phys. Rev. Lett. 103, 096102 (2009).
     *
     *
     * If you are using vdW-DF2, please also cite:
     *
     *   K. Lee, E. D. Murray, L. Kong, B. I. Lundqvist, and
     *   D. C. Langreth, Phys. Rev. B 82, 081101(R) (2010).
     *
     *
     * If you are calculating the stress with vdW-DF, please also cite:
     *
     *   R. Sabatini, E. Kucukbenli, B. Kolb, T. Thonhauser, and
     *   S. de Gironcoli, J. Phys.: Condens. Matter 24, 424209 (2012).
     *

     Carrying out vdW-DF run using the following parameters:

     Nqs =      20    Nr_points =    1024   r_max =   100.000
     q_mesh =
               0.00001000     0.04494208     0.09755937     0.15916263
               0.23128650     0.31572767     0.41458969     0.53033537
               0.66584808     0.82450364     1.01025438     1.22772762
               1.48234092     1.78043706     2.12944203     2.53805004
               3.01644009     3.57652955     4.23227104     5.00000000

     Gradients computed in reciprocal space

     Adding external electric field

     Computed dipole along edir(3) :
        Dipole               -0.0000 Ry au,         -0.0000 Debye
        Dipole field         -0.0000 Ry au

        Potential amp.        0.0000 Ry
        Total length         44.9992 bohr

[...]

     Starting wfc are  156 randomized atomic wfcs

     Self-consistent Calculation

     iteration #  1     ecut=    36.75 Ry     beta=0.10
     Davidson diagonalization with overlap
     ethr =  1.00E-02,  avg # of iterations =  3.6

[...]

     Magnetic moment per site:
     atom:    1    charge:    7.2433    magn:    0.9031    constr:    0.0000
     atom:    2    charge:    7.2432    magn:    0.9031    constr:    0.0000
     atom:    3    charge:    7.2433    magn:    0.9031    constr:    0.0000
     atom:    4    charge:    1.1596    magn:    0.1763    constr:    0.0000
     atom:    5    charge:    7.2384    magn:    0.8919    constr:    0.0000
     atom:    6    charge:    7.2384    magn:    0.8919    constr:    0.0000
     atom:    7    charge:    7.2384    magn:    0.8919    constr:    0.0000
     atom:    8    charge:    1.1558    magn:    0.1751    constr:    0.0000
[...]
        k(    3) = (   0.0000000   0.0710510   0.0000000), wk =   0.0555556
        k(    4) = (   0.0000000  -0.1065766   0.0000000), wk =   0.0277778
        k(    5) = (   0.0307660   0.0177628   0.0000000), wk =   0.0555556
        k(    6) = (   0.0307660   0.0532883   0.0000000), wk =   0.0555556
        k(    7) = (   0.0307660   0.0888138   0.0000000), wk =   0.0555556
        k(    8) = (   0.0307660  -0.0888138   0.0000000), wk =   0.0555556
        k(    9) = (   0.0307660  -0.0532883   0.0000000), wk =   0.0555556
        k(   10) = (   0.0307660  -0.0177628   0.0000000), wk =   0.0555556
        k(   11) = (   0.0615320   0.0355255   0.0000000), wk =   0.0555556
        k(   12) = (   0.0615320   0.0710510   0.0000000), wk =   0.0555556
        k(   13) = (   0.0615320   0.1065766   0.0000000), wk =   0.0555556
        k(   14) = (   0.0615320  -0.0710510   0.0000000), wk =   0.0555556
        k(   15) = (   0.0615320  -0.0355255   0.0000000), wk =   0.0555556
        k(   16) = (   0.0615320   0.0000000   0.0000000), wk =   0.0555556
        k(   17) = (  -0.0922980  -0.0532883   0.0000000), wk =   0.0277778
        k(   18) = (  -0.0922980  -0.0177628   0.0000000), wk =   0.0555556
        k(   19) = (  -0.0922980   0.0177628   0.0000000), wk =   0.0555556
        k(   20) = (  -0.0922980  -0.1598648   0.0000000), wk =   0.0277778
        k(   21) = (   0.0000000   0.0000000   0.0000000), wk =   0.0277778
        k(   22) = (   0.0000000   0.0355255   0.0000000), wk =   0.0555556
        k(   23) = (   0.0000000   0.0710510   0.0000000), wk =   0.0555556
        k(   24) = (   0.0000000  -0.1065766   0.0000000), wk =   0.0277778
        k(   25) = (   0.0307660   0.0177628   0.0000000), wk =   0.0555556
        k(   26) = (   0.0307660   0.0532883   0.0000000), wk =   0.0555556
        k(   27) = (   0.0307660   0.0888138   0.0000000), wk =   0.0555556
        k(   28) = (   0.0307660  -0.0888138   0.0000000), wk =   0.0555556
        k(   29) = (   0.0307660  -0.0532883   0.0000000), wk =   0.0555556
        k(   30) = (   0.0307660  -0.0177628   0.0000000), wk =   0.0555556
        k(   31) = (   0.0615320   0.0355255   0.0000000), wk =   0.0555556
        k(   32) = (   0.0615320   0.0710510   0.0000000), wk =   0.0555556
        k(   33) = (   0.0615320   0.1065766   0.0000000), wk =   0.0555556
        k(   34) = (   0.0615320  -0.0710510   0.0000000), wk =   0.0555556
        k(   35) = (   0.0615320  -0.0355255   0.0000000), wk =   0.0555556
        k(   36) = (   0.0615320   0.0000000   0.0000000), wk =   0.0555556
        k(   37) = (  -0.0922980  -0.0532883   0.0000000), wk =   0.0277778
        k(   38) = (  -0.0922980  -0.0177628   0.0000000), wk =   0.0555556
        k(   39) = (  -0.0922980   0.0177628   0.0000000), wk =   0.0555556
        k(   40) = (  -0.0922980  -0.1598648   0.0000000), wk =   0.0277778

     Largest allocated arrays     est. size (Mb)     dimensions
     Largest temporary arrays     est. size (Mb)     dimensions

     Check: negative/imaginary core charge=   -0.000006    0.000000

     Initial potential from superposition of free atoms
     Check: negative starting charge=(component1):   -0.106968
     Check: negative starting charge=(component2):   -0.076366

     starting charge  170.99350, renormalised to  180.00000

[...]

     *
     * You are using vdW-DF for exchange-correlation in this calculation.
     * Please cite the following three references that made this development
     * possible:
     *
     *   M. Dion, H. Rydberg, E. Schroder, D. C. Langreth, and
     *   B. I. Lundqvist, Phys. Rev. Lett. 92, 246401 (2004).
     *
     *   T. Thonhauser, V. R. Cooper, S. Li, A. Puzder, P. Hyldgaard, and
     *   D. C. Langreth, Phys. Rev. B 76, 125112 (2007).
     *
     *   G. Roman-Perez and J. M. Soler, Phys. Rev. Lett. 103, 096102 (2009).
     *
     *
     * If you are using vdW-DF2, please also cite:
     *
     *   K. Lee, E. D. Murray, L. Kong, B. I. Lundqvist, and
     *   D. C. Langreth, Phys. Rev. B 82, 081101(R) (2010).
     *
     *
     * If you are calculating the stress with vdW-DF, please also cite:
     *
     *   R. Sabatini, E. Kucukbenli, B. Kolb, T. Thonhauser, and
     *   S. de Gironcoli, J. Phys.: Condens. Matter 24, 424209 (2012).
     *

     Carrying out vdW-DF run using the following parameters:

     Nqs =      20    Nr_points =    1024   r_max =   100.000
     q_mesh =
               0.00001000     0.04494208     0.09755937     0.15916263
               0.23128650     0.31572767     0.41458969     0.53033537
               0.66584808     0.82450364     1.01025438     1.22772762
               1.48234092     1.78043706     2.12944203     2.53805004
               3.01644009     3.57652955     4.23227104     5.00000000

     Gradients computed in reciprocal space

[...]

     Starting wfc are  156 randomized atomic wfcs

     Self-consistent Calculation

[...]

     total energy              =   -2561.21697900 Ry
     Harris-Foulkes estimate   =   -2561.21697623 Ry
     estimated scf accuracy    <       0.00000182 Ry

[...]

     iteration # 31     ecut=    36.75 Ry     beta=0.10
     Davidson diagonalization with overlap
     ethr =  1.01E-09,  avg # of iterations =  3.0

[...]

     negative rho (up, down):  9.642E-02 9.219E-02

[...]

     Adding external electric field

     Computed dipole along edir(3) :
        Dipole                0.0561 Ry au,          0.1426 Debye
        Dipole field          0.0002 Ry au

        Potential amp.       -0.0151 Ry
        Total length         44.9992 bohr

     Magnetic moment per site:
     atom:    1    charge:    7.0906    magn:    1.1665    constr:    0.0000
     atom:    2    charge:    7.0905    magn:    1.1665    constr:    0.0000
     atom:    3    charge:    7.0907    magn:    1.1664    constr:    0.0000
     atom:    4    charge:    1.1131    magn:   -0.0247    constr:    0.0000
     atom:    5    charge:    7.0689    magn:    1.0989    constr:    0.0000
     atom:    6    charge:    7.0690    magn:    1.0989    constr:    0.0000
     atom:    7    charge:    7.0690    magn:    1.0989    constr:    0.0000
     atom:    8    charge:    1.1087    magn:   -0.0213    constr:    0.0000
     atom:    9    charge:    7.0881    magn:    1.1459    constr:    0.0000
     atom:   10    charge:    7.0880    magn:    1.1460    constr:    0.0000
     atom:   11    charge:    7.0881    magn:    1.1459    constr:    0.0000
     atom:   12    charge:    1.1042    magn:   -0.0231    constr:    0.0000

     End of self-consistent calculation

 ------ SPIN UP ------------

[...]

 ------ SPIN DOWN ----------

[...]

          k = 0.0615 0.0000 0.0000 ( 15744 PWs)   bands (ev):

[...]

          k =-0.0923-0.1599 0.0000 ( 15780 PWs)   bands (ev):

   -84.2087 -84.2034 -84.1979 -84.0856 -84.0677 -84.0652 -84.0523 -84.0469
   -84.0419 -50.3810 -50.3450 -50.3392 -50.3390 -50.3317 -50.3139 -50.2999
   -50.2799 -50.2658 -50.2469 -50.2292 -50.2264 -50.2261 -50.2109 -50.2063
   -50.1889 -50.1553 -50.1376 -50.1303 -50.1238 -50.1163 -50.1081 -50.0978
   -50.0842 -50.0733 -50.0624 -50.0378 -47.9993 -47.7583 -47.4246 -26.1255
   -26.0131 -26.0010 -25.8944 -25.8204 -25.8064 -25.5547 -25.5408 -25.5138
    -3.6984  -3.6068  -2.4738  -1.9652  -1.6359  -1.4514  -1.3940  -1.1760
    -0.7707  -0.7060  -0.6381  -0.3083  -0.2404  -0.1601  -0.1391  -0.0417
     0.0326   0.2067   0.2858   0.3364   0.3752   0.4070   0.5169   0.5493
     0.7779   0.7823   0.8450   0.8772   0.9664   1.0324   1.0807   1.0936
     1.2394   1.2683   1.3905   1.4656   1.5304   1.6474   1.6883   1.8302
     1.9702   1.9825   2.0147   2.1574   2.2141   2.2961   2.3132   2.3750
     2.5348   2.5949   2.7022   2.7807   2.8183   3.0264   3.2999   3.3682
     3.5031   3.6365   3.6425   3.8382   3.9857   4.0708   4.1833   4.2008
     4.4131   4.7302   5.1063   5.7324   6.0310   6.2571   6.6442   6.7599

     the Fermi energy is     1.3768 ev

!    total energy              =   -2561.21698408 Ry
     Harris-Foulkes estimate   =   -2561.21697993 Ry
     estimated scf accuracy    <       0.00000084 Ry

     The total energy is the sum of the following terms:

     one-electron contribution =  -20186.51070795 Ry
     hartree contribution      =   10092.64280641 Ry
     xc contribution           =    -327.86834986 Ry
     ewald contribution        =    7860.61609538 Ry
     electric field correction =       0.00000944 Ry
     smearing contrib. (-TS)   =      -0.09683751 Ry

     total magnetization       =    18.97 Bohr mag/cell
     absolute magnetization    =    24.66 Bohr mag/cell

     convergence has been achieved in  31 iterations

 BEEF-vdW xc energy contributions
           1 :   -285.983168027850
           2 :    258.757362809419
           3 :   -213.083051053149
           4 :    162.267995019439
           5 :   -118.311612919230
           6 :    87.5342471292059
           7 :   -69.5894198983295
           8 :    59.6507408663714
           9 :   -52.0466334733533
          10 :    43.2301098710766
          11 :   -32.8083010000811
          12 :    22.6064087120727
          13 :   -14.7931475861342
          14 :    10.3352089112787
          15 :   -8.58774993116242
          16 :    7.96686005072979
          17 :   -7.04800759690085
          18 :    5.31404676518383
          19 :   -3.18344749398301
          20 :    1.45873462833680
          21 :  -0.677795592872030
          22 :   0.784863981665069
          23 :   -1.25685562724095
          24 :    1.49550653094656
          25 :   -1.19250136260769
          26 :   0.447030626161279
          27 :   0.376220291550226
          28 :  -0.918271237560703
          29 :    1.03760915642300
          30 :  -0.859463366512330
          31 :   -26.5164022872259
          32 :   -18.9384013057714

     Forces acting on atoms (Ry/au):

     negative rho (up, down):  9.642E-02 9.219E-02
     atom    1 type  1   force =    -0.00000357   -0.01816019    0.00521089
     atom    2 type  1   force =    -0.01573154    0.00905517    0.00521243
     atom    3 type  1   force =     0.01574104    0.00906462    0.00523548
     atom    4 type  2   force =    -0.00000274   -0.00001966   -0.02488427
     atom    5 type  1   force =     0.00000383    0.01323893    0.00324829
     atom    6 type  1   force =     0.01149205   -0.00661823    0.00323675
     atom    7 type  1   force =    -0.01148705   -0.00661972    0.00323877
     atom    8 type  2   force =     0.00000468    0.00000952    0.00069041
     atom    9 type  1   force =     0.00000018   -0.00109421   -0.00019553
     atom   10 type  1   force =    -0.00095956    0.00056758   -0.00018815
     atom   11 type  1   force =     0.00094202    0.00055707   -0.00020536
     atom   12 type  2   force =     0.00000064    0.00001912   -0.00059973

     Total force =     0.047468     Total SCF correction =     0.002011

     entering subroutine stress ...

     negative rho (up, down):  9.642E-02 9.219E-02
          total   stress  (Ry/bohr**3)                   (kbar)     P=   -9.97
  -0.00010303   0.00000003   0.00000001        -15.16      0.00      0.00
   0.00000003  -0.00010302   0.00000000          0.00    -15.15      0.00
   0.00000001   0.00000000   0.00000269          0.00      0.00      0.40

 !ASE

     Writing output data file calc.save

     General routines

     Parallel routines

   This run was terminated on:   5:33: 3  26Dec2018

   JOB DONE.
Job  /afs/slac/g/suncat/bin/suncat-tsmpirun -x LD_LIBRARY_PATH -wdir /scratch/qe109659_KXMZT pw.x -in pw.inp

TID   HOST_NAME   COMMAND_LINE            STATUS            TERMINATION_TIME
00000 suncat0139 pw.x -in pw.inp   Done                     12/26/2018 05:33:03
00001 suncat0139 pw.x -in pw.inp   Done                     12/26/2018 05:33:03
00002 suncat0139 pw.x -in pw.inp   Done                     12/26/2018 05:33:03
00003 suncat0139 pw.x -in pw.inp   Done                     12/26/2018 05:33:03
00004 suncat0139 pw.x -in pw.inp   Done                     12/26/2018 05:33:03
00005 suncat0139 pw.x -in pw.inp   Done                     12/26/2018 05:33:03
00006 suncat0139 pw.x -in pw.inp   Done                     12/26/2018 05:33:03
00007 suncat0139 pw.x -in pw.inp   Done                     12/26/2018 05:33:03
00008 suncat0124 pw.x -in pw.inp   Done                     12/26/2018 05:33:03
00009 suncat0124 pw.x -in pw.inp   Done                     12/26/2018 05:33:03
00010 suncat0124 pw.x -in pw.inp   Done                     12/26/2018 05:33:03
00011 suncat0124 pw.x -in pw.inp   Done                     12/26/2018 05:33:03
00012 suncat0124 pw.x -in pw.inp   Done                     12/26/2018 05:33:03
00013 suncat0124 pw.x -in pw.inp   Done                     12/26/2018 05:33:03
00014 suncat0124 pw.x -in pw.inp   Done                     12/26/2018 05:33:03
00015 suncat0124 pw.x -in pw.inp   Done                     12/26/2018 05:33:03
00016 suncat0123 pw.x -in pw.inp   Done                     12/26/2018 05:33:03
00017 suncat0123 pw.x -in pw.inp   Done                     12/26/2018 05:33:03
00018 suncat0123 pw.x -in pw.inp   Done                     12/26/2018 05:33:03
00019 suncat0123 pw.x -in pw.inp   Done                     12/26/2018 05:33:03
00020 suncat0123 pw.x -in pw.inp   Done                     12/26/2018 05:33:03
00021 suncat0123 pw.x -in pw.inp   Done                     12/26/2018 05:33:03
00022 suncat0123 pw.x -in pw.inp   Done                     12/26/2018 05:33:03
00023 suncat0123 pw.x -in pw.inp   Done                     12/26/2018 05:33:03
00024 suncat0122 pw.x -in pw.inp   Done                     12/26/2018 05:33:03
00025 suncat0122 pw.x -in pw.inp   Done                     12/26/2018 05:33:03
00026 suncat0122 pw.x -in pw.inp   Done                     12/26/2018 05:33:03
00027 suncat0122 pw.x -in pw.inp   Done                     12/26/2018 05:33:03
00028 suncat0122 pw.x -in pw.inp   Done                     12/26/2018 05:33:03
00029 suncat0122 pw.x -in pw.inp   Done                     12/26/2018 05:33:03
00030 suncat0122 pw.x -in pw.inp   Done                     12/26/2018 05:33:03
00031 suncat0122 pw.x -in pw.inp   Done                     12/26/2018 05:33:03
00032 suncat0241 pw.x -in pw.inp   Done                     12/26/2018 05:33:03
00033 suncat0241 pw.x -in pw.inp   Done                     12/26/2018 05:33:03
00034 suncat0241 pw.x -in pw.inp   Done                     12/26/2018 05:33:03
00035 suncat0241 pw.x -in pw.inp   Done                     12/26/2018 05:33:03
00036 suncat0241 pw.x -in pw.inp   Done                     12/26/2018 05:33:03
00037 suncat0241 pw.x -in pw.inp   Done                     12/26/2018 05:33:03
00038 suncat0241 pw.x -in pw.inp   Done                     12/26/2018 05:33:03
00039 suncat0241 pw.x -in pw.inp   Done                     12/26/2018 05:33:03
00040 suncat0240 pw.x -in pw.inp   Done                     12/26/2018 05:33:03
00041 suncat0240 pw.x -in pw.inp   Done                     12/26/2018 05:33:03
00042 suncat0240 pw.x -in pw.inp   Done                     12/26/2018 05:33:03
00043 suncat0240 pw.x -in pw.inp   Done                     12/26/2018 05:33:03
00044 suncat0240 pw.x -in pw.inp   Done                     12/26/2018 05:33:03
00045 suncat0240 pw.x -in pw.inp   Done                     12/26/2018 05:33:03
00046 suncat0240 pw.x -in pw.inp   Done                     12/26/2018 05:33:03
00047 suncat0240 pw.x -in pw.inp   Done                     12/26/2018 05:33:03
00048 suncat0239 pw.x -in pw.inp   Done                     12/26/2018 05:33:03
00049 suncat0239 pw.x -in pw.inp   Done                     12/26/2018 05:33:03
00050 suncat0239 pw.x -in pw.inp   Done                     12/26/2018 05:33:03
00051 suncat0239 pw.x -in pw.inp   Done                     12/26/2018 05:33:03
00052 suncat0239 pw.x -in pw.inp   Done                     12/26/2018 05:33:03
00053 suncat0239 pw.x -in pw.inp   Done                     12/26/2018 05:33:03
00054 suncat0239 pw.x -in pw.inp   Done                     12/26/2018 05:33:03
00055 suncat0239 pw.x -in pw.inp   Done                     12/26/2018 05:33:03
00056 suncat0098 pw.x -in pw.inp   Done                     12/26/2018 05:33:03
00057 suncat0098 pw.x -in pw.inp   Done                     12/26/2018 05:33:03
00058 suncat0098 pw.x -in pw.inp   Done                     12/26/2018 05:33:03
00059 suncat0098 pw.x -in pw.inp   Done                     12/26/2018 05:33:03
00060 suncat0098 pw.x -in pw.inp   Done                     12/26/2018 05:33:03
00061 suncat0098 pw.x -in pw.inp   Done                     12/26/2018 05:33:03
00062 suncat0098 pw.x -in pw.inp   Done                     12/26/2018 05:33:03
00063 suncat0098 pw.x -in pw.inp   Done                     12/26/2018 05:33:03