     Program PWSCF v.5.1rc2 (svn rev. 11289) starts on 18Dec2018 at 20:38: 2

     Current dimensions of program PWSCF are:
     Max number of different atomic species (ntypx) = 10
     Max number of k-points (npk) =  40000
     Max angular momentum in pseudopotentials (lmaxx) =  3
     Presently stress not available with electric field

     IMPORTANT: XC functional enforced from input :
     Exchange-correlation      = BEEF-VDW ( 1  4 27 13 2)
     Any further DFT definition will be discarded
     Please, verify this is what you really want

     Subspace diagonalization in iterative solution of the eigenvalue problem:
     a serial algorithm will be used

     Found symmetry operation: I + ( -0.5000  0.0000  0.0000)
     This is a supercell, fractional translations are disabled

     bravais-lattice index     =            0
     lattice parameter (alat)  =       1.8897  a.u.
     unit-cell volume          =    6094.9180 (a.u.)^3
     number of atoms/cell      =           12
     number of atomic types    =            2
     number of electrons       =       144.00
     number of Kohn-Sham states=          102
     kinetic-energy cutoff     =      36.7493  Ry
     charge density cutoff     =     367.4932  Ry
     convergence threshold     =      1.0E-06
     mixing beta               =       0.1000
     number of iterations used =           10  plain     mixing
     Exchange-correlation      = BEEF-VDW ( 1  4 27 13 2)
     nstep                     =           50

     celldm(1)=   1.889726  celldm(2)=   0.000000  celldm(3)=   0.000000
     celldm(4)=   0.000000  celldm(5)=   0.000000  celldm(6)=   0.000000

     crystal axes: (cart. coord. in units of alat)
               a(1) = (   6.089043   0.000000   0.000000 )
               a(2) = (  -3.044521   5.883583   0.000000 )
               a(3) = (   0.000000   0.000000  25.210437 )

     reciprocal axes: (cart. coord. in units 2 pi/alat)
               b(1) = (  0.164229  0.084982  0.000000 )
               b(2) = (  0.000000  0.169964  0.000000 )
               b(3) = (  0.000000  0.000000  0.039666 )

     PseudoPot. # 1 for Nb read from file:
     /afs/slac.stanford.edu/u/if/mamunm/psp/gbrv1.5pbe/Nb.UPF
     MD5 check sum: 573aab8a2fa660278ed4a62cd769473f
     Pseudo is Ultrasoft + core correction, Zval = 13.0
     Generated by new atomic code, or converted to UPF format
     Using radial grid of  887 points,  6 beta functions with:
                l(1) =   0
                l(2) =   0
                l(3) =   1
                l(4) =   1
                l(5) =   2
                l(6) =   2
     Q(r) pseudized with  6 coefficients,  rinner =    1.000   1.000   1.000
                                                       1.000   1.000

     PseudoPot. # 2 for Y  read from file:
     /afs/slac.stanford.edu/u/if/mamunm/psp/gbrv1.5pbe/Y.UPF
     MD5 check sum: d034151ed7554c50b6e82763ed42c788
     Pseudo is Ultrasoft + core correction, Zval = 11.0
     Generated by new atomic code, or converted to UPF format
     Using radial grid of  885 points,  6 beta functions with:
                l(1) =   0
                l(2) =   0
                l(3) =   1
                l(4) =   1
                l(5) =   2
                l(6) =   2
     Q(r) pseudized with  8 coefficients,  rinner =    1.200   1.200   1.200
                                                       1.200   1.200

     vdW kernel table read from file vdW_kernel_table
     MD5 check sum: 095c7af220d748ca6e76c0b4c6cfb241

     atomic species   valence    mass     pseudopotential
        Nb1           13.00    92.90637     Nb( 1.00)
        Y1            11.00    88.90584     Y ( 1.00)

     No symmetry found

   Cartesian axes

     site n.     atom                  positions (alat units)
         1           Nb1 tau(   1) = (   0.0000000   0.0000000  10.0000000  )
         2           Nb1 tau(   2) = (   3.0445214   0.0000000  10.0000000  )
         3           Y1  tau(   3) = (   1.5222607   2.9417913  10.0000000  )
         4           Y1  tau(   4) = (  -1.5222607   2.9417913  10.0000000  )
         5           Nb1 tau(   5) = (   3.0445214   1.5754195  12.6052186  )
         6           Nb1 tau(   6) = (  -0.0000000   1.5754195  12.6052186  )
         7           Y1  tau(   7) = (  -1.5222607   4.5172108  12.6052186  )
         8           Y1  tau(   8) = (   1.5222607   4.5172108  12.6052186  )
         9           Nb1 tau(   9) = (  -0.0000000   3.1508390  15.2104373  )
        10           Nb1 tau(  10) = (   3.0445214   3.1508390  15.2104373  )
        11           Y1  tau(  11) = (   4.5667821   0.2090477  15.2104373  )
        12           Y1  tau(  12) = (   1.5222607   0.2090477  15.2104373  )

     number of k points=    20  Fermi-Dirac smearing, width (Ry)=  0.0110
                       cart. coord. in units 2pi/alat
        k(    1) = (   0.0000000   0.0000000   0.0000000), wk =   0.0555556
        k(    2) = (   0.0000000   0.0283274   0.0000000), wk =   0.1111111
        k(    3) = (   0.0000000   0.0566548   0.0000000), wk =   0.1111111
        k(    4) = (   0.0000000  -0.0849822   0.0000000), wk =   0.0555556
        k(    5) = (   0.0273716   0.0141637   0.0000000), wk =   0.1111111
        k(    6) = (   0.0273716   0.0424911   0.0000000), wk =   0.1111111
        k(    7) = (   0.0273716   0.0708185   0.0000000), wk =   0.1111111
        k(    8) = (   0.0273716  -0.0708185   0.0000000), wk =   0.1111111
        k(    9) = (   0.0273716  -0.0424911   0.0000000), wk =   0.1111111
        k(   10) = (   0.0273716  -0.0141637   0.0000000), wk =   0.1111111
        k(   11) = (   0.0547431   0.0283274   0.0000000), wk =   0.1111111
        k(   12) = (   0.0547431   0.0566548   0.0000000), wk =   0.1111111
        k(   13) = (   0.0547431   0.0849822   0.0000000), wk =   0.1111111
        k(   14) = (   0.0547431  -0.0566548   0.0000000), wk =   0.1111111
        k(   15) = (   0.0547431  -0.0283274   0.0000000), wk =   0.1111111
        k(   16) = (   0.0547431   0.0000000   0.0000000), wk =   0.1111111
        k(   17) = (  -0.0821147  -0.0424911   0.0000000), wk =   0.0555556
        k(   18) = (  -0.0821147  -0.0141637   0.0000000), wk =   0.1111111
        k(   19) = (  -0.0821147   0.0141637   0.0000000), wk =   0.1111111
        k(   20) = (  -0.0821147  -0.1274734   0.0000000), wk =   0.0555556

     Largest allocated arrays     est. size (Mb)     dimensions
     Largest temporary arrays     est. size (Mb)     dimensions

     Initial potential from superposition of free atoms
     Check: negative starting charge=   -0.003909

     starting charge  143.95679, renormalised to  144.00000

     negative rho (up, down):  3.911E-03 0.000E+00

     *
     * You are using vdW-DF for exchange-correlation in this calculation.
     * Please cite the following three references that made this development
     * possible:
     *
     *   M. Dion, H. Rydberg, E. Schroder, D. C. Langreth, and
     *   B. I. Lundqvist, Phys. Rev. Lett. 92, 246401 (2004).
     *
     *   T. Thonhauser, V. R. Cooper, S. Li, A. Puzder, P. Hyldgaard, and
     *   D. C. Langreth, Phys. Rev. B 76, 125112 (2007).
     *
     *   G. Roman-Perez and J. M. Soler, Phys. Rev. Lett. 103, 096102 (2009).
     *
     *
     * If you are using vdW-DF2, please also cite:
     *
     *   K. Lee, E. D. Murray, L. Kong, B. I. Lundqvist, and
     *   D. C. Langreth, Phys. Rev. B 82, 081101(R) (2010).
     *
     *
     * If you are calculating the stress with vdW-DF, please also cite:
     *
     *   R. Sabatini, E. Kucukbenli, B. Kolb, T. Thonhauser, and
     *   S. de Gironcoli, J. Phys.: Condens. Matter 24, 424209 (2012).
     *

     Carrying out vdW-DF run using the following parameters:

     Nqs =      20    Nr_points =    1024   r_max =   100.000
     q_mesh =
               0.00001000     0.04494208     0.09755937     0.15916263
               0.23128650     0.31572767     0.41458969     0.53033537
               0.66584808     0.82450364     1.01025438     1.22772762
               1.48234092     1.78043706     2.12944203     2.53805004
               3.01644009     3.57652955     4.23227104     5.00000000

     Gradients computed in reciprocal space

     Adding external electric field

     Computed dipole along edir(3) :
        Dipole               -0.0000 Ry au,         -0.0000 Debye
        Dipole field         -0.0000 Ry au

        Potential amp.        0.0000 Ry
        Total length         46.4498 bohr

     Starting wfc are  156 randomized atomic wfcs

     Self-consistent Calculation

     iteration #  1     ecut=    36.75 Ry     beta=0.10
     Davidson diagonalization with overlap
     ethr =  1.00E-02,  avg # of iterations =  2.0

[...]

     total energy              =   -1271.93716474 Ry
     Harris-Foulkes estimate   =   -1273.81148546 Ry
     estimated scf accuracy    <      10.62234390 Ry

[...]

     iteration #  8     ecut=    36.75 Ry     beta=0.10
     Davidson diagonalization with overlap
     c_bands:  1 eigenvalues not converged
     ethr =  3.51E-05,  avg # of iterations =  2.2

[...]

     End of self-consistent calculation

          k = 0.0000 0.0000 0.0000 ( 22849 PWs)   bands (ev):

   -53.6360 -53.6328 -53.5880 -53.5850 -53.5433 -53.4954 -41.3858 -41.3819
   -41.2450 -41.2412 -40.8140 -40.6725 -29.8412 -29.8304 -29.8048 -29.7779
   -29.7437 -29.6895 -29.6365 -29.6293 -29.6207 -29.5710 -29.5631 -29.5206
   -29.4615 -29.4225 -29.3746 -29.3440 -29.3391 -29.2898 -21.9924 -21.9891
   -21.6681 -21.5005 -21.4450 -21.4400 -21.2888 -21.2498 -21.2443 -21.1041
   -21.0960 -20.8209 -20.8185 -20.7023 -20.6733 -20.5707 -20.5224 -20.2691
    -3.2536  -2.1717  -1.4060  -0.9837  -0.9663  -0.9591  -0.9279  -0.7904
    -0.7524  -0.4415  -0.3968  -0.3823  -0.2673  -0.1895  -0.1675   0.3885
     0.6515   0.6583   0.8922   1.1767   1.2974   1.4636   1.7177   1.8363
     1.8447   2.1147   2.1302   2.1554   2.4532   2.5316   2.7146   2.7358
     2.8110   2.8968   2.9169   2.9228   3.0694   3.0951   3.1048   3.2283
     3.3069   3.6392   3.6686   3.7256   3.8324   3.9597   4.1227   4.4167
     4.4664   4.5962   4.6387   4.6659   4.7963   4.8630

[...]

          k =-0.0821-0.0425 0.0000 ( 22922 PWs)   bands (ev):

[...]

     the Fermi energy is     1.4541 ev

!    total energy              =   -1272.95540658 Ry
     Harris-Foulkes estimate   =   -1272.95540597 Ry
     estimated scf accuracy    <       0.00000064 Ry

     The total energy is the sum of the following terms:

     one-electron contribution =   -8199.03182095 Ry
     hartree contribution      =    4092.56636444 Ry
     xc contribution           =    -283.81524966 Ry
     ewald contribution        =    3117.43511174 Ry
     electric field correction =       0.00000000 Ry
     smearing contrib. (-TS)   =      -0.10981215 Ry

     convergence has been achieved in  20 iterations

 BEEF-vdW xc energy contributions
           1 :   -245.971081831038
           2 :    222.109797008690
           3 :   -180.966613990572
           4 :    132.804072523070
           5 :   -87.5857736424016
           6 :    51.8130154115896
           7 :   -27.4588579455809
           8 :    12.9362894657129
           9 :   -5.13187531391634
[...]
00030 suncat2025 pw.x -in pw.inp   Done                     12/18/2018 20:54:51
00031 suncat2025 pw.x -in pw.inp   Done                     12/18/2018 20:54:51

     Program PWSCF v.5.1rc2 (svn rev. 11289) starts on 18Dec2018 at 20:54:56

[...]

   This run was terminated on:  21:43: 0  18Dec2018

[...]

     Program PWSCF v.5.1rc2 (svn rev. 11289) starts on 18Dec2018 at 21:43: 6

[...]

     Program PWSCF v.5.1rc2 (svn rev. 11289) starts on 18Dec2018 at 22:15:29

     Current dimensions of program PWSCF are:
     Max number of different atomic species (ntypx) = 10
     Max number of k-points (npk) =  40000
     Max angular momentum in pseudopotentials (lmaxx) =  3
     Presently stress not available with electric field

     IMPORTANT: XC functional enforced from input :
     Exchange-correlation      = BEEF-VDW ( 1  4 27 13 2)
     Any further DFT definition will be discarded
     Please, verify this is what you really want

     Subspace diagonalization in iterative solution of the eigenvalue problem:
     a serial algorithm will be used

     Found symmetry operation: I + ( -0.5000  0.0000  0.0000)
     This is a supercell, fractional translations are disabled

     bravais-lattice index     =            0
     lattice parameter (alat)  =       1.8897  a.u.
     unit-cell volume          =    6094.9180 (a.u.)^3
     number of atoms/cell      =           12
     number of atomic types    =            2
     number of electrons       =       144.00
     number of Kohn-Sham states=          102
     kinetic-energy cutoff     =      36.7493  Ry
     charge density cutoff     =     367.4932  Ry
     convergence threshold     =      1.0E-06
     mixing beta               =       0.1000
     number of iterations used =           10  plain     mixing
     Exchange-correlation      = BEEF-VDW ( 1  4 27 13 2)
     nstep                     =           50

     celldm(1)=   1.889726  celldm(2)=   0.000000  celldm(3)=   0.000000
     celldm(4)=   0.000000  celldm(5)=   0.000000  celldm(6)=   0.000000

     crystal axes: (cart. coord. in units of alat)
               a(1) = (   6.089043   0.000000   0.000000 )
               a(2) = (  -3.044521   5.883583   0.000000 )
               a(3) = (   0.000000   0.000000  25.210437 )

     reciprocal axes: (cart. coord. in units 2 pi/alat)
               b(1) = (  0.164229  0.084982  0.000000 )
               b(2) = (  0.000000  0.169964  0.000000 )
               b(3) = (  0.000000  0.000000  0.039666 )

     PseudoPot. # 1 for Nb read from file:
     /afs/slac.stanford.edu/u/if/mamunm/psp/gbrv1.5pbe/Nb.UPF
     MD5 check sum: 573aab8a2fa660278ed4a62cd769473f
     Pseudo is Ultrasoft + core correction, Zval = 13.0
     Generated by new atomic code, or converted to UPF format
     Using radial grid of  887 points,  6 beta functions with:
                l(1) =   0
                l(2) =   0
                l(3) =   1
                l(4) =   1
                l(5) =   2
                l(6) =   2
     Q(r) pseudized with  6 coefficients,  rinner =    1.000   1.000   1.000
                                                       1.000   1.000

     PseudoPot. # 2 for Y  read from file:
     /afs/slac.stanford.edu/u/if/mamunm/psp/gbrv1.5pbe/Y.UPF
     MD5 check sum: d034151ed7554c50b6e82763ed42c788
     Pseudo is Ultrasoft + core correction, Zval = 11.0
     Generated by new atomic code, or converted to UPF format
     Using radial grid of  885 points,  6 beta functions with:
                l(1) =   0
                l(2) =   0
                l(3) =   1
                l(4) =   1
                l(5) =   2
                l(6) =   2
     Q(r) pseudized with  8 coefficients,  rinner =    1.200   1.200   1.200
                                                       1.200   1.200

     vdW kernel table read from file vdW_kernel_table
     MD5 check sum: 095c7af220d748ca6e76c0b4c6cfb241

     atomic species   valence    mass     pseudopotential
        Nb1           13.00    92.90637     Nb( 1.00)
        Y1            11.00    88.90584     Y ( 1.00)

     No symmetry found

   Cartesian axes

     site n.     atom                  positions (alat units)
         1           Nb1 tau(   1) = (   0.0000000   0.0000000  10.0000000  )
         2           Nb1 tau(   2) = (   3.0445214   0.0000000  10.0000000  )
         3           Y1  tau(   3) = (   1.5222607   2.9417913  10.0000000  )
         4           Y1  tau(   4) = (  -1.5222607   2.9417913  10.0000000  )
         5           Nb1 tau(   5) = (   3.0445214   1.5754195  12.6052186  )
         6           Nb1 tau(   6) = (  -0.0000000   1.5754195  12.6052186  )
         7           Y1  tau(   7) = (  -1.5222607   4.5172108  12.6052186  )
         8           Y1  tau(   8) = (   1.5222607   4.5172108  12.6052186  )
         9           Nb1 tau(   9) = (  -0.0000899   3.0186132  14.8839960  )
        10           Nb1 tau(  10) = (   3.0444386   3.0186215  14.8839964  )
        11           Y1  tau(  11) = (   4.5665232   0.3239129  15.3735717  )
        12           Y1  tau(  12) = (   1.5219582   0.3238954  15.3735489  )

     number of k points=    20  Fermi-Dirac smearing, width (Ry)=  0.0110
                       cart. coord. in units 2pi/alat
        k(    1) = (   0.0000000   0.0000000   0.0000000), wk =   0.0555556
        k(    2) = (   0.0000000   0.0283274   0.0000000), wk =   0.1111111
        k(    3) = (   0.0000000   0.0566548   0.0000000), wk =   0.1111111
        k(    4) = (   0.0000000  -0.0849822   0.0000000), wk =   0.0555556
        k(    5) = (   0.0273716   0.0141637   0.0000000), wk =   0.1111111
        k(    6) = (   0.0273716   0.0424911   0.0000000), wk =   0.1111111
        k(    7) = (   0.0273716   0.0708185   0.0000000), wk =   0.1111111
        k(    8) = (   0.0273716  -0.0708185   0.0000000), wk =   0.1111111
        k(    9) = (   0.0273716  -0.0424911   0.0000000), wk =   0.1111111
        k(   10) = (   0.0273716  -0.0141637   0.0000000), wk =   0.1111111
        k(   11) = (   0.0547431   0.0283274   0.0000000), wk =   0.1111111
        k(   12) = (   0.0547431   0.0566548   0.0000000), wk =   0.1111111
        k(   13) = (   0.0547431   0.0849822   0.0000000), wk =   0.1111111
        k(   14) = (   0.0547431  -0.0566548   0.0000000), wk =   0.1111111
        k(   15) = (   0.0547431  -0.0283274   0.0000000), wk =   0.1111111
        k(   16) = (   0.0547431   0.0000000   0.0000000), wk =   0.1111111
        k(   17) = (  -0.0821147  -0.0424911   0.0000000), wk =   0.0555556
        k(   18) = (  -0.0821147  -0.0141637   0.0000000), wk =   0.1111111
        k(   19) = (  -0.0821147   0.0141637   0.0000000), wk =   0.1111111
        k(   20) = (  -0.0821147  -0.1274734   0.0000000), wk =   0.0555556

     Largest allocated arrays     est. size (Mb)     dimensions
     Largest temporary arrays     est. size (Mb)     dimensions

     Initial potential from superposition of free atoms
     Check: negative starting charge=   -0.003924

     starting charge  143.95679, renormalised to  144.00000

[...]

     *
     * You are using vdW-DF for exchange-correlation in this calculation.
     * Please cite the following three references that made this development
     * possible:
     *
     *   M. Dion, H. Rydberg, E. Schroder, D. C. Langreth, and
     *   B. I. Lundqvist, Phys. Rev. Lett. 92, 246401 (2004).
     *
     *   T. Thonhauser, V. R. Cooper, S. Li, A. Puzder, P. Hyldgaard, and
     *   D. C. Langreth, Phys. Rev. B 76, 125112 (2007).
     *
     *   G. Roman-Perez and J. M. Soler, Phys. Rev. Lett. 103, 096102 (2009).
     *
     *
     * If you are using vdW-DF2, please also cite:
     *
     *   K. Lee, E. D. Murray, L. Kong, B. I. Lundqvist, and
     *   D. C. Langreth, Phys. Rev. B 82, 081101(R) (2010).
     *
     *
     * If you are calculating the stress with vdW-DF, please also cite:
     *
     *   R. Sabatini, E. Kucukbenli, B. Kolb, T. Thonhauser, and
     *   S. de Gironcoli, J. Phys.: Condens. Matter 24, 424209 (2012).
     *

     Carrying out vdW-DF run using the following parameters:

     Nqs =      20    Nr_points =    1024   r_max =   100.000
     q_mesh =
               0.00001000     0.04494208     0.09755937     0.15916263
               0.23128650     0.31572767     0.41458969     0.53033537
               0.66584808     0.82450364     1.01025438     1.22772762
               1.48234092     1.78043706     2.12944203     2.53805004
               3.01644009     3.57652955     4.23227104     5.00000000

     Gradients computed in reciprocal space

[...]

     Starting wfc are  156 randomized atomic wfcs

     Self-consistent Calculation

[...]

     iteration #  7     ecut=    36.75 Ry     beta=0.10
     Davidson diagonalization with overlap
     c_bands:  1 eigenvalues not converged
     ethr =  6.74E-05,  avg # of iterations =  6.0

[...]

     total energy              =   -1273.00736198 Ry
     Harris-Foulkes estimate   =   -1273.00736200 Ry
     estimated scf accuracy    <       0.00000166 Ry

     iteration # 19     ecut=    36.75 Ry     beta=0.10
     Davidson diagonalization with overlap
     ethr =  1.16E-09,  avg # of iterations =  1.9

[...]

     negative rho (up, down):  3.215E-03 0.000E+00

     Adding external electric field

     Computed dipole along edir(3) :
        Dipole                0.1660 Ry au,          0.4219 Debye
        Dipole field          0.0003 Ry au

        Potential amp.       -0.0318 Ry
        Total length         46.4498 bohr

     End of self-consistent calculation

[...]

          k = 0.0547 0.0000 0.0000 ( 22955 PWs)   bands (ev):

[...]

          k =-0.0821-0.1275 0.0000 ( 22922 PWs)   bands (ev):

   -53.4806 -53.4806 -53.3069 -53.3069 -53.2117 -53.2117 -41.2985 -41.2985
   -41.1812 -41.1812 -40.5632 -40.5631 -29.6881 -29.6881 -29.5103 -29.5103
   -29.4600 -29.4600 -29.4550 -29.4550 -29.3581 -29.3581 -29.3054 -29.3054
   -29.2702 -29.2702 -29.2120 -29.2120 -28.9193 -28.9193 -21.4142 -21.4142
   -21.3828 -21.3827 -21.3008 -21.3008 -21.2956 -21.2956 -21.1822 -21.1822
   -21.0424 -21.0424 -20.7199 -20.7199 -20.5068 -20.5067 -20.4570 -20.4570
    -1.6195  -1.6195  -0.6996  -0.6996  -0.1946  -0.1946  -0.1148  -0.1148
     0.0925   0.0925   0.3623   0.3623   0.6857   0.6857   0.8146   0.8146
     0.9165   0.9165   1.0633   1.0633   1.3279   1.3279   1.4183   1.4183
     1.5544   1.5544   1.6503   1.6503   1.9922   1.9922   2.1669   2.1669
     2.3077   2.3078   2.4044   2.4044   2.8153   2.8153   3.2361   3.2362
     3.5162   3.5162   3.7609   3.7609   3.8916   3.8916   4.0624   4.0624
     4.3025   4.3025   4.4558   4.4558   4.5511   4.5512

     the Fermi energy is     1.5902 ev

!    total energy              =   -1273.00736288 Ry
     Harris-Foulkes estimate   =   -1273.00736213 Ry
     estimated scf accuracy    <       0.00000058 Ry

     The total energy is the sum of the following terms:

     one-electron contribution =   -8317.45518218 Ry
     hartree contribution      =    4152.64868746 Ry
     xc contribution           =    -284.01306646 Ry
     ewald contribution        =    3175.91528320 Ry
     electric field correction =       0.00005681 Ry
     smearing contrib. (-TS)   =      -0.10314172 Ry

     convergence has been achieved in  19 iterations

 BEEF-vdW xc energy contributions
           1 :   -246.172300262367
           2 :    222.369481942117
           3 :   -181.297746802149
           4 :    133.147476325325
           5 :   -87.8234842658123
           6 :    51.8316677453079
           7 :   -27.2297514695907
           8 :    12.5483656009509
           9 :   -4.74463039287798
          10 :    1.00996745553016
          11 :   0.320361258091850
          12 :   0.100952301528082
          13 :   -1.90498488427454
          14 :    4.33597464722305
          15 :   -6.13237293320446
          16 :    5.98267891868170
          17 :   -3.19295647521142
          18 :   -1.91039869329319
          19 :    8.08376128875852
          20 :   -13.6971866435099
          21 :    17.3830365274654
          22 :   -18.4909624835603
          23 :    17.1795623133206
          24 :   -14.1867364665368
          25 :    10.4539334590286
          26 :   -6.80636293644932
          27 :    3.79383619051953
          28 :   -1.68382983465153
          29 :   0.524477636763436
          30 :  -0.207934387513717
          31 :   -25.4109967185591
          32 :   -18.1911448852479

     Forces acting on atoms (Ry/au):

     negative rho (up, down):  3.215E-03 0.000E+00
     atom    1 type  1   force =     0.00000455    0.01836577    0.04131979
     atom    2 type  1   force =     0.00000509    0.01836571    0.04131968
     atom    3 type  2   force =    -0.00000362   -0.01713629   -0.02390350
     atom    4 type  2   force =    -0.00000387   -0.01713998   -0.02390180
     atom    5 type  1   force =    -0.00001278   -0.01380519   -0.01155879
     atom    6 type  1   force =    -0.00001462   -0.01380443   -0.01155775
     atom    7 type  2   force =     0.00000949    0.01502101   -0.00602921
     atom    8 type  2   force =     0.00000775    0.01503034   -0.00602533
     atom    9 type  1   force =    -0.00000869   -0.00125778   -0.00021823
     atom   10 type  1   force =    -0.00000702   -0.00125853   -0.00021813
     atom   11 type  2   force =     0.00000532   -0.00118994    0.00038303
     atom   12 type  2   force =     0.00001840   -0.00119068    0.00039024

     Total force =     0.083656     Total SCF correction =     0.001800

     entering subroutine stress ...

     negative rho (up, down):  3.215E-03 0.000E+00
          total   stress  (Ry/bohr**3)                   (kbar)     P=   -5.80
  -0.00000967  -0.00000002   0.00000001         -1.42     -0.00      0.00
  -0.00000002  -0.00007839  -0.00000563         -0.00    -11.53     -0.83
   0.00000001  -0.00000563  -0.00003017          0.00     -0.83     -4.44

 !ASE

     Writing output data file calc.save

     General routines

     Parallel routines

   This run was terminated on:  22:31:36  18Dec2018

   JOB DONE.
Job  /afs/slac/g/suncat/bin/suncat-tsmpirun -x LD_LIBRARY_PATH -wdir /scratch/qe530329_9Y8lr pw.x -in pw.inp

TID   HOST_NAME   COMMAND_LINE            STATUS            TERMINATION_TIME
00000 suncat2026 pw.x -in pw.inp   Done                     12/18/2018 22:31:36
00001 suncat2026 pw.x -in pw.inp   Done                     12/18/2018 22:31:36
00002 suncat2026 pw.x -in pw.inp   Done                     12/18/2018 22:31:36
00003 suncat2026 pw.x -in pw.inp   Done                     12/18/2018 22:31:36
00004 suncat2026 pw.x -in pw.inp   Done                     12/18/2018 22:31:36
00005 suncat2026 pw.x -in pw.inp   Done                     12/18/2018 22:31:36
00006 suncat2026 pw.x -in pw.inp   Done                     12/18/2018 22:31:36
00007 suncat2026 pw.x -in pw.inp   Done                     12/18/2018 22:31:36
00008 suncat2026 pw.x -in pw.inp   Done                     12/18/2018 22:31:36
00009 suncat2026 pw.x -in pw.inp   Done                     12/18/2018 22:31:36
00010 suncat2026 pw.x -in pw.inp   Done                     12/18/2018 22:31:36
00011 suncat2026 pw.x -in pw.inp   Done                     12/18/2018 22:31:36
00012 suncat2026 pw.x -in pw.inp   Done                     12/18/2018 22:31:36
00013 suncat2026 pw.x -in pw.inp   Done                     12/18/2018 22:31:36
00014 suncat2026 pw.x -in pw.inp   Done                     12/18/2018 22:31:36
00015 suncat2026 pw.x -in pw.inp   Done                     12/18/2018 22:31:36
00016 suncat2025 pw.x -in pw.inp   Done                     12/18/2018 22:31:36
00017 suncat2025 pw.x -in pw.inp   Done                     12/18/2018 22:31:36
00018 suncat2025 pw.x -in pw.inp   Done                     12/18/2018 22:31:36
00019 suncat2025 pw.x -in pw.inp   Done                     12/18/2018 22:31:36
00020 suncat2025 pw.x -in pw.inp   Done                     12/18/2018 22:31:36
00021 suncat2025 pw.x -in pw.inp   Done                     12/18/2018 22:31:36
00022 suncat2025 pw.x -in pw.inp   Done                     12/18/2018 22:31:36
00023 suncat2025 pw.x -in pw.inp   Done                     12/18/2018 22:31:36
00024 suncat2025 pw.x -in pw.inp   Done                     12/18/2018 22:31:36
00025 suncat2025 pw.x -in pw.inp   Done                     12/18/2018 22:31:36
00026 suncat2025 pw.x -in pw.inp   Done                     12/18/2018 22:31:36
00027 suncat2025 pw.x -in pw.inp   Done                     12/18/2018 22:31:36
00028 suncat2025 pw.x -in pw.inp   Done                     12/18/2018 22:31:36
00029 suncat2025 pw.x -in pw.inp   Done                     12/18/2018 22:31:36
00030 suncat2025 pw.x -in pw.inp   Done                     12/18/2018 22:31:36
00031 suncat2025 pw.x -in pw.inp   Done                     12/18/2018 22:31:36