     Program PWSCF v.5.1rc2 (svn rev. 11289) starts on 26Dec2018 at  8:45: 7

     Current dimensions of program PWSCF are:
     Max number of different atomic species (ntypx) = 10
     Max number of k-points (npk) =  40000
     Max angular momentum in pseudopotentials (lmaxx) =  3
     Presently stress not available with electric field

     IMPORTANT: XC functional enforced from input :
     Exchange-correlation      = BEEF-VDW ( 1  4 27 13 2)
     Any further DFT definition will be discarded
     Please, verify this is what you really want

     Subspace diagonalization in iterative solution of the eigenvalue problem:
     a serial algorithm will be used

     bravais-lattice index     =            0
     lattice parameter (alat)  =       1.8897  a.u.
     unit-cell volume          =    5437.5639 (a.u.)^3
     number of atoms/cell      =           12
     number of atomic types    =            2
     number of electrons       =       168.00
     number of Kohn-Sham states=          114
     kinetic-energy cutoff     =      36.7493  Ry
     charge density cutoff     =     367.4932  Ry
     convergence threshold     =      1.0E-06
     mixing beta               =       0.1000
     number of iterations used =           10  plain     mixing
     Exchange-correlation      = BEEF-VDW ( 1  4 27 13 2)
     nstep                     =           50

     celldm(1)=   1.889726  celldm(2)=   0.000000  celldm(3)=   0.000000
     celldm(4)=   0.000000  celldm(5)=   0.000000  celldm(6)=   0.000000

     crystal axes: (cart. coord. in units of alat)
               a(1) = (   6.102645   0.000000   0.000000 )
               a(2) = (  -3.051323   5.285046   0.000000 )
               a(3) = (   0.000000   0.000000  24.982789 )

     reciprocal axes: (cart. coord. in units 2 pi/alat)
               b(1) = (  0.163863  0.094607  0.000000 )
               b(2) = (  0.000000  0.189213  0.000000 )
               b(3) = (  0.000000  0.000000  0.040028 )

     PseudoPot. # 1 for Hf read from file:
     /afs/slac.stanford.edu/u/if/mamunm/psp/gbrv1.5pbe/Hf.UPF
     MD5 check sum: 8ee9378dfe14276e333edf04c5e4aa26
     Pseudo is Ultrasoft + core correction, Zval = 12.0
     Generated by new atomic code, or converted to UPF format
     Using radial grid of  921 points,  8 beta functions with:
                l(1) =   0
                l(2) =   0
                l(3) =   0
                l(4) =   1
                l(5) =   1
                l(6) =   2
                l(7) =   2
                l(8) =   3
     Q(r) pseudized with  6 coefficients,  rinner =    1.200   1.200   1.200
                                                       1.200   1.200   1.200
                                                       1.200

     PseudoPot. # 2 for Zn read from file:
     /afs/slac.stanford.edu/u/if/mamunm/psp/gbrv1.5pbe/Zn.UPF
     MD5 check sum: df62231357ef9e81f77b2b3087fa5675
     Pseudo is Ultrasoft, Zval = 20.0
     Generated by new atomic code, or converted to UPF format
     Using radial grid of  943 points,  6 beta functions with:
                l(1) =   0
                l(2) =   0
                l(3) =   1
                l(4) =   1
                l(5) =   2
                l(6) =   2
     Q(r) pseudized with  8 coefficients,  rinner =    1.100   1.100   1.100
                                                       1.100   1.100

     vdW kernel table read from file vdW_kernel_table
     MD5 check sum: 095c7af220d748ca6e76c0b4c6cfb241

     atomic species   valence    mass     pseudopotential
        Hf1           12.00   178.49000     Hf( 1.00)
        Zn1           20.00    65.38000     Zn( 1.00)

     No symmetry found

   Cartesian axes

     site n.     atom                  positions (alat units)
         1           Hf1 tau(   1) = (   0.0000000   0.0000000  10.0000000  )
         2           Hf1 tau(   2) = (  -1.5256613   2.6425228  10.0000000  )
         3           Hf1 tau(   3) = (   1.5256613   2.6425228  10.0000000  )
         4           Zn1 tau(   4) = (   3.0513225   0.0000000  10.0000000  )
         5           Hf1 tau(   5) = (   3.0513225   1.7616819  12.4913944  )
         6           Hf1 tau(   6) = (   1.5256613   4.4042047  12.4913944  )
         7           Hf1 tau(   7) = (  -1.5256613   4.4042047  12.4913944  )
         8           Zn1 tau(   8) = (   0.0000000   1.7616819  12.4913944  )
         9           Hf1 tau(   9) = (  -0.0000000   3.5233638  14.9827888  )
        10           Hf1 tau(  10) = (   1.5256613   0.8808409  14.9827888  )
        11           Hf1 tau(  11) = (   4.5769838   0.8808409  14.9827888  )
        12           Zn1 tau(  12) = (   3.0513225   3.5233638  14.9827888  )

     number of k points=    20  Fermi-Dirac smearing, width (Ry)=  0.0110
                       cart. coord. in units 2pi/alat
        k(    1) = (   0.0000000   0.0000000   0.0000000), wk =   0.0555556
        k(    2) = (   0.0000000   0.0315355   0.0000000), wk =   0.1111111
        k(    3) = (   0.0000000   0.0630710   0.0000000), wk =   0.1111111
        k(    4) = (   0.0000000  -0.0946066   0.0000000), wk =   0.0555556
        k(    5) = (   0.0273106   0.0157678   0.0000000), wk =   0.1111111
        k(    6) = (   0.0273106   0.0473033   0.0000000), wk =   0.1111111
        k(    7) = (   0.0273106   0.0788388   0.0000000), wk =   0.1111111
        k(    8) = (   0.0273106  -0.0788388   0.0000000), wk =   0.1111111
        k(    9) = (   0.0273106  -0.0473033   0.0000000), wk =   0.1111111
        k(   10) = (   0.0273106  -0.0157678   0.0000000), wk =   0.1111111
        k(   11) = (   0.0546211   0.0315355   0.0000000), wk =   0.1111111
        k(   12) = (   0.0546211   0.0630710   0.0000000), wk =   0.1111111
        k(   13) = (   0.0546211   0.0946066   0.0000000), wk =   0.1111111
        k(   14) = (   0.0546211  -0.0630710   0.0000000), wk =   0.1111111
        k(   15) = (   0.0546211  -0.0315355   0.0000000), wk =   0.1111111
        k(   16) = (   0.0546211   0.0000000   0.0000000), wk =   0.1111111
        k(   17) = (  -0.0819317  -0.0473033   0.0000000), wk =   0.0555556
        k(   18) = (  -0.0819317  -0.0157678   0.0000000), wk =   0.1111111
        k(   19) = (  -0.0819317   0.0157678   0.0000000), wk =   0.1111111
        k(   20) = (  -0.0819317  -0.1419098   0.0000000), wk =   0.0555556

     Largest allocated arrays     est. size (Mb)     dimensions
     Largest temporary arrays     est. size (Mb)     dimensions

     Check: negative/imaginary core charge=   -0.000003    0.000000

     Initial potential from superposition of free atoms
     Check: negative starting charge=   -0.958940

     starting charge  149.99956, renormalised to  168.00000

     negative rho (up, down):  1.074E+00 0.000E+00

     *
     * You are using vdW-DF for exchange-correlation in this calculation.
     * Please cite the following three references that made this development
     * possible:
     *
     *   M. Dion, H. Rydberg, E. Schroder, D. C. Langreth, and
     *   B. I. Lundqvist, Phys. Rev. Lett. 92, 246401 (2004).
     *
     *   T. Thonhauser, V. R. Cooper, S. Li, A. Puzder, P. Hyldgaard, and
     *   D. C. Langreth, Phys. Rev. B 76, 125112 (2007).
     *
     *   G. Roman-Perez and J. M. Soler, Phys. Rev. Lett. 103, 096102 (2009).
     *
     *
     * If you are using vdW-DF2, please also cite:
     *
     *   K. Lee, E. D. Murray, L. Kong, B. I. Lundqvist, and
     *   D. C. Langreth, Phys. Rev. B 82, 081101(R) (2010).
     *
     *
     * If you are calculating the stress with vdW-DF, please also cite:
     *
     *   R. Sabatini, E. Kucukbenli, B. Kolb, T. Thonhauser, and
     *   S. de Gironcoli, J. Phys.: Condens. Matter 24, 424209 (2012).
     *

     Carrying out vdW-DF run using the following parameters:

     Nqs =      20    Nr_points =    1024   r_max =   100.000
     q_mesh =
               0.00001000     0.04494208     0.09755937     0.15916263
               0.23128650     0.31572767     0.41458969     0.53033537
               0.66584808     0.82450364     1.01025438     1.22772762
               1.48234092     1.78043706     2.12944203     2.53805004
               3.01644009     3.57652955     4.23227104     5.00000000

     Gradients computed in reciprocal space

     Adding external electric field

     Computed dipole along edir(3) :
        Dipole               -0.0000 Ry au,         -0.0000 Debye
        Dipole field         -0.0000 Ry au

        Potential amp.        0.0000 Ry
        Total length         46.0304 bohr

     Starting wfc are  156 randomized atomic wfcs

     Self-consistent Calculation

     iteration #  1     ecut=    36.75 Ry     beta=0.10
     Davidson diagonalization with overlap
     ethr =  1.00E-02,  avg # of iterations =  7.0

[...]

     total energy              =   -2823.39502559 Ry
     Harris-Foulkes estimate   =   -2934.04901140 Ry
     estimated scf accuracy    <     610.09951196 Ry

[...]

     End of self-consistent calculation

          k = 0.0000 0.0000 0.0000 ( 20467 PWs)   bands (ev):

  -124.6537-124.6535-124.4652 -78.8226 -78.8226 -78.8224 -78.8224 -78.8177
   -78.8174 -78.6294 -78.6294 -78.6291 -61.1658 -61.1650 -61.1182 -61.1182
   -61.1180 -61.1180 -60.6147 -60.5672 -60.5672 -30.0335 -30.0139 -29.9111
   -29.8732 -29.8732 -29.8365 -29.8365 -29.8080 -29.7916 -29.7916 -29.7176
   -29.7176 -29.5926 -29.4941 -29.4814 -29.3371 -29.3371 -29.2800 -29.2800
   -29.2424 -29.2424 -29.0865 -29.0655 -29.0655 -28.9557 -28.8133 -28.8133
    -5.8484  -5.6207  -5.6207  -5.6035  -5.6035  -5.5947  -5.5846  -5.5646
    -5.5646  -5.5116  -5.5116  -5.4144  -5.4144  -5.4019  -5.3499  -5.3499
    -4.3565  -3.4278  -2.1507  -1.9096  -1.8383  -0.8361  -0.8361  -0.1996
    -0.1996  -0.1978  -0.1978  -0.0267  -0.0182   0.4245   0.4245   0.9121
     0.9121   1.2176   1.2838   1.4961   1.9016   1.9016   2.0283   2.0284
     2.0650   2.3158   2.3158   2.4701   2.4701   2.6647   2.8948   3.1557
     3.8278   4.4412   4.4412   4.6618   4.6907   4.6907   4.7530   4.8498
     4.8498   4.9931   4.9940   5.0178   5.0178   5.2635   5.2635   5.4036
     5.4036   5.4689

[...]

          k =-0.0819-0.0473 0.0000 ( 20468 PWs)   bands (ev):

[...]

     the Fermi energy is     1.3991 ev

!    total energy              =   -2833.24839838 Ry
     Harris-Foulkes estimate   =   -2833.24839652 Ry
     estimated scf accuracy    <       0.00000031 Ry

     The total energy is the sum of the following terms:

     one-electron contribution =  -13733.39629144 Ry
     hartree contribution      =    6852.38906027 Ry
     xc contribution           =    -826.36069354 Ry
     ewald contribution        =    4874.20387079 Ry
     electric field correction =       0.00000000 Ry
     smearing contrib. (-TS)   =      -0.08434447 Ry

     convergence has been achieved in  22 iterations

 BEEF-vdW xc energy contributions
           1 :   -744.312824814570
           2 :    689.389862433523
           3 :   -592.839847678720
           4 :    475.855020537024
           5 :   -359.837815889753
           6 :    259.973749809376
           7 :   -182.706013646609
           8 :    127.230165619879
           9 :   -89.1827672117449
          10 :    64.0002953263589
[...]
     Pseudo is Ultrasoft + core correction, Zval = 12.0
     Generated by new atomic code, or converted to UPF format
     Using radial grid of  921 points,  8 beta functions with:
                l(1) =   0
                l(2) =   0
                l(3) =   0
                l(4) =   1
                l(5) =   1
                l(6) =   2
                l(7) =   2
                l(8) =   3
     Q(r) pseudized with  6 coefficients,  rinner =    1.200   1.200   1.200
                                                       1.200   1.200   1.200
                                                       1.200

     PseudoPot. # 2 for Zn read from file:
     /afs/slac.stanford.edu/u/if/mamunm/psp/gbrv1.5pbe/Zn.UPF
     MD5 check sum: df62231357ef9e81f77b2b3087fa5675
     Pseudo is Ultrasoft, Zval = 20.0
     Generated by new atomic code, or converted to UPF format
     Using radial grid of  943 points,  6 beta functions with:
                l(1) =   0
                l(2) =   0
                l(3) =   1
                l(4) =   1
                l(5) =   2
                l(6) =   2
     Q(r) pseudized with  8 coefficients,  rinner =    1.100   1.100   1.100
                                                       1.100   1.100

     vdW kernel table read from file vdW_kernel_table
     MD5 check sum: 095c7af220d748ca6e76c0b4c6cfb241

     atomic species   valence    mass     pseudopotential
        Hf1           12.00   178.49000     Hf( 1.00)
        Zn1           20.00    65.38000     Zn( 1.00)

     No symmetry found

   Cartesian axes

     site n.     atom                  positions (alat units)
         1           Hf1 tau(   1) = (   0.0000000   0.0000000  10.0000000  )
         2           Hf1 tau(   2) = (  -1.5256613   2.6425228  10.0000000  )
         3           Hf1 tau(   3) = (   1.5256613   2.6425228  10.0000000  )
         4           Zn1 tau(   4) = (   3.0513225   0.0000000  10.0000000  )
         5           Hf1 tau(   5) = (   3.0513225   1.7616819  12.4913944  )
         6           Hf1 tau(   6) = (   1.5256613   4.4042047  12.4913944  )
         7           Hf1 tau(   7) = (  -1.5256613   4.4042047  12.4913944  )
         8           Zn1 tau(   8) = (   0.0000000   1.7616819  12.4913944  )
         9           Hf1 tau(   9) = (  -0.0000012   3.4992151  14.9532178  )
        10           Hf1 tau(  10) = (   1.5047420   0.8929172  14.9532187  )
        11           Hf1 tau(  11) = (   4.5978984   0.8929167  14.9532192  )
        12           Zn1 tau(  12) = (   3.0513208   3.5233577  14.8910296  )

     number of k points=    20  Fermi-Dirac smearing, width (Ry)=  0.0110
                       cart. coord. in units 2pi/alat
        k(    1) = (   0.0000000   0.0000000   0.0000000), wk =   0.0555556
        k(    2) = (   0.0000000   0.0315355   0.0000000), wk =   0.1111111
        k(    3) = (   0.0000000   0.0630710   0.0000000), wk =   0.1111111
        k(    4) = (   0.0000000  -0.0946066   0.0000000), wk =   0.0555556
        k(    5) = (   0.0273106   0.0157678   0.0000000), wk =   0.1111111
        k(    6) = (   0.0273106   0.0473033   0.0000000), wk =   0.1111111
        k(    7) = (   0.0273106   0.0788388   0.0000000), wk =   0.1111111
        k(    8) = (   0.0273106  -0.0788388   0.0000000), wk =   0.1111111
        k(    9) = (   0.0273106  -0.0473033   0.0000000), wk =   0.1111111
        k(   10) = (   0.0273106  -0.0157678   0.0000000), wk =   0.1111111
        k(   11) = (   0.0546211   0.0315355   0.0000000), wk =   0.1111111
        k(   12) = (   0.0546211   0.0630710   0.0000000), wk =   0.1111111
        k(   13) = (   0.0546211   0.0946066   0.0000000), wk =   0.1111111
        k(   14) = (   0.0546211  -0.0630710   0.0000000), wk =   0.1111111
        k(   15) = (   0.0546211  -0.0315355   0.0000000), wk =   0.1111111
        k(   16) = (   0.0546211   0.0000000   0.0000000), wk =   0.1111111
        k(   17) = (  -0.0819317  -0.0473033   0.0000000), wk =   0.0555556
        k(   18) = (  -0.0819317  -0.0157678   0.0000000), wk =   0.1111111
        k(   19) = (  -0.0819317   0.0157678   0.0000000), wk =   0.1111111
        k(   20) = (  -0.0819317  -0.1419098   0.0000000), wk =   0.0555556

     Largest allocated arrays     est. size (Mb)     dimensions
     Largest temporary arrays     est. size (Mb)     dimensions

     Check: negative/imaginary core charge=   -0.000003    0.000000

     Initial potential from superposition of free atoms
     Check: negative starting charge=   -0.961745

     starting charge  149.99956, renormalised to  168.00000

[...]

     *
     * You are using vdW-DF for exchange-correlation in this calculation.
     * Please cite the following three references that made this development
     * possible:
     *
     *   M. Dion, H. Rydberg, E. Schroder, D. C. Langreth, and
     *   B. I. Lundqvist, Phys. Rev. Lett. 92, 246401 (2004).
     *
     *   T. Thonhauser, V. R. Cooper, S. Li, A. Puzder, P. Hyldgaard, and
     *   D. C. Langreth, Phys. Rev. B 76, 125112 (2007).
     *
     *   G. Roman-Perez and J. M. Soler, Phys. Rev. Lett. 103, 096102 (2009).
     *
     *
     * If you are using vdW-DF2, please also cite:
     *
     *   K. Lee, E. D. Murray, L. Kong, B. I. Lundqvist, and
     *   D. C. Langreth, Phys. Rev. B 82, 081101(R) (2010).
     *
     *
     * If you are calculating the stress with vdW-DF, please also cite:
     *
     *   R. Sabatini, E. Kucukbenli, B. Kolb, T. Thonhauser, and
     *   S. de Gironcoli, J. Phys.: Condens. Matter 24, 424209 (2012).
     *

     Carrying out vdW-DF run using the following parameters:

     Nqs =      20    Nr_points =    1024   r_max =   100.000
     q_mesh =
               0.00001000     0.04494208     0.09755937     0.15916263
               0.23128650     0.31572767     0.41458969     0.53033537
               0.66584808     0.82450364     1.01025438     1.22772762
               1.48234092     1.78043706     2.12944203     2.53805004
               3.01644009     3.57652955     4.23227104     5.00000000

     Gradients computed in reciprocal space

[...]

     Starting wfc are  156 randomized atomic wfcs

     Self-consistent Calculation

[...]

     total energy              =   -2833.28871513 Ry
     Harris-Foulkes estimate   =   -2833.28871503 Ry
     estimated scf accuracy    <       0.00000110 Ry

     iteration # 23     ecut=    36.75 Ry     beta=0.10
     Davidson diagonalization with overlap
     ethr =  6.57E-10,  avg # of iterations =  2.0

[...]

     negative rho (up, down):  1.014E+00 0.000E+00

     Adding external electric field

     Computed dipole along edir(3) :
        Dipole                0.0076 Ry au,          0.0194 Debye
        Dipole field          0.0000 Ry au

        Potential amp.       -0.0016 Ry
        Total length         46.0304 bohr

     End of self-consistent calculation

[...]

          k = 0.0546 0.0000 0.0000 ( 20453 PWs)   bands (ev):

[...]

          k =-0.0819-0.1419 0.0000 ( 20468 PWs)   bands (ev):

  -124.6947-124.6530-124.4736 -78.8642 -78.8601 -78.8600 -78.8218 -78.8218
   -78.8170 -78.6374 -78.6367 -78.6367 -61.1485 -61.1328 -61.1242 -61.1170
   -61.1065 -61.0912 -60.5745 -60.5587 -60.5429 -29.9116 -29.8872 -29.8388
   -29.8167 -29.7956 -29.7555 -29.7388 -29.7342 -29.6922 -29.6888 -29.6715
   -29.6659 -29.6322 -29.6070 -29.5916 -29.5530 -29.4082 -29.3155 -29.2908
   -29.1873 -29.1482 -29.1172 -29.0974 -29.0202 -29.0148 -28.9965 -28.8161
    -5.6308  -5.5909  -5.5904  -5.5838  -5.5766  -5.5713  -5.5418  -5.5244
    -5.5229  -5.5173  -5.4117  -5.3828  -5.3809  -5.3668  -5.3392  -4.2305
    -4.1661  -3.0842  -2.7843  -2.0170  -1.5861  -1.4603  -0.7150  -0.4318
    -0.2292  -0.1517   0.1524   0.3332   0.5199   0.5928   0.6652   0.7755
     0.9258   1.0448   1.2432   1.3866   1.4097   1.4608   1.5523   1.6877
     1.8279   1.8298   2.3209   2.4204   2.5758   2.6246   2.8030   2.9591
     3.1835   3.9325   4.0129   4.1285   4.1961   4.2646   4.3462   4.5035
     4.5146   4.6655   4.7495   4.7710   4.8552   5.0903   5.1796   5.4498
     5.5971   5.6924

     the Fermi energy is     1.4038 ev

!    total energy              =   -2833.28871680 Ry
     Harris-Foulkes estimate   =   -2833.28871525 Ry
     estimated scf accuracy    <       0.00000021 Ry

     The total energy is the sum of the following terms:

     one-electron contribution =  -13826.65897028 Ry
     hartree contribution      =    6899.05015043 Ry
     xc contribution           =    -826.45248264 Ry
     ewald contribution        =    4920.85698321 Ry
     electric field correction =       0.00000013 Ry
     smearing contrib. (-TS)   =      -0.08439765 Ry

     convergence has been achieved in  23 iterations

 BEEF-vdW xc energy contributions
           1 :   -745.515190775069
           2 :    690.615068772337
           3 :   -594.087614476148
           4 :    477.097559576172
           5 :   -361.039801882913
           6 :    261.119339483013
           7 :   -183.812182482548
           8 :    128.336473770680
           9 :   -90.3246984741618
          10 :    65.1855496539359
          11 :   -49.6088737948646
          12 :    41.1749422107800
          13 :   -37.2555728703280
          14 :    34.5036875359463
          15 :   -29.5102388236826
          16 :    20.1723549185321
          17 :   -6.77414326574717
          18 :   -8.06028987961190
          19 :    20.6114995836557
          20 :   -27.8298422548739
          21 :    28.6360792697866
          22 :   -24.1327132967591
          23 :    16.7850233347583
          24 :   -9.21192299657685
          25 :    3.29572855461311
          26 :   4.433367147260014E-002
          27 :  -0.584896726826628
          28 :   -1.53533004557698
          29 :    5.89287179570033
          30 :   -11.6264598940704
          31 :   -54.0861624203990
          32 :   -38.6062453432680

     Forces acting on atoms (Ry/au):

     negative rho (up, down):  1.014E+00 0.000E+00
     atom    1 type  1   force =     0.00000020    0.01063268    0.00184433
     atom    2 type  1   force =     0.00920805   -0.00531636    0.00184442
     atom    3 type  1   force =    -0.00920794   -0.00531632    0.00184471
     atom    4 type  2   force =    -0.00000008    0.00000018    0.00942484
     atom    5 type  1   force =    -0.00000007    0.00046919   -0.00379546
     atom    6 type  1   force =     0.00040655   -0.00023495   -0.00379528
     atom    7 type  1   force =    -0.00040653   -0.00023453   -0.00379528
     atom    8 type  2   force =    -0.00000040   -0.00000042   -0.00388069
     atom    9 type  1   force =     0.00000010    0.00090636    0.00008579
     atom   10 type  1   force =     0.00078618   -0.00045356    0.00008567
     atom   11 type  1   force =    -0.00078571   -0.00045333    0.00008533
     atom   12 type  2   force =    -0.00000036    0.00000106    0.00005162

     Total force =     0.022352     Total SCF correction =     0.000940

     entering subroutine stress ...

     negative rho (up, down):  1.014E+00 0.000E+00
          total   stress  (Ry/bohr**3)                   (kbar)     P=  -12.05
  -0.00010060  -0.00000000   0.00000000        -14.80     -0.00      0.00
  -0.00000000  -0.00010060  -0.00000000         -0.00    -14.80     -0.00
   0.00000000  -0.00000000  -0.00004456          0.00     -0.00     -6.56

 !ASE

     Writing output data file calc.save

     General routines

     Parallel routines

   This run was terminated on:  11: 1:42  26Dec2018

   JOB DONE.
Job  /afs/slac/g/suncat/bin/suncat-tsmpirun -x LD_LIBRARY_PATH -wdir /scratch/qe109783_iErxs pw.x -in pw.inp

TID   HOST_NAME   COMMAND_LINE            STATUS            TERMINATION_TIME
00000 suncat0183 pw.x -in pw.inp   Done                     12/26/2018 11:01:42
00001 suncat0183 pw.x -in pw.inp   Done                     12/26/2018 11:01:42
00002 suncat0183 pw.x -in pw.inp   Done                     12/26/2018 11:01:42
00003 suncat0183 pw.x -in pw.inp   Done                     12/26/2018 11:01:42
00004 suncat0183 pw.x -in pw.inp   Done                     12/26/2018 11:01:42
00005 suncat0183 pw.x -in pw.inp   Done                     12/26/2018 11:01:42
00006 suncat0183 pw.x -in pw.inp   Done                     12/26/2018 11:01:42
00007 suncat0183 pw.x -in pw.inp   Done                     12/26/2018 11:01:42
00008 suncat0182 pw.x -in pw.inp   Done                     12/26/2018 11:01:42
00009 suncat0182 pw.x -in pw.inp   Done                     12/26/2018 11:01:42
00010 suncat0182 pw.x -in pw.inp   Done                     12/26/2018 11:01:42
00011 suncat0182 pw.x -in pw.inp   Done                     12/26/2018 11:01:42
00012 suncat0182 pw.x -in pw.inp   Done                     12/26/2018 11:01:42
00013 suncat0182 pw.x -in pw.inp   Done                     12/26/2018 11:01:42
00014 suncat0182 pw.x -in pw.inp   Done                     12/26/2018 11:01:42
00015 suncat0182 pw.x -in pw.inp   Done                     12/26/2018 11:01:42
00016 suncat0181 pw.x -in pw.inp   Done                     12/26/2018 11:01:42
00017 suncat0181 pw.x -in pw.inp   Done                     12/26/2018 11:01:42
00018 suncat0181 pw.x -in pw.inp   Done                     12/26/2018 11:01:42
00019 suncat0181 pw.x -in pw.inp   Done                     12/26/2018 11:01:42
00020 suncat0181 pw.x -in pw.inp   Done                     12/26/2018 11:01:42
00021 suncat0181 pw.x -in pw.inp   Done                     12/26/2018 11:01:42
00022 suncat0181 pw.x -in pw.inp   Done                     12/26/2018 11:01:42
00023 suncat0181 pw.x -in pw.inp   Done                     12/26/2018 11:01:42
00024 suncat0252 pw.x -in pw.inp   Done                     12/26/2018 11:01:42
00025 suncat0252 pw.x -in pw.inp   Done                     12/26/2018 11:01:42
00026 suncat0252 pw.x -in pw.inp   Done                     12/26/2018 11:01:42
00027 suncat0252 pw.x -in pw.inp   Done                     12/26/2018 11:01:42
00028 suncat0252 pw.x -in pw.inp   Done                     12/26/2018 11:01:42
00029 suncat0252 pw.x -in pw.inp   Done                     12/26/2018 11:01:42
00030 suncat0252 pw.x -in pw.inp   Done                     12/26/2018 11:01:42
00031 suncat0252 pw.x -in pw.inp   Done                     12/26/2018 11:01:42
00032 suncat0226 pw.x -in pw.inp   Done                     12/26/2018 11:01:42
00033 suncat0226 pw.x -in pw.inp   Done                     12/26/2018 11:01:42
00034 suncat0226 pw.x -in pw.inp   Done                     12/26/2018 11:01:42
00035 suncat0226 pw.x -in pw.inp   Done                     12/26/2018 11:01:42
00036 suncat0226 pw.x -in pw.inp   Done                     12/26/2018 11:01:42
00037 suncat0226 pw.x -in pw.inp   Done                     12/26/2018 11:01:42
00038 suncat0226 pw.x -in pw.inp   Done                     12/26/2018 11:01:42
00039 suncat0226 pw.x -in pw.inp   Done                     12/26/2018 11:01:42
00040 suncat0225 pw.x -in pw.inp   Done                     12/26/2018 11:01:42
00041 suncat0225 pw.x -in pw.inp   Done                     12/26/2018 11:01:42
00042 suncat0225 pw.x -in pw.inp   Done                     12/26/2018 11:01:42
00043 suncat0225 pw.x -in pw.inp   Done                     12/26/2018 11:01:42
00044 suncat0225 pw.x -in pw.inp   Done                     12/26/2018 11:01:42
00045 suncat0225 pw.x -in pw.inp   Done                     12/26/2018 11:01:42
00046 suncat0225 pw.x -in pw.inp   Done                     12/26/2018 11:01:42
00047 suncat0225 pw.x -in pw.inp   Done                     12/26/2018 11:01:42
00048 suncat0224 pw.x -in pw.inp   Done                     12/26/2018 11:01:42
00049 suncat0224 pw.x -in pw.inp   Done                     12/26/2018 11:01:42
00050 suncat0224 pw.x -in pw.inp   Done                     12/26/2018 11:01:42
00051 suncat0224 pw.x -in pw.inp   Done                     12/26/2018 11:01:42
00052 suncat0224 pw.x -in pw.inp   Done                     12/26/2018 11:01:42
00053 suncat0224 pw.x -in pw.inp   Done                     12/26/2018 11:01:42
00054 suncat0224 pw.x -in pw.inp   Done                     12/26/2018 11:01:42
00055 suncat0224 pw.x -in pw.inp   Done                     12/26/2018 11:01:42
00056 suncat0223 pw.x -in pw.inp   Done                     12/26/2018 11:01:42
00057 suncat0223 pw.x -in pw.inp   Done                     12/26/2018 11:01:42
00058 suncat0223 pw.x -in pw.inp   Done                     12/26/2018 11:01:42
00059 suncat0223 pw.x -in pw.inp   Done                     12/26/2018 11:01:42
00060 suncat0223 pw.x -in pw.inp   Done                     12/26/2018 11:01:42
00061 suncat0223 pw.x -in pw.inp   Done                     12/26/2018 11:01:42
00062 suncat0223 pw.x -in pw.inp   Done                     12/26/2018 11:01:42
00063 suncat0223 pw.x -in pw.inp   Done                     12/26/2018 11:01:42