     Program PWSCF v.5.1rc2 (svn rev. 11289) starts on 26Dec2018 at  0:25:39

     Current dimensions of program PWSCF are:
     Max number of different atomic species (ntypx) = 10
     Max number of k-points (npk) =  40000
     Max angular momentum in pseudopotentials (lmaxx) =  3
     Presently stress not available with electric field

     IMPORTANT: XC functional enforced from input :
     Exchange-correlation      = BEEF-VDW ( 1  4 27 13 2)
     Any further DFT definition will be discarded
     Please, verify this is what you really want

     Subspace diagonalization in iterative solution of the eigenvalue problem:
     a serial algorithm will be used

     bravais-lattice index     =            0
     lattice parameter (alat)  =       1.8897  a.u.
     unit-cell volume          =    6011.1790 (a.u.)^3
     number of atoms/cell      =           12
     number of atomic types    =            2
     number of electrons       =       204.00
     number of Kohn-Sham states=          132
     kinetic-energy cutoff     =      36.7493  Ry
     charge density cutoff     =     367.4932  Ry
     convergence threshold     =      1.0E-06
     mixing beta               =       0.1000
     number of iterations used =           10  plain     mixing
     Exchange-correlation      = BEEF-VDW ( 1  4 27 13 2)
     nstep                     =           50

     celldm(1)=   1.889726  celldm(2)=   0.000000  celldm(3)=   0.000000
     celldm(4)=   0.000000  celldm(5)=   0.000000  celldm(6)=   0.000000

     crystal axes: (cart. coord. in units of alat)
               a(1) = (   6.386868   0.000000   0.000000 )
               a(2) = (  -3.193434   5.531190   0.000000 )
               a(3) = (   0.000000   0.000000  25.214856 )

     reciprocal axes: (cart. coord. in units 2 pi/alat)
               b(1) = (  0.156571  0.090396  0.000000 )
               b(2) = (  0.000000  0.180793  0.000000 )
               b(3) = (  0.000000  0.000000  0.039659 )

     PseudoPot. # 1 for Ga read from file:
     /afs/slac.stanford.edu/u/if/mamunm/psp/gbrv1.5pbe/Ga.UPF
     MD5 check sum: ccd671392a58a050fbb373893b4fcd66
     Pseudo is Ultrasoft + core correction, Zval = 19.0
     Generated by new atomic code, or converted to UPF format
     Using radial grid of  871 points,  6 beta functions with:
                l(1) =   0
                l(2) =   0
                l(3) =   1
                l(4) =   1
                l(5) =   2
                l(6) =   2
     Q(r) pseudized with  8 coefficients,  rinner =    1.250   1.250   1.250
                                                       1.250   1.250

     PseudoPot. # 2 for La read from file:
     /afs/slac.stanford.edu/u/if/mamunm/psp/gbrv1.5pbe/La.UPF
     MD5 check sum: 5937b0c7494ba0601a847275249473aa
     Pseudo is Ultrasoft + core correction, Zval = 11.0
     Generated by new atomic code, or converted to UPF format
     Using radial grid of  995 points,  8 beta functions with:
                l(1) =   0
                l(2) =   0
                l(3) =   1
                l(4) =   1
                l(5) =   2
                l(6) =   2
                l(7) =   3
                l(8) =   3
     Q(r) pseudized with  8 coefficients,  rinner =    1.700   1.700   1.700
                                                       1.700   1.700   1.700
                                                       1.700

     vdW kernel table read from file vdW_kernel_table
     MD5 check sum: 095c7af220d748ca6e76c0b4c6cfb241

     atomic species   valence    mass     pseudopotential
        Ga1           19.00    69.72300     Ga( 1.00)
        La1           11.00   138.90547     La( 1.00)

     No symmetry found

   Cartesian axes

     site n.     atom                  positions (alat units)
         1           Ga1 tau(   1) = (   0.0000000   0.0000000  10.0000000  )
         2           Ga1 tau(   2) = (  -1.5967171   2.7655951  10.0000000  )
         3           Ga1 tau(   3) = (   1.5967171   2.7655951  10.0000000  )
         4           La1 tau(   4) = (   3.1934342   0.0000000  10.0000000  )
         5           Ga1 tau(   5) = (   3.1934342   1.8437301  12.6074281  )
         6           Ga1 tau(   6) = (   1.5967171   4.6093252  12.6074281  )
         7           Ga1 tau(   7) = (  -1.5967171   4.6093252  12.6074281  )
         8           La1 tau(   8) = (   0.0000000   1.8437301  12.6074281  )
         9           Ga1 tau(   9) = (  -0.0000000   3.6874602  15.2148562  )
        10           Ga1 tau(  10) = (   1.5967171   0.9218650  15.2148562  )
        11           Ga1 tau(  11) = (   4.7901513   0.9218650  15.2148562  )
        12           La1 tau(  12) = (   3.1934342   3.6874602  15.2148562  )

     number of k points=    20  Fermi-Dirac smearing, width (Ry)=  0.0110
                       cart. coord. in units 2pi/alat
        k(    1) = (   0.0000000   0.0000000   0.0000000), wk =   0.0555556
        k(    2) = (   0.0000000   0.0301322   0.0000000), wk =   0.1111111
        k(    3) = (   0.0000000   0.0602643   0.0000000), wk =   0.1111111
        k(    4) = (   0.0000000  -0.0903965   0.0000000), wk =   0.0555556
        k(    5) = (   0.0260952   0.0150661   0.0000000), wk =   0.1111111
        k(    6) = (   0.0260952   0.0451982   0.0000000), wk =   0.1111111
        k(    7) = (   0.0260952   0.0753304   0.0000000), wk =   0.1111111
        k(    8) = (   0.0260952  -0.0753304   0.0000000), wk =   0.1111111
        k(    9) = (   0.0260952  -0.0451982   0.0000000), wk =   0.1111111
        k(   10) = (   0.0260952  -0.0150661   0.0000000), wk =   0.1111111
        k(   11) = (   0.0521904   0.0301322   0.0000000), wk =   0.1111111
        k(   12) = (   0.0521904   0.0602643   0.0000000), wk =   0.1111111
        k(   13) = (   0.0521904   0.0903965   0.0000000), wk =   0.1111111
        k(   14) = (   0.0521904  -0.0602643   0.0000000), wk =   0.1111111
        k(   15) = (   0.0521904  -0.0301322   0.0000000), wk =   0.1111111
        k(   16) = (   0.0521904   0.0000000   0.0000000), wk =   0.1111111
        k(   17) = (  -0.0782856  -0.0451982   0.0000000), wk =   0.0555556
        k(   18) = (  -0.0782856  -0.0150661   0.0000000), wk =   0.1111111
        k(   19) = (  -0.0782856   0.0150661   0.0000000), wk =   0.1111111
        k(   20) = (  -0.0782856  -0.1355947   0.0000000), wk =   0.0555556

     Largest allocated arrays     est. size (Mb)     dimensions
     Largest temporary arrays     est. size (Mb)     dimensions

     Initial potential from superposition of free atoms
     Check: negative starting charge=   -0.215341

     starting charge  194.90379, renormalised to  204.00000

     negative rho (up, down):  2.254E-01 0.000E+00

     *
     * You are using vdW-DF for exchange-correlation in this calculation.
     * Please cite the following three references that made this development
     * possible:
     *
     *   M. Dion, H. Rydberg, E. Schroder, D. C. Langreth, and
     *   B. I. Lundqvist, Phys. Rev. Lett. 92, 246401 (2004).
     *
     *   T. Thonhauser, V. R. Cooper, S. Li, A. Puzder, P. Hyldgaard, and
     *   D. C. Langreth, Phys. Rev. B 76, 125112 (2007).
     *
     *   G. Roman-Perez and J. M. Soler, Phys. Rev. Lett. 103, 096102 (2009).
     *
     *
     * If you are using vdW-DF2, please also cite:
     *
     *   K. Lee, E. D. Murray, L. Kong, B. I. Lundqvist, and
     *   D. C. Langreth, Phys. Rev. B 82, 081101(R) (2010).
     *
     *
     * If you are calculating the stress with vdW-DF, please also cite:
     *
     *   R. Sabatini, E. Kucukbenli, B. Kolb, T. Thonhauser, and
     *   S. de Gironcoli, J. Phys.: Condens. Matter 24, 424209 (2012).
     *

     Carrying out vdW-DF run using the following parameters:

     Nqs =      20    Nr_points =    1024   r_max =   100.000
     q_mesh =
               0.00001000     0.04494208     0.09755937     0.15916263
               0.23128650     0.31572767     0.41458969     0.53033537
               0.66584808     0.82450364     1.01025438     1.22772762
               1.48234092     1.78043706     2.12944203     2.53805004
               3.01644009     3.57652955     4.23227104     5.00000000

     Gradients computed in reciprocal space

     Adding external electric field

     Computed dipole along edir(3) :
        Dipole               -0.0000 Ry au,         -0.0000 Debye
        Dipole field         -0.0000 Ry au

        Potential amp.        0.0000 Ry
        Total length         46.4579 bohr

     Starting wfc are  168 randomized atomic wfcs

     Self-consistent Calculation

     iteration #  1     ecut=    36.75 Ry     beta=0.10
     Davidson diagonalization with overlap
     ethr =  1.00E-02,  avg # of iterations =  3.0

[...]

     total energy              =   -4057.82303341 Ry
     Harris-Foulkes estimate   =   -4075.27477705 Ry
     estimated scf accuracy    <      96.36646296 Ry

[...]

     End of self-consistent calculation

          k = 0.0000 0.0000 0.0000 ( 22633 PWs)   bands (ev):

   -93.7238 -93.7237 -93.7236 -93.7235 -93.7235 -93.7235 -93.7087 -93.7087
   -93.7079 -93.7078 -93.7077 -93.7076 -93.6871 -93.6871 -93.6871 -93.6870
   -93.6867 -93.6866 -93.5680 -93.5668 -93.5664 -93.5498 -93.5488 -93.5485
   -93.5286 -93.5274 -93.5272 -32.1327 -32.1322 -31.8179 -15.8686 -15.8374
   -15.7719 -15.7719 -15.7688 -15.7688 -15.6273 -15.5242 -15.5242 -14.1159
   -14.1128 -14.0942 -14.0940 -14.0877 -14.0871 -14.0870 -14.0633 -14.0593
   -14.0549 -14.0548 -14.0411 -14.0410 -14.0251 -14.0250 -14.0202 -14.0190
   -14.0144 -14.0143 -14.0112 -14.0112 -14.0057 -14.0047 -14.0047 -13.9938
   -13.9934 -13.9765 -13.9763 -13.9615 -13.9376 -13.9370 -13.9267 -13.9264
   -13.9012 -13.8770 -13.8764 -13.8651 -13.8623 -13.8621 -13.8387 -13.8383
   -13.8323 -13.8045 -13.8041 -13.7871  -7.5279  -6.4156  -5.1931  -4.3574
    -4.3572  -3.6091  -3.6091  -2.9713  -2.9712  -1.7287  -1.1860  -0.6331
    -0.1025  -0.0097  -0.0097   0.6802   0.7913   0.7914   0.8293   0.8293
     1.7500   1.7501   1.8418   1.8418   2.2671   2.3996   2.5164   2.6264
     2.7466   2.7466   2.7542   2.7542   2.8337   2.8451   2.8451   2.8629
     2.8629   2.8730   2.8780   2.9260   2.9880   2.9880   3.1966   3.3014
     3.3177   3.3278   3.3278   3.9697

[...]

          k =-0.0783-0.0452 0.0000 ( 22652 PWs)   bands (ev):

[...]

     the Fermi energy is     0.8377 ev

!    total energy              =   -4061.64623815 Ry
     Harris-Foulkes estimate   =   -4061.64624241 Ry
     estimated scf accuracy    <       0.00000057 Ry

     The total energy is the sum of the following terms:

     one-electron contribution =  -19598.15616302 Ry
     hartree contribution      =    9809.72234858 Ry
     xc contribution           =    -599.69295440 Ry
     ewald contribution        =    6326.53184828 Ry
     electric field correction =       0.00000000 Ry
     smearing contrib. (-TS)   =      -0.05131759 Ry

     convergence has been achieved in  18 iterations

 BEEF-vdW xc energy contributions
           1 :   -534.879773616286
           2 :    487.425270108119
           3 :   -406.741599563648
           4 :    314.657706532290
           5 :   -231.326985963372
           6 :    168.142060382732
[...]
     Using radial grid of  871 points,  6 beta functions with:
                l(1) =   0
                l(2) =   0
                l(3) =   1
                l(4) =   1
                l(5) =   2
                l(6) =   2
     Q(r) pseudized with  8 coefficients,  rinner =    1.250   1.250   1.250
                                                       1.250   1.250

     PseudoPot. # 2 for La read from file:
     /afs/slac.stanford.edu/u/if/mamunm/psp/gbrv1.5pbe/La.UPF
     MD5 check sum: 5937b0c7494ba0601a847275249473aa
     Pseudo is Ultrasoft + core correction, Zval = 11.0
     Generated by new atomic code, or converted to UPF format
     Using radial grid of  995 points,  8 beta functions with:
                l(1) =   0
                l(2) =   0
                l(3) =   1
                l(4) =   1
                l(5) =   2
                l(6) =   2
                l(7) =   3
                l(8) =   3
     Q(r) pseudized with  8 coefficients,  rinner =    1.700   1.700   1.700
                                                       1.700   1.700   1.700
                                                       1.700

     vdW kernel table read from file vdW_kernel_table
     MD5 check sum: 095c7af220d748ca6e76c0b4c6cfb241

     atomic species   valence    mass     pseudopotential
        Ga1           19.00    69.72300     Ga( 1.00)
        La1           11.00   138.90547     La( 1.00)

     No symmetry found

   Cartesian axes

     site n.     atom                  positions (alat units)
         1           Ga1 tau(   1) = (   0.0000000   0.0000000  10.0000000  )
         2           Ga1 tau(   2) = (  -1.5967171   2.7655951  10.0000000  )
         3           Ga1 tau(   3) = (   1.5967171   2.7655951  10.0000000  )
         4           La1 tau(   4) = (   3.1934342   0.0000000  10.0000000  )
         5           Ga1 tau(   5) = (   3.1934342   1.8437301  12.6074281  )
         6           Ga1 tau(   6) = (   1.5967171   4.6093252  12.6074281  )
         7           Ga1 tau(   7) = (  -1.5967171   4.6093252  12.6074281  )
         8           La1 tau(   8) = (   0.0000000   1.8437301  12.6074281  )
         9           Ga1 tau(   9) = (  -0.0000241   3.9082218  15.0337928  )
        10           Ga1 tau(  10) = (   1.7887630   0.8108601  15.0337729  )
        11           Ga1 tau(  11) = (   4.5981759   0.8108806  15.0338052  )
        12           La1 tau(  12) = (   3.1934347   3.6880240  15.2406193  )

     number of k points=    20  Fermi-Dirac smearing, width (Ry)=  0.0110
                       cart. coord. in units 2pi/alat
        k(    1) = (   0.0000000   0.0000000   0.0000000), wk =   0.0555556
        k(    2) = (   0.0000000   0.0301322   0.0000000), wk =   0.1111111
        k(    3) = (   0.0000000   0.0602643   0.0000000), wk =   0.1111111
        k(    4) = (   0.0000000  -0.0903965   0.0000000), wk =   0.0555556
        k(    5) = (   0.0260952   0.0150661   0.0000000), wk =   0.1111111
        k(    6) = (   0.0260952   0.0451982   0.0000000), wk =   0.1111111
        k(    7) = (   0.0260952   0.0753304   0.0000000), wk =   0.1111111
        k(    8) = (   0.0260952  -0.0753304   0.0000000), wk =   0.1111111
        k(    9) = (   0.0260952  -0.0451982   0.0000000), wk =   0.1111111
        k(   10) = (   0.0260952  -0.0150661   0.0000000), wk =   0.1111111
        k(   11) = (   0.0521904   0.0301322   0.0000000), wk =   0.1111111
        k(   12) = (   0.0521904   0.0602643   0.0000000), wk =   0.1111111
        k(   13) = (   0.0521904   0.0903965   0.0000000), wk =   0.1111111
        k(   14) = (   0.0521904  -0.0602643   0.0000000), wk =   0.1111111
        k(   15) = (   0.0521904  -0.0301322   0.0000000), wk =   0.1111111
        k(   16) = (   0.0521904   0.0000000   0.0000000), wk =   0.1111111
        k(   17) = (  -0.0782856  -0.0451982   0.0000000), wk =   0.0555556
        k(   18) = (  -0.0782856  -0.0150661   0.0000000), wk =   0.1111111
        k(   19) = (  -0.0782856   0.0150661   0.0000000), wk =   0.1111111
        k(   20) = (  -0.0782856  -0.1355947   0.0000000), wk =   0.0555556

     Largest allocated arrays     est. size (Mb)     dimensions
     Largest temporary arrays     est. size (Mb)     dimensions

     Initial potential from superposition of free atoms
     Check: negative starting charge=   -0.215423

     starting charge  194.90379, renormalised to  204.00000

[...]

     *
     * You are using vdW-DF for exchange-correlation in this calculation.
     * Please cite the following three references that made this development
     * possible:
     *
     *   M. Dion, H. Rydberg, E. Schroder, D. C. Langreth, and
     *   B. I. Lundqvist, Phys. Rev. Lett. 92, 246401 (2004).
     *
     *   T. Thonhauser, V. R. Cooper, S. Li, A. Puzder, P. Hyldgaard, and
     *   D. C. Langreth, Phys. Rev. B 76, 125112 (2007).
     *
     *   G. Roman-Perez and J. M. Soler, Phys. Rev. Lett. 103, 096102 (2009).
     *
     *
     * If you are using vdW-DF2, please also cite:
     *
     *   K. Lee, E. D. Murray, L. Kong, B. I. Lundqvist, and
     *   D. C. Langreth, Phys. Rev. B 82, 081101(R) (2010).
     *
     *
     * If you are calculating the stress with vdW-DF, please also cite:
     *
     *   R. Sabatini, E. Kucukbenli, B. Kolb, T. Thonhauser, and
     *   S. de Gironcoli, J. Phys.: Condens. Matter 24, 424209 (2012).
     *

     Carrying out vdW-DF run using the following parameters:

     Nqs =      20    Nr_points =    1024   r_max =   100.000
     q_mesh =
               0.00001000     0.04494208     0.09755937     0.15916263
               0.23128650     0.31572767     0.41458969     0.53033537
               0.66584808     0.82450364     1.01025438     1.22772762
               1.48234092     1.78043706     2.12944203     2.53805004
               3.01644009     3.57652955     4.23227104     5.00000000

     Gradients computed in reciprocal space

[...]

     Starting wfc are  168 randomized atomic wfcs

     Self-consistent Calculation

[...]

     total energy              =   -4061.67279780 Ry
     Harris-Foulkes estimate   =   -4061.67279979 Ry
     estimated scf accuracy    <       0.00000534 Ry

     iteration # 18     ecut=    36.75 Ry     beta=0.10
     Davidson diagonalization with overlap
     ethr =  2.62E-09,  avg # of iterations =  3.2

[...]

     negative rho (up, down):  1.440E-01 0.000E+00

     Adding external electric field

     Computed dipole along edir(3) :
        Dipole                0.1032 Ry au,          0.2623 Debye
        Dipole field          0.0002 Ry au

        Potential amp.       -0.0200 Ry
        Total length         46.4579 bohr

     End of self-consistent calculation

[...]

          k = 0.0522 0.0000 0.0000 ( 22623 PWs)   bands (ev):

[...]

          k =-0.0783-0.1356 0.0000 ( 22652 PWs)   bands (ev):

   -93.6245 -93.6244 -93.6243 -93.6069 -93.6067 -93.6062 -93.5856 -93.5855
   -93.5853 -93.5745 -93.5736 -93.5735 -93.5574 -93.5557 -93.5556 -93.5328
   -93.5327 -93.5318 -93.4764 -93.4761 -93.4757 -93.4566 -93.4565 -93.4564
   -93.4395 -93.4394 -93.4393 -32.1914 -32.0412 -31.6908 -15.9150 -15.8693
   -15.8302 -15.7668 -15.7498 -15.7045 -15.4912 -15.4769 -15.4323 -14.0094
   -13.9934 -13.9776 -13.9646 -13.9618 -13.9579 -13.9476 -13.9412 -13.9372
   -13.9338 -13.9337 -13.9280 -13.9277 -13.9261 -13.9168 -13.9141 -13.9122
   -13.9095 -13.8939 -13.8877 -13.8808 -13.8796 -13.8758 -13.8699 -13.8496
   -13.8480 -13.8439 -13.8333 -13.8228 -13.8205 -13.7999 -13.7938 -13.7818
   -13.7770 -13.7665 -13.7657 -13.7601 -13.7550 -13.7519 -13.7454 -13.7413
   -13.7381 -13.7303 -13.7246 -13.7026  -6.9294  -6.1870  -5.3865  -4.8718
    -4.2388  -4.1808  -3.8276  -3.4652  -2.1131  -1.5097  -1.0801  -0.6721
    -0.0489   0.1651   0.2910   0.3171   0.4922   0.9320   1.4044   1.4876
     1.6564   2.0823   2.2635   2.3120   2.4346   2.4496   2.5114   2.5990
     2.6565   2.6634   2.7232   2.7233   2.7277   2.7851   2.8040   2.8612
     2.9135   2.9174   2.9722   3.0006   3.1688   3.1804   3.2459   3.3356
     3.4571   3.6810   3.8257   3.8481

     the Fermi energy is     0.9407 ev

!    total energy              =   -4061.67279394 Ry
     Harris-Foulkes estimate   =   -4061.67279898 Ry
     estimated scf accuracy    <       0.00000037 Ry

     The total energy is the sum of the following terms:

     one-electron contribution =  -19979.90068948 Ry
     hartree contribution      =   10001.38642489 Ry
     xc contribution           =    -599.82448045 Ry
     ewald contribution        =    6516.71562202 Ry
     electric field correction =       0.00002226 Ry
     smearing contrib. (-TS)   =      -0.04969318 Ry

     convergence has been achieved in  18 iterations

 BEEF-vdW xc energy contributions
           1 :   -535.237045388624
           2 :    487.842164924139
           3 :   -407.235303266201
           4 :    315.185407292044
           5 :   -231.806634069159
           6 :    168.502980986279
           7 :   -126.127081504941
           8 :    98.2651465193006
           9 :   -76.9882386283551
          10 :    57.5327824348906
          11 :   -39.5974863987012
          12 :    25.3590226136490
          13 :   -16.3295381065697
          14 :    11.5028941942810
          15 :   -7.90847564134367
          16 :    2.80197651108642
          17 :    4.35732268559082
          18 :   -11.6416269399153
          19 :    16.2052686404960
          20 :   -16.4282222434369
          21 :    13.0876890704476
          22 :   -8.79890090799222
          23 :    6.23795602665609
          24 :   -6.47452508425022
          25 :    8.54784839826789
          26 :   -10.4478625348075
          27 :    10.6620610187206
          28 :   -9.14405753099686
          29 :    7.09602000888799
          30 :   -5.88017347636378
          31 :   -40.8905134004477
          32 :   -28.2489443847533

     Forces acting on atoms (Ry/au):

     negative rho (up, down):  1.440E-01 0.000E+00
     atom    1 type  1   force =    -0.00000376   -0.01828644    0.00406376
     atom    2 type  1   force =    -0.01583414    0.00914181    0.00406495
     atom    3 type  1   force =     0.01583975    0.00914422    0.00407014
     atom    4 type  2   force =    -0.00000008   -0.00000221   -0.00710197
     atom    5 type  1   force =     0.00000276    0.00299336   -0.00385883
     atom    6 type  1   force =     0.00257261   -0.00148964   -0.00386555
     atom    7 type  1   force =    -0.00257377   -0.00149069   -0.00386719
     atom    8 type  2   force =     0.00000145   -0.00002523    0.01118911
     atom    9 type  1   force =     0.00000359    0.00141463   -0.00126592
     atom   10 type  1   force =     0.00119367   -0.00062470   -0.00128222
     atom   11 type  1   force =    -0.00120064   -0.00062815   -0.00127517
     atom   12 type  2   force =    -0.00000143   -0.00014696   -0.00087110

     Total force =     0.036210     Total SCF correction =     0.003506

     entering subroutine stress ...

     negative rho (up, down):  1.440E-01 0.000E+00
          total   stress  (Ry/bohr**3)                   (kbar)     P=   -4.06
  -0.00003668  -0.00000000  -0.00000000         -5.40     -0.00     -0.00
  -0.00000000  -0.00003667  -0.00000000         -0.00     -5.39     -0.00
  -0.00000000  -0.00000000  -0.00000941         -0.00     -0.00     -1.38

 !ASE

     Writing output data file calc.save

     General routines

     Parallel routines

   This run was terminated on:  21:57: 1  26Dec2018

   JOB DONE.
Job  /afs/slac/g/suncat/bin/suncat-tsmpirun -x LD_LIBRARY_PATH -wdir /scratch/qe109680_zLpcz pw.x -in pw.inp

TID   HOST_NAME   COMMAND_LINE            STATUS            TERMINATION_TIME
00000 suncat0031 pw.x -in pw.inp   Done                     12/26/2018 21:57:01
00001 suncat0031 pw.x -in pw.inp   Done                     12/26/2018 21:57:01
00002 suncat0031 pw.x -in pw.inp   Done                     12/26/2018 21:57:01
00003 suncat0031 pw.x -in pw.inp   Done                     12/26/2018 21:57:01
00004 suncat0031 pw.x -in pw.inp   Done                     12/26/2018 21:57:01
00005 suncat0031 pw.x -in pw.inp   Done                     12/26/2018 21:57:01
00006 suncat0031 pw.x -in pw.inp   Done                     12/26/2018 21:57:01
00007 suncat0031 pw.x -in pw.inp   Done                     12/26/2018 21:57:01
00008 suncat0030 pw.x -in pw.inp   Done                     12/26/2018 21:57:01
00009 suncat0030 pw.x -in pw.inp   Done                     12/26/2018 21:57:01
00010 suncat0030 pw.x -in pw.inp   Done                     12/26/2018 21:57:01
00011 suncat0030 pw.x -in pw.inp   Done                     12/26/2018 21:57:01
00012 suncat0030 pw.x -in pw.inp   Done                     12/26/2018 21:57:01
00013 suncat0030 pw.x -in pw.inp   Done                     12/26/2018 21:57:01
00014 suncat0030 pw.x -in pw.inp   Done                     12/26/2018 21:57:01
00015 suncat0030 pw.x -in pw.inp   Done                     12/26/2018 21:57:01
00016 suncat0190 pw.x -in pw.inp   Done                     12/26/2018 21:57:01
00017 suncat0190 pw.x -in pw.inp   Done                     12/26/2018 21:57:01
00018 suncat0190 pw.x -in pw.inp   Done                     12/26/2018 21:57:01
00019 suncat0190 pw.x -in pw.inp   Done                     12/26/2018 21:57:01
00020 suncat0190 pw.x -in pw.inp   Done                     12/26/2018 21:57:01
00021 suncat0190 pw.x -in pw.inp   Done                     12/26/2018 21:57:01
00022 suncat0190 pw.x -in pw.inp   Done                     12/26/2018 21:57:01
00023 suncat0190 pw.x -in pw.inp   Done                     12/26/2018 21:57:01
00024 suncat0009 pw.x -in pw.inp   Done                     12/26/2018 21:57:01
00025 suncat0009 pw.x -in pw.inp   Done                     12/26/2018 21:57:01
00026 suncat0009 pw.x -in pw.inp   Done                     12/26/2018 21:57:01
00027 suncat0009 pw.x -in pw.inp   Done                     12/26/2018 21:57:01
00028 suncat0009 pw.x -in pw.inp   Done                     12/26/2018 21:57:01
00029 suncat0009 pw.x -in pw.inp   Done                     12/26/2018 21:57:01
00030 suncat0009 pw.x -in pw.inp   Done                     12/26/2018 21:57:01
00031 suncat0009 pw.x -in pw.inp   Done                     12/26/2018 21:57:01
00032 suncat0280 pw.x -in pw.inp   Done                     12/26/2018 21:57:01
00033 suncat0280 pw.x -in pw.inp   Done                     12/26/2018 21:57:01
00034 suncat0280 pw.x -in pw.inp   Done                     12/26/2018 21:57:01
00035 suncat0280 pw.x -in pw.inp   Done                     12/26/2018 21:57:01
00036 suncat0280 pw.x -in pw.inp   Done                     12/26/2018 21:57:01
00037 suncat0280 pw.x -in pw.inp   Done                     12/26/2018 21:57:01
00038 suncat0280 pw.x -in pw.inp   Done                     12/26/2018 21:57:01
00039 suncat0280 pw.x -in pw.inp   Done                     12/26/2018 21:57:01
00040 suncat0279 pw.x -in pw.inp   Done                     12/26/2018 21:57:01
00041 suncat0279 pw.x -in pw.inp   Done                     12/26/2018 21:57:01
00042 suncat0279 pw.x -in pw.inp   Done                     12/26/2018 21:57:01
00043 suncat0279 pw.x -in pw.inp   Done                     12/26/2018 21:57:01
00044 suncat0279 pw.x -in pw.inp   Done                     12/26/2018 21:57:01
00045 suncat0279 pw.x -in pw.inp   Done                     12/26/2018 21:57:01
00046 suncat0279 pw.x -in pw.inp   Done                     12/26/2018 21:57:01
00047 suncat0279 pw.x -in pw.inp   Done                     12/26/2018 21:57:01
00048 suncat0278 pw.x -in pw.inp   Done                     12/26/2018 21:57:01
00049 suncat0278 pw.x -in pw.inp   Done                     12/26/2018 21:57:01
00050 suncat0278 pw.x -in pw.inp   Done                     12/26/2018 21:57:01
00051 suncat0278 pw.x -in pw.inp   Done                     12/26/2018 21:57:01
00052 suncat0278 pw.x -in pw.inp   Done                     12/26/2018 21:57:01
00053 suncat0278 pw.x -in pw.inp   Done                     12/26/2018 21:57:01
00054 suncat0278 pw.x -in pw.inp   Done                     12/26/2018 21:57:01
00055 suncat0278 pw.x -in pw.inp   Done                     12/26/2018 21:57:01
00056 suncat0099 pw.x -in pw.inp   Done                     12/26/2018 21:57:01
00057 suncat0099 pw.x -in pw.inp   Done                     12/26/2018 21:57:01
00058 suncat0099 pw.x -in pw.inp   Done                     12/26/2018 21:57:01
00059 suncat0099 pw.x -in pw.inp   Done                     12/26/2018 21:57:01
00060 suncat0099 pw.x -in pw.inp   Done                     12/26/2018 21:57:01
00061 suncat0099 pw.x -in pw.inp   Done                     12/26/2018 21:57:01
00062 suncat0099 pw.x -in pw.inp   Done                     12/26/2018 21:57:01
00063 suncat0099 pw.x -in pw.inp   Done                     12/26/2018 21:57:01