     Program PWSCF v.5.1rc2 (svn rev. 11289) starts on 24Dec2018 at 15:57: 4

     Current dimensions of program PWSCF are:
     Max number of different atomic species (ntypx) = 10
     Max number of k-points (npk) =  40000
     Max angular momentum in pseudopotentials (lmaxx) =  3
     Presently stress not available with electric field

     IMPORTANT: XC functional enforced from input :
     Exchange-correlation      = BEEF-VDW ( 1  4 27 13 2)
     Any further DFT definition will be discarded
     Please, verify this is what you really want

     Subspace diagonalization in iterative solution of the eigenvalue problem:
     a serial algorithm will be used

     Found symmetry operation: I + (  0.5000 -0.5000  0.0000)
     This is a supercell, fractional translations are disabled

     Generating pointlists ...
     new r_m :   0.4125 (alat units)  0.7795 (a.u.) for type    1
     new r_m :   0.4125 (alat units)  0.7795 (a.u.) for type    2

     bravais-lattice index     =            0
     lattice parameter (alat)  =       1.8897  a.u.
     unit-cell volume          =    5708.1537 (a.u.)^3
     number of atoms/cell      =           12
     number of atomic types    =            2
     number of electrons       =       162.00
     number of Kohn-Sham states=          111
     kinetic-energy cutoff     =      36.7493  Ry
     charge density cutoff     =     367.4932  Ry
     convergence threshold     =      1.0E-06
     mixing beta               =       0.1000
     number of iterations used =           10  plain     mixing
     Exchange-correlation      = BEEF-VDW ( 1  4 27 13 2)
     nstep                     =           50

     celldm(1)=   1.889726  celldm(2)=   0.000000  celldm(3)=   0.000000
     celldm(4)=   0.000000  celldm(5)=   0.000000  celldm(6)=   0.000000

     crystal axes: (cart. coord. in units of alat)
               a(1) = (   5.993283   0.000000   0.000000 )
               a(2) = (   1.927566   5.674851   0.000000 )
               a(3) = (   0.000000   0.000000  24.870233 )

     reciprocal axes: (cart. coord. in units 2 pi/alat)
               b(1) = (  0.166853 -0.056675  0.000000 )
               b(2) = (  0.000000  0.176216  0.000000 )
               b(3) = (  0.000000  0.000000  0.040209 )

     PseudoPot. # 1 for Fe read from file:
     /afs/slac.stanford.edu/u/if/mamunm/psp/gbrv1.5pbe/Fe.UPF
     MD5 check sum: a130daea23fe5165f5d574ae7f82ed95
     Pseudo is Ultrasoft + core correction, Zval = 16.0
     Generated by new atomic code, or converted to UPF format
     Using radial grid of  861 points,  6 beta functions with:
                l(1) =   0
                l(2) =   0
                l(3) =   1
                l(4) =   1
                l(5) =   2
                l(6) =   2
     Q(r) pseudized with  8 coefficients,  rinner =    1.000   1.000   1.000
                                                       1.000   1.000

     PseudoPot. # 2 for Y  read from file:
     /afs/slac.stanford.edu/u/if/mamunm/psp/gbrv1.5pbe/Y.UPF
     MD5 check sum: d034151ed7554c50b6e82763ed42c788
     Pseudo is Ultrasoft + core correction, Zval = 11.0
     Generated by new atomic code, or converted to UPF format
     Using radial grid of  885 points,  6 beta functions with:
                l(1) =   0
                l(2) =   0
                l(3) =   1
                l(4) =   1
                l(5) =   2
                l(6) =   2
     Q(r) pseudized with  8 coefficients,  rinner =    1.200   1.200   1.200
                                                       1.200   1.200

     vdW kernel table read from file vdW_kernel_table
     MD5 check sum: 095c7af220d748ca6e76c0b4c6cfb241

     atomic species   valence    mass     pseudopotential
        Fe1           16.00    55.84500     Fe( 1.00)
        Y1            11.00    88.90584     Y ( 1.00)

     Starting magnetic structure
     atomic species   magnetization
        Fe1          0.125
        Y1           0.182

     No symmetry found

   Cartesian axes

     site n.     atom                  positions (alat units)
         1           Fe1 tau(   1) = (   0.0000000   0.0000000  10.0000000  )
         2           Fe1 tau(   2) = (   3.9604244   2.8374253  10.0000000  )
         3           Y1  tau(   3) = (   2.9966414   0.0000000  10.0000000  )
         4           Y1  tau(   4) = (   0.9637830   2.8374253  10.0000000  )
         5           Fe1 tau(   5) = (   5.9932829   4.2938561  12.4351163  )
         6           Fe1 tau(   6) = (   2.0328585   1.4564308  12.4351163  )
         7           Y1  tau(   7) = (   2.9966414   4.2938561  12.4351163  )
         8           Y1  tau(   8) = (   5.0294999   1.4564308  12.4351163  )
         9           Fe1 tau(   9) = (   4.0657170   2.9128616  14.8702327  )
        10           Fe1 tau(  10) = (   0.1052926   0.0754363  14.8702327  )
        11           Y1  tau(  11) = (   1.0690755   2.9128616  14.8702327  )
        12           Y1  tau(  12) = (   3.1019340   0.0754363  14.8702327  )

     number of k points=    40  Fermi-Dirac smearing, width (Ry)=  0.0110
                       cart. coord. in units 2pi/alat
        k(    1) = (   0.0000000   0.0000000   0.0000000), wk =   0.0277778
        k(    2) = (   0.0000000   0.0293693   0.0000000), wk =   0.0555556
        k(    3) = (   0.0000000   0.0587387   0.0000000), wk =   0.0555556
        k(    4) = (   0.0000000  -0.0881080   0.0000000), wk =   0.0277778
        k(    5) = (   0.0278089  -0.0094458   0.0000000), wk =   0.0555556
        k(    6) = (   0.0278089   0.0199235   0.0000000), wk =   0.0555556
        k(    7) = (   0.0278089   0.0492929   0.0000000), wk =   0.0555556
        k(    8) = (   0.0278089  -0.0975538   0.0000000), wk =   0.0555556
        k(    9) = (   0.0278089  -0.0681845   0.0000000), wk =   0.0555556
        k(   10) = (   0.0278089  -0.0388151   0.0000000), wk =   0.0555556
        k(   11) = (   0.0556178  -0.0188916   0.0000000), wk =   0.0555556
        k(   12) = (   0.0556178   0.0104777   0.0000000), wk =   0.0555556
        k(   13) = (   0.0556178   0.0398471   0.0000000), wk =   0.0555556
        k(   14) = (   0.0556178  -0.1069996   0.0000000), wk =   0.0555556
        k(   15) = (   0.0556178  -0.0776303   0.0000000), wk =   0.0555556
        k(   16) = (   0.0556178  -0.0482610   0.0000000), wk =   0.0555556
        k(   17) = (  -0.0834267   0.0283374   0.0000000), wk =   0.0277778
        k(   18) = (  -0.0834267   0.0577068   0.0000000), wk =   0.0555556
        k(   19) = (  -0.0834267   0.0870761   0.0000000), wk =   0.0555556
        k(   20) = (  -0.0834267  -0.0597706   0.0000000), wk =   0.0277778
        k(   21) = (   0.0000000   0.0000000   0.0000000), wk =   0.0277778
        k(   22) = (   0.0000000   0.0293693   0.0000000), wk =   0.0555556
        k(   23) = (   0.0000000   0.0587387   0.0000000), wk =   0.0555556
        k(   24) = (   0.0000000  -0.0881080   0.0000000), wk =   0.0277778
        k(   25) = (   0.0278089  -0.0094458   0.0000000), wk =   0.0555556
        k(   26) = (   0.0278089   0.0199235   0.0000000), wk =   0.0555556
        k(   27) = (   0.0278089   0.0492929   0.0000000), wk =   0.0555556
        k(   28) = (   0.0278089  -0.0975538   0.0000000), wk =   0.0555556
        k(   29) = (   0.0278089  -0.0681845   0.0000000), wk =   0.0555556
        k(   30) = (   0.0278089  -0.0388151   0.0000000), wk =   0.0555556
        k(   31) = (   0.0556178  -0.0188916   0.0000000), wk =   0.0555556
        k(   32) = (   0.0556178   0.0104777   0.0000000), wk =   0.0555556
        k(   33) = (   0.0556178   0.0398471   0.0000000), wk =   0.0555556
        k(   34) = (   0.0556178  -0.1069996   0.0000000), wk =   0.0555556
        k(   35) = (   0.0556178  -0.0776303   0.0000000), wk =   0.0555556
        k(   36) = (   0.0556178  -0.0482610   0.0000000), wk =   0.0555556
        k(   37) = (  -0.0834267   0.0283374   0.0000000), wk =   0.0277778
        k(   38) = (  -0.0834267   0.0577068   0.0000000), wk =   0.0555556
        k(   39) = (  -0.0834267   0.0870761   0.0000000), wk =   0.0555556
        k(   40) = (  -0.0834267  -0.0597706   0.0000000), wk =   0.0277778

     Largest allocated arrays     est. size (Mb)     dimensions
     Largest temporary arrays     est. size (Mb)     dimensions

     Check: negative/imaginary core charge=   -0.000004    0.000000

     Initial potential from superposition of free atoms
     Check: negative starting charge=(component1):   -0.000260
     Check: negative starting charge=(component2):   -0.000183

     starting charge  155.97315, renormalised to  162.00000

     negative rho (up, down):  2.703E-04 1.906E-04

     *
     * You are using vdW-DF for exchange-correlation in this calculation.
     * Please cite the following three references that made this development
     * possible:
     *
     *   M. Dion, H. Rydberg, E. Schroder, D. C. Langreth, and
     *   B. I. Lundqvist, Phys. Rev. Lett. 92, 246401 (2004).
     *
     *   T. Thonhauser, V. R. Cooper, S. Li, A. Puzder, P. Hyldgaard, and
     *   D. C. Langreth, Phys. Rev. B 76, 125112 (2007).
     *
     *   G. Roman-Perez and J. M. Soler, Phys. Rev. Lett. 103, 096102 (2009).
     *
     *
     * If you are using vdW-DF2, please also cite:
     *
     *   K. Lee, E. D. Murray, L. Kong, B. I. Lundqvist, and
     *   D. C. Langreth, Phys. Rev. B 82, 081101(R) (2010).
     *
     *
     * If you are calculating the stress with vdW-DF, please also cite:
     *
     *   R. Sabatini, E. Kucukbenli, B. Kolb, T. Thonhauser, and
     *   S. de Gironcoli, J. Phys.: Condens. Matter 24, 424209 (2012).
     *

     Carrying out vdW-DF run using the following parameters:

     Nqs =      20    Nr_points =    1024   r_max =   100.000
     q_mesh =
               0.00001000     0.04494208     0.09755937     0.15916263
               0.23128650     0.31572767     0.41458969     0.53033537
               0.66584808     0.82450364     1.01025438     1.22772762
               1.48234092     1.78043706     2.12944203     2.53805004
               3.01644009     3.57652955     4.23227104     5.00000000

     Gradients computed in reciprocal space

     Adding external electric field

     Computed dipole along edir(3) :
        Dipole                0.0000 Ry au,          0.0000 Debye
        Dipole field          0.0000 Ry au

        Potential amp.       -0.0000 Ry
        Total length         45.8230 bohr

[...]

     Starting wfc are  156 randomized atomic wfcs

     Self-consistent Calculation

     iteration #  1     ecut=    36.75 Ry     beta=0.10
     Davidson diagonalization with overlap
     ethr =  1.00E-02,  avg # of iterations =  2.2

[...]

     Magnetic moment per site:
     atom:    1    charge:    7.2444    magn:    0.8933    constr:    0.0000
     atom:    2    charge:    7.2444    magn:    0.8933    constr:    0.0000
     atom:    3    charge:    0.8904    magn:    0.1475    constr:    0.0000
     atom:    4    charge:    0.8904    magn:    0.1475    constr:    0.0000
     atom:    5    charge:    7.2501    magn:    0.8668    constr:    0.0000
     atom:    6    charge:    7.2501    magn:    0.8668    constr:    0.0000
[...]
        k(    2) = (   0.0000000   0.0293693   0.0000000), wk =   0.0555556
        k(    3) = (   0.0000000   0.0587387   0.0000000), wk =   0.0555556
        k(    4) = (   0.0000000  -0.0881080   0.0000000), wk =   0.0277778
        k(    5) = (   0.0278089  -0.0094458   0.0000000), wk =   0.0555556
        k(    6) = (   0.0278089   0.0199235   0.0000000), wk =   0.0555556
        k(    7) = (   0.0278089   0.0492929   0.0000000), wk =   0.0555556
        k(    8) = (   0.0278089  -0.0975538   0.0000000), wk =   0.0555556
        k(    9) = (   0.0278089  -0.0681845   0.0000000), wk =   0.0555556
        k(   10) = (   0.0278089  -0.0388151   0.0000000), wk =   0.0555556
        k(   11) = (   0.0556178  -0.0188916   0.0000000), wk =   0.0555556
        k(   12) = (   0.0556178   0.0104777   0.0000000), wk =   0.0555556
        k(   13) = (   0.0556178   0.0398471   0.0000000), wk =   0.0555556
        k(   14) = (   0.0556178  -0.1069996   0.0000000), wk =   0.0555556
        k(   15) = (   0.0556178  -0.0776303   0.0000000), wk =   0.0555556
        k(   16) = (   0.0556178  -0.0482610   0.0000000), wk =   0.0555556
        k(   17) = (  -0.0834267   0.0283374   0.0000000), wk =   0.0277778
        k(   18) = (  -0.0834267   0.0577068   0.0000000), wk =   0.0555556
        k(   19) = (  -0.0834267   0.0870761   0.0000000), wk =   0.0555556
        k(   20) = (  -0.0834267  -0.0597706   0.0000000), wk =   0.0277778
        k(   21) = (   0.0000000   0.0000000   0.0000000), wk =   0.0277778
        k(   22) = (   0.0000000   0.0293693   0.0000000), wk =   0.0555556
        k(   23) = (   0.0000000   0.0587387   0.0000000), wk =   0.0555556
        k(   24) = (   0.0000000  -0.0881080   0.0000000), wk =   0.0277778
        k(   25) = (   0.0278089  -0.0094458   0.0000000), wk =   0.0555556
        k(   26) = (   0.0278089   0.0199235   0.0000000), wk =   0.0555556
        k(   27) = (   0.0278089   0.0492929   0.0000000), wk =   0.0555556
        k(   28) = (   0.0278089  -0.0975538   0.0000000), wk =   0.0555556
        k(   29) = (   0.0278089  -0.0681845   0.0000000), wk =   0.0555556
        k(   30) = (   0.0278089  -0.0388151   0.0000000), wk =   0.0555556
        k(   31) = (   0.0556178  -0.0188916   0.0000000), wk =   0.0555556
        k(   32) = (   0.0556178   0.0104777   0.0000000), wk =   0.0555556
        k(   33) = (   0.0556178   0.0398471   0.0000000), wk =   0.0555556
        k(   34) = (   0.0556178  -0.1069996   0.0000000), wk =   0.0555556
        k(   35) = (   0.0556178  -0.0776303   0.0000000), wk =   0.0555556
        k(   36) = (   0.0556178  -0.0482610   0.0000000), wk =   0.0555556
        k(   37) = (  -0.0834267   0.0283374   0.0000000), wk =   0.0277778
        k(   38) = (  -0.0834267   0.0577068   0.0000000), wk =   0.0555556
        k(   39) = (  -0.0834267   0.0870761   0.0000000), wk =   0.0555556
        k(   40) = (  -0.0834267  -0.0597706   0.0000000), wk =   0.0277778

     Largest allocated arrays     est. size (Mb)     dimensions
     Largest temporary arrays     est. size (Mb)     dimensions

     Check: negative/imaginary core charge=   -0.000004    0.000000

     Initial potential from superposition of free atoms
     Check: negative starting charge=(component1):   -0.000260
     Check: negative starting charge=(component2):   -0.000183

     starting charge  155.97315, renormalised to  162.00000

[...]

     *
     * You are using vdW-DF for exchange-correlation in this calculation.
     * Please cite the following three references that made this development
     * possible:
     *
     *   M. Dion, H. Rydberg, E. Schroder, D. C. Langreth, and
     *   B. I. Lundqvist, Phys. Rev. Lett. 92, 246401 (2004).
     *
     *   T. Thonhauser, V. R. Cooper, S. Li, A. Puzder, P. Hyldgaard, and
     *   D. C. Langreth, Phys. Rev. B 76, 125112 (2007).
     *
     *   G. Roman-Perez and J. M. Soler, Phys. Rev. Lett. 103, 096102 (2009).
     *
     *
     * If you are using vdW-DF2, please also cite:
     *
     *   K. Lee, E. D. Murray, L. Kong, B. I. Lundqvist, and
     *   D. C. Langreth, Phys. Rev. B 82, 081101(R) (2010).
     *
     *
     * If you are calculating the stress with vdW-DF, please also cite:
     *
     *   R. Sabatini, E. Kucukbenli, B. Kolb, T. Thonhauser, and
     *   S. de Gironcoli, J. Phys.: Condens. Matter 24, 424209 (2012).
     *

     Carrying out vdW-DF run using the following parameters:

     Nqs =      20    Nr_points =    1024   r_max =   100.000
     q_mesh =
               0.00001000     0.04494208     0.09755937     0.15916263
               0.23128650     0.31572767     0.41458969     0.53033537
               0.66584808     0.82450364     1.01025438     1.22772762
               1.48234092     1.78043706     2.12944203     2.53805004
               3.01644009     3.57652955     4.23227104     5.00000000

     Gradients computed in reciprocal space

[...]

     Starting wfc are  156 randomized atomic wfcs

     Self-consistent Calculation

[...]

     total energy              =   -2070.05899549 Ry
     Harris-Foulkes estimate   =   -2070.05899433 Ry
     estimated scf accuracy    <       0.00000221 Ry

[...]

     iteration # 39     ecut=    36.75 Ry     beta=0.10
     Davidson diagonalization with overlap
     ethr =  7.15E-10,  avg # of iterations =  1.9

[...]

     negative rho (up, down):  1.640E-04 6.784E-04

[...]

     Adding external electric field

     Computed dipole along edir(3) :
        Dipole                0.0496 Ry au,          0.1260 Debye
        Dipole field          0.0001 Ry au

        Potential amp.       -0.0100 Ry
        Total length         45.8230 bohr

     Magnetic moment per site:
     atom:    1    charge:    7.0970    magn:    1.1963    constr:    0.0000
     atom:    2    charge:    7.0970    magn:    1.1963    constr:    0.0000
     atom:    3    charge:    0.8651    magn:   -0.0129    constr:    0.0000
     atom:    4    charge:    0.8651    magn:   -0.0129    constr:    0.0000
     atom:    5    charge:    7.0757    magn:    1.0968    constr:    0.0000
     atom:    6    charge:    7.0757    magn:    1.0969    constr:    0.0000
     atom:    7    charge:    0.8662    magn:   -0.0121    constr:    0.0000
     atom:    8    charge:    0.8662    magn:   -0.0121    constr:    0.0000
     atom:    9    charge:    7.0955    magn:    1.1310    constr:    0.0000
     atom:   10    charge:    7.0954    magn:    1.1309    constr:    0.0000
     atom:   11    charge:    0.8658    magn:   -0.0119    constr:    0.0000
     atom:   12    charge:    0.8658    magn:   -0.0119    constr:    0.0000

     End of self-consistent calculation

 ------ SPIN UP ------------

[...]

 ------ SPIN DOWN ----------

[...]

          k = 0.0556-0.0483 0.0000 ( 21480 PWs)   bands (ev):

[...]

          k =-0.0834-0.0598 0.0000 ( 21502 PWs)   bands (ev):

   -84.2643 -84.2641 -84.2156 -84.2153 -84.2096 -84.2093 -50.3713 -50.3704
   -50.3572 -50.3549 -50.3542 -50.3513 -50.3335 -50.3330 -50.3297 -50.3290
   -50.3289 -50.3228 -50.3226 -50.3219 -50.3167 -50.3161 -50.2999 -50.2940
   -41.9114 -41.8823 -41.8779 -41.8487 -41.0431 -41.0116 -22.0687 -22.0418
   -22.0144 -21.9570 -21.9560 -21.9137 -21.9012 -21.8565 -21.8259 -21.7964
   -21.6798 -21.6513 -21.2864 -21.0971 -21.0710 -21.0678 -21.0176 -20.8757
    -2.5873  -2.5249  -1.5049  -1.4596  -1.2415  -1.2066  -0.9287  -0.4338
    -0.4137  -0.1109  -0.0597   0.1548   0.2821   0.4548   0.4658   0.4962
     0.4972   0.5967   0.6725   0.6924   0.7017   0.7136   0.8358   0.9339
     0.9469   1.0837   1.0962   1.1222   1.1397   1.1674   1.2144   1.2467
     1.2717   1.3115   1.3416   1.3834   1.4234   1.4502   1.6574   1.7078
     1.9160   2.2304   2.2860   2.4098   2.4182   2.5298   2.6178   2.6984
     2.7500   2.9094   3.0209   3.0753   3.3590   3.4739   3.5000   3.5742
     3.6629   3.8321   3.8761   4.0122   4.2223   4.5921   5.0741

     the Fermi energy is     1.0907 ev

!    total energy              =   -2070.05899900 Ry
     Harris-Foulkes estimate   =   -2070.05899573 Ry
     estimated scf accuracy    <       0.00000060 Ry

     The total energy is the sum of the following terms:

     one-electron contribution =  -12293.82506441 Ry
     hartree contribution      =    6144.94621852 Ry
     xc contribution           =    -351.42554057 Ry
     ewald contribution        =    4430.36461282 Ry
     electric field correction =       0.00000541 Ry
     smearing contrib. (-TS)   =      -0.11923077 Ry

     total magnetization       =    10.59 Bohr mag/cell
     absolute magnetization    =    19.75 Bohr mag/cell

     convergence has been achieved in  39 iterations

 BEEF-vdW xc energy contributions
           1 :   -307.104852610126
           2 :    276.599606585714
           3 :   -224.833241989608
           4 :    165.803929813559
           5 :   -112.257345965286
           6 :    71.4362829118461
           7 :   -44.3301516943492
           8 :    27.8310913581107
           9 :   -17.8948966919886
          10 :    11.7972284355328
          11 :   -8.63238162345442
          12 :    8.38704839756770
          13 :   -10.6841469135516
          14 :    14.1736687599532
          15 :   -16.8895588065425
          16 :    17.1543633951129
          17 :   -14.3650290083593
          18 :    9.18289816032507
          19 :   -3.11114363287322
          20 :   -2.23079624521063
          21 :    5.72167208177041
          22 :   -7.00718144714182
          23 :    6.40927083067572
          24 :   -4.63523475913723
          25 :    2.45181361059554
          26 :  -0.453746357106695
          27 :   -1.02987536404498
          28 :    1.89647532790912
          29 :   -2.16753342953200
          30 :    1.89547723736234
          31 :   -28.1230733601620
          32 :   -19.4557059599032

     Forces acting on atoms (Ry/au):

     negative rho (up, down):  1.640E-04 6.784E-04
     atom    1 type  1   force =    -0.00087422   -0.00062545    0.01619187
     atom    2 type  1   force =    -0.00088997   -0.00063778    0.01619354
     atom    3 type  2   force =     0.00348450    0.00248730   -0.00345009
     atom    4 type  2   force =     0.00347682    0.00250009   -0.00344994
     atom    5 type  1   force =    -0.00107396   -0.00076967    0.00740438
     atom    6 type  1   force =    -0.00109359   -0.00078314    0.00742595
     atom    7 type  2   force =    -0.00164436   -0.00119720   -0.01949481
     atom    8 type  2   force =    -0.00166241   -0.00117223   -0.01949213
     atom    9 type  1   force =     0.00005766    0.00004160    0.00008773
     atom   10 type  1   force =     0.00005351    0.00003750    0.00010201
     atom   11 type  2   force =     0.00008342    0.00005751   -0.00075938
     atom   12 type  2   force =     0.00008261    0.00006147   -0.00075912

     Total force =     0.038344     Total SCF correction =     0.000753

     entering subroutine stress ...

     negative rho (up, down):  1.640E-04 6.784E-04
          total   stress  (Ry/bohr**3)                   (kbar)     P=   -8.06
  -0.00007874  -0.00002769  -0.00000410        -11.58     -4.07     -0.60
  -0.00002769  -0.00005993  -0.00000294         -4.07     -8.82     -0.43
  -0.00000410  -0.00000294  -0.00002569         -0.60     -0.43     -3.78

 !ASE

     Writing output data file calc.save

     General routines

     Parallel routines

   This run was terminated on:  23: 2: 6  24Dec2018

   JOB DONE.
Job  /afs/slac/g/suncat/bin/suncat-tsmpirun -x LD_LIBRARY_PATH -wdir /scratch/qe108954_nIgUw pw.x -in pw.inp

TID   HOST_NAME   COMMAND_LINE            STATUS            TERMINATION_TIME
00000 suncat0078 pw.x -in pw.inp   Done                     12/24/2018 23:02:06
00001 suncat0078 pw.x -in pw.inp   Done                     12/24/2018 23:02:06
00002 suncat0078 pw.x -in pw.inp   Done                     12/24/2018 23:02:06
00003 suncat0078 pw.x -in pw.inp   Done                     12/24/2018 23:02:06
00004 suncat0078 pw.x -in pw.inp   Done                     12/24/2018 23:02:06
00005 suncat0078 pw.x -in pw.inp   Done                     12/24/2018 23:02:06
00006 suncat0078 pw.x -in pw.inp   Done                     12/24/2018 23:02:06
00007 suncat0078 pw.x -in pw.inp   Done                     12/24/2018 23:02:06
00008 suncat0052 pw.x -in pw.inp   Done                     12/24/2018 23:02:06
00009 suncat0052 pw.x -in pw.inp   Done                     12/24/2018 23:02:06
00010 suncat0052 pw.x -in pw.inp   Done                     12/24/2018 23:02:06
00011 suncat0052 pw.x -in pw.inp   Done                     12/24/2018 23:02:06
00012 suncat0052 pw.x -in pw.inp   Done                     12/24/2018 23:02:06
00013 suncat0052 pw.x -in pw.inp   Done                     12/24/2018 23:02:06
00014 suncat0052 pw.x -in pw.inp   Done                     12/24/2018 23:02:06
00015 suncat0052 pw.x -in pw.inp   Done                     12/24/2018 23:02:06
00016 suncat0046 pw.x -in pw.inp   Done                     12/24/2018 23:02:06
00017 suncat0046 pw.x -in pw.inp   Done                     12/24/2018 23:02:06
00018 suncat0046 pw.x -in pw.inp   Done                     12/24/2018 23:02:06
00019 suncat0046 pw.x -in pw.inp   Done                     12/24/2018 23:02:06
00020 suncat0046 pw.x -in pw.inp   Done                     12/24/2018 23:02:06
00021 suncat0046 pw.x -in pw.inp   Done                     12/24/2018 23:02:06
00022 suncat0046 pw.x -in pw.inp   Done                     12/24/2018 23:02:06
00023 suncat0046 pw.x -in pw.inp   Done                     12/24/2018 23:02:06
00024 suncat0044 pw.x -in pw.inp   Done                     12/24/2018 23:02:06
00025 suncat0044 pw.x -in pw.inp   Done                     12/24/2018 23:02:06
00026 suncat0044 pw.x -in pw.inp   Done                     12/24/2018 23:02:06
00027 suncat0044 pw.x -in pw.inp   Done                     12/24/2018 23:02:06
00028 suncat0044 pw.x -in pw.inp   Done                     12/24/2018 23:02:06
00029 suncat0044 pw.x -in pw.inp   Done                     12/24/2018 23:02:06
00030 suncat0044 pw.x -in pw.inp   Done                     12/24/2018 23:02:06
00031 suncat0044 pw.x -in pw.inp   Done                     12/24/2018 23:02:06
00032 suncat0190 pw.x -in pw.inp   Done                     12/24/2018 23:02:06
00033 suncat0190 pw.x -in pw.inp   Done                     12/24/2018 23:02:06
00034 suncat0190 pw.x -in pw.inp   Done                     12/24/2018 23:02:06
00035 suncat0190 pw.x -in pw.inp   Done                     12/24/2018 23:02:06
00036 suncat0190 pw.x -in pw.inp   Done                     12/24/2018 23:02:06
00037 suncat0190 pw.x -in pw.inp   Done                     12/24/2018 23:02:06
00038 suncat0190 pw.x -in pw.inp   Done                     12/24/2018 23:02:06
00039 suncat0190 pw.x -in pw.inp   Done                     12/24/2018 23:02:06
00040 suncat0009 pw.x -in pw.inp   Done                     12/24/2018 23:02:06
00041 suncat0009 pw.x -in pw.inp   Done                     12/24/2018 23:02:06
00042 suncat0009 pw.x -in pw.inp   Done                     12/24/2018 23:02:06
00043 suncat0009 pw.x -in pw.inp   Done                     12/24/2018 23:02:06
00044 suncat0009 pw.x -in pw.inp   Done                     12/24/2018 23:02:06
00045 suncat0009 pw.x -in pw.inp   Done                     12/24/2018 23:02:06
00046 suncat0009 pw.x -in pw.inp   Done                     12/24/2018 23:02:06
00047 suncat0009 pw.x -in pw.inp   Done                     12/24/2018 23:02:06
00048 suncat0205 pw.x -in pw.inp   Done                     12/24/2018 23:02:06
00049 suncat0205 pw.x -in pw.inp   Done                     12/24/2018 23:02:06
00050 suncat0205 pw.x -in pw.inp   Done                     12/24/2018 23:02:06
00051 suncat0205 pw.x -in pw.inp   Done                     12/24/2018 23:02:06
00052 suncat0205 pw.x -in pw.inp   Done                     12/24/2018 23:02:06
00053 suncat0205 pw.x -in pw.inp   Done                     12/24/2018 23:02:06
00054 suncat0205 pw.x -in pw.inp   Done                     12/24/2018 23:02:06
00055 suncat0205 pw.x -in pw.inp   Done                     12/24/2018 23:02:06
00056 suncat0204 pw.x -in pw.inp   Done                     12/24/2018 23:02:06
00057 suncat0204 pw.x -in pw.inp   Done                     12/24/2018 23:02:06
00058 suncat0204 pw.x -in pw.inp   Done                     12/24/2018 23:02:06
00059 suncat0204 pw.x -in pw.inp   Done                     12/24/2018 23:02:06
00060 suncat0204 pw.x -in pw.inp   Done                     12/24/2018 23:02:06
00061 suncat0204 pw.x -in pw.inp   Done                     12/24/2018 23:02:06
00062 suncat0204 pw.x -in pw.inp   Done                     12/24/2018 23:02:06
00063 suncat0204 pw.x -in pw.inp   Done                     12/24/2018 23:02:06