     Program PWSCF v.5.1rc2 (svn rev. 11289) starts on 30Dec2018 at 13:38:21

     Current dimensions of program PWSCF are:
     Max number of different atomic species (ntypx) = 10
     Max number of k-points (npk) =  40000
     Max angular momentum in pseudopotentials (lmaxx) =  3
     Presently stress not available with electric field

     IMPORTANT: XC functional enforced from input :
     Exchange-correlation      = BEEF-VDW ( 1  4 27 13 2)
     Any further DFT definition will be discarded
     Please, verify this is what you really want

     Subspace diagonalization in iterative solution of the eigenvalue problem:
     a serial algorithm will be used

     Generating pointlists ...
     new r_m :   0.4125 (alat units)  0.7795 (a.u.) for type    1
     new r_m :   0.4125 (alat units)  0.7795 (a.u.) for type    2

     bravais-lattice index     =            0
     lattice parameter (alat)  =       1.8897  a.u.
     unit-cell volume          =    3726.8144 (a.u.)^3
     number of atoms/cell      =           12
     number of atomic types    =            2
     number of electrons       =       192.00
     number of Kohn-Sham states=          126
     kinetic-energy cutoff     =      36.7493  Ry
     charge density cutoff     =     367.4932  Ry
     convergence threshold     =      1.0E-06
     mixing beta               =       0.1000
     number of iterations used =           10  plain     mixing
     Exchange-correlation      = BEEF-VDW ( 1  4 27 13 2)
     nstep                     =           50

     celldm(1)=   1.889726  celldm(2)=   0.000000  celldm(3)=   0.000000
     celldm(4)=   0.000000  celldm(5)=   0.000000  celldm(6)=   0.000000

     crystal axes: (cart. coord. in units of alat)
               a(1) = (   5.134157   0.000000   0.000000 )
               a(2) = (  -2.567079   4.446311   0.000000 )
               a(3) = (   0.000000   0.000000  24.192022 )

     reciprocal axes: (cart. coord. in units 2 pi/alat)
               b(1) = (  0.194774  0.112453  0.000000 )
               b(2) = (  0.000000  0.224906  0.000000 )
               b(3) = (  0.000000  0.000000  0.041336 )

     PseudoPot. # 1 for Mn read from file:
     /afs/slac.stanford.edu/u/if/mamunm/psp/gbrv1.5pbe/Mn.UPF
     MD5 check sum: 82ef2b46521d7a7d9e736dc3972e4928
     Pseudo is Ultrasoft + core correction, Zval = 15.0
     Generated by new atomic code, or converted to UPF format
     Using radial grid of  859 points,  6 beta functions with:
                l(1) =   0
                l(2) =   0
                l(3) =   1
                l(4) =   1
                l(5) =   2
                l(6) =   2
     Q(r) pseudized with  8 coefficients,  rinner =    0.950   0.950   0.950
                                                       0.950   0.950

     PseudoPot. # 2 for Cu read from file:
     /afs/slac.stanford.edu/u/if/mamunm/psp/gbrv1.5pbe/Cu.UPF
     MD5 check sum: 6e991ff952a84172a2a52a1c1e996048
     Pseudo is Ultrasoft + core correction, Zval = 19.0
     Generated by new atomic code, or converted to UPF format
     Using radial grid of  867 points,  6 beta functions with:
                l(1) =   0
                l(2) =   0
                l(3) =   1
                l(4) =   1
                l(5) =   2
                l(6) =   2
     Q(r) pseudized with  8 coefficients,  rinner =    1.150   1.150   1.150
                                                       1.150   1.150

     vdW kernel table read from file vdW_kernel_table
     MD5 check sum: 095c7af220d748ca6e76c0b4c6cfb241

     atomic species   valence    mass     pseudopotential
        Mn1           15.00    54.93804     Mn( 1.00)
        Cu1           19.00    63.54600     Cu( 1.00)

     Starting magnetic structure
     atomic species   magnetization
        Mn1          0.133
        Cu1          0.105

     No symmetry found

   Cartesian axes

     site n.     atom                  positions (alat units)
         1           Mn1 tau(   1) = (   0.0000000   0.0000000  10.0000000  )
         2           Mn1 tau(   2) = (  -1.2835394   2.2231554  10.0000000  )
         3           Mn1 tau(   3) = (   1.2835394   2.2231554  10.0000000  )
         4           Cu1 tau(   4) = (   2.5670787   0.0000000  10.0000000  )
         5           Mn1 tau(   5) = (   2.5670787   1.4821036  12.0960110  )
         6           Mn1 tau(   6) = (   1.2835394   3.7052590  12.0960110  )
         7           Mn1 tau(   7) = (  -1.2835394   3.7052590  12.0960110  )
         8           Cu1 tau(   8) = (   0.0000000   1.4821036  12.0960110  )
         9           Mn1 tau(   9) = (  -0.0000000   2.9642072  14.1920220  )
        10           Mn1 tau(  10) = (   1.2835394   0.7410518  14.1920220  )
        11           Mn1 tau(  11) = (   3.8506181   0.7410518  14.1920220  )
        12           Cu1 tau(  12) = (   2.5670787   2.9642072  14.1920220  )

     number of k points=    40  Fermi-Dirac smearing, width (Ry)=  0.0110
                       cart. coord. in units 2pi/alat
        k(    1) = (   0.0000000   0.0000000   0.0000000), wk =   0.0277778
        k(    2) = (   0.0000000   0.0374843   0.0000000), wk =   0.0555556
        k(    3) = (   0.0000000   0.0749685   0.0000000), wk =   0.0555556
        k(    4) = (   0.0000000  -0.1124528   0.0000000), wk =   0.0277778
        k(    5) = (   0.0324623   0.0187421   0.0000000), wk =   0.0555556
        k(    6) = (   0.0324623   0.0562264   0.0000000), wk =   0.0555556
        k(    7) = (   0.0324623   0.0937106   0.0000000), wk =   0.0555556
        k(    8) = (   0.0324623  -0.0937106   0.0000000), wk =   0.0555556
        k(    9) = (   0.0324623  -0.0562264   0.0000000), wk =   0.0555556
        k(   10) = (   0.0324623  -0.0187421   0.0000000), wk =   0.0555556
        k(   11) = (   0.0649246   0.0374843   0.0000000), wk =   0.0555556
        k(   12) = (   0.0649246   0.0749685   0.0000000), wk =   0.0555556
        k(   13) = (   0.0649246   0.1124528   0.0000000), wk =   0.0555556
        k(   14) = (   0.0649246  -0.0749685   0.0000000), wk =   0.0555556
        k(   15) = (   0.0649246  -0.0374843   0.0000000), wk =   0.0555556
        k(   16) = (   0.0649246   0.0000000   0.0000000), wk =   0.0555556
        k(   17) = (  -0.0973870  -0.0562264   0.0000000), wk =   0.0277778
        k(   18) = (  -0.0973870  -0.0187421   0.0000000), wk =   0.0555556
        k(   19) = (  -0.0973870   0.0187421   0.0000000), wk =   0.0555556
        k(   20) = (  -0.0973870  -0.1686792   0.0000000), wk =   0.0277778
        k(   21) = (   0.0000000   0.0000000   0.0000000), wk =   0.0277778
        k(   22) = (   0.0000000   0.0374843   0.0000000), wk =   0.0555556
        k(   23) = (   0.0000000   0.0749685   0.0000000), wk =   0.0555556
        k(   24) = (   0.0000000  -0.1124528   0.0000000), wk =   0.0277778
        k(   25) = (   0.0324623   0.0187421   0.0000000), wk =   0.0555556
        k(   26) = (   0.0324623   0.0562264   0.0000000), wk =   0.0555556
        k(   27) = (   0.0324623   0.0937106   0.0000000), wk =   0.0555556
        k(   28) = (   0.0324623  -0.0937106   0.0000000), wk =   0.0555556
        k(   29) = (   0.0324623  -0.0562264   0.0000000), wk =   0.0555556
        k(   30) = (   0.0324623  -0.0187421   0.0000000), wk =   0.0555556
        k(   31) = (   0.0649246   0.0374843   0.0000000), wk =   0.0555556
        k(   32) = (   0.0649246   0.0749685   0.0000000), wk =   0.0555556
        k(   33) = (   0.0649246   0.1124528   0.0000000), wk =   0.0555556
        k(   34) = (   0.0649246  -0.0749685   0.0000000), wk =   0.0555556
        k(   35) = (   0.0649246  -0.0374843   0.0000000), wk =   0.0555556
        k(   36) = (   0.0649246   0.0000000   0.0000000), wk =   0.0555556
        k(   37) = (  -0.0973870  -0.0562264   0.0000000), wk =   0.0277778
        k(   38) = (  -0.0973870  -0.0187421   0.0000000), wk =   0.0555556
        k(   39) = (  -0.0973870   0.0187421   0.0000000), wk =   0.0555556
        k(   40) = (  -0.0973870  -0.1686792   0.0000000), wk =   0.0277778

     Largest allocated arrays     est. size (Mb)     dimensions
     Largest temporary arrays     est. size (Mb)     dimensions

     Check: negative/imaginary core charge=   -0.000008    0.000000

     Initial potential from superposition of free atoms
     Check: negative starting charge=(component1):   -0.001439
     Check: negative starting charge=(component2):   -0.001100

     starting charge  184.49923, renormalised to  192.00000

     negative rho (up, down):  1.498E-03 1.145E-03

     *
     * You are using vdW-DF for exchange-correlation in this calculation.
     * Please cite the following three references that made this development
     * possible:
     *
     *   M. Dion, H. Rydberg, E. Schroder, D. C. Langreth, and
     *   B. I. Lundqvist, Phys. Rev. Lett. 92, 246401 (2004).
     *
     *   T. Thonhauser, V. R. Cooper, S. Li, A. Puzder, P. Hyldgaard, and
     *   D. C. Langreth, Phys. Rev. B 76, 125112 (2007).
     *
     *   G. Roman-Perez and J. M. Soler, Phys. Rev. Lett. 103, 096102 (2009).
     *
     *
     * If you are using vdW-DF2, please also cite:
     *
     *   K. Lee, E. D. Murray, L. Kong, B. I. Lundqvist, and
     *   D. C. Langreth, Phys. Rev. B 82, 081101(R) (2010).
     *
     *
     * If you are calculating the stress with vdW-DF, please also cite:
     *
     *   R. Sabatini, E. Kucukbenli, B. Kolb, T. Thonhauser, and
     *   S. de Gironcoli, J. Phys.: Condens. Matter 24, 424209 (2012).
     *

     Carrying out vdW-DF run using the following parameters:

     Nqs =      20    Nr_points =    1024   r_max =   100.000
     q_mesh =
               0.00001000     0.04494208     0.09755937     0.15916263
               0.23128650     0.31572767     0.41458969     0.53033537
               0.66584808     0.82450364     1.01025438     1.22772762
               1.48234092     1.78043706     2.12944203     2.53805004
               3.01644009     3.57652955     4.23227104     5.00000000

     Gradients computed in reciprocal space

     Adding external electric field

     Computed dipole along edir(3) :
        Dipole                0.0000 Ry au,          0.0000 Debye
        Dipole field          0.0000 Ry au

        Potential amp.       -0.0000 Ry
        Total length         44.5734 bohr

[...]

     Starting wfc are  156 randomized atomic wfcs

     Self-consistent Calculation

     iteration #  1     ecut=    36.75 Ry     beta=0.10
     Davidson diagonalization with overlap
     ethr =  1.00E-02,  avg # of iterations =  7.4

[...]

     Magnetic moment per site:
     atom:    1    charge:    6.1157    magn:    0.7826    constr:    0.0000
     atom:    2    charge:    6.1157    magn:    0.7826    constr:    0.0000
     atom:    3    charge:    6.1156    magn:    0.7826    constr:    0.0000
     atom:    4    charge:   10.7696    magn:    1.0641    constr:    0.0000
     atom:    5    charge:    6.1286    magn:    0.7809    constr:    0.0000
     atom:    6    charge:    6.1286    magn:    0.7809    constr:    0.0000
     atom:    7    charge:    6.1286    magn:    0.7809    constr:    0.0000
     atom:    8    charge:   10.7677    magn:    1.0630    constr:    0.0000
[...]
        k(    5) = (   0.0324623   0.0187421   0.0000000), wk =   0.0555556
        k(    6) = (   0.0324623   0.0562264   0.0000000), wk =   0.0555556
        k(    7) = (   0.0324623   0.0937106   0.0000000), wk =   0.0555556
        k(    8) = (   0.0324623  -0.0937106   0.0000000), wk =   0.0555556
        k(    9) = (   0.0324623  -0.0562264   0.0000000), wk =   0.0555556
        k(   10) = (   0.0324623  -0.0187421   0.0000000), wk =   0.0555556
        k(   11) = (   0.0649246   0.0374843   0.0000000), wk =   0.0555556
        k(   12) = (   0.0649246   0.0749685   0.0000000), wk =   0.0555556
        k(   13) = (   0.0649246   0.1124528   0.0000000), wk =   0.0555556
        k(   14) = (   0.0649246  -0.0749685   0.0000000), wk =   0.0555556
        k(   15) = (   0.0649246  -0.0374843   0.0000000), wk =   0.0555556
        k(   16) = (   0.0649246   0.0000000   0.0000000), wk =   0.0555556
        k(   17) = (  -0.0973870  -0.0562264   0.0000000), wk =   0.0277778
        k(   18) = (  -0.0973870  -0.0187421   0.0000000), wk =   0.0555556
        k(   19) = (  -0.0973870   0.0187421   0.0000000), wk =   0.0555556
        k(   20) = (  -0.0973870  -0.1686792   0.0000000), wk =   0.0277778
        k(   21) = (   0.0000000   0.0000000   0.0000000), wk =   0.0277778
        k(   22) = (   0.0000000   0.0374843   0.0000000), wk =   0.0555556
        k(   23) = (   0.0000000   0.0749685   0.0000000), wk =   0.0555556
        k(   24) = (   0.0000000  -0.1124528   0.0000000), wk =   0.0277778
        k(   25) = (   0.0324623   0.0187421   0.0000000), wk =   0.0555556
        k(   26) = (   0.0324623   0.0562264   0.0000000), wk =   0.0555556
        k(   27) = (   0.0324623   0.0937106   0.0000000), wk =   0.0555556
        k(   28) = (   0.0324623  -0.0937106   0.0000000), wk =   0.0555556
        k(   29) = (   0.0324623  -0.0562264   0.0000000), wk =   0.0555556
        k(   30) = (   0.0324623  -0.0187421   0.0000000), wk =   0.0555556
        k(   31) = (   0.0649246   0.0374843   0.0000000), wk =   0.0555556
        k(   32) = (   0.0649246   0.0749685   0.0000000), wk =   0.0555556
        k(   33) = (   0.0649246   0.1124528   0.0000000), wk =   0.0555556
        k(   34) = (   0.0649246  -0.0749685   0.0000000), wk =   0.0555556
        k(   35) = (   0.0649246  -0.0374843   0.0000000), wk =   0.0555556
        k(   36) = (   0.0649246   0.0000000   0.0000000), wk =   0.0555556
        k(   37) = (  -0.0973870  -0.0562264   0.0000000), wk =   0.0277778
        k(   38) = (  -0.0973870  -0.0187421   0.0000000), wk =   0.0555556
        k(   39) = (  -0.0973870   0.0187421   0.0000000), wk =   0.0555556
        k(   40) = (  -0.0973870  -0.1686792   0.0000000), wk =   0.0277778

     Largest allocated arrays     est. size (Mb)     dimensions
     Largest temporary arrays     est. size (Mb)     dimensions

     Check: negative/imaginary core charge=   -0.000008    0.000000

     Initial potential from superposition of free atoms
     Check: negative starting charge=(component1):   -0.001453
     Check: negative starting charge=(component2):   -0.001111

     starting charge  184.49923, renormalised to  192.00000

[...]

     *
     * You are using vdW-DF for exchange-correlation in this calculation.
     * Please cite the following three references that made this development
     * possible:
     *
     *   M. Dion, H. Rydberg, E. Schroder, D. C. Langreth, and
     *   B. I. Lundqvist, Phys. Rev. Lett. 92, 246401 (2004).
     *
     *   T. Thonhauser, V. R. Cooper, S. Li, A. Puzder, P. Hyldgaard, and
     *   D. C. Langreth, Phys. Rev. B 76, 125112 (2007).
     *
     *   G. Roman-Perez and J. M. Soler, Phys. Rev. Lett. 103, 096102 (2009).
     *
     *
     * If you are using vdW-DF2, please also cite:
     *
     *   K. Lee, E. D. Murray, L. Kong, B. I. Lundqvist, and
     *   D. C. Langreth, Phys. Rev. B 82, 081101(R) (2010).
     *
     *
     * If you are calculating the stress with vdW-DF, please also cite:
     *
     *   R. Sabatini, E. Kucukbenli, B. Kolb, T. Thonhauser, and
     *   S. de Gironcoli, J. Phys.: Condens. Matter 24, 424209 (2012).
     *

     Carrying out vdW-DF run using the following parameters:

     Nqs =      20    Nr_points =    1024   r_max =   100.000
     q_mesh =
               0.00001000     0.04494208     0.09755937     0.15916263
               0.23128650     0.31572767     0.41458969     0.53033537
               0.66584808     0.82450364     1.01025438     1.22772762
               1.48234092     1.78043706     2.12944203     2.53805004
               3.01644009     3.57652955     4.23227104     5.00000000

     Gradients computed in reciprocal space

[...]

     Starting wfc are  156 randomized atomic wfcs

     Self-consistent Calculation

[...]

     total energy              =   -3123.58828887 Ry
     Harris-Foulkes estimate   =   -3123.58828775 Ry
     estimated scf accuracy    <       0.00000146 Ry

[...]

     iteration # 37     ecut=    36.75 Ry     beta=0.10
     Davidson diagonalization with overlap
     ethr =  7.59E-10,  avg # of iterations =  1.0

[...]

     negative rho (up, down):  1.803E-03 1.484E-03

[...]

     Adding external electric field

     Computed dipole along edir(3) :
        Dipole               -0.0038 Ry au,         -0.0097 Debye
        Dipole field         -0.0000 Ry au

        Potential amp.        0.0011 Ry
        Total length         44.5734 bohr

     Magnetic moment per site:
     atom:    1    charge:    6.0117    magn:    1.2603    constr:    0.0000
     atom:    2    charge:    6.0116    magn:    1.2603    constr:    0.0000
     atom:    3    charge:    6.0117    magn:    1.2603    constr:    0.0000
     atom:    4    charge:   10.5952    magn:    0.1119    constr:    0.0000
     atom:    5    charge:    5.9909    magn:    0.6272    constr:    0.0000
     atom:    6    charge:    5.9909    magn:    0.6266    constr:    0.0000
     atom:    7    charge:    5.9909    magn:    0.6277    constr:    0.0000
     atom:    8    charge:   10.5902    magn:    0.1158    constr:    0.0000
     atom:    9    charge:    6.0083    magn:    1.2739    constr:    0.0000
     atom:   10    charge:    6.0083    magn:    1.2739    constr:    0.0000
     atom:   11    charge:    6.0083    magn:    1.2739    constr:    0.0000
     atom:   12    charge:   10.5821    magn:    0.1139    constr:    0.0000

     End of self-consistent calculation

 ------ SPIN UP ------------

[...]

 ------ SPIN DOWN ----------

[...]

          k = 0.0649 0.0000 0.0000 ( 14031 PWs)   bands (ev):

[...]

          k =-0.0974-0.1687 0.0000 ( 14034 PWs)   bands (ev):

  -111.8657-111.6343-111.6078 -77.0682 -77.0523 -77.0335 -76.0843 -76.0662
   -76.0595 -76.0486 -76.0415 -76.0238 -69.2592 -69.2591 -69.2208 -69.0516
   -69.0515 -69.0281 -69.0280 -68.9603 -68.9281 -46.0039 -45.9028 -45.8625
   -45.8565 -45.8266 -45.7781 -45.7726 -45.7325 -45.6387 -45.0754 -45.0512
   -44.9399 -44.9154 -44.8911 -44.8761 -44.8691 -44.8612 -44.8517 -44.8382
   -44.8032 -44.7885 -44.7840 -44.7774 -44.7605 -44.7585 -44.7451 -44.7218
    -4.7214  -4.4760  -3.2406  -2.9038  -2.6820  -2.6260  -2.3960  -2.3636
    -2.3284  -2.2156  -2.1737  -2.0833  -2.0022  -1.9856  -1.9836  -1.8415
    -1.8220  -1.7206  -1.6895  -1.4135  -1.3795  -1.0504  -0.7563  -0.2950
    -0.1633  -0.0388   0.1663   0.2039   0.3031   0.3339   0.4187   0.6288
     0.7024   0.7326   0.7453   0.8329   0.9944   1.1854   1.3101   1.3810
     1.4175   1.4419   1.6552   1.8176   1.9302   2.1010   2.1589   2.3130
     2.3517   2.4045   2.6529   2.6544   2.6554   2.6838   2.8132   2.8701
     2.9344   3.1354   3.1558   3.2183   3.3413   3.6083   3.7278   3.7860
     3.8465   3.9479   4.1475   4.7049   5.2115   5.3611   5.5780   5.5988
     6.5652   6.7597   6.8043   6.8129   7.3246   7.3450

     the Fermi energy is     1.0631 ev

!    total energy              =   -3123.58829322 Ry
     Harris-Foulkes estimate   =   -3123.58828894 Ry
     estimated scf accuracy    <       0.00000097 Ry

     The total energy is the sum of the following terms:

     one-electron contribution =  -25938.31091314 Ry
     hartree contribution      =   12970.77450295 Ry
     xc contribution           =    -368.40216894 Ry
     ewald contribution        =   10212.45365628 Ry
     electric field correction =       0.00000005 Ry
     smearing contrib. (-TS)   =      -0.10337042 Ry

     total magnetization       =    24.30 Bohr mag/cell
     absolute magnetization    =    25.20 Bohr mag/cell

     convergence has been achieved in  37 iterations

 BEEF-vdW xc energy contributions
           1 :   -323.197221088504
           2 :    292.446474067992
           3 :   -240.837695180001
           4 :    183.243066974199
           5 :   -132.903796944524
           6 :    96.7495782739693
           7 :   -74.5269271340877
           8 :    61.2511804063490
           9 :   -51.0490513514517
          10 :    40.2608083809728
          11 :   -28.4896090929091
          12 :    17.5724846783335
          13 :   -9.58028831150830
          14 :    5.25315171612908
          15 :   -3.68342796518311
          16 :    3.10045379360747
          17 :   -2.01474012342828
          18 :  -3.616836464436801E-002
          19 :    2.48745693968419
          20 :   -4.35164427691342
          21 :    4.95669412687130
          22 :   -4.35466678250600
          23 :    3.21733780044497
          24 :   -2.37847385982957
          25 :    2.34524289852294
          26 :   -3.05831531087875
          27 :    3.99965930083465
          28 :   -4.55518260490697
          29 :    4.40045386948657
          30 :   -3.67730763428187
          31 :   -28.1744398163954
          32 :   -19.7802626526178

     Forces acting on atoms (Ry/au):

     negative rho (up, down):  1.803E-03 1.484E-03
     atom    1 type  1   force =    -0.00001217   -0.00100670   -0.00258742
     atom    2 type  1   force =    -0.00087217    0.00049572   -0.00259978
     atom    3 type  1   force =     0.00086270    0.00050402   -0.00257877
     atom    4 type  2   force =    -0.00002450   -0.00000176   -0.00875989
     atom    5 type  1   force =    -0.00000689    0.00091932    0.00352418
     atom    6 type  1   force =     0.00079426   -0.00046280    0.00356498
     atom    7 type  1   force =    -0.00079583   -0.00045612    0.00355985
     atom    8 type  2   force =     0.00002997    0.00000586    0.00414701
     atom    9 type  1   force =     0.00003222   -0.00056366    0.00007824
     atom   10 type  1   force =    -0.00065364    0.00023848    0.00007231
     atom   11 type  1   force =     0.00065229    0.00020145    0.00006624
     atom   12 type  2   force =    -0.00000625    0.00012617    0.00151306

     Total force =     0.012688     Total SCF correction =     0.002441
     SCF correction compared to forces is large: reduce conv_thr to get better values

     entering subroutine stress ...

     negative rho (up, down):  1.803E-03 1.484E-03
          total   stress  (Ry/bohr**3)                   (kbar)     P=    2.44
   0.00003277   0.00000000   0.00000003          4.82      0.00      0.01
   0.00000000   0.00003279   0.00000000          0.00      4.82      0.00
   0.00000003   0.00000000  -0.00001584          0.01      0.00     -2.33

 !ASE

     Writing output data file calc.save

     General routines

     Parallel routines

   This run was terminated on:  19:53:25  30Dec2018

   JOB DONE.
Job  /afs/slac/g/suncat/bin/suncat-tsmpirun -x LD_LIBRARY_PATH -wdir /scratch/qe648571_pDjlv pw.x -in pw.inp

TID   HOST_NAME   COMMAND_LINE            STATUS            TERMINATION_TIME
00000 suncat0154 pw.x -in pw.inp   Done                     12/30/2018 19:53:25
00001 suncat0154 pw.x -in pw.inp   Done                     12/30/2018 19:53:25
00002 suncat0154 pw.x -in pw.inp   Done                     12/30/2018 19:53:25
00003 suncat0154 pw.x -in pw.inp   Done                     12/30/2018 19:53:25
00004 suncat0154 pw.x -in pw.inp   Done                     12/30/2018 19:53:25
00005 suncat0154 pw.x -in pw.inp   Done                     12/30/2018 19:53:25
00006 suncat0154 pw.x -in pw.inp   Done                     12/30/2018 19:53:25
00007 suncat0154 pw.x -in pw.inp   Done                     12/30/2018 19:53:25
00008 suncat0143 pw.x -in pw.inp   Done                     12/30/2018 19:53:25
00009 suncat0143 pw.x -in pw.inp   Done                     12/30/2018 19:53:25
00010 suncat0143 pw.x -in pw.inp   Done                     12/30/2018 19:53:25
00011 suncat0143 pw.x -in pw.inp   Done                     12/30/2018 19:53:25
00012 suncat0143 pw.x -in pw.inp   Done                     12/30/2018 19:53:25
00013 suncat0143 pw.x -in pw.inp   Done                     12/30/2018 19:53:25
00014 suncat0143 pw.x -in pw.inp   Done                     12/30/2018 19:53:25
00015 suncat0143 pw.x -in pw.inp   Done                     12/30/2018 19:53:25
00016 suncat0108 pw.x -in pw.inp   Done                     12/30/2018 19:53:25
00017 suncat0108 pw.x -in pw.inp   Done                     12/30/2018 19:53:25
00018 suncat0108 pw.x -in pw.inp   Done                     12/30/2018 19:53:25
00019 suncat0108 pw.x -in pw.inp   Done                     12/30/2018 19:53:25
00020 suncat0108 pw.x -in pw.inp   Done                     12/30/2018 19:53:25
00021 suncat0108 pw.x -in pw.inp   Done                     12/30/2018 19:53:25
00022 suncat0108 pw.x -in pw.inp   Done                     12/30/2018 19:53:25
00023 suncat0108 pw.x -in pw.inp   Done                     12/30/2018 19:53:25
00024 suncat0252 pw.x -in pw.inp   Done                     12/30/2018 19:53:25
00025 suncat0252 pw.x -in pw.inp   Done                     12/30/2018 19:53:25
00026 suncat0252 pw.x -in pw.inp   Done                     12/30/2018 19:53:25
00027 suncat0252 pw.x -in pw.inp   Done                     12/30/2018 19:53:25
00028 suncat0252 pw.x -in pw.inp   Done                     12/30/2018 19:53:25
00029 suncat0252 pw.x -in pw.inp   Done                     12/30/2018 19:53:25
00030 suncat0252 pw.x -in pw.inp   Done                     12/30/2018 19:53:25
00031 suncat0252 pw.x -in pw.inp   Done                     12/30/2018 19:53:25
00032 suncat0226 pw.x -in pw.inp   Done                     12/30/2018 19:53:25
00033 suncat0226 pw.x -in pw.inp   Done                     12/30/2018 19:53:25
00034 suncat0226 pw.x -in pw.inp   Done                     12/30/2018 19:53:25
00035 suncat0226 pw.x -in pw.inp   Done                     12/30/2018 19:53:25
00036 suncat0226 pw.x -in pw.inp   Done                     12/30/2018 19:53:25
00037 suncat0226 pw.x -in pw.inp   Done                     12/30/2018 19:53:25
00038 suncat0226 pw.x -in pw.inp   Done                     12/30/2018 19:53:25
00039 suncat0226 pw.x -in pw.inp   Done                     12/30/2018 19:53:25
00040 suncat0225 pw.x -in pw.inp   Done                     12/30/2018 19:53:25
00041 suncat0225 pw.x -in pw.inp   Done                     12/30/2018 19:53:25
00042 suncat0225 pw.x -in pw.inp   Done                     12/30/2018 19:53:25
00043 suncat0225 pw.x -in pw.inp   Done                     12/30/2018 19:53:25
00044 suncat0225 pw.x -in pw.inp   Done                     12/30/2018 19:53:25
00045 suncat0225 pw.x -in pw.inp   Done                     12/30/2018 19:53:25
00046 suncat0225 pw.x -in pw.inp   Done                     12/30/2018 19:53:25
00047 suncat0225 pw.x -in pw.inp   Done                     12/30/2018 19:53:25
00048 suncat0224 pw.x -in pw.inp   Done                     12/30/2018 19:53:25
00049 suncat0224 pw.x -in pw.inp   Done                     12/30/2018 19:53:25
00050 suncat0224 pw.x -in pw.inp   Done                     12/30/2018 19:53:25
00051 suncat0224 pw.x -in pw.inp   Done                     12/30/2018 19:53:25
00052 suncat0224 pw.x -in pw.inp   Done                     12/30/2018 19:53:25
00053 suncat0224 pw.x -in pw.inp   Done                     12/30/2018 19:53:25
00054 suncat0224 pw.x -in pw.inp   Done                     12/30/2018 19:53:25
00055 suncat0224 pw.x -in pw.inp   Done                     12/30/2018 19:53:25
00056 suncat0223 pw.x -in pw.inp   Done                     12/30/2018 19:53:25
00057 suncat0223 pw.x -in pw.inp   Done                     12/30/2018 19:53:25
00058 suncat0223 pw.x -in pw.inp   Done                     12/30/2018 19:53:25
00059 suncat0223 pw.x -in pw.inp   Done                     12/30/2018 19:53:25
00060 suncat0223 pw.x -in pw.inp   Done                     12/30/2018 19:53:25
00061 suncat0223 pw.x -in pw.inp   Done                     12/30/2018 19:53:25
00062 suncat0223 pw.x -in pw.inp   Done                     12/30/2018 19:53:25
00063 suncat0223 pw.x -in pw.inp   Done                     12/30/2018 19:53:25