     Program PWSCF v.5.1rc2 (svn rev. 11289) starts on 27Dec2018 at  5:32:41

     Current dimensions of program PWSCF are:
     Max number of different atomic species (ntypx) = 10
     Max number of k-points (npk) =  40000
     Max angular momentum in pseudopotentials (lmaxx) =  3
     Presently stress not available with electric field

     IMPORTANT: XC functional enforced from input :
     Exchange-correlation      = BEEF-VDW ( 1  4 27 13 2)
     Any further DFT definition will be discarded
     Please, verify this is what you really want

     Subspace diagonalization in iterative solution of the eigenvalue problem:
     a serial algorithm will be used

     Generating pointlists ...
     new r_m :   0.4125 (alat units)  0.7795 (a.u.) for type    1
     new r_m :   0.4125 (alat units)  0.7795 (a.u.) for type    2

     bravais-lattice index     =            0
     lattice parameter (alat)  =       1.8897  a.u.
     unit-cell volume          =    4721.8511 (a.u.)^3
     number of atoms/cell      =           12
     number of atomic types    =            2
     number of electrons       =       171.00
     number of Kohn-Sham states=          115
     kinetic-energy cutoff     =      36.7493  Ry
     charge density cutoff     =     367.4932  Ry
     convergence threshold     =      1.0E-06
     mixing beta               =       0.1000
     number of iterations used =           10  plain     mixing
     Exchange-correlation      = BEEF-VDW ( 1  4 27 13 2)
     nstep                     =           50

     celldm(1)=   1.889726  celldm(2)=   0.000000  celldm(3)=   0.000000
     celldm(4)=   0.000000  celldm(5)=   0.000000  celldm(6)=   0.000000

     crystal axes: (cart. coord. in units of alat)
               a(1) = (   5.722512   0.000000   0.000000 )
               a(2) = (  -2.861256   4.955841   0.000000 )
               a(3) = (   0.000000   0.000000  24.672412 )

     reciprocal axes: (cart. coord. in units 2 pi/alat)
               b(1) = (  0.174748  0.100891  0.000000 )
               b(2) = (  0.000000  0.201782  0.000000 )
               b(3) = (  0.000000  0.000000  0.040531 )

     PseudoPot. # 1 for Nb read from file:
     /afs/slac.stanford.edu/u/if/mamunm/psp/gbrv1.5pbe/Nb.UPF
     MD5 check sum: 573aab8a2fa660278ed4a62cd769473f
     Pseudo is Ultrasoft + core correction, Zval = 13.0
     Generated by new atomic code, or converted to UPF format
     Using radial grid of  887 points,  6 beta functions with:
                l(1) =   0
                l(2) =   0
                l(3) =   1
                l(4) =   1
                l(5) =   2
                l(6) =   2
     Q(r) pseudized with  6 coefficients,  rinner =    1.000   1.000   1.000
                                                       1.000   1.000

     PseudoPot. # 2 for Ni read from file:
     /afs/slac.stanford.edu/u/if/mamunm/psp/gbrv1.5pbe/Ni.UPF
     MD5 check sum: 1ee80287db30b12d2bc1f57a5b5d6409
     Pseudo is Ultrasoft + core correction, Zval = 18.0
     Generated by new atomic code, or converted to UPF format
     Using radial grid of  865 points,  6 beta functions with:
                l(1) =   0
                l(2) =   0
                l(3) =   1
                l(4) =   1
                l(5) =   2
                l(6) =   2
     Q(r) pseudized with 10 coefficients,  rinner =    0.980   0.980   0.980
                                                       0.980   0.980

     vdW kernel table read from file vdW_kernel_table
     MD5 check sum: 095c7af220d748ca6e76c0b4c6cfb241

     atomic species   valence    mass     pseudopotential
        Nb1           13.00    92.90637     Nb( 1.00)
        Ni1           18.00    58.69340     Ni( 1.00)

     Starting magnetic structure
     atomic species   magnetization
        Nb1          0.154
        Ni1          0.111

     No symmetry found

   Cartesian axes

     site n.     atom                  positions (alat units)
         1           Nb1 tau(   1) = (   0.0000000   0.0000000  10.0000000  )
         2           Nb1 tau(   2) = (  -1.4306280   2.4779205  10.0000000  )
         3           Nb1 tau(   3) = (   1.4306280   2.4779205  10.0000000  )
         4           Ni1 tau(   4) = (   2.8612561   0.0000000  10.0000000  )
         5           Nb1 tau(   5) = (   2.8612561   1.6519470  12.3362058  )
         6           Nb1 tau(   6) = (   1.4306280   4.1298674  12.3362058  )
         7           Nb1 tau(   7) = (  -1.4306280   4.1298674  12.3362058  )
         8           Ni1 tau(   8) = (   0.0000000   1.6519470  12.3362058  )
         9           Nb1 tau(   9) = (  -0.0000000   3.3038939  14.6724116  )
        10           Nb1 tau(  10) = (   1.4306280   0.8259735  14.6724116  )
        11           Nb1 tau(  11) = (   4.2918841   0.8259735  14.6724116  )
        12           Ni1 tau(  12) = (   2.8612561   3.3038939  14.6724116  )

     number of k points=    40  Fermi-Dirac smearing, width (Ry)=  0.0110
                       cart. coord. in units 2pi/alat
        k(    1) = (   0.0000000   0.0000000   0.0000000), wk =   0.0277778
        k(    2) = (   0.0000000   0.0336304   0.0000000), wk =   0.0555556
        k(    3) = (   0.0000000   0.0672607   0.0000000), wk =   0.0555556
        k(    4) = (   0.0000000  -0.1008911   0.0000000), wk =   0.0277778
        k(    5) = (   0.0291247   0.0168152   0.0000000), wk =   0.0555556
        k(    6) = (   0.0291247   0.0504455   0.0000000), wk =   0.0555556
        k(    7) = (   0.0291247   0.0840759   0.0000000), wk =   0.0555556
        k(    8) = (   0.0291247  -0.0840759   0.0000000), wk =   0.0555556
        k(    9) = (   0.0291247  -0.0504455   0.0000000), wk =   0.0555556
        k(   10) = (   0.0291247  -0.0168152   0.0000000), wk =   0.0555556
        k(   11) = (   0.0582495   0.0336304   0.0000000), wk =   0.0555556
        k(   12) = (   0.0582495   0.0672607   0.0000000), wk =   0.0555556
        k(   13) = (   0.0582495   0.1008911   0.0000000), wk =   0.0555556
        k(   14) = (   0.0582495  -0.0672607   0.0000000), wk =   0.0555556
        k(   15) = (   0.0582495  -0.0336304   0.0000000), wk =   0.0555556
        k(   16) = (   0.0582495  -0.0000000   0.0000000), wk =   0.0555556
        k(   17) = (  -0.0873742  -0.0504455   0.0000000), wk =   0.0277778
        k(   18) = (  -0.0873742  -0.0168152   0.0000000), wk =   0.0555556
        k(   19) = (  -0.0873742   0.0168152   0.0000000), wk =   0.0555556
        k(   20) = (  -0.0873742  -0.1513366   0.0000000), wk =   0.0277778
        k(   21) = (   0.0000000   0.0000000   0.0000000), wk =   0.0277778
        k(   22) = (   0.0000000   0.0336304   0.0000000), wk =   0.0555556
        k(   23) = (   0.0000000   0.0672607   0.0000000), wk =   0.0555556
        k(   24) = (   0.0000000  -0.1008911   0.0000000), wk =   0.0277778
        k(   25) = (   0.0291247   0.0168152   0.0000000), wk =   0.0555556
        k(   26) = (   0.0291247   0.0504455   0.0000000), wk =   0.0555556
        k(   27) = (   0.0291247   0.0840759   0.0000000), wk =   0.0555556
        k(   28) = (   0.0291247  -0.0840759   0.0000000), wk =   0.0555556
        k(   29) = (   0.0291247  -0.0504455   0.0000000), wk =   0.0555556
        k(   30) = (   0.0291247  -0.0168152   0.0000000), wk =   0.0555556
        k(   31) = (   0.0582495   0.0336304   0.0000000), wk =   0.0555556
        k(   32) = (   0.0582495   0.0672607   0.0000000), wk =   0.0555556
        k(   33) = (   0.0582495   0.1008911   0.0000000), wk =   0.0555556
        k(   34) = (   0.0582495  -0.0672607   0.0000000), wk =   0.0555556
        k(   35) = (   0.0582495  -0.0336304   0.0000000), wk =   0.0555556
        k(   36) = (   0.0582495  -0.0000000   0.0000000), wk =   0.0555556
        k(   37) = (  -0.0873742  -0.0504455   0.0000000), wk =   0.0277778
        k(   38) = (  -0.0873742  -0.0168152   0.0000000), wk =   0.0555556
        k(   39) = (  -0.0873742   0.0168152   0.0000000), wk =   0.0555556
        k(   40) = (  -0.0873742  -0.1513366   0.0000000), wk =   0.0277778

     Largest allocated arrays     est. size (Mb)     dimensions
     Largest temporary arrays     est. size (Mb)     dimensions

     Initial potential from superposition of free atoms
     Check: negative starting charge=(component1):   -0.002498
     Check: negative starting charge=(component2):   -0.001835

     starting charge  164.97540, renormalised to  171.00000

     negative rho (up, down):  2.590E-03 1.902E-03

     *
     * You are using vdW-DF for exchange-correlation in this calculation.
     * Please cite the following three references that made this development
     * possible:
     *
     *   M. Dion, H. Rydberg, E. Schroder, D. C. Langreth, and
     *   B. I. Lundqvist, Phys. Rev. Lett. 92, 246401 (2004).
     *
     *   T. Thonhauser, V. R. Cooper, S. Li, A. Puzder, P. Hyldgaard, and
     *   D. C. Langreth, Phys. Rev. B 76, 125112 (2007).
     *
     *   G. Roman-Perez and J. M. Soler, Phys. Rev. Lett. 103, 096102 (2009).
     *
     *
     * If you are using vdW-DF2, please also cite:
     *
     *   K. Lee, E. D. Murray, L. Kong, B. I. Lundqvist, and
     *   D. C. Langreth, Phys. Rev. B 82, 081101(R) (2010).
     *
     *
     * If you are calculating the stress with vdW-DF, please also cite:
     *
     *   R. Sabatini, E. Kucukbenli, B. Kolb, T. Thonhauser, and
     *   S. de Gironcoli, J. Phys.: Condens. Matter 24, 424209 (2012).
     *

     Carrying out vdW-DF run using the following parameters:

     Nqs =      20    Nr_points =    1024   r_max =   100.000
     q_mesh =
               0.00001000     0.04494208     0.09755937     0.15916263
               0.23128650     0.31572767     0.41458969     0.53033537
               0.66584808     0.82450364     1.01025438     1.22772762
               1.48234092     1.78043706     2.12944203     2.53805004
               3.01644009     3.57652955     4.23227104     5.00000000

     Gradients computed in reciprocal space

     Adding external electric field

     Computed dipole along edir(3) :
        Dipole               -0.0000 Ry au,         -0.0000 Debye
        Dipole field         -0.0000 Ry au

        Potential amp.        0.0000 Ry
        Total length         45.4585 bohr

[...]

     Starting wfc are  156 randomized atomic wfcs

     Self-consistent Calculation

     iteration #  1     ecut=    36.75 Ry     beta=0.10
     Davidson diagonalization with overlap
     ethr =  1.00E-02,  avg # of iterations =  2.6

[...]

     Magnetic moment per site:
     atom:    1    charge:    1.5129    magn:    0.2148    constr:    0.0000
     atom:    2    charge:    1.5129    magn:    0.2148    constr:    0.0000
     atom:    3    charge:    1.5129    magn:    0.2148    constr:    0.0000
     atom:    4    charge:    9.5489    magn:    1.0238    constr:    0.0000
     atom:    5    charge:    1.5182    magn:    0.2152    constr:    0.0000
     atom:    6    charge:    1.5182    magn:    0.2152    constr:    0.0000
     atom:    7    charge:    1.5182    magn:    0.2152    constr:    0.0000
     atom:    8    charge:    9.5197    magn:    1.0316    constr:    0.0000
[...]
        k(    1) = (   0.0000000   0.0000000   0.0000000), wk =   0.0277778
        k(    2) = (   0.0000000   0.0336304   0.0000000), wk =   0.0555556
        k(    3) = (   0.0000000   0.0672607   0.0000000), wk =   0.0555556
        k(    4) = (   0.0000000  -0.1008911   0.0000000), wk =   0.0277778
        k(    5) = (   0.0291247   0.0168152   0.0000000), wk =   0.0555556
        k(    6) = (   0.0291247   0.0504455   0.0000000), wk =   0.0555556
        k(    7) = (   0.0291247   0.0840759   0.0000000), wk =   0.0555556
        k(    8) = (   0.0291247  -0.0840759   0.0000000), wk =   0.0555556
        k(    9) = (   0.0291247  -0.0504455   0.0000000), wk =   0.0555556
        k(   10) = (   0.0291247  -0.0168152   0.0000000), wk =   0.0555556
        k(   11) = (   0.0582495   0.0336304   0.0000000), wk =   0.0555556
        k(   12) = (   0.0582495   0.0672607   0.0000000), wk =   0.0555556
        k(   13) = (   0.0582495   0.1008911   0.0000000), wk =   0.0555556
        k(   14) = (   0.0582495  -0.0672607   0.0000000), wk =   0.0555556
        k(   15) = (   0.0582495  -0.0336304   0.0000000), wk =   0.0555556
        k(   16) = (   0.0582495  -0.0000000   0.0000000), wk =   0.0555556
        k(   17) = (  -0.0873742  -0.0504455   0.0000000), wk =   0.0277778
        k(   18) = (  -0.0873742  -0.0168152   0.0000000), wk =   0.0555556
        k(   19) = (  -0.0873742   0.0168152   0.0000000), wk =   0.0555556
        k(   20) = (  -0.0873742  -0.1513366   0.0000000), wk =   0.0277778
        k(   21) = (   0.0000000   0.0000000   0.0000000), wk =   0.0277778
        k(   22) = (   0.0000000   0.0336304   0.0000000), wk =   0.0555556
        k(   23) = (   0.0000000   0.0672607   0.0000000), wk =   0.0555556
        k(   24) = (   0.0000000  -0.1008911   0.0000000), wk =   0.0277778
        k(   25) = (   0.0291247   0.0168152   0.0000000), wk =   0.0555556
        k(   26) = (   0.0291247   0.0504455   0.0000000), wk =   0.0555556
        k(   27) = (   0.0291247   0.0840759   0.0000000), wk =   0.0555556
        k(   28) = (   0.0291247  -0.0840759   0.0000000), wk =   0.0555556
        k(   29) = (   0.0291247  -0.0504455   0.0000000), wk =   0.0555556
        k(   30) = (   0.0291247  -0.0168152   0.0000000), wk =   0.0555556
        k(   31) = (   0.0582495   0.0336304   0.0000000), wk =   0.0555556
        k(   32) = (   0.0582495   0.0672607   0.0000000), wk =   0.0555556
        k(   33) = (   0.0582495   0.1008911   0.0000000), wk =   0.0555556
        k(   34) = (   0.0582495  -0.0672607   0.0000000), wk =   0.0555556
        k(   35) = (   0.0582495  -0.0336304   0.0000000), wk =   0.0555556
        k(   36) = (   0.0582495  -0.0000000   0.0000000), wk =   0.0555556
        k(   37) = (  -0.0873742  -0.0504455   0.0000000), wk =   0.0277778
        k(   38) = (  -0.0873742  -0.0168152   0.0000000), wk =   0.0555556
        k(   39) = (  -0.0873742   0.0168152   0.0000000), wk =   0.0555556
        k(   40) = (  -0.0873742  -0.1513366   0.0000000), wk =   0.0277778

     Largest allocated arrays     est. size (Mb)     dimensions
     Largest temporary arrays     est. size (Mb)     dimensions

     Initial potential from superposition of free atoms
     Check: negative starting charge=(component1):   -0.002637
     Check: negative starting charge=(component2):   -0.001935

     starting charge  164.97540, renormalised to  171.00000

[...]

     *
     * You are using vdW-DF for exchange-correlation in this calculation.
     * Please cite the following three references that made this development
     * possible:
     *
     *   M. Dion, H. Rydberg, E. Schroder, D. C. Langreth, and
     *   B. I. Lundqvist, Phys. Rev. Lett. 92, 246401 (2004).
     *
     *   T. Thonhauser, V. R. Cooper, S. Li, A. Puzder, P. Hyldgaard, and
     *   D. C. Langreth, Phys. Rev. B 76, 125112 (2007).
     *
     *   G. Roman-Perez and J. M. Soler, Phys. Rev. Lett. 103, 096102 (2009).
     *
     *
     * If you are using vdW-DF2, please also cite:
     *
     *   K. Lee, E. D. Murray, L. Kong, B. I. Lundqvist, and
     *   D. C. Langreth, Phys. Rev. B 82, 081101(R) (2010).
     *
     *
     * If you are calculating the stress with vdW-DF, please also cite:
     *
     *   R. Sabatini, E. Kucukbenli, B. Kolb, T. Thonhauser, and
     *   S. de Gironcoli, J. Phys.: Condens. Matter 24, 424209 (2012).
     *

     Carrying out vdW-DF run using the following parameters:

     Nqs =      20    Nr_points =    1024   r_max =   100.000
     q_mesh =
               0.00001000     0.04494208     0.09755937     0.15916263
               0.23128650     0.31572767     0.41458969     0.53033537
               0.66584808     0.82450364     1.01025438     1.22772762
               1.48234092     1.78043706     2.12944203     2.53805004
               3.01644009     3.57652955     4.23227104     5.00000000

     Gradients computed in reciprocal space

[...]

     Starting wfc are  156 randomized atomic wfcs

     Self-consistent Calculation

[...]

     total energy              =   -2099.92046188 Ry
     Harris-Foulkes estimate   =   -2099.92045811 Ry
     estimated scf accuracy    <       0.00000162 Ry

[...]

     iteration # 33     ecut=    36.75 Ry     beta=0.10
     Davidson diagonalization with overlap
     ethr =  9.49E-10,  avg # of iterations =  3.0

[...]

     negative rho (up, down):  2.116E-03 2.122E-03

[...]

     Adding external electric field

     Computed dipole along edir(3) :
        Dipole                0.0223 Ry au,          0.0568 Debye
        Dipole field          0.0001 Ry au

        Potential amp.       -0.0054 Ry
        Total length         45.4585 bohr

     Magnetic moment per site:
     atom:    1    charge:    1.4803    magn:    0.0005    constr:    0.0000
     atom:    2    charge:    1.4803    magn:    0.0005    constr:    0.0000
     atom:    3    charge:    1.4803    magn:    0.0005    constr:    0.0000
     atom:    4    charge:    9.3362    magn:   -0.0027    constr:    0.0000
     atom:    5    charge:    1.4816    magn:    0.0000    constr:    0.0000
     atom:    6    charge:    1.4816    magn:    0.0000    constr:    0.0000
     atom:    7    charge:    1.4816    magn:    0.0000    constr:    0.0000
     atom:    8    charge:    9.3182    magn:    0.0039    constr:    0.0000
     atom:    9    charge:    1.4831    magn:    0.0006    constr:    0.0000
     atom:   10    charge:    1.4831    magn:    0.0006    constr:    0.0000
     atom:   11    charge:    1.4831    magn:    0.0006    constr:    0.0000
     atom:   12    charge:    9.3304    magn:   -0.0020    constr:    0.0000

     End of self-consistent calculation

 ------ SPIN UP ------------

[...]

 ------ SPIN DOWN ----------

[...]

          k = 0.0582-0.0000 0.0000 ( 17775 PWs)   bands (ev):

[...]

          k =-0.0874-0.1513 0.0000 ( 17764 PWs)   bands (ev):

  -101.4997-101.2829-101.2333 -61.9076 -61.8376 -61.8373 -61.6669 -61.6529
   -61.6526 -61.6080 -61.6065 -61.6062 -53.2629 -53.2425 -53.2131 -53.1693
   -53.1568 -53.1166 -53.0298 -52.9953 -52.9479 -29.7424 -29.7105 -29.6383
   -29.5577 -29.4889 -29.4572 -29.4048 -29.3913 -29.3462 -29.3298 -29.3031
   -29.2750 -29.2468 -29.2023 -29.1752 -29.1295 -29.1220 -29.0792 -28.9531
   -28.9454 -28.9149 -28.7921 -28.7544 -28.7375 -28.7297 -28.6933 -28.6013
    -2.6200  -2.5181  -1.5552  -1.5244  -1.3456  -1.2147  -0.9085  -0.8454
    -0.8212  -0.7856  -0.5703  -0.4225  -0.4180  -0.3470  -0.2329  -0.2284
    -0.1419   0.0608   0.0844   0.1136   0.2657   0.3126   0.3152   0.3279
     0.3664   0.3679   0.7048   0.8457   0.9376   0.9389   1.0986   1.1829
     1.2245   1.2511   1.3003   1.4512   1.4933   1.5131   1.6580   1.7936
     1.9741   2.2862   2.3677   2.4692   2.4878   2.6201   2.6681   2.7653
     3.1500   3.5792   3.6687   3.7901   3.9836   4.0725   4.0815   4.1713
     4.2304   4.3473   4.4634   4.6677   4.8843   4.9698   5.5652   5.6271
     5.6610   5.7916   6.2310

     the Fermi energy is     1.7771 ev

!    total energy              =   -2099.92047176 Ry
     Harris-Foulkes estimate   =   -2099.92046291 Ry
     estimated scf accuracy    <       0.00000089 Ry

     The total energy is the sum of the following terms:

     one-electron contribution =  -15939.05777222 Ry
     hartree contribution      =    7968.40426578 Ry
     xc contribution           =    -281.67228038 Ry
     ewald contribution        =    6152.50910850 Ry
     electric field correction =       0.00000133 Ry
     smearing contrib. (-TS)   =      -0.10379477 Ry

     total magnetization       =     0.11 Bohr mag/cell
     absolute magnetization    =     0.13 Bohr mag/cell

     convergence has been achieved in  33 iterations

 BEEF-vdW xc energy contributions
           1 :   -244.210592113648
           2 :    221.939135719782
           3 :   -184.090162333977
           4 :    141.046001328435
           5 :   -102.679797162147
           6 :    74.9011166666360
           7 :   -58.4348841627407
           8 :    49.9577721282970
           9 :   -44.6599566557036
          10 :    38.7435767268657
          11 :   -30.7670931251706
          12 :    21.4881932590381
          13 :   -12.7068572068269
          14 :    5.92947719905527
          15 :   -1.59013918798286
          16 :  -0.937331279741557
          17 :    2.73658644413848
          18 :   -4.65045080506951
          19 :    6.88476058313057
          20 :   -9.07751246514511
          21 :    10.6639779933498
          22 :   -11.2645898601789
          23 :    10.8556852489971
          24 :   -9.70172941442826
          25 :    8.15738138146509
          26 :   -6.51235576306823
          27 :    4.94296627529314
          28 :   -3.55447709900665
          29 :    2.42076592461626
          30 :   -1.58260830819745
          31 :   -24.9726743025186
          32 :   -18.4341187140229

     Forces acting on atoms (Ry/au):

     negative rho (up, down):  2.116E-03 2.122E-03
     atom    1 type  1   force =     0.00000001    0.02460106    0.00664899
     atom    2 type  1   force =     0.02130515   -0.01230058    0.00664901
     atom    3 type  1   force =    -0.02130505   -0.01230050    0.00664905
     atom    4 type  2   force =    -0.00000025   -0.00000011    0.01941773
     atom    5 type  1   force =     0.00000002   -0.00293374   -0.00898456
     atom    6 type  1   force =    -0.00254072    0.00146693   -0.00898457
     atom    7 type  1   force =     0.00254074    0.00146687   -0.00898466
     atom    8 type  2   force =     0.00000010   -0.00000000   -0.01252364
     atom    9 type  1   force =     0.00000013    0.00021188    0.00005710
     atom   10 type  1   force =     0.00018343   -0.00010581    0.00005712
     atom   11 type  1   force =    -0.00018341   -0.00010584    0.00005697
     atom   12 type  2   force =    -0.00000015   -0.00000015   -0.00005853

     Total force =     0.052443     Total SCF correction =     0.003462

     entering subroutine stress ...

     negative rho (up, down):  2.116E-03 2.122E-03
          total   stress  (Ry/bohr**3)                   (kbar)     P=  -27.97
  -0.00022379   0.00000000   0.00000000        -32.92      0.00      0.00
   0.00000000  -0.00022379   0.00000000          0.00    -32.92      0.00
   0.00000000   0.00000000  -0.00012283          0.00      0.00    -18.07

 !ASE

     Writing output data file calc.save

     General routines

     Parallel routines

   This run was terminated on:   8: 4:36  27Dec2018

   JOB DONE.
Job  /afs/slac/g/suncat/bin/suncat-tsmpirun -x LD_LIBRARY_PATH -wdir /scratch/qe110196_GqFgs pw.x -in pw.inp

TID   HOST_NAME   COMMAND_LINE            STATUS            TERMINATION_TIME
00000 suncat0048 pw.x -in pw.inp   Done                     12/27/2018 08:04:36
00001 suncat0048 pw.x -in pw.inp   Done                     12/27/2018 08:04:36
00002 suncat0048 pw.x -in pw.inp   Done                     12/27/2018 08:04:36
00003 suncat0048 pw.x -in pw.inp   Done                     12/27/2018 08:04:36
00004 suncat0048 pw.x -in pw.inp   Done                     12/27/2018 08:04:36
00005 suncat0048 pw.x -in pw.inp   Done                     12/27/2018 08:04:36
00006 suncat0048 pw.x -in pw.inp   Done                     12/27/2018 08:04:36
00007 suncat0048 pw.x -in pw.inp   Done                     12/27/2018 08:04:36
00008 suncat0047 pw.x -in pw.inp   Done                     12/27/2018 08:04:36
00009 suncat0047 pw.x -in pw.inp   Done                     12/27/2018 08:04:36
00010 suncat0047 pw.x -in pw.inp   Done                     12/27/2018 08:04:36
00011 suncat0047 pw.x -in pw.inp   Done                     12/27/2018 08:04:36
00012 suncat0047 pw.x -in pw.inp   Done                     12/27/2018 08:04:36
00013 suncat0047 pw.x -in pw.inp   Done                     12/27/2018 08:04:36
00014 suncat0047 pw.x -in pw.inp   Done                     12/27/2018 08:04:36
00015 suncat0047 pw.x -in pw.inp   Done                     12/27/2018 08:04:36
00016 suncat0024 pw.x -in pw.inp   Done                     12/27/2018 08:04:36
00017 suncat0024 pw.x -in pw.inp   Done                     12/27/2018 08:04:36
00018 suncat0024 pw.x -in pw.inp   Done                     12/27/2018 08:04:36
00019 suncat0024 pw.x -in pw.inp   Done                     12/27/2018 08:04:36
00020 suncat0024 pw.x -in pw.inp   Done                     12/27/2018 08:04:36
00021 suncat0024 pw.x -in pw.inp   Done                     12/27/2018 08:04:36
00022 suncat0024 pw.x -in pw.inp   Done                     12/27/2018 08:04:36
00023 suncat0024 pw.x -in pw.inp   Done                     12/27/2018 08:04:36
00024 suncat0023 pw.x -in pw.inp   Done                     12/27/2018 08:04:36
00025 suncat0023 pw.x -in pw.inp   Done                     12/27/2018 08:04:36
00026 suncat0023 pw.x -in pw.inp   Done                     12/27/2018 08:04:36
00027 suncat0023 pw.x -in pw.inp   Done                     12/27/2018 08:04:36
00028 suncat0023 pw.x -in pw.inp   Done                     12/27/2018 08:04:36
00029 suncat0023 pw.x -in pw.inp   Done                     12/27/2018 08:04:36
00030 suncat0023 pw.x -in pw.inp   Done                     12/27/2018 08:04:36
00031 suncat0023 pw.x -in pw.inp   Done                     12/27/2018 08:04:36
00032 suncat0022 pw.x -in pw.inp   Done                     12/27/2018 08:04:36
00033 suncat0022 pw.x -in pw.inp   Done                     12/27/2018 08:04:36
00034 suncat0022 pw.x -in pw.inp   Done                     12/27/2018 08:04:36
00035 suncat0022 pw.x -in pw.inp   Done                     12/27/2018 08:04:36
00036 suncat0022 pw.x -in pw.inp   Done                     12/27/2018 08:04:36
00037 suncat0022 pw.x -in pw.inp   Done                     12/27/2018 08:04:36
00038 suncat0022 pw.x -in pw.inp   Done                     12/27/2018 08:04:36
00039 suncat0022 pw.x -in pw.inp   Done                     12/27/2018 08:04:36
00040 suncat0018 pw.x -in pw.inp   Done                     12/27/2018 08:04:36
00041 suncat0018 pw.x -in pw.inp   Done                     12/27/2018 08:04:36
00042 suncat0018 pw.x -in pw.inp   Done                     12/27/2018 08:04:36
00043 suncat0018 pw.x -in pw.inp   Done                     12/27/2018 08:04:36
00044 suncat0018 pw.x -in pw.inp   Done                     12/27/2018 08:04:36
00045 suncat0018 pw.x -in pw.inp   Done                     12/27/2018 08:04:36
00046 suncat0018 pw.x -in pw.inp   Done                     12/27/2018 08:04:36
00047 suncat0018 pw.x -in pw.inp   Done                     12/27/2018 08:04:36
00048 suncat0017 pw.x -in pw.inp   Done                     12/27/2018 08:04:36
00049 suncat0017 pw.x -in pw.inp   Done                     12/27/2018 08:04:36
00050 suncat0017 pw.x -in pw.inp   Done                     12/27/2018 08:04:36
00051 suncat0017 pw.x -in pw.inp   Done                     12/27/2018 08:04:36
00052 suncat0017 pw.x -in pw.inp   Done                     12/27/2018 08:04:36
00053 suncat0017 pw.x -in pw.inp   Done                     12/27/2018 08:04:36
00054 suncat0017 pw.x -in pw.inp   Done                     12/27/2018 08:04:36
00055 suncat0017 pw.x -in pw.inp   Done                     12/27/2018 08:04:36
00056 suncat0016 pw.x -in pw.inp   Done                     12/27/2018 08:04:36
00057 suncat0016 pw.x -in pw.inp   Done                     12/27/2018 08:04:36
00058 suncat0016 pw.x -in pw.inp   Done                     12/27/2018 08:04:36
00059 suncat0016 pw.x -in pw.inp   Done                     12/27/2018 08:04:36
00060 suncat0016 pw.x -in pw.inp   Done                     12/27/2018 08:04:36
00061 suncat0016 pw.x -in pw.inp   Done                     12/27/2018 08:04:36
00062 suncat0016 pw.x -in pw.inp   Done                     12/27/2018 08:04:36
00063 suncat0016 pw.x -in pw.inp   Done                     12/27/2018 08:04:36