     Program PWSCF v.5.1rc2 (svn rev. 11289) starts on 19Dec2018 at 18:20:51

     Current dimensions of program PWSCF are:
     Max number of different atomic species (ntypx) = 10
     Max number of k-points (npk) =  40000
     Max angular momentum in pseudopotentials (lmaxx) =  3
     Presently stress not available with electric field

     IMPORTANT: XC functional enforced from input :
     Exchange-correlation      = BEEF-VDW ( 1  4 27 13 2)
     Any further DFT definition will be discarded
     Please, verify this is what you really want

     Subspace diagonalization in iterative solution of the eigenvalue problem:
     a serial algorithm will be used

     bravais-lattice index     =            0
     lattice parameter (alat)  =       1.8897  a.u.
     unit-cell volume          =    4314.2941 (a.u.)^3
     number of atoms/cell      =           12
     number of atomic types    =            2
     number of electrons       =        72.00
     number of Kohn-Sham states=           66
     kinetic-energy cutoff     =      36.7493  Ry
     charge density cutoff     =     367.4932  Ry
     convergence threshold     =      1.0E-06
     mixing beta               =       0.1000
     number of iterations used =           10  plain     mixing
     Exchange-correlation      = BEEF-VDW ( 1  4 27 13 2)
     nstep                     =           50

     celldm(1)=   1.889726  celldm(2)=   0.000000  celldm(3)=   0.000000
     celldm(4)=   0.000000  celldm(5)=   0.000000  celldm(6)=   0.000000

     crystal axes: (cart. coord. in units of alat)
               a(1) = (   5.491048   0.000000   0.000000 )
               a(2) = (  -2.745524   4.755387   0.000000 )
               a(3) = (   0.000000   0.000000  24.483422 )

     reciprocal axes: (cart. coord. in units 2 pi/alat)
               b(1) = (  0.182115  0.105144  0.000000 )
               b(2) = (  0.000000  0.210288  0.000000 )
               b(3) = (  0.000000  0.000000  0.040844 )

     PseudoPot. # 1 for Al read from file:
     /afs/slac.stanford.edu/u/if/mamunm/psp/gbrv1.5pbe/Al.UPF
     MD5 check sum: 0a6289f5291fc8f409219462bc851e1f
     Pseudo is Ultrasoft + core correction, Zval =  3.0
     Generated by new atomic code, or converted to UPF format
     Using radial grid of  893 points,  3 beta functions with:
                l(1) =   0
                l(2) =   1
                l(3) =   2
     Q(r) pseudized with  8 coefficients,  rinner =    0.900   0.900   0.900
                                                       0.900   0.900

     PseudoPot. # 2 for Tc read from file:
     /afs/slac.stanford.edu/u/if/mamunm/psp/gbrv1.5pbe/Tc.UPF
     MD5 check sum: 9eb49e5b028550b2339a02317eb7b844
     Pseudo is Ultrasoft + core correction, Zval = 15.0
     Generated by new atomic code, or converted to UPF format
     Using radial grid of  965 points,  6 beta functions with:
                l(1) =   0
                l(2) =   0
                l(3) =   1
                l(4) =   1
                l(5) =   2
                l(6) =   2
     Q(r) pseudized with  8 coefficients,  rinner =    1.300   1.300   1.300
                                                       1.300   1.300

     vdW kernel table read from file vdW_kernel_table
     MD5 check sum: 095c7af220d748ca6e76c0b4c6cfb241

     atomic species   valence    mass     pseudopotential
        Al1            3.00    26.98154     Al( 1.00)
        Tc1           15.00    97.90721     Tc( 1.00)

     No symmetry found

   Cartesian axes

     site n.     atom                  positions (alat units)
         1           Al1 tau(   1) = (   0.0000000   0.0000000  10.0000000  )
         2           Al1 tau(   2) = (  -1.3727619   2.3776933  10.0000000  )
         3           Al1 tau(   3) = (   1.3727619   2.3776933  10.0000000  )
         4           Tc1 tau(   4) = (   2.7455238   0.0000000  10.0000000  )
         5           Al1 tau(   5) = (   2.7455238   1.5851289  12.2417108  )
         6           Al1 tau(   6) = (   1.3727619   3.9628222  12.2417108  )
         7           Al1 tau(   7) = (  -1.3727619   3.9628222  12.2417108  )
         8           Tc1 tau(   8) = (   0.0000000   1.5851289  12.2417108  )
         9           Al1 tau(   9) = (  -0.0000000   3.1702578  14.4834215  )
        10           Al1 tau(  10) = (   1.3727619   0.7925644  14.4834215  )
        11           Al1 tau(  11) = (   4.1182856   0.7925644  14.4834215  )
        12           Tc1 tau(  12) = (   2.7455238   3.1702578  14.4834215  )

     number of k points=    20  Fermi-Dirac smearing, width (Ry)=  0.0110
                       cart. coord. in units 2pi/alat
        k(    1) = (   0.0000000   0.0000000   0.0000000), wk =   0.0555556
        k(    2) = (   0.0000000   0.0350480   0.0000000), wk =   0.1111111
        k(    3) = (   0.0000000   0.0700959   0.0000000), wk =   0.1111111
        k(    4) = (   0.0000000  -0.1051439   0.0000000), wk =   0.0555556
        k(    5) = (   0.0303524   0.0175240   0.0000000), wk =   0.1111111
        k(    6) = (   0.0303524   0.0525720   0.0000000), wk =   0.1111111
        k(    7) = (   0.0303524   0.0876199   0.0000000), wk =   0.1111111
        k(    8) = (   0.0303524  -0.0876199   0.0000000), wk =   0.1111111
        k(    9) = (   0.0303524  -0.0525720   0.0000000), wk =   0.1111111
        k(   10) = (   0.0303524  -0.0175240   0.0000000), wk =   0.1111111
        k(   11) = (   0.0607049   0.0350480   0.0000000), wk =   0.1111111
        k(   12) = (   0.0607049   0.0700959   0.0000000), wk =   0.1111111
        k(   13) = (   0.0607049   0.1051439   0.0000000), wk =   0.1111111
        k(   14) = (   0.0607049  -0.0700959   0.0000000), wk =   0.1111111
        k(   15) = (   0.0607049  -0.0350480   0.0000000), wk =   0.1111111
        k(   16) = (   0.0607049   0.0000000   0.0000000), wk =   0.1111111
        k(   17) = (  -0.0910573  -0.0525720   0.0000000), wk =   0.0555556
        k(   18) = (  -0.0910573  -0.0175240   0.0000000), wk =   0.1111111
        k(   19) = (  -0.0910573   0.0175240   0.0000000), wk =   0.1111111
        k(   20) = (  -0.0910573  -0.1577159   0.0000000), wk =   0.0555556

     Largest allocated arrays     est. size (Mb)     dimensions
     Largest temporary arrays     est. size (Mb)     dimensions

     Check: negative/imaginary core charge=   -0.000008    0.000000

     Initial potential from superposition of free atoms
     Check: negative starting charge=   -0.375244

     starting charge   68.97773, renormalised to   72.00000

     negative rho (up, down):  3.917E-01 0.000E+00

     *
     * You are using vdW-DF for exchange-correlation in this calculation.
     * Please cite the following three references that made this development
     * possible:
     *
     *   M. Dion, H. Rydberg, E. Schroder, D. C. Langreth, and
     *   B. I. Lundqvist, Phys. Rev. Lett. 92, 246401 (2004).
     *
     *   T. Thonhauser, V. R. Cooper, S. Li, A. Puzder, P. Hyldgaard, and
     *   D. C. Langreth, Phys. Rev. B 76, 125112 (2007).
     *
     *   G. Roman-Perez and J. M. Soler, Phys. Rev. Lett. 103, 096102 (2009).
     *
     *
     * If you are using vdW-DF2, please also cite:
     *
     *   K. Lee, E. D. Murray, L. Kong, B. I. Lundqvist, and
     *   D. C. Langreth, Phys. Rev. B 82, 081101(R) (2010).
     *
     *
     * If you are calculating the stress with vdW-DF, please also cite:
     *
     *   R. Sabatini, E. Kucukbenli, B. Kolb, T. Thonhauser, and
     *   S. de Gironcoli, J. Phys.: Condens. Matter 24, 424209 (2012).
     *

     Carrying out vdW-DF run using the following parameters:

     Nqs =      20    Nr_points =    1024   r_max =   100.000
     q_mesh =
               0.00001000     0.04494208     0.09755937     0.15916263
               0.23128650     0.31572767     0.41458969     0.53033537
               0.66584808     0.82450364     1.01025438     1.22772762
               1.48234092     1.78043706     2.12944203     2.53805004
               3.01644009     3.57652955     4.23227104     5.00000000

     Gradients computed in reciprocal space

     Adding external electric field

     Computed dipole along edir(3) :
        Dipole                0.0000 Ry au,          0.0000 Debye
        Dipole field          0.0000 Ry au

        Potential amp.       -0.0000 Ry
        Total length         45.1103 bohr

     Starting wfc are   75 randomized atomic wfcs

     Self-consistent Calculation

     iteration #  1     ecut=    36.75 Ry     beta=0.10
     Davidson diagonalization with overlap
     ethr =  1.00E-02,  avg # of iterations =  6.8

[...]

     total energy              =    -587.80107136 Ry
     Harris-Foulkes estimate   =    -588.78753248 Ry
     estimated scf accuracy    <       5.80788885 Ry

[...]

     End of self-consistent calculation

          k = 0.0000 0.0000 0.0000 ( 16103 PWs)   bands (ev):

   -66.7073 -66.6666 -66.6666 -38.7985 -38.7985 -38.7323 -38.7023 -38.7023
   -38.7020 -38.7020 -38.6929 -38.6919 -10.4617  -8.6474  -6.4519  -5.3545
    -5.3545  -4.5435  -4.4957  -4.4957  -3.9918  -3.9918  -3.8036  -2.9926
    -2.8898  -2.8898  -2.2757  -1.7280  -1.7280  -1.4145  -0.9374  -0.9374
    -0.9072  -0.9072  -0.8622  -0.6362  -0.6362  -0.2198  -0.0075  -0.0075
     1.0905   2.1299   2.2092   2.3762   2.3762   2.4252   2.4252   2.9040
     2.9919   2.9919   3.6891   3.7412   4.2185   4.7597   4.9501   5.0527
     5.0527   5.2436   5.5781   5.5781   6.4835   6.5254   6.6140   7.1786
     7.1786   7.8235

[...]

          k =-0.0911-0.0526 0.0000 ( 16180 PWs)   bands (ev):

[...]

     the Fermi energy is    -0.1454 ev

!    total energy              =    -587.86530600 Ry
     Harris-Foulkes estimate   =    -587.86530136 Ry
     estimated scf accuracy    <       0.00000022 Ry

     The total energy is the sum of the following terms:

     one-electron contribution =   -3123.83022958 Ry
     hartree contribution      =    1563.89615420 Ry
     xc contribution           =    -139.61438771 Ry
     ewald contribution        =    1111.73352918 Ry
     electric field correction =       0.00000000 Ry
     smearing contrib. (-TS)   =      -0.05037208 Ry

     convergence has been achieved in  15 iterations

 BEEF-vdW xc energy contributions
           1 :   -120.152540813404
           2 :    108.487880366234
           3 :   -88.8689069023085
           4 :    66.6549368701036
           5 :   -46.4165973761093
           6 :    30.4053132244196
           7 :   -18.6272622076544
           8 :    9.96758888214484
           9 :   -3.38063745929418
          10 :   -1.62401083494939
          11 :    5.16166092695286
          12 :   -7.33590578946712
          13 :    8.33233300057013
          14 :   -8.26241649046841
          15 :    7.04917535582382
          16 :   -4.59159044417044
          17 :    1.08376431664470
          18 :    2.81749559788702
          19 :   -6.18951126508716
          20 :    8.27734961349321
          21 :   -8.84518142463787
          22 :    8.18621651307831
          23 :   -6.82313929069511
          24 :    5.15081732176992
          25 :   -3.28782445066696
          26 :    1.19086299613232
          27 :    1.11728267113952
          28 :   -3.42082045286844
[...]

     crystal axes: (cart. coord. in units of alat)
               a(1) = (   5.491048   0.000000   0.000000 )
               a(2) = (  -2.745524   4.755387   0.000000 )
               a(3) = (   0.000000   0.000000  24.483422 )

     reciprocal axes: (cart. coord. in units 2 pi/alat)
               b(1) = (  0.182115  0.105144  0.000000 )
               b(2) = (  0.000000  0.210288  0.000000 )
               b(3) = (  0.000000  0.000000  0.040844 )

     PseudoPot. # 1 for Al read from file:
     /afs/slac.stanford.edu/u/if/mamunm/psp/gbrv1.5pbe/Al.UPF
     MD5 check sum: 0a6289f5291fc8f409219462bc851e1f
     Pseudo is Ultrasoft + core correction, Zval =  3.0
     Generated by new atomic code, or converted to UPF format
     Using radial grid of  893 points,  3 beta functions with:
                l(1) =   0
                l(2) =   1
                l(3) =   2
     Q(r) pseudized with  8 coefficients,  rinner =    0.900   0.900   0.900
                                                       0.900   0.900

     PseudoPot. # 2 for Tc read from file:
     /afs/slac.stanford.edu/u/if/mamunm/psp/gbrv1.5pbe/Tc.UPF
     MD5 check sum: 9eb49e5b028550b2339a02317eb7b844
     Pseudo is Ultrasoft + core correction, Zval = 15.0
     Generated by new atomic code, or converted to UPF format
     Using radial grid of  965 points,  6 beta functions with:
                l(1) =   0
                l(2) =   0
                l(3) =   1
                l(4) =   1
                l(5) =   2
                l(6) =   2
     Q(r) pseudized with  8 coefficients,  rinner =    1.300   1.300   1.300
                                                       1.300   1.300

     vdW kernel table read from file vdW_kernel_table
     MD5 check sum: 095c7af220d748ca6e76c0b4c6cfb241

     atomic species   valence    mass     pseudopotential
        Al1            3.00    26.98154     Al( 1.00)
        Tc1           15.00    97.90721     Tc( 1.00)

     No symmetry found

   Cartesian axes

     site n.     atom                  positions (alat units)
         1           Al1 tau(   1) = (   0.0000000   0.0000000  10.0000000  )
         2           Al1 tau(   2) = (  -1.3727619   2.3776933  10.0000000  )
         3           Al1 tau(   3) = (   1.3727619   2.3776933  10.0000000  )
         4           Tc1 tau(   4) = (   2.7455238   0.0000000  10.0000000  )
         5           Al1 tau(   5) = (   2.7455238   1.5851289  12.2417108  )
         6           Al1 tau(   6) = (   1.3727619   3.9628222  12.2417108  )
         7           Al1 tau(   7) = (  -1.3727619   3.9628222  12.2417108  )
         8           Tc1 tau(   8) = (   0.0000000   1.5851289  12.2417108  )
         9           Al1 tau(   9) = (   0.0000005   3.1589298  14.6261472  )
        10           Al1 tau(  10) = (   1.3629515   0.7982284  14.6261473  )
        11           Al1 tau(  11) = (   4.1280964   0.7982281  14.6261472  )
        12           Tc1 tau(  12) = (   2.7455262   3.1702601  14.2729954  )

     number of k points=    20  Fermi-Dirac smearing, width (Ry)=  0.0110
                       cart. coord. in units 2pi/alat
        k(    1) = (   0.0000000   0.0000000   0.0000000), wk =   0.0555556
        k(    2) = (   0.0000000   0.0350480   0.0000000), wk =   0.1111111
        k(    3) = (   0.0000000   0.0700959   0.0000000), wk =   0.1111111
        k(    4) = (   0.0000000  -0.1051439   0.0000000), wk =   0.0555556
        k(    5) = (   0.0303524   0.0175240   0.0000000), wk =   0.1111111
        k(    6) = (   0.0303524   0.0525720   0.0000000), wk =   0.1111111
        k(    7) = (   0.0303524   0.0876199   0.0000000), wk =   0.1111111
        k(    8) = (   0.0303524  -0.0876199   0.0000000), wk =   0.1111111
        k(    9) = (   0.0303524  -0.0525720   0.0000000), wk =   0.1111111
        k(   10) = (   0.0303524  -0.0175240   0.0000000), wk =   0.1111111
        k(   11) = (   0.0607049   0.0350480   0.0000000), wk =   0.1111111
        k(   12) = (   0.0607049   0.0700959   0.0000000), wk =   0.1111111
        k(   13) = (   0.0607049   0.1051439   0.0000000), wk =   0.1111111
        k(   14) = (   0.0607049  -0.0700959   0.0000000), wk =   0.1111111
        k(   15) = (   0.0607049  -0.0350480   0.0000000), wk =   0.1111111
        k(   16) = (   0.0607049   0.0000000   0.0000000), wk =   0.1111111
        k(   17) = (  -0.0910573  -0.0525720   0.0000000), wk =   0.0555556
        k(   18) = (  -0.0910573  -0.0175240   0.0000000), wk =   0.1111111
        k(   19) = (  -0.0910573   0.0175240   0.0000000), wk =   0.1111111
        k(   20) = (  -0.0910573  -0.1577159   0.0000000), wk =   0.0555556

     Largest allocated arrays     est. size (Mb)     dimensions
     Largest temporary arrays     est. size (Mb)     dimensions

     Check: negative/imaginary core charge=   -0.000008    0.000000

     Initial potential from superposition of free atoms
     Check: negative starting charge=   -0.373229

     starting charge   68.97773, renormalised to   72.00000

[...]

     *
     * You are using vdW-DF for exchange-correlation in this calculation.
     * Please cite the following three references that made this development
     * possible:
     *
     *   M. Dion, H. Rydberg, E. Schroder, D. C. Langreth, and
     *   B. I. Lundqvist, Phys. Rev. Lett. 92, 246401 (2004).
     *
     *   T. Thonhauser, V. R. Cooper, S. Li, A. Puzder, P. Hyldgaard, and
     *   D. C. Langreth, Phys. Rev. B 76, 125112 (2007).
     *
     *   G. Roman-Perez and J. M. Soler, Phys. Rev. Lett. 103, 096102 (2009).
     *
     *
     * If you are using vdW-DF2, please also cite:
     *
     *   K. Lee, E. D. Murray, L. Kong, B. I. Lundqvist, and
     *   D. C. Langreth, Phys. Rev. B 82, 081101(R) (2010).
     *
     *
     * If you are calculating the stress with vdW-DF, please also cite:
     *
     *   R. Sabatini, E. Kucukbenli, B. Kolb, T. Thonhauser, and
     *   S. de Gironcoli, J. Phys.: Condens. Matter 24, 424209 (2012).
     *

     Carrying out vdW-DF run using the following parameters:

     Nqs =      20    Nr_points =    1024   r_max =   100.000
     q_mesh =
               0.00001000     0.04494208     0.09755937     0.15916263
               0.23128650     0.31572767     0.41458969     0.53033537
               0.66584808     0.82450364     1.01025438     1.22772762
               1.48234092     1.78043706     2.12944203     2.53805004
               3.01644009     3.57652955     4.23227104     5.00000000

     Gradients computed in reciprocal space

[...]

     Starting wfc are   75 randomized atomic wfcs

     Self-consistent Calculation

[...]

     total energy              =    -587.89203714 Ry
     Harris-Foulkes estimate   =    -587.89203687 Ry
     estimated scf accuracy    <       0.00000257 Ry

     iteration # 17     ecut=    36.75 Ry     beta=0.10
     Davidson diagonalization with overlap
     ethr =  3.57E-09,  avg # of iterations =  1.0

[...]

     negative rho (up, down):  3.869E-01 0.000E+00

     Adding external electric field

     Computed dipole along edir(3) :
        Dipole                0.0812 Ry au,          0.2063 Debye
        Dipole field          0.0002 Ry au

        Potential amp.       -0.0213 Ry
        Total length         45.1103 bohr

     End of self-consistent calculation

[...]

          k = 0.0607 0.0000 0.0000 ( 16246 PWs)   bands (ev):

[...]

          k =-0.0911-0.1577 0.0000 ( 16180 PWs)   bands (ev):

   -66.6548 -66.6311 -66.5554 -38.7255 -38.7232 -38.7163 -38.7115 -38.6795
   -38.6412 -38.5957 -38.5818 -38.5818  -8.8095  -8.5253  -7.1122  -6.8317
    -5.8841  -5.4533  -4.8595  -4.3227  -4.2660  -3.7003  -3.0436  -3.0364
    -2.4469  -2.3753  -2.2602  -2.2176  -2.0574  -1.4583  -1.3474  -0.9998
    -0.6238  -0.3318  -0.1800   0.0427   0.1225   0.4299   0.6489   0.9339
     1.3518   2.1181   2.4255   2.6900   2.7652   2.8238   3.4159   3.4179
     3.7162   3.9012   4.3383   4.8581   4.9673   5.0382   5.1289   5.2296
     5.3005   5.3929   5.5585   5.6733   5.8961   6.1079   6.2661   6.2899
     6.3428   6.6255

     the Fermi energy is    -0.0126 ev

!    total energy              =    -587.89203834 Ry
     Harris-Foulkes estimate   =    -587.89203782 Ry
     estimated scf accuracy    <       0.00000098 Ry

     The total energy is the sum of the following terms:

     one-electron contribution =   -3152.59477852 Ry
     hartree contribution      =    1578.43499730 Ry
     xc contribution           =    -139.57774563 Ry
     ewald contribution        =    1125.89612087 Ry
     electric field correction =       0.00001918 Ry
     smearing contrib. (-TS)   =      -0.05065154 Ry

     convergence has been achieved in  17 iterations

 BEEF-vdW xc energy contributions
           1 :   -120.120332067678
           2 :    108.449530914943
           3 :   -88.8191131406307
           4 :    66.5875784158552
           5 :   -46.3192738915720
           6 :    30.2591845346668
           7 :   -18.4173169867302
           8 :    9.69521127456670
           9 :   -3.06335716272525
          10 :   -1.96731817266374
          11 :    5.52552835835067
          12 :   -7.72873386060672
          13 :    8.76177323777051
          14 :   -8.72141667803683
          15 :    7.51989483389410
          16 :   -5.06397878982528
          17 :    1.56819157966743
          18 :    2.29937084667441
          19 :   -5.62967544937561
          20 :    7.69907770614725
          21 :   -8.29281378639203
          22 :    7.69341310396206
          23 :   -6.38733908043673
          24 :    4.73679905980011
          25 :   -2.85792715068391
          26 :   0.736020159706982
          27 :    1.57177458254870
          28 :   -3.83620076251495
          29 :    5.71908744117017
          30 :   -6.92314268434797
          31 :   -13.1837102970160
          32 :   -9.65579979730759

     Forces acting on atoms (Ry/au):

     negative rho (up, down):  3.869E-01 0.000E+00
     atom    1 type  1   force =     0.00000000    0.00528895   -0.02671287
     atom    2 type  1   force =     0.00458039   -0.00264442   -0.02671288
     atom    3 type  1   force =    -0.00458035   -0.00264443   -0.02671284
     atom    4 type  2   force =     0.00000007   -0.00000005    0.07196277
     atom    5 type  1   force =    -0.00000003   -0.01659615   -0.01085657
     atom    6 type  1   force =    -0.01437277    0.00829809   -0.01085671
     atom    7 type  1   force =     0.01437296    0.00829825   -0.01085693
     atom    8 type  2   force =    -0.00000026   -0.00000001    0.03985550
     atom    9 type  1   force =     0.00000016    0.00122956    0.00080736
     atom   10 type  1   force =     0.00106510   -0.00061442    0.00080734
     atom   11 type  1   force =    -0.00106491   -0.00061455    0.00080737
     atom   12 type  2   force =    -0.00000035   -0.00000083   -0.00153155

     Total force =     0.100898     Total SCF correction =     0.000587

     entering subroutine stress ...

     negative rho (up, down):  3.869E-01 0.000E+00
          total   stress  (Ry/bohr**3)                   (kbar)     P=  -18.53
  -0.00019249   0.00000000   0.00000000        -28.32      0.00      0.00
   0.00000000  -0.00019249   0.00000000          0.00    -28.32      0.00
   0.00000000   0.00000000   0.00000714          0.00      0.00      1.05

 !ASE

     Writing output data file calc.save

     General routines

     Parallel routines

   This run was terminated on:  18:57:52  19Dec2018

   JOB DONE.
Job  /afs/slac/g/suncat/bin/suncat-tsmpirun -x LD_LIBRARY_PATH -wdir /scratch/qe773306_BzsUZ pw.x -in pw.inp

TID   HOST_NAME   COMMAND_LINE            STATUS            TERMINATION_TIME
00000 suncat0169 pw.x -in pw.inp   Done                     12/19/2018 18:57:52
00001 suncat0169 pw.x -in pw.inp   Done                     12/19/2018 18:57:52
00002 suncat0169 pw.x -in pw.inp   Done                     12/19/2018 18:57:52
00003 suncat0169 pw.x -in pw.inp   Done                     12/19/2018 18:57:52
00004 suncat0169 pw.x -in pw.inp   Done                     12/19/2018 18:57:52
00005 suncat0169 pw.x -in pw.inp   Done                     12/19/2018 18:57:52
00006 suncat0169 pw.x -in pw.inp   Done                     12/19/2018 18:57:52
00007 suncat0169 pw.x -in pw.inp   Done                     12/19/2018 18:57:52
00008 suncat0168 pw.x -in pw.inp   Done                     12/19/2018 18:57:52
00009 suncat0168 pw.x -in pw.inp   Done                     12/19/2018 18:57:52
00010 suncat0168 pw.x -in pw.inp   Done                     12/19/2018 18:57:52
00011 suncat0168 pw.x -in pw.inp   Done                     12/19/2018 18:57:52
00012 suncat0168 pw.x -in pw.inp   Done                     12/19/2018 18:57:52
00013 suncat0168 pw.x -in pw.inp   Done                     12/19/2018 18:57:52
00014 suncat0168 pw.x -in pw.inp   Done                     12/19/2018 18:57:52
00015 suncat0168 pw.x -in pw.inp   Done                     12/19/2018 18:57:52
00016 suncat0110 pw.x -in pw.inp   Done                     12/19/2018 18:57:52
00017 suncat0110 pw.x -in pw.inp   Done                     12/19/2018 18:57:52
00018 suncat0110 pw.x -in pw.inp   Done                     12/19/2018 18:57:52
00019 suncat0110 pw.x -in pw.inp   Done                     12/19/2018 18:57:52
00020 suncat0110 pw.x -in pw.inp   Done                     12/19/2018 18:57:52
00021 suncat0110 pw.x -in pw.inp   Done                     12/19/2018 18:57:52
00022 suncat0110 pw.x -in pw.inp   Done                     12/19/2018 18:57:52
00023 suncat0110 pw.x -in pw.inp   Done                     12/19/2018 18:57:52
00024 suncat0109 pw.x -in pw.inp   Done                     12/19/2018 18:57:52
00025 suncat0109 pw.x -in pw.inp   Done                     12/19/2018 18:57:52
00026 suncat0109 pw.x -in pw.inp   Done                     12/19/2018 18:57:52
00027 suncat0109 pw.x -in pw.inp   Done                     12/19/2018 18:57:52
00028 suncat0109 pw.x -in pw.inp   Done                     12/19/2018 18:57:52
00029 suncat0109 pw.x -in pw.inp   Done                     12/19/2018 18:57:52
00030 suncat0109 pw.x -in pw.inp   Done                     12/19/2018 18:57:52
00031 suncat0109 pw.x -in pw.inp   Done                     12/19/2018 18:57:52
00032 suncat0108 pw.x -in pw.inp   Done                     12/19/2018 18:57:52
00033 suncat0108 pw.x -in pw.inp   Done                     12/19/2018 18:57:52
00034 suncat0108 pw.x -in pw.inp   Done                     12/19/2018 18:57:52
00035 suncat0108 pw.x -in pw.inp   Done                     12/19/2018 18:57:52
00036 suncat0108 pw.x -in pw.inp   Done                     12/19/2018 18:57:52
00037 suncat0108 pw.x -in pw.inp   Done                     12/19/2018 18:57:52
00038 suncat0108 pw.x -in pw.inp   Done                     12/19/2018 18:57:52
00039 suncat0108 pw.x -in pw.inp   Done                     12/19/2018 18:57:52
00040 suncat0107 pw.x -in pw.inp   Done                     12/19/2018 18:57:52
00041 suncat0107 pw.x -in pw.inp   Done                     12/19/2018 18:57:52
00042 suncat0107 pw.x -in pw.inp   Done                     12/19/2018 18:57:52
00043 suncat0107 pw.x -in pw.inp   Done                     12/19/2018 18:57:52
00044 suncat0107 pw.x -in pw.inp   Done                     12/19/2018 18:57:52
00045 suncat0107 pw.x -in pw.inp   Done                     12/19/2018 18:57:52
00046 suncat0107 pw.x -in pw.inp   Done                     12/19/2018 18:57:52
00047 suncat0107 pw.x -in pw.inp   Done                     12/19/2018 18:57:52
00048 suncat0106 pw.x -in pw.inp   Done                     12/19/2018 18:57:52
00049 suncat0106 pw.x -in pw.inp   Done                     12/19/2018 18:57:52
00050 suncat0106 pw.x -in pw.inp   Done                     12/19/2018 18:57:52
00051 suncat0106 pw.x -in pw.inp   Done                     12/19/2018 18:57:52
00052 suncat0106 pw.x -in pw.inp   Done                     12/19/2018 18:57:52
00053 suncat0106 pw.x -in pw.inp   Done                     12/19/2018 18:57:52
00054 suncat0106 pw.x -in pw.inp   Done                     12/19/2018 18:57:52
00055 suncat0106 pw.x -in pw.inp   Done                     12/19/2018 18:57:52
00056 suncat0105 pw.x -in pw.inp   Done                     12/19/2018 18:57:52
00057 suncat0105 pw.x -in pw.inp   Done                     12/19/2018 18:57:52
00058 suncat0105 pw.x -in pw.inp   Done                     12/19/2018 18:57:52
00059 suncat0105 pw.x -in pw.inp   Done                     12/19/2018 18:57:52
00060 suncat0105 pw.x -in pw.inp   Done                     12/19/2018 18:57:52
00061 suncat0105 pw.x -in pw.inp   Done                     12/19/2018 18:57:52
00062 suncat0105 pw.x -in pw.inp   Done                     12/19/2018 18:57:52
00063 suncat0105 pw.x -in pw.inp   Done                     12/19/2018 18:57:52