     Program PWSCF v.5.1rc2 (svn rev. 11289) starts on 26Dec2018 at 10:15:26

     Current dimensions of program PWSCF are:
     Max number of different atomic species (ntypx) = 10
     Max number of k-points (npk) =  40000
     Max angular momentum in pseudopotentials (lmaxx) =  3
     Presently stress not available with electric field

     IMPORTANT: XC functional enforced from input :
     Exchange-correlation      = BEEF-VDW ( 1  4 27 13 2)
     Any further DFT definition will be discarded
     Please, verify this is what you really want

     Subspace diagonalization in iterative solution of the eigenvalue problem:
     a serial algorithm will be used

     bravais-lattice index     =            0
     lattice parameter (alat)  =       1.8897  a.u.
     unit-cell volume          =    5418.2621 (a.u.)^3
     number of atoms/cell      =           12
     number of atomic types    =            2
     number of electrons       =       156.00
     number of Kohn-Sham states=          108
     kinetic-energy cutoff     =      36.7493  Ry
     charge density cutoff     =     367.4932  Ry
     convergence threshold     =      1.0E-06
     mixing beta               =       0.1000
     number of iterations used =           10  plain     mixing
     Exchange-correlation      = BEEF-VDW ( 1  4 27 13 2)
     nstep                     =           50

     celldm(1)=   1.889726  celldm(2)=   0.000000  celldm(3)=   0.000000
     celldm(4)=   0.000000  celldm(5)=   0.000000  celldm(6)=   0.000000

     crystal axes: (cart. coord. in units of alat)
               a(1) = (   6.092786   0.000000   0.000000 )
               a(2) = (  -3.046393   5.276507   0.000000 )
               a(3) = (   0.000000   0.000000  24.974739 )

     reciprocal axes: (cart. coord. in units 2 pi/alat)
               b(1) = (  0.164129  0.094760  0.000000 )
               b(2) = (  0.000000  0.189519  0.000000 )
               b(3) = (  0.000000  0.000000  0.040040 )

     PseudoPot. # 1 for Hg read from file:
     /afs/slac.stanford.edu/u/if/mamunm/psp/gbrv1.5pbe/Hg.UPF
     MD5 check sum: 8f42caffe07f7fd9c0a564347f8c5498
     Pseudo is Ultrasoft + core correction, Zval = 12.0
     Generated by new atomic code, or converted to UPF format
     Using radial grid of  985 points,  6 beta functions with:
                l(1) =   0
                l(2) =   0
                l(3) =   1
                l(4) =   1
                l(5) =   2
                l(6) =   2
     Q(r) pseudized with  8 coefficients,  rinner =    2.000   2.000   2.000
                                                       2.000   2.000

     PseudoPot. # 2 for Ru read from file:
     /afs/slac.stanford.edu/u/if/mamunm/psp/gbrv1.5pbe/Ru.UPF
     MD5 check sum: 7158a806dd851261a58e6920c40ebe78
     Pseudo is Ultrasoft + core correction, Zval = 16.0
     Generated by new atomic code, or converted to UPF format
     Using radial grid of  967 points,  6 beta functions with:
                l(1) =   0
                l(2) =   0
                l(3) =   1
                l(4) =   1
                l(5) =   2
                l(6) =   2
     Q(r) pseudized with  8 coefficients,  rinner =    1.300   1.300   1.300
                                                       1.300   1.300

     vdW kernel table read from file vdW_kernel_table
     MD5 check sum: 095c7af220d748ca6e76c0b4c6cfb241

     atomic species   valence    mass     pseudopotential
        Hg1           12.00   200.59200     Hg( 1.00)
        Ru1           16.00   101.07000     Ru( 1.00)

     No symmetry found

   Cartesian axes

     site n.     atom                  positions (alat units)
         1           Hg1 tau(   1) = (   0.0000000   0.0000000  10.0000000  )
         2           Hg1 tau(   2) = (   4.5695894   2.6382537  10.0000000  )
         3           Hg1 tau(   3) = (   1.5231965   2.6382537  10.0000000  )
         4           Ru1 tau(   4) = (   3.0463929   0.0000000  10.0000000  )
         5           Hg1 tau(   5) = (   3.0463929   1.7588358  12.4873694  )
         6           Hg1 tau(   6) = (   1.5231965   4.3970894  12.4873694  )
         7           Hg1 tau(   7) = (  -1.5231965   4.3970894  12.4873694  )
         8           Ru1 tau(   8) = (   0.0000000   1.7588358  12.4873694  )
         9           Hg1 tau(   9) = (  -0.0000000   3.5176715  14.9747388  )
        10           Hg1 tau(  10) = (   1.5231965   0.8794179  14.9747388  )
        11           Hg1 tau(  11) = (   4.5695894   0.8794179  14.9747388  )
        12           Ru1 tau(  12) = (   3.0463929   3.5176715  14.9747388  )

     number of k points=    20  Fermi-Dirac smearing, width (Ry)=  0.0110
                       cart. coord. in units 2pi/alat
        k(    1) = (   0.0000000   0.0000000   0.0000000), wk =   0.0555556
        k(    2) = (   0.0000000   0.0315866   0.0000000), wk =   0.1111111
        k(    3) = (   0.0000000   0.0631731   0.0000000), wk =   0.1111111
        k(    4) = (   0.0000000  -0.0947597   0.0000000), wk =   0.0555556
        k(    5) = (   0.0273548   0.0157933   0.0000000), wk =   0.1111111
        k(    6) = (   0.0273548   0.0473798   0.0000000), wk =   0.1111111
        k(    7) = (   0.0273548   0.0789664   0.0000000), wk =   0.1111111
        k(    8) = (   0.0273548  -0.0789664   0.0000000), wk =   0.1111111
        k(    9) = (   0.0273548  -0.0473798   0.0000000), wk =   0.1111111
        k(   10) = (   0.0273548  -0.0157933   0.0000000), wk =   0.1111111
        k(   11) = (   0.0547095   0.0315866   0.0000000), wk =   0.1111111
        k(   12) = (   0.0547095   0.0631731   0.0000000), wk =   0.1111111
        k(   13) = (   0.0547095   0.0947597   0.0000000), wk =   0.1111111
        k(   14) = (   0.0547095  -0.0631731   0.0000000), wk =   0.1111111
        k(   15) = (   0.0547095  -0.0315866   0.0000000), wk =   0.1111111
        k(   16) = (   0.0547095   0.0000000   0.0000000), wk =   0.1111111
        k(   17) = (  -0.0820643  -0.0473798   0.0000000), wk =   0.0555556
        k(   18) = (  -0.0820643  -0.0157933   0.0000000), wk =   0.1111111
        k(   19) = (  -0.0820643   0.0157933   0.0000000), wk =   0.1111111
        k(   20) = (  -0.0820643  -0.1421395   0.0000000), wk =   0.0555556

     Largest allocated arrays     est. size (Mb)     dimensions
     Largest temporary arrays     est. size (Mb)     dimensions

     Initial potential from superposition of free atoms
     Check: negative starting charge=   -0.219932

     starting charge  152.99943, renormalised to  156.00000

     negative rho (up, down):  2.242E-01 0.000E+00

     *
     * You are using vdW-DF for exchange-correlation in this calculation.
     * Please cite the following three references that made this development
     * possible:
     *
     *   M. Dion, H. Rydberg, E. Schroder, D. C. Langreth, and
     *   B. I. Lundqvist, Phys. Rev. Lett. 92, 246401 (2004).
     *
     *   T. Thonhauser, V. R. Cooper, S. Li, A. Puzder, P. Hyldgaard, and
     *   D. C. Langreth, Phys. Rev. B 76, 125112 (2007).
     *
     *   G. Roman-Perez and J. M. Soler, Phys. Rev. Lett. 103, 096102 (2009).
     *
     *
     * If you are using vdW-DF2, please also cite:
     *
     *   K. Lee, E. D. Murray, L. Kong, B. I. Lundqvist, and
     *   D. C. Langreth, Phys. Rev. B 82, 081101(R) (2010).
     *
     *
     * If you are calculating the stress with vdW-DF, please also cite:
     *
     *   R. Sabatini, E. Kucukbenli, B. Kolb, T. Thonhauser, and
     *   S. de Gironcoli, J. Phys.: Condens. Matter 24, 424209 (2012).
     *

     Carrying out vdW-DF run using the following parameters:

     Nqs =      20    Nr_points =    1024   r_max =   100.000
     q_mesh =
               0.00001000     0.04494208     0.09755937     0.15916263
               0.23128650     0.31572767     0.41458969     0.53033537
               0.66584808     0.82450364     1.01025438     1.22772762
               1.48234092     1.78043706     2.12944203     2.53805004
               3.01644009     3.57652955     4.23227104     5.00000000

     Gradients computed in reciprocal space

     Adding external electric field

     Computed dipole along edir(3) :
        Dipole                0.0000 Ry au,          0.0000 Debye
        Dipole field          0.0000 Ry au

        Potential amp.       -0.0000 Ry
        Total length         46.0155 bohr

     Starting wfc are  120 randomized atomic wfcs

     Self-consistent Calculation

     iteration #  1     ecut=    36.75 Ry     beta=0.10
     Davidson diagonalization with overlap
     ethr =  1.00E-02,  avg # of iterations =  8.2

[...]

     total energy              =   -1566.62267824 Ry
     Harris-Foulkes estimate   =   -1568.06853725 Ry
     estimated scf accuracy    <       8.05922342 Ry

[...]

     End of self-consistent calculation

          k = 0.0000 0.0000 0.0000 ( 20347 PWs)   bands (ev):

   -70.8684 -70.8684 -70.8374 -40.8861 -40.8861 -40.8675 -40.8673 -40.8668
   -40.8668 -40.8667 -40.8667 -40.8043  -8.2356  -7.6169  -7.4916  -7.4804
    -7.4804  -7.3709  -7.3495  -7.2272  -7.2272  -7.1532  -7.0419  -7.0418
    -6.9197  -6.9197  -6.6629  -6.6550  -6.6053  -6.6053  -6.4455  -6.2834
    -6.2834  -6.2430  -6.1445  -6.1333  -6.1333  -6.0603  -6.0603  -5.8178
    -5.8178  -5.7261  -5.7261  -5.6529  -5.6335  -5.6335  -5.5682  -5.5682
    -5.5532  -5.5532  -5.5089  -5.3252  -5.3252  -5.2326  -5.1670  -5.1029
    -5.1029  -4.8438  -4.8325  -3.1068  -1.6653  -1.6653  -1.2911  -1.2911
    -0.9125  -0.6378  -0.6378  -0.3663   0.0165   0.0165   0.1633   0.4531
     0.4531   0.6268   0.6268   0.7011   0.8169   1.0156   1.0157   1.5434
     1.5434   1.5811   1.5811   1.7037   1.8215   2.5122   2.5122   3.1596
     3.1596   3.7194   3.8912   3.8912   4.6445   4.7991   5.3353   5.4635
     5.6703   6.4286   6.7408   7.3660   7.3660   7.5476   7.5476   7.8494
     8.1594   8.5602   8.6471   9.1804

[...]

          k =-0.0821-0.0474 0.0000 ( 20404 PWs)   bands (ev):

[...]

     the Fermi energy is     0.9323 ev

!    total energy              =   -1566.79734706 Ry
     Harris-Foulkes estimate   =   -1566.79734652 Ry
     estimated scf accuracy    <       0.00000019 Ry

     The total energy is the sum of the following terms:

     one-electron contribution =  -10873.04644606 Ry
     hartree contribution      =    5505.50669893 Ry
     xc contribution           =    -444.63860351 Ry
     ewald contribution        =    4245.44016178 Ry
     electric field correction =       0.00000000 Ry
     smearing contrib. (-TS)   =      -0.05915819 Ry

     convergence has been achieved in  18 iterations

 BEEF-vdW xc energy contributions
           1 :   -388.934164554391
           2 :    357.805736225124
           3 :   -303.682998660472
           4 :    239.510835377725
           5 :   -178.360278588148
           6 :    129.445754513675
           7 :   -96.1567072773946
           8 :    76.4705589148108
           9 :   -65.1943930838922
          10 :    56.8374608087382
          11 :   -47.8448817041684
          12 :    37.4001086261784
          13 :   -26.7828069839622
          14 :    17.9262608713009
          15 :   -12.0574102760677
          16 :    9.06567103466432
[...]
               b(3) = (  0.000000  0.000000  0.040040 )

     PseudoPot. # 1 for Hg read from file:
     /afs/slac.stanford.edu/u/if/mamunm/psp/gbrv1.5pbe/Hg.UPF
     MD5 check sum: 8f42caffe07f7fd9c0a564347f8c5498
     Pseudo is Ultrasoft + core correction, Zval = 12.0
     Generated by new atomic code, or converted to UPF format
     Using radial grid of  985 points,  6 beta functions with:
                l(1) =   0
                l(2) =   0
                l(3) =   1
                l(4) =   1
                l(5) =   2
                l(6) =   2
     Q(r) pseudized with  8 coefficients,  rinner =    2.000   2.000   2.000
                                                       2.000   2.000

     PseudoPot. # 2 for Ru read from file:
     /afs/slac.stanford.edu/u/if/mamunm/psp/gbrv1.5pbe/Ru.UPF
     MD5 check sum: 7158a806dd851261a58e6920c40ebe78
     Pseudo is Ultrasoft + core correction, Zval = 16.0
     Generated by new atomic code, or converted to UPF format
     Using radial grid of  967 points,  6 beta functions with:
                l(1) =   0
                l(2) =   0
                l(3) =   1
                l(4) =   1
                l(5) =   2
                l(6) =   2
     Q(r) pseudized with  8 coefficients,  rinner =    1.300   1.300   1.300
                                                       1.300   1.300

     vdW kernel table read from file vdW_kernel_table
     MD5 check sum: 095c7af220d748ca6e76c0b4c6cfb241

     atomic species   valence    mass     pseudopotential
        Hg1           12.00   200.59200     Hg( 1.00)
        Ru1           16.00   101.07000     Ru( 1.00)

     No symmetry found

   Cartesian axes

     site n.     atom                  positions (alat units)
         1           Hg1 tau(   1) = (   0.0000000   0.0000000  10.0000000  )
         2           Hg1 tau(   2) = (   4.5695894   2.6382537  10.0000000  )
         3           Hg1 tau(   3) = (   1.5231965   2.6382537  10.0000000  )
         4           Ru1 tau(   4) = (   3.0463929   0.0000000  10.0000000  )
         5           Hg1 tau(   5) = (   3.0463929   1.7588358  12.4873694  )
         6           Hg1 tau(   6) = (   1.5231965   4.3970894  12.4873694  )
         7           Hg1 tau(   7) = (  -1.5231965   4.3970894  12.4873694  )
         8           Ru1 tau(   8) = (   0.0000000   1.7588358  12.4873694  )
         9           Hg1 tau(   9) = (   0.0000085   3.5066628  15.2586914  )
        10           Hg1 tau(  10) = (   1.5136577   0.8849240  15.2586762  )
        11           Hg1 tau(  11) = (   4.5791280   0.8849424  15.2586744  )
        12           Ru1 tau(  12) = (   3.0463961   3.5176764  14.6666288  )

     number of k points=    20  Fermi-Dirac smearing, width (Ry)=  0.0110
                       cart. coord. in units 2pi/alat
        k(    1) = (   0.0000000   0.0000000   0.0000000), wk =   0.0555556
        k(    2) = (   0.0000000   0.0315866   0.0000000), wk =   0.1111111
        k(    3) = (   0.0000000   0.0631731   0.0000000), wk =   0.1111111
        k(    4) = (   0.0000000  -0.0947597   0.0000000), wk =   0.0555556
        k(    5) = (   0.0273548   0.0157933   0.0000000), wk =   0.1111111
        k(    6) = (   0.0273548   0.0473798   0.0000000), wk =   0.1111111
        k(    7) = (   0.0273548   0.0789664   0.0000000), wk =   0.1111111
        k(    8) = (   0.0273548  -0.0789664   0.0000000), wk =   0.1111111
        k(    9) = (   0.0273548  -0.0473798   0.0000000), wk =   0.1111111
        k(   10) = (   0.0273548  -0.0157933   0.0000000), wk =   0.1111111
        k(   11) = (   0.0547095   0.0315866   0.0000000), wk =   0.1111111
        k(   12) = (   0.0547095   0.0631731   0.0000000), wk =   0.1111111
        k(   13) = (   0.0547095   0.0947597   0.0000000), wk =   0.1111111
        k(   14) = (   0.0547095  -0.0631731   0.0000000), wk =   0.1111111
        k(   15) = (   0.0547095  -0.0315866   0.0000000), wk =   0.1111111
        k(   16) = (   0.0547095   0.0000000   0.0000000), wk =   0.1111111
        k(   17) = (  -0.0820643  -0.0473798   0.0000000), wk =   0.0555556
        k(   18) = (  -0.0820643  -0.0157933   0.0000000), wk =   0.1111111
        k(   19) = (  -0.0820643   0.0157933   0.0000000), wk =   0.1111111
        k(   20) = (  -0.0820643  -0.1421395   0.0000000), wk =   0.0555556

     Largest allocated arrays     est. size (Mb)     dimensions
     Largest temporary arrays     est. size (Mb)     dimensions

     Initial potential from superposition of free atoms
     Check: negative starting charge=   -0.218230

     starting charge  152.99943, renormalised to  156.00000

[...]

     *
     * You are using vdW-DF for exchange-correlation in this calculation.
     * Please cite the following three references that made this development
     * possible:
     *
     *   M. Dion, H. Rydberg, E. Schroder, D. C. Langreth, and
     *   B. I. Lundqvist, Phys. Rev. Lett. 92, 246401 (2004).
     *
     *   T. Thonhauser, V. R. Cooper, S. Li, A. Puzder, P. Hyldgaard, and
     *   D. C. Langreth, Phys. Rev. B 76, 125112 (2007).
     *
     *   G. Roman-Perez and J. M. Soler, Phys. Rev. Lett. 103, 096102 (2009).
     *
     *
     * If you are using vdW-DF2, please also cite:
     *
     *   K. Lee, E. D. Murray, L. Kong, B. I. Lundqvist, and
     *   D. C. Langreth, Phys. Rev. B 82, 081101(R) (2010).
     *
     *
     * If you are calculating the stress with vdW-DF, please also cite:
     *
     *   R. Sabatini, E. Kucukbenli, B. Kolb, T. Thonhauser, and
     *   S. de Gironcoli, J. Phys.: Condens. Matter 24, 424209 (2012).
     *

     Carrying out vdW-DF run using the following parameters:

     Nqs =      20    Nr_points =    1024   r_max =   100.000
     q_mesh =
               0.00001000     0.04494208     0.09755937     0.15916263
               0.23128650     0.31572767     0.41458969     0.53033537
               0.66584808     0.82450364     1.01025438     1.22772762
               1.48234092     1.78043706     2.12944203     2.53805004
               3.01644009     3.57652955     4.23227104     5.00000000

     Gradients computed in reciprocal space

[...]

     Starting wfc are  120 randomized atomic wfcs

     Self-consistent Calculation

[...]

     total energy              =   -1566.84363134 Ry
     Harris-Foulkes estimate   =   -1566.84363091 Ry
     estimated scf accuracy    <       0.00000191 Ry

     iteration # 19     ecut=    36.75 Ry     beta=0.10
     Davidson diagonalization with overlap
     ethr =  1.23E-09,  avg # of iterations =  2.0

[...]

     negative rho (up, down):  2.200E-01 0.000E+00

     Adding external electric field

     Computed dipole along edir(3) :
        Dipole               -0.0316 Ry au,         -0.0802 Debye
        Dipole field         -0.0001 Ry au

        Potential amp.        0.0067 Ry
        Total length         46.0155 bohr

     End of self-consistent calculation

[...]

          k = 0.0547 0.0000 0.0000 ( 20377 PWs)   bands (ev):

[...]

          k =-0.0821-0.1421 0.0000 ( 20404 PWs)   bands (ev):

   -70.9332 -70.8402 -70.7980 -40.9635 -40.9159 -40.9157 -40.8448 -40.8447
   -40.8435 -40.8432 -40.8293 -40.7537  -7.4009  -7.1533  -7.0551  -6.9132
    -6.8632  -6.7843  -6.7541  -6.7126  -6.7022  -6.6428  -6.5827  -6.5550
    -6.5326  -6.3888  -6.3805  -6.3121  -6.2491  -6.2299  -6.1989  -6.1386
    -6.0856  -6.0826  -6.0022  -5.9718  -5.9548  -5.9404  -5.9338  -5.9110
    -5.8940  -5.8666  -5.8181  -5.7997  -5.7960  -5.7699  -5.7310  -5.7226
    -5.7025  -5.5984  -5.5855  -5.5308  -5.4860  -5.4207  -5.3753  -5.3035
    -5.2985  -5.1205  -5.0072  -4.2220  -3.8941  -2.9847  -2.1011  -2.0993
    -1.2180  -1.1046  -0.6782  -0.3121  -0.2667  -0.1698  -0.0144  -0.0051
     0.0820   0.1086   0.2941   0.4683   0.6540   0.8616   0.9673   1.2558
     1.6408   1.9995   2.0822   2.8765   2.9845   3.3501   4.6844   4.9562
     5.0353   5.1848   5.4604   5.6940   5.7911   5.9900   6.1812   6.2294
     6.4892   6.6157   6.7364   6.8082   7.4857   7.5166   7.6008   7.6620
     7.6778   7.7418   7.8700   8.0386

     the Fermi energy is     0.9333 ev

!    total energy              =   -1566.84362983 Ry
     Harris-Foulkes estimate   =   -1566.84363189 Ry
     estimated scf accuracy    <       0.00000041 Ry

     The total energy is the sum of the following terms:

     one-electron contribution =  -10699.88655205 Ry
     hartree contribution      =    5419.36029875 Ry
     xc contribution           =    -444.55688065 Ry
     ewald contribution        =    4158.29807011 Ry
     electric field correction =       0.00000231 Ry
     smearing contrib. (-TS)   =      -0.05856830 Ry

     convergence has been achieved in  19 iterations

 BEEF-vdW xc energy contributions
           1 :   -389.000216573544
           2 :    357.774452317015
           3 :   -303.538795868518
           4 :    239.336436617236
           5 :   -178.281342121050
           6 :    129.545431688277
           7 :   -96.4150901412727
           8 :    76.7691105202632
           9 :   -65.3866468516633
          10 :    56.8438225438524
          11 :   -47.7102023067058
          12 :    37.2730153805209
          13 :   -26.8257093759240
          14 :    18.2118203264223
          15 :   -12.5183711030536
          16 :    9.53185994061602
          17 :   -8.05322003035587
          18 :    6.70850253555102
          19 :   -4.71367715353153
          20 :    2.17400639840162
          21 :   0.180108478184593
          22 :   -1.58945980659382
          23 :    1.79818626199989
          24 :   -1.21278199428036
          25 :   0.632868392044543
          26 :  -0.756377521851618
          27 :    1.77165768690770
          28 :   -3.27240216386178
          29 :    4.52407604754450
          30 :   -4.90718266638089
          31 :   -36.8879598376460
          32 :   -27.2962094795397

     Forces acting on atoms (Ry/au):

     negative rho (up, down):  2.200E-01 0.000E+00
     atom    1 type  1   force =    -0.00000122    0.00829701   -0.02639923
     atom    2 type  1   force =     0.00718755   -0.00414855   -0.02640063
     atom    3 type  1   force =    -0.00718593   -0.00414724   -0.02640004
     atom    4 type  2   force =     0.00000181    0.00000030    0.05795753
     atom    5 type  1   force =     0.00000075   -0.01925964    0.00644452
     atom    6 type  1   force =    -0.01668039    0.00962997    0.00644441
     atom    7 type  1   force =     0.01668061    0.00962985    0.00644591
     atom    8 type  2   force =     0.00000091   -0.00000009    0.00202206
     atom    9 type  1   force =    -0.00000147   -0.00000692   -0.00000337
     atom   10 type  1   force =    -0.00000688    0.00000177   -0.00000329
     atom   11 type  1   force =     0.00000458    0.00000351   -0.00000329
     atom   12 type  2   force =    -0.00000030    0.00000005   -0.00010460

     Total force =     0.083055     Total SCF correction =     0.002047

     entering subroutine stress ...

     negative rho (up, down):  2.200E-01 0.000E+00
          total   stress  (Ry/bohr**3)                   (kbar)     P=   -5.29
  -0.00006287   0.00000000   0.00000000         -9.25      0.00      0.00
   0.00000000  -0.00006287  -0.00000000          0.00     -9.25     -0.00
   0.00000000  -0.00000000   0.00001785          0.00     -0.00      2.63

 !ASE

     Writing output data file calc.save

     General routines

     Parallel routines

   This run was terminated on:  12:49:21  26Dec2018

   JOB DONE.
Job  /afs/slac/g/suncat/bin/suncat-tsmpirun -x LD_LIBRARY_PATH -wdir /scratch/qe109829_FU48v pw.x -in pw.inp

TID   HOST_NAME   COMMAND_LINE            STATUS            TERMINATION_TIME
00000 suncat0169 pw.x -in pw.inp   Done                     12/26/2018 12:49:21
00001 suncat0169 pw.x -in pw.inp   Done                     12/26/2018 12:49:21
00002 suncat0169 pw.x -in pw.inp   Done                     12/26/2018 12:49:21
00003 suncat0169 pw.x -in pw.inp   Done                     12/26/2018 12:49:21
00004 suncat0169 pw.x -in pw.inp   Done                     12/26/2018 12:49:21
00005 suncat0169 pw.x -in pw.inp   Done                     12/26/2018 12:49:21
00006 suncat0169 pw.x -in pw.inp   Done                     12/26/2018 12:49:21
00007 suncat0169 pw.x -in pw.inp   Done                     12/26/2018 12:49:21
00008 suncat0168 pw.x -in pw.inp   Done                     12/26/2018 12:49:21
00009 suncat0168 pw.x -in pw.inp   Done                     12/26/2018 12:49:21
00010 suncat0168 pw.x -in pw.inp   Done                     12/26/2018 12:49:21
00011 suncat0168 pw.x -in pw.inp   Done                     12/26/2018 12:49:21
00012 suncat0168 pw.x -in pw.inp   Done                     12/26/2018 12:49:21
00013 suncat0168 pw.x -in pw.inp   Done                     12/26/2018 12:49:21
00014 suncat0168 pw.x -in pw.inp   Done                     12/26/2018 12:49:21
00015 suncat0168 pw.x -in pw.inp   Done                     12/26/2018 12:49:21
00016 suncat0161 pw.x -in pw.inp   Done                     12/26/2018 12:49:21
00017 suncat0161 pw.x -in pw.inp   Done                     12/26/2018 12:49:21
00018 suncat0161 pw.x -in pw.inp   Done                     12/26/2018 12:49:21
00019 suncat0161 pw.x -in pw.inp   Done                     12/26/2018 12:49:21
00020 suncat0161 pw.x -in pw.inp   Done                     12/26/2018 12:49:21
00021 suncat0161 pw.x -in pw.inp   Done                     12/26/2018 12:49:21
00022 suncat0161 pw.x -in pw.inp   Done                     12/26/2018 12:49:21
00023 suncat0161 pw.x -in pw.inp   Done                     12/26/2018 12:49:21
00024 suncat0159 pw.x -in pw.inp   Done                     12/26/2018 12:49:21
00025 suncat0159 pw.x -in pw.inp   Done                     12/26/2018 12:49:21
00026 suncat0159 pw.x -in pw.inp   Done                     12/26/2018 12:49:21
00027 suncat0159 pw.x -in pw.inp   Done                     12/26/2018 12:49:21
00028 suncat0159 pw.x -in pw.inp   Done                     12/26/2018 12:49:21
00029 suncat0159 pw.x -in pw.inp   Done                     12/26/2018 12:49:21
00030 suncat0159 pw.x -in pw.inp   Done                     12/26/2018 12:49:21
00031 suncat0159 pw.x -in pw.inp   Done                     12/26/2018 12:49:21
00032 suncat0156 pw.x -in pw.inp   Done                     12/26/2018 12:49:21
00033 suncat0156 pw.x -in pw.inp   Done                     12/26/2018 12:49:21
00034 suncat0156 pw.x -in pw.inp   Done                     12/26/2018 12:49:21
00035 suncat0156 pw.x -in pw.inp   Done                     12/26/2018 12:49:21
00036 suncat0156 pw.x -in pw.inp   Done                     12/26/2018 12:49:21
00037 suncat0156 pw.x -in pw.inp   Done                     12/26/2018 12:49:21
00038 suncat0156 pw.x -in pw.inp   Done                     12/26/2018 12:49:21
00039 suncat0156 pw.x -in pw.inp   Done                     12/26/2018 12:49:21
00040 suncat0153 pw.x -in pw.inp   Done                     12/26/2018 12:49:21
00041 suncat0153 pw.x -in pw.inp   Done                     12/26/2018 12:49:21
00042 suncat0153 pw.x -in pw.inp   Done                     12/26/2018 12:49:21
00043 suncat0153 pw.x -in pw.inp   Done                     12/26/2018 12:49:21
00044 suncat0153 pw.x -in pw.inp   Done                     12/26/2018 12:49:21
00045 suncat0153 pw.x -in pw.inp   Done                     12/26/2018 12:49:21
00046 suncat0153 pw.x -in pw.inp   Done                     12/26/2018 12:49:21
00047 suncat0153 pw.x -in pw.inp   Done                     12/26/2018 12:49:21
00048 suncat0114 pw.x -in pw.inp   Done                     12/26/2018 12:49:21
00049 suncat0114 pw.x -in pw.inp   Done                     12/26/2018 12:49:21
00050 suncat0114 pw.x -in pw.inp   Done                     12/26/2018 12:49:21
00051 suncat0114 pw.x -in pw.inp   Done                     12/26/2018 12:49:21
00052 suncat0114 pw.x -in pw.inp   Done                     12/26/2018 12:49:21
00053 suncat0114 pw.x -in pw.inp   Done                     12/26/2018 12:49:21
00054 suncat0114 pw.x -in pw.inp   Done                     12/26/2018 12:49:21
00055 suncat0114 pw.x -in pw.inp   Done                     12/26/2018 12:49:21
00056 suncat0267 pw.x -in pw.inp   Done                     12/26/2018 12:49:21
00057 suncat0267 pw.x -in pw.inp   Done                     12/26/2018 12:49:21
00058 suncat0267 pw.x -in pw.inp   Done                     12/26/2018 12:49:21
00059 suncat0267 pw.x -in pw.inp   Done                     12/26/2018 12:49:21
00060 suncat0267 pw.x -in pw.inp   Done                     12/26/2018 12:49:21
00061 suncat0267 pw.x -in pw.inp   Done                     12/26/2018 12:49:21
00062 suncat0267 pw.x -in pw.inp   Done                     12/26/2018 12:49:21
00063 suncat0267 pw.x -in pw.inp   Done                     12/26/2018 12:49:21