     Program PWSCF v.5.1rc2 (svn rev. 11289) starts on 27Dec2018 at 22:53:36

     Current dimensions of program PWSCF are:
     Max number of different atomic species (ntypx) = 10
     Max number of k-points (npk) =  40000
     Max angular momentum in pseudopotentials (lmaxx) =  3
     Presently stress not available with electric field

     IMPORTANT: XC functional enforced from input :
     Exchange-correlation      = BEEF-VDW ( 1  4 27 13 2)
     Any further DFT definition will be discarded
     Please, verify this is what you really want

     Subspace diagonalization in iterative solution of the eigenvalue problem:
     a serial algorithm will be used

     bravais-lattice index     =            0
     lattice parameter (alat)  =       1.8897  a.u.
     unit-cell volume          =    6094.9320 (a.u.)^3
     number of atoms/cell      =           12
     number of atomic types    =            2
     number of electrons       =       138.00
     number of Kohn-Sham states=           99
     kinetic-energy cutoff     =      36.7493  Ry
     charge density cutoff     =     367.4932  Ry
     convergence threshold     =      1.0E-06
     mixing beta               =       0.1000
     number of iterations used =           10  plain     mixing
     Exchange-correlation      = BEEF-VDW ( 1  4 27 13 2)
     nstep                     =           50

     celldm(1)=   1.889726  celldm(2)=   0.000000  celldm(3)=   0.000000
     celldm(4)=   0.000000  celldm(5)=   0.000000  celldm(6)=   0.000000

     crystal axes: (cart. coord. in units of alat)
               a(1) = (   6.427030   0.000000   0.000000 )
               a(2) = (  -3.213515   5.565972   0.000000 )
               a(3) = (   0.000000   0.000000  25.247648 )

     reciprocal axes: (cart. coord. in units 2 pi/alat)
               b(1) = (  0.155593  0.089832  0.000000 )
               b(2) = (  0.000000  0.179663  0.000000 )
               b(3) = (  0.000000  0.000000  0.039608 )

     PseudoPot. # 1 for Sc read from file:
     /afs/slac.stanford.edu/u/if/mamunm/psp/gbrv1.5pbe/Sc.UPF
     MD5 check sum: db30a2753ba66ef00f23801d899b7e7f
     Pseudo is Ultrasoft + core correction, Zval = 11.0
     Generated by new atomic code, or converted to UPF format
     Using radial grid of  849 points,  6 beta functions with:
                l(1) =   0
                l(2) =   0
                l(3) =   1
                l(4) =   1
                l(5) =   2
                l(6) =   2
     Q(r) pseudized with  6 coefficients,  rinner =    1.200   1.200   1.200
                                                       1.200   1.200

     PseudoPot. # 2 for Tl read from file:
     /afs/slac.stanford.edu/u/if/mamunm/psp/gbrv1.5pbe/Tl.UPF
     MD5 check sum: b76cf1f7e72655a2b2c53cf6385d7059
     Pseudo is Ultrasoft + core correction, Zval = 13.0
     Generated by new atomic code, or converted to UPF format
     Using radial grid of  899 points,  6 beta functions with:
                l(1) =   0
                l(2) =   0
                l(3) =   1
                l(4) =   1
                l(5) =   2
                l(6) =   2
     Q(r) pseudized with  6 coefficients,  rinner =    1.100   1.100   1.100
                                                       1.100   1.100

     vdW kernel table read from file vdW_kernel_table
     MD5 check sum: 095c7af220d748ca6e76c0b4c6cfb241

     atomic species   valence    mass     pseudopotential
        Sc1           11.00    44.95591     Sc( 1.00)
        Tl1           13.00   204.38000     Tl( 1.00)

     No symmetry found

   Cartesian axes

     site n.     atom                  positions (alat units)
         1           Sc1 tau(   1) = (   0.0000000   0.0000000  10.0000000  )
         2           Sc1 tau(   2) = (  -1.6067576   2.7829858  10.0000000  )
         3           Sc1 tau(   3) = (   1.6067576   2.7829858  10.0000000  )
         4           Tl1 tau(   4) = (   3.2135152   0.0000000  10.0000000  )
         5           Sc1 tau(   5) = (   3.2135152   1.8553238  12.6238241  )
         6           Sc1 tau(   6) = (   1.6067576   4.6383096  12.6238241  )
         7           Sc1 tau(   7) = (  -1.6067576   4.6383096  12.6238241  )
         8           Tl1 tau(   8) = (   0.0000000   1.8553238  12.6238241  )
         9           Sc1 tau(   9) = (  -0.0000000   3.7106477  15.2476483  )
        10           Sc1 tau(  10) = (   1.6067576   0.9276619  15.2476483  )
        11           Sc1 tau(  11) = (   4.8202727   0.9276619  15.2476483  )
        12           Tl1 tau(  12) = (   3.2135152   3.7106477  15.2476483  )

     number of k points=    20  Fermi-Dirac smearing, width (Ry)=  0.0110
                       cart. coord. in units 2pi/alat
        k(    1) = (   0.0000000   0.0000000   0.0000000), wk =   0.0555556
        k(    2) = (   0.0000000   0.0299439   0.0000000), wk =   0.1111111
        k(    3) = (   0.0000000   0.0598877   0.0000000), wk =   0.1111111
        k(    4) = (   0.0000000  -0.0898316   0.0000000), wk =   0.0555556
        k(    5) = (   0.0259321   0.0149719   0.0000000), wk =   0.1111111
        k(    6) = (   0.0259321   0.0449158   0.0000000), wk =   0.1111111
        k(    7) = (   0.0259321   0.0748596   0.0000000), wk =   0.1111111
        k(    8) = (   0.0259321  -0.0748596   0.0000000), wk =   0.1111111
        k(    9) = (   0.0259321  -0.0449158   0.0000000), wk =   0.1111111
        k(   10) = (   0.0259321  -0.0149719   0.0000000), wk =   0.1111111
        k(   11) = (   0.0518643   0.0299439   0.0000000), wk =   0.1111111
        k(   12) = (   0.0518643   0.0598877   0.0000000), wk =   0.1111111
        k(   13) = (   0.0518643   0.0898316   0.0000000), wk =   0.1111111
        k(   14) = (   0.0518643  -0.0598877   0.0000000), wk =   0.1111111
        k(   15) = (   0.0518643  -0.0299439   0.0000000), wk =   0.1111111
        k(   16) = (   0.0518643   0.0000000   0.0000000), wk =   0.1111111
        k(   17) = (  -0.0777964  -0.0449158   0.0000000), wk =   0.0555556
        k(   18) = (  -0.0777964  -0.0149719   0.0000000), wk =   0.1111111
        k(   19) = (  -0.0777964   0.0149719   0.0000000), wk =   0.1111111
        k(   20) = (  -0.0777964  -0.1347474   0.0000000), wk =   0.0555556

     Largest allocated arrays     est. size (Mb)     dimensions
     Largest temporary arrays     est. size (Mb)     dimensions

     Check: negative/imaginary core charge=   -0.000001    0.000000

     Initial potential from superposition of free atoms
     Check: negative starting charge=   -0.151164

     starting charge  137.96378, renormalised to  138.00000

     negative rho (up, down):  1.512E-01 0.000E+00

     *
     * You are using vdW-DF for exchange-correlation in this calculation.
     * Please cite the following three references that made this development
     * possible:
     *
     *   M. Dion, H. Rydberg, E. Schroder, D. C. Langreth, and
     *   B. I. Lundqvist, Phys. Rev. Lett. 92, 246401 (2004).
     *
     *   T. Thonhauser, V. R. Cooper, S. Li, A. Puzder, P. Hyldgaard, and
     *   D. C. Langreth, Phys. Rev. B 76, 125112 (2007).
     *
     *   G. Roman-Perez and J. M. Soler, Phys. Rev. Lett. 103, 096102 (2009).
     *
     *
     * If you are using vdW-DF2, please also cite:
     *
     *   K. Lee, E. D. Murray, L. Kong, B. I. Lundqvist, and
     *   D. C. Langreth, Phys. Rev. B 82, 081101(R) (2010).
     *
     *
     * If you are calculating the stress with vdW-DF, please also cite:
     *
     *   R. Sabatini, E. Kucukbenli, B. Kolb, T. Thonhauser, and
     *   S. de Gironcoli, J. Phys.: Condens. Matter 24, 424209 (2012).
     *

     Carrying out vdW-DF run using the following parameters:

     Nqs =      20    Nr_points =    1024   r_max =   100.000
     q_mesh =
               0.00001000     0.04494208     0.09755937     0.15916263
               0.23128650     0.31572767     0.41458969     0.53033537
               0.66584808     0.82450364     1.01025438     1.22772762
               1.48234092     1.78043706     2.12944203     2.53805004
               3.01644009     3.57652955     4.23227104     5.00000000

     Gradients computed in reciprocal space

     Adding external electric field

     Computed dipole along edir(3) :
        Dipole                0.0000 Ry au,          0.0000 Debye
        Dipole field          0.0000 Ry au

        Potential amp.       -0.0000 Ry
        Total length         46.5184 bohr

     Starting wfc are  144 randomized atomic wfcs

     Self-consistent Calculation

     iteration #  1     ecut=    36.75 Ry     beta=0.10
     Davidson diagonalization with overlap
     ethr =  1.00E-02,  avg # of iterations =  1.6

[...]

     total energy              =   -1293.32650800 Ry
     Harris-Foulkes estimate   =   -1294.01813571 Ry
     estimated scf accuracy    <       3.91916853 Ry

[...]

     iteration # 10     ecut=    36.75 Ry     beta=0.10
     Davidson diagonalization with overlap
     c_bands:  1 eigenvalues not converged
     ethr =  8.44E-06,  avg # of iterations =  8.9

[...]

     End of self-consistent calculation

          k = 0.0000 0.0000 0.0000 ( 22947 PWs)   bands (ev):

   -49.4454 -49.4447 -49.4107 -49.4107 -49.4105 -49.4105 -49.0817 -49.0474
   -49.0473 -28.1450 -28.1252 -28.0994 -28.0993 -28.0993 -28.0877 -28.0870
   -28.0870 -28.0843 -28.0843 -28.0745 -28.0745 -27.9419 -27.9386 -27.8298
   -27.8059 -27.8059 -27.8015 -27.8015 -27.7264 -27.7263 -27.6485 -27.6395
   -27.6394 -27.5857 -27.5068 -27.5067 -10.6608 -10.6608 -10.6500 -10.6431
   -10.6431 -10.6120 -10.6120 -10.6031 -10.6031 -10.5827 -10.5757 -10.5434
   -10.5434 -10.5355 -10.5355  -6.7805  -5.8887  -5.4484  -1.7028  -1.5962
    -1.2606  -0.6245  -0.6245  -0.5432  -0.5432  -0.1959   0.1532   0.1532
     0.2621   0.4514   0.5089   0.5089   0.6251   0.6251   0.8500   0.9615
     1.0718   1.0718   1.2419   1.2419   1.2868   1.5184   1.5185   1.5454
     1.7733   1.7830   1.7830   2.1534   2.3631   2.8182   2.8450   2.8450
     2.9323   2.9323   2.9530   2.9530   3.0915   3.0915   3.1747   3.2884
     3.2885   3.3268   3.3294

[...]

          k =-0.0778-0.0449 0.0000 ( 22932 PWs)   bands (ev):

[...]

     the Fermi energy is     0.7405 ev

!    total energy              =   -1293.73317602 Ry
     Harris-Foulkes estimate   =   -1293.73320205 Ry
     estimated scf accuracy    <       0.00000007 Ry

     The total energy is the sum of the following terms:

     one-electron contribution =   -7682.96150795 Ry
     hartree contribution      =    3848.86161904 Ry
     xc contribution           =    -316.93987329 Ry
     ewald contribution        =    2857.41538943 Ry
     electric field correction =       0.00000000 Ry
     smearing contrib. (-TS)   =      -0.10880324 Ry

     convergence has been achieved in  19 iterations

 BEEF-vdW xc energy contributions
           1 :   -277.080630424131
           2 :    252.380801584697
           3 :   -211.378021372457
           4 :    166.198415896634
           5 :   -126.814092536607
           6 :    97.5788982005482
           7 :   -77.5828464875574
           8 :    63.4481413698074
           9 :   -52.1546001508054
          10 :    42.2952388353891
          11 :   -33.7412213721435
[...]
     Generated by new atomic code, or converted to UPF format
     Using radial grid of  849 points,  6 beta functions with:
                l(1) =   0
                l(2) =   0
                l(3) =   1
                l(4) =   1
                l(5) =   2
                l(6) =   2
     Q(r) pseudized with  6 coefficients,  rinner =    1.200   1.200   1.200
                                                       1.200   1.200

     PseudoPot. # 2 for Tl read from file:
     /afs/slac.stanford.edu/u/if/mamunm/psp/gbrv1.5pbe/Tl.UPF
     MD5 check sum: b76cf1f7e72655a2b2c53cf6385d7059
     Pseudo is Ultrasoft + core correction, Zval = 13.0
     Generated by new atomic code, or converted to UPF format
     Using radial grid of  899 points,  6 beta functions with:
                l(1) =   0
                l(2) =   0
                l(3) =   1
                l(4) =   1
                l(5) =   2
                l(6) =   2
     Q(r) pseudized with  6 coefficients,  rinner =    1.100   1.100   1.100
                                                       1.100   1.100

     vdW kernel table read from file vdW_kernel_table
     MD5 check sum: 095c7af220d748ca6e76c0b4c6cfb241

     atomic species   valence    mass     pseudopotential
        Sc1           11.00    44.95591     Sc( 1.00)
        Tl1           13.00   204.38000     Tl( 1.00)

     No symmetry found

   Cartesian axes

     site n.     atom                  positions (alat units)
         1           Sc1 tau(   1) = (   0.0000000   0.0000000  10.0000000  )
         2           Sc1 tau(   2) = (  -1.6067576   2.7829858  10.0000000  )
         3           Sc1 tau(   3) = (   1.6067576   2.7829858  10.0000000  )
         4           Tl1 tau(   4) = (   3.2135152   0.0000000  10.0000000  )
         5           Sc1 tau(   5) = (   3.2135152   1.8553238  12.6238241  )
         6           Sc1 tau(   6) = (   1.6067576   4.6383096  12.6238241  )
         7           Sc1 tau(   7) = (  -1.6067576   4.6383096  12.6238241  )
         8           Tl1 tau(   8) = (   0.0000000   1.8553238  12.6238241  )
         9           Sc1 tau(   9) = (   0.0000025   3.6968336  15.2599662  )
        10           Sc1 tau(  10) = (   1.5947416   0.9346022  15.2600027  )
        11           Sc1 tau(  11) = (   4.8322851   0.9345943  15.2599987  )
        12           Tl1 tau(  12) = (   3.2135122   3.7106838  15.2512403  )

     number of k points=    20  Fermi-Dirac smearing, width (Ry)=  0.0110
                       cart. coord. in units 2pi/alat
        k(    1) = (   0.0000000   0.0000000   0.0000000), wk =   0.0555556
        k(    2) = (   0.0000000   0.0299439   0.0000000), wk =   0.1111111
        k(    3) = (   0.0000000   0.0598877   0.0000000), wk =   0.1111111
        k(    4) = (   0.0000000  -0.0898316   0.0000000), wk =   0.0555556
        k(    5) = (   0.0259321   0.0149719   0.0000000), wk =   0.1111111
        k(    6) = (   0.0259321   0.0449158   0.0000000), wk =   0.1111111
        k(    7) = (   0.0259321   0.0748596   0.0000000), wk =   0.1111111
        k(    8) = (   0.0259321  -0.0748596   0.0000000), wk =   0.1111111
        k(    9) = (   0.0259321  -0.0449158   0.0000000), wk =   0.1111111
        k(   10) = (   0.0259321  -0.0149719   0.0000000), wk =   0.1111111
        k(   11) = (   0.0518643   0.0299439   0.0000000), wk =   0.1111111
        k(   12) = (   0.0518643   0.0598877   0.0000000), wk =   0.1111111
        k(   13) = (   0.0518643   0.0898316   0.0000000), wk =   0.1111111
        k(   14) = (   0.0518643  -0.0598877   0.0000000), wk =   0.1111111
        k(   15) = (   0.0518643  -0.0299439   0.0000000), wk =   0.1111111
        k(   16) = (   0.0518643   0.0000000   0.0000000), wk =   0.1111111
        k(   17) = (  -0.0777964  -0.0449158   0.0000000), wk =   0.0555556
        k(   18) = (  -0.0777964  -0.0149719   0.0000000), wk =   0.1111111
        k(   19) = (  -0.0777964   0.0149719   0.0000000), wk =   0.1111111
        k(   20) = (  -0.0777964  -0.1347474   0.0000000), wk =   0.0555556

     Largest allocated arrays     est. size (Mb)     dimensions
     Largest temporary arrays     est. size (Mb)     dimensions

     Check: negative/imaginary core charge=   -0.000001    0.000000

     Initial potential from superposition of free atoms
     Check: negative starting charge=   -0.151190

     starting charge  137.96378, renormalised to  138.00000

[...]

     *
     * You are using vdW-DF for exchange-correlation in this calculation.
     * Please cite the following three references that made this development
     * possible:
     *
     *   M. Dion, H. Rydberg, E. Schroder, D. C. Langreth, and
     *   B. I. Lundqvist, Phys. Rev. Lett. 92, 246401 (2004).
     *
     *   T. Thonhauser, V. R. Cooper, S. Li, A. Puzder, P. Hyldgaard, and
     *   D. C. Langreth, Phys. Rev. B 76, 125112 (2007).
     *
     *   G. Roman-Perez and J. M. Soler, Phys. Rev. Lett. 103, 096102 (2009).
     *
     *
     * If you are using vdW-DF2, please also cite:
     *
     *   K. Lee, E. D. Murray, L. Kong, B. I. Lundqvist, and
     *   D. C. Langreth, Phys. Rev. B 82, 081101(R) (2010).
     *
     *
     * If you are calculating the stress with vdW-DF, please also cite:
     *
     *   R. Sabatini, E. Kucukbenli, B. Kolb, T. Thonhauser, and
     *   S. de Gironcoli, J. Phys.: Condens. Matter 24, 424209 (2012).
     *

     Carrying out vdW-DF run using the following parameters:

     Nqs =      20    Nr_points =    1024   r_max =   100.000
     q_mesh =
               0.00001000     0.04494208     0.09755937     0.15916263
               0.23128650     0.31572767     0.41458969     0.53033537
               0.66584808     0.82450364     1.01025438     1.22772762
               1.48234092     1.78043706     2.12944203     2.53805004
               3.01644009     3.57652955     4.23227104     5.00000000

     Gradients computed in reciprocal space

[...]

     Starting wfc are  144 randomized atomic wfcs

     Self-consistent Calculation

[...]

     iteration # 11     ecut=    36.75 Ry     beta=0.10
     Davidson diagonalization with overlap
     c_bands:  1 eigenvalues not converged
     ethr =  3.62E-06,  avg # of iterations =  9.4

[...]

     total energy              =   -1293.73365309 Ry
     Harris-Foulkes estimate   =   -1293.73365567 Ry
     estimated scf accuracy    <       0.00000117 Ry

     iteration # 18     ecut=    36.75 Ry     beta=0.10
     Davidson diagonalization with overlap
     ethr =  8.44E-10,  avg # of iterations =  3.0

[...]

     negative rho (up, down):  1.632E-01 0.000E+00

     Adding external electric field

     Computed dipole along edir(3) :
        Dipole               -0.0022 Ry au,         -0.0055 Debye
        Dipole field         -0.0000 Ry au

        Potential amp.        0.0004 Ry
        Total length         46.5184 bohr

     End of self-consistent calculation

[...]

          k = 0.0519 0.0000 0.0000 ( 22920 PWs)   bands (ev):

[...]

          k =-0.0778-0.1347 0.0000 ( 22932 PWs)   bands (ev):

   -49.4385 -49.4292 -49.4267 -49.4178 -49.4153 -49.4063 -49.0748 -49.0634
   -49.0519 -28.1241 -28.1183 -28.1131 -28.0946 -28.0944 -28.0896 -28.0860
   -28.0776 -28.0261 -28.0142 -27.9970 -27.9876 -27.9871 -27.9774 -27.9214
   -27.9128 -27.8172 -27.8103 -27.7734 -27.6865 -27.6822 -27.6648 -27.6620
   -27.6298 -27.6295 -27.6050 -27.5213 -10.6506 -10.6358 -10.6291 -10.6221
   -10.6073 -10.6010 -10.5994 -10.5880 -10.5790 -10.5650 -10.5591 -10.5471
   -10.5421 -10.5396 -10.5240  -6.0750  -5.7572  -5.4803  -2.6841  -1.9341
    -1.7818  -1.6271  -0.6013  -0.5706  -0.5184  -0.1494   0.0240   0.0423
     0.0512   0.4742   0.4979   0.5788   0.6947   0.8535   0.9124   1.1421
     1.1456   1.1536   1.3141   1.3430   1.3773   1.4086   1.6439   1.7438
     1.8348   1.8478   1.9760   2.0314   2.1870   2.5862   2.5970   2.6855
     2.7179   2.7784   2.8630   2.8705   2.8872   2.9411   3.0044   3.0424
     3.0594   3.0817   3.1151

     the Fermi energy is     0.7444 ev

!    total energy              =   -1293.73362410 Ry
     Harris-Foulkes estimate   =   -1293.73365330 Ry
     estimated scf accuracy    <       0.00000088 Ry

     The total energy is the sum of the following terms:

     one-electron contribution =   -7672.39319229 Ry
     hartree contribution      =    3843.55711694 Ry
     xc contribution           =    -316.93027882 Ry
     ewald contribution        =    2852.14132679 Ry
     electric field correction =       0.00000001 Ry
     smearing contrib. (-TS)   =      -0.10859673 Ry

     convergence has been achieved in  18 iterations

 BEEF-vdW xc energy contributions
           1 :   -277.077946606593
           2 :    252.375141233992
           3 :   -211.370544645032
           4 :    166.193940850930
           5 :   -126.816331921180
           6 :    97.5863256493502
           7 :   -77.5895529362000
           8 :    63.4489839039740
           9 :   -52.1498001353200
          10 :    42.2901407875811
          11 :   -33.7413011659742
          12 :    26.6918621861222
          13 :   -21.0746664903431
          14 :    16.6662933941374
          15 :   -13.4465047941291
          16 :    11.6351538486540
          17 :   -11.2903423777100
          18 :    11.8979849437404
          19 :   -12.4573055239549
          20 :    12.0766412144555
          21 :   -10.5886036275462
          22 :    8.64859383108137
          23 :   -7.23037803291891
          24 :    6.92193819116289
          25 :   -7.56007424275168
          26 :    8.43484472390833
          27 :   -8.84688573498880
          28 :    8.56240715873059
          29 :   -7.86137522990828
          30 :    7.22922373629990
          31 :   -26.1866023482687
          32 :   -19.0252322428147

     Forces acting on atoms (Ry/au):

     negative rho (up, down):  1.632E-01 0.000E+00
     atom    1 type  1   force =    -0.00000108    0.00263317   -0.00178539
     atom    2 type  1   force =     0.00228387   -0.00131432   -0.00179070
     atom    3 type  1   force =    -0.00228229   -0.00131199   -0.00178967
     atom    4 type  2   force =     0.00000040   -0.00000263    0.00083257
     atom    5 type  1   force =     0.00000255   -0.00013330    0.00116667
     atom    6 type  1   force =    -0.00011883    0.00007807    0.00116330
     atom    7 type  1   force =     0.00011956    0.00007607    0.00116347
     atom    8 type  2   force =    -0.00000534    0.00001452    0.00028781
     atom    9 type  1   force =     0.00000008    0.00067553    0.00055434
     atom   10 type  1   force =     0.00060446   -0.00035880    0.00055933
     atom   11 type  1   force =    -0.00060215   -0.00035796    0.00055775
     atom   12 type  2   force =    -0.00000123    0.00000163   -0.00091948

     Total force =     0.006207     Total SCF correction =     0.007229
     SCF correction compared to forces is large: reduce conv_thr to get better values

     entering subroutine stress ...

     negative rho (up, down):  1.632E-01 0.000E+00
          total   stress  (Ry/bohr**3)                   (kbar)     P=   -7.81
  -0.00007336  -0.00000000   0.00000000        -10.79     -0.00      0.00
  -0.00000000  -0.00007339  -0.00000001         -0.00    -10.80     -0.00
   0.00000000  -0.00000001  -0.00001256          0.00     -0.00     -1.85

 !ASE

     Writing output data file calc.save

     General routines

     Parallel routines

   This run was terminated on:  23:50:29  27Dec2018

   JOB DONE.
Job  /afs/slac/g/suncat/bin/suncat-tsmpirun -x LD_LIBRARY_PATH -wdir /scratch/qe110886_j6c06 pw.x -in pw.inp

TID   HOST_NAME   COMMAND_LINE            STATUS            TERMINATION_TIME
00000 suncat0108 pw.x -in pw.inp   Done                     12/27/2018 23:50:29
00001 suncat0108 pw.x -in pw.inp   Done                     12/27/2018 23:50:29
00002 suncat0108 pw.x -in pw.inp   Done                     12/27/2018 23:50:29
00003 suncat0108 pw.x -in pw.inp   Done                     12/27/2018 23:50:29
00004 suncat0108 pw.x -in pw.inp   Done                     12/27/2018 23:50:29
00005 suncat0108 pw.x -in pw.inp   Done                     12/27/2018 23:50:29
00006 suncat0108 pw.x -in pw.inp   Done                     12/27/2018 23:50:29
00007 suncat0108 pw.x -in pw.inp   Done                     12/27/2018 23:50:29
00008 suncat0107 pw.x -in pw.inp   Done                     12/27/2018 23:50:29
00009 suncat0107 pw.x -in pw.inp   Done                     12/27/2018 23:50:29
00010 suncat0107 pw.x -in pw.inp   Done                     12/27/2018 23:50:29
00011 suncat0107 pw.x -in pw.inp   Done                     12/27/2018 23:50:29
00012 suncat0107 pw.x -in pw.inp   Done                     12/27/2018 23:50:29
00013 suncat0107 pw.x -in pw.inp   Done                     12/27/2018 23:50:29
00014 suncat0107 pw.x -in pw.inp   Done                     12/27/2018 23:50:29
00015 suncat0107 pw.x -in pw.inp   Done                     12/27/2018 23:50:29
00016 suncat0106 pw.x -in pw.inp   Done                     12/27/2018 23:50:29
00017 suncat0106 pw.x -in pw.inp   Done                     12/27/2018 23:50:29
00018 suncat0106 pw.x -in pw.inp   Done                     12/27/2018 23:50:29
00019 suncat0106 pw.x -in pw.inp   Done                     12/27/2018 23:50:29
00020 suncat0106 pw.x -in pw.inp   Done                     12/27/2018 23:50:29
00021 suncat0106 pw.x -in pw.inp   Done                     12/27/2018 23:50:29
00022 suncat0106 pw.x -in pw.inp   Done                     12/27/2018 23:50:29
00023 suncat0106 pw.x -in pw.inp   Done                     12/27/2018 23:50:29
00024 suncat0105 pw.x -in pw.inp   Done                     12/27/2018 23:50:29
00025 suncat0105 pw.x -in pw.inp   Done                     12/27/2018 23:50:29
00026 suncat0105 pw.x -in pw.inp   Done                     12/27/2018 23:50:29
00027 suncat0105 pw.x -in pw.inp   Done                     12/27/2018 23:50:29
00028 suncat0105 pw.x -in pw.inp   Done                     12/27/2018 23:50:29
00029 suncat0105 pw.x -in pw.inp   Done                     12/27/2018 23:50:29
00030 suncat0105 pw.x -in pw.inp   Done                     12/27/2018 23:50:29
00031 suncat0105 pw.x -in pw.inp   Done                     12/27/2018 23:50:29
00032 suncat0238 pw.x -in pw.inp   Done                     12/27/2018 23:50:29
00033 suncat0238 pw.x -in pw.inp   Done                     12/27/2018 23:50:29
00034 suncat0238 pw.x -in pw.inp   Done                     12/27/2018 23:50:29
00035 suncat0238 pw.x -in pw.inp   Done                     12/27/2018 23:50:29
00036 suncat0238 pw.x -in pw.inp   Done                     12/27/2018 23:50:29
00037 suncat0238 pw.x -in pw.inp   Done                     12/27/2018 23:50:29
00038 suncat0238 pw.x -in pw.inp   Done                     12/27/2018 23:50:29
00039 suncat0238 pw.x -in pw.inp   Done                     12/27/2018 23:50:29
00040 suncat0237 pw.x -in pw.inp   Done                     12/27/2018 23:50:29
00041 suncat0237 pw.x -in pw.inp   Done                     12/27/2018 23:50:29
00042 suncat0237 pw.x -in pw.inp   Done                     12/27/2018 23:50:29
00043 suncat0237 pw.x -in pw.inp   Done                     12/27/2018 23:50:29
00044 suncat0237 pw.x -in pw.inp   Done                     12/27/2018 23:50:29
00045 suncat0237 pw.x -in pw.inp   Done                     12/27/2018 23:50:29
00046 suncat0237 pw.x -in pw.inp   Done                     12/27/2018 23:50:29
00047 suncat0237 pw.x -in pw.inp   Done                     12/27/2018 23:50:29
00048 suncat0236 pw.x -in pw.inp   Done                     12/27/2018 23:50:29
00049 suncat0236 pw.x -in pw.inp   Done                     12/27/2018 23:50:29
00050 suncat0236 pw.x -in pw.inp   Done                     12/27/2018 23:50:29
00051 suncat0236 pw.x -in pw.inp   Done                     12/27/2018 23:50:29
00052 suncat0236 pw.x -in pw.inp   Done                     12/27/2018 23:50:29
00053 suncat0236 pw.x -in pw.inp   Done                     12/27/2018 23:50:29
00054 suncat0236 pw.x -in pw.inp   Done                     12/27/2018 23:50:29
00055 suncat0236 pw.x -in pw.inp   Done                     12/27/2018 23:50:29
00056 suncat0235 pw.x -in pw.inp   Done                     12/27/2018 23:50:29
00057 suncat0235 pw.x -in pw.inp   Done                     12/27/2018 23:50:29
00058 suncat0235 pw.x -in pw.inp   Done                     12/27/2018 23:50:29
00059 suncat0235 pw.x -in pw.inp   Done                     12/27/2018 23:50:29
00060 suncat0235 pw.x -in pw.inp   Done                     12/27/2018 23:50:29
00061 suncat0235 pw.x -in pw.inp   Done                     12/27/2018 23:50:29
00062 suncat0235 pw.x -in pw.inp   Done                     12/27/2018 23:50:29
00063 suncat0235 pw.x -in pw.inp   Done                     12/27/2018 23:50:29