     Program PWSCF v.5.1rc2 (svn rev. 11289) starts on  1Jan2019 at 19:10:48

     Current dimensions of program PWSCF are:
     Max number of different atomic species (ntypx) = 10
     Max number of k-points (npk) =  40000
     Max angular momentum in pseudopotentials (lmaxx) =  3
     Presently stress not available with electric field

     IMPORTANT: XC functional enforced from input :
     Exchange-correlation      = BEEF-VDW ( 1  4 27 13 2)
     Any further DFT definition will be discarded
     Please, verify this is what you really want

     Subspace diagonalization in iterative solution of the eigenvalue problem:
     a serial algorithm will be used

     bravais-lattice index     =            0
     lattice parameter (alat)  =       1.8897  a.u.
     unit-cell volume          =    4600.5630 (a.u.)^3
     number of atoms/cell      =           12
     number of atomic types    =            2
     number of electrons       =       174.00
     number of Kohn-Sham states=          117
     kinetic-energy cutoff     =      36.7493  Ry
     charge density cutoff     =     367.4932  Ry
     convergence threshold     =      1.0E-06
     mixing beta               =       0.1000
     number of iterations used =           10  plain     mixing
     Exchange-correlation      = BEEF-VDW ( 1  4 27 13 2)
     nstep                     =           50

     celldm(1)=   1.889726  celldm(2)=   0.000000  celldm(3)=   0.000000
     celldm(4)=   0.000000  celldm(5)=   0.000000  celldm(6)=   0.000000

     crystal axes: (cart. coord. in units of alat)
               a(1) = (   5.654871   0.000000   0.000000 )
               a(2) = (  -2.827435   4.897262   0.000000 )
               a(3) = (   0.000000   0.000000  24.617183 )

     reciprocal axes: (cart. coord. in units 2 pi/alat)
               b(1) = (  0.176839  0.102098  0.000000 )
               b(2) = (  0.000000  0.204196  0.000000 )
               b(3) = (  0.000000  0.000000  0.040622 )

     PseudoPot. # 1 for Tc read from file:
     /afs/slac.stanford.edu/u/if/mamunm/psp/gbrv1.5pbe/Tc.UPF
     MD5 check sum: 9eb49e5b028550b2339a02317eb7b844
     Pseudo is Ultrasoft + core correction, Zval = 15.0
     Generated by new atomic code, or converted to UPF format
     Using radial grid of  965 points,  6 beta functions with:
                l(1) =   0
                l(2) =   0
                l(3) =   1
                l(4) =   1
                l(5) =   2
                l(6) =   2
     Q(r) pseudized with  8 coefficients,  rinner =    1.300   1.300   1.300
                                                       1.300   1.300

     PseudoPot. # 2 for In read from file:
     /afs/slac.stanford.edu/u/if/mamunm/psp/gbrv1.5pbe/In.UPF
     MD5 check sum: 90777abd96fbb83f2e67db2a40c566b9
     Pseudo is Ultrasoft + core correction, Zval = 13.0
     Generated by new atomic code, or converted to UPF format
     Using radial grid of  889 points,  6 beta functions with:
                l(1) =   0
                l(2) =   0
                l(3) =   1
                l(4) =   1
                l(5) =   2
                l(6) =   2
     Q(r) pseudized with  6 coefficients,  rinner =    1.400   1.400   1.400
                                                       1.400   1.400

     vdW kernel table read from file vdW_kernel_table
     MD5 check sum: 095c7af220d748ca6e76c0b4c6cfb241

     atomic species   valence    mass     pseudopotential
        Tc1           15.00    97.90721     Tc( 1.00)
        In1           13.00   114.81800     In( 1.00)

     No symmetry found

   Cartesian axes

     site n.     atom                  positions (alat units)
         1           Tc1 tau(   1) = (   0.0000000   0.0000000  10.0000000  )
         2           Tc1 tau(   2) = (  -1.4137177   2.4486310  10.0000000  )
         3           Tc1 tau(   3) = (   1.4137177   2.4486310  10.0000000  )
         4           In1 tau(   4) = (   2.8274355   0.0000000  10.0000000  )
         5           Tc1 tau(   5) = (   2.8274355   1.6324206  12.3085914  )
         6           Tc1 tau(   6) = (   1.4137177   4.0810516  12.3085914  )
         7           Tc1 tau(   7) = (  -1.4137177   4.0810516  12.3085914  )
         8           In1 tau(   8) = (   0.0000000   1.6324206  12.3085914  )
         9           Tc1 tau(   9) = (  -0.0000000   3.2648413  14.6171828  )
        10           Tc1 tau(  10) = (   1.4137177   0.8162103  14.6171828  )
        11           Tc1 tau(  11) = (   4.2411532   0.8162103  14.6171828  )
        12           In1 tau(  12) = (   2.8274355   3.2648413  14.6171828  )

     number of k points=    20  Fermi-Dirac smearing, width (Ry)=  0.0110
                       cart. coord. in units 2pi/alat
        k(    1) = (   0.0000000   0.0000000   0.0000000), wk =   0.0555556
        k(    2) = (   0.0000000   0.0340326   0.0000000), wk =   0.1111111
        k(    3) = (   0.0000000   0.0680652   0.0000000), wk =   0.1111111
        k(    4) = (   0.0000000  -0.1020979   0.0000000), wk =   0.0555556
        k(    5) = (   0.0294731   0.0170163   0.0000000), wk =   0.1111111
        k(    6) = (   0.0294731   0.0510489   0.0000000), wk =   0.1111111
        k(    7) = (   0.0294731   0.0850816   0.0000000), wk =   0.1111111
        k(    8) = (   0.0294731  -0.0850816   0.0000000), wk =   0.1111111
        k(    9) = (   0.0294731  -0.0510489   0.0000000), wk =   0.1111111
        k(   10) = (   0.0294731  -0.0170163   0.0000000), wk =   0.1111111
        k(   11) = (   0.0589462   0.0340326   0.0000000), wk =   0.1111111
        k(   12) = (   0.0589462   0.0680652   0.0000000), wk =   0.1111111
        k(   13) = (   0.0589462   0.1020979   0.0000000), wk =   0.1111111
        k(   14) = (   0.0589462  -0.0680652   0.0000000), wk =   0.1111111
        k(   15) = (   0.0589462  -0.0340326   0.0000000), wk =   0.1111111
        k(   16) = (   0.0589462   0.0000000   0.0000000), wk =   0.1111111
        k(   17) = (  -0.0884193  -0.0510489   0.0000000), wk =   0.0555556
        k(   18) = (  -0.0884193  -0.0170163   0.0000000), wk =   0.1111111
        k(   19) = (  -0.0884193   0.0170163   0.0000000), wk =   0.1111111
        k(   20) = (  -0.0884193  -0.1531468   0.0000000), wk =   0.0555556

     Largest allocated arrays     est. size (Mb)     dimensions
     Largest temporary arrays     est. size (Mb)     dimensions

     Check: negative/imaginary core charge=   -0.000017    0.000000

     Initial potential from superposition of free atoms
     Check: negative starting charge=   -1.135971

     starting charge  160.49975, renormalised to  174.00000

     negative rho (up, down):  1.232E+00 0.000E+00

     *
     * You are using vdW-DF for exchange-correlation in this calculation.
     * Please cite the following three references that made this development
     * possible:
     *
     *   M. Dion, H. Rydberg, E. Schroder, D. C. Langreth, and
     *   B. I. Lundqvist, Phys. Rev. Lett. 92, 246401 (2004).
     *
     *   T. Thonhauser, V. R. Cooper, S. Li, A. Puzder, P. Hyldgaard, and
     *   D. C. Langreth, Phys. Rev. B 76, 125112 (2007).
     *
     *   G. Roman-Perez and J. M. Soler, Phys. Rev. Lett. 103, 096102 (2009).
     *
     *
     * If you are using vdW-DF2, please also cite:
     *
     *   K. Lee, E. D. Murray, L. Kong, B. I. Lundqvist, and
     *   D. C. Langreth, Phys. Rev. B 82, 081101(R) (2010).
     *
     *
     * If you are calculating the stress with vdW-DF, please also cite:
     *
     *   R. Sabatini, E. Kucukbenli, B. Kolb, T. Thonhauser, and
     *   S. de Gironcoli, J. Phys.: Condens. Matter 24, 424209 (2012).
     *

     Carrying out vdW-DF run using the following parameters:

     Nqs =      20    Nr_points =    1024   r_max =   100.000
     q_mesh =
               0.00001000     0.04494208     0.09755937     0.15916263
               0.23128650     0.31572767     0.41458969     0.53033537
               0.66584808     0.82450364     1.01025438     1.22772762
               1.48234092     1.78043706     2.12944203     2.53805004
               3.01644009     3.57652955     4.23227104     5.00000000

     Gradients computed in reciprocal space

     Adding external electric field

     Computed dipole along edir(3) :
        Dipole                0.0000 Ry au,          0.0000 Debye
        Dipole field          0.0000 Ry au

        Potential amp.       -0.0000 Ry
        Total length         45.3567 bohr

     Starting wfc are  144 randomized atomic wfcs

     Self-consistent Calculation

     iteration #  1     ecut=    36.75 Ry     beta=0.10
     Davidson diagonalization with overlap
     ethr =  1.00E-02,  avg # of iterations =  8.2

[...]

     total energy              =   -1978.42495536 Ry
     Harris-Foulkes estimate   =   -1989.05701844 Ry
     estimated scf accuracy    <      63.35177072 Ry

[...]

     End of self-consistent calculation

          k = 0.0000 0.0000 0.0000 ( 17351 PWs)   bands (ev):

   -65.3156 -65.2426 -65.2425 -65.0927 -65.0877 -65.0237 -65.0237 -65.0225
   -65.0224 -37.6469 -37.4715 -37.4687 -37.4687 -37.4094 -37.3809 -37.3808
   -37.3627 -37.2140 -37.2140 -37.1444 -37.1248 -37.1248 -37.0738 -37.0031
   -37.0030 -37.0023 -37.0022 -36.9396 -36.9259 -36.9259 -36.9134 -36.8915
   -36.8064 -36.8064 -36.8025 -36.8025 -12.7760 -12.7760 -12.7701 -12.7291
   -12.7291 -12.5270 -12.5207 -12.5207 -12.5126 -12.5126 -12.5025 -12.4550
   -12.4550 -12.4430 -12.4430  -6.5509  -4.9620  -4.9328  -2.9863  -2.4435
    -2.2834  -1.6577  -1.6577  -1.6272  -1.4192  -1.4192  -1.3625  -1.3625
    -1.2292  -1.0714  -1.0713  -0.4440  -0.4440   0.0181   0.0182   0.0695
     0.1336   0.6034   0.6779   0.6779   0.9626   1.0283   1.0284   1.5621
     1.6040   1.8335   1.8335   2.0854   2.0854   2.0884   2.0962   2.0963
     2.2964   2.2964   2.5579   2.5579   2.6855   2.6855   2.9358   2.9359
     3.4844   3.5377   3.5377   3.5460   3.9671   4.1697   4.3207   4.4111
     4.4949   4.5176   4.5176   4.9507   4.9508   5.5655   5.7566   6.0575
     6.3730   6.5266   7.2616   7.5211   8.2332

[...]

          k =-0.0884-0.0510 0.0000 ( 17320 PWs)   bands (ev):

[...]

     the Fermi energy is     1.8399 ev

!    total energy              =   -1981.55268860 Ry
     Harris-Foulkes estimate   =   -1981.55268226 Ry
     estimated scf accuracy    <       0.00000069 Ry

     The total energy is the sum of the following terms:

     one-electron contribution =  -16183.40937744 Ry
     hartree contribution      =    8110.50768645 Ry
     xc contribution           =    -415.29137177 Ry
     ewald contribution        =    6506.73346519 Ry
     electric field correction =       0.00000000 Ry
     smearing contrib. (-TS)   =      -0.09309103 Ry

     convergence has been achieved in  19 iterations

 BEEF-vdW xc energy contributions
           1 :   -363.696702259108
           2 :    333.947803040688
           3 :   -281.737180042216
           4 :    218.665066539334
           5 :   -156.621330024985
           6 :    104.110366026710
           7 :   -64.5019440230896
           8 :    36.4945932111873
           9 :   -16.2751685094456
          10 :   7.091201526890245E-002
          11 :    14.0384287445994
          12 :   -25.7317779486652
[...]
     MD5 check sum: 9eb49e5b028550b2339a02317eb7b844
     Pseudo is Ultrasoft + core correction, Zval = 15.0
     Generated by new atomic code, or converted to UPF format
     Using radial grid of  965 points,  6 beta functions with:
                l(1) =   0
                l(2) =   0
                l(3) =   1
                l(4) =   1
                l(5) =   2
                l(6) =   2
     Q(r) pseudized with  8 coefficients,  rinner =    1.300   1.300   1.300
                                                       1.300   1.300

     PseudoPot. # 2 for In read from file:
     /afs/slac.stanford.edu/u/if/mamunm/psp/gbrv1.5pbe/In.UPF
     MD5 check sum: 90777abd96fbb83f2e67db2a40c566b9
     Pseudo is Ultrasoft + core correction, Zval = 13.0
     Generated by new atomic code, or converted to UPF format
     Using radial grid of  889 points,  6 beta functions with:
                l(1) =   0
                l(2) =   0
                l(3) =   1
                l(4) =   1
                l(5) =   2
                l(6) =   2
     Q(r) pseudized with  6 coefficients,  rinner =    1.400   1.400   1.400
                                                       1.400   1.400

     vdW kernel table read from file vdW_kernel_table
     MD5 check sum: 095c7af220d748ca6e76c0b4c6cfb241

     atomic species   valence    mass     pseudopotential
        Tc1           15.00    97.90721     Tc( 1.00)
        In1           13.00   114.81800     In( 1.00)

     No symmetry found

   Cartesian axes

     site n.     atom                  positions (alat units)
         1           Tc1 tau(   1) = (   0.0000000   0.0000000  10.0000000  )
         2           Tc1 tau(   2) = (  -1.4137177   2.4486310  10.0000000  )
         3           Tc1 tau(   3) = (   1.4137177   2.4486310  10.0000000  )
         4           In1 tau(   4) = (   2.8274355   0.0000000  10.0000000  )
         5           Tc1 tau(   5) = (   2.8274355   1.6324206  12.3085914  )
         6           Tc1 tau(   6) = (   1.4137177   4.0810516  12.3085914  )
         7           Tc1 tau(   7) = (  -1.4137177   4.0810516  12.3085914  )
         8           In1 tau(   8) = (   0.0000000   1.6324206  12.3085914  )
         9           Tc1 tau(   9) = (  -0.0001250   3.4470223  14.4899570  )
        10           Tc1 tau(  10) = (   1.5715592   0.7250802  14.4898579  )
        11           Tc1 tau(  11) = (   4.0831878   0.7251528  14.4898266  )
        12           In1 tau(  12) = (   2.8273597   3.2649019  14.9865571  )

     number of k points=    20  Fermi-Dirac smearing, width (Ry)=  0.0110
                       cart. coord. in units 2pi/alat
        k(    1) = (   0.0000000   0.0000000   0.0000000), wk =   0.0555556
        k(    2) = (   0.0000000   0.0340326   0.0000000), wk =   0.1111111
        k(    3) = (   0.0000000   0.0680652   0.0000000), wk =   0.1111111
        k(    4) = (   0.0000000  -0.1020979   0.0000000), wk =   0.0555556
        k(    5) = (   0.0294731   0.0170163   0.0000000), wk =   0.1111111
        k(    6) = (   0.0294731   0.0510489   0.0000000), wk =   0.1111111
        k(    7) = (   0.0294731   0.0850816   0.0000000), wk =   0.1111111
        k(    8) = (   0.0294731  -0.0850816   0.0000000), wk =   0.1111111
        k(    9) = (   0.0294731  -0.0510489   0.0000000), wk =   0.1111111
        k(   10) = (   0.0294731  -0.0170163   0.0000000), wk =   0.1111111
        k(   11) = (   0.0589462   0.0340326   0.0000000), wk =   0.1111111
        k(   12) = (   0.0589462   0.0680652   0.0000000), wk =   0.1111111
        k(   13) = (   0.0589462   0.1020979   0.0000000), wk =   0.1111111
        k(   14) = (   0.0589462  -0.0680652   0.0000000), wk =   0.1111111
        k(   15) = (   0.0589462  -0.0340326   0.0000000), wk =   0.1111111
        k(   16) = (   0.0589462   0.0000000   0.0000000), wk =   0.1111111
        k(   17) = (  -0.0884193  -0.0510489   0.0000000), wk =   0.0555556
        k(   18) = (  -0.0884193  -0.0170163   0.0000000), wk =   0.1111111
        k(   19) = (  -0.0884193   0.0170163   0.0000000), wk =   0.1111111
        k(   20) = (  -0.0884193  -0.1531468   0.0000000), wk =   0.0555556

     Largest allocated arrays     est. size (Mb)     dimensions
     Largest temporary arrays     est. size (Mb)     dimensions

     Check: negative/imaginary core charge=   -0.000017    0.000000

     Initial potential from superposition of free atoms
     Check: negative starting charge=   -1.134254

     starting charge  160.49975, renormalised to  174.00000

[...]

     *
     * You are using vdW-DF for exchange-correlation in this calculation.
     * Please cite the following three references that made this development
     * possible:
     *
     *   M. Dion, H. Rydberg, E. Schroder, D. C. Langreth, and
     *   B. I. Lundqvist, Phys. Rev. Lett. 92, 246401 (2004).
     *
     *   T. Thonhauser, V. R. Cooper, S. Li, A. Puzder, P. Hyldgaard, and
     *   D. C. Langreth, Phys. Rev. B 76, 125112 (2007).
     *
     *   G. Roman-Perez and J. M. Soler, Phys. Rev. Lett. 103, 096102 (2009).
     *
     *
     * If you are using vdW-DF2, please also cite:
     *
     *   K. Lee, E. D. Murray, L. Kong, B. I. Lundqvist, and
     *   D. C. Langreth, Phys. Rev. B 82, 081101(R) (2010).
     *
     *
     * If you are calculating the stress with vdW-DF, please also cite:
     *
     *   R. Sabatini, E. Kucukbenli, B. Kolb, T. Thonhauser, and
     *   S. de Gironcoli, J. Phys.: Condens. Matter 24, 424209 (2012).
     *

     Carrying out vdW-DF run using the following parameters:

     Nqs =      20    Nr_points =    1024   r_max =   100.000
     q_mesh =
               0.00001000     0.04494208     0.09755937     0.15916263
               0.23128650     0.31572767     0.41458969     0.53033537
               0.66584808     0.82450364     1.01025438     1.22772762
               1.48234092     1.78043706     2.12944203     2.53805004
               3.01644009     3.57652955     4.23227104     5.00000000

     Gradients computed in reciprocal space

[...]

     Starting wfc are  144 randomized atomic wfcs

     Self-consistent Calculation

[...]

     total energy              =   -1981.61646792 Ry
     Harris-Foulkes estimate   =   -1981.61646649 Ry
     estimated scf accuracy    <       0.00000104 Ry

     iteration # 20     ecut=    36.75 Ry     beta=0.10
     Davidson diagonalization with overlap
     ethr =  5.98E-10,  avg # of iterations =  1.0

[...]

     negative rho (up, down):  1.180E+00 0.000E+00

     Adding external electric field

     Computed dipole along edir(3) :
        Dipole                0.0901 Ry au,          0.2289 Debye
        Dipole field          0.0002 Ry au

        Potential amp.       -0.0223 Ry
        Total length         45.3567 bohr

     End of self-consistent calculation

[...]

          k = 0.0589 0.0000 0.0000 ( 17312 PWs)   bands (ev):

[...]

          k =-0.0884-0.1531 0.0000 ( 17320 PWs)   bands (ev):

   -65.2367 -65.1840 -65.1520 -65.1431 -65.0592 -65.0504 -64.9355 -64.9133
   -64.8906 -37.6956 -37.5326 -37.4763 -37.4682 -37.4122 -37.3000 -37.2620
   -37.2073 -37.2029 -37.1628 -37.1340 -37.1277 -37.0022 -36.9716 -36.9580
   -36.9466 -36.9307 -36.9295 -36.8947 -36.8893 -36.8624 -36.8498 -36.8239
   -36.8102 -36.7971 -36.7502 -36.6907 -12.6828 -12.6564 -12.6457 -12.6195
   -12.6188 -12.4670 -12.4402 -12.4267 -12.4246 -12.4168 -12.3909 -12.3527
   -12.3486 -12.3288 -12.3232  -5.1248  -4.5444  -3.8764  -2.9118  -2.4855
    -2.3643  -2.1970  -1.8571  -1.5487  -1.3251  -1.2799  -1.2617  -1.0797
    -0.9784  -0.8908  -0.7004  -0.4945  -0.4628  -0.4248  -0.4083  -0.1357
    -0.0397   0.2132   0.2205   0.4161   0.5338   0.6132   0.7557   0.7826
     0.8493   0.9549   1.1002   1.1519   1.6578   1.6812   1.8117   1.9346
     1.9731   2.1226   2.1534   2.2296   2.4323   2.4908   2.5075   2.5182
     3.0451   3.1489   3.3329   3.5621   3.6603   3.7938   4.2834   4.6052
     5.0650   5.5736   5.6528   5.9812   6.1648   6.6692   7.0408   7.0821
     7.5243   7.5657   7.6387   7.6881   8.1543

     the Fermi energy is     1.9721 ev

!    total energy              =   -1981.61647520 Ry
     Harris-Foulkes estimate   =   -1981.61646849 Ry
     estimated scf accuracy    <       0.00000067 Ry

     The total energy is the sum of the following terms:

     one-electron contribution =  -16220.49404560 Ry
     hartree contribution      =    8129.32070139 Ry
     xc contribution           =    -415.44934497 Ry
     ewald contribution        =    6525.09473984 Ry
     electric field correction =       0.00002216 Ry
     smearing contrib. (-TS)   =      -0.08854802 Ry

     convergence has been achieved in  20 iterations

 BEEF-vdW xc energy contributions
           1 :   -364.116055550416
           2 :    334.406511444183
           3 :   -282.248534711290
           4 :    219.201869073676
           5 :   -157.110721482450
           6 :    104.451724868499
           7 :   -64.6053290533129
           8 :    36.3303768264045
           9 :   -15.9096897742998
          10 :  -0.336471823621878
          11 :    14.2889171625538
          12 :   -25.6761515411093
          13 :    32.9264186027651
          14 :   -34.5599437973291
          15 :    30.2951170007943
          16 :   -21.3983705931201
          17 :    10.2290417775893
          18 :   0.639461510308251
          19 :   -9.25208584862889
          20 :    14.6822936335983
          21 :   -16.9517809274231
          22 :    16.6162272027066
          23 :   -14.3120043654296
          24 :    10.4893043256652
          25 :   -5.41980593694666
          26 :  -0.611810431608774
          27 :    7.10181158290834
          28 :   -13.2659979921010
          29 :    18.1719957943567
          30 :   -21.0059679179499
          31 :   -34.1100852480607
          32 :   -24.9873879782795

     Forces acting on atoms (Ry/au):

     negative rho (up, down):  1.180E+00 0.000E+00
     atom    1 type  1   force =    -0.00000884   -0.03239522    0.01792521
     atom    2 type  1   force =    -0.02806001    0.01620434    0.01791608
     atom    3 type  1   force =     0.02805194    0.01620983    0.01792274
     atom    4 type  2   force =    -0.00000710    0.00001205   -0.06030384
     atom    5 type  1   force =     0.00000726    0.02022774    0.00281990
     atom    6 type  1   force =     0.01749960   -0.01011102    0.00283914
     atom    7 type  1   force =    -0.01750304   -0.01012207    0.00283386
     atom    8 type  2   force =     0.00000506   -0.00001596   -0.00100769
     atom    9 type  1   force =     0.00001647    0.00012075   -0.00048654
     atom   10 type  1   force =     0.00009775   -0.00005989   -0.00045246
     atom   11 type  1   force =    -0.00008644   -0.00007245   -0.00045904
     atom   12 type  2   force =    -0.00001265    0.00000190    0.00045263

     Total force =     0.094876     Total SCF correction =     0.003275

     entering subroutine stress ...

     negative rho (up, down):  1.180E+00 0.000E+00
          total   stress  (Ry/bohr**3)                   (kbar)     P=  -20.19
  -0.00020299  -0.00000000   0.00000001        -29.86     -0.00      0.00
  -0.00000000  -0.00020303   0.00000000         -0.00    -29.87      0.00
   0.00000001   0.00000000  -0.00000576          0.00      0.00     -0.85

 !ASE

     Writing output data file calc.save

     General routines

     Parallel routines

   This run was terminated on:  20:56:15   1Jan2019

   JOB DONE.
Job  /afs/slac/g/suncat/bin/suncat-tsmpirun -x LD_LIBRARY_PATH -wdir /scratch/qe649154_Dc0xe pw.x -in pw.inp

TID   HOST_NAME   COMMAND_LINE            STATUS            TERMINATION_TIME
00000 suncat0182 pw.x -in pw.inp   Done                     01/01/2019 20:56:15
00001 suncat0182 pw.x -in pw.inp   Done                     01/01/2019 20:56:15
00002 suncat0182 pw.x -in pw.inp   Done                     01/01/2019 20:56:15
00003 suncat0182 pw.x -in pw.inp   Done                     01/01/2019 20:56:15
00004 suncat0182 pw.x -in pw.inp   Done                     01/01/2019 20:56:15
00005 suncat0182 pw.x -in pw.inp   Done                     01/01/2019 20:56:15
00006 suncat0182 pw.x -in pw.inp   Done                     01/01/2019 20:56:15
00007 suncat0182 pw.x -in pw.inp   Done                     01/01/2019 20:56:15
00008 suncat0181 pw.x -in pw.inp   Done                     01/01/2019 20:56:15
00009 suncat0181 pw.x -in pw.inp   Done                     01/01/2019 20:56:15
00010 suncat0181 pw.x -in pw.inp   Done                     01/01/2019 20:56:15
00011 suncat0181 pw.x -in pw.inp   Done                     01/01/2019 20:56:15
00012 suncat0181 pw.x -in pw.inp   Done                     01/01/2019 20:56:15
00013 suncat0181 pw.x -in pw.inp   Done                     01/01/2019 20:56:15
00014 suncat0181 pw.x -in pw.inp   Done                     01/01/2019 20:56:15
00015 suncat0181 pw.x -in pw.inp   Done                     01/01/2019 20:56:15
00016 suncat0132 pw.x -in pw.inp   Done                     01/01/2019 20:56:15
00017 suncat0132 pw.x -in pw.inp   Done                     01/01/2019 20:56:15
00018 suncat0132 pw.x -in pw.inp   Done                     01/01/2019 20:56:15
00019 suncat0132 pw.x -in pw.inp   Done                     01/01/2019 20:56:15
00020 suncat0132 pw.x -in pw.inp   Done                     01/01/2019 20:56:15
00021 suncat0132 pw.x -in pw.inp   Done                     01/01/2019 20:56:15
00022 suncat0132 pw.x -in pw.inp   Done                     01/01/2019 20:56:15
00023 suncat0132 pw.x -in pw.inp   Done                     01/01/2019 20:56:15
00024 suncat0131 pw.x -in pw.inp   Done                     01/01/2019 20:56:15
00025 suncat0131 pw.x -in pw.inp   Done                     01/01/2019 20:56:15
00026 suncat0131 pw.x -in pw.inp   Done                     01/01/2019 20:56:15
00027 suncat0131 pw.x -in pw.inp   Done                     01/01/2019 20:56:15
00028 suncat0131 pw.x -in pw.inp   Done                     01/01/2019 20:56:15
00029 suncat0131 pw.x -in pw.inp   Done                     01/01/2019 20:56:15
00030 suncat0131 pw.x -in pw.inp   Done                     01/01/2019 20:56:15
00031 suncat0131 pw.x -in pw.inp   Done                     01/01/2019 20:56:15
00032 suncat0130 pw.x -in pw.inp   Done                     01/01/2019 20:56:15
00033 suncat0130 pw.x -in pw.inp   Done                     01/01/2019 20:56:15
00034 suncat0130 pw.x -in pw.inp   Done                     01/01/2019 20:56:15
00035 suncat0130 pw.x -in pw.inp   Done                     01/01/2019 20:56:15
00036 suncat0130 pw.x -in pw.inp   Done                     01/01/2019 20:56:15
00037 suncat0130 pw.x -in pw.inp   Done                     01/01/2019 20:56:15
00038 suncat0130 pw.x -in pw.inp   Done                     01/01/2019 20:56:15
00039 suncat0130 pw.x -in pw.inp   Done                     01/01/2019 20:56:15
00040 suncat0124 pw.x -in pw.inp   Done                     01/01/2019 20:56:15
00041 suncat0124 pw.x -in pw.inp   Done                     01/01/2019 20:56:15
00042 suncat0124 pw.x -in pw.inp   Done                     01/01/2019 20:56:15
00043 suncat0124 pw.x -in pw.inp   Done                     01/01/2019 20:56:15
00044 suncat0124 pw.x -in pw.inp   Done                     01/01/2019 20:56:15
00045 suncat0124 pw.x -in pw.inp   Done                     01/01/2019 20:56:15
00046 suncat0124 pw.x -in pw.inp   Done                     01/01/2019 20:56:15
00047 suncat0124 pw.x -in pw.inp   Done                     01/01/2019 20:56:15
00048 suncat0280 pw.x -in pw.inp   Done                     01/01/2019 20:56:15
00049 suncat0280 pw.x -in pw.inp   Done                     01/01/2019 20:56:15
00050 suncat0280 pw.x -in pw.inp   Done                     01/01/2019 20:56:15
00051 suncat0280 pw.x -in pw.inp   Done                     01/01/2019 20:56:15
00052 suncat0280 pw.x -in pw.inp   Done                     01/01/2019 20:56:15
00053 suncat0280 pw.x -in pw.inp   Done                     01/01/2019 20:56:15
00054 suncat0280 pw.x -in pw.inp   Done                     01/01/2019 20:56:15
00055 suncat0280 pw.x -in pw.inp   Done                     01/01/2019 20:56:15
00056 suncat0279 pw.x -in pw.inp   Done                     01/01/2019 20:56:15
00057 suncat0279 pw.x -in pw.inp   Done                     01/01/2019 20:56:15
00058 suncat0279 pw.x -in pw.inp   Done                     01/01/2019 20:56:15
00059 suncat0279 pw.x -in pw.inp   Done                     01/01/2019 20:56:15
00060 suncat0279 pw.x -in pw.inp   Done                     01/01/2019 20:56:15
00061 suncat0279 pw.x -in pw.inp   Done                     01/01/2019 20:56:15
00062 suncat0279 pw.x -in pw.inp   Done                     01/01/2019 20:56:15
00063 suncat0279 pw.x -in pw.inp   Done                     01/01/2019 20:56:15