     Program PWSCF v.5.1rc2 (svn rev. 11289) starts on 19Dec2018 at 18:16:35

     Current dimensions of program PWSCF are:
     Max number of different atomic species (ntypx) = 10
     Max number of k-points (npk) =  40000
     Max angular momentum in pseudopotentials (lmaxx) =  3
     Presently stress not available with electric field

     IMPORTANT: XC functional enforced from input :
     Exchange-correlation      = BEEF-VDW ( 1  4 27 13 2)
     Any further DFT definition will be discarded
     Please, verify this is what you really want

     Subspace diagonalization in iterative solution of the eigenvalue problem:
     a serial algorithm will be used

     bravais-lattice index     =            0
     lattice parameter (alat)  =       1.8897  a.u.
     unit-cell volume          =    4255.9638 (a.u.)^3
     number of atoms/cell      =           12
     number of atomic types    =            2
     number of electrons       =        75.00
     number of Kohn-Sham states=           67
     kinetic-energy cutoff     =      36.7493  Ry
     charge density cutoff     =     367.4932  Ry
     convergence threshold     =      1.0E-06
     mixing beta               =       0.1000
     number of iterations used =           10  plain     mixing
     Exchange-correlation      = BEEF-VDW ( 1  4 27 13 2)
     nstep                     =           50

     celldm(1)=   1.889726  celldm(2)=   0.000000  celldm(3)=   0.000000
     celldm(4)=   0.000000  celldm(5)=   0.000000  celldm(6)=   0.000000

     crystal axes: (cart. coord. in units of alat)
               a(1) = (   5.456908   0.000000   0.000000 )
               a(2) = (  -2.728454   4.725821   0.000000 )
               a(3) = (   0.000000   0.000000  24.455547 )

     reciprocal axes: (cart. coord. in units 2 pi/alat)
               b(1) = (  0.183254  0.105802  0.000000 )
               b(2) = (  0.000000  0.211603  0.000000 )
               b(3) = (  0.000000  0.000000  0.040891 )

     PseudoPot. # 1 for Al read from file:
     /afs/slac.stanford.edu/u/if/mamunm/psp/gbrv1.5pbe/Al.UPF
     MD5 check sum: 0a6289f5291fc8f409219462bc851e1f
     Pseudo is Ultrasoft + core correction, Zval =  3.0
     Generated by new atomic code, or converted to UPF format
     Using radial grid of  893 points,  3 beta functions with:
                l(1) =   0
                l(2) =   1
                l(3) =   2
     Q(r) pseudized with  8 coefficients,  rinner =    0.900   0.900   0.900
                                                       0.900   0.900

     PseudoPot. # 2 for Ru read from file:
     /afs/slac.stanford.edu/u/if/mamunm/psp/gbrv1.5pbe/Ru.UPF
     MD5 check sum: 7158a806dd851261a58e6920c40ebe78
     Pseudo is Ultrasoft + core correction, Zval = 16.0
     Generated by new atomic code, or converted to UPF format
     Using radial grid of  967 points,  6 beta functions with:
                l(1) =   0
                l(2) =   0
                l(3) =   1
                l(4) =   1
                l(5) =   2
                l(6) =   2
     Q(r) pseudized with  8 coefficients,  rinner =    1.300   1.300   1.300
                                                       1.300   1.300

     vdW kernel table read from file vdW_kernel_table
     MD5 check sum: 095c7af220d748ca6e76c0b4c6cfb241

     atomic species   valence    mass     pseudopotential
        Al1            3.00    26.98154     Al( 1.00)
        Ru1           16.00   101.07000     Ru( 1.00)

     No symmetry found

   Cartesian axes

     site n.     atom                  positions (alat units)
         1           Al1 tau(   1) = (   0.0000000   0.0000000  10.0000000  )
         2           Al1 tau(   2) = (  -1.3642271   2.3629106  10.0000000  )
         3           Al1 tau(   3) = (   1.3642271   2.3629106  10.0000000  )
         4           Ru1 tau(   4) = (   2.7284541   0.0000000  10.0000000  )
         5           Al1 tau(   5) = (   2.7284541   1.5752737  12.2277735  )
         6           Al1 tau(   6) = (   1.3642271   3.9381843  12.2277735  )
         7           Al1 tau(   7) = (  -1.3642271   3.9381843  12.2277735  )
         8           Ru1 tau(   8) = (   0.0000000   1.5752737  12.2277735  )
         9           Al1 tau(   9) = (  -0.0000000   3.1505475  14.4555470  )
        10           Al1 tau(  10) = (   1.3642271   0.7876369  14.4555470  )
        11           Al1 tau(  11) = (   4.0926812   0.7876369  14.4555470  )
        12           Ru1 tau(  12) = (   2.7284541   3.1505475  14.4555470  )

     number of k points=    20  Fermi-Dirac smearing, width (Ry)=  0.0110
                       cart. coord. in units 2pi/alat
        k(    1) = (   0.0000000   0.0000000   0.0000000), wk =   0.0555556
        k(    2) = (   0.0000000   0.0352672   0.0000000), wk =   0.1111111
        k(    3) = (   0.0000000   0.0705345   0.0000000), wk =   0.1111111
        k(    4) = (   0.0000000  -0.1058017   0.0000000), wk =   0.0555556
        k(    5) = (   0.0305423   0.0176336   0.0000000), wk =   0.1111111
        k(    6) = (   0.0305423   0.0529009   0.0000000), wk =   0.1111111
        k(    7) = (   0.0305423   0.0881681   0.0000000), wk =   0.1111111
        k(    8) = (   0.0305423  -0.0881681   0.0000000), wk =   0.1111111
        k(    9) = (   0.0305423  -0.0529009   0.0000000), wk =   0.1111111
        k(   10) = (   0.0305423  -0.0176336   0.0000000), wk =   0.1111111
        k(   11) = (   0.0610847   0.0352672   0.0000000), wk =   0.1111111
        k(   12) = (   0.0610847   0.0705345   0.0000000), wk =   0.1111111
        k(   13) = (   0.0610847   0.1058017   0.0000000), wk =   0.1111111
        k(   14) = (   0.0610847  -0.0705345   0.0000000), wk =   0.1111111
        k(   15) = (   0.0610847  -0.0352672   0.0000000), wk =   0.1111111
        k(   16) = (   0.0610847   0.0000000   0.0000000), wk =   0.1111111
        k(   17) = (  -0.0916270  -0.0529009   0.0000000), wk =   0.0555556
        k(   18) = (  -0.0916270  -0.0176336   0.0000000), wk =   0.1111111
        k(   19) = (  -0.0916270   0.0176336   0.0000000), wk =   0.1111111
        k(   20) = (  -0.0916270  -0.1587026   0.0000000), wk =   0.0555556

     Largest allocated arrays     est. size (Mb)     dimensions
     Largest temporary arrays     est. size (Mb)     dimensions

     Initial potential from superposition of free atoms
     Check: negative starting charge=   -0.217495

     starting charge   71.97776, renormalised to   75.00000

     negative rho (up, down):  2.266E-01 0.000E+00

     *
     * You are using vdW-DF for exchange-correlation in this calculation.
     * Please cite the following three references that made this development
     * possible:
     *
     *   M. Dion, H. Rydberg, E. Schroder, D. C. Langreth, and
     *   B. I. Lundqvist, Phys. Rev. Lett. 92, 246401 (2004).
     *
     *   T. Thonhauser, V. R. Cooper, S. Li, A. Puzder, P. Hyldgaard, and
     *   D. C. Langreth, Phys. Rev. B 76, 125112 (2007).
     *
     *   G. Roman-Perez and J. M. Soler, Phys. Rev. Lett. 103, 096102 (2009).
     *
     *
     * If you are using vdW-DF2, please also cite:
     *
     *   K. Lee, E. D. Murray, L. Kong, B. I. Lundqvist, and
     *   D. C. Langreth, Phys. Rev. B 82, 081101(R) (2010).
     *
     *
     * If you are calculating the stress with vdW-DF, please also cite:
     *
     *   R. Sabatini, E. Kucukbenli, B. Kolb, T. Thonhauser, and
     *   S. de Gironcoli, J. Phys.: Condens. Matter 24, 424209 (2012).
     *

     Carrying out vdW-DF run using the following parameters:

     Nqs =      20    Nr_points =    1024   r_max =   100.000
     q_mesh =
               0.00001000     0.04494208     0.09755937     0.15916263
               0.23128650     0.31572767     0.41458969     0.53033537
               0.66584808     0.82450364     1.01025438     1.22772762
               1.48234092     1.78043706     2.12944203     2.53805004
               3.01644009     3.57652955     4.23227104     5.00000000

     Gradients computed in reciprocal space

     Adding external electric field

     Computed dipole along edir(3) :
        Dipole                0.0000 Ry au,          0.0000 Debye
        Dipole field          0.0000 Ry au

        Potential amp.       -0.0000 Ry
        Total length         45.0589 bohr

     Starting wfc are   75 randomized atomic wfcs

     Self-consistent Calculation

     iteration #  1     ecut=    36.75 Ry     beta=0.10
     Davidson diagonalization with overlap
     ethr =  1.00E-02,  avg # of iterations =  6.7

[...]

     total energy              =    -647.31014114 Ry
     Harris-Foulkes estimate   =    -648.34585519 Ry
     estimated scf accuracy    <       6.06001716 Ry

[...]

     End of self-consistent calculation

          k = 0.0000 0.0000 0.0000 ( 15905 PWs)   bands (ev):

   -72.4038 -72.3120 -72.3119 -42.4484 -42.4484 -42.3675 -42.3427 -42.3427
   -42.3425 -42.3425 -42.2204 -42.2201 -10.5294  -8.7132  -6.4720  -5.3685
    -5.3685  -4.5725  -4.5366  -4.5366  -4.0722  -4.0722  -3.8754  -3.0355
    -2.9871  -2.9871  -2.3096  -2.0674  -2.0674  -1.5705  -1.2648  -1.2452
    -1.2452  -1.1287  -1.1287  -0.9204  -0.9204  -0.5857  -0.4190  -0.4190
     0.8289   1.9164   1.9164   2.0380   2.1629   2.1629   2.1646   2.6916
     2.7563   2.7563   3.7245   4.0003   4.5721   4.8554   4.9689   4.9689
     5.2677   5.3959   5.3959   5.4729   6.6745   6.8046   6.8912   7.2772
     7.2772   8.1181   8.1645

[...]

          k =-0.0916-0.0529 0.0000 ( 16036 PWs)   bands (ev):

[...]

     the Fermi energy is    -0.1692 ev

!    total energy              =    -647.45946590 Ry
     Harris-Foulkes estimate   =    -647.45946639 Ry
     estimated scf accuracy    <       0.00000088 Ry

     The total energy is the sum of the following terms:

     one-electron contribution =   -3496.52057755 Ry
     hartree contribution      =    1750.66336853 Ry
     xc contribution           =    -120.93816492 Ry
     ewald contribution        =    1219.37885079 Ry
     electric field correction =       0.00000000 Ry
     smearing contrib. (-TS)   =      -0.04294276 Ry

     convergence has been achieved in  14 iterations

 BEEF-vdW xc energy contributions
           1 :   -103.077939791327
           2 :    92.7238868765855
           3 :   -75.6903794700691
           4 :    57.2688175516234
           5 :   -41.8242086451157
           6 :    31.2865229910894
           7 :   -25.2346180837134
           8 :    22.0674889588640
           9 :   -20.2409876406916
          10 :    18.8320423984471
          11 :   -17.4219753901457
          12 :    15.7848429241628
          13 :   -13.8018371981331
          14 :    11.5965922895015
          15 :   -9.59283019874668
          16 :    8.28730912595583
          17 :   -7.86822049217119
          18 :    8.01546441583659
          19 :   -8.08883678546204
          20 :    7.56987010808034
          21 :   -6.40577116325474
          22 :    4.99596240688821
          23 :   -3.86398958484943
          24 :    3.29318348458617
          25 :   -3.19333689360342
          26 :    3.24727279568586
          27 :   -3.16958442837313
          28 :    2.86362027539765
          29 :   -2.39633581032162
          30 :    1.87731232926529
[...]
     celldm(4)=   0.000000  celldm(5)=   0.000000  celldm(6)=   0.000000

     crystal axes: (cart. coord. in units of alat)
               a(1) = (   5.456908   0.000000   0.000000 )
               a(2) = (  -2.728454   4.725821   0.000000 )
               a(3) = (   0.000000   0.000000  24.455547 )

     reciprocal axes: (cart. coord. in units 2 pi/alat)
               b(1) = (  0.183254  0.105802  0.000000 )
               b(2) = (  0.000000  0.211603  0.000000 )
               b(3) = (  0.000000  0.000000  0.040891 )

     PseudoPot. # 1 for Al read from file:
     /afs/slac.stanford.edu/u/if/mamunm/psp/gbrv1.5pbe/Al.UPF
     MD5 check sum: 0a6289f5291fc8f409219462bc851e1f
     Pseudo is Ultrasoft + core correction, Zval =  3.0
     Generated by new atomic code, or converted to UPF format
     Using radial grid of  893 points,  3 beta functions with:
                l(1) =   0
                l(2) =   1
                l(3) =   2
     Q(r) pseudized with  8 coefficients,  rinner =    0.900   0.900   0.900
                                                       0.900   0.900

     PseudoPot. # 2 for Ru read from file:
     /afs/slac.stanford.edu/u/if/mamunm/psp/gbrv1.5pbe/Ru.UPF
     MD5 check sum: 7158a806dd851261a58e6920c40ebe78
     Pseudo is Ultrasoft + core correction, Zval = 16.0
     Generated by new atomic code, or converted to UPF format
     Using radial grid of  967 points,  6 beta functions with:
                l(1) =   0
                l(2) =   0
                l(3) =   1
                l(4) =   1
                l(5) =   2
                l(6) =   2
     Q(r) pseudized with  8 coefficients,  rinner =    1.300   1.300   1.300
                                                       1.300   1.300

     vdW kernel table read from file vdW_kernel_table
     MD5 check sum: 095c7af220d748ca6e76c0b4c6cfb241

     atomic species   valence    mass     pseudopotential
        Al1            3.00    26.98154     Al( 1.00)
        Ru1           16.00   101.07000     Ru( 1.00)

     No symmetry found

   Cartesian axes

     site n.     atom                  positions (alat units)
         1           Al1 tau(   1) = (   0.0000000   0.0000000  10.0000000  )
         2           Al1 tau(   2) = (  -1.3642271   2.3629106  10.0000000  )
         3           Al1 tau(   3) = (   1.3642271   2.3629106  10.0000000  )
         4           Ru1 tau(   4) = (   2.7284541   0.0000000  10.0000000  )
         5           Al1 tau(   5) = (   2.7284541   1.5752737  12.2277735  )
         6           Al1 tau(   6) = (   1.3642271   3.9381843  12.2277735  )
         7           Al1 tau(   7) = (  -1.3642271   3.9381843  12.2277735  )
         8           Ru1 tau(   8) = (   0.0000000   1.5752737  12.2277735  )
         9           Al1 tau(   9) = (  -0.0000007   3.1366393  14.5879968  )
        10           Al1 tau(  10) = (   1.3521811   0.7945922  14.5879966  )
        11           Al1 tau(  11) = (   4.1047257   0.7945921  14.5879967  )
        12           Ru1 tau(  12) = (   2.7284543   3.1505476  14.2783720  )

     number of k points=    20  Fermi-Dirac smearing, width (Ry)=  0.0110
                       cart. coord. in units 2pi/alat
        k(    1) = (   0.0000000   0.0000000   0.0000000), wk =   0.0555556
        k(    2) = (   0.0000000   0.0352672   0.0000000), wk =   0.1111111
        k(    3) = (   0.0000000   0.0705345   0.0000000), wk =   0.1111111
        k(    4) = (   0.0000000  -0.1058017   0.0000000), wk =   0.0555556
        k(    5) = (   0.0305423   0.0176336   0.0000000), wk =   0.1111111
        k(    6) = (   0.0305423   0.0529009   0.0000000), wk =   0.1111111
        k(    7) = (   0.0305423   0.0881681   0.0000000), wk =   0.1111111
        k(    8) = (   0.0305423  -0.0881681   0.0000000), wk =   0.1111111
        k(    9) = (   0.0305423  -0.0529009   0.0000000), wk =   0.1111111
        k(   10) = (   0.0305423  -0.0176336   0.0000000), wk =   0.1111111
        k(   11) = (   0.0610847   0.0352672   0.0000000), wk =   0.1111111
        k(   12) = (   0.0610847   0.0705345   0.0000000), wk =   0.1111111
        k(   13) = (   0.0610847   0.1058017   0.0000000), wk =   0.1111111
        k(   14) = (   0.0610847  -0.0705345   0.0000000), wk =   0.1111111
        k(   15) = (   0.0610847  -0.0352672   0.0000000), wk =   0.1111111
        k(   16) = (   0.0610847   0.0000000   0.0000000), wk =   0.1111111
        k(   17) = (  -0.0916270  -0.0529009   0.0000000), wk =   0.0555556
        k(   18) = (  -0.0916270  -0.0176336   0.0000000), wk =   0.1111111
        k(   19) = (  -0.0916270   0.0176336   0.0000000), wk =   0.1111111
        k(   20) = (  -0.0916270  -0.1587026   0.0000000), wk =   0.0555556

     Largest allocated arrays     est. size (Mb)     dimensions
     Largest temporary arrays     est. size (Mb)     dimensions

     Initial potential from superposition of free atoms
     Check: negative starting charge=   -0.217695

     starting charge   71.97776, renormalised to   75.00000

[...]

     *
     * You are using vdW-DF for exchange-correlation in this calculation.
     * Please cite the following three references that made this development
     * possible:
     *
     *   M. Dion, H. Rydberg, E. Schroder, D. C. Langreth, and
     *   B. I. Lundqvist, Phys. Rev. Lett. 92, 246401 (2004).
     *
     *   T. Thonhauser, V. R. Cooper, S. Li, A. Puzder, P. Hyldgaard, and
     *   D. C. Langreth, Phys. Rev. B 76, 125112 (2007).
     *
     *   G. Roman-Perez and J. M. Soler, Phys. Rev. Lett. 103, 096102 (2009).
     *
     *
     * If you are using vdW-DF2, please also cite:
     *
     *   K. Lee, E. D. Murray, L. Kong, B. I. Lundqvist, and
     *   D. C. Langreth, Phys. Rev. B 82, 081101(R) (2010).
     *
     *
     * If you are calculating the stress with vdW-DF, please also cite:
     *
     *   R. Sabatini, E. Kucukbenli, B. Kolb, T. Thonhauser, and
     *   S. de Gironcoli, J. Phys.: Condens. Matter 24, 424209 (2012).
     *

     Carrying out vdW-DF run using the following parameters:

     Nqs =      20    Nr_points =    1024   r_max =   100.000
     q_mesh =
               0.00001000     0.04494208     0.09755937     0.15916263
               0.23128650     0.31572767     0.41458969     0.53033537
               0.66584808     0.82450364     1.01025438     1.22772762
               1.48234092     1.78043706     2.12944203     2.53805004
               3.01644009     3.57652955     4.23227104     5.00000000

     Gradients computed in reciprocal space

[...]

     Starting wfc are   75 randomized atomic wfcs

     Self-consistent Calculation

[...]

     total energy              =    -647.47527155 Ry
     Harris-Foulkes estimate   =    -647.47527197 Ry
     estimated scf accuracy    <       0.00000429 Ry

     iteration # 17     ecut=    36.75 Ry     beta=0.10
     Davidson diagonalization with overlap
     ethr =  1.73E-09,  avg # of iterations =  1.1

[...]

     negative rho (up, down):  2.243E-01 0.000E+00

     Adding external electric field

     Computed dipole along edir(3) :
        Dipole                0.0729 Ry au,          0.1853 Debye
        Dipole field          0.0002 Ry au

        Potential amp.       -0.0194 Ry
        Total length         45.0589 bohr

     End of self-consistent calculation

[...]

          k = 0.0611 0.0000 0.0000 ( 16010 PWs)   bands (ev):

[...]

          k =-0.0916-0.1587 0.0000 ( 16036 PWs)   bands (ev):

   -72.3463 -72.2860 -72.2213 -42.3826 -42.3825 -42.3355 -42.3348 -42.2826
   -42.2470 -42.2461 -42.2339 -42.1399  -8.8968  -8.5999  -7.1700  -6.8990
    -5.9260  -5.4988  -4.9054  -4.3876  -4.3337  -3.8037  -3.2123  -3.1870
    -2.6800  -2.5700  -2.4882  -2.4719  -2.2232  -1.7752  -1.5997  -1.3027
    -0.9102  -0.7836  -0.5746  -0.4702  -0.3109   0.1630   0.3128   0.6131
     1.1115   2.0612   2.3229   2.6493   2.6758   2.7646   3.1622   3.3503
     3.6098   3.7467   4.1699   4.8060   5.0074   5.0548   5.1431   5.2544
     5.5118   5.5504   5.7031   5.8491   6.1856   6.2685   6.4162   6.6424
     6.7761   6.8343   6.9578

     the Fermi energy is    -0.0672 ev

!    total energy              =    -647.47527206 Ry
     Harris-Foulkes estimate   =    -647.47527159 Ry
     estimated scf accuracy    <       0.00000007 Ry

     The total energy is the sum of the following terms:

     one-electron contribution =   -3523.22649586 Ry
     hartree contribution      =    1764.15622817 Ry
     xc contribution           =    -120.89393196 Ry
     ewald contribution        =    1232.53178917 Ry
     electric field correction =       0.00001569 Ry
     smearing contrib. (-TS)   =      -0.04287726 Ry

     convergence has been achieved in  17 iterations

 BEEF-vdW xc energy contributions
           1 :   -103.038540826817
           2 :    92.6772531438921
           3 :   -75.6306661110172
           4 :    57.1904061052574
           5 :   -41.7180834814597
           6 :    31.1399453124955
           7 :   -25.0387029943441
           8 :    21.8269769257720
           9 :   -19.9742950661266
          10 :    18.5577789814712
          11 :   -17.1434297577752
          12 :    15.4883857691712
          13 :   -13.4717502950842
          14 :    11.2319656666211
          15 :   -9.20890669437973
          16 :    7.89942495241949
          17 :   -7.47535680741591
          18 :    7.60121796521328
          19 :   -7.63992924460935
          20 :    7.09376793086456
          21 :   -5.92908859187865
          22 :    4.54420285790773
          23 :   -3.44160487571521
          24 :    2.88230448654011
          25 :   -2.77124667620915
          26 :    2.80544487084281
          27 :   -2.71764470756609
          28 :    2.41815131372178
          29 :   -1.96859247098145
          30 :    1.47183220166706
          31 :   -12.1671112901345
          32 :   -9.09553230714410

     Forces acting on atoms (Ry/au):

     negative rho (up, down):  2.243E-01 0.000E+00
     atom    1 type  1   force =    -0.00000007    0.00987264   -0.02062554
     atom    2 type  1   force =     0.00854993   -0.00493634   -0.02062555
     atom    3 type  1   force =    -0.00854999   -0.00493630   -0.02062553
     atom    4 type  2   force =     0.00000026    0.00000009    0.04453253
     atom    5 type  1   force =    -0.00000002   -0.01299293   -0.00411461
     atom    6 type  1   force =    -0.01125226    0.00649649   -0.00411458
     atom    7 type  1   force =     0.01125217    0.00649646   -0.00411458
     atom    8 type  2   force =    -0.00000011    0.00000006    0.02833098
     atom    9 type  1   force =     0.00000004    0.00026830    0.00046150
     atom   10 type  1   force =     0.00023231   -0.00013425    0.00046150
     atom   11 type  1   force =    -0.00023227   -0.00013427    0.00046149
     atom   12 type  2   force =     0.00000002    0.00000005   -0.00002761

     Total force =     0.070089     Total SCF correction =     0.001320

     entering subroutine stress ...

     negative rho (up, down):  2.243E-01 0.000E+00
          total   stress  (Ry/bohr**3)                   (kbar)     P=  -18.09
  -0.00019325  -0.00000000  -0.00000000        -28.43     -0.00     -0.00
  -0.00000000  -0.00019325  -0.00000000         -0.00    -28.43     -0.00
  -0.00000000  -0.00000000   0.00001761         -0.00     -0.00      2.59

 !ASE

     Writing output data file calc.save

     General routines

     Parallel routines

   This run was terminated on:  18:51:57  19Dec2018

   JOB DONE.
Job  /afs/slac/g/suncat/bin/suncat-tsmpirun -x LD_LIBRARY_PATH -wdir /scratch/qe773298_aFrtQ pw.x -in pw.inp

TID   HOST_NAME   COMMAND_LINE            STATUS            TERMINATION_TIME
00000 suncat0234 pw.x -in pw.inp   Done                     12/19/2018 18:51:57
00001 suncat0234 pw.x -in pw.inp   Done                     12/19/2018 18:51:57
00002 suncat0234 pw.x -in pw.inp   Done                     12/19/2018 18:51:57
00003 suncat0234 pw.x -in pw.inp   Done                     12/19/2018 18:51:57
00004 suncat0234 pw.x -in pw.inp   Done                     12/19/2018 18:51:57
00005 suncat0234 pw.x -in pw.inp   Done                     12/19/2018 18:51:57
00006 suncat0234 pw.x -in pw.inp   Done                     12/19/2018 18:51:57
00007 suncat0234 pw.x -in pw.inp   Done                     12/19/2018 18:51:57
00008 suncat0233 pw.x -in pw.inp   Done                     12/19/2018 18:51:57
00009 suncat0233 pw.x -in pw.inp   Done                     12/19/2018 18:51:57
00010 suncat0233 pw.x -in pw.inp   Done                     12/19/2018 18:51:57
00011 suncat0233 pw.x -in pw.inp   Done                     12/19/2018 18:51:57
00012 suncat0233 pw.x -in pw.inp   Done                     12/19/2018 18:51:57
00013 suncat0233 pw.x -in pw.inp   Done                     12/19/2018 18:51:57
00014 suncat0233 pw.x -in pw.inp   Done                     12/19/2018 18:51:57
00015 suncat0233 pw.x -in pw.inp   Done                     12/19/2018 18:51:57
00016 suncat0232 pw.x -in pw.inp   Done                     12/19/2018 18:51:57
00017 suncat0232 pw.x -in pw.inp   Done                     12/19/2018 18:51:57
00018 suncat0232 pw.x -in pw.inp   Done                     12/19/2018 18:51:57
00019 suncat0232 pw.x -in pw.inp   Done                     12/19/2018 18:51:57
00020 suncat0232 pw.x -in pw.inp   Done                     12/19/2018 18:51:57
00021 suncat0232 pw.x -in pw.inp   Done                     12/19/2018 18:51:57
00022 suncat0232 pw.x -in pw.inp   Done                     12/19/2018 18:51:57
00023 suncat0232 pw.x -in pw.inp   Done                     12/19/2018 18:51:57
00024 suncat0231 pw.x -in pw.inp   Done                     12/19/2018 18:51:57
00025 suncat0231 pw.x -in pw.inp   Done                     12/19/2018 18:51:57
00026 suncat0231 pw.x -in pw.inp   Done                     12/19/2018 18:51:57
00027 suncat0231 pw.x -in pw.inp   Done                     12/19/2018 18:51:57
00028 suncat0231 pw.x -in pw.inp   Done                     12/19/2018 18:51:57
00029 suncat0231 pw.x -in pw.inp   Done                     12/19/2018 18:51:57
00030 suncat0231 pw.x -in pw.inp   Done                     12/19/2018 18:51:57
00031 suncat0231 pw.x -in pw.inp   Done                     12/19/2018 18:51:57
00032 suncat0230 pw.x -in pw.inp   Done                     12/19/2018 18:51:57
00033 suncat0230 pw.x -in pw.inp   Done                     12/19/2018 18:51:57
00034 suncat0230 pw.x -in pw.inp   Done                     12/19/2018 18:51:57
00035 suncat0230 pw.x -in pw.inp   Done                     12/19/2018 18:51:57
00036 suncat0230 pw.x -in pw.inp   Done                     12/19/2018 18:51:57
00037 suncat0230 pw.x -in pw.inp   Done                     12/19/2018 18:51:57
00038 suncat0230 pw.x -in pw.inp   Done                     12/19/2018 18:51:57
00039 suncat0230 pw.x -in pw.inp   Done                     12/19/2018 18:51:57
00040 suncat0229 pw.x -in pw.inp   Done                     12/19/2018 18:51:57
00041 suncat0229 pw.x -in pw.inp   Done                     12/19/2018 18:51:57
00042 suncat0229 pw.x -in pw.inp   Done                     12/19/2018 18:51:57
00043 suncat0229 pw.x -in pw.inp   Done                     12/19/2018 18:51:57
00044 suncat0229 pw.x -in pw.inp   Done                     12/19/2018 18:51:57
00045 suncat0229 pw.x -in pw.inp   Done                     12/19/2018 18:51:57
00046 suncat0229 pw.x -in pw.inp   Done                     12/19/2018 18:51:57
00047 suncat0229 pw.x -in pw.inp   Done                     12/19/2018 18:51:57
00048 suncat0228 pw.x -in pw.inp   Done                     12/19/2018 18:51:57
00049 suncat0228 pw.x -in pw.inp   Done                     12/19/2018 18:51:57
00050 suncat0228 pw.x -in pw.inp   Done                     12/19/2018 18:51:57
00051 suncat0228 pw.x -in pw.inp   Done                     12/19/2018 18:51:57
00052 suncat0228 pw.x -in pw.inp   Done                     12/19/2018 18:51:57
00053 suncat0228 pw.x -in pw.inp   Done                     12/19/2018 18:51:57
00054 suncat0228 pw.x -in pw.inp   Done                     12/19/2018 18:51:57
00055 suncat0228 pw.x -in pw.inp   Done                     12/19/2018 18:51:57
00056 suncat0227 pw.x -in pw.inp   Done                     12/19/2018 18:51:57
00057 suncat0227 pw.x -in pw.inp   Done                     12/19/2018 18:51:57
00058 suncat0227 pw.x -in pw.inp   Done                     12/19/2018 18:51:57
00059 suncat0227 pw.x -in pw.inp   Done                     12/19/2018 18:51:57
00060 suncat0227 pw.x -in pw.inp   Done                     12/19/2018 18:51:57
00061 suncat0227 pw.x -in pw.inp   Done                     12/19/2018 18:51:57
00062 suncat0227 pw.x -in pw.inp   Done                     12/19/2018 18:51:57
00063 suncat0227 pw.x -in pw.inp   Done                     12/19/2018 18:51:57