     Program PWSCF v.5.1rc2 (svn rev. 11289) starts on 25Dec2018 at 17: 9:49

     Current dimensions of program PWSCF are:
     Max number of different atomic species (ntypx) = 10
     Max number of k-points (npk) =  40000
     Max angular momentum in pseudopotentials (lmaxx) =  3
     Presently stress not available with electric field

     IMPORTANT: XC functional enforced from input :
     Exchange-correlation      = BEEF-VDW ( 1  4 27 13 2)
     Any further DFT definition will be discarded
     Please, verify this is what you really want

     Subspace diagonalization in iterative solution of the eigenvalue problem:
     a serial algorithm will be used

     bravais-lattice index     =            0
     lattice parameter (alat)  =       1.8897  a.u.
     unit-cell volume          =    3913.9238 (a.u.)^3
     number of atoms/cell      =           12
     number of atomic types    =            2
     number of electrons       =       219.00
     number of Kohn-Sham states=          139
     kinetic-energy cutoff     =      36.7493  Ry
     charge density cutoff     =     367.4932  Ry
     convergence threshold     =      1.0E-06
     mixing beta               =       0.1000
     number of iterations used =           10  plain     mixing
     Exchange-correlation      = BEEF-VDW ( 1  4 27 13 2)
     nstep                     =           50

     celldm(1)=   1.889726  celldm(2)=   0.000000  celldm(3)=   0.000000
     celldm(4)=   0.000000  celldm(5)=   0.000000  celldm(6)=   0.000000

     crystal axes: (cart. coord. in units of alat)
               a(1) = (   5.251109   0.000000   0.000000 )
               a(2) = (  -2.625555   4.547594   0.000000 )
               a(3) = (   0.000000   0.000000  24.287513 )

     reciprocal axes: (cart. coord. in units 2 pi/alat)
               b(1) = (  0.190436  0.109948  0.000000 )
               b(2) = (  0.000000  0.219897  0.000000 )
               b(3) = (  0.000000  0.000000  0.041173 )

     PseudoPot. # 1 for Cu read from file:
     /afs/slac.stanford.edu/u/if/mamunm/psp/gbrv1.5pbe/Cu.UPF
     MD5 check sum: 6e991ff952a84172a2a52a1c1e996048
     Pseudo is Ultrasoft + core correction, Zval = 19.0
     Generated by new atomic code, or converted to UPF format
     Using radial grid of  867 points,  6 beta functions with:
                l(1) =   0
                l(2) =   0
                l(3) =   1
                l(4) =   1
                l(5) =   2
                l(6) =   2
     Q(r) pseudized with  8 coefficients,  rinner =    1.150   1.150   1.150
                                                       1.150   1.150

     PseudoPot. # 2 for Os read from file:
     /afs/slac.stanford.edu/u/if/mamunm/psp/gbrv1.5pbe/Os.UPF
     MD5 check sum: a3fb40a04f0c37c25c34bbc47164c9a8
     Pseudo is Ultrasoft + core correction, Zval = 16.0
     Generated by new atomic code, or converted to UPF format
     Using radial grid of  983 points,  8 beta functions with:
                l(1) =   0
                l(2) =   0
                l(3) =   1
                l(4) =   1
                l(5) =   2
                l(6) =   2
                l(7) =   3
                l(8) =   3
     Q(r) pseudized with  8 coefficients,  rinner =    1.150   1.150   1.150
                                                       1.150   1.150   1.150
                                                       1.150

     vdW kernel table read from file vdW_kernel_table
     MD5 check sum: 095c7af220d748ca6e76c0b4c6cfb241

     atomic species   valence    mass     pseudopotential
        Cu1           19.00    63.54600     Cu( 1.00)
        Os1           16.00   190.23000     Os( 1.00)

     No symmetry found

   Cartesian axes

     site n.     atom                  positions (alat units)
         1           Cu1 tau(   1) = (   0.0000000   0.0000000  10.0000000  )
         2           Cu1 tau(   2) = (  -1.3127773   2.2737970  10.0000000  )
         3           Cu1 tau(   3) = (   1.3127773   2.2737970  10.0000000  )
         4           Os1 tau(   4) = (   2.6255546   0.0000000  10.0000000  )
         5           Cu1 tau(   5) = (   2.6255546   1.5158646  12.1437563  )
         6           Cu1 tau(   6) = (   1.3127773   3.7896616  12.1437563  )
         7           Cu1 tau(   7) = (  -1.3127773   3.7896616  12.1437563  )
         8           Os1 tau(   8) = (   0.0000000   1.5158646  12.1437563  )
         9           Cu1 tau(   9) = (  -0.0000000   3.0317293  14.2875127  )
        10           Cu1 tau(  10) = (   1.3127773   0.7579323  14.2875127  )
        11           Cu1 tau(  11) = (   3.9383319   0.7579323  14.2875127  )
        12           Os1 tau(  12) = (   2.6255546   3.0317293  14.2875127  )

     number of k points=    20  Fermi-Dirac smearing, width (Ry)=  0.0110
                       cart. coord. in units 2pi/alat
        k(    1) = (   0.0000000   0.0000000   0.0000000), wk =   0.0555556
        k(    2) = (   0.0000000   0.0366494   0.0000000), wk =   0.1111111
        k(    3) = (   0.0000000   0.0732988   0.0000000), wk =   0.1111111
        k(    4) = (   0.0000000  -0.1099483   0.0000000), wk =   0.0555556
        k(    5) = (   0.0317393   0.0183247   0.0000000), wk =   0.1111111
        k(    6) = (   0.0317393   0.0549741   0.0000000), wk =   0.1111111
        k(    7) = (   0.0317393   0.0916235   0.0000000), wk =   0.1111111
        k(    8) = (   0.0317393  -0.0916235   0.0000000), wk =   0.1111111
        k(    9) = (   0.0317393  -0.0549741   0.0000000), wk =   0.1111111
        k(   10) = (   0.0317393  -0.0183247   0.0000000), wk =   0.1111111
        k(   11) = (   0.0634787   0.0366494   0.0000000), wk =   0.1111111
        k(   12) = (   0.0634787   0.0732988   0.0000000), wk =   0.1111111
        k(   13) = (   0.0634787   0.1099483   0.0000000), wk =   0.1111111
        k(   14) = (   0.0634787  -0.0732988   0.0000000), wk =   0.1111111
        k(   15) = (   0.0634787  -0.0366494   0.0000000), wk =   0.1111111
        k(   16) = (   0.0634787  -0.0000000   0.0000000), wk =   0.1111111
        k(   17) = (  -0.0952180  -0.0549741   0.0000000), wk =   0.0555556
        k(   18) = (  -0.0952180  -0.0183247   0.0000000), wk =   0.1111111
        k(   19) = (  -0.0952180   0.0183247   0.0000000), wk =   0.1111111
        k(   20) = (  -0.0952180  -0.1649224   0.0000000), wk =   0.0555556

     Largest allocated arrays     est. size (Mb)     dimensions
     Largest temporary arrays     est. size (Mb)     dimensions

     Initial potential from superposition of free atoms
     Check: negative starting charge=   -0.373271

     starting charge  208.49987, renormalised to  219.00000

     negative rho (up, down):  3.921E-01 0.000E+00

     *
     * You are using vdW-DF for exchange-correlation in this calculation.
     * Please cite the following three references that made this development
     * possible:
     *
     *   M. Dion, H. Rydberg, E. Schroder, D. C. Langreth, and
     *   B. I. Lundqvist, Phys. Rev. Lett. 92, 246401 (2004).
     *
     *   T. Thonhauser, V. R. Cooper, S. Li, A. Puzder, P. Hyldgaard, and
     *   D. C. Langreth, Phys. Rev. B 76, 125112 (2007).
     *
     *   G. Roman-Perez and J. M. Soler, Phys. Rev. Lett. 103, 096102 (2009).
     *
     *
     * If you are using vdW-DF2, please also cite:
     *
     *   K. Lee, E. D. Murray, L. Kong, B. I. Lundqvist, and
     *   D. C. Langreth, Phys. Rev. B 82, 081101(R) (2010).
     *
     *
     * If you are calculating the stress with vdW-DF, please also cite:
     *
     *   R. Sabatini, E. Kucukbenli, B. Kolb, T. Thonhauser, and
     *   S. de Gironcoli, J. Phys.: Condens. Matter 24, 424209 (2012).
     *

     Carrying out vdW-DF run using the following parameters:

     Nqs =      20    Nr_points =    1024   r_max =   100.000
     q_mesh =
               0.00001000     0.04494208     0.09755937     0.15916263
               0.23128650     0.31572767     0.41458969     0.53033537
               0.66584808     0.82450364     1.01025438     1.22772762
               1.48234092     1.78043706     2.12944203     2.53805004
               3.01644009     3.57652955     4.23227104     5.00000000

     Gradients computed in reciprocal space

     Adding external electric field

     Computed dipole along edir(3) :
        Dipole                0.0000 Ry au,          0.0000 Debye
        Dipole field          0.0000 Ry au

        Potential amp.       -0.0000 Ry
        Total length         44.7493 bohr

     Starting wfc are  156 randomized atomic wfcs

     Self-consistent Calculation

     iteration #  1     ecut=    36.75 Ry     beta=0.10
     Davidson diagonalization with overlap
     ethr =  1.00E-02,  avg # of iterations =  7.1

[...]

     total energy              =   -4238.18968882 Ry
     Harris-Foulkes estimate   =   -4251.06540533 Ry
     estimated scf accuracy    <      72.49090963 Ry

[...]

     End of self-consistent calculation

          k = 0.0000 0.0000 0.0000 ( 14789 PWs)   bands (ev):

  -111.6270-111.6224-111.6224-111.4967-111.4966-111.4921-111.4921-111.4920
  -111.4920 -85.1103 -84.7220 -84.7218 -69.0733 -69.0733 -69.0657 -69.0511
   -69.0485 -69.0485 -68.9742 -68.9742 -68.9737 -68.9737 -68.9531 -68.9527
   -68.9414 -68.9173 -68.9171 -68.9021 -68.9021 -68.8807 -68.8807 -68.8803
   -68.8803 -68.8011 -68.7983 -68.7839 -68.7839 -68.7829 -68.7829 -44.4907
   -44.3621 -44.3621 -44.0314 -44.0314 -44.0310 -44.0310 -44.0164 -44.0151
    -7.3913  -5.5297  -4.3390  -4.0003  -4.0003  -3.8809  -3.8809  -3.5521
    -3.3287  -3.3287  -3.2862  -3.2367  -3.2367  -3.1539  -2.9618  -2.4619
    -2.4619  -2.2888  -2.0577  -2.0577  -1.9588  -1.9291  -1.8673  -1.8312
    -1.8312  -1.7880  -1.7305  -1.7305  -1.6411  -1.6411  -1.5911  -1.5911
    -1.5074  -1.5074  -1.2428  -1.0735  -1.0735  -1.0642  -1.0642  -1.0211
    -1.0211  -0.8632  -0.8314  -0.7265  -0.7265  -0.6820  -0.6782  -0.5956
    -0.5653  -0.0496   0.3990   0.3990   0.4523   0.4523   0.5156   0.5156
     0.7162   0.7162   1.1026   1.1026   1.1852   1.1896   1.4571   1.4571
     1.6814   2.0312   2.0312   3.3848   3.5078   3.5078   3.5426   3.5426
     3.6276   5.1170   5.4041   5.7825   6.3084   6.7167   7.0301   7.1628
     7.1628   7.2601   7.2601   7.5240   7.8482   8.3460   8.3460   9.0334
     9.5265  10.3900  10.6317

[...]

          k =-0.0952-0.0550 0.0000 ( 14722 PWs)   bands (ev):

[...]

     the Fermi energy is     0.9314 ev

!    total energy              =   -4243.38051709 Ry
     Harris-Foulkes estimate   =   -4243.38050613 Ry
     estimated scf accuracy    <       0.00000069 Ry

     The total energy is the sum of the following terms:

     one-electron contribution =  -32714.26406529 Ry
     hartree contribution      =   16364.53412830 Ry
     xc contribution           =    -475.86602929 Ry
     ewald contribution        =   12582.28742898 Ry
     electric field correction =       0.00000000 Ry
     smearing contrib. (-TS)   =      -0.07197979 Ry

     convergence has been achieved in  19 iterations

 BEEF-vdW xc energy contributions
           1 :   -420.679145859911
           2 :    383.456944147317
           3 :   -319.775000933261
           4 :    246.335039459629
[...]
                l(1) =   0
                l(2) =   0
                l(3) =   1
                l(4) =   1
                l(5) =   2
                l(6) =   2
     Q(r) pseudized with  8 coefficients,  rinner =    1.150   1.150   1.150
                                                       1.150   1.150

     PseudoPot. # 2 for Os read from file:
     /afs/slac.stanford.edu/u/if/mamunm/psp/gbrv1.5pbe/Os.UPF
     MD5 check sum: a3fb40a04f0c37c25c34bbc47164c9a8
     Pseudo is Ultrasoft + core correction, Zval = 16.0
     Generated by new atomic code, or converted to UPF format
     Using radial grid of  983 points,  8 beta functions with:
                l(1) =   0
                l(2) =   0
                l(3) =   1
                l(4) =   1
                l(5) =   2
                l(6) =   2
                l(7) =   3
                l(8) =   3
     Q(r) pseudized with  8 coefficients,  rinner =    1.150   1.150   1.150
                                                       1.150   1.150   1.150
                                                       1.150

     vdW kernel table read from file vdW_kernel_table
     MD5 check sum: 095c7af220d748ca6e76c0b4c6cfb241

     atomic species   valence    mass     pseudopotential
        Cu1           19.00    63.54600     Cu( 1.00)
        Os1           16.00   190.23000     Os( 1.00)

     No symmetry found

   Cartesian axes

     site n.     atom                  positions (alat units)
         1           Cu1 tau(   1) = (   0.0000000   0.0000000  10.0000000  )
         2           Cu1 tau(   2) = (  -1.3127773   2.2737970  10.0000000  )
         3           Cu1 tau(   3) = (   1.3127773   2.2737970  10.0000000  )
         4           Os1 tau(   4) = (   2.6255546   0.0000000  10.0000000  )
         5           Cu1 tau(   5) = (   2.6255546   1.5158646  12.1437563  )
         6           Cu1 tau(   6) = (   1.3127773   3.7896616  12.1437563  )
         7           Cu1 tau(   7) = (  -1.3127773   3.7896616  12.1437563  )
         8           Os1 tau(   8) = (   0.0000000   1.5158646  12.1437563  )
         9           Cu1 tau(   9) = (  -0.0000024   3.0479751  14.3058007  )
        10           Cu1 tau(  10) = (   1.3268445   0.7498104  14.3057949  )
        11           Cu1 tau(  11) = (   3.9242583   0.7498086  14.3057975  )
        12           Os1 tau(  12) = (   2.6255545   3.0317326  14.1704987  )

     number of k points=    20  Fermi-Dirac smearing, width (Ry)=  0.0110
                       cart. coord. in units 2pi/alat
        k(    1) = (   0.0000000   0.0000000   0.0000000), wk =   0.0555556
        k(    2) = (   0.0000000   0.0366494   0.0000000), wk =   0.1111111
        k(    3) = (   0.0000000   0.0732988   0.0000000), wk =   0.1111111
        k(    4) = (   0.0000000  -0.1099483   0.0000000), wk =   0.0555556
        k(    5) = (   0.0317393   0.0183247   0.0000000), wk =   0.1111111
        k(    6) = (   0.0317393   0.0549741   0.0000000), wk =   0.1111111
        k(    7) = (   0.0317393   0.0916235   0.0000000), wk =   0.1111111
        k(    8) = (   0.0317393  -0.0916235   0.0000000), wk =   0.1111111
        k(    9) = (   0.0317393  -0.0549741   0.0000000), wk =   0.1111111
        k(   10) = (   0.0317393  -0.0183247   0.0000000), wk =   0.1111111
        k(   11) = (   0.0634787   0.0366494   0.0000000), wk =   0.1111111
        k(   12) = (   0.0634787   0.0732988   0.0000000), wk =   0.1111111
        k(   13) = (   0.0634787   0.1099483   0.0000000), wk =   0.1111111
        k(   14) = (   0.0634787  -0.0732988   0.0000000), wk =   0.1111111
        k(   15) = (   0.0634787  -0.0366494   0.0000000), wk =   0.1111111
        k(   16) = (   0.0634787  -0.0000000   0.0000000), wk =   0.1111111
        k(   17) = (  -0.0952180  -0.0549741   0.0000000), wk =   0.0555556
        k(   18) = (  -0.0952180  -0.0183247   0.0000000), wk =   0.1111111
        k(   19) = (  -0.0952180   0.0183247   0.0000000), wk =   0.1111111
        k(   20) = (  -0.0952180  -0.1649224   0.0000000), wk =   0.0555556

     Largest allocated arrays     est. size (Mb)     dimensions
     Largest temporary arrays     est. size (Mb)     dimensions

     Initial potential from superposition of free atoms
     Check: negative starting charge=   -0.373651

     starting charge  208.49987, renormalised to  219.00000

[...]

     *
     * You are using vdW-DF for exchange-correlation in this calculation.
     * Please cite the following three references that made this development
     * possible:
     *
     *   M. Dion, H. Rydberg, E. Schroder, D. C. Langreth, and
     *   B. I. Lundqvist, Phys. Rev. Lett. 92, 246401 (2004).
     *
     *   T. Thonhauser, V. R. Cooper, S. Li, A. Puzder, P. Hyldgaard, and
     *   D. C. Langreth, Phys. Rev. B 76, 125112 (2007).
     *
     *   G. Roman-Perez and J. M. Soler, Phys. Rev. Lett. 103, 096102 (2009).
     *
     *
     * If you are using vdW-DF2, please also cite:
     *
     *   K. Lee, E. D. Murray, L. Kong, B. I. Lundqvist, and
     *   D. C. Langreth, Phys. Rev. B 82, 081101(R) (2010).
     *
     *
     * If you are calculating the stress with vdW-DF, please also cite:
     *
     *   R. Sabatini, E. Kucukbenli, B. Kolb, T. Thonhauser, and
     *   S. de Gironcoli, J. Phys.: Condens. Matter 24, 424209 (2012).
     *

     Carrying out vdW-DF run using the following parameters:

     Nqs =      20    Nr_points =    1024   r_max =   100.000
     q_mesh =
               0.00001000     0.04494208     0.09755937     0.15916263
               0.23128650     0.31572767     0.41458969     0.53033537
               0.66584808     0.82450364     1.01025438     1.22772762
               1.48234092     1.78043706     2.12944203     2.53805004
               3.01644009     3.57652955     4.23227104     5.00000000

     Gradients computed in reciprocal space

[...]

     Starting wfc are  156 randomized atomic wfcs

     Self-consistent Calculation

[...]

     total energy              =   -4243.38549961 Ry
     Harris-Foulkes estimate   =   -4243.38549736 Ry
     estimated scf accuracy    <       0.00000101 Ry

     iteration # 20     ecut=    36.75 Ry     beta=0.10
     Davidson diagonalization with overlap
     ethr =  4.63E-10,  avg # of iterations =  1.6

[...]

     negative rho (up, down):  3.586E-01 0.000E+00

     Adding external electric field

     Computed dipole along edir(3) :
        Dipole               -0.0032 Ry au,         -0.0082 Debye
        Dipole field         -0.0000 Ry au

        Potential amp.        0.0009 Ry
        Total length         44.7493 bohr

     End of self-consistent calculation

[...]

          k = 0.0635-0.0000 0.0000 ( 14745 PWs)   bands (ev):

[...]

          k =-0.0952-0.1649 0.0000 ( 14722 PWs)   bands (ev):

  -111.6669-111.6653-111.6638-111.4963-111.4948-111.4933-111.4611-111.4594
  -111.4579 -85.1237 -84.7561 -84.7129 -69.1219 -69.1152 -69.1106 -69.1019
   -69.0963 -69.0893 -68.9759 -68.9683 -68.9622 -68.9585 -68.9486 -68.9405
   -68.9403 -68.9321 -68.9288 -68.9062 -68.8951 -68.8834 -68.8697 -68.8569
   -68.8448 -68.7947 -68.7896 -68.7834 -68.7584 -68.7536 -68.7483 -44.4969
   -44.3771 -44.3759 -44.0700 -44.0688 -44.0596 -44.0261 -44.0248 -44.0035
    -5.6782  -5.4534  -4.2041  -3.8316  -3.6004  -3.4108  -3.3424  -3.1940
    -3.1145  -2.9560  -2.8845  -2.7071  -2.6580  -2.6272  -2.5505  -2.4759
    -2.3838  -2.2840  -2.2821  -2.2390  -2.2313  -2.1821  -1.9788  -1.9233
    -1.8305  -1.8225  -1.7972  -1.7970  -1.7928  -1.7139  -1.7108  -1.6964
    -1.6462  -1.6196  -1.6158  -1.5655  -1.5190  -1.4499  -1.4059  -1.3937
    -1.3429  -1.3293  -1.2693  -1.2082  -1.1883  -1.1602  -0.9790  -0.9642
    -0.7885  -0.7076  -0.6740  -0.6587  -0.1057   0.0044   0.0626   0.1992
     0.2135   0.2727   0.3918   0.4740   0.5248   0.6277   0.8514   1.4041
     1.4043   1.9801   2.4530   3.0507   3.5279   3.9359   4.6870   4.8627
     5.5671   5.6044   6.7383   6.7716   7.2884   7.3269   7.5457   7.5563
     7.9026   8.5202   8.5718   8.5732   8.6273   8.7679   9.0363   9.0848
     9.1476   9.3472   9.8579

     the Fermi energy is     0.9257 ev

!    total energy              =   -4243.38550839 Ry
     Harris-Foulkes estimate   =   -4243.38549961 Ry
     estimated scf accuracy    <       0.00000052 Ry

     The total energy is the sum of the following terms:

     one-electron contribution =  -32762.41518561 Ry
     hartree contribution      =   16388.59477502 Ry
     xc contribution           =    -475.90000131 Ry
     ewald contribution        =   12606.40537954 Ry
     electric field correction =       0.00000003 Ry
     smearing contrib. (-TS)   =      -0.07047607 Ry

     convergence has been achieved in  20 iterations

 BEEF-vdW xc energy contributions
           1 :   -420.715696927887
           2 :    383.512783159138
           3 :   -319.854927431700
           4 :    246.423718130756
           5 :   -179.015348440694
           6 :    127.110916012880
           7 :   -92.1339523630504
           8 :    69.5608088216404
           9 :   -53.1187139252781
          10 :    38.5142237807765
          11 :   -24.8712288742362
          12 :    13.6848222194557
          13 :   -6.57860086788622
          14 :    3.58567297658317
          15 :   -2.98666392941288
          16 :    2.51033001261374
          17 :  -0.824158991293189
          18 :   -1.78849642823889
          19 :    3.94658071075935
          20 :   -4.39850774605668
          21 :    3.02670553366585
          22 :  -0.941693351354218
          23 :  -0.330994573611633
          24 :  -7.028917190848460E-002
          25 :    1.77795172699052
          26 :   -3.51490725051747
          27 :    4.02964422992386
          28 :   -2.96885038169444
          29 :    1.08653101279651
          30 :   0.323109238011511
          31 :   -34.9699377868563
          32 :   -24.6361767661543

     Forces acting on atoms (Ry/au):

     negative rho (up, down):  3.586E-01 0.000E+00
     atom    1 type  1   force =     0.00000039   -0.00443410   -0.00409558
     atom    2 type  1   force =    -0.00383923    0.00221613   -0.00409429
     atom    3 type  1   force =     0.00384072    0.00221731   -0.00409607
     atom    4 type  2   force =    -0.00000037    0.00000130    0.03623770
     atom    5 type  1   force =    -0.00000003   -0.00832320   -0.01159457
     atom    6 type  1   force =    -0.00720777    0.00416144   -0.01159480
     atom    7 type  1   force =     0.00720775    0.00416191   -0.01159464
     atom    8 type  2   force =     0.00000005   -0.00000060    0.00827969
     atom    9 type  1   force =     0.00000015    0.00002349    0.00064605
     atom   10 type  1   force =     0.00001835   -0.00001151    0.00064307
     atom   11 type  1   force =    -0.00001931   -0.00001081    0.00064331
     atom   12 type  2   force =    -0.00000070   -0.00000134    0.00062014

     Total force =     0.045867     Total SCF correction =     0.004276

     entering subroutine stress ...

     negative rho (up, down):  3.586E-01 0.000E+00
          total   stress  (Ry/bohr**3)                   (kbar)     P=  -19.38
  -0.00015660  -0.00000000   0.00000000        -23.04     -0.00      0.00
  -0.00000000  -0.00015660  -0.00000000         -0.00    -23.04     -0.00
   0.00000000  -0.00000000  -0.00008204          0.00     -0.00    -12.07

 !ASE

     Writing output data file calc.save

     General routines

     Parallel routines

   This run was terminated on:  18:26: 6  25Dec2018

   JOB DONE.
Job  /afs/slac/g/suncat/bin/suncat-tsmpirun -x LD_LIBRARY_PATH -wdir /scratch/qe109582_xPxSc pw.x -in pw.inp

TID   HOST_NAME   COMMAND_LINE            STATUS            TERMINATION_TIME
00000 suncat0180 pw.x -in pw.inp   Done                     12/25/2018 18:26:06
00001 suncat0180 pw.x -in pw.inp   Done                     12/25/2018 18:26:06
00002 suncat0180 pw.x -in pw.inp   Done                     12/25/2018 18:26:06
00003 suncat0180 pw.x -in pw.inp   Done                     12/25/2018 18:26:06
00004 suncat0180 pw.x -in pw.inp   Done                     12/25/2018 18:26:06
00005 suncat0180 pw.x -in pw.inp   Done                     12/25/2018 18:26:06
00006 suncat0180 pw.x -in pw.inp   Done                     12/25/2018 18:26:06
00007 suncat0180 pw.x -in pw.inp   Done                     12/25/2018 18:26:06
00008 suncat0167 pw.x -in pw.inp   Done                     12/25/2018 18:26:06
00009 suncat0167 pw.x -in pw.inp   Done                     12/25/2018 18:26:06
00010 suncat0167 pw.x -in pw.inp   Done                     12/25/2018 18:26:06
00011 suncat0167 pw.x -in pw.inp   Done                     12/25/2018 18:26:06
00012 suncat0167 pw.x -in pw.inp   Done                     12/25/2018 18:26:06
00013 suncat0167 pw.x -in pw.inp   Done                     12/25/2018 18:26:06
00014 suncat0167 pw.x -in pw.inp   Done                     12/25/2018 18:26:06
00015 suncat0167 pw.x -in pw.inp   Done                     12/25/2018 18:26:06
00016 suncat0166 pw.x -in pw.inp   Done                     12/25/2018 18:26:06
00017 suncat0166 pw.x -in pw.inp   Done                     12/25/2018 18:26:06
00018 suncat0166 pw.x -in pw.inp   Done                     12/25/2018 18:26:06
00019 suncat0166 pw.x -in pw.inp   Done                     12/25/2018 18:26:06
00020 suncat0166 pw.x -in pw.inp   Done                     12/25/2018 18:26:06
00021 suncat0166 pw.x -in pw.inp   Done                     12/25/2018 18:26:06
00022 suncat0166 pw.x -in pw.inp   Done                     12/25/2018 18:26:06
00023 suncat0166 pw.x -in pw.inp   Done                     12/25/2018 18:26:06
00024 suncat0165 pw.x -in pw.inp   Done                     12/25/2018 18:26:06
00025 suncat0165 pw.x -in pw.inp   Done                     12/25/2018 18:26:06
00026 suncat0165 pw.x -in pw.inp   Done                     12/25/2018 18:26:06
00027 suncat0165 pw.x -in pw.inp   Done                     12/25/2018 18:26:06
00028 suncat0165 pw.x -in pw.inp   Done                     12/25/2018 18:26:06
00029 suncat0165 pw.x -in pw.inp   Done                     12/25/2018 18:26:06
00030 suncat0165 pw.x -in pw.inp   Done                     12/25/2018 18:26:06
00031 suncat0165 pw.x -in pw.inp   Done                     12/25/2018 18:26:06
00032 suncat0164 pw.x -in pw.inp   Done                     12/25/2018 18:26:06
00033 suncat0164 pw.x -in pw.inp   Done                     12/25/2018 18:26:06
00034 suncat0164 pw.x -in pw.inp   Done                     12/25/2018 18:26:06
00035 suncat0164 pw.x -in pw.inp   Done                     12/25/2018 18:26:06
00036 suncat0164 pw.x -in pw.inp   Done                     12/25/2018 18:26:06
00037 suncat0164 pw.x -in pw.inp   Done                     12/25/2018 18:26:06
00038 suncat0164 pw.x -in pw.inp   Done                     12/25/2018 18:26:06
00039 suncat0164 pw.x -in pw.inp   Done                     12/25/2018 18:26:06
00040 suncat0149 pw.x -in pw.inp   Done                     12/25/2018 18:26:06
00041 suncat0149 pw.x -in pw.inp   Done                     12/25/2018 18:26:06
00042 suncat0149 pw.x -in pw.inp   Done                     12/25/2018 18:26:06
00043 suncat0149 pw.x -in pw.inp   Done                     12/25/2018 18:26:06
00044 suncat0149 pw.x -in pw.inp   Done                     12/25/2018 18:26:06
00045 suncat0149 pw.x -in pw.inp   Done                     12/25/2018 18:26:06
00046 suncat0149 pw.x -in pw.inp   Done                     12/25/2018 18:26:06
00047 suncat0149 pw.x -in pw.inp   Done                     12/25/2018 18:26:06
00048 suncat0148 pw.x -in pw.inp   Done                     12/25/2018 18:26:06
00049 suncat0148 pw.x -in pw.inp   Done                     12/25/2018 18:26:06
00050 suncat0148 pw.x -in pw.inp   Done                     12/25/2018 18:26:06
00051 suncat0148 pw.x -in pw.inp   Done                     12/25/2018 18:26:06
00052 suncat0148 pw.x -in pw.inp   Done                     12/25/2018 18:26:06
00053 suncat0148 pw.x -in pw.inp   Done                     12/25/2018 18:26:06
00054 suncat0148 pw.x -in pw.inp   Done                     12/25/2018 18:26:06
00055 suncat0148 pw.x -in pw.inp   Done                     12/25/2018 18:26:06
00056 suncat0137 pw.x -in pw.inp   Done                     12/25/2018 18:26:06
00057 suncat0137 pw.x -in pw.inp   Done                     12/25/2018 18:26:06
00058 suncat0137 pw.x -in pw.inp   Done                     12/25/2018 18:26:06
00059 suncat0137 pw.x -in pw.inp   Done                     12/25/2018 18:26:06
00060 suncat0137 pw.x -in pw.inp   Done                     12/25/2018 18:26:06
00061 suncat0137 pw.x -in pw.inp   Done                     12/25/2018 18:26:06
00062 suncat0137 pw.x -in pw.inp   Done                     12/25/2018 18:26:06
00063 suncat0137 pw.x -in pw.inp   Done                     12/25/2018 18:26:06