     Program PWSCF v.5.1rc2 (svn rev. 11289) starts on  2Jan2019 at  1:53:56

     Current dimensions of program PWSCF are:
     Max number of different atomic species (ntypx) = 10
     Max number of k-points (npk) =  40000
     Max angular momentum in pseudopotentials (lmaxx) =  3
     Presently stress not available with electric field

     IMPORTANT: XC functional enforced from input :
     Exchange-correlation      = BEEF-VDW ( 1  4 27 13 2)
     Any further DFT definition will be discarded
     Please, verify this is what you really want

     Subspace diagonalization in iterative solution of the eigenvalue problem:
     a serial algorithm will be used

     bravais-lattice index     =            0
     lattice parameter (alat)  =       1.8897  a.u.
     unit-cell volume          =    6625.3067 (a.u.)^3
     number of atoms/cell      =           12
     number of atomic types    =            2
     number of electrons       =       165.00
     number of Kohn-Sham states=          112
     kinetic-energy cutoff     =      36.7493  Ry
     charge density cutoff     =     367.4932  Ry
     convergence threshold     =      1.0E-06
     mixing beta               =       0.1000
     number of iterations used =           10  plain     mixing
     Exchange-correlation      = BEEF-VDW ( 1  4 27 13 2)
     nstep                     =           50

     celldm(1)=   1.889726  celldm(2)=   0.000000  celldm(3)=   0.000000
     celldm(4)=   0.000000  celldm(5)=   0.000000  celldm(6)=   0.000000

     crystal axes: (cart. coord. in units of alat)
               a(1) = (   6.674212   0.000000   0.000000 )
               a(2) = (  -3.337106   5.780037   0.000000 )
               a(3) = (   0.000000   0.000000  25.449471 )

     reciprocal axes: (cart. coord. in units 2 pi/alat)
               b(1) = (  0.149830  0.086505  0.000000 )
               b(2) = (  0.000000  0.173009  0.000000 )
               b(3) = (  0.000000  0.000000  0.039294 )

     PseudoPot. # 1 for Tl read from file:
     /afs/slac.stanford.edu/u/if/mamunm/psp/gbrv1.5pbe/Tl.UPF
     MD5 check sum: b76cf1f7e72655a2b2c53cf6385d7059
     Pseudo is Ultrasoft + core correction, Zval = 13.0
     Generated by new atomic code, or converted to UPF format
     Using radial grid of  899 points,  6 beta functions with:
                l(1) =   0
                l(2) =   0
                l(3) =   1
                l(4) =   1
                l(5) =   2
                l(6) =   2
     Q(r) pseudized with  6 coefficients,  rinner =    1.100   1.100   1.100
                                                       1.100   1.100

     PseudoPot. # 2 for Pt read from file:
     /afs/slac.stanford.edu/u/if/mamunm/psp/gbrv1.5pbe/Pt.UPF
     MD5 check sum: f09d6de1a584b5a045c4fc126da2d0c4
     Pseudo is Ultrasoft + core correction, Zval = 16.0
     Generated by new atomic code, or converted to UPF format
     Using radial grid of  985 points,  6 beta functions with:
                l(1) =   0
                l(2) =   0
                l(3) =   1
                l(4) =   1
                l(5) =   2
                l(6) =   2
     Q(r) pseudized with  8 coefficients,  rinner =    1.300   1.300   1.300
                                                       1.300   1.300

     vdW kernel table read from file vdW_kernel_table
     MD5 check sum: 095c7af220d748ca6e76c0b4c6cfb241

     atomic species   valence    mass     pseudopotential
        Tl1           13.00   204.38000     Tl( 1.00)
        Pt1           16.00   195.08400     Pt( 1.00)

     No symmetry found

   Cartesian axes

     site n.     atom                  positions (alat units)
         1           Tl1 tau(   1) = (   0.0000000   0.0000000  10.0000000  )
         2           Tl1 tau(   2) = (  -1.6685530   2.8900186  10.0000000  )
         3           Tl1 tau(   3) = (   1.6685530   2.8900186  10.0000000  )
         4           Pt1 tau(   4) = (   3.3371060   0.0000000  10.0000000  )
         5           Tl1 tau(   5) = (   3.3371060   1.9266790  12.7247356  )
         6           Tl1 tau(   6) = (   1.6685530   4.8166976  12.7247356  )
         7           Tl1 tau(   7) = (  -1.6685530   4.8166976  12.7247356  )
         8           Pt1 tau(   8) = (   0.0000000   1.9266790  12.7247356  )
         9           Tl1 tau(   9) = (  -0.0000000   3.8533581  15.4494712  )
        10           Tl1 tau(  10) = (   1.6685530   0.9633395  15.4494712  )
        11           Tl1 tau(  11) = (   5.0056590   0.9633395  15.4494712  )
        12           Pt1 tau(  12) = (   3.3371060   3.8533581  15.4494712  )

     number of k points=    20  Fermi-Dirac smearing, width (Ry)=  0.0110
                       cart. coord. in units 2pi/alat
        k(    1) = (   0.0000000   0.0000000   0.0000000), wk =   0.0555556
        k(    2) = (   0.0000000   0.0288349   0.0000000), wk =   0.1111111
        k(    3) = (   0.0000000   0.0576698   0.0000000), wk =   0.1111111
        k(    4) = (   0.0000000  -0.0865046   0.0000000), wk =   0.0555556
        k(    5) = (   0.0249717   0.0144174   0.0000000), wk =   0.1111111
        k(    6) = (   0.0249717   0.0432523   0.0000000), wk =   0.1111111
        k(    7) = (   0.0249717   0.0720872   0.0000000), wk =   0.1111111
        k(    8) = (   0.0249717  -0.0720872   0.0000000), wk =   0.1111111
        k(    9) = (   0.0249717  -0.0432523   0.0000000), wk =   0.1111111
        k(   10) = (   0.0249717  -0.0144174   0.0000000), wk =   0.1111111
        k(   11) = (   0.0499435   0.0288349   0.0000000), wk =   0.1111111
        k(   12) = (   0.0499435   0.0576698   0.0000000), wk =   0.1111111
        k(   13) = (   0.0499435   0.0865046   0.0000000), wk =   0.1111111
        k(   14) = (   0.0499435  -0.0576698   0.0000000), wk =   0.1111111
        k(   15) = (   0.0499435  -0.0288349   0.0000000), wk =   0.1111111
        k(   16) = (   0.0499435   0.0000000   0.0000000), wk =   0.1111111
        k(   17) = (  -0.0749152  -0.0432523   0.0000000), wk =   0.0555556
        k(   18) = (  -0.0749152  -0.0144174   0.0000000), wk =   0.1111111
        k(   19) = (  -0.0749152   0.0144174   0.0000000), wk =   0.1111111
        k(   20) = (  -0.0749152  -0.1297570   0.0000000), wk =   0.0555556

     Largest allocated arrays     est. size (Mb)     dimensions
     Largest temporary arrays     est. size (Mb)     dimensions

     Check: negative/imaginary core charge=   -0.000001    0.000000

     Initial potential from superposition of free atoms
     Check: negative starting charge=   -1.008913

     starting charge  163.45617, renormalised to  165.00000

     negative rho (up, down):  1.018E+00 0.000E+00

     *
     * You are using vdW-DF for exchange-correlation in this calculation.
     * Please cite the following three references that made this development
     * possible:
     *
     *   M. Dion, H. Rydberg, E. Schroder, D. C. Langreth, and
     *   B. I. Lundqvist, Phys. Rev. Lett. 92, 246401 (2004).
     *
     *   T. Thonhauser, V. R. Cooper, S. Li, A. Puzder, P. Hyldgaard, and
     *   D. C. Langreth, Phys. Rev. B 76, 125112 (2007).
     *
     *   G. Roman-Perez and J. M. Soler, Phys. Rev. Lett. 103, 096102 (2009).
     *
     *
     * If you are using vdW-DF2, please also cite:
     *
     *   K. Lee, E. D. Murray, L. Kong, B. I. Lundqvist, and
     *   D. C. Langreth, Phys. Rev. B 82, 081101(R) (2010).
     *
     *
     * If you are calculating the stress with vdW-DF, please also cite:
     *
     *   R. Sabatini, E. Kucukbenli, B. Kolb, T. Thonhauser, and
     *   S. de Gironcoli, J. Phys.: Condens. Matter 24, 424209 (2012).
     *

     Carrying out vdW-DF run using the following parameters:

     Nqs =      20    Nr_points =    1024   r_max =   100.000
     q_mesh =
               0.00001000     0.04494208     0.09755937     0.15916263
               0.23128650     0.31572767     0.41458969     0.53033537
               0.66584808     0.82450364     1.01025438     1.22772762
               1.48234092     1.78043706     2.12944203     2.53805004
               3.01644009     3.57652955     4.23227104     5.00000000

     Gradients computed in reciprocal space

     Adding external electric field

     Computed dipole along edir(3) :
        Dipole                0.0000 Ry au,          0.0000 Debye
        Dipole field          0.0000 Ry au

        Potential amp.       -0.0000 Ry
        Total length         46.8902 bohr

     Starting wfc are  117 randomized atomic wfcs

     Self-consistent Calculation

     iteration #  1     ecut=    36.75 Ry     beta=0.10
     Davidson diagonalization with overlap
     ethr =  1.00E-02,  avg # of iterations =  9.2

     Threshold (ethr) on eigenvalues was too large:
     Diagonalizing with lowered threshold

     Davidson diagonalization with overlap
     ethr =  3.07E-04,  avg # of iterations =  9.6

[...]

     total energy              =   -1958.27992497 Ry
     Harris-Foulkes estimate   =   -1958.35292826 Ry
     estimated scf accuracy    <       0.56066334 Ry

[...]

     End of self-consistent calculation

          k = 0.0000 0.0000 0.0000 ( 24837 PWs)   bands (ev):

   -50.7718 -50.7611 -50.7611 -50.3727 -50.3727 -50.3727 -50.3727 -50.2835
   -50.2834 -11.4115 -11.3749 -11.3392 -11.3147 -11.3147 -11.2844 -11.2164
   -11.2164 -11.1944 -11.1944 -11.1352 -11.0992 -11.0785 -11.0785 -11.0287
   -11.0287 -10.9814 -10.9711 -10.9635 -10.9635 -10.8850 -10.8145 -10.8062
   -10.8062 -10.8050 -10.8050 -10.7820 -10.7701 -10.7701 -10.7689 -10.7689
   -10.7276 -10.7276 -10.7180 -10.7180 -10.6810 -10.6810 -10.5812 -10.5812
   -10.5478 -10.5270 -10.5270 -10.5032 -10.5002 -10.4479  -8.4041  -7.1936
    -5.5161  -4.5439  -4.5439  -4.0134  -4.0134  -3.2298  -3.2298  -1.9288
    -1.8062  -1.1044  -0.9184  -0.9184  -0.9004  -0.9004  -0.5282  -0.5282
    -0.4136  -0.3896  -0.2546  -0.1978  -0.1978  -0.1732  -0.1732  -0.0251
    -0.0251   0.0014   0.0014   0.0800   0.4474   0.7038   0.7038   1.2810
     1.2810   1.7278   1.7307   2.7686   4.0662   4.2694   4.5250   4.5250
     4.6728   4.6728   5.0159   5.1640   5.5476   6.0198   6.2219   6.7322
     6.7322   6.9471   7.1125   7.2268   7.2268   7.5331   7.5975   7.6649

[...]

          k =-0.0749-0.0433 0.0000 ( 24982 PWs)   bands (ev):

[...]

     the Fermi energy is     0.7379 ev

!    total energy              =   -1958.16445148 Ry
     Harris-Foulkes estimate   =   -1958.16435277 Ry
     estimated scf accuracy    <       0.00000094 Ry

     The total energy is the sum of the following terms:

     one-electron contribution =   -9869.23098920 Ry
     hartree contribution      =    5005.22320664 Ry
     xc contribution           =    -751.92894425 Ry
     ewald contribution        =    3657.79912569 Ry
     electric field correction =       0.00000000 Ry
     smearing contrib. (-TS)   =      -0.02685036 Ry

     convergence has been achieved in  13 iterations

 BEEF-vdW xc energy contributions
           1 :   -669.838611562591
           2 :    621.754199557215
           3 :   -537.076760390308
           4 :    434.188649579978
           5 :   -331.867374064256
           6 :    243.692126089175
           7 :   -175.372232017523
           8 :    125.443457695164
[...]
     Using radial grid of  899 points,  6 beta functions with:
                l(1) =   0
                l(2) =   0
                l(3) =   1
                l(4) =   1
                l(5) =   2
                l(6) =   2
     Q(r) pseudized with  6 coefficients,  rinner =    1.100   1.100   1.100
                                                       1.100   1.100

     PseudoPot. # 2 for Pt read from file:
     /afs/slac.stanford.edu/u/if/mamunm/psp/gbrv1.5pbe/Pt.UPF
     MD5 check sum: f09d6de1a584b5a045c4fc126da2d0c4
     Pseudo is Ultrasoft + core correction, Zval = 16.0
     Generated by new atomic code, or converted to UPF format
     Using radial grid of  985 points,  6 beta functions with:
                l(1) =   0
                l(2) =   0
                l(3) =   1
                l(4) =   1
                l(5) =   2
                l(6) =   2
     Q(r) pseudized with  8 coefficients,  rinner =    1.300   1.300   1.300
                                                       1.300   1.300

     vdW kernel table read from file vdW_kernel_table
     MD5 check sum: 095c7af220d748ca6e76c0b4c6cfb241

     atomic species   valence    mass     pseudopotential
        Tl1           13.00   204.38000     Tl( 1.00)
        Pt1           16.00   195.08400     Pt( 1.00)

     No symmetry found

   Cartesian axes

     site n.     atom                  positions (alat units)
         1           Tl1 tau(   1) = (   0.0000000   0.0000000  10.0000000  )
         2           Tl1 tau(   2) = (  -1.6685530   2.8900186  10.0000000  )
         3           Tl1 tau(   3) = (   1.6685530   2.8900186  10.0000000  )
         4           Pt1 tau(   4) = (   3.3371060   0.0000000  10.0000000  )
         5           Tl1 tau(   5) = (   3.3371060   1.9266790  12.7247356  )
         6           Tl1 tau(   6) = (   1.6685530   4.8166976  12.7247356  )
         7           Tl1 tau(   7) = (  -1.6685530   4.8166976  12.7247356  )
         8           Pt1 tau(   8) = (   0.0000000   1.9266790  12.7247356  )
         9           Tl1 tau(   9) = (  -0.0000190   3.8148922  15.5919595  )
        10           Tl1 tau(  10) = (   1.6352060   0.9825747  15.5919561  )
        11           Tl1 tau(  11) = (   5.0389643   0.9826010  15.5919920  )
        12           Pt1 tau(  12) = (   3.3371183   3.8533669  15.0197150  )

     number of k points=    20  Fermi-Dirac smearing, width (Ry)=  0.0110
                       cart. coord. in units 2pi/alat
        k(    1) = (   0.0000000   0.0000000   0.0000000), wk =   0.0555556
        k(    2) = (   0.0000000   0.0288349   0.0000000), wk =   0.1111111
        k(    3) = (   0.0000000   0.0576698   0.0000000), wk =   0.1111111
        k(    4) = (   0.0000000  -0.0865046   0.0000000), wk =   0.0555556
        k(    5) = (   0.0249717   0.0144174   0.0000000), wk =   0.1111111
        k(    6) = (   0.0249717   0.0432523   0.0000000), wk =   0.1111111
        k(    7) = (   0.0249717   0.0720872   0.0000000), wk =   0.1111111
        k(    8) = (   0.0249717  -0.0720872   0.0000000), wk =   0.1111111
        k(    9) = (   0.0249717  -0.0432523   0.0000000), wk =   0.1111111
        k(   10) = (   0.0249717  -0.0144174   0.0000000), wk =   0.1111111
        k(   11) = (   0.0499435   0.0288349   0.0000000), wk =   0.1111111
        k(   12) = (   0.0499435   0.0576698   0.0000000), wk =   0.1111111
        k(   13) = (   0.0499435   0.0865046   0.0000000), wk =   0.1111111
        k(   14) = (   0.0499435  -0.0576698   0.0000000), wk =   0.1111111
        k(   15) = (   0.0499435  -0.0288349   0.0000000), wk =   0.1111111
        k(   16) = (   0.0499435   0.0000000   0.0000000), wk =   0.1111111
        k(   17) = (  -0.0749152  -0.0432523   0.0000000), wk =   0.0555556
        k(   18) = (  -0.0749152  -0.0144174   0.0000000), wk =   0.1111111
        k(   19) = (  -0.0749152   0.0144174   0.0000000), wk =   0.1111111
        k(   20) = (  -0.0749152  -0.1297570   0.0000000), wk =   0.0555556

     Largest allocated arrays     est. size (Mb)     dimensions
     Largest temporary arrays     est. size (Mb)     dimensions

     Check: negative/imaginary core charge=   -0.000001    0.000000

     Initial potential from superposition of free atoms
     Check: negative starting charge=   -1.009668

     starting charge  163.45617, renormalised to  165.00000

[...]

     *
     * You are using vdW-DF for exchange-correlation in this calculation.
     * Please cite the following three references that made this development
     * possible:
     *
     *   M. Dion, H. Rydberg, E. Schroder, D. C. Langreth, and
     *   B. I. Lundqvist, Phys. Rev. Lett. 92, 246401 (2004).
     *
     *   T. Thonhauser, V. R. Cooper, S. Li, A. Puzder, P. Hyldgaard, and
     *   D. C. Langreth, Phys. Rev. B 76, 125112 (2007).
     *
     *   G. Roman-Perez and J. M. Soler, Phys. Rev. Lett. 103, 096102 (2009).
     *
     *
     * If you are using vdW-DF2, please also cite:
     *
     *   K. Lee, E. D. Murray, L. Kong, B. I. Lundqvist, and
     *   D. C. Langreth, Phys. Rev. B 82, 081101(R) (2010).
     *
     *
     * If you are calculating the stress with vdW-DF, please also cite:
     *
     *   R. Sabatini, E. Kucukbenli, B. Kolb, T. Thonhauser, and
     *   S. de Gironcoli, J. Phys.: Condens. Matter 24, 424209 (2012).
     *

     Carrying out vdW-DF run using the following parameters:

     Nqs =      20    Nr_points =    1024   r_max =   100.000
     q_mesh =
               0.00001000     0.04494208     0.09755937     0.15916263
               0.23128650     0.31572767     0.41458969     0.53033537
               0.66584808     0.82450364     1.01025438     1.22772762
               1.48234092     1.78043706     2.12944203     2.53805004
               3.01644009     3.57652955     4.23227104     5.00000000

     Gradients computed in reciprocal space

[...]

     Starting wfc are  117 randomized atomic wfcs

     Self-consistent Calculation

[...]

     Threshold (ethr) on eigenvalues was too large:
     Diagonalizing with lowered threshold

     Davidson diagonalization with overlap
     ethr =  6.96E-04,  avg # of iterations =  7.4

[...]

     total energy              =   -1958.18226989 Ry
     Harris-Foulkes estimate   =   -1958.18224733 Ry
     estimated scf accuracy    <       0.00000309 Ry

     iteration # 15     ecut=    36.75 Ry     beta=0.10
     Davidson diagonalization with overlap
     ethr =  1.87E-09,  avg # of iterations =  3.0

[...]

     negative rho (up, down):  1.004E+00 0.000E+00

     Adding external electric field

     Computed dipole along edir(3) :
        Dipole                0.1602 Ry au,          0.4073 Debye
        Dipole field          0.0003 Ry au

        Potential amp.       -0.0285 Ry
        Total length         46.8902 bohr

     End of self-consistent calculation

[...]

          k = 0.0499 0.0000 0.0000 ( 24902 PWs)   bands (ev):

[...]

          k =-0.0749-0.1298 0.0000 ( 24982 PWs)   bands (ev):

   -50.6086 -50.6036 -50.6036 -50.5345 -50.5345 -50.5053 -50.2479 -50.2479
   -50.1614 -11.2405 -11.1597 -11.1032 -11.0854 -11.0648 -11.0288 -11.0060
   -10.9854 -10.9664 -10.9561 -10.9498 -10.9347 -10.9086 -10.9033 -10.8956
   -10.8845 -10.8569 -10.8464 -10.8452 -10.8316 -10.8265 -10.8120 -10.8082
   -10.7880 -10.7731 -10.7543 -10.7497 -10.7356 -10.7175 -10.7167 -10.6769
   -10.6688 -10.6514 -10.6470 -10.6338 -10.6297 -10.6166 -10.6149 -10.5865
   -10.5855 -10.5801 -10.5427 -10.4744 -10.4593 -10.3706  -7.2138  -6.9284
    -6.0239  -5.7754  -4.9686  -4.7990  -4.4836  -3.9426  -2.9163  -2.2923
    -1.7678  -1.2840  -1.1753  -0.9718  -0.9430  -0.8462  -0.8209  -0.7771
    -0.7613  -0.5795  -0.4396  -0.4219  -0.2822  -0.0638  -0.0321   0.0563
     0.4357   1.1727   1.3548   1.9181   2.1002   2.1467   2.3108   2.8753
     3.0919   3.1085   3.3346   3.4950   3.8390   4.2171   4.6505   4.7644
     4.7675   4.9139   5.0506   5.1268   5.3498   5.4019   5.6353   5.7075
     5.9354   5.9771   6.0584   6.1732   6.1932   6.4292   6.5249   6.9088

     the Fermi energy is     0.8476 ev

!    total energy              =   -1958.18233447 Ry
     Harris-Foulkes estimate   =   -1958.18226956 Ry
     estimated scf accuracy    <       0.00000036 Ry

     The total energy is the sum of the following terms:

     one-electron contribution =   -9892.16846204 Ry
     hartree contribution      =    5017.14207068 Ry
     xc contribution           =    -751.93120072 Ry
     ewald contribution        =    3668.80325113 Ry
     electric field correction =       0.00004870 Ry
     smearing contrib. (-TS)   =      -0.02804221 Ry

     convergence has been achieved in  15 iterations

 BEEF-vdW xc energy contributions
           1 :   -669.844229981751
           2 :    621.766997172473
           3 :   -537.099224751948
           4 :    434.216887499665
           5 :   -331.890452851015
           6 :    243.692861697299
           7 :   -175.334973084245
           8 :    125.366663958510
           9 :   -88.3376115133854
          10 :    58.5893380056106
          11 :   -32.9108306040556
          12 :    11.1012273417409
          13 :    5.28718510241515
          14 :   -14.9114063060758
          15 :    18.0406484652628
          16 :   -16.7277226937299
          17 :    13.8702898105499
          18 :   -11.8772364311266
          19 :    11.7307590110513
          20 :   -12.9130879503981
          21 :    14.1183828668642
          22 :   -14.2528129789390
          23 :    13.1109483066741
          24 :   -11.3879733173521
          25 :    10.1115991249692
          26 :   -9.92044412688642
          27 :    10.6515068904579
          28 :   -11.4706982197908
          29 :    11.4242636043384
          30 :   -10.0486519800088
          31 :   -53.9462764724603
          32 :   -39.4048133308853

     Forces acting on atoms (Ry/au):

     negative rho (up, down):  1.004E+00 0.000E+00
     atom    1 type  1   force =     0.00000044    0.01328646   -0.00994753
     atom    2 type  1   force =     0.01151023   -0.00664213   -0.00994740
     atom    3 type  1   force =    -0.01151430   -0.00664596   -0.00994839
     atom    4 type  2   force =    -0.00000010    0.00000109    0.02619227
     atom    5 type  1   force =    -0.00000097   -0.00840309    0.00221575
     atom    6 type  1   force =    -0.00727693    0.00420141    0.00221961
     atom    7 type  1   force =     0.00727961    0.00420221    0.00221442
     atom    8 type  2   force =     0.00000089    0.00000184    0.00149216
     atom    9 type  1   force =     0.00000100   -0.00001920   -0.00095509
     atom   10 type  1   force =    -0.00000903    0.00000784   -0.00095725
     atom   11 type  1   force =     0.00000965    0.00000953   -0.00096074
     atom   12 type  2   force =    -0.00000047   -0.00000001   -0.00161781

     Total force =     0.041797     Total SCF correction =     0.002394

     entering subroutine stress ...

     negative rho (up, down):  1.004E+00 0.000E+00
          total   stress  (Ry/bohr**3)                   (kbar)     P=   -7.16
  -0.00005578  -0.00000000  -0.00000000         -8.21     -0.00     -0.00
  -0.00000000  -0.00005578  -0.00000000         -0.00     -8.21     -0.00
  -0.00000000  -0.00000000  -0.00003452         -0.00     -0.00     -5.08

 !ASE

     Writing output data file calc.save

     General routines

     Parallel routines

   This run was terminated on:   3: 6:27   2Jan2019

   JOB DONE.
Job  /afs/slac/g/suncat/bin/suncat-tsmpirun -x LD_LIBRARY_PATH -wdir /scratch/qe649270_WlXRo pw.x -in pw.inp

TID   HOST_NAME   COMMAND_LINE            STATUS            TERMINATION_TIME
00000 suncat0090 pw.x -in pw.inp   Done                     01/02/2019 03:06:27
00001 suncat0090 pw.x -in pw.inp   Done                     01/02/2019 03:06:27
00002 suncat0090 pw.x -in pw.inp   Done                     01/02/2019 03:06:27
00003 suncat0090 pw.x -in pw.inp   Done                     01/02/2019 03:06:27
00004 suncat0090 pw.x -in pw.inp   Done                     01/02/2019 03:06:27
00005 suncat0090 pw.x -in pw.inp   Done                     01/02/2019 03:06:27
00006 suncat0090 pw.x -in pw.inp   Done                     01/02/2019 03:06:27
00007 suncat0090 pw.x -in pw.inp   Done                     01/02/2019 03:06:27
00008 suncat0089 pw.x -in pw.inp   Done                     01/02/2019 03:06:27
00009 suncat0089 pw.x -in pw.inp   Done                     01/02/2019 03:06:27
00010 suncat0089 pw.x -in pw.inp   Done                     01/02/2019 03:06:27
00011 suncat0089 pw.x -in pw.inp   Done                     01/02/2019 03:06:27
00012 suncat0089 pw.x -in pw.inp   Done                     01/02/2019 03:06:27
00013 suncat0089 pw.x -in pw.inp   Done                     01/02/2019 03:06:27
00014 suncat0089 pw.x -in pw.inp   Done                     01/02/2019 03:06:27
00015 suncat0089 pw.x -in pw.inp   Done                     01/02/2019 03:06:27
00016 suncat0088 pw.x -in pw.inp   Done                     01/02/2019 03:06:27
00017 suncat0088 pw.x -in pw.inp   Done                     01/02/2019 03:06:27
00018 suncat0088 pw.x -in pw.inp   Done                     01/02/2019 03:06:27
00019 suncat0088 pw.x -in pw.inp   Done                     01/02/2019 03:06:27
00020 suncat0088 pw.x -in pw.inp   Done                     01/02/2019 03:06:27
00021 suncat0088 pw.x -in pw.inp   Done                     01/02/2019 03:06:27
00022 suncat0088 pw.x -in pw.inp   Done                     01/02/2019 03:06:27
00023 suncat0088 pw.x -in pw.inp   Done                     01/02/2019 03:06:27
00024 suncat0079 pw.x -in pw.inp   Done                     01/02/2019 03:06:27
00025 suncat0079 pw.x -in pw.inp   Done                     01/02/2019 03:06:27
00026 suncat0079 pw.x -in pw.inp   Done                     01/02/2019 03:06:27
00027 suncat0079 pw.x -in pw.inp   Done                     01/02/2019 03:06:27
00028 suncat0079 pw.x -in pw.inp   Done                     01/02/2019 03:06:27
00029 suncat0079 pw.x -in pw.inp   Done                     01/02/2019 03:06:27
00030 suncat0079 pw.x -in pw.inp   Done                     01/02/2019 03:06:27
00031 suncat0079 pw.x -in pw.inp   Done                     01/02/2019 03:06:27
00032 suncat0274 pw.x -in pw.inp   Done                     01/02/2019 03:06:27
00033 suncat0274 pw.x -in pw.inp   Done                     01/02/2019 03:06:27
00034 suncat0274 pw.x -in pw.inp   Done                     01/02/2019 03:06:27
00035 suncat0274 pw.x -in pw.inp   Done                     01/02/2019 03:06:27
00036 suncat0274 pw.x -in pw.inp   Done                     01/02/2019 03:06:27
00037 suncat0274 pw.x -in pw.inp   Done                     01/02/2019 03:06:27
00038 suncat0274 pw.x -in pw.inp   Done                     01/02/2019 03:06:27
00039 suncat0274 pw.x -in pw.inp   Done                     01/02/2019 03:06:27
00040 suncat0273 pw.x -in pw.inp   Done                     01/02/2019 03:06:27
00041 suncat0273 pw.x -in pw.inp   Done                     01/02/2019 03:06:27
00042 suncat0273 pw.x -in pw.inp   Done                     01/02/2019 03:06:27
00043 suncat0273 pw.x -in pw.inp   Done                     01/02/2019 03:06:27
00044 suncat0273 pw.x -in pw.inp   Done                     01/02/2019 03:06:27
00045 suncat0273 pw.x -in pw.inp   Done                     01/02/2019 03:06:27
00046 suncat0273 pw.x -in pw.inp   Done                     01/02/2019 03:06:27
00047 suncat0273 pw.x -in pw.inp   Done                     01/02/2019 03:06:27
00048 suncat0230 pw.x -in pw.inp   Done                     01/02/2019 03:06:27
00049 suncat0230 pw.x -in pw.inp   Done                     01/02/2019 03:06:27
00050 suncat0230 pw.x -in pw.inp   Done                     01/02/2019 03:06:27
00051 suncat0230 pw.x -in pw.inp   Done                     01/02/2019 03:06:27
00052 suncat0230 pw.x -in pw.inp   Done                     01/02/2019 03:06:27
00053 suncat0230 pw.x -in pw.inp   Done                     01/02/2019 03:06:27
00054 suncat0230 pw.x -in pw.inp   Done                     01/02/2019 03:06:27
00055 suncat0230 pw.x -in pw.inp   Done                     01/02/2019 03:06:27
00056 suncat0229 pw.x -in pw.inp   Done                     01/02/2019 03:06:27
00057 suncat0229 pw.x -in pw.inp   Done                     01/02/2019 03:06:27
00058 suncat0229 pw.x -in pw.inp   Done                     01/02/2019 03:06:27
00059 suncat0229 pw.x -in pw.inp   Done                     01/02/2019 03:06:27
00060 suncat0229 pw.x -in pw.inp   Done                     01/02/2019 03:06:27
00061 suncat0229 pw.x -in pw.inp   Done                     01/02/2019 03:06:27
00062 suncat0229 pw.x -in pw.inp   Done                     01/02/2019 03:06:27
00063 suncat0229 pw.x -in pw.inp   Done                     01/02/2019 03:06:27