     Program PWSCF v.5.1rc2 (svn rev. 11289) starts on 26Dec2018 at 14:49:17

     Current dimensions of program PWSCF are:
     Max number of different atomic species (ntypx) = 10
     Max number of k-points (npk) =  40000
     Max angular momentum in pseudopotentials (lmaxx) =  3
     Presently stress not available with electric field

     IMPORTANT: XC functional enforced from input :
     Exchange-correlation      = BEEF-VDW ( 1  4 27 13 2)
     Any further DFT definition will be discarded
     Please, verify this is what you really want

     Subspace diagonalization in iterative solution of the eigenvalue problem:
     a serial algorithm will be used

     bravais-lattice index     =            0
     lattice parameter (alat)  =       1.8897  a.u.
     unit-cell volume          =    5049.8756 (a.u.)^3
     number of atoms/cell      =           12
     number of atomic types    =            2
     number of electrons       =       168.00
     number of Kohn-Sham states=          114
     kinetic-energy cutoff     =      36.7493  Ry
     charge density cutoff     =     367.4932  Ry
     convergence threshold     =      1.0E-06
     mixing beta               =       0.1000
     number of iterations used =           10  plain     mixing
     Exchange-correlation      = BEEF-VDW ( 1  4 27 13 2)
     nstep                     =           50

     celldm(1)=   1.889726  celldm(2)=   0.000000  celldm(3)=   0.000000
     celldm(4)=   0.000000  celldm(5)=   0.000000  celldm(6)=   0.000000

     crystal axes: (cart. coord. in units of alat)
               a(1) = (   5.900584   0.000000   0.000000 )
               a(2) = (  -2.950292   5.110056   0.000000 )
               a(3) = (   0.000000   0.000000  24.817807 )

     reciprocal axes: (cart. coord. in units 2 pi/alat)
               b(1) = (  0.169475  0.097846  0.000000 )
               b(2) = (  0.000000  0.195693  0.000000 )
               b(3) = (  0.000000  0.000000  0.040294 )

     PseudoPot. # 1 for Ir read from file:
     /afs/slac.stanford.edu/u/if/mamunm/psp/gbrv1.5pbe/Ir.UPF
     MD5 check sum: 8836f839c3459d2b385c504ce6d91f2c
     Pseudo is Ultrasoft + core correction, Zval = 15.0
     Generated by new atomic code, or converted to UPF format
     Using radial grid of  983 points,  7 beta functions with:
                l(1) =   0
                l(2) =   0
                l(3) =   1
                l(4) =   1
                l(5) =   1
                l(6) =   2
                l(7) =   2
     Q(r) pseudized with  8 coefficients,  rinner =    1.400   1.400   1.400
                                                       1.400   1.400

     PseudoPot. # 2 for La read from file:
     /afs/slac.stanford.edu/u/if/mamunm/psp/gbrv1.5pbe/La.UPF
     MD5 check sum: 5937b0c7494ba0601a847275249473aa
     Pseudo is Ultrasoft + core correction, Zval = 11.0
     Generated by new atomic code, or converted to UPF format
     Using radial grid of  995 points,  8 beta functions with:
                l(1) =   0
                l(2) =   0
                l(3) =   1
                l(4) =   1
                l(5) =   2
                l(6) =   2
                l(7) =   3
                l(8) =   3
     Q(r) pseudized with  8 coefficients,  rinner =    1.700   1.700   1.700
                                                       1.700   1.700   1.700
                                                       1.700

     vdW kernel table read from file vdW_kernel_table
     MD5 check sum: 095c7af220d748ca6e76c0b4c6cfb241

     atomic species   valence    mass     pseudopotential
        Ir1           15.00   192.21700     Ir( 1.00)
        La1           11.00   138.90547     La( 1.00)

     No symmetry found

   Cartesian axes

     site n.     atom                  positions (alat units)
         1           Ir1 tau(   1) = (   0.0000000   0.0000000  10.0000000  )
         2           Ir1 tau(   2) = (  -1.4751461   2.5550280  10.0000000  )
         3           Ir1 tau(   3) = (   1.4751461   2.5550280  10.0000000  )
         4           La1 tau(   4) = (   2.9502922   0.0000000  10.0000000  )
         5           Ir1 tau(   5) = (   2.9502922   1.7033520  12.4089035  )
         6           Ir1 tau(   6) = (   1.4751461   4.2583799  12.4089035  )
         7           Ir1 tau(   7) = (  -1.4751461   4.2583799  12.4089035  )
         8           La1 tau(   8) = (   0.0000000   1.7033520  12.4089035  )
         9           Ir1 tau(   9) = (  -0.0000000   3.4067040  14.8178069  )
        10           Ir1 tau(  10) = (   1.4751461   0.8516760  14.8178069  )
        11           Ir1 tau(  11) = (   4.4254382   0.8516760  14.8178069  )
        12           La1 tau(  12) = (   2.9502922   3.4067040  14.8178069  )

     number of k points=    20  Fermi-Dirac smearing, width (Ry)=  0.0110
                       cart. coord. in units 2pi/alat
        k(    1) = (   0.0000000   0.0000000   0.0000000), wk =   0.0555556
        k(    2) = (   0.0000000   0.0326154   0.0000000), wk =   0.1111111
        k(    3) = (   0.0000000   0.0652309   0.0000000), wk =   0.1111111
        k(    4) = (   0.0000000  -0.0978463   0.0000000), wk =   0.0555556
        k(    5) = (   0.0282458   0.0163077   0.0000000), wk =   0.1111111
        k(    6) = (   0.0282458   0.0489231   0.0000000), wk =   0.1111111
        k(    7) = (   0.0282458   0.0815386   0.0000000), wk =   0.1111111
        k(    8) = (   0.0282458  -0.0815386   0.0000000), wk =   0.1111111
        k(    9) = (   0.0282458  -0.0489231   0.0000000), wk =   0.1111111
        k(   10) = (   0.0282458  -0.0163077   0.0000000), wk =   0.1111111
        k(   11) = (   0.0564916   0.0326154   0.0000000), wk =   0.1111111
        k(   12) = (   0.0564916   0.0652309   0.0000000), wk =   0.1111111
        k(   13) = (   0.0564916   0.0978463   0.0000000), wk =   0.1111111
        k(   14) = (   0.0564916  -0.0652309   0.0000000), wk =   0.1111111
        k(   15) = (   0.0564916  -0.0326154   0.0000000), wk =   0.1111111
        k(   16) = (   0.0564916   0.0000000   0.0000000), wk =   0.1111111
        k(   17) = (  -0.0847374  -0.0489231   0.0000000), wk =   0.0555556
        k(   18) = (  -0.0847374  -0.0163077   0.0000000), wk =   0.1111111
        k(   19) = (  -0.0847374   0.0163077   0.0000000), wk =   0.1111111
        k(   20) = (  -0.0847374  -0.1467694   0.0000000), wk =   0.0555556

     Largest allocated arrays     est. size (Mb)     dimensions
     Largest temporary arrays     est. size (Mb)     dimensions

     Initial potential from superposition of free atoms
     Check: negative starting charge=   -3.504539

     starting charge  163.40351, renormalised to  168.00000

     negative rho (up, down):  3.603E+00 0.000E+00

     *
     * You are using vdW-DF for exchange-correlation in this calculation.
     * Please cite the following three references that made this development
     * possible:
     *
     *   M. Dion, H. Rydberg, E. Schroder, D. C. Langreth, and
     *   B. I. Lundqvist, Phys. Rev. Lett. 92, 246401 (2004).
     *
     *   T. Thonhauser, V. R. Cooper, S. Li, A. Puzder, P. Hyldgaard, and
     *   D. C. Langreth, Phys. Rev. B 76, 125112 (2007).
     *
     *   G. Roman-Perez and J. M. Soler, Phys. Rev. Lett. 103, 096102 (2009).
     *
     *
     * If you are using vdW-DF2, please also cite:
     *
     *   K. Lee, E. D. Murray, L. Kong, B. I. Lundqvist, and
     *   D. C. Langreth, Phys. Rev. B 82, 081101(R) (2010).
     *
     *
     * If you are calculating the stress with vdW-DF, please also cite:
     *
     *   R. Sabatini, E. Kucukbenli, B. Kolb, T. Thonhauser, and
     *   S. de Gironcoli, J. Phys.: Condens. Matter 24, 424209 (2012).
     *

     Carrying out vdW-DF run using the following parameters:

     Nqs =      20    Nr_points =    1024   r_max =   100.000
     q_mesh =
               0.00001000     0.04494208     0.09755937     0.15916263
               0.23128650     0.31572767     0.41458969     0.53033537
               0.66584808     0.82450364     1.01025438     1.22772762
               1.48234092     1.78043706     2.12944203     2.53805004
               3.01644009     3.57652955     4.23227104     5.00000000

     Gradients computed in reciprocal space

     Adding external electric field

     Computed dipole along edir(3) :
        Dipole                0.0000 Ry au,          0.0000 Debye
        Dipole field          0.0000 Ry au

        Potential amp.       -0.0000 Ry
        Total length         45.7264 bohr

     Starting wfc are  168 randomized atomic wfcs

     Self-consistent Calculation

     iteration #  1     ecut=    36.75 Ry     beta=0.10
     Davidson diagonalization with overlap
     ethr =  1.00E-02,  avg # of iterations =  2.0

[...]

     total energy              =   -1956.46446024 Ry
     Harris-Foulkes estimate   =   -1965.91474098 Ry
     estimated scf accuracy    <      53.25737580 Ry

[...]

     End of self-consistent calculation

          k = 0.0000 0.0000 0.0000 ( 19027 PWs)   bands (ev):

   -46.5512 -46.4768 -46.4768 -46.4618 -46.4261 -46.4261 -46.3200 -46.2920
   -46.2920 -46.1821 -46.1753 -46.0690 -46.0690 -46.0617 -46.0617 -45.9831
   -45.9831 -45.9782 -45.9782 -45.9760 -45.9653 -45.9403 -45.9386 -45.9149
   -45.9149 -45.9124 -45.9124 -29.3422 -29.3317 -28.5138 -13.3050 -13.1713
   -13.1679 -13.1679 -13.1395 -13.1395 -12.5605 -12.5059 -12.5059  -4.1215
    -2.8376  -2.8104  -2.5210  -2.5210  -2.3469  -2.3469  -1.8073  -1.7184
    -1.7184  -1.6870  -1.6870  -1.5342  -0.9731  -0.8851  -0.4389  -0.3341
    -0.3341  -0.2322  -0.2322   0.2555   0.2791   0.4100   0.6435   0.6554
     0.6554   0.7350   0.7350   1.0193   1.0193   1.1866   1.1866   1.2281
     1.2281   1.5923   1.9096   1.9939   1.9939   2.0801   2.0801   2.3708
     2.3708   2.6990   2.7229   2.7475   2.7475   3.2117   3.5483   3.5910
     3.6265   4.1516   4.5903   5.3842   5.3842   5.4266   5.4667   5.4667
     5.6421   5.7401   5.7401   5.7989   5.8224   5.8224   5.8494   5.8494
     5.8807   5.9110   5.9110   5.9119   5.9119   6.0811   6.1661   6.1661
     6.1958   6.2285

[...]

          k =-0.0847-0.0489 0.0000 ( 18996 PWs)   bands (ev):

[...]

     the Fermi energy is     2.3091 ev

!    total energy              =   -1962.03928028 Ry
     Harris-Foulkes estimate   =   -1962.03928965 Ry
     estimated scf accuracy    <       0.00000039 Ry

     The total energy is the sum of the following terms:

     one-electron contribution =  -13521.16785098 Ry
     hartree contribution      =    6792.33378562 Ry
     xc contribution           =    -620.74243615 Ry
     ewald contribution        =    5387.61834500 Ry
     electric field correction =       0.00000007 Ry
     smearing contrib. (-TS)   =      -0.08112384 Ry

     convergence has been achieved in  18 iterations

 BEEF-vdW xc energy contributions
           1 :   -549.557791745114
           2 :    509.655858304601
           3 :   -438.434474866228
           4 :    350.130705791342
           5 :   -260.351674779354
           6 :    182.034858187095
           7 :   -122.756643861324
           8 :    83.9158057600037
           9 :   -61.7952304327825
          10 :    49.9192028188057
[...]
     Pseudo is Ultrasoft + core correction, Zval = 15.0
     Generated by new atomic code, or converted to UPF format
     Using radial grid of  983 points,  7 beta functions with:
                l(1) =   0
                l(2) =   0
                l(3) =   1
                l(4) =   1
                l(5) =   1
                l(6) =   2
                l(7) =   2
     Q(r) pseudized with  8 coefficients,  rinner =    1.400   1.400   1.400
                                                       1.400   1.400

     PseudoPot. # 2 for La read from file:
     /afs/slac.stanford.edu/u/if/mamunm/psp/gbrv1.5pbe/La.UPF
     MD5 check sum: 5937b0c7494ba0601a847275249473aa
     Pseudo is Ultrasoft + core correction, Zval = 11.0
     Generated by new atomic code, or converted to UPF format
     Using radial grid of  995 points,  8 beta functions with:
                l(1) =   0
                l(2) =   0
                l(3) =   1
                l(4) =   1
                l(5) =   2
                l(6) =   2
                l(7) =   3
                l(8) =   3
     Q(r) pseudized with  8 coefficients,  rinner =    1.700   1.700   1.700
                                                       1.700   1.700   1.700
                                                       1.700

     vdW kernel table read from file vdW_kernel_table
     MD5 check sum: 095c7af220d748ca6e76c0b4c6cfb241

     atomic species   valence    mass     pseudopotential
        Ir1           15.00   192.21700     Ir( 1.00)
        La1           11.00   138.90547     La( 1.00)

     No symmetry found

   Cartesian axes

     site n.     atom                  positions (alat units)
         1           Ir1 tau(   1) = (   0.0000000   0.0000000  10.0000000  )
         2           Ir1 tau(   2) = (  -1.4751461   2.5550280  10.0000000  )
         3           Ir1 tau(   3) = (   1.4751461   2.5550280  10.0000000  )
         4           La1 tau(   4) = (   2.9502922   0.0000000  10.0000000  )
         5           Ir1 tau(   5) = (   2.9502922   1.7033520  12.4089035  )
         6           Ir1 tau(   6) = (   1.4751461   4.2583799  12.4089035  )
         7           Ir1 tau(   7) = (  -1.4751461   4.2583799  12.4089035  )
         8           La1 tau(   8) = (   0.0000000   1.7033520  12.4089035  )
         9           Ir1 tau(   9) = (  -0.0000004   3.4811108  14.6319047  )
        10           Ir1 tau(  10) = (   1.5395880   0.8144731  14.6319042  )
        11           Ir1 tau(  11) = (   4.3610008   0.8144770  14.6319057  )
        12           La1 tau(  12) = (   2.9502920   3.4067093  15.1662054  )

     number of k points=    20  Fermi-Dirac smearing, width (Ry)=  0.0110
                       cart. coord. in units 2pi/alat
        k(    1) = (   0.0000000   0.0000000   0.0000000), wk =   0.0555556
        k(    2) = (   0.0000000   0.0326154   0.0000000), wk =   0.1111111
        k(    3) = (   0.0000000   0.0652309   0.0000000), wk =   0.1111111
        k(    4) = (   0.0000000  -0.0978463   0.0000000), wk =   0.0555556
        k(    5) = (   0.0282458   0.0163077   0.0000000), wk =   0.1111111
        k(    6) = (   0.0282458   0.0489231   0.0000000), wk =   0.1111111
        k(    7) = (   0.0282458   0.0815386   0.0000000), wk =   0.1111111
        k(    8) = (   0.0282458  -0.0815386   0.0000000), wk =   0.1111111
        k(    9) = (   0.0282458  -0.0489231   0.0000000), wk =   0.1111111
        k(   10) = (   0.0282458  -0.0163077   0.0000000), wk =   0.1111111
        k(   11) = (   0.0564916   0.0326154   0.0000000), wk =   0.1111111
        k(   12) = (   0.0564916   0.0652309   0.0000000), wk =   0.1111111
        k(   13) = (   0.0564916   0.0978463   0.0000000), wk =   0.1111111
        k(   14) = (   0.0564916  -0.0652309   0.0000000), wk =   0.1111111
        k(   15) = (   0.0564916  -0.0326154   0.0000000), wk =   0.1111111
        k(   16) = (   0.0564916   0.0000000   0.0000000), wk =   0.1111111
        k(   17) = (  -0.0847374  -0.0489231   0.0000000), wk =   0.0555556
        k(   18) = (  -0.0847374  -0.0163077   0.0000000), wk =   0.1111111
        k(   19) = (  -0.0847374   0.0163077   0.0000000), wk =   0.1111111
        k(   20) = (  -0.0847374  -0.1467694   0.0000000), wk =   0.0555556

     Largest allocated arrays     est. size (Mb)     dimensions
     Largest temporary arrays     est. size (Mb)     dimensions

     Initial potential from superposition of free atoms
     Check: negative starting charge=   -3.493895

     starting charge  163.40351, renormalised to  168.00000

[...]

     *
     * You are using vdW-DF for exchange-correlation in this calculation.
     * Please cite the following three references that made this development
     * possible:
     *
     *   M. Dion, H. Rydberg, E. Schroder, D. C. Langreth, and
     *   B. I. Lundqvist, Phys. Rev. Lett. 92, 246401 (2004).
     *
     *   T. Thonhauser, V. R. Cooper, S. Li, A. Puzder, P. Hyldgaard, and
     *   D. C. Langreth, Phys. Rev. B 76, 125112 (2007).
     *
     *   G. Roman-Perez and J. M. Soler, Phys. Rev. Lett. 103, 096102 (2009).
     *
     *
     * If you are using vdW-DF2, please also cite:
     *
     *   K. Lee, E. D. Murray, L. Kong, B. I. Lundqvist, and
     *   D. C. Langreth, Phys. Rev. B 82, 081101(R) (2010).
     *
     *
     * If you are calculating the stress with vdW-DF, please also cite:
     *
     *   R. Sabatini, E. Kucukbenli, B. Kolb, T. Thonhauser, and
     *   S. de Gironcoli, J. Phys.: Condens. Matter 24, 424209 (2012).
     *

     Carrying out vdW-DF run using the following parameters:

     Nqs =      20    Nr_points =    1024   r_max =   100.000
     q_mesh =
               0.00001000     0.04494208     0.09755937     0.15916263
               0.23128650     0.31572767     0.41458969     0.53033537
               0.66584808     0.82450364     1.01025438     1.22772762
               1.48234092     1.78043706     2.12944203     2.53805004
               3.01644009     3.57652955     4.23227104     5.00000000

     Gradients computed in reciprocal space

[...]

     Starting wfc are  168 randomized atomic wfcs

     Self-consistent Calculation

[...]

     total energy              =   -1962.09399472 Ry
     Harris-Foulkes estimate   =   -1962.09398908 Ry
     estimated scf accuracy    <       0.00000132 Ry

     iteration # 19     ecut=    36.75 Ry     beta=0.10
     Davidson diagonalization with overlap
     ethr =  7.86E-10,  avg # of iterations =  3.2

[...]

     negative rho (up, down):  3.086E+00 0.000E+00

     Adding external electric field

     Computed dipole along edir(3) :
        Dipole                0.2774 Ry au,          0.7052 Debye
        Dipole field          0.0007 Ry au

        Potential amp.       -0.0631 Ry
        Total length         45.7264 bohr

     End of self-consistent calculation

[...]

          k = 0.0565 0.0000 0.0000 ( 19007 PWs)   bands (ev):

[...]

          k =-0.0847-0.1468 0.0000 ( 18996 PWs)   bands (ev):

   -46.2589 -46.2290 -46.2080 -46.1429 -46.1044 -46.0817 -46.0764 -46.0397
   -45.9742 -45.9299 -45.8616 -45.8405 -45.8059 -45.7945 -45.7740 -45.7736
   -45.7585 -45.7528 -45.7228 -45.6904 -45.6521 -45.6397 -45.6201 -45.5954
   -45.5926 -45.5846 -45.5533 -29.6639 -28.9314 -28.1037 -13.5003 -13.4479
   -13.4104 -12.9782 -12.8669 -12.8455 -12.3701 -12.2436 -12.2340  -2.7391
    -2.3579  -1.3860  -1.3769  -1.3342  -1.2820  -1.1870  -1.0400  -0.9057
    -0.8264  -0.7216  -0.6421  -0.5032  -0.4603  -0.2562  -0.1207   0.0363
     0.1373   0.1748   0.3230   0.4170   0.4957   0.5981   0.6581   0.7261
     0.7493   0.8511   0.8712   0.9816   1.0831   1.1540   1.2694   1.2854
     1.3550   1.5141   1.5436   1.5873   1.6672   1.7277   1.7671   1.7968
     1.8192   2.0343   2.0787   2.5111   2.5549   2.6399   2.8120   3.1110
     3.1525   3.5507   3.7230   3.9082   4.5035   5.1184   5.2189   5.3760
     5.4632   5.5099   5.5324   5.5475   5.6353   5.6696   5.7045   5.7903
     5.9645   6.0895   6.1444   6.2541   6.3099   6.3180   6.3714   6.3936
     6.5267   6.5540

     the Fermi energy is     2.6790 ev

!    total energy              =   -1962.09397758 Ry
     Harris-Foulkes estimate   =   -1962.09399147 Ry
     estimated scf accuracy    <       0.00000074 Ry

     The total energy is the sum of the following terms:

     one-electron contribution =  -13672.81267146 Ry
     hartree contribution      =    6869.62529099 Ry
     xc contribution           =    -620.77627796 Ry
     ewald contribution        =    5461.94653557 Ry
     electric field correction =       0.00019153 Ry
     smearing contrib. (-TS)   =      -0.07704625 Ry

     convergence has been achieved in  19 iterations

 BEEF-vdW xc energy contributions
           1 :   -550.004054308227
           2 :    510.161539150996
           3 :   -439.025828771422
           4 :    350.782855335741
           5 :   -260.994663361228
           6 :    182.589474677498
           7 :   -123.181164232137
           8 :    84.2297001101456
           9 :   -62.0671248218623
          10 :    50.2306007266349
          11 :   -42.1470658345567
          12 :    33.2140361181428
          13 :   -21.7152485165102
          14 :    8.51881053342959
          15 :    4.05809625576956
          16 :   -13.6299625575466
          17 :    18.8144321210355
          18 :   -19.6714180053907
          19 :    17.4791402583784
          20 :   -14.0762308059633
          21 :    11.1161483581903
          22 :   -9.54236693762107
          23 :    9.43658548608244
          24 :   -10.2207708823174
          25 :    11.0615348475092
          26 :   -11.2820248648669
          27 :    10.6189125397934
          28 :   -9.25537092546051
          29 :    7.66062456042027
          30 :   -6.33958329910081
          31 :   -46.9264886767693
          32 :   -34.7225024350847

     Forces acting on atoms (Ry/au):

     negative rho (up, down):  3.086E+00 0.000E+00
     atom    1 type  1   force =    -0.00000012   -0.01273918    0.03044592
     atom    2 type  1   force =    -0.01103258    0.00636963    0.03044616
     atom    3 type  1   force =     0.01103298    0.00636997    0.03044619
     atom    4 type  2   force =    -0.00000005   -0.00000131   -0.06089465
     atom    5 type  1   force =    -0.00000006    0.02494448    0.00177461
     atom    6 type  1   force =     0.02160192   -0.01247213    0.00177455
     atom    7 type  1   force =    -0.02160172   -0.01247178    0.00177422
     atom    8 type  2   force =     0.00000062   -0.00000059   -0.03571763
     atom    9 type  1   force =     0.00000014    0.00119792   -0.00001106
     atom   10 type  1   force =     0.00103849   -0.00059832   -0.00001293
     atom   11 type  1   force =    -0.00103897   -0.00059878   -0.00001276
     atom   12 type  2   force =    -0.00000064    0.00000011   -0.00001262

     Total force =     0.100658     Total SCF correction =     0.003051

     entering subroutine stress ...

     negative rho (up, down):  3.086E+00 0.000E+00
          total   stress  (Ry/bohr**3)                   (kbar)     P=  -18.71
  -0.00016176  -0.00000000  -0.00000000        -23.80     -0.00     -0.00
  -0.00000000  -0.00016176  -0.00000000         -0.00    -23.80     -0.00
  -0.00000000  -0.00000000  -0.00005804         -0.00     -0.00     -8.54

 !ASE

     Writing output data file calc.save

     General routines

     Parallel routines

   This run was terminated on:  16:24: 3  26Dec2018

   JOB DONE.
Job  /afs/slac/g/suncat/bin/suncat-tsmpirun -x LD_LIBRARY_PATH -wdir /scratch/qe109941_rLGvA pw.x -in pw.inp

TID   HOST_NAME   COMMAND_LINE            STATUS            TERMINATION_TIME
00000 suncat0040 pw.x -in pw.inp   Done                     12/26/2018 16:24:03
00001 suncat0040 pw.x -in pw.inp   Done                     12/26/2018 16:24:03
00002 suncat0040 pw.x -in pw.inp   Done                     12/26/2018 16:24:03
00003 suncat0040 pw.x -in pw.inp   Done                     12/26/2018 16:24:03
00004 suncat0040 pw.x -in pw.inp   Done                     12/26/2018 16:24:03
00005 suncat0040 pw.x -in pw.inp   Done                     12/26/2018 16:24:03
00006 suncat0040 pw.x -in pw.inp   Done                     12/26/2018 16:24:03
00007 suncat0040 pw.x -in pw.inp   Done                     12/26/2018 16:24:03
00008 suncat0179 pw.x -in pw.inp   Done                     12/26/2018 16:24:03
00009 suncat0179 pw.x -in pw.inp   Done                     12/26/2018 16:24:03
00010 suncat0179 pw.x -in pw.inp   Done                     12/26/2018 16:24:03
00011 suncat0179 pw.x -in pw.inp   Done                     12/26/2018 16:24:03
00012 suncat0179 pw.x -in pw.inp   Done                     12/26/2018 16:24:03
00013 suncat0179 pw.x -in pw.inp   Done                     12/26/2018 16:24:03
00014 suncat0179 pw.x -in pw.inp   Done                     12/26/2018 16:24:03
00015 suncat0179 pw.x -in pw.inp   Done                     12/26/2018 16:24:03
00016 suncat0147 pw.x -in pw.inp   Done                     12/26/2018 16:24:03
00017 suncat0147 pw.x -in pw.inp   Done                     12/26/2018 16:24:03
00018 suncat0147 pw.x -in pw.inp   Done                     12/26/2018 16:24:03
00019 suncat0147 pw.x -in pw.inp   Done                     12/26/2018 16:24:03
00020 suncat0147 pw.x -in pw.inp   Done                     12/26/2018 16:24:03
00021 suncat0147 pw.x -in pw.inp   Done                     12/26/2018 16:24:03
00022 suncat0147 pw.x -in pw.inp   Done                     12/26/2018 16:24:03
00023 suncat0147 pw.x -in pw.inp   Done                     12/26/2018 16:24:03
00024 suncat0146 pw.x -in pw.inp   Done                     12/26/2018 16:24:03
00025 suncat0146 pw.x -in pw.inp   Done                     12/26/2018 16:24:03
00026 suncat0146 pw.x -in pw.inp   Done                     12/26/2018 16:24:03
00027 suncat0146 pw.x -in pw.inp   Done                     12/26/2018 16:24:03
00028 suncat0146 pw.x -in pw.inp   Done                     12/26/2018 16:24:03
00029 suncat0146 pw.x -in pw.inp   Done                     12/26/2018 16:24:03
00030 suncat0146 pw.x -in pw.inp   Done                     12/26/2018 16:24:03
00031 suncat0146 pw.x -in pw.inp   Done                     12/26/2018 16:24:03
00032 suncat0272 pw.x -in pw.inp   Done                     12/26/2018 16:24:03
00033 suncat0272 pw.x -in pw.inp   Done                     12/26/2018 16:24:03
00034 suncat0272 pw.x -in pw.inp   Done                     12/26/2018 16:24:03
00035 suncat0272 pw.x -in pw.inp   Done                     12/26/2018 16:24:03
00036 suncat0272 pw.x -in pw.inp   Done                     12/26/2018 16:24:03
00037 suncat0272 pw.x -in pw.inp   Done                     12/26/2018 16:24:03
00038 suncat0272 pw.x -in pw.inp   Done                     12/26/2018 16:24:03
00039 suncat0272 pw.x -in pw.inp   Done                     12/26/2018 16:24:03
00040 suncat0271 pw.x -in pw.inp   Done                     12/26/2018 16:24:03
00041 suncat0271 pw.x -in pw.inp   Done                     12/26/2018 16:24:03
00042 suncat0271 pw.x -in pw.inp   Done                     12/26/2018 16:24:03
00043 suncat0271 pw.x -in pw.inp   Done                     12/26/2018 16:24:03
00044 suncat0271 pw.x -in pw.inp   Done                     12/26/2018 16:24:03
00045 suncat0271 pw.x -in pw.inp   Done                     12/26/2018 16:24:03
00046 suncat0271 pw.x -in pw.inp   Done                     12/26/2018 16:24:03
00047 suncat0271 pw.x -in pw.inp   Done                     12/26/2018 16:24:03
00048 suncat0260 pw.x -in pw.inp   Done                     12/26/2018 16:24:03
00049 suncat0260 pw.x -in pw.inp   Done                     12/26/2018 16:24:03
00050 suncat0260 pw.x -in pw.inp   Done                     12/26/2018 16:24:03
00051 suncat0260 pw.x -in pw.inp   Done                     12/26/2018 16:24:03
00052 suncat0260 pw.x -in pw.inp   Done                     12/26/2018 16:24:03
00053 suncat0260 pw.x -in pw.inp   Done                     12/26/2018 16:24:03
00054 suncat0260 pw.x -in pw.inp   Done                     12/26/2018 16:24:03
00055 suncat0260 pw.x -in pw.inp   Done                     12/26/2018 16:24:03
00056 suncat0259 pw.x -in pw.inp   Done                     12/26/2018 16:24:03
00057 suncat0259 pw.x -in pw.inp   Done                     12/26/2018 16:24:03
00058 suncat0259 pw.x -in pw.inp   Done                     12/26/2018 16:24:03
00059 suncat0259 pw.x -in pw.inp   Done                     12/26/2018 16:24:03
00060 suncat0259 pw.x -in pw.inp   Done                     12/26/2018 16:24:03
00061 suncat0259 pw.x -in pw.inp   Done                     12/26/2018 16:24:03
00062 suncat0259 pw.x -in pw.inp   Done                     12/26/2018 16:24:03
00063 suncat0259 pw.x -in pw.inp   Done                     12/26/2018 16:24:03