     Program PWSCF v.5.1rc2 (svn rev. 11289) starts on  1Jan2019 at 19:23:40

     Current dimensions of program PWSCF are:
     Max number of different atomic species (ntypx) = 10
     Max number of k-points (npk) =  40000
     Max angular momentum in pseudopotentials (lmaxx) =  3
     Presently stress not available with electric field

     IMPORTANT: XC functional enforced from input :
     Exchange-correlation      = BEEF-VDW ( 1  4 27 13 2)
     Any further DFT definition will be discarded
     Please, verify this is what you really want

     Subspace diagonalization in iterative solution of the eigenvalue problem:
     a serial algorithm will be used

     bravais-lattice index     =            0
     lattice parameter (alat)  =       1.8897  a.u.
     unit-cell volume          =    4293.7866 (a.u.)^3
     number of atoms/cell      =           12
     number of atomic types    =            2
     number of electrons       =       180.00
     number of Kohn-Sham states=          120
     kinetic-energy cutoff     =      36.7493  Ry
     charge density cutoff     =     367.4932  Ry
     convergence threshold     =      1.0E-06
     mixing beta               =       0.1000
     number of iterations used =           10  plain     mixing
     Exchange-correlation      = BEEF-VDW ( 1  4 27 13 2)
     nstep                     =           50

     celldm(1)=   1.889726  celldm(2)=   0.000000  celldm(3)=   0.000000
     celldm(4)=   0.000000  celldm(5)=   0.000000  celldm(6)=   0.000000

     crystal axes: (cart. coord. in units of alat)
               a(1) = (   5.479075   0.000000   0.000000 )
               a(2) = (  -2.739538   4.745018   0.000000 )
               a(3) = (   0.000000   0.000000  24.473646 )

     reciprocal axes: (cart. coord. in units 2 pi/alat)
               b(1) = (  0.182513  0.105374  0.000000 )
               b(2) = (  0.000000  0.210747  0.000000 )
               b(3) = (  0.000000  0.000000  0.040860 )

     PseudoPot. # 1 for Tc read from file:
     /afs/slac.stanford.edu/u/if/mamunm/psp/gbrv1.5pbe/Tc.UPF
     MD5 check sum: 9eb49e5b028550b2339a02317eb7b844
     Pseudo is Ultrasoft + core correction, Zval = 15.0
     Generated by new atomic code, or converted to UPF format
     Using radial grid of  965 points,  6 beta functions with:
                l(1) =   0
                l(2) =   0
                l(3) =   1
                l(4) =   1
                l(5) =   2
                l(6) =   2
     Q(r) pseudized with  8 coefficients,  rinner =    1.300   1.300   1.300
                                                       1.300   1.300

     PseudoPot. # 2 for Ir read from file:
     /afs/slac.stanford.edu/u/if/mamunm/psp/gbrv1.5pbe/Ir.UPF
     MD5 check sum: 8836f839c3459d2b385c504ce6d91f2c
     Pseudo is Ultrasoft + core correction, Zval = 15.0
     Generated by new atomic code, or converted to UPF format
     Using radial grid of  983 points,  7 beta functions with:
                l(1) =   0
                l(2) =   0
                l(3) =   1
                l(4) =   1
                l(5) =   1
                l(6) =   2
                l(7) =   2
     Q(r) pseudized with  8 coefficients,  rinner =    1.400   1.400   1.400
                                                       1.400   1.400

     vdW kernel table read from file vdW_kernel_table
     MD5 check sum: 095c7af220d748ca6e76c0b4c6cfb241

     atomic species   valence    mass     pseudopotential
        Tc1           15.00    97.90721     Tc( 1.00)
        Ir1           15.00   192.21700     Ir( 1.00)

     No symmetry found

   Cartesian axes

     site n.     atom                  positions (alat units)
         1           Tc1 tau(   1) = (   0.0000000   0.0000000  10.0000000  )
         2           Tc1 tau(   2) = (  -1.3697688   2.3725092  10.0000000  )
         3           Tc1 tau(   3) = (   1.3697688   2.3725092  10.0000000  )
         4           Ir1 tau(   4) = (   2.7395377   0.0000000  10.0000000  )
         5           Tc1 tau(   5) = (   2.7395377   1.5816728  12.2368231  )
         6           Tc1 tau(   6) = (   1.3697688   3.9541820  12.2368231  )
         7           Tc1 tau(   7) = (  -1.3697688   3.9541820  12.2368231  )
         8           Ir1 tau(   8) = (   0.0000000   1.5816728  12.2368231  )
         9           Tc1 tau(   9) = (  -0.0000000   3.1633456  14.4736463  )
        10           Tc1 tau(  10) = (   1.3697688   0.7908364  14.4736463  )
        11           Tc1 tau(  11) = (   4.1093065   0.7908364  14.4736463  )
        12           Ir1 tau(  12) = (   2.7395377   3.1633456  14.4736463  )

     number of k points=    20  Fermi-Dirac smearing, width (Ry)=  0.0110
                       cart. coord. in units 2pi/alat
        k(    1) = (   0.0000000   0.0000000   0.0000000), wk =   0.0555556
        k(    2) = (   0.0000000   0.0351246   0.0000000), wk =   0.1111111
        k(    3) = (   0.0000000   0.0702491   0.0000000), wk =   0.1111111
        k(    4) = (   0.0000000  -0.1053737   0.0000000), wk =   0.0555556
        k(    5) = (   0.0304188   0.0175623   0.0000000), wk =   0.1111111
        k(    6) = (   0.0304188   0.0526868   0.0000000), wk =   0.1111111
        k(    7) = (   0.0304188   0.0878114   0.0000000), wk =   0.1111111
        k(    8) = (   0.0304188  -0.0878114   0.0000000), wk =   0.1111111
        k(    9) = (   0.0304188  -0.0526868   0.0000000), wk =   0.1111111
        k(   10) = (   0.0304188  -0.0175623   0.0000000), wk =   0.1111111
        k(   11) = (   0.0608375   0.0351246   0.0000000), wk =   0.1111111
        k(   12) = (   0.0608375   0.0702491   0.0000000), wk =   0.1111111
        k(   13) = (   0.0608375   0.1053737   0.0000000), wk =   0.1111111
        k(   14) = (   0.0608375  -0.0702491   0.0000000), wk =   0.1111111
        k(   15) = (   0.0608375  -0.0351246   0.0000000), wk =   0.1111111
        k(   16) = (   0.0608375  -0.0000000   0.0000000), wk =   0.1111111
        k(   17) = (  -0.0912563  -0.0526868   0.0000000), wk =   0.0555556
        k(   18) = (  -0.0912563  -0.0175623   0.0000000), wk =   0.1111111
        k(   19) = (  -0.0912563   0.0175623   0.0000000), wk =   0.1111111
        k(   20) = (  -0.0912563  -0.1580605   0.0000000), wk =   0.0555556

     Largest allocated arrays     est. size (Mb)     dimensions
     Largest temporary arrays     est. size (Mb)     dimensions

     Check: negative/imaginary core charge=   -0.000018    0.000000

     Initial potential from superposition of free atoms
     Check: negative starting charge=   -2.219422

     starting charge  169.49966, renormalised to  180.00000

     negative rho (up, down):  2.357E+00 0.000E+00

     *
     * You are using vdW-DF for exchange-correlation in this calculation.
     * Please cite the following three references that made this development
     * possible:
     *
     *   M. Dion, H. Rydberg, E. Schroder, D. C. Langreth, and
     *   B. I. Lundqvist, Phys. Rev. Lett. 92, 246401 (2004).
     *
     *   T. Thonhauser, V. R. Cooper, S. Li, A. Puzder, P. Hyldgaard, and
     *   D. C. Langreth, Phys. Rev. B 76, 125112 (2007).
     *
     *   G. Roman-Perez and J. M. Soler, Phys. Rev. Lett. 103, 096102 (2009).
     *
     *
     * If you are using vdW-DF2, please also cite:
     *
     *   K. Lee, E. D. Murray, L. Kong, B. I. Lundqvist, and
     *   D. C. Langreth, Phys. Rev. B 82, 081101(R) (2010).
     *
     *
     * If you are calculating the stress with vdW-DF, please also cite:
     *
     *   R. Sabatini, E. Kucukbenli, B. Kolb, T. Thonhauser, and
     *   S. de Gironcoli, J. Phys.: Condens. Matter 24, 424209 (2012).
     *

     Carrying out vdW-DF run using the following parameters:

     Nqs =      20    Nr_points =    1024   r_max =   100.000
     q_mesh =
               0.00001000     0.04494208     0.09755937     0.15916263
               0.23128650     0.31572767     0.41458969     0.53033537
               0.66584808     0.82450364     1.01025438     1.22772762
               1.48234092     1.78043706     2.12944203     2.53805004
               3.01644009     3.57652955     4.23227104     5.00000000

     Gradients computed in reciprocal space

     Adding external electric field

     Computed dipole along edir(3) :
        Dipole                0.0000 Ry au,          0.0000 Debye
        Dipole field          0.0000 Ry au

        Potential amp.       -0.0000 Ry
        Total length         45.0923 bohr

     Starting wfc are  153 randomized atomic wfcs

     Self-consistent Calculation

     iteration #  1     ecut=    36.75 Ry     beta=0.10
     Davidson diagonalization with overlap
     ethr =  1.00E-02,  avg # of iterations =  8.1

[...]

     total energy              =   -2127.74132201 Ry
     Harris-Foulkes estimate   =   -2133.05636518 Ry
     estimated scf accuracy    <      32.27743209 Ry

[...]

     End of self-consistent calculation

          k = 0.0000 0.0000 0.0000 ( 16061 PWs)   bands (ev):

   -65.0026 -64.8959 -64.8959 -64.6674 -64.6602 -64.5665 -64.5665 -64.5648
   -64.5648 -47.2084 -47.1919 -47.1919 -46.6420 -46.6420 -46.6410 -46.6410
   -46.5908 -46.5868 -37.4217 -37.1823 -37.1737 -37.1737 -37.0417 -37.0417
   -37.0331 -36.9915 -36.7833 -36.7833 -36.7470 -36.7093 -36.7093 -36.6921
   -36.5954 -36.5954 -36.5541 -36.5541 -36.4930 -36.4803 -36.4803 -36.3974
   -36.3714 -36.2239 -36.2239 -36.2188 -36.2188  -5.0381  -3.5525  -3.4836
    -3.3533  -3.3533  -3.0599  -2.9191  -2.9191  -2.8495  -2.6140  -2.5890
    -2.5890  -2.2887  -2.2887  -2.0330  -1.1405  -1.1405  -0.7545  -0.5121
    -0.5121  -0.2585  -0.0499   0.0128   0.2977   0.2977   0.5888   0.5888
     0.6833   0.6833   0.9337   0.9337   1.0007   1.0339   1.4830   1.4830
     1.9390   2.2248   2.2248   2.4240   2.5133   2.5133   2.6172   2.6172
     2.7333   3.2615   3.4090   3.4090   3.5007   3.9320   3.9320   4.0713
     4.0713   4.3207   4.3207   4.3664   4.5452   4.5452   4.5892   4.5892
     4.8299   5.0038   5.0038   5.0511   5.0937   5.0937   5.4259   5.5047
     6.3773   6.6575   6.8163   6.8163   6.8252   7.0694   7.1347   7.1656

[...]

          k =-0.0913-0.0527 0.0000 ( 16164 PWs)   bands (ev):

[...]

     the Fermi energy is     2.4048 ev

!    total energy              =   -2127.52560993 Ry
     Harris-Foulkes estimate   =   -2127.52557314 Ry
     estimated scf accuracy    <       0.00000039 Ry

     The total energy is the sum of the following terms:

     one-electron contribution =  -18538.58186940 Ry
     hartree contribution      =    9275.27366272 Ry
     xc contribution           =    -453.53118686 Ry
     ewald contribution        =    7589.40837560 Ry
     electric field correction =       0.00000000 Ry
     smearing contrib. (-TS)   =      -0.09459200 Ry

     convergence has been achieved in  18 iterations

 BEEF-vdW xc energy contributions
           1 :   -398.968988508623
           2 :    368.409997147981
           3 :   -313.913449747298
           4 :    246.296794177548
           5 :   -177.276989864182
           6 :    116.256378707630
           7 :   -68.4218310499706
           8 :    34.4729936168602
           9 :   -11.8345143717549
          10 :   -3.41736707556760
[...]
     Pseudo is Ultrasoft + core correction, Zval = 15.0
     Generated by new atomic code, or converted to UPF format
     Using radial grid of  965 points,  6 beta functions with:
                l(1) =   0
                l(2) =   0
                l(3) =   1
                l(4) =   1
                l(5) =   2
                l(6) =   2
     Q(r) pseudized with  8 coefficients,  rinner =    1.300   1.300   1.300
                                                       1.300   1.300

     PseudoPot. # 2 for Ir read from file:
     /afs/slac.stanford.edu/u/if/mamunm/psp/gbrv1.5pbe/Ir.UPF
     MD5 check sum: 8836f839c3459d2b385c504ce6d91f2c
     Pseudo is Ultrasoft + core correction, Zval = 15.0
     Generated by new atomic code, or converted to UPF format
     Using radial grid of  983 points,  7 beta functions with:
                l(1) =   0
                l(2) =   0
                l(3) =   1
                l(4) =   1
                l(5) =   1
                l(6) =   2
                l(7) =   2
     Q(r) pseudized with  8 coefficients,  rinner =    1.400   1.400   1.400
                                                       1.400   1.400

     vdW kernel table read from file vdW_kernel_table
     MD5 check sum: 095c7af220d748ca6e76c0b4c6cfb241

     atomic species   valence    mass     pseudopotential
        Tc1           15.00    97.90721     Tc( 1.00)
        Ir1           15.00   192.21700     Ir( 1.00)

     No symmetry found

   Cartesian axes

     site n.     atom                  positions (alat units)
         1           Tc1 tau(   1) = (   0.0000000   0.0000000  10.0000000  )
         2           Tc1 tau(   2) = (  -1.3697688   2.3725092  10.0000000  )
         3           Tc1 tau(   3) = (   1.3697688   2.3725092  10.0000000  )
         4           Ir1 tau(   4) = (   2.7395377   0.0000000  10.0000000  )
         5           Tc1 tau(   5) = (   2.7395377   1.5816728  12.2368231  )
         6           Tc1 tau(   6) = (   1.3697688   3.9541820  12.2368231  )
         7           Tc1 tau(   7) = (  -1.3697688   3.9541820  12.2368231  )
         8           Ir1 tau(   8) = (   0.0000000   1.5816728  12.2368231  )
         9           Tc1 tau(   9) = (  -0.0000005   3.1862586  14.3657462  )
        10           Tc1 tau(  10) = (   1.3896129   0.7793782  14.3657432  )
        11           Tc1 tau(  11) = (   4.0894625   0.7793789  14.3657473  )
        12           Ir1 tau(  12) = (   2.7395368   3.1633449  14.3810159  )

     number of k points=    20  Fermi-Dirac smearing, width (Ry)=  0.0110
                       cart. coord. in units 2pi/alat
        k(    1) = (   0.0000000   0.0000000   0.0000000), wk =   0.0555556
        k(    2) = (   0.0000000   0.0351246   0.0000000), wk =   0.1111111
        k(    3) = (   0.0000000   0.0702491   0.0000000), wk =   0.1111111
        k(    4) = (   0.0000000  -0.1053737   0.0000000), wk =   0.0555556
        k(    5) = (   0.0304188   0.0175623   0.0000000), wk =   0.1111111
        k(    6) = (   0.0304188   0.0526868   0.0000000), wk =   0.1111111
        k(    7) = (   0.0304188   0.0878114   0.0000000), wk =   0.1111111
        k(    8) = (   0.0304188  -0.0878114   0.0000000), wk =   0.1111111
        k(    9) = (   0.0304188  -0.0526868   0.0000000), wk =   0.1111111
        k(   10) = (   0.0304188  -0.0175623   0.0000000), wk =   0.1111111
        k(   11) = (   0.0608375   0.0351246   0.0000000), wk =   0.1111111
        k(   12) = (   0.0608375   0.0702491   0.0000000), wk =   0.1111111
        k(   13) = (   0.0608375   0.1053737   0.0000000), wk =   0.1111111
        k(   14) = (   0.0608375  -0.0702491   0.0000000), wk =   0.1111111
        k(   15) = (   0.0608375  -0.0351246   0.0000000), wk =   0.1111111
        k(   16) = (   0.0608375  -0.0000000   0.0000000), wk =   0.1111111
        k(   17) = (  -0.0912563  -0.0526868   0.0000000), wk =   0.0555556
        k(   18) = (  -0.0912563  -0.0175623   0.0000000), wk =   0.1111111
        k(   19) = (  -0.0912563   0.0175623   0.0000000), wk =   0.1111111
        k(   20) = (  -0.0912563  -0.1580605   0.0000000), wk =   0.0555556

     Largest allocated arrays     est. size (Mb)     dimensions
     Largest temporary arrays     est. size (Mb)     dimensions

     Check: negative/imaginary core charge=   -0.000018    0.000000

     Initial potential from superposition of free atoms
     Check: negative starting charge=   -2.214668

     starting charge  169.49966, renormalised to  180.00000

[...]

     *
     * You are using vdW-DF for exchange-correlation in this calculation.
     * Please cite the following three references that made this development
     * possible:
     *
     *   M. Dion, H. Rydberg, E. Schroder, D. C. Langreth, and
     *   B. I. Lundqvist, Phys. Rev. Lett. 92, 246401 (2004).
     *
     *   T. Thonhauser, V. R. Cooper, S. Li, A. Puzder, P. Hyldgaard, and
     *   D. C. Langreth, Phys. Rev. B 76, 125112 (2007).
     *
     *   G. Roman-Perez and J. M. Soler, Phys. Rev. Lett. 103, 096102 (2009).
     *
     *
     * If you are using vdW-DF2, please also cite:
     *
     *   K. Lee, E. D. Murray, L. Kong, B. I. Lundqvist, and
     *   D. C. Langreth, Phys. Rev. B 82, 081101(R) (2010).
     *
     *
     * If you are calculating the stress with vdW-DF, please also cite:
     *
     *   R. Sabatini, E. Kucukbenli, B. Kolb, T. Thonhauser, and
     *   S. de Gironcoli, J. Phys.: Condens. Matter 24, 424209 (2012).
     *

     Carrying out vdW-DF run using the following parameters:

     Nqs =      20    Nr_points =    1024   r_max =   100.000
     q_mesh =
               0.00001000     0.04494208     0.09755937     0.15916263
               0.23128650     0.31572767     0.41458969     0.53033537
               0.66584808     0.82450364     1.01025438     1.22772762
               1.48234092     1.78043706     2.12944203     2.53805004
               3.01644009     3.57652955     4.23227104     5.00000000

     Gradients computed in reciprocal space

[...]

     Starting wfc are  153 randomized atomic wfcs

     Self-consistent Calculation

[...]

     total energy              =   -2127.53916467 Ry
     Harris-Foulkes estimate   =   -2127.53915634 Ry
     estimated scf accuracy    <       0.00000138 Ry

     iteration # 18     ecut=    36.75 Ry     beta=0.10
     Davidson diagonalization with overlap
     ethr =  7.69E-10,  avg # of iterations =  2.0

[...]

     negative rho (up, down):  2.146E+00 0.000E+00

     Adding external electric field

     Computed dipole along edir(3) :
        Dipole                0.0302 Ry au,          0.0769 Debye
        Dipole field          0.0001 Ry au

        Potential amp.       -0.0080 Ry
        Total length         45.0923 bohr

     End of self-consistent calculation

[...]

          k = 0.0608-0.0000 0.0000 ( 16172 PWs)   bands (ev):

[...]

          k =-0.0913-0.1581 0.0000 ( 16164 PWs)   bands (ev):

   -64.9710 -64.9349 -64.8976 -64.6106 -64.6055 -64.5771 -64.5720 -64.5447
   -64.5396 -47.2571 -47.2389 -47.2353 -46.6761 -46.6726 -46.6394 -46.5977
   -46.5941 -46.5397 -37.3052 -37.1725 -37.1507 -37.0699 -37.0438 -37.0159
   -36.9637 -36.9420 -36.8596 -36.8135 -36.6491 -36.6482 -36.6120 -36.6090
   -36.5895 -36.5653 -36.5627 -36.5416 -36.5292 -36.5104 -36.5052 -36.4921
   -36.4518 -36.4000 -36.3819 -36.2378 -36.2238  -3.7050  -3.2523  -2.5717
    -2.5599  -2.4832  -2.3489  -2.1455  -2.1028  -1.9699  -1.9525  -1.7448
    -1.7212  -1.5287  -1.4398  -1.3522  -1.1934  -1.0238  -0.8418  -0.7322
    -0.7244  -0.4154  -0.2279  -0.0567  -0.0401   0.0411   0.0464   0.1930
     0.4764   0.5074   0.5248   0.7712   0.8366   0.8611   0.8613   1.0296
     1.0472   1.0582   1.1406   1.1410   1.1690   1.6023   1.8352   1.9522
     1.9893   2.2146   2.2788   2.3765   2.4754   2.6017   2.8218   2.8867
     2.8940   3.0084   3.1917   3.2780   3.2880   3.4138   3.6701   3.9684
     4.1028   4.5375   4.5472   4.6019   5.1054   5.4992   5.6313   6.7586
     7.2787   7.2975   7.4650   7.5588   7.5694   8.0543   8.0634   8.7134

     the Fermi energy is     2.4198 ev

!    total energy              =   -2127.53920021 Ry
     Harris-Foulkes estimate   =   -2127.53916468 Ry
     estimated scf accuracy    <       0.00000048 Ry

     The total energy is the sum of the following terms:

     one-electron contribution =  -18816.49984066 Ry
     hartree contribution      =    9414.26324906 Ry
     xc contribution           =    -453.78953728 Ry
     ewald contribution        =    7728.58037539 Ry
     electric field correction =       0.00000268 Ry
     smearing contrib. (-TS)   =      -0.09344940 Ry

     convergence has been achieved in  18 iterations

 BEEF-vdW xc energy contributions
           1 :   -399.232904368867
           2 :    368.770900652883
           3 :   -314.408246802905
           4 :    246.873128727199
           5 :   -177.811695496971
           6 :    116.613020624902
           7 :   -68.5187830345666
           8 :    34.3297402581419
           9 :   -11.5697567830207
          10 :   -3.63733050367034
          11 :    14.7279727909725
          12 :   -23.5648573774751
          13 :    30.2259672074722
          14 :   -33.6242393191009
          15 :    32.5288368564035
          16 :   -26.5264484233449
          17 :    16.5077556113058
          18 :   -4.54177738739452
          19 :   -6.76420314035340
          20 :    15.0945409327114
          21 :   -19.1041841872499
          22 :    18.6830573729380
          23 :   -14.7652447039562
          24 :    8.82281045321758
          25 :   -2.30241961399793
          26 :   -3.77222412604510
          27 :    8.91228023397127
          28 :   -13.0236612361377
          29 :    16.1417239277008
          30 :   -18.2060274608285
          31 :   -36.5941774420987
          32 :   -27.0696572921470

     Forces acting on atoms (Ry/au):

     negative rho (up, down):  2.146E+00 0.000E+00
     atom    1 type  1   force =     0.00000076   -0.00440397    0.01799480
     atom    2 type  1   force =    -0.00381529    0.00220205    0.01799238
     atom    3 type  1   force =     0.00381486    0.00220125    0.01799472
     atom    4 type  2   force =     0.00000006    0.00000046    0.02176243
     atom    5 type  1   force =    -0.00000013   -0.00614707   -0.01773468
     atom    6 type  1   force =    -0.00532478    0.00307282   -0.01773154
     atom    7 type  1   force =     0.00532483    0.00307313   -0.01773273
     atom    8 type  2   force =     0.00000083   -0.00000058   -0.02223676
     atom    9 type  1   force =    -0.00000045    0.00012717   -0.00006426
     atom   10 type  1   force =     0.00010920   -0.00006262   -0.00006221
     atom   11 type  1   force =    -0.00011016   -0.00006309   -0.00006325
     atom   12 type  2   force =     0.00000028    0.00000045   -0.00011890

     Total force =     0.055267     Total SCF correction =     0.002197

     entering subroutine stress ...

     negative rho (up, down):  2.146E+00 0.000E+00
          total   stress  (Ry/bohr**3)                   (kbar)     P=  -24.10
  -0.00019593  -0.00000000   0.00000000        -28.82     -0.00      0.00
  -0.00000000  -0.00019593   0.00000000         -0.00    -28.82      0.00
   0.00000000   0.00000000  -0.00009955          0.00      0.00    -14.64

 !ASE

     Writing output data file calc.save

     General routines

     Parallel routines

   This run was terminated on:  20:26:58   1Jan2019

   JOB DONE.
Job  /afs/slac/g/suncat/bin/suncat-tsmpirun -x LD_LIBRARY_PATH -wdir /scratch/qe649155_ZEqjv pw.x -in pw.inp

TID   HOST_NAME   COMMAND_LINE            STATUS            TERMINATION_TIME
00000 suncat0024 pw.x -in pw.inp   Done                     01/01/2019 20:26:58
00001 suncat0024 pw.x -in pw.inp   Done                     01/01/2019 20:26:58
00002 suncat0024 pw.x -in pw.inp   Done                     01/01/2019 20:26:58
00003 suncat0024 pw.x -in pw.inp   Done                     01/01/2019 20:26:58
00004 suncat0024 pw.x -in pw.inp   Done                     01/01/2019 20:26:58
00005 suncat0024 pw.x -in pw.inp   Done                     01/01/2019 20:26:58
00006 suncat0024 pw.x -in pw.inp   Done                     01/01/2019 20:26:58
00007 suncat0024 pw.x -in pw.inp   Done                     01/01/2019 20:26:58
00008 suncat0023 pw.x -in pw.inp   Done                     01/01/2019 20:26:58
00009 suncat0023 pw.x -in pw.inp   Done                     01/01/2019 20:26:58
00010 suncat0023 pw.x -in pw.inp   Done                     01/01/2019 20:26:58
00011 suncat0023 pw.x -in pw.inp   Done                     01/01/2019 20:26:58
00012 suncat0023 pw.x -in pw.inp   Done                     01/01/2019 20:26:58
00013 suncat0023 pw.x -in pw.inp   Done                     01/01/2019 20:26:58
00014 suncat0023 pw.x -in pw.inp   Done                     01/01/2019 20:26:58
00015 suncat0023 pw.x -in pw.inp   Done                     01/01/2019 20:26:58
00016 suncat0190 pw.x -in pw.inp   Done                     01/01/2019 20:26:58
00017 suncat0190 pw.x -in pw.inp   Done                     01/01/2019 20:26:58
00018 suncat0190 pw.x -in pw.inp   Done                     01/01/2019 20:26:58
00019 suncat0190 pw.x -in pw.inp   Done                     01/01/2019 20:26:58
00020 suncat0190 pw.x -in pw.inp   Done                     01/01/2019 20:26:58
00021 suncat0190 pw.x -in pw.inp   Done                     01/01/2019 20:26:58
00022 suncat0190 pw.x -in pw.inp   Done                     01/01/2019 20:26:58
00023 suncat0190 pw.x -in pw.inp   Done                     01/01/2019 20:26:58
00024 suncat0009 pw.x -in pw.inp   Done                     01/01/2019 20:26:58
00025 suncat0009 pw.x -in pw.inp   Done                     01/01/2019 20:26:58
00026 suncat0009 pw.x -in pw.inp   Done                     01/01/2019 20:26:58
00027 suncat0009 pw.x -in pw.inp   Done                     01/01/2019 20:26:58
00028 suncat0009 pw.x -in pw.inp   Done                     01/01/2019 20:26:58
00029 suncat0009 pw.x -in pw.inp   Done                     01/01/2019 20:26:58
00030 suncat0009 pw.x -in pw.inp   Done                     01/01/2019 20:26:58
00031 suncat0009 pw.x -in pw.inp   Done                     01/01/2019 20:26:58
00032 suncat0166 pw.x -in pw.inp   Done                     01/01/2019 20:26:58
00033 suncat0166 pw.x -in pw.inp   Done                     01/01/2019 20:26:58
00034 suncat0166 pw.x -in pw.inp   Done                     01/01/2019 20:26:58
00035 suncat0166 pw.x -in pw.inp   Done                     01/01/2019 20:26:58
00036 suncat0166 pw.x -in pw.inp   Done                     01/01/2019 20:26:58
00037 suncat0166 pw.x -in pw.inp   Done                     01/01/2019 20:26:58
00038 suncat0166 pw.x -in pw.inp   Done                     01/01/2019 20:26:58
00039 suncat0166 pw.x -in pw.inp   Done                     01/01/2019 20:26:58
00040 suncat0149 pw.x -in pw.inp   Done                     01/01/2019 20:26:58
00041 suncat0149 pw.x -in pw.inp   Done                     01/01/2019 20:26:58
00042 suncat0149 pw.x -in pw.inp   Done                     01/01/2019 20:26:58
00043 suncat0149 pw.x -in pw.inp   Done                     01/01/2019 20:26:58
00044 suncat0149 pw.x -in pw.inp   Done                     01/01/2019 20:26:58
00045 suncat0149 pw.x -in pw.inp   Done                     01/01/2019 20:26:58
00046 suncat0149 pw.x -in pw.inp   Done                     01/01/2019 20:26:58
00047 suncat0149 pw.x -in pw.inp   Done                     01/01/2019 20:26:58
00048 suncat0148 pw.x -in pw.inp   Done                     01/01/2019 20:26:58
00049 suncat0148 pw.x -in pw.inp   Done                     01/01/2019 20:26:58
00050 suncat0148 pw.x -in pw.inp   Done                     01/01/2019 20:26:58
00051 suncat0148 pw.x -in pw.inp   Done                     01/01/2019 20:26:58
00052 suncat0148 pw.x -in pw.inp   Done                     01/01/2019 20:26:58
00053 suncat0148 pw.x -in pw.inp   Done                     01/01/2019 20:26:58
00054 suncat0148 pw.x -in pw.inp   Done                     01/01/2019 20:26:58
00055 suncat0148 pw.x -in pw.inp   Done                     01/01/2019 20:26:58
00056 suncat0142 pw.x -in pw.inp   Done                     01/01/2019 20:26:58
00057 suncat0142 pw.x -in pw.inp   Done                     01/01/2019 20:26:58
00058 suncat0142 pw.x -in pw.inp   Done                     01/01/2019 20:26:58
00059 suncat0142 pw.x -in pw.inp   Done                     01/01/2019 20:26:58
00060 suncat0142 pw.x -in pw.inp   Done                     01/01/2019 20:26:58
00061 suncat0142 pw.x -in pw.inp   Done                     01/01/2019 20:26:58
00062 suncat0142 pw.x -in pw.inp   Done                     01/01/2019 20:26:58
00063 suncat0142 pw.x -in pw.inp   Done                     01/01/2019 20:26:58