     Program PWSCF v.5.1rc2 (svn rev. 11289) starts on 27Dec2018 at 22:47:21

     Current dimensions of program PWSCF are:
     Max number of different atomic species (ntypx) = 10
     Max number of k-points (npk) =  40000
     Max angular momentum in pseudopotentials (lmaxx) =  3
     Presently stress not available with electric field

     IMPORTANT: XC functional enforced from input :
     Exchange-correlation      = BEEF-VDW ( 1  4 27 13 2)
     Any further DFT definition will be discarded
     Please, verify this is what you really want

     Subspace diagonalization in iterative solution of the eigenvalue problem:
     a serial algorithm will be used

     bravais-lattice index     =            0
     lattice parameter (alat)  =       1.8897  a.u.
     unit-cell volume          =    5857.1237 (a.u.)^3
     number of atoms/cell      =           12
     number of atomic types    =            2
     number of electrons       =       135.00
     number of Kohn-Sham states=           97
     kinetic-energy cutoff     =      36.7493  Ry
     charge density cutoff     =     367.4932  Ry
     convergence threshold     =      1.0E-06
     mixing beta               =       0.1000
     number of iterations used =           10  plain     mixing
     Exchange-correlation      = BEEF-VDW ( 1  4 27 13 2)
     nstep                     =           50

     celldm(1)=   1.889726  celldm(2)=   0.000000  celldm(3)=   0.000000
     celldm(4)=   0.000000  celldm(5)=   0.000000  celldm(6)=   0.000000

     crystal axes: (cart. coord. in units of alat)
               a(1) = (   6.312137   0.000000   0.000000 )
               a(2) = (  -3.156069   5.466471   0.000000 )
               a(3) = (   0.000000   0.000000  25.153839 )

     reciprocal axes: (cart. coord. in units 2 pi/alat)
               b(1) = (  0.158425  0.091467  0.000000 )
               b(2) = (  0.000000  0.182933  0.000000 )
               b(3) = (  0.000000  0.000000  0.039755 )

     PseudoPot. # 1 for Sc read from file:
     /afs/slac.stanford.edu/u/if/mamunm/psp/gbrv1.5pbe/Sc.UPF
     MD5 check sum: db30a2753ba66ef00f23801d899b7e7f
     Pseudo is Ultrasoft + core correction, Zval = 11.0
     Generated by new atomic code, or converted to UPF format
     Using radial grid of  849 points,  6 beta functions with:
                l(1) =   0
                l(2) =   0
                l(3) =   1
                l(4) =   1
                l(5) =   2
                l(6) =   2
     Q(r) pseudized with  6 coefficients,  rinner =    1.200   1.200   1.200
                                                       1.200   1.200

     PseudoPot. # 2 for Ti read from file:
     /afs/slac.stanford.edu/u/if/mamunm/psp/gbrv1.5pbe/Ti.UPF
     MD5 check sum: 88a00a6731bd790ddea75d31a80cb452
     Pseudo is Ultrasoft + core correction, Zval = 12.0
     Generated by new atomic code, or converted to UPF format
     Using radial grid of  851 points,  6 beta functions with:
                l(1) =   0
                l(2) =   0
                l(3) =   1
                l(4) =   1
                l(5) =   2
                l(6) =   2
     Q(r) pseudized with  6 coefficients,  rinner =    1.000   1.000   1.000
                                                       1.000   1.000

     vdW kernel table read from file vdW_kernel_table
     MD5 check sum: 095c7af220d748ca6e76c0b4c6cfb241

     atomic species   valence    mass     pseudopotential
        Sc1           11.00    44.95591     Sc( 1.00)
        Ti1           12.00    47.86700     Ti( 1.00)

     No symmetry found

   Cartesian axes

     site n.     atom                  positions (alat units)
         1           Sc1 tau(   1) = (   0.0000000   0.0000000  10.0000000  )
         2           Sc1 tau(   2) = (  -1.5780344   2.7332357  10.0000000  )
         3           Sc1 tau(   3) = (   1.5780344   2.7332357  10.0000000  )
         4           Ti1 tau(   4) = (   3.1560687   0.0000000  10.0000000  )
         5           Sc1 tau(   5) = (   3.1560687   1.8221571  12.5769193  )
         6           Sc1 tau(   6) = (   1.5780344   4.5553928  12.5769193  )
         7           Sc1 tau(   7) = (  -1.5780344   4.5553928  12.5769193  )
         8           Ti1 tau(   8) = (   0.0000000   1.8221571  12.5769193  )
         9           Sc1 tau(   9) = (  -0.0000000   3.6443142  15.1538386  )
        10           Sc1 tau(  10) = (   1.5780344   0.9110786  15.1538386  )
        11           Sc1 tau(  11) = (   4.7341031   0.9110786  15.1538386  )
        12           Ti1 tau(  12) = (   3.1560687   3.6443142  15.1538386  )

     number of k points=    20  Fermi-Dirac smearing, width (Ry)=  0.0110
                       cart. coord. in units 2pi/alat
        k(    1) = (   0.0000000   0.0000000   0.0000000), wk =   0.0555556
        k(    2) = (   0.0000000   0.0304889   0.0000000), wk =   0.1111111
        k(    3) = (   0.0000000   0.0609778   0.0000000), wk =   0.1111111
        k(    4) = (   0.0000000  -0.0914667   0.0000000), wk =   0.0555556
        k(    5) = (   0.0264042   0.0152444   0.0000000), wk =   0.1111111
        k(    6) = (   0.0264042   0.0457333   0.0000000), wk =   0.1111111
        k(    7) = (   0.0264042   0.0762222   0.0000000), wk =   0.1111111
        k(    8) = (   0.0264042  -0.0762222   0.0000000), wk =   0.1111111
        k(    9) = (   0.0264042  -0.0457333   0.0000000), wk =   0.1111111
        k(   10) = (   0.0264042  -0.0152444   0.0000000), wk =   0.1111111
        k(   11) = (   0.0528083   0.0304889   0.0000000), wk =   0.1111111
        k(   12) = (   0.0528083   0.0609778   0.0000000), wk =   0.1111111
        k(   13) = (   0.0528083   0.0914667   0.0000000), wk =   0.1111111
        k(   14) = (   0.0528083  -0.0609778   0.0000000), wk =   0.1111111
        k(   15) = (   0.0528083  -0.0304889   0.0000000), wk =   0.1111111
        k(   16) = (   0.0528083   0.0000000   0.0000000), wk =   0.1111111
        k(   17) = (  -0.0792125  -0.0457333   0.0000000), wk =   0.0555556
        k(   18) = (  -0.0792125  -0.0152444   0.0000000), wk =   0.1111111
        k(   19) = (  -0.0792125   0.0152444   0.0000000), wk =   0.1111111
        k(   20) = (  -0.0792125  -0.1372000   0.0000000), wk =   0.0555556

     Largest allocated arrays     est. size (Mb)     dimensions
     Largest temporary arrays     est. size (Mb)     dimensions

     Check: negative/imaginary core charge=   -0.000003    0.000000

     Initial potential from superposition of free atoms
     Check: negative starting charge=   -0.004904

     starting charge  131.97825, renormalised to  135.00000

     negative rho (up, down):  5.016E-03 0.000E+00

     *
     * You are using vdW-DF for exchange-correlation in this calculation.
     * Please cite the following three references that made this development
     * possible:
     *
     *   M. Dion, H. Rydberg, E. Schroder, D. C. Langreth, and
     *   B. I. Lundqvist, Phys. Rev. Lett. 92, 246401 (2004).
     *
     *   T. Thonhauser, V. R. Cooper, S. Li, A. Puzder, P. Hyldgaard, and
     *   D. C. Langreth, Phys. Rev. B 76, 125112 (2007).
     *
     *   G. Roman-Perez and J. M. Soler, Phys. Rev. Lett. 103, 096102 (2009).
     *
     *
     * If you are using vdW-DF2, please also cite:
     *
     *   K. Lee, E. D. Murray, L. Kong, B. I. Lundqvist, and
     *   D. C. Langreth, Phys. Rev. B 82, 081101(R) (2010).
     *
     *
     * If you are calculating the stress with vdW-DF, please also cite:
     *
     *   R. Sabatini, E. Kucukbenli, B. Kolb, T. Thonhauser, and
     *   S. de Gironcoli, J. Phys.: Condens. Matter 24, 424209 (2012).
     *

     Carrying out vdW-DF run using the following parameters:

     Nqs =      20    Nr_points =    1024   r_max =   100.000
     q_mesh =
               0.00001000     0.04494208     0.09755937     0.15916263
               0.23128650     0.31572767     0.41458969     0.53033537
               0.66584808     0.82450364     1.01025438     1.22772762
               1.48234092     1.78043706     2.12944203     2.53805004
               3.01644009     3.57652955     4.23227104     5.00000000

     Gradients computed in reciprocal space

     Adding external electric field

     Computed dipole along edir(3) :
        Dipole                0.0000 Ry au,          0.0000 Debye
        Dipole field          0.0000 Ry au

        Potential amp.       -0.0000 Ry
        Total length         46.3455 bohr

     Starting wfc are  147 randomized atomic wfcs

     Self-consistent Calculation

     iteration #  1     ecut=    36.75 Ry     beta=0.10
     Davidson diagonalization with overlap
     ethr =  1.00E-02,  avg # of iterations =  3.0

[...]

     total energy              =   -1206.43823363 Ry
     Harris-Foulkes estimate   =   -1216.46838791 Ry
     estimated scf accuracy    <      55.81047769 Ry

[...]

     End of self-consistent calculation

          k = 0.0000 0.0000 0.0000 ( 22099 PWs)   bands (ev):

   -56.6747 -56.6746 -56.4760 -49.3519 -49.3510 -49.3080 -49.3080 -49.3077
   -49.3077 -48.8911 -48.8482 -48.8480 -32.9660 -32.9646 -32.8616 -32.8616
   -32.8612 -32.8612 -32.7026 -32.6786 -32.6786 -28.1362 -28.1256 -28.0304
   -28.0029 -27.9921 -27.9921 -27.9706 -27.9706 -27.9665 -27.9665 -27.9563
   -27.9563 -27.7864 -27.7826 -27.7521 -27.7521 -27.7501 -27.7501 -27.6784
   -27.5253 -27.5252 -27.4682 -27.4393 -27.4392 -27.3523 -27.3100 -27.3100
    -4.3551  -3.2696  -1.9591  -1.1594  -1.0638  -1.0633  -1.0633  -0.9844
    -0.9844  -0.7552  -0.6960  -0.6960  -0.2467  -0.2467  -0.2208   0.0720
     0.0720   0.1409   0.5418   0.6351   0.8541   0.9644   0.9644   1.1234
     1.1405   1.1405   1.1656   1.4318   1.5890   1.5890   1.6562   1.7748
     1.8315   1.8315   1.8400   1.8400   1.9001   1.9001   1.9245   1.9245
     2.0261   2.0261   2.2818   2.4356   2.4356   2.9083   2.9675   2.9676
     3.2879

[...]

          k =-0.0792-0.0457 0.0000 ( 21952 PWs)   bands (ev):

[...]

     the Fermi energy is     0.4992 ev

!    total energy              =   -1212.76879302 Ry
     Harris-Foulkes estimate   =   -1212.76879537 Ry
     estimated scf accuracy    <       0.00000081 Ry

     The total energy is the sum of the following terms:

     one-electron contribution =   -7792.16712407 Ry
     hartree contribution      =    3878.70470844 Ry
     xc contribution           =    -180.82749099 Ry
     ewald contribution        =    2881.66832989 Ry
     electric field correction =       0.00000000 Ry
     smearing contrib. (-TS)   =      -0.14721629 Ry

     convergence has been achieved in  25 iterations

 BEEF-vdW xc energy contributions
           1 :   -153.946757519890
           2 :    136.106583660697
           3 :   -107.910769542642
           4 :    79.7683860486689
           5 :   -59.3042791639059
           6 :    48.2357665708176
           7 :   -43.3276108467770
           8 :    39.9235793263747
           9 :   -35.2173078610477
          10 :    29.2714731860507
          11 :   -23.7948278891039
          12 :    20.1587043640654
          13 :   -18.2740913984362
          14 :    16.9383194630097
          15 :   -15.0506827957450
          16 :    12.5374354370631
          17 :   -10.2616829600439
[...]
     MD5 check sum: db30a2753ba66ef00f23801d899b7e7f
     Pseudo is Ultrasoft + core correction, Zval = 11.0
     Generated by new atomic code, or converted to UPF format
     Using radial grid of  849 points,  6 beta functions with:
                l(1) =   0
                l(2) =   0
                l(3) =   1
                l(4) =   1
                l(5) =   2
                l(6) =   2
     Q(r) pseudized with  6 coefficients,  rinner =    1.200   1.200   1.200
                                                       1.200   1.200

     PseudoPot. # 2 for Ti read from file:
     /afs/slac.stanford.edu/u/if/mamunm/psp/gbrv1.5pbe/Ti.UPF
     MD5 check sum: 88a00a6731bd790ddea75d31a80cb452
     Pseudo is Ultrasoft + core correction, Zval = 12.0
     Generated by new atomic code, or converted to UPF format
     Using radial grid of  851 points,  6 beta functions with:
                l(1) =   0
                l(2) =   0
                l(3) =   1
                l(4) =   1
                l(5) =   2
                l(6) =   2
     Q(r) pseudized with  6 coefficients,  rinner =    1.000   1.000   1.000
                                                       1.000   1.000

     vdW kernel table read from file vdW_kernel_table
     MD5 check sum: 095c7af220d748ca6e76c0b4c6cfb241

     atomic species   valence    mass     pseudopotential
        Sc1           11.00    44.95591     Sc( 1.00)
        Ti1           12.00    47.86700     Ti( 1.00)

     No symmetry found

   Cartesian axes

     site n.     atom                  positions (alat units)
         1           Sc1 tau(   1) = (   0.0000000   0.0000000  10.0000000  )
         2           Sc1 tau(   2) = (  -1.5780344   2.7332357  10.0000000  )
         3           Sc1 tau(   3) = (   1.5780344   2.7332357  10.0000000  )
         4           Ti1 tau(   4) = (   3.1560687   0.0000000  10.0000000  )
         5           Sc1 tau(   5) = (   3.1560687   1.8221571  12.5769193  )
         6           Sc1 tau(   6) = (   1.5780344   4.5553928  12.5769193  )
         7           Sc1 tau(   7) = (  -1.5780344   4.5553928  12.5769193  )
         8           Ti1 tau(   8) = (   0.0000000   1.8221571  12.5769193  )
         9           Sc1 tau(   9) = (  -0.0000198   3.6185526  15.1119488  )
        10           Sc1 tau(  10) = (   1.5556105   0.9237808  15.1119717  )
        11           Sc1 tau(  11) = (   4.7565509   0.9237591  15.1119582  )
        12           Ti1 tau(  12) = (   3.1560758   3.6442998  14.9129877  )

     number of k points=    20  Fermi-Dirac smearing, width (Ry)=  0.0110
                       cart. coord. in units 2pi/alat
        k(    1) = (   0.0000000   0.0000000   0.0000000), wk =   0.0555556
        k(    2) = (   0.0000000   0.0304889   0.0000000), wk =   0.1111111
        k(    3) = (   0.0000000   0.0609778   0.0000000), wk =   0.1111111
        k(    4) = (   0.0000000  -0.0914667   0.0000000), wk =   0.0555556
        k(    5) = (   0.0264042   0.0152444   0.0000000), wk =   0.1111111
        k(    6) = (   0.0264042   0.0457333   0.0000000), wk =   0.1111111
        k(    7) = (   0.0264042   0.0762222   0.0000000), wk =   0.1111111
        k(    8) = (   0.0264042  -0.0762222   0.0000000), wk =   0.1111111
        k(    9) = (   0.0264042  -0.0457333   0.0000000), wk =   0.1111111
        k(   10) = (   0.0264042  -0.0152444   0.0000000), wk =   0.1111111
        k(   11) = (   0.0528083   0.0304889   0.0000000), wk =   0.1111111
        k(   12) = (   0.0528083   0.0609778   0.0000000), wk =   0.1111111
        k(   13) = (   0.0528083   0.0914667   0.0000000), wk =   0.1111111
        k(   14) = (   0.0528083  -0.0609778   0.0000000), wk =   0.1111111
        k(   15) = (   0.0528083  -0.0304889   0.0000000), wk =   0.1111111
        k(   16) = (   0.0528083   0.0000000   0.0000000), wk =   0.1111111
        k(   17) = (  -0.0792125  -0.0457333   0.0000000), wk =   0.0555556
        k(   18) = (  -0.0792125  -0.0152444   0.0000000), wk =   0.1111111
        k(   19) = (  -0.0792125   0.0152444   0.0000000), wk =   0.1111111
        k(   20) = (  -0.0792125  -0.1372000   0.0000000), wk =   0.0555556

     Largest allocated arrays     est. size (Mb)     dimensions
     Largest temporary arrays     est. size (Mb)     dimensions

     Check: negative/imaginary core charge=   -0.000003    0.000000

     Initial potential from superposition of free atoms
     Check: negative starting charge=   -0.004799

     starting charge  131.97825, renormalised to  135.00000

[...]

     *
     * You are using vdW-DF for exchange-correlation in this calculation.
     * Please cite the following three references that made this development
     * possible:
     *
     *   M. Dion, H. Rydberg, E. Schroder, D. C. Langreth, and
     *   B. I. Lundqvist, Phys. Rev. Lett. 92, 246401 (2004).
     *
     *   T. Thonhauser, V. R. Cooper, S. Li, A. Puzder, P. Hyldgaard, and
     *   D. C. Langreth, Phys. Rev. B 76, 125112 (2007).
     *
     *   G. Roman-Perez and J. M. Soler, Phys. Rev. Lett. 103, 096102 (2009).
     *
     *
     * If you are using vdW-DF2, please also cite:
     *
     *   K. Lee, E. D. Murray, L. Kong, B. I. Lundqvist, and
     *   D. C. Langreth, Phys. Rev. B 82, 081101(R) (2010).
     *
     *
     * If you are calculating the stress with vdW-DF, please also cite:
     *
     *   R. Sabatini, E. Kucukbenli, B. Kolb, T. Thonhauser, and
     *   S. de Gironcoli, J. Phys.: Condens. Matter 24, 424209 (2012).
     *

     Carrying out vdW-DF run using the following parameters:

     Nqs =      20    Nr_points =    1024   r_max =   100.000
     q_mesh =
               0.00001000     0.04494208     0.09755937     0.15916263
               0.23128650     0.31572767     0.41458969     0.53033537
               0.66584808     0.82450364     1.01025438     1.22772762
               1.48234092     1.78043706     2.12944203     2.53805004
               3.01644009     3.57652955     4.23227104     5.00000000

     Gradients computed in reciprocal space

[...]

     Starting wfc are  147 randomized atomic wfcs

     Self-consistent Calculation

[...]

     iteration # 11     ecut=    36.75 Ry     beta=0.10
     Davidson diagonalization with overlap
     c_bands:  1 eigenvalues not converged
     ethr =  5.23E-05,  avg # of iterations =  9.6

[...]

     total energy              =   -1212.77534501 Ry
     Harris-Foulkes estimate   =   -1212.77534606 Ry
     estimated scf accuracy    <       0.00000699 Ry

     iteration # 24     ecut=    36.75 Ry     beta=0.10
     Davidson diagonalization with overlap
     ethr =  5.18E-09,  avg # of iterations =  3.0

[...]

     negative rho (up, down):  2.436E-03 0.000E+00

     Adding external electric field

     Computed dipole along edir(3) :
        Dipole                0.0127 Ry au,          0.0322 Debye
        Dipole field          0.0000 Ry au

        Potential amp.       -0.0025 Ry
        Total length         46.3455 bohr

     End of self-consistent calculation

[...]

          k = 0.0528 0.0000 0.0000 ( 22053 PWs)   bands (ev):

[...]

          k =-0.0792-0.1372 0.0000 ( 21952 PWs)   bands (ev):

   -56.6849 -56.5366 -56.4395 -49.3424 -49.3278 -49.3133 -49.3052 -49.2890
   -49.2749 -48.7838 -48.7692 -48.7548 -32.9810 -32.8685 -32.8670 -32.7980
   -32.7515 -32.7500 -32.6685 -32.6431 -32.6417 -28.0563 -28.0207 -28.0070
   -27.9977 -27.9772 -27.9732 -27.9576 -27.9426 -27.9129 -27.9065 -27.8917
   -27.8834 -27.8757 -27.8614 -27.8558 -27.8359 -27.7644 -27.7286 -27.5067
   -27.3901 -27.3844 -27.3652 -27.3607 -27.3557 -27.3501 -27.3422 -27.2299
    -3.0244  -2.9931  -2.0077  -1.9842  -1.1268  -1.0335  -0.8351  -0.7772
    -0.5733  -0.5711   0.0483   0.0961   0.1122   0.1326   0.2113   0.2543
     0.3773   0.3897   0.4317   0.4700   0.4790   0.5285   0.5637   0.6643
     0.6702   0.7965   0.8389   0.9014   0.9959   1.0480   1.2082   1.2567
     1.3154   1.4806   1.5907   1.7163   1.7735   1.8900   2.1354   2.1717
     2.2062   2.3928   2.4052   2.4583   2.5445   2.5751   2.6177   2.7778
     2.7902

     the Fermi energy is     0.5025 ev

!    total energy              =   -1212.77534507 Ry
     Harris-Foulkes estimate   =   -1212.77534582 Ry
     estimated scf accuracy    <       0.00000094 Ry

     The total energy is the sum of the following terms:

     one-electron contribution =   -7893.92037930 Ry
     hartree contribution      =    3929.78456020 Ry
     xc contribution           =    -180.92883325 Ry
     ewald contribution        =    2932.43441409 Ry
     electric field correction =       0.00000034 Ry
     smearing contrib. (-TS)   =      -0.14510715 Ry

     convergence has been achieved in  24 iterations

 BEEF-vdW xc energy contributions
           1 :   -154.055762201562
           2 :    136.247161134580
           3 :   -108.069378867920
           4 :    79.8891351011398
           5 :   -59.3380927098149
           6 :    48.1884921819988
           7 :   -43.2603865082312
           8 :    39.9037643766621
           9 :   -35.2636305089428
          10 :    29.3411982961260
          11 :   -23.8223848984303
          12 :    20.1109798419572
          13 :   -18.1763563809385
          14 :    16.8514420531734
          15 :   -15.0198870063720
          16 :    12.5550832553517
          17 :   -10.2749787154249
          18 :    9.09225367588036
          19 :   -9.19262208253167
          20 :    9.93187848161580
          21 :   -10.4458101268636
          22 :    10.3630978362217
          23 :   -10.0133144117758
          24 :    10.0233013103350
          25 :   -10.7202622963933
          26 :    11.8617160225068
          27 :   -12.8783308067552
          28 :    13.3624148284939
          29 :   -13.3621346508359
          30 :    13.2539176600485
          31 :   -17.5613952893885
          32 :   -12.5636952334478

     Forces acting on atoms (Ry/au):

     negative rho (up, down):  2.436E-03 0.000E+00
     atom    1 type  1   force =    -0.00000221    0.00729857    0.00133646
     atom    2 type  1   force =     0.00631275   -0.00363013    0.00134312
     atom    3 type  1   force =    -0.00631401   -0.00362783    0.00134700
     atom    4 type  2   force =    -0.00000052    0.00002008    0.02046740
     atom    5 type  1   force =     0.00000107   -0.00072289   -0.00765530
     atom    6 type  1   force =    -0.00062282    0.00037025   -0.00766968
     atom    7 type  1   force =     0.00062099    0.00037196   -0.00766568
     atom    8 type  2   force =     0.00000091    0.00001201    0.00093976
     atom    9 type  1   force =     0.00001278    0.00017978   -0.00100970
     atom   10 type  1   force =     0.00021464   -0.00012674   -0.00099717
     atom   11 type  1   force =    -0.00022038   -0.00013899   -0.00100612
     atom   12 type  2   force =    -0.00000319   -0.00000608    0.00056991

     Total force =     0.027673     Total SCF correction =     0.002583

     entering subroutine stress ...

     negative rho (up, down):  2.436E-03 0.000E+00
          total   stress  (Ry/bohr**3)                   (kbar)     P=   -2.64
  -0.00001461   0.00000000   0.00000000         -2.15      0.00      0.00
   0.00000000  -0.00001460   0.00000001          0.00     -2.15      0.00
   0.00000000   0.00000001  -0.00002469          0.00      0.00     -3.63

 !ASE

     Writing output data file calc.save

     General routines

     Parallel routines

   This run was terminated on:   0:25:54  28Dec2018

   JOB DONE.
Job  /afs/slac/g/suncat/bin/suncat-tsmpirun -x LD_LIBRARY_PATH -wdir /scratch/qe110885_WCq42 pw.x -in pw.inp

TID   HOST_NAME   COMMAND_LINE            STATUS            TERMINATION_TIME
00000 suncat0193 pw.x -in pw.inp   Done                     12/28/2018 00:25:54
00001 suncat0193 pw.x -in pw.inp   Done                     12/28/2018 00:25:54
00002 suncat0193 pw.x -in pw.inp   Done                     12/28/2018 00:25:54
00003 suncat0193 pw.x -in pw.inp   Done                     12/28/2018 00:25:54
00004 suncat0193 pw.x -in pw.inp   Done                     12/28/2018 00:25:54
00005 suncat0193 pw.x -in pw.inp   Done                     12/28/2018 00:25:54
00006 suncat0193 pw.x -in pw.inp   Done                     12/28/2018 00:25:54
00007 suncat0193 pw.x -in pw.inp   Done                     12/28/2018 00:25:54
00008 suncat0192 pw.x -in pw.inp   Done                     12/28/2018 00:25:54
00009 suncat0192 pw.x -in pw.inp   Done                     12/28/2018 00:25:54
00010 suncat0192 pw.x -in pw.inp   Done                     12/28/2018 00:25:54
00011 suncat0192 pw.x -in pw.inp   Done                     12/28/2018 00:25:54
00012 suncat0192 pw.x -in pw.inp   Done                     12/28/2018 00:25:54
00013 suncat0192 pw.x -in pw.inp   Done                     12/28/2018 00:25:54
00014 suncat0192 pw.x -in pw.inp   Done                     12/28/2018 00:25:54
00015 suncat0192 pw.x -in pw.inp   Done                     12/28/2018 00:25:54
00016 suncat0163 pw.x -in pw.inp   Done                     12/28/2018 00:25:54
00017 suncat0163 pw.x -in pw.inp   Done                     12/28/2018 00:25:54
00018 suncat0163 pw.x -in pw.inp   Done                     12/28/2018 00:25:54
00019 suncat0163 pw.x -in pw.inp   Done                     12/28/2018 00:25:54
00020 suncat0163 pw.x -in pw.inp   Done                     12/28/2018 00:25:54
00021 suncat0163 pw.x -in pw.inp   Done                     12/28/2018 00:25:54
00022 suncat0163 pw.x -in pw.inp   Done                     12/28/2018 00:25:54
00023 suncat0163 pw.x -in pw.inp   Done                     12/28/2018 00:25:54
00024 suncat0162 pw.x -in pw.inp   Done                     12/28/2018 00:25:54
00025 suncat0162 pw.x -in pw.inp   Done                     12/28/2018 00:25:54
00026 suncat0162 pw.x -in pw.inp   Done                     12/28/2018 00:25:54
00027 suncat0162 pw.x -in pw.inp   Done                     12/28/2018 00:25:54
00028 suncat0162 pw.x -in pw.inp   Done                     12/28/2018 00:25:54
00029 suncat0162 pw.x -in pw.inp   Done                     12/28/2018 00:25:54
00030 suncat0162 pw.x -in pw.inp   Done                     12/28/2018 00:25:54
00031 suncat0162 pw.x -in pw.inp   Done                     12/28/2018 00:25:54
00032 suncat0159 pw.x -in pw.inp   Done                     12/28/2018 00:25:54
00033 suncat0159 pw.x -in pw.inp   Done                     12/28/2018 00:25:54
00034 suncat0159 pw.x -in pw.inp   Done                     12/28/2018 00:25:54
00035 suncat0159 pw.x -in pw.inp   Done                     12/28/2018 00:25:54
00036 suncat0159 pw.x -in pw.inp   Done                     12/28/2018 00:25:54
00037 suncat0159 pw.x -in pw.inp   Done                     12/28/2018 00:25:54
00038 suncat0159 pw.x -in pw.inp   Done                     12/28/2018 00:25:54
00039 suncat0159 pw.x -in pw.inp   Done                     12/28/2018 00:25:54
00040 suncat0155 pw.x -in pw.inp   Done                     12/28/2018 00:25:54
00041 suncat0155 pw.x -in pw.inp   Done                     12/28/2018 00:25:54
00042 suncat0155 pw.x -in pw.inp   Done                     12/28/2018 00:25:54
00043 suncat0155 pw.x -in pw.inp   Done                     12/28/2018 00:25:54
00044 suncat0155 pw.x -in pw.inp   Done                     12/28/2018 00:25:54
00045 suncat0155 pw.x -in pw.inp   Done                     12/28/2018 00:25:54
00046 suncat0155 pw.x -in pw.inp   Done                     12/28/2018 00:25:54
00047 suncat0155 pw.x -in pw.inp   Done                     12/28/2018 00:25:54
00048 suncat0141 pw.x -in pw.inp   Done                     12/28/2018 00:25:54
00049 suncat0141 pw.x -in pw.inp   Done                     12/28/2018 00:25:54
00050 suncat0141 pw.x -in pw.inp   Done                     12/28/2018 00:25:54
00051 suncat0141 pw.x -in pw.inp   Done                     12/28/2018 00:25:54
00052 suncat0141 pw.x -in pw.inp   Done                     12/28/2018 00:25:54
00053 suncat0141 pw.x -in pw.inp   Done                     12/28/2018 00:25:54
00054 suncat0141 pw.x -in pw.inp   Done                     12/28/2018 00:25:54
00055 suncat0141 pw.x -in pw.inp   Done                     12/28/2018 00:25:54
00056 suncat0140 pw.x -in pw.inp   Done                     12/28/2018 00:25:54
00057 suncat0140 pw.x -in pw.inp   Done                     12/28/2018 00:25:54
00058 suncat0140 pw.x -in pw.inp   Done                     12/28/2018 00:25:54
00059 suncat0140 pw.x -in pw.inp   Done                     12/28/2018 00:25:54
00060 suncat0140 pw.x -in pw.inp   Done                     12/28/2018 00:25:54
00061 suncat0140 pw.x -in pw.inp   Done                     12/28/2018 00:25:54
00062 suncat0140 pw.x -in pw.inp   Done                     12/28/2018 00:25:54
00063 suncat0140 pw.x -in pw.inp   Done                     12/28/2018 00:25:54