     Program PWSCF v.5.1rc2 (svn rev. 11289) starts on 19Dec2018 at 19:50:27

     Current dimensions of program PWSCF are:
     Max number of different atomic species (ntypx) = 10
     Max number of k-points (npk) =  40000
     Max angular momentum in pseudopotentials (lmaxx) =  3
     Presently stress not available with electric field

     IMPORTANT: XC functional enforced from input :
     Exchange-correlation      = BEEF-VDW ( 1  4 27 13 2)
     Any further DFT definition will be discarded
     Please, verify this is what you really want

     Subspace diagonalization in iterative solution of the eigenvalue problem:
     a serial algorithm will be used

     bravais-lattice index     =            0
     lattice parameter (alat)  =       1.8897  a.u.
     unit-cell volume          =    5056.4725 (a.u.)^3
     number of atoms/cell      =           12
     number of atomic types    =            2
     number of electrons       =       135.00
     number of Kohn-Sham states=           97
     kinetic-energy cutoff     =      36.7493  Ry
     charge density cutoff     =     367.4932  Ry
     convergence threshold     =      1.0E-06
     mixing beta               =       0.1000
     number of iterations used =           10  plain     mixing
     Exchange-correlation      = BEEF-VDW ( 1  4 27 13 2)
     nstep                     =           50

     celldm(1)=   1.889726  celldm(2)=   0.000000  celldm(3)=   0.000000
     celldm(4)=   0.000000  celldm(5)=   0.000000  celldm(6)=   0.000000

     crystal axes: (cart. coord. in units of alat)
               a(1) = (   5.904096   0.000000   0.000000 )
               a(2) = (  -2.952048   5.113097   0.000000 )
               a(3) = (   0.000000   0.000000  24.820674 )

     reciprocal axes: (cart. coord. in units 2 pi/alat)
               b(1) = (  0.169374  0.097788  0.000000 )
               b(2) = (  0.000000  0.195576  0.000000 )
               b(3) = (  0.000000  0.000000  0.040289 )

     PseudoPot. # 1 for Au read from file:
     /afs/slac.stanford.edu/u/if/mamunm/psp/gbrv1.5pbe/Au.UPF
     MD5 check sum: 9d7f43293ad2c663164586bc4b293ffc
     Pseudo is Ultrasoft + core correction, Zval = 11.0
     Generated by new atomic code, or converted to UPF format
     Using radial grid of  985 points,  7 beta functions with:
                l(1) =   0
                l(2) =   0
                l(3) =   1
                l(4) =   1
                l(5) =   2
                l(6) =   2
                l(7) =   3
     Q(r) pseudized with  6 coefficients,  rinner =    1.900   1.900   1.900
                                                       1.900   1.900   1.900
                                                       1.900

     PseudoPot. # 2 for Ti read from file:
     /afs/slac.stanford.edu/u/if/mamunm/psp/gbrv1.5pbe/Ti.UPF
     MD5 check sum: 88a00a6731bd790ddea75d31a80cb452
     Pseudo is Ultrasoft + core correction, Zval = 12.0
     Generated by new atomic code, or converted to UPF format
     Using radial grid of  851 points,  6 beta functions with:
                l(1) =   0
                l(2) =   0
                l(3) =   1
                l(4) =   1
                l(5) =   2
                l(6) =   2
     Q(r) pseudized with  6 coefficients,  rinner =    1.000   1.000   1.000
                                                       1.000   1.000

     vdW kernel table read from file vdW_kernel_table
     MD5 check sum: 095c7af220d748ca6e76c0b4c6cfb241

     atomic species   valence    mass     pseudopotential
        Au1           11.00   196.96657     Au( 1.00)
        Ti1           12.00    47.86700     Ti( 1.00)

     No symmetry found

   Cartesian axes

     site n.     atom                  positions (alat units)
         1           Au1 tau(   1) = (   0.0000000   0.0000000  10.0000000  )
         2           Au1 tau(   2) = (  -1.4760240   2.5565486  10.0000000  )
         3           Au1 tau(   3) = (   1.4760240   2.5565486  10.0000000  )
         4           Ti1 tau(   4) = (   2.9520481   0.0000000  10.0000000  )
         5           Au1 tau(   5) = (   2.9520481   1.7043658  12.4103372  )
         6           Au1 tau(   6) = (   1.4760240   4.2609144  12.4103372  )
         7           Au1 tau(   7) = (  -1.4760240   4.2609144  12.4103372  )
         8           Ti1 tau(   8) = (   0.0000000   1.7043658  12.4103372  )
         9           Au1 tau(   9) = (  -0.0000000   3.4087315  14.8206743  )
        10           Au1 tau(  10) = (   1.4760240   0.8521829  14.8206743  )
        11           Au1 tau(  11) = (   4.4280721   0.8521829  14.8206743  )
        12           Ti1 tau(  12) = (   2.9520481   3.4087315  14.8206743  )

     number of k points=    20  Fermi-Dirac smearing, width (Ry)=  0.0110
                       cart. coord. in units 2pi/alat
        k(    1) = (   0.0000000   0.0000000   0.0000000), wk =   0.0555556
        k(    2) = (   0.0000000   0.0325960   0.0000000), wk =   0.1111111
        k(    3) = (   0.0000000   0.0651921   0.0000000), wk =   0.1111111
        k(    4) = (   0.0000000  -0.0977881   0.0000000), wk =   0.0555556
        k(    5) = (   0.0282290   0.0162980   0.0000000), wk =   0.1111111
        k(    6) = (   0.0282290   0.0488940   0.0000000), wk =   0.1111111
        k(    7) = (   0.0282290   0.0814901   0.0000000), wk =   0.1111111
        k(    8) = (   0.0282290  -0.0814901   0.0000000), wk =   0.1111111
        k(    9) = (   0.0282290  -0.0488940   0.0000000), wk =   0.1111111
        k(   10) = (   0.0282290  -0.0162980   0.0000000), wk =   0.1111111
        k(   11) = (   0.0564580   0.0325960   0.0000000), wk =   0.1111111
        k(   12) = (   0.0564580   0.0651921   0.0000000), wk =   0.1111111
        k(   13) = (   0.0564580   0.0977881   0.0000000), wk =   0.1111111
        k(   14) = (   0.0564580  -0.0651921   0.0000000), wk =   0.1111111
        k(   15) = (   0.0564580  -0.0325960   0.0000000), wk =   0.1111111
        k(   16) = (   0.0564580   0.0000000   0.0000000), wk =   0.1111111
        k(   17) = (  -0.0846870  -0.0488940   0.0000000), wk =   0.0555556
        k(   18) = (  -0.0846870  -0.0162980   0.0000000), wk =   0.1111111
        k(   19) = (  -0.0846870   0.0162980   0.0000000), wk =   0.1111111
        k(   20) = (  -0.0846870  -0.1466821   0.0000000), wk =   0.0555556

     Largest allocated arrays     est. size (Mb)     dimensions
     Largest temporary arrays     est. size (Mb)     dimensions

     Check: negative/imaginary core charge=   -0.000003    0.000000

     Initial potential from superposition of free atoms
     Check: negative starting charge=   -0.002859

     starting charge  131.99877, renormalised to  135.00000

     negative rho (up, down):  2.924E-03 0.000E+00

     *
     * You are using vdW-DF for exchange-correlation in this calculation.
     * Please cite the following three references that made this development
     * possible:
     *
     *   M. Dion, H. Rydberg, E. Schroder, D. C. Langreth, and
     *   B. I. Lundqvist, Phys. Rev. Lett. 92, 246401 (2004).
     *
     *   T. Thonhauser, V. R. Cooper, S. Li, A. Puzder, P. Hyldgaard, and
     *   D. C. Langreth, Phys. Rev. B 76, 125112 (2007).
     *
     *   G. Roman-Perez and J. M. Soler, Phys. Rev. Lett. 103, 096102 (2009).
     *
     *
     * If you are using vdW-DF2, please also cite:
     *
     *   K. Lee, E. D. Murray, L. Kong, B. I. Lundqvist, and
     *   D. C. Langreth, Phys. Rev. B 82, 081101(R) (2010).
     *
     *
     * If you are calculating the stress with vdW-DF, please also cite:
     *
     *   R. Sabatini, E. Kucukbenli, B. Kolb, T. Thonhauser, and
     *   S. de Gironcoli, J. Phys.: Condens. Matter 24, 424209 (2012).
     *

     Carrying out vdW-DF run using the following parameters:

     Nqs =      20    Nr_points =    1024   r_max =   100.000
     q_mesh =
               0.00001000     0.04494208     0.09755937     0.15916263
               0.23128650     0.31572767     0.41458969     0.53033537
               0.66584808     0.82450364     1.01025438     1.22772762
               1.48234092     1.78043706     2.12944203     2.53805004
               3.01644009     3.57652955     4.23227104     5.00000000

     Gradients computed in reciprocal space

     Adding external electric field

     Computed dipole along edir(3) :
        Dipole                0.0000 Ry au,          0.0000 Debye
        Dipole field          0.0000 Ry au

        Potential amp.       -0.0000 Ry
        Total length         45.7317 bohr

     Starting wfc are  111 randomized atomic wfcs

     Self-consistent Calculation

     iteration #  1     ecut=    36.75 Ry     beta=0.10
     Davidson diagonalization with overlap
     ethr =  1.00E-02,  avg # of iterations =  8.5

[...]

     total energy              =   -1398.82893393 Ry
     Harris-Foulkes estimate   =   -1414.31080195 Ry
     estimated scf accuracy    <      85.56893099 Ry

[...]

     End of self-consistent calculation

          k = 0.0000 0.0000 0.0000 ( 19075 PWs)   bands (ev):

   -57.3298 -57.3106 -57.3104 -33.5575 -33.5565 -33.5470 -33.5061 -33.5061
   -33.4854 -33.4854 -33.4848 -33.4848  -7.3375  -5.9766  -5.6575  -5.3855
    -5.3092  -5.3092  -5.3071  -5.1498  -5.1498  -4.9943  -4.9171  -4.9171
    -4.8715  -4.7615  -4.7615  -4.1338  -3.9726  -3.9726  -3.8295  -3.8295
    -3.6406  -3.5718  -3.4143  -3.3714  -3.2750  -3.2750  -3.1506  -3.1506
    -3.0426  -3.0426  -2.8898  -2.8898  -2.8803  -2.8803  -2.6588  -2.3382
    -2.3382  -2.2773  -2.2773  -2.0895  -2.0895  -1.9110  -1.6552  -1.6552
    -1.5741  -1.3872  -1.3327  -1.2635  -0.0540   0.5280   0.5902   0.5902
     0.6826   0.6826   0.9563   1.0125   1.0125   1.0595   1.0595   1.4452
     1.4452   1.4905   1.5058   1.5419   1.5419   1.7182   1.7182   2.6055
     2.6055   2.6390   2.6390   2.9434   3.0695   4.2474   4.2474   4.3517
     4.6635   4.6635   4.7292   4.9649   5.4727   5.4727   5.9145   5.9675
     6.3941

[...]

          k =-0.0847-0.0489 0.0000 ( 19020 PWs)   bands (ev):

[...]

     the Fermi energy is     0.7420 ev

!    total energy              =   -1410.09047349 Ry
     Harris-Foulkes estimate   =   -1410.09047436 Ry
     estimated scf accuracy    <       0.00000085 Ry

     The total energy is the sum of the following terms:

     one-electron contribution =   -8648.51119374 Ry
     hartree contribution      =    4391.45630872 Ry
     xc contribution           =    -631.86817543 Ry
     ewald contribution        =    3478.93158781 Ry
     electric field correction =       0.00000002 Ry
     smearing contrib. (-TS)   =      -0.09900088 Ry

     convergence has been achieved in  22 iterations

 BEEF-vdW xc energy contributions
           1 :   -562.489416245787
           2 :    521.220324809394
           3 :   -448.105445186018
           4 :    358.237223908293
           5 :   -267.217941662431
           6 :    186.918272737203
           7 :   -123.544286420318
           8 :    77.9779149114224
           9 :   -47.5468805371623
          10 :    28.1296781469629
          11 :   -15.8094242368919
          12 :    7.71348558836269
          13 :   -2.13027152782638
          14 :   -1.79478478550379
[...]
     MD5 check sum: 9d7f43293ad2c663164586bc4b293ffc
     Pseudo is Ultrasoft + core correction, Zval = 11.0
     Generated by new atomic code, or converted to UPF format
     Using radial grid of  985 points,  7 beta functions with:
                l(1) =   0
                l(2) =   0
                l(3) =   1
                l(4) =   1
                l(5) =   2
                l(6) =   2
                l(7) =   3
     Q(r) pseudized with  6 coefficients,  rinner =    1.900   1.900   1.900
                                                       1.900   1.900   1.900
                                                       1.900

     PseudoPot. # 2 for Ti read from file:
     /afs/slac.stanford.edu/u/if/mamunm/psp/gbrv1.5pbe/Ti.UPF
     MD5 check sum: 88a00a6731bd790ddea75d31a80cb452
     Pseudo is Ultrasoft + core correction, Zval = 12.0
     Generated by new atomic code, or converted to UPF format
     Using radial grid of  851 points,  6 beta functions with:
                l(1) =   0
                l(2) =   0
                l(3) =   1
                l(4) =   1
                l(5) =   2
                l(6) =   2
     Q(r) pseudized with  6 coefficients,  rinner =    1.000   1.000   1.000
                                                       1.000   1.000

     vdW kernel table read from file vdW_kernel_table
     MD5 check sum: 095c7af220d748ca6e76c0b4c6cfb241

     atomic species   valence    mass     pseudopotential
        Au1           11.00   196.96657     Au( 1.00)
        Ti1           12.00    47.86700     Ti( 1.00)

     No symmetry found

   Cartesian axes

     site n.     atom                  positions (alat units)
         1           Au1 tau(   1) = (   0.0000000   0.0000000  10.0000000  )
         2           Au1 tau(   2) = (  -1.4760240   2.5565486  10.0000000  )
         3           Au1 tau(   3) = (   1.4760240   2.5565486  10.0000000  )
         4           Ti1 tau(   4) = (   2.9520481   0.0000000  10.0000000  )
         5           Au1 tau(   5) = (   2.9520481   1.7043658  12.4103372  )
         6           Au1 tau(   6) = (   1.4760240   4.2609144  12.4103372  )
         7           Au1 tau(   7) = (  -1.4760240   4.2609144  12.4103372  )
         8           Ti1 tau(   8) = (   0.0000000   1.7043658  12.4103372  )
         9           Au1 tau(   9) = (  -0.0000005   3.3929533  14.8449521  )
        10           Au1 tau(  10) = (   1.4623646   0.8600749  14.8449450  )
        11           Au1 tau(  11) = (   4.4417348   0.8600630  14.8449485  )
        12           Ti1 tau(  12) = (   2.9520501   3.4087256  14.6609138  )

     number of k points=    20  Fermi-Dirac smearing, width (Ry)=  0.0110
                       cart. coord. in units 2pi/alat
        k(    1) = (   0.0000000   0.0000000   0.0000000), wk =   0.0555556
        k(    2) = (   0.0000000   0.0325960   0.0000000), wk =   0.1111111
        k(    3) = (   0.0000000   0.0651921   0.0000000), wk =   0.1111111
        k(    4) = (   0.0000000  -0.0977881   0.0000000), wk =   0.0555556
        k(    5) = (   0.0282290   0.0162980   0.0000000), wk =   0.1111111
        k(    6) = (   0.0282290   0.0488940   0.0000000), wk =   0.1111111
        k(    7) = (   0.0282290   0.0814901   0.0000000), wk =   0.1111111
        k(    8) = (   0.0282290  -0.0814901   0.0000000), wk =   0.1111111
        k(    9) = (   0.0282290  -0.0488940   0.0000000), wk =   0.1111111
        k(   10) = (   0.0282290  -0.0162980   0.0000000), wk =   0.1111111
        k(   11) = (   0.0564580   0.0325960   0.0000000), wk =   0.1111111
        k(   12) = (   0.0564580   0.0651921   0.0000000), wk =   0.1111111
        k(   13) = (   0.0564580   0.0977881   0.0000000), wk =   0.1111111
        k(   14) = (   0.0564580  -0.0651921   0.0000000), wk =   0.1111111
        k(   15) = (   0.0564580  -0.0325960   0.0000000), wk =   0.1111111
        k(   16) = (   0.0564580   0.0000000   0.0000000), wk =   0.1111111
        k(   17) = (  -0.0846870  -0.0488940   0.0000000), wk =   0.0555556
        k(   18) = (  -0.0846870  -0.0162980   0.0000000), wk =   0.1111111
        k(   19) = (  -0.0846870   0.0162980   0.0000000), wk =   0.1111111
        k(   20) = (  -0.0846870  -0.1466821   0.0000000), wk =   0.0555556

     Largest allocated arrays     est. size (Mb)     dimensions
     Largest temporary arrays     est. size (Mb)     dimensions

     Check: negative/imaginary core charge=   -0.000003    0.000000

     Initial potential from superposition of free atoms
     Check: negative starting charge=   -0.002912

     starting charge  131.99877, renormalised to  135.00000

[...]

     *
     * You are using vdW-DF for exchange-correlation in this calculation.
     * Please cite the following three references that made this development
     * possible:
     *
     *   M. Dion, H. Rydberg, E. Schroder, D. C. Langreth, and
     *   B. I. Lundqvist, Phys. Rev. Lett. 92, 246401 (2004).
     *
     *   T. Thonhauser, V. R. Cooper, S. Li, A. Puzder, P. Hyldgaard, and
     *   D. C. Langreth, Phys. Rev. B 76, 125112 (2007).
     *
     *   G. Roman-Perez and J. M. Soler, Phys. Rev. Lett. 103, 096102 (2009).
     *
     *
     * If you are using vdW-DF2, please also cite:
     *
     *   K. Lee, E. D. Murray, L. Kong, B. I. Lundqvist, and
     *   D. C. Langreth, Phys. Rev. B 82, 081101(R) (2010).
     *
     *
     * If you are calculating the stress with vdW-DF, please also cite:
     *
     *   R. Sabatini, E. Kucukbenli, B. Kolb, T. Thonhauser, and
     *   S. de Gironcoli, J. Phys.: Condens. Matter 24, 424209 (2012).
     *

     Carrying out vdW-DF run using the following parameters:

     Nqs =      20    Nr_points =    1024   r_max =   100.000
     q_mesh =
               0.00001000     0.04494208     0.09755937     0.15916263
               0.23128650     0.31572767     0.41458969     0.53033537
               0.66584808     0.82450364     1.01025438     1.22772762
               1.48234092     1.78043706     2.12944203     2.53805004
               3.01644009     3.57652955     4.23227104     5.00000000

     Gradients computed in reciprocal space

[...]

     Starting wfc are  111 randomized atomic wfcs

     Self-consistent Calculation

[...]

     total energy              =   -1410.11266379 Ry
     Harris-Foulkes estimate   =   -1410.11266407 Ry
     estimated scf accuracy    <       0.00002016 Ry

     iteration # 22     ecut=    36.75 Ry     beta=0.10
     Davidson diagonalization with overlap
     ethr =  1.49E-08,  avg # of iterations =  1.0

[...]

     negative rho (up, down):  2.156E-03 0.000E+00

     Adding external electric field

     Computed dipole along edir(3) :
        Dipole               -0.0367 Ry au,         -0.0933 Debye
        Dipole field         -0.0001 Ry au

        Potential amp.        0.0083 Ry
        Total length         45.7317 bohr

     End of self-consistent calculation

[...]

          k = 0.0565 0.0000 0.0000 ( 19031 PWs)   bands (ev):

[...]

          k =-0.0847-0.1467 0.0000 ( 19020 PWs)   bands (ev):

   -57.3869 -57.3621 -57.3449 -33.6149 -33.6098 -33.5875 -33.5599 -33.5591
   -33.5393 -33.5379 -33.5280 -33.5267  -6.1566  -5.8368  -5.1665  -4.9708
    -4.9495  -4.9266  -4.8409  -4.7103  -4.6710  -4.5996  -4.5678  -4.4817
    -4.2624  -4.2427  -4.2317  -4.2110  -4.1850  -4.1274  -3.9224  -3.9003
    -3.5875  -3.5756  -3.5213  -3.5207  -3.4740  -3.4123  -3.3689  -3.3522
    -3.3373  -3.3054  -3.2752  -3.2723  -3.2164  -3.1360  -3.0865  -3.0689
    -2.9798  -2.9074  -2.8735  -2.7992  -2.7521  -2.7246  -2.6126  -2.5362
    -2.2590  -2.1353  -1.8341  -1.8229  -1.5906  -1.3281  -0.4245  -0.1495
    -0.0196   0.2395   0.5499   0.6119   0.8278   0.8449   0.9030   0.9302
     0.9347   1.1238   1.2445   1.3242   1.6801   1.7219   2.1076   2.1144
     2.7962   3.1317   3.7474   3.8880   4.0309   4.4653   5.6137   5.6645
     5.9482   6.2671   6.3059   6.3732   6.3837   6.4416   6.8442   6.9927
     7.0128

     the Fermi energy is     0.6891 ev

!    total energy              =   -1410.11266437 Ry
     Harris-Foulkes estimate   =   -1410.11266500 Ry
     estimated scf accuracy    <       0.00000091 Ry

     The total energy is the sum of the following terms:

     one-electron contribution =   -8678.01088993 Ry
     hartree contribution      =    4405.95500003 Ry
     xc contribution           =    -631.91516297 Ry
     ewald contribution        =    3493.95703591 Ry
     electric field correction =       0.00000335 Ry
     smearing contrib. (-TS)   =      -0.09865076 Ry

     convergence has been achieved in  22 iterations

 BEEF-vdW xc energy contributions
           1 :   -563.081228397280
           2 :    521.818525351998
           3 :   -448.710657313443
           4 :    358.841764808289
           5 :   -267.811602818271
           6 :    187.495576960646
           7 :   -124.105691607110
           8 :    78.5262523117419
           9 :   -48.0857664629420
          10 :    28.6660314147690
          11 :   -16.3548433962428
          12 :    8.27991007415756
          13 :   -2.72238627689160
          14 :   -1.18491018717270
          15 :    3.86360876164872
          16 :   -5.64416041486970
          17 :    6.98133119584941
          18 :   -8.47169191210764
          19 :    10.6387471001781
          20 :   -13.5980122139611
          21 :    16.8316243147942
          22 :   -19.2944959572870
          23 :    19.8703487497602
          24 :   -17.9592529345223
          25 :    13.8539936339785
          26 :   -8.67321278534939
          27 :    3.87083146421287
          28 :  -0.595506187244951
          29 :  -0.753985683587189
          30 :   0.561128111988751
          31 :   -45.7293132246906
          32 :   -33.2428615468906

     Forces acting on atoms (Ry/au):

     negative rho (up, down):  2.156E-03 0.000E+00
     atom    1 type  1   force =    -0.00000060    0.00542834   -0.00388071
     atom    2 type  1   force =     0.00470190   -0.00271361   -0.00388126
     atom    3 type  1   force =    -0.00470114   -0.00271439   -0.00388108
     atom    4 type  2   force =     0.00000029   -0.00000053    0.01317999
     atom    5 type  1   force =     0.00000002   -0.00628116   -0.00141127
     atom    6 type  1   force =    -0.00544046    0.00314027   -0.00141034
     atom    7 type  1   force =     0.00543916    0.00313999   -0.00141088
     atom    8 type  2   force =    -0.00000011   -0.00000048    0.00218148
     atom    9 type  1   force =    -0.00000047    0.00011486    0.00013530
     atom   10 type  1   force =     0.00009875   -0.00005807    0.00013561
     atom   11 type  1   force =    -0.00009732   -0.00005584    0.00013372
     atom   12 type  2   force =    -0.00000000    0.00000062    0.00010944

     Total force =     0.020893     Total SCF correction =     0.002297
     SCF correction compared to forces is large: reduce conv_thr to get better values

     entering subroutine stress ...

     negative rho (up, down):  2.156E-03 0.000E+00
          total   stress  (Ry/bohr**3)                   (kbar)     P=  -11.58
  -0.00011771   0.00000000  -0.00000000        -17.32      0.00     -0.00
   0.00000000  -0.00011771   0.00000000          0.00    -17.32      0.00
  -0.00000000   0.00000000  -0.00000072         -0.00      0.00     -0.11

 !ASE

     Writing output data file calc.save

     General routines

     Parallel routines

   This run was terminated on:  21:17: 1  19Dec2018

   JOB DONE.
Job  /afs/slac/g/suncat/bin/suncat-tsmpirun -x LD_LIBRARY_PATH -wdir /scratch/qe773398_Jz9nW pw.x -in pw.inp

TID   HOST_NAME   COMMAND_LINE            STATUS            TERMINATION_TIME
00000 suncat0137 pw.x -in pw.inp   Done                     12/19/2018 21:17:01
00001 suncat0137 pw.x -in pw.inp   Done                     12/19/2018 21:17:01
00002 suncat0137 pw.x -in pw.inp   Done                     12/19/2018 21:17:01
00003 suncat0137 pw.x -in pw.inp   Done                     12/19/2018 21:17:01
00004 suncat0137 pw.x -in pw.inp   Done                     12/19/2018 21:17:01
00005 suncat0137 pw.x -in pw.inp   Done                     12/19/2018 21:17:01
00006 suncat0137 pw.x -in pw.inp   Done                     12/19/2018 21:17:01
00007 suncat0137 pw.x -in pw.inp   Done                     12/19/2018 21:17:01
00008 suncat0136 pw.x -in pw.inp   Done                     12/19/2018 21:17:01
00009 suncat0136 pw.x -in pw.inp   Done                     12/19/2018 21:17:01
00010 suncat0136 pw.x -in pw.inp   Done                     12/19/2018 21:17:01
00011 suncat0136 pw.x -in pw.inp   Done                     12/19/2018 21:17:01
00012 suncat0136 pw.x -in pw.inp   Done                     12/19/2018 21:17:01
00013 suncat0136 pw.x -in pw.inp   Done                     12/19/2018 21:17:01
00014 suncat0136 pw.x -in pw.inp   Done                     12/19/2018 21:17:01
00015 suncat0136 pw.x -in pw.inp   Done                     12/19/2018 21:17:01
00016 suncat0135 pw.x -in pw.inp   Done                     12/19/2018 21:17:01
00017 suncat0135 pw.x -in pw.inp   Done                     12/19/2018 21:17:01
00018 suncat0135 pw.x -in pw.inp   Done                     12/19/2018 21:17:01
00019 suncat0135 pw.x -in pw.inp   Done                     12/19/2018 21:17:01
00020 suncat0135 pw.x -in pw.inp   Done                     12/19/2018 21:17:01
00021 suncat0135 pw.x -in pw.inp   Done                     12/19/2018 21:17:01
00022 suncat0135 pw.x -in pw.inp   Done                     12/19/2018 21:17:01
00023 suncat0135 pw.x -in pw.inp   Done                     12/19/2018 21:17:01
00024 suncat0134 pw.x -in pw.inp   Done                     12/19/2018 21:17:01
00025 suncat0134 pw.x -in pw.inp   Done                     12/19/2018 21:17:01
00026 suncat0134 pw.x -in pw.inp   Done                     12/19/2018 21:17:01
00027 suncat0134 pw.x -in pw.inp   Done                     12/19/2018 21:17:01
00028 suncat0134 pw.x -in pw.inp   Done                     12/19/2018 21:17:01
00029 suncat0134 pw.x -in pw.inp   Done                     12/19/2018 21:17:01
00030 suncat0134 pw.x -in pw.inp   Done                     12/19/2018 21:17:01
00031 suncat0134 pw.x -in pw.inp   Done                     12/19/2018 21:17:01
00032 suncat0133 pw.x -in pw.inp   Done                     12/19/2018 21:17:01
00033 suncat0133 pw.x -in pw.inp   Done                     12/19/2018 21:17:01
00034 suncat0133 pw.x -in pw.inp   Done                     12/19/2018 21:17:01
00035 suncat0133 pw.x -in pw.inp   Done                     12/19/2018 21:17:01
00036 suncat0133 pw.x -in pw.inp   Done                     12/19/2018 21:17:01
00037 suncat0133 pw.x -in pw.inp   Done                     12/19/2018 21:17:01
00038 suncat0133 pw.x -in pw.inp   Done                     12/19/2018 21:17:01
00039 suncat0133 pw.x -in pw.inp   Done                     12/19/2018 21:17:01
00040 suncat0132 pw.x -in pw.inp   Done                     12/19/2018 21:17:01
00041 suncat0132 pw.x -in pw.inp   Done                     12/19/2018 21:17:01
00042 suncat0132 pw.x -in pw.inp   Done                     12/19/2018 21:17:01
00043 suncat0132 pw.x -in pw.inp   Done                     12/19/2018 21:17:01
00044 suncat0132 pw.x -in pw.inp   Done                     12/19/2018 21:17:01
00045 suncat0132 pw.x -in pw.inp   Done                     12/19/2018 21:17:01
00046 suncat0132 pw.x -in pw.inp   Done                     12/19/2018 21:17:01
00047 suncat0132 pw.x -in pw.inp   Done                     12/19/2018 21:17:01
00048 suncat0131 pw.x -in pw.inp   Done                     12/19/2018 21:17:01
00049 suncat0131 pw.x -in pw.inp   Done                     12/19/2018 21:17:01
00050 suncat0131 pw.x -in pw.inp   Done                     12/19/2018 21:17:01
00051 suncat0131 pw.x -in pw.inp   Done                     12/19/2018 21:17:01
00052 suncat0131 pw.x -in pw.inp   Done                     12/19/2018 21:17:01
00053 suncat0131 pw.x -in pw.inp   Done                     12/19/2018 21:17:01
00054 suncat0131 pw.x -in pw.inp   Done                     12/19/2018 21:17:01
00055 suncat0131 pw.x -in pw.inp   Done                     12/19/2018 21:17:01
00056 suncat0130 pw.x -in pw.inp   Done                     12/19/2018 21:17:01
00057 suncat0130 pw.x -in pw.inp   Done                     12/19/2018 21:17:01
00058 suncat0130 pw.x -in pw.inp   Done                     12/19/2018 21:17:01
00059 suncat0130 pw.x -in pw.inp   Done                     12/19/2018 21:17:01
00060 suncat0130 pw.x -in pw.inp   Done                     12/19/2018 21:17:01
00061 suncat0130 pw.x -in pw.inp   Done                     12/19/2018 21:17:01
00062 suncat0130 pw.x -in pw.inp   Done                     12/19/2018 21:17:01
00063 suncat0130 pw.x -in pw.inp   Done                     12/19/2018 21:17:01