     Program PWSCF v.5.1rc2 (svn rev. 11289) starts on  1Jan2019 at 11:52:50

     Current dimensions of program PWSCF are:
     Max number of different atomic species (ntypx) = 10
     Max number of k-points (npk) =  40000
     Max angular momentum in pseudopotentials (lmaxx) =  3
     Presently stress not available with electric field

     IMPORTANT: XC functional enforced from input :
     Exchange-correlation      = BEEF-VDW ( 1  4 27 13 2)
     Any further DFT definition will be discarded
     Please, verify this is what you really want

     Subspace diagonalization in iterative solution of the eigenvalue problem:
     a serial algorithm will be used

     bravais-lattice index     =            0
     lattice parameter (alat)  =       1.8897  a.u.
     unit-cell volume          =    7069.2964 (a.u.)^3
     number of atoms/cell      =           12
     number of atomic types    =            2
     number of electrons       =       165.00
     number of Kohn-Sham states=          112
     kinetic-energy cutoff     =      36.7493  Ry
     charge density cutoff     =     367.4932  Ry
     convergence threshold     =      1.0E-06
     mixing beta               =       0.1000
     number of iterations used =           10  plain     mixing
     Exchange-correlation      = BEEF-VDW ( 1  4 27 13 2)
     nstep                     =           50

     celldm(1)=   1.889726  celldm(2)=   0.000000  celldm(3)=   0.000000
     celldm(4)=   0.000000  celldm(5)=   0.000000  celldm(6)=   0.000000

     crystal axes: (cart. coord. in units of alat)
               a(1) = (   6.872404   0.000000   0.000000 )
               a(2) = (  -3.436202   5.951677   0.000000 )
               a(3) = (   0.000000   0.000000  25.611295 )

     reciprocal axes: (cart. coord. in units 2 pi/alat)
               b(1) = (  0.145509  0.084010  0.000000 )
               b(2) = (  0.000000  0.168020  0.000000 )
               b(3) = (  0.000000  0.000000  0.039045 )

     PseudoPot. # 1 for Sn read from file:
     /afs/slac.stanford.edu/u/if/mamunm/psp/gbrv1.5pbe/Sn.UPF
     MD5 check sum: 469debedee59599fedebd795477fea03
     Pseudo is Ultrasoft + core correction, Zval = 14.0
     Generated by new atomic code, or converted to UPF format
     Using radial grid of  891 points,  6 beta functions with:
                l(1) =   0
                l(2) =   0
                l(3) =   1
                l(4) =   1
                l(5) =   2
                l(6) =   2
     Q(r) pseudized with  8 coefficients,  rinner =    1.350   1.350   1.350
                                                       1.350   1.350

     PseudoPot. # 2 for In read from file:
     /afs/slac.stanford.edu/u/if/mamunm/psp/gbrv1.5pbe/In.UPF
     MD5 check sum: 90777abd96fbb83f2e67db2a40c566b9
     Pseudo is Ultrasoft + core correction, Zval = 13.0
     Generated by new atomic code, or converted to UPF format
     Using radial grid of  889 points,  6 beta functions with:
                l(1) =   0
                l(2) =   0
                l(3) =   1
                l(4) =   1
                l(5) =   2
                l(6) =   2
     Q(r) pseudized with  6 coefficients,  rinner =    1.400   1.400   1.400
                                                       1.400   1.400

     vdW kernel table read from file vdW_kernel_table
     MD5 check sum: 095c7af220d748ca6e76c0b4c6cfb241

     atomic species   valence    mass     pseudopotential
        Sn1           14.00   118.71000     Sn( 1.00)
        In1           13.00   114.81800     In( 1.00)

     No symmetry found

   Cartesian axes

     site n.     atom                  positions (alat units)
         1           Sn1 tau(   1) = (   0.0000000   0.0000000  10.0000000  )
         2           Sn1 tau(   2) = (  -1.7181011   2.9758384  10.0000000  )
         3           Sn1 tau(   3) = (   1.7181011   2.9758384  10.0000000  )
         4           In1 tau(   4) = (   3.4362022   0.0000000  10.0000000  )
         5           Sn1 tau(   5) = (   3.4362022   1.9838923  12.8056474  )
         6           Sn1 tau(   6) = (   1.7181011   4.9597307  12.8056474  )
         7           Sn1 tau(   7) = (  -1.7181011   4.9597307  12.8056474  )
         8           In1 tau(   8) = (   0.0000000   1.9838923  12.8056474  )
         9           Sn1 tau(   9) = (  -0.0000000   3.9677846  15.6112948  )
        10           Sn1 tau(  10) = (   1.7181011   0.9919461  15.6112948  )
        11           Sn1 tau(  11) = (   5.1543034   0.9919461  15.6112948  )
        12           In1 tau(  12) = (   3.4362022   3.9677846  15.6112948  )

     number of k points=    20  Fermi-Dirac smearing, width (Ry)=  0.0110
                       cart. coord. in units 2pi/alat
        k(    1) = (   0.0000000   0.0000000   0.0000000), wk =   0.0555556
        k(    2) = (   0.0000000   0.0280033   0.0000000), wk =   0.1111111
        k(    3) = (   0.0000000   0.0560066   0.0000000), wk =   0.1111111
        k(    4) = (   0.0000000  -0.0840099   0.0000000), wk =   0.0555556
        k(    5) = (   0.0242516   0.0140017   0.0000000), wk =   0.1111111
        k(    6) = (   0.0242516   0.0420050   0.0000000), wk =   0.1111111
        k(    7) = (   0.0242516   0.0700083   0.0000000), wk =   0.1111111
        k(    8) = (   0.0242516  -0.0700083   0.0000000), wk =   0.1111111
        k(    9) = (   0.0242516  -0.0420050   0.0000000), wk =   0.1111111
        k(   10) = (   0.0242516  -0.0140017   0.0000000), wk =   0.1111111
        k(   11) = (   0.0485032   0.0280033   0.0000000), wk =   0.1111111
        k(   12) = (   0.0485032   0.0560066   0.0000000), wk =   0.1111111
        k(   13) = (   0.0485032   0.0840099   0.0000000), wk =   0.1111111
        k(   14) = (   0.0485032  -0.0560066   0.0000000), wk =   0.1111111
        k(   15) = (   0.0485032  -0.0280033   0.0000000), wk =   0.1111111
        k(   16) = (   0.0485032   0.0000000   0.0000000), wk =   0.1111111
        k(   17) = (  -0.0727547  -0.0420050   0.0000000), wk =   0.0555556
        k(   18) = (  -0.0727547  -0.0140017   0.0000000), wk =   0.1111111
        k(   19) = (  -0.0727547   0.0140017   0.0000000), wk =   0.1111111
        k(   20) = (  -0.0727547  -0.1260149   0.0000000), wk =   0.0555556

     Largest allocated arrays     est. size (Mb)     dimensions
     Largest temporary arrays     est. size (Mb)     dimensions

     Initial potential from superposition of free atoms
     Check: negative starting charge=   -0.001402

     starting charge  151.49959, renormalised to  165.00000

     negative rho (up, down):  1.526E-03 0.000E+00

     *
     * You are using vdW-DF for exchange-correlation in this calculation.
     * Please cite the following three references that made this development
     * possible:
     *
     *   M. Dion, H. Rydberg, E. Schroder, D. C. Langreth, and
     *   B. I. Lundqvist, Phys. Rev. Lett. 92, 246401 (2004).
     *
     *   T. Thonhauser, V. R. Cooper, S. Li, A. Puzder, P. Hyldgaard, and
     *   D. C. Langreth, Phys. Rev. B 76, 125112 (2007).
     *
     *   G. Roman-Perez and J. M. Soler, Phys. Rev. Lett. 103, 096102 (2009).
     *
     *
     * If you are using vdW-DF2, please also cite:
     *
     *   K. Lee, E. D. Murray, L. Kong, B. I. Lundqvist, and
     *   D. C. Langreth, Phys. Rev. B 82, 081101(R) (2010).
     *
     *
     * If you are calculating the stress with vdW-DF, please also cite:
     *
     *   R. Sabatini, E. Kucukbenli, B. Kolb, T. Thonhauser, and
     *   S. de Gironcoli, J. Phys.: Condens. Matter 24, 424209 (2012).
     *

     Carrying out vdW-DF run using the following parameters:

     Nqs =      20    Nr_points =    1024   r_max =   100.000
     q_mesh =
               0.00001000     0.04494208     0.09755937     0.15916263
               0.23128650     0.31572767     0.41458969     0.53033537
               0.66584808     0.82450364     1.01025438     1.22772762
               1.48234092     1.78043706     2.12944203     2.53805004
               3.01644009     3.57652955     4.23227104     5.00000000

     Gradients computed in reciprocal space

     Adding external electric field

     Computed dipole along edir(3) :
        Dipole               -0.0000 Ry au,         -0.0000 Debye
        Dipole field         -0.0000 Ry au

        Potential amp.        0.0000 Ry
        Total length         47.1884 bohr

     Starting wfc are  108 randomized atomic wfcs +    4 random wfc

     Self-consistent Calculation

     iteration #  1     ecut=    36.75 Ry     beta=0.10
     Davidson diagonalization with overlap
     ethr =  1.00E-02,  avg # of iterations = 10.6

[...]

     total energy              =   -1854.58862595 Ry
     Harris-Foulkes estimate   =   -1858.42195483 Ry
     estimated scf accuracy    <      22.35691792 Ry

[...]

     End of self-consistent calculation

          k = 0.0000 0.0000 0.0000 ( 26649 PWs)   bands (ev):

   -21.5309 -21.5264 -21.5264 -21.5233 -21.5137 -21.5137 -21.5079 -21.4950
   -21.4950 -21.4928 -21.4901 -21.4873 -21.4853 -21.4845 -21.4845 -21.4813
   -21.4801 -21.4801 -21.4675 -21.4675 -21.4576 -21.4555 -21.4555 -21.4508
   -21.4508 -21.4432 -21.4432 -21.4381 -21.4270 -21.4270 -21.4212 -21.4185
   -21.4185 -21.4092 -21.4092 -21.3955 -21.3955 -21.3888 -21.3848 -21.3848
   -21.3803 -21.3771 -21.3585 -21.3585 -21.3554 -14.3538 -14.3532 -14.3436
   -14.3436 -14.3362 -14.3362 -14.3314 -14.3314 -14.3228 -14.3228 -14.3199
   -14.3173 -14.3173 -14.3103 -14.3103  -9.5026  -8.3882  -6.8743  -6.0231
    -6.0231  -5.5503  -5.5503  -4.7807  -4.7807  -4.3532  -4.2327  -3.1750
    -3.0277  -2.8309  -2.8309  -2.3885  -1.7550  -1.7550  -1.5473  -1.5473
    -1.4943  -1.4703   0.2704   1.5578   1.5578   1.6008   1.6008   2.1768
     2.4660   2.8826   2.9550   3.5250   3.5250   3.7105   3.8875   3.8876
     4.0416   4.4159   4.5368   4.6097   4.6097   4.7094   5.3729   5.7399
     5.7399   5.7968   5.8957   5.8957   5.9212   6.2197   6.7573   6.7573

[...]

          k =-0.0728-0.0420 0.0000 ( 26558 PWs)   bands (ev):

[...]

     the Fermi energy is     0.5115 ev

!    total energy              =   -1850.55052927 Ry
     Harris-Foulkes estimate   =   -1850.55052736 Ry
     estimated scf accuracy    <       0.00000036 Ry

     The total energy is the sum of the following terms:

     one-electron contribution =   -9514.05020178 Ry
     hartree contribution      =    4822.89442587 Ry
     xc contribution           =    -517.39639699 Ry
     ewald contribution        =    3358.04110284 Ry
     electric field correction =       0.00000000 Ry
     smearing contrib. (-TS)   =      -0.03945920 Ry

     convergence has been achieved in  16 iterations

 BEEF-vdW xc energy contributions
           1 :   -454.359458146384
           2 :    415.641861304659
           3 :   -350.095377643112
           4 :    276.123169612251
           5 :   -211.009751068213
           6 :    164.724128560802
           7 :   -137.752379459569
           8 :    123.383600256626
           9 :   -112.749285927076
          10 :    99.7390264090254
          11 :   -83.3619388201159
          12 :    66.7996570367955
          13 :   -54.3099912801454
          14 :    48.1320751037375
          15 :   -47.1964106013012
[...]

     PseudoPot. # 1 for Sn read from file:
     /afs/slac.stanford.edu/u/if/mamunm/psp/gbrv1.5pbe/Sn.UPF
     MD5 check sum: 469debedee59599fedebd795477fea03
     Pseudo is Ultrasoft + core correction, Zval = 14.0
     Generated by new atomic code, or converted to UPF format
     Using radial grid of  891 points,  6 beta functions with:
                l(1) =   0
                l(2) =   0
                l(3) =   1
                l(4) =   1
                l(5) =   2
                l(6) =   2
     Q(r) pseudized with  8 coefficients,  rinner =    1.350   1.350   1.350
                                                       1.350   1.350

     PseudoPot. # 2 for In read from file:
     /afs/slac.stanford.edu/u/if/mamunm/psp/gbrv1.5pbe/In.UPF
     MD5 check sum: 90777abd96fbb83f2e67db2a40c566b9
     Pseudo is Ultrasoft + core correction, Zval = 13.0
     Generated by new atomic code, or converted to UPF format
     Using radial grid of  889 points,  6 beta functions with:
                l(1) =   0
                l(2) =   0
                l(3) =   1
                l(4) =   1
                l(5) =   2
                l(6) =   2
     Q(r) pseudized with  6 coefficients,  rinner =    1.400   1.400   1.400
                                                       1.400   1.400

     vdW kernel table read from file vdW_kernel_table
     MD5 check sum: 095c7af220d748ca6e76c0b4c6cfb241

     atomic species   valence    mass     pseudopotential
        Sn1           14.00   118.71000     Sn( 1.00)
        In1           13.00   114.81800     In( 1.00)

     No symmetry found

   Cartesian axes

     site n.     atom                  positions (alat units)
         1           Sn1 tau(   1) = (   0.0000000   0.0000000  10.0000000  )
         2           Sn1 tau(   2) = (  -1.7181011   2.9758384  10.0000000  )
         3           Sn1 tau(   3) = (   1.7181011   2.9758384  10.0000000  )
         4           In1 tau(   4) = (   3.4362022   0.0000000  10.0000000  )
         5           Sn1 tau(   5) = (   3.4362022   1.9838923  12.8056474  )
         6           Sn1 tau(   6) = (   1.7181011   4.9597307  12.8056474  )
         7           Sn1 tau(   7) = (  -1.7181011   4.9597307  12.8056474  )
         8           In1 tau(   8) = (   0.0000000   1.9838923  12.8056474  )
         9           Sn1 tau(   9) = (   0.0000536   4.0203975  15.3816882  )
        10           Sn1 tau(  10) = (   1.7635980   0.9656457  15.3816315  )
        11           Sn1 tau(  11) = (   5.1087889   0.9655967  15.3816477  )
        12           In1 tau(  12) = (   3.4362066   3.9678214  15.6964983  )

     number of k points=    20  Fermi-Dirac smearing, width (Ry)=  0.0110
                       cart. coord. in units 2pi/alat
        k(    1) = (   0.0000000   0.0000000   0.0000000), wk =   0.0555556
        k(    2) = (   0.0000000   0.0280033   0.0000000), wk =   0.1111111
        k(    3) = (   0.0000000   0.0560066   0.0000000), wk =   0.1111111
        k(    4) = (   0.0000000  -0.0840099   0.0000000), wk =   0.0555556
        k(    5) = (   0.0242516   0.0140017   0.0000000), wk =   0.1111111
        k(    6) = (   0.0242516   0.0420050   0.0000000), wk =   0.1111111
        k(    7) = (   0.0242516   0.0700083   0.0000000), wk =   0.1111111
        k(    8) = (   0.0242516  -0.0700083   0.0000000), wk =   0.1111111
        k(    9) = (   0.0242516  -0.0420050   0.0000000), wk =   0.1111111
        k(   10) = (   0.0242516  -0.0140017   0.0000000), wk =   0.1111111
        k(   11) = (   0.0485032   0.0280033   0.0000000), wk =   0.1111111
        k(   12) = (   0.0485032   0.0560066   0.0000000), wk =   0.1111111
        k(   13) = (   0.0485032   0.0840099   0.0000000), wk =   0.1111111
        k(   14) = (   0.0485032  -0.0560066   0.0000000), wk =   0.1111111
        k(   15) = (   0.0485032  -0.0280033   0.0000000), wk =   0.1111111
        k(   16) = (   0.0485032   0.0000000   0.0000000), wk =   0.1111111
        k(   17) = (  -0.0727547  -0.0420050   0.0000000), wk =   0.0555556
        k(   18) = (  -0.0727547  -0.0140017   0.0000000), wk =   0.1111111
        k(   19) = (  -0.0727547   0.0140017   0.0000000), wk =   0.1111111
        k(   20) = (  -0.0727547  -0.1260149   0.0000000), wk =   0.0555556

     Largest allocated arrays     est. size (Mb)     dimensions
     Largest temporary arrays     est. size (Mb)     dimensions

     Initial potential from superposition of free atoms
     Check: negative starting charge=   -0.001425

     starting charge  151.49959, renormalised to  165.00000

[...]

     *
     * You are using vdW-DF for exchange-correlation in this calculation.
     * Please cite the following three references that made this development
     * possible:
     *
     *   M. Dion, H. Rydberg, E. Schroder, D. C. Langreth, and
     *   B. I. Lundqvist, Phys. Rev. Lett. 92, 246401 (2004).
     *
     *   T. Thonhauser, V. R. Cooper, S. Li, A. Puzder, P. Hyldgaard, and
     *   D. C. Langreth, Phys. Rev. B 76, 125112 (2007).
     *
     *   G. Roman-Perez and J. M. Soler, Phys. Rev. Lett. 103, 096102 (2009).
     *
     *
     * If you are using vdW-DF2, please also cite:
     *
     *   K. Lee, E. D. Murray, L. Kong, B. I. Lundqvist, and
     *   D. C. Langreth, Phys. Rev. B 82, 081101(R) (2010).
     *
     *
     * If you are calculating the stress with vdW-DF, please also cite:
     *
     *   R. Sabatini, E. Kucukbenli, B. Kolb, T. Thonhauser, and
     *   S. de Gironcoli, J. Phys.: Condens. Matter 24, 424209 (2012).
     *

     Carrying out vdW-DF run using the following parameters:

     Nqs =      20    Nr_points =    1024   r_max =   100.000
     q_mesh =
               0.00001000     0.04494208     0.09755937     0.15916263
               0.23128650     0.31572767     0.41458969     0.53033537
               0.66584808     0.82450364     1.01025438     1.22772762
               1.48234092     1.78043706     2.12944203     2.53805004
               3.01644009     3.57652955     4.23227104     5.00000000

     Gradients computed in reciprocal space

[...]

     Starting wfc are  108 randomized atomic wfcs +    4 random wfc

     Self-consistent Calculation

[...]

     total energy              =   -1850.55790997 Ry
     Harris-Foulkes estimate   =   -1850.55790946 Ry
     estimated scf accuracy    <       0.00000286 Ry

     iteration # 16     ecut=    36.75 Ry     beta=0.10
     Davidson diagonalization with overlap
     ethr =  1.73E-09,  avg # of iterations =  2.0

[...]

     negative rho (up, down):  6.667E-04 0.000E+00

     Adding external electric field

     Computed dipole along edir(3) :
        Dipole               -0.0063 Ry au,         -0.0161 Debye
        Dipole field         -0.0000 Ry au

        Potential amp.        0.0011 Ry
        Total length         47.1884 bohr

     End of self-consistent calculation

[...]

          k = 0.0485 0.0000 0.0000 ( 26629 PWs)   bands (ev):

[...]

          k =-0.0728-0.1260 0.0000 ( 26558 PWs)   bands (ev):

   -21.4981 -21.4774 -21.4734 -21.4675 -21.4660 -21.4635 -21.4576 -21.4539
   -21.4528 -21.4489 -21.4465 -21.4401 -21.4391 -21.4380 -21.4339 -21.4311
   -21.4287 -21.4278 -21.4264 -21.4245 -21.4198 -21.4178 -21.4143 -21.4103
   -21.4019 -21.3999 -21.3914 -21.3882 -21.3866 -21.3828 -21.3790 -21.3773
   -21.3748 -21.3681 -21.3661 -21.3595 -21.3581 -21.3474 -21.3417 -21.3408
   -21.3313 -21.3277 -21.3141 -21.3100 -21.2962 -14.3731 -14.3581 -14.3575
   -14.3429 -14.3403 -14.3382 -14.3368 -14.3202 -14.3193 -14.3192 -14.3031
   -14.2877 -14.2871 -14.2699 -14.2694  -8.7748  -8.4676  -7.4115  -7.2870
    -6.7462  -6.1819  -5.8248  -5.6413  -4.9165  -4.4112  -4.3294  -3.1371
    -1.5308  -1.3041  -1.2876  -1.1440  -1.0428  -1.0038  -0.2796  -0.2065
     0.0339   0.2799   0.7600   0.8793   1.0693   1.1479   1.3294   1.6839
     1.8065   1.9568   2.1074   2.1625   2.5710   2.7474   3.0940   3.4183
     3.6293   3.8298   3.9258   4.0998   4.1870   4.4944   4.7031   4.7279
     4.7866   5.1791   5.3772   5.4142   5.4686   5.5562   5.6895   5.8345

     the Fermi energy is     0.5433 ev

!    total energy              =   -1850.55791332 Ry
     Harris-Foulkes estimate   =   -1850.55791036 Ry
     estimated scf accuracy    <       0.00000034 Ry

     The total energy is the sum of the following terms:

     one-electron contribution =   -9717.49518600 Ry
     hartree contribution      =    4924.83741304 Ry
     xc contribution           =    -517.53232253 Ry
     ewald contribution        =    3459.66854900 Ry
     electric field correction =       0.00000007 Ry
     smearing contrib. (-TS)   =      -0.03636690 Ry

     convergence has been achieved in  16 iterations

 BEEF-vdW xc energy contributions
           1 :   -454.498820078149
           2 :    415.845560316104
           3 :   -350.383496158931
           4 :    276.447904592319
           5 :   -211.277377115789
           6 :    164.852898723193
           7 :   -137.724333984356
           8 :    123.256123754490
           9 :   -112.620022731148
          10 :    99.6869498814089
          11 :   -83.4016485078603
          12 :    66.8773348015235
          13 :   -54.3435320907747
          14 :    48.0690884144066
          15 :   -47.0515145111893
          16 :    47.9416361100640
          17 :   -47.2921585598174
          18 :    43.5692491594556
          19 :   -37.7434710327825
          20 :    32.2861506154601
          21 :   -29.3905289401055
          22 :    29.6004423206206
          23 :   -31.6378992512059
          24 :    33.3812305299030
          25 :   -33.2476487993561
          26 :    31.0772004697342
          27 :   -28.0386467490983
          28 :    25.7352783576877
          29 :   -25.1606249551032
          30 :    26.1618009267987
          31 :   -40.0185218136737
          32 :   -29.0751039222030

     Forces acting on atoms (Ry/au):

     negative rho (up, down):  6.667E-04 0.000E+00
     atom    1 type  1   force =     0.00000118    0.00026362    0.01171206
     atom    2 type  1   force =     0.00022824   -0.00013027    0.01170874
     atom    3 type  1   force =    -0.00022779   -0.00013056    0.01170888
     atom    4 type  2   force =    -0.00000054   -0.00000079   -0.00216406
     atom    5 type  1   force =     0.00000104    0.00417955   -0.00846404
     atom    6 type  1   force =     0.00361894   -0.00209031   -0.00846617
     atom    7 type  1   force =    -0.00361770   -0.00209232   -0.00846551
     atom    8 type  2   force =    -0.00000108    0.00000182   -0.01193931
     atom    9 type  1   force =    -0.00000246   -0.00112175    0.00107617
     atom   10 type  1   force =    -0.00097028    0.00056250    0.00108247
     atom   11 type  1   force =     0.00096820    0.00056283    0.00108220
     atom   12 type  2   force =     0.00000224   -0.00000433    0.00112856

     Total force =     0.028892     Total SCF correction =     0.001930

     entering subroutine stress ...

     negative rho (up, down):  6.667E-04 0.000E+00
          total   stress  (Ry/bohr**3)                   (kbar)     P=   -3.98
  -0.00002317   0.00000000  -0.00000000         -3.41      0.00     -0.00
   0.00000000  -0.00002317   0.00000000          0.00     -3.41      0.00
  -0.00000000   0.00000000  -0.00003487         -0.00      0.00     -5.13

 !ASE

     Writing output data file calc.save

     General routines

     Parallel routines

   This run was terminated on:  13: 4:53   1Jan2019

   JOB DONE.
Job  /afs/slac/g/suncat/bin/suncat-tsmpirun -x LD_LIBRARY_PATH -wdir /scratch/qe649012_SxrXH pw.x -in pw.inp

TID   HOST_NAME   COMMAND_LINE            STATUS            TERMINATION_TIME
00000 suncat0028 pw.x -in pw.inp   Done                     01/01/2019 13:04:53
00001 suncat0028 pw.x -in pw.inp   Done                     01/01/2019 13:04:53
00002 suncat0028 pw.x -in pw.inp   Done                     01/01/2019 13:04:53
00003 suncat0028 pw.x -in pw.inp   Done                     01/01/2019 13:04:53
00004 suncat0028 pw.x -in pw.inp   Done                     01/01/2019 13:04:53
00005 suncat0028 pw.x -in pw.inp   Done                     01/01/2019 13:04:53
00006 suncat0028 pw.x -in pw.inp   Done                     01/01/2019 13:04:53
00007 suncat0028 pw.x -in pw.inp   Done                     01/01/2019 13:04:53
00008 suncat0027 pw.x -in pw.inp   Done                     01/01/2019 13:04:53
00009 suncat0027 pw.x -in pw.inp   Done                     01/01/2019 13:04:53
00010 suncat0027 pw.x -in pw.inp   Done                     01/01/2019 13:04:53
00011 suncat0027 pw.x -in pw.inp   Done                     01/01/2019 13:04:53
00012 suncat0027 pw.x -in pw.inp   Done                     01/01/2019 13:04:53
00013 suncat0027 pw.x -in pw.inp   Done                     01/01/2019 13:04:53
00014 suncat0027 pw.x -in pw.inp   Done                     01/01/2019 13:04:53
00015 suncat0027 pw.x -in pw.inp   Done                     01/01/2019 13:04:53
00016 suncat0026 pw.x -in pw.inp   Done                     01/01/2019 13:04:53
00017 suncat0026 pw.x -in pw.inp   Done                     01/01/2019 13:04:53
00018 suncat0026 pw.x -in pw.inp   Done                     01/01/2019 13:04:53
00019 suncat0026 pw.x -in pw.inp   Done                     01/01/2019 13:04:53
00020 suncat0026 pw.x -in pw.inp   Done                     01/01/2019 13:04:53
00021 suncat0026 pw.x -in pw.inp   Done                     01/01/2019 13:04:53
00022 suncat0026 pw.x -in pw.inp   Done                     01/01/2019 13:04:53
00023 suncat0026 pw.x -in pw.inp   Done                     01/01/2019 13:04:53
00024 suncat0021 pw.x -in pw.inp   Done                     01/01/2019 13:04:53
00025 suncat0021 pw.x -in pw.inp   Done                     01/01/2019 13:04:53
00026 suncat0021 pw.x -in pw.inp   Done                     01/01/2019 13:04:53
00027 suncat0021 pw.x -in pw.inp   Done                     01/01/2019 13:04:53
00028 suncat0021 pw.x -in pw.inp   Done                     01/01/2019 13:04:53
00029 suncat0021 pw.x -in pw.inp   Done                     01/01/2019 13:04:53
00030 suncat0021 pw.x -in pw.inp   Done                     01/01/2019 13:04:53
00031 suncat0021 pw.x -in pw.inp   Done                     01/01/2019 13:04:53
00032 suncat0010 pw.x -in pw.inp   Done                     01/01/2019 13:04:53
00033 suncat0010 pw.x -in pw.inp   Done                     01/01/2019 13:04:53
00034 suncat0010 pw.x -in pw.inp   Done                     01/01/2019 13:04:53
00035 suncat0010 pw.x -in pw.inp   Done                     01/01/2019 13:04:53
00036 suncat0010 pw.x -in pw.inp   Done                     01/01/2019 13:04:53
00037 suncat0010 pw.x -in pw.inp   Done                     01/01/2019 13:04:53
00038 suncat0010 pw.x -in pw.inp   Done                     01/01/2019 13:04:53
00039 suncat0010 pw.x -in pw.inp   Done                     01/01/2019 13:04:53
00040 suncat0191 pw.x -in pw.inp   Done                     01/01/2019 13:04:53
00041 suncat0191 pw.x -in pw.inp   Done                     01/01/2019 13:04:53
00042 suncat0191 pw.x -in pw.inp   Done                     01/01/2019 13:04:53
00043 suncat0191 pw.x -in pw.inp   Done                     01/01/2019 13:04:53
00044 suncat0191 pw.x -in pw.inp   Done                     01/01/2019 13:04:53
00045 suncat0191 pw.x -in pw.inp   Done                     01/01/2019 13:04:53
00046 suncat0191 pw.x -in pw.inp   Done                     01/01/2019 13:04:53
00047 suncat0191 pw.x -in pw.inp   Done                     01/01/2019 13:04:53
00048 suncat0007 pw.x -in pw.inp   Done                     01/01/2019 13:04:53
00049 suncat0007 pw.x -in pw.inp   Done                     01/01/2019 13:04:53
00050 suncat0007 pw.x -in pw.inp   Done                     01/01/2019 13:04:53
00051 suncat0007 pw.x -in pw.inp   Done                     01/01/2019 13:04:53
00052 suncat0007 pw.x -in pw.inp   Done                     01/01/2019 13:04:53
00053 suncat0007 pw.x -in pw.inp   Done                     01/01/2019 13:04:53
00054 suncat0007 pw.x -in pw.inp   Done                     01/01/2019 13:04:53
00055 suncat0007 pw.x -in pw.inp   Done                     01/01/2019 13:04:53
00056 suncat0100 pw.x -in pw.inp   Done                     01/01/2019 13:04:53
00057 suncat0100 pw.x -in pw.inp   Done                     01/01/2019 13:04:53
00058 suncat0100 pw.x -in pw.inp   Done                     01/01/2019 13:04:53
00059 suncat0100 pw.x -in pw.inp   Done                     01/01/2019 13:04:53
00060 suncat0100 pw.x -in pw.inp   Done                     01/01/2019 13:04:53
00061 suncat0100 pw.x -in pw.inp   Done                     01/01/2019 13:04:53
00062 suncat0100 pw.x -in pw.inp   Done                     01/01/2019 13:04:53
00063 suncat0100 pw.x -in pw.inp   Done                     01/01/2019 13:04:53