     Program PWSCF v.5.1rc2 (svn rev. 11289) starts on 30Dec2018 at 14:21:17

     Current dimensions of program PWSCF are:
     Max number of different atomic species (ntypx) = 10
     Max number of k-points (npk) =  40000
     Max angular momentum in pseudopotentials (lmaxx) =  3
     Presently stress not available with electric field

     IMPORTANT: XC functional enforced from input :
     Exchange-correlation      = BEEF-VDW ( 1  4 27 13 2)
     Any further DFT definition will be discarded
     Please, verify this is what you really want

     Subspace diagonalization in iterative solution of the eigenvalue problem:
     a serial algorithm will be used

     Generating pointlists ...
     new r_m :   0.4125 (alat units)  0.7795 (a.u.) for type    1
     new r_m :   0.4125 (alat units)  0.7795 (a.u.) for type    2

     bravais-lattice index     =            0
     lattice parameter (alat)  =       1.8897  a.u.
     unit-cell volume          =    4392.2337 (a.u.)^3
     number of atoms/cell      =           12
     number of atomic types    =            2
     number of electrons       =       171.00
     number of Kohn-Sham states=          115
     kinetic-energy cutoff     =      36.7493  Ry
     charge density cutoff     =     367.4932  Ry
     convergence threshold     =      1.0E-06
     mixing beta               =       0.1000
     number of iterations used =           10  plain     mixing
     Exchange-correlation      = BEEF-VDW ( 1  4 27 13 2)
     nstep                     =           50

     celldm(1)=   1.889726  celldm(2)=   0.000000  celldm(3)=   0.000000
     celldm(4)=   0.000000  celldm(5)=   0.000000  celldm(6)=   0.000000

     crystal axes: (cart. coord. in units of alat)
               a(1) = (   5.536253   0.000000   0.000000 )
               a(2) = (  -2.768127   4.794536   0.000000 )
               a(3) = (   0.000000   0.000000  24.520332 )

     reciprocal axes: (cart. coord. in units 2 pi/alat)
               b(1) = (  0.180628  0.104285  0.000000 )
               b(2) = (  0.000000  0.208571  0.000000 )
               b(3) = (  0.000000  0.000000  0.040782 )

     PseudoPot. # 1 for Mn read from file:
     /afs/slac.stanford.edu/u/if/mamunm/psp/gbrv1.5pbe/Mn.UPF
     MD5 check sum: 82ef2b46521d7a7d9e736dc3972e4928
     Pseudo is Ultrasoft + core correction, Zval = 15.0
     Generated by new atomic code, or converted to UPF format
     Using radial grid of  859 points,  6 beta functions with:
                l(1) =   0
                l(2) =   0
                l(3) =   1
                l(4) =   1
                l(5) =   2
                l(6) =   2
     Q(r) pseudized with  8 coefficients,  rinner =    0.950   0.950   0.950
                                                       0.950   0.950

     PseudoPot. # 2 for Hf read from file:
     /afs/slac.stanford.edu/u/if/mamunm/psp/gbrv1.5pbe/Hf.UPF
     MD5 check sum: 8ee9378dfe14276e333edf04c5e4aa26
     Pseudo is Ultrasoft + core correction, Zval = 12.0
     Generated by new atomic code, or converted to UPF format
     Using radial grid of  921 points,  8 beta functions with:
                l(1) =   0
                l(2) =   0
                l(3) =   0
                l(4) =   1
                l(5) =   1
                l(6) =   2
                l(7) =   2
                l(8) =   3
     Q(r) pseudized with  6 coefficients,  rinner =    1.200   1.200   1.200
                                                       1.200   1.200   1.200
                                                       1.200

     vdW kernel table read from file vdW_kernel_table
     MD5 check sum: 095c7af220d748ca6e76c0b4c6cfb241

     atomic species   valence    mass     pseudopotential
        Mn1           15.00    54.93804     Mn( 1.00)
        Hf1           12.00   178.49000     Hf( 1.00)

     Starting magnetic structure
     atomic species   magnetization
        Mn1          0.133
        Hf1          0.167

     No symmetry found

   Cartesian axes

     site n.     atom                  positions (alat units)
         1           Mn1 tau(   1) = (   0.0000000   0.0000000  10.0000000  )
         2           Mn1 tau(   2) = (  -1.3840633   2.3972679  10.0000000  )
         3           Mn1 tau(   3) = (   1.3840633   2.3972679  10.0000000  )
         4           Hf1 tau(   4) = (   2.7681265   0.0000000  10.0000000  )
         5           Mn1 tau(   5) = (   2.7681265   1.5981786  12.2601658  )
         6           Mn1 tau(   6) = (   1.3840633   3.9954465  12.2601658  )
         7           Mn1 tau(   7) = (  -1.3840633   3.9954465  12.2601658  )
         8           Hf1 tau(   8) = (   0.0000000   1.5981786  12.2601658  )
         9           Mn1 tau(   9) = (  -0.0000000   3.1963572  14.5203317  )
        10           Mn1 tau(  10) = (   1.3840633   0.7990893  14.5203317  )
        11           Mn1 tau(  11) = (   4.1521898   0.7990893  14.5203317  )
        12           Hf1 tau(  12) = (   2.7681265   3.1963572  14.5203317  )

     number of k points=    40  Fermi-Dirac smearing, width (Ry)=  0.0110
                       cart. coord. in units 2pi/alat
        k(    1) = (   0.0000000   0.0000000   0.0000000), wk =   0.0277778
        k(    2) = (   0.0000000   0.0347618   0.0000000), wk =   0.0555556
        k(    3) = (   0.0000000   0.0695236   0.0000000), wk =   0.0555556
        k(    4) = (   0.0000000  -0.1042854   0.0000000), wk =   0.0277778
        k(    5) = (   0.0301046   0.0173809   0.0000000), wk =   0.0555556
        k(    6) = (   0.0301046   0.0521427   0.0000000), wk =   0.0555556
        k(    7) = (   0.0301046   0.0869045   0.0000000), wk =   0.0555556
        k(    8) = (   0.0301046  -0.0869045   0.0000000), wk =   0.0555556
        k(    9) = (   0.0301046  -0.0521427   0.0000000), wk =   0.0555556
        k(   10) = (   0.0301046  -0.0173809   0.0000000), wk =   0.0555556
        k(   11) = (   0.0602092   0.0347618   0.0000000), wk =   0.0555556
        k(   12) = (   0.0602092   0.0695236   0.0000000), wk =   0.0555556
        k(   13) = (   0.0602092   0.1042854   0.0000000), wk =   0.0555556
        k(   14) = (   0.0602092  -0.0695236   0.0000000), wk =   0.0555556
        k(   15) = (   0.0602092  -0.0347618   0.0000000), wk =   0.0555556
        k(   16) = (   0.0602092   0.0000000   0.0000000), wk =   0.0555556
        k(   17) = (  -0.0903138  -0.0521427   0.0000000), wk =   0.0277778
        k(   18) = (  -0.0903138  -0.0173809   0.0000000), wk =   0.0555556
        k(   19) = (  -0.0903138   0.0173809   0.0000000), wk =   0.0555556
        k(   20) = (  -0.0903138  -0.1564281   0.0000000), wk =   0.0277778
        k(   21) = (   0.0000000   0.0000000   0.0000000), wk =   0.0277778
        k(   22) = (   0.0000000   0.0347618   0.0000000), wk =   0.0555556
        k(   23) = (   0.0000000   0.0695236   0.0000000), wk =   0.0555556
        k(   24) = (   0.0000000  -0.1042854   0.0000000), wk =   0.0277778
        k(   25) = (   0.0301046   0.0173809   0.0000000), wk =   0.0555556
        k(   26) = (   0.0301046   0.0521427   0.0000000), wk =   0.0555556
        k(   27) = (   0.0301046   0.0869045   0.0000000), wk =   0.0555556
        k(   28) = (   0.0301046  -0.0869045   0.0000000), wk =   0.0555556
        k(   29) = (   0.0301046  -0.0521427   0.0000000), wk =   0.0555556
        k(   30) = (   0.0301046  -0.0173809   0.0000000), wk =   0.0555556
        k(   31) = (   0.0602092   0.0347618   0.0000000), wk =   0.0555556
        k(   32) = (   0.0602092   0.0695236   0.0000000), wk =   0.0555556
        k(   33) = (   0.0602092   0.1042854   0.0000000), wk =   0.0555556
        k(   34) = (   0.0602092  -0.0695236   0.0000000), wk =   0.0555556
        k(   35) = (   0.0602092  -0.0347618   0.0000000), wk =   0.0555556
        k(   36) = (   0.0602092   0.0000000   0.0000000), wk =   0.0555556
        k(   37) = (  -0.0903138  -0.0521427   0.0000000), wk =   0.0277778
        k(   38) = (  -0.0903138  -0.0173809   0.0000000), wk =   0.0555556
        k(   39) = (  -0.0903138   0.0173809   0.0000000), wk =   0.0555556
        k(   40) = (  -0.0903138  -0.1564281   0.0000000), wk =   0.0277778

     Largest allocated arrays     est. size (Mb)     dimensions
     Largest temporary arrays     est. size (Mb)     dimensions

     Check: negative/imaginary core charge=   -0.000007    0.000000

     Initial potential from superposition of free atoms
     Check: negative starting charge=(component1):   -0.188510
     Check: negative starting charge=(component2):   -0.134654

     starting charge  160.49923, renormalised to  171.00000

     negative rho (up, down):  2.008E-01 1.435E-01

     *
     * You are using vdW-DF for exchange-correlation in this calculation.
     * Please cite the following three references that made this development
     * possible:
     *
     *   M. Dion, H. Rydberg, E. Schroder, D. C. Langreth, and
     *   B. I. Lundqvist, Phys. Rev. Lett. 92, 246401 (2004).
     *
     *   T. Thonhauser, V. R. Cooper, S. Li, A. Puzder, P. Hyldgaard, and
     *   D. C. Langreth, Phys. Rev. B 76, 125112 (2007).
     *
     *   G. Roman-Perez and J. M. Soler, Phys. Rev. Lett. 103, 096102 (2009).
     *
     *
     * If you are using vdW-DF2, please also cite:
     *
     *   K. Lee, E. D. Murray, L. Kong, B. I. Lundqvist, and
     *   D. C. Langreth, Phys. Rev. B 82, 081101(R) (2010).
     *
     *
     * If you are calculating the stress with vdW-DF, please also cite:
     *
     *   R. Sabatini, E. Kucukbenli, B. Kolb, T. Thonhauser, and
     *   S. de Gironcoli, J. Phys.: Condens. Matter 24, 424209 (2012).
     *

     Carrying out vdW-DF run using the following parameters:

     Nqs =      20    Nr_points =    1024   r_max =   100.000
     q_mesh =
               0.00001000     0.04494208     0.09755937     0.15916263
               0.23128650     0.31572767     0.41458969     0.53033537
               0.66584808     0.82450364     1.01025438     1.22772762
               1.48234092     1.78043706     2.12944203     2.53805004
               3.01644009     3.57652955     4.23227104     5.00000000

     Gradients computed in reciprocal space

     Adding external electric field

     Computed dipole along edir(3) :
        Dipole                0.0000 Ry au,          0.0000 Debye
        Dipole field          0.0000 Ry au

        Potential amp.       -0.0000 Ry
        Total length         45.1783 bohr

[...]

     Starting wfc are  156 randomized atomic wfcs

     Self-consistent Calculation

     iteration #  1     ecut=    36.75 Ry     beta=0.10
     Davidson diagonalization with overlap
     ethr =  1.00E-02,  avg # of iterations =  8.2

[...]

     Magnetic moment per site:
     atom:    1    charge:    6.1454    magn:    0.7757    constr:    0.0000
     atom:    2    charge:    6.1454    magn:    0.7757    constr:    0.0000
     atom:    3    charge:    6.1454    magn:    0.7757    constr:    0.0000
     atom:    4    charge:    1.1838    magn:    0.1787    constr:    0.0000
     atom:    5    charge:    6.1561    magn:    0.7778    constr:    0.0000
     atom:    6    charge:    6.1561    magn:    0.7778    constr:    0.0000
[...]
        k(    3) = (   0.0000000   0.0695236   0.0000000), wk =   0.0555556
        k(    4) = (   0.0000000  -0.1042854   0.0000000), wk =   0.0277778
        k(    5) = (   0.0301046   0.0173809   0.0000000), wk =   0.0555556
        k(    6) = (   0.0301046   0.0521427   0.0000000), wk =   0.0555556
        k(    7) = (   0.0301046   0.0869045   0.0000000), wk =   0.0555556
        k(    8) = (   0.0301046  -0.0869045   0.0000000), wk =   0.0555556
        k(    9) = (   0.0301046  -0.0521427   0.0000000), wk =   0.0555556
        k(   10) = (   0.0301046  -0.0173809   0.0000000), wk =   0.0555556
        k(   11) = (   0.0602092   0.0347618   0.0000000), wk =   0.0555556
        k(   12) = (   0.0602092   0.0695236   0.0000000), wk =   0.0555556
        k(   13) = (   0.0602092   0.1042854   0.0000000), wk =   0.0555556
        k(   14) = (   0.0602092  -0.0695236   0.0000000), wk =   0.0555556
        k(   15) = (   0.0602092  -0.0347618   0.0000000), wk =   0.0555556
        k(   16) = (   0.0602092   0.0000000   0.0000000), wk =   0.0555556
        k(   17) = (  -0.0903138  -0.0521427   0.0000000), wk =   0.0277778
        k(   18) = (  -0.0903138  -0.0173809   0.0000000), wk =   0.0555556
        k(   19) = (  -0.0903138   0.0173809   0.0000000), wk =   0.0555556
        k(   20) = (  -0.0903138  -0.1564281   0.0000000), wk =   0.0277778
        k(   21) = (   0.0000000   0.0000000   0.0000000), wk =   0.0277778
        k(   22) = (   0.0000000   0.0347618   0.0000000), wk =   0.0555556
        k(   23) = (   0.0000000   0.0695236   0.0000000), wk =   0.0555556
        k(   24) = (   0.0000000  -0.1042854   0.0000000), wk =   0.0277778
        k(   25) = (   0.0301046   0.0173809   0.0000000), wk =   0.0555556
        k(   26) = (   0.0301046   0.0521427   0.0000000), wk =   0.0555556
        k(   27) = (   0.0301046   0.0869045   0.0000000), wk =   0.0555556
        k(   28) = (   0.0301046  -0.0869045   0.0000000), wk =   0.0555556
        k(   29) = (   0.0301046  -0.0521427   0.0000000), wk =   0.0555556
        k(   30) = (   0.0301046  -0.0173809   0.0000000), wk =   0.0555556
        k(   31) = (   0.0602092   0.0347618   0.0000000), wk =   0.0555556
        k(   32) = (   0.0602092   0.0695236   0.0000000), wk =   0.0555556
        k(   33) = (   0.0602092   0.1042854   0.0000000), wk =   0.0555556
        k(   34) = (   0.0602092  -0.0695236   0.0000000), wk =   0.0555556
        k(   35) = (   0.0602092  -0.0347618   0.0000000), wk =   0.0555556
        k(   36) = (   0.0602092   0.0000000   0.0000000), wk =   0.0555556
        k(   37) = (  -0.0903138  -0.0521427   0.0000000), wk =   0.0277778
        k(   38) = (  -0.0903138  -0.0173809   0.0000000), wk =   0.0555556
        k(   39) = (  -0.0903138   0.0173809   0.0000000), wk =   0.0555556
        k(   40) = (  -0.0903138  -0.1564281   0.0000000), wk =   0.0277778

     Largest allocated arrays     est. size (Mb)     dimensions
     Largest temporary arrays     est. size (Mb)     dimensions

     Check: negative/imaginary core charge=   -0.000007    0.000000

     Initial potential from superposition of free atoms
     Check: negative starting charge=(component1):   -0.188480
     Check: negative starting charge=(component2):   -0.134632

     starting charge  160.49923, renormalised to  171.00000

[...]

     *
     * You are using vdW-DF for exchange-correlation in this calculation.
     * Please cite the following three references that made this development
     * possible:
     *
     *   M. Dion, H. Rydberg, E. Schroder, D. C. Langreth, and
     *   B. I. Lundqvist, Phys. Rev. Lett. 92, 246401 (2004).
     *
     *   T. Thonhauser, V. R. Cooper, S. Li, A. Puzder, P. Hyldgaard, and
     *   D. C. Langreth, Phys. Rev. B 76, 125112 (2007).
     *
     *   G. Roman-Perez and J. M. Soler, Phys. Rev. Lett. 103, 096102 (2009).
     *
     *
     * If you are using vdW-DF2, please also cite:
     *
     *   K. Lee, E. D. Murray, L. Kong, B. I. Lundqvist, and
     *   D. C. Langreth, Phys. Rev. B 82, 081101(R) (2010).
     *
     *
     * If you are calculating the stress with vdW-DF, please also cite:
     *
     *   R. Sabatini, E. Kucukbenli, B. Kolb, T. Thonhauser, and
     *   S. de Gironcoli, J. Phys.: Condens. Matter 24, 424209 (2012).
     *

     Carrying out vdW-DF run using the following parameters:

     Nqs =      20    Nr_points =    1024   r_max =   100.000
     q_mesh =
               0.00001000     0.04494208     0.09755937     0.15916263
               0.23128650     0.31572767     0.41458969     0.53033537
               0.66584808     0.82450364     1.01025438     1.22772762
               1.48234092     1.78043706     2.12944203     2.53805004
               3.01644009     3.57652955     4.23227104     5.00000000

     Gradients computed in reciprocal space

[...]

     Starting wfc are  156 randomized atomic wfcs

     Self-consistent Calculation

[...]

     total energy              =   -2390.65473084 Ry
     Harris-Foulkes estimate   =   -2390.65472935 Ry
     estimated scf accuracy    <       0.00000104 Ry

[...]

     iteration # 38     ecut=    36.75 Ry     beta=0.10
     Davidson diagonalization with overlap
     ethr =  6.06E-10,  avg # of iterations =  3.0

[...]

     negative rho (up, down):  1.747E-01 1.688E-01

[...]

     Adding external electric field

     Computed dipole along edir(3) :
        Dipole               -0.0057 Ry au,         -0.0145 Debye
        Dipole field         -0.0000 Ry au

        Potential amp.        0.0015 Ry
        Total length         45.1783 bohr

     Magnetic moment per site:
     atom:    1    charge:    5.9946    magn:    1.3331    constr:    0.0000
     atom:    2    charge:    5.9946    magn:    1.3331    constr:    0.0000
     atom:    3    charge:    5.9946    magn:    1.3331    constr:    0.0000
     atom:    4    charge:    1.1358    magn:   -0.0114    constr:    0.0000
     atom:    5    charge:    5.9861    magn:    1.1673    constr:    0.0000
     atom:    6    charge:    5.9861    magn:    1.1673    constr:    0.0000
     atom:    7    charge:    5.9861    magn:    1.1673    constr:    0.0000
     atom:    8    charge:    1.1404    magn:   -0.0125    constr:    0.0000
     atom:    9    charge:    6.0075    magn:    1.3454    constr:    0.0000
     atom:   10    charge:    6.0075    magn:    1.3453    constr:    0.0000
     atom:   11    charge:    6.0075    magn:    1.3452    constr:    0.0000
     atom:   12    charge:    1.1421    magn:   -0.0110    constr:    0.0000

     End of self-consistent calculation

 ------ SPIN UP ------------

[...]

 ------ SPIN DOWN ----------

[...]

          k = 0.0602 0.0000 0.0000 ( 16498 PWs)   bands (ev):

[...]

          k =-0.0903-0.1564 0.0000 ( 16528 PWs)   bands (ev):

   -75.9524 -75.9452 -75.9381 -75.8688 -75.8621 -75.8589 -75.8553 -75.8513
   -75.8447 -61.1199 -61.0092 -60.7232 -44.8498 -44.8176 -44.8001 -44.7848
   -44.7773 -44.7694 -44.7681 -44.7515 -44.7454 -44.7337 -44.7196 -44.7094
   -44.6977 -44.6841 -44.6755 -44.6635 -44.6451 -44.6314 -44.6167 -44.6021
   -44.5852 -44.5812 -44.5744 -44.5580 -44.5457 -44.5410 -44.5305 -29.7938
   -29.7179 -29.7082 -29.6884 -29.6272 -29.6177 -29.3784 -29.3734 -29.3689
    -3.9275  -3.6847  -2.5375  -2.0246  -1.6107  -1.1820  -1.0985  -0.8573
    -0.7843  -0.4585  -0.2197  -0.0061   0.1724   0.2107   0.3413   0.4805
     0.4904   0.5375   0.7379   0.8320   0.8657   0.8866   1.0187   1.0934
     1.1261   1.2437   1.3040   1.3696   1.4401   1.4769   1.5479   1.6198
     1.9031   1.9751   2.0346   2.0862   2.1507   2.1735   2.3798   2.5722
     2.5888   2.7388   2.8629   2.9313   2.9357   3.0200   3.0852   3.1099
     3.2345   3.2991   3.4199   3.5339   3.5495   3.9258   3.9338   3.9874
     4.1591   4.2269   4.2765   4.4539   4.5973   4.7122   4.8112   4.9055
     5.0220   5.1041   5.6658

     the Fermi energy is     1.2347 ev

!    total energy              =   -2390.65473587 Ry
     Harris-Foulkes estimate   =   -2390.65473101 Ry
     estimated scf accuracy    <       0.00000059 Ry

     The total energy is the sum of the following terms:

     one-electron contribution =  -17142.11961896 Ry
     hartree contribution      =    8565.24520634 Ry
     xc contribution           =    -481.00048864 Ry
     ewald contribution        =    6667.29604018 Ry
     electric field correction =       0.00000009 Ry
     smearing contrib. (-TS)   =      -0.07587488 Ry

     total magnetization       =    28.14 Bohr mag/cell
     absolute magnetization    =    31.75 Bohr mag/cell

     convergence has been achieved in  38 iterations

 BEEF-vdW xc energy contributions
           1 :   -427.251754918194
           2 :    391.437688810695
           3 :   -330.270863686740
           4 :    259.618197758988
           5 :   -194.039544635802
           6 :    142.059066143109
           7 :   -105.290543359210
           8 :    80.6517356205972
           9 :   -63.6313150834528
          10 :    50.7174353761304
          11 :   -40.2208990336324
          12 :    31.7432542956294
          13 :   -25.1830377588486
          14 :    20.0802256606357
          15 :   -15.6201904924321
          16 :    11.0270312635982
          17 :   -5.94442070069113
          18 :   0.562589308343263
          19 :    4.47319360311337
          20 :   -8.30134496181279
          21 :    10.1610090068671
          22 :   -9.73536273944922
          23 :    7.37527016210288
          24 :   -4.07388629563150
          25 :    1.13268844028426
          26 :   0.352727586966239
          27 :   4.858891513651997E-002
          28 :   -1.96457810496469
          29 :    4.47957542551200
          30 :   -6.64104597628693
          31 :   -34.6732646959013
          32 :   -24.7063318956880

     Forces acting on atoms (Ry/au):

     negative rho (up, down):  1.747E-01 1.688E-01
     atom    1 type  1   force =    -0.00000439   -0.00532619   -0.00169475
     atom    2 type  1   force =    -0.00460891    0.00266121   -0.00170136
     atom    3 type  1   force =     0.00460934    0.00266670   -0.00169480
     atom    4 type  2   force =    -0.00001418    0.00000604    0.01544324
     atom    5 type  1   force =    -0.00000270   -0.00473669   -0.00564414
     atom    6 type  1   force =    -0.00409892    0.00236453   -0.00563907
     atom    7 type  1   force =     0.00409911    0.00236763   -0.00563727
     atom    8 type  2   force =    -0.00000770   -0.00000875    0.00584340
     atom    9 type  1   force =     0.00000846   -0.00069726    0.00042366
     atom   10 type  1   force =    -0.00059761    0.00035300    0.00041323
     atom   11 type  1   force =     0.00060065    0.00034500    0.00040896
     atom   12 type  2   force =     0.00001684    0.00000478   -0.00052109

     Total force =     0.023049     Total SCF correction =     0.003219
     SCF correction compared to forces is large: reduce conv_thr to get better values

     entering subroutine stress ...

     negative rho (up, down):  1.747E-01 1.688E-01
          total   stress  (Ry/bohr**3)                   (kbar)     P=   -1.07
   0.00000612   0.00000000   0.00000001          0.90      0.00      0.00
   0.00000000   0.00000613   0.00000000          0.00      0.90      0.00
   0.00000001   0.00000000  -0.00003416          0.00      0.00     -5.03

 !ASE

     Writing output data file calc.save

     General routines

     Parallel routines

   This run was terminated on:  20: 2:36  30Dec2018

   JOB DONE.
Job  /afs/slac/g/suncat/bin/suncat-tsmpirun -x LD_LIBRARY_PATH -wdir /scratch/qe648576_1GTOK pw.x -in pw.inp

TID   HOST_NAME   COMMAND_LINE            STATUS            TERMINATION_TIME
00000 suncat0156 pw.x -in pw.inp   Done                     12/30/2018 20:02:36
00001 suncat0156 pw.x -in pw.inp   Done                     12/30/2018 20:02:36
00002 suncat0156 pw.x -in pw.inp   Done                     12/30/2018 20:02:36
00003 suncat0156 pw.x -in pw.inp   Done                     12/30/2018 20:02:36
00004 suncat0156 pw.x -in pw.inp   Done                     12/30/2018 20:02:36
00005 suncat0156 pw.x -in pw.inp   Done                     12/30/2018 20:02:36
00006 suncat0156 pw.x -in pw.inp   Done                     12/30/2018 20:02:36
00007 suncat0156 pw.x -in pw.inp   Done                     12/30/2018 20:02:36
00008 suncat0153 pw.x -in pw.inp   Done                     12/30/2018 20:02:36
00009 suncat0153 pw.x -in pw.inp   Done                     12/30/2018 20:02:36
00010 suncat0153 pw.x -in pw.inp   Done                     12/30/2018 20:02:36
00011 suncat0153 pw.x -in pw.inp   Done                     12/30/2018 20:02:36
00012 suncat0153 pw.x -in pw.inp   Done                     12/30/2018 20:02:36
00013 suncat0153 pw.x -in pw.inp   Done                     12/30/2018 20:02:36
00014 suncat0153 pw.x -in pw.inp   Done                     12/30/2018 20:02:36
00015 suncat0153 pw.x -in pw.inp   Done                     12/30/2018 20:02:36
00016 suncat0145 pw.x -in pw.inp   Done                     12/30/2018 20:02:36
00017 suncat0145 pw.x -in pw.inp   Done                     12/30/2018 20:02:36
00018 suncat0145 pw.x -in pw.inp   Done                     12/30/2018 20:02:36
00019 suncat0145 pw.x -in pw.inp   Done                     12/30/2018 20:02:36
00020 suncat0145 pw.x -in pw.inp   Done                     12/30/2018 20:02:36
00021 suncat0145 pw.x -in pw.inp   Done                     12/30/2018 20:02:36
00022 suncat0145 pw.x -in pw.inp   Done                     12/30/2018 20:02:36
00023 suncat0145 pw.x -in pw.inp   Done                     12/30/2018 20:02:36
00024 suncat0144 pw.x -in pw.inp   Done                     12/30/2018 20:02:36
00025 suncat0144 pw.x -in pw.inp   Done                     12/30/2018 20:02:36
00026 suncat0144 pw.x -in pw.inp   Done                     12/30/2018 20:02:36
00027 suncat0144 pw.x -in pw.inp   Done                     12/30/2018 20:02:36
00028 suncat0144 pw.x -in pw.inp   Done                     12/30/2018 20:02:36
00029 suncat0144 pw.x -in pw.inp   Done                     12/30/2018 20:02:36
00030 suncat0144 pw.x -in pw.inp   Done                     12/30/2018 20:02:36
00031 suncat0144 pw.x -in pw.inp   Done                     12/30/2018 20:02:36
00032 suncat0133 pw.x -in pw.inp   Done                     12/30/2018 20:02:36
00033 suncat0133 pw.x -in pw.inp   Done                     12/30/2018 20:02:36
00034 suncat0133 pw.x -in pw.inp   Done                     12/30/2018 20:02:36
00035 suncat0133 pw.x -in pw.inp   Done                     12/30/2018 20:02:36
00036 suncat0133 pw.x -in pw.inp   Done                     12/30/2018 20:02:36
00037 suncat0133 pw.x -in pw.inp   Done                     12/30/2018 20:02:36
00038 suncat0133 pw.x -in pw.inp   Done                     12/30/2018 20:02:36
00039 suncat0133 pw.x -in pw.inp   Done                     12/30/2018 20:02:36
00040 suncat0132 pw.x -in pw.inp   Done                     12/30/2018 20:02:36
00041 suncat0132 pw.x -in pw.inp   Done                     12/30/2018 20:02:36
00042 suncat0132 pw.x -in pw.inp   Done                     12/30/2018 20:02:36
00043 suncat0132 pw.x -in pw.inp   Done                     12/30/2018 20:02:36
00044 suncat0132 pw.x -in pw.inp   Done                     12/30/2018 20:02:36
00045 suncat0132 pw.x -in pw.inp   Done                     12/30/2018 20:02:36
00046 suncat0132 pw.x -in pw.inp   Done                     12/30/2018 20:02:36
00047 suncat0132 pw.x -in pw.inp   Done                     12/30/2018 20:02:36
00048 suncat0131 pw.x -in pw.inp   Done                     12/30/2018 20:02:36
00049 suncat0131 pw.x -in pw.inp   Done                     12/30/2018 20:02:36
00050 suncat0131 pw.x -in pw.inp   Done                     12/30/2018 20:02:36
00051 suncat0131 pw.x -in pw.inp   Done                     12/30/2018 20:02:36
00052 suncat0131 pw.x -in pw.inp   Done                     12/30/2018 20:02:36
00053 suncat0131 pw.x -in pw.inp   Done                     12/30/2018 20:02:36
00054 suncat0131 pw.x -in pw.inp   Done                     12/30/2018 20:02:36
00055 suncat0131 pw.x -in pw.inp   Done                     12/30/2018 20:02:36
00056 suncat0130 pw.x -in pw.inp   Done                     12/30/2018 20:02:36
00057 suncat0130 pw.x -in pw.inp   Done                     12/30/2018 20:02:36
00058 suncat0130 pw.x -in pw.inp   Done                     12/30/2018 20:02:36
00059 suncat0130 pw.x -in pw.inp   Done                     12/30/2018 20:02:36
00060 suncat0130 pw.x -in pw.inp   Done                     12/30/2018 20:02:36
00061 suncat0130 pw.x -in pw.inp   Done                     12/30/2018 20:02:36
00062 suncat0130 pw.x -in pw.inp   Done                     12/30/2018 20:02:36
00063 suncat0130 pw.x -in pw.inp   Done                     12/30/2018 20:02:36