     Program PWSCF v.5.1rc2 (svn rev. 11289) starts on  1Jan2019 at  9:16: 1

     Current dimensions of program PWSCF are:
     Max number of different atomic species (ntypx) = 10
     Max number of k-points (npk) =  40000
     Max angular momentum in pseudopotentials (lmaxx) =  3
     Presently stress not available with electric field

     IMPORTANT: XC functional enforced from input :
     Exchange-correlation      = BEEF-VDW ( 1  4 27 13 2)
     Any further DFT definition will be discarded
     Please, verify this is what you really want

     Subspace diagonalization in iterative solution of the eigenvalue problem:
     a serial algorithm will be used

     bravais-lattice index     =            0
     lattice parameter (alat)  =       1.8897  a.u.
     unit-cell volume          =    5586.7651 (a.u.)^3
     number of atoms/cell      =           12
     number of atomic types    =            2
     number of electrons       =       147.00
     number of Kohn-Sham states=          103
     kinetic-energy cutoff     =      36.7493  Ry
     charge density cutoff     =     367.4932  Ry
     convergence threshold     =      1.0E-06
     mixing beta               =       0.1000
     number of iterations used =           10  plain     mixing
     Exchange-correlation      = BEEF-VDW ( 1  4 27 13 2)
     nstep                     =           50

     celldm(1)=   1.889726  celldm(2)=   0.000000  celldm(3)=   0.000000
     celldm(4)=   0.000000  celldm(5)=   0.000000  celldm(6)=   0.000000

     crystal axes: (cart. coord. in units of alat)
               a(1) = (   6.178182   0.000000   0.000000 )
               a(2) = (  -3.089091   5.350463   0.000000 )
               a(3) = (   0.000000   0.000000  25.044465 )

     reciprocal axes: (cart. coord. in units 2 pi/alat)
               b(1) = (  0.161860  0.093450  0.000000 )
               b(2) = (  0.000000  0.186900  0.000000 )
               b(3) = (  0.000000  0.000000  0.039929 )

     PseudoPot. # 1 for Sc read from file:
     /afs/slac.stanford.edu/u/if/mamunm/psp/gbrv1.5pbe/Sc.UPF
     MD5 check sum: db30a2753ba66ef00f23801d899b7e7f
     Pseudo is Ultrasoft + core correction, Zval = 11.0
     Generated by new atomic code, or converted to UPF format
     Using radial grid of  849 points,  6 beta functions with:
                l(1) =   0
                l(2) =   0
                l(3) =   1
                l(4) =   1
                l(5) =   2
                l(6) =   2
     Q(r) pseudized with  6 coefficients,  rinner =    1.200   1.200   1.200
                                                       1.200   1.200

     PseudoPot. # 2 for Pd read from file:
     /afs/slac.stanford.edu/u/if/mamunm/psp/gbrv1.5pbe/Pd.UPF
     MD5 check sum: 2d733d2bc2cbfd217af676df1668a4bc
     Pseudo is Ultrasoft + core correction, Zval = 16.0
     Generated by new atomic code, or converted to UPF format
     Using radial grid of  887 points,  6 beta functions with:
                l(1) =   0
                l(2) =   0
                l(3) =   1
                l(4) =   1
                l(5) =   2
                l(6) =   2
     Q(r) pseudized with  8 coefficients,  rinner =    1.130   1.130   1.130
                                                       1.130   1.130

     vdW kernel table read from file vdW_kernel_table
     MD5 check sum: 095c7af220d748ca6e76c0b4c6cfb241

     atomic species   valence    mass     pseudopotential
        Sc1           11.00    44.95591     Sc( 1.00)
        Pd1           16.00   106.42000     Pd( 1.00)

     No symmetry found

   Cartesian axes

     site n.     atom                  positions (alat units)
         1           Sc1 tau(   1) = (   0.0000000   0.0000000  10.0000000  )
         2           Sc1 tau(   2) = (  -1.5445456   2.6752314  10.0000000  )
         3           Sc1 tau(   3) = (   1.5445456   2.6752314  10.0000000  )
         4           Pd1 tau(   4) = (   3.0890911   0.0000000  10.0000000  )
         5           Sc1 tau(   5) = (   3.0890911   1.7834876  12.5222323  )
         6           Sc1 tau(   6) = (   1.5445456   4.4587190  12.5222323  )
         7           Sc1 tau(   7) = (  -1.5445456   4.4587190  12.5222323  )
         8           Pd1 tau(   8) = (   0.0000000   1.7834876  12.5222323  )
         9           Sc1 tau(   9) = (  -0.0000000   3.5669752  15.0444647  )
        10           Sc1 tau(  10) = (   1.5445456   0.8917438  15.0444647  )
        11           Sc1 tau(  11) = (   4.6336367   0.8917438  15.0444647  )
        12           Pd1 tau(  12) = (   3.0890911   3.5669752  15.0444647  )

     number of k points=    20  Fermi-Dirac smearing, width (Ry)=  0.0110
                       cart. coord. in units 2pi/alat
        k(    1) = (   0.0000000   0.0000000   0.0000000), wk =   0.0555556
        k(    2) = (   0.0000000   0.0311500   0.0000000), wk =   0.1111111
        k(    3) = (   0.0000000   0.0622999   0.0000000), wk =   0.1111111
        k(    4) = (   0.0000000  -0.0934499   0.0000000), wk =   0.0555556
        k(    5) = (   0.0269767   0.0155750   0.0000000), wk =   0.1111111
        k(    6) = (   0.0269767   0.0467249   0.0000000), wk =   0.1111111
        k(    7) = (   0.0269767   0.0778749   0.0000000), wk =   0.1111111
        k(    8) = (   0.0269767  -0.0778749   0.0000000), wk =   0.1111111
        k(    9) = (   0.0269767  -0.0467249   0.0000000), wk =   0.1111111
        k(   10) = (   0.0269767  -0.0155750   0.0000000), wk =   0.1111111
        k(   11) = (   0.0539533   0.0311500   0.0000000), wk =   0.1111111
        k(   12) = (   0.0539533   0.0622999   0.0000000), wk =   0.1111111
        k(   13) = (   0.0539533   0.0934499   0.0000000), wk =   0.1111111
        k(   14) = (   0.0539533  -0.0622999   0.0000000), wk =   0.1111111
        k(   15) = (   0.0539533  -0.0311500   0.0000000), wk =   0.1111111
        k(   16) = (   0.0539533   0.0000000   0.0000000), wk =   0.1111111
        k(   17) = (  -0.0809300  -0.0467249   0.0000000), wk =   0.0555556
        k(   18) = (  -0.0809300  -0.0155750   0.0000000), wk =   0.1111111
        k(   19) = (  -0.0809300   0.0155750   0.0000000), wk =   0.1111111
        k(   20) = (  -0.0809300  -0.1401748   0.0000000), wk =   0.0555556

     Largest allocated arrays     est. size (Mb)     dimensions
     Largest temporary arrays     est. size (Mb)     dimensions

     Initial potential from superposition of free atoms
     Check: negative starting charge=   -0.217426

     starting charge  145.47836, renormalised to  147.00000

     negative rho (up, down):  2.197E-01 0.000E+00

     *
     * You are using vdW-DF for exchange-correlation in this calculation.
     * Please cite the following three references that made this development
     * possible:
     *
     *   M. Dion, H. Rydberg, E. Schroder, D. C. Langreth, and
     *   B. I. Lundqvist, Phys. Rev. Lett. 92, 246401 (2004).
     *
     *   T. Thonhauser, V. R. Cooper, S. Li, A. Puzder, P. Hyldgaard, and
     *   D. C. Langreth, Phys. Rev. B 76, 125112 (2007).
     *
     *   G. Roman-Perez and J. M. Soler, Phys. Rev. Lett. 103, 096102 (2009).
     *
     *
     * If you are using vdW-DF2, please also cite:
     *
     *   K. Lee, E. D. Murray, L. Kong, B. I. Lundqvist, and
     *   D. C. Langreth, Phys. Rev. B 82, 081101(R) (2010).
     *
     *
     * If you are calculating the stress with vdW-DF, please also cite:
     *
     *   R. Sabatini, E. Kucukbenli, B. Kolb, T. Thonhauser, and
     *   S. de Gironcoli, J. Phys.: Condens. Matter 24, 424209 (2012).
     *

     Carrying out vdW-DF run using the following parameters:

     Nqs =      20    Nr_points =    1024   r_max =   100.000
     q_mesh =
               0.00001000     0.04494208     0.09755937     0.15916263
               0.23128650     0.31572767     0.41458969     0.53033537
               0.66584808     0.82450364     1.01025438     1.22772762
               1.48234092     1.78043706     2.12944203     2.53805004
               3.01644009     3.57652955     4.23227104     5.00000000

     Gradients computed in reciprocal space

     Adding external electric field

     Computed dipole along edir(3) :
        Dipole               -0.0000 Ry au,         -0.0000 Debye
        Dipole field         -0.0000 Ry au

        Potential amp.        0.0000 Ry
        Total length         46.1440 bohr

     Starting wfc are  153 randomized atomic wfcs

     Self-consistent Calculation

     iteration #  1     ecut=    36.75 Ry     beta=0.10
     Davidson diagonalization with overlap
     ethr =  1.00E-02,  avg # of iterations =  2.0

[...]

     total energy              =   -1451.66007331 Ry
     Harris-Foulkes estimate   =   -1453.81921961 Ry
     estimated scf accuracy    <      12.21067585 Ry

[...]

     iteration # 10     ecut=    36.75 Ry     beta=0.10
     Davidson diagonalization with overlap
     c_bands:  1 eigenvalues not converged
     ethr =  4.75E-06,  avg # of iterations =  8.8

[...]

     End of self-consistent calculation

          k = 0.0000 0.0000 0.0000 ( 21019 PWs)   bands (ev):

   -49.6250 -49.6250 -49.6193 -49.3557 -49.3557 -49.3555 -49.3555 -49.2838
   -49.2826 -49.1861 -49.1827 -49.1292 -49.1292 -49.1284 -49.1284 -48.8758
   -48.8226 -48.8226 -27.9517 -27.9291 -27.9022 -27.8637 -27.8637 -27.8514
   -27.8385 -27.8385 -27.8345 -27.8345 -27.7961 -27.7961 -27.7093 -27.6403
   -27.6331 -27.5336 -27.5336 -27.4964 -27.4964 -27.4803 -27.4803 -27.4183
   -27.3984 -27.3984 -27.3083 -27.2547 -27.2547  -4.3330  -3.1831  -2.5849
    -2.5176  -2.5176  -2.4460  -2.4460  -2.1803  -2.1803  -2.1133  -2.1133
    -2.0623  -1.7551  -1.7551  -1.6218  -1.6218  -1.5865  -1.5576  -1.0956
    -0.7110  -0.3632   0.3621   0.6796   0.6796   0.7552   0.8558   0.8558
     1.1352   1.1601   1.1686   1.1686   1.3635   1.3729   1.3729   1.3823
     1.3823   1.5797   1.9040   1.9040   1.9982   1.9982   2.1062   2.2776
     2.2776   2.4234   2.4234   2.4431   2.6321   3.2273   3.4076   3.4076
     3.5436   3.5436   3.6427   3.6427   3.7164   3.7164   3.8718

[...]

          k =-0.0809-0.0467 0.0000 ( 21032 PWs)   bands (ev):

[...]

     the Fermi energy is     0.9101 ev

!    total energy              =   -1452.83297171 Ry
     Harris-Foulkes estimate   =   -1452.83297494 Ry
     estimated scf accuracy    <       0.00000019 Ry

     The total energy is the sum of the following terms:

     one-electron contribution =   -9693.10884858 Ry
     hartree contribution      =    4844.91007559 Ry
     xc contribution           =    -222.35434466 Ry
     ewald contribution        =    3617.85028175 Ry
     electric field correction =       0.00000000 Ry
     smearing contrib. (-TS)   =      -0.13013581 Ry

     convergence has been achieved in  19 iterations

 BEEF-vdW xc energy contributions
           1 :   -190.735875835744
           2 :    170.730753347962
           3 :   -138.384654869141
           4 :    104.647869953196
           5 :   -78.1893108749694
           6 :    62.1286545272846
           7 :   -54.4575109796785
           8 :    50.9255049883357
           9 :   -48.0231430043969
          10 :    44.3601421423239
          11 :   -40.2636493044348
          12 :    36.5476607495468
[...]
     MD5 check sum: db30a2753ba66ef00f23801d899b7e7f
     Pseudo is Ultrasoft + core correction, Zval = 11.0
     Generated by new atomic code, or converted to UPF format
     Using radial grid of  849 points,  6 beta functions with:
                l(1) =   0
                l(2) =   0
                l(3) =   1
                l(4) =   1
                l(5) =   2
                l(6) =   2
     Q(r) pseudized with  6 coefficients,  rinner =    1.200   1.200   1.200
                                                       1.200   1.200

     PseudoPot. # 2 for Pd read from file:
     /afs/slac.stanford.edu/u/if/mamunm/psp/gbrv1.5pbe/Pd.UPF
     MD5 check sum: 2d733d2bc2cbfd217af676df1668a4bc
     Pseudo is Ultrasoft + core correction, Zval = 16.0
     Generated by new atomic code, or converted to UPF format
     Using radial grid of  887 points,  6 beta functions with:
                l(1) =   0
                l(2) =   0
                l(3) =   1
                l(4) =   1
                l(5) =   2
                l(6) =   2
     Q(r) pseudized with  8 coefficients,  rinner =    1.130   1.130   1.130
                                                       1.130   1.130

     vdW kernel table read from file vdW_kernel_table
     MD5 check sum: 095c7af220d748ca6e76c0b4c6cfb241

     atomic species   valence    mass     pseudopotential
        Sc1           11.00    44.95591     Sc( 1.00)
        Pd1           16.00   106.42000     Pd( 1.00)

     No symmetry found

   Cartesian axes

     site n.     atom                  positions (alat units)
         1           Sc1 tau(   1) = (   0.0000000   0.0000000  10.0000000  )
         2           Sc1 tau(   2) = (  -1.5445456   2.6752314  10.0000000  )
         3           Sc1 tau(   3) = (   1.5445456   2.6752314  10.0000000  )
         4           Pd1 tau(   4) = (   3.0890911   0.0000000  10.0000000  )
         5           Sc1 tau(   5) = (   3.0890911   1.7834876  12.5222323  )
         6           Sc1 tau(   6) = (   1.5445456   4.4587190  12.5222323  )
         7           Sc1 tau(   7) = (  -1.5445456   4.4587190  12.5222323  )
         8           Pd1 tau(   8) = (   0.0000000   1.7834876  12.5222323  )
         9           Sc1 tau(   9) = (  -0.0000066   3.5416562  15.0638146  )
        10           Sc1 tau(  10) = (   1.5226232   0.9043875  15.0638172  )
        11           Sc1 tau(  11) = (   4.6555674   0.9044094  15.0638293  )
        12           Pd1 tau(  12) = (   3.0890851   3.5669745  14.7158006  )

     number of k points=    20  Fermi-Dirac smearing, width (Ry)=  0.0110
                       cart. coord. in units 2pi/alat
        k(    1) = (   0.0000000   0.0000000   0.0000000), wk =   0.0555556
        k(    2) = (   0.0000000   0.0311500   0.0000000), wk =   0.1111111
        k(    3) = (   0.0000000   0.0622999   0.0000000), wk =   0.1111111
        k(    4) = (   0.0000000  -0.0934499   0.0000000), wk =   0.0555556
        k(    5) = (   0.0269767   0.0155750   0.0000000), wk =   0.1111111
        k(    6) = (   0.0269767   0.0467249   0.0000000), wk =   0.1111111
        k(    7) = (   0.0269767   0.0778749   0.0000000), wk =   0.1111111
        k(    8) = (   0.0269767  -0.0778749   0.0000000), wk =   0.1111111
        k(    9) = (   0.0269767  -0.0467249   0.0000000), wk =   0.1111111
        k(   10) = (   0.0269767  -0.0155750   0.0000000), wk =   0.1111111
        k(   11) = (   0.0539533   0.0311500   0.0000000), wk =   0.1111111
        k(   12) = (   0.0539533   0.0622999   0.0000000), wk =   0.1111111
        k(   13) = (   0.0539533   0.0934499   0.0000000), wk =   0.1111111
        k(   14) = (   0.0539533  -0.0622999   0.0000000), wk =   0.1111111
        k(   15) = (   0.0539533  -0.0311500   0.0000000), wk =   0.1111111
        k(   16) = (   0.0539533   0.0000000   0.0000000), wk =   0.1111111
        k(   17) = (  -0.0809300  -0.0467249   0.0000000), wk =   0.0555556
        k(   18) = (  -0.0809300  -0.0155750   0.0000000), wk =   0.1111111
        k(   19) = (  -0.0809300   0.0155750   0.0000000), wk =   0.1111111
        k(   20) = (  -0.0809300  -0.1401748   0.0000000), wk =   0.0555556

     Largest allocated arrays     est. size (Mb)     dimensions
     Largest temporary arrays     est. size (Mb)     dimensions

     Initial potential from superposition of free atoms
     Check: negative starting charge=   -0.218325

     starting charge  145.47836, renormalised to  147.00000

[...]

     *
     * You are using vdW-DF for exchange-correlation in this calculation.
     * Please cite the following three references that made this development
     * possible:
     *
     *   M. Dion, H. Rydberg, E. Schroder, D. C. Langreth, and
     *   B. I. Lundqvist, Phys. Rev. Lett. 92, 246401 (2004).
     *
     *   T. Thonhauser, V. R. Cooper, S. Li, A. Puzder, P. Hyldgaard, and
     *   D. C. Langreth, Phys. Rev. B 76, 125112 (2007).
     *
     *   G. Roman-Perez and J. M. Soler, Phys. Rev. Lett. 103, 096102 (2009).
     *
     *
     * If you are using vdW-DF2, please also cite:
     *
     *   K. Lee, E. D. Murray, L. Kong, B. I. Lundqvist, and
     *   D. C. Langreth, Phys. Rev. B 82, 081101(R) (2010).
     *
     *
     * If you are calculating the stress with vdW-DF, please also cite:
     *
     *   R. Sabatini, E. Kucukbenli, B. Kolb, T. Thonhauser, and
     *   S. de Gironcoli, J. Phys.: Condens. Matter 24, 424209 (2012).
     *

     Carrying out vdW-DF run using the following parameters:

     Nqs =      20    Nr_points =    1024   r_max =   100.000
     q_mesh =
               0.00001000     0.04494208     0.09755937     0.15916263
               0.23128650     0.31572767     0.41458969     0.53033537
               0.66584808     0.82450364     1.01025438     1.22772762
               1.48234092     1.78043706     2.12944203     2.53805004
               3.01644009     3.57652955     4.23227104     5.00000000

     Gradients computed in reciprocal space

[...]

     Starting wfc are  153 randomized atomic wfcs

     Self-consistent Calculation

[...]

     iteration # 14     ecut=    36.75 Ry     beta=0.10
     Davidson diagonalization with overlap
     c_bands:  1 eigenvalues not converged
     ethr =  2.38E-06,  avg # of iterations = 10.2

[...]

     total energy              =   -1452.84638414 Ry
     Harris-Foulkes estimate   =   -1452.84638465 Ry
     estimated scf accuracy    <       0.00000137 Ry

     iteration # 20     ecut=    36.75 Ry     beta=0.10
     Davidson diagonalization with overlap
     ethr =  9.35E-10,  avg # of iterations =  2.4

[...]

     negative rho (up, down):  2.301E-01 0.000E+00

     Adding external electric field

     Computed dipole along edir(3) :
        Dipole                0.0451 Ry au,          0.1147 Debye
        Dipole field          0.0001 Ry au

        Potential amp.       -0.0094 Ry
        Total length         46.1440 bohr

     End of self-consistent calculation

[...]

          k = 0.0540 0.0000 0.0000 ( 20999 PWs)   bands (ev):

[...]

          k =-0.0809-0.1402 0.0000 ( 21032 PWs)   bands (ev):

   -49.5728 -49.5623 -49.5613 -49.5596 -49.5589 -49.5523 -49.3189 -49.3162
   -49.2470 -49.1351 -49.1165 -49.1133 -49.0989 -49.0980 -49.0791 -48.7984
   -48.7819 -48.7639 -27.8480 -27.8382 -27.8282 -27.8130 -27.8045 -27.7878
   -27.7770 -27.7675 -27.7307 -27.7149 -27.7051 -27.6948 -27.6873 -27.6693
   -27.6329 -27.6198 -27.5570 -27.4747 -27.4676 -27.4239 -27.3820 -27.3717
   -27.3471 -27.3436 -27.3336 -27.3204 -27.2164  -3.0969  -2.9445  -2.4514
    -2.3290  -2.3125  -2.2286  -2.1596  -2.1050  -2.0873  -2.0315  -1.9697
    -1.9372  -1.8341  -1.8057  -1.6981  -1.6108  -1.5688  -1.5239  -1.2202
    -0.7477  -0.4791  -0.3464   0.1712   0.3256   0.5450   0.6921   0.7548
     0.8382   0.8676   0.9426   1.0884   1.1382   1.2048   1.2393   1.2997
     1.5238   1.6225   1.6435   1.7449   1.8103   1.8972   2.1810   2.2633
     2.2710   2.3498   2.3856   2.4206   2.4604   2.6144   3.1411   3.1421
     3.2180   3.2530   3.3077   3.3509   3.4327   3.4387   3.4743

     the Fermi energy is     0.9584 ev

!    total energy              =   -1452.84637282 Ry
     Harris-Foulkes estimate   =   -1452.84638420 Ry
     estimated scf accuracy    <       0.00000025 Ry

     The total energy is the sum of the following terms:

     one-electron contribution =   -9814.41188878 Ry
     hartree contribution      =    4905.66325998 Ry
     xc contribution           =    -222.39205489 Ry
     ewald contribution        =    3678.42240149 Ry
     electric field correction =       0.00000458 Ry
     smearing contrib. (-TS)   =      -0.12809520 Ry

     convergence has been achieved in  20 iterations

 BEEF-vdW xc energy contributions
           1 :   -190.814526261076
           2 :    170.843135248005
           3 :   -138.529176339446
           4 :    104.779626161314
           5 :   -78.2461733218557
           6 :    62.0746858614710
           7 :   -54.3121415244582
           8 :    50.7539596881476
           9 :   -47.8942486662963
          10 :    44.3055907929115
          11 :   -40.2692812538655
          12 :    36.5758311081692
          13 :   -33.6030528123240
          14 :    31.1949168417079
          15 :   -29.0981914052130
          16 :    27.3292673892313
          17 :   -26.0897736902443
          18 :    25.3965314504023
          19 :   -24.8903157070325
          20 :    24.0629284538613
          21 :   -22.6886066220601
          22 :    21.0352664305771
          23 :   -19.6524660062444
          24 :    18.9223037351837
          25 :   -18.7593053692333
          26 :    18.6982144719746
          27 :   -18.2770547916709
          28 :    17.3865972891962
          29 :   -16.3103028703587
          30 :    15.4531659510772
          31 :   -20.7198857587316
          32 :   -15.0139720643373

     Forces acting on atoms (Ry/au):

     negative rho (up, down):  2.301E-01 0.000E+00
     atom    1 type  1   force =    -0.00000349    0.00992922   -0.00599132
     atom    2 type  1   force =     0.00860140   -0.00496629   -0.00599336
     atom    3 type  1   force =    -0.00860035   -0.00496221   -0.00599030
     atom    4 type  2   force =     0.00000144    0.00000004    0.03217818
     atom    5 type  1   force =    -0.00000017   -0.00227934   -0.00276671
     atom    6 type  1   force =    -0.00197438    0.00113945   -0.00276590
     atom    7 type  1   force =     0.00197429    0.00113815   -0.00276645
     atom    8 type  2   force =     0.00000005    0.00000101   -0.00251361
     atom    9 type  1   force =     0.00000682   -0.00056527   -0.00140644
     atom   10 type  1   force =    -0.00049353    0.00028577   -0.00140284
     atom   11 type  1   force =     0.00049112    0.00027756   -0.00140890
     atom   12 type  2   force =    -0.00000319    0.00000192    0.00082763

     Total force =     0.038619     Total SCF correction =     0.000903

     entering subroutine stress ...

     negative rho (up, down):  2.301E-01 0.000E+00
          total   stress  (Ry/bohr**3)                   (kbar)     P=   -3.92
  -0.00003053  -0.00000000   0.00000000         -4.49     -0.00      0.00
  -0.00000000  -0.00003053   0.00000000         -0.00     -4.49      0.00
   0.00000000   0.00000000  -0.00001878          0.00      0.00     -2.76

 !ASE

     Writing output data file calc.save

     General routines

     Parallel routines

   This run was terminated on:  10:27:47   1Jan2019

   JOB DONE.
Job  /afs/slac/g/suncat/bin/suncat-tsmpirun -x LD_LIBRARY_PATH -wdir /scratch/qe648982_P2aed pw.x -in pw.inp

TID   HOST_NAME   COMMAND_LINE            STATUS            TERMINATION_TIME
00000 suncat0278 pw.x -in pw.inp   Done                     01/01/2019 10:27:47
00001 suncat0278 pw.x -in pw.inp   Done                     01/01/2019 10:27:47
00002 suncat0278 pw.x -in pw.inp   Done                     01/01/2019 10:27:47
00003 suncat0278 pw.x -in pw.inp   Done                     01/01/2019 10:27:47
00004 suncat0278 pw.x -in pw.inp   Done                     01/01/2019 10:27:47
00005 suncat0278 pw.x -in pw.inp   Done                     01/01/2019 10:27:47
00006 suncat0278 pw.x -in pw.inp   Done                     01/01/2019 10:27:47
00007 suncat0278 pw.x -in pw.inp   Done                     01/01/2019 10:27:47
00008 suncat0271 pw.x -in pw.inp   Done                     01/01/2019 10:27:47
00009 suncat0271 pw.x -in pw.inp   Done                     01/01/2019 10:27:47
00010 suncat0271 pw.x -in pw.inp   Done                     01/01/2019 10:27:47
00011 suncat0271 pw.x -in pw.inp   Done                     01/01/2019 10:27:47
00012 suncat0271 pw.x -in pw.inp   Done                     01/01/2019 10:27:47
00013 suncat0271 pw.x -in pw.inp   Done                     01/01/2019 10:27:47
00014 suncat0271 pw.x -in pw.inp   Done                     01/01/2019 10:27:47
00015 suncat0271 pw.x -in pw.inp   Done                     01/01/2019 10:27:47
00016 suncat0266 pw.x -in pw.inp   Done                     01/01/2019 10:27:47
00017 suncat0266 pw.x -in pw.inp   Done                     01/01/2019 10:27:47
00018 suncat0266 pw.x -in pw.inp   Done                     01/01/2019 10:27:47
00019 suncat0266 pw.x -in pw.inp   Done                     01/01/2019 10:27:47
00020 suncat0266 pw.x -in pw.inp   Done                     01/01/2019 10:27:47
00021 suncat0266 pw.x -in pw.inp   Done                     01/01/2019 10:27:47
00022 suncat0266 pw.x -in pw.inp   Done                     01/01/2019 10:27:47
00023 suncat0266 pw.x -in pw.inp   Done                     01/01/2019 10:27:47
00024 suncat0251 pw.x -in pw.inp   Done                     01/01/2019 10:27:47
00025 suncat0251 pw.x -in pw.inp   Done                     01/01/2019 10:27:47
00026 suncat0251 pw.x -in pw.inp   Done                     01/01/2019 10:27:47
00027 suncat0251 pw.x -in pw.inp   Done                     01/01/2019 10:27:47
00028 suncat0251 pw.x -in pw.inp   Done                     01/01/2019 10:27:47
00029 suncat0251 pw.x -in pw.inp   Done                     01/01/2019 10:27:47
00030 suncat0251 pw.x -in pw.inp   Done                     01/01/2019 10:27:47
00031 suncat0251 pw.x -in pw.inp   Done                     01/01/2019 10:27:47
00032 suncat0244 pw.x -in pw.inp   Done                     01/01/2019 10:27:47
00033 suncat0244 pw.x -in pw.inp   Done                     01/01/2019 10:27:47
00034 suncat0244 pw.x -in pw.inp   Done                     01/01/2019 10:27:47
00035 suncat0244 pw.x -in pw.inp   Done                     01/01/2019 10:27:47
00036 suncat0244 pw.x -in pw.inp   Done                     01/01/2019 10:27:47
00037 suncat0244 pw.x -in pw.inp   Done                     01/01/2019 10:27:47
00038 suncat0244 pw.x -in pw.inp   Done                     01/01/2019 10:27:47
00039 suncat0244 pw.x -in pw.inp   Done                     01/01/2019 10:27:47
00040 suncat0239 pw.x -in pw.inp   Done                     01/01/2019 10:27:47
00041 suncat0239 pw.x -in pw.inp   Done                     01/01/2019 10:27:47
00042 suncat0239 pw.x -in pw.inp   Done                     01/01/2019 10:27:47
00043 suncat0239 pw.x -in pw.inp   Done                     01/01/2019 10:27:47
00044 suncat0239 pw.x -in pw.inp   Done                     01/01/2019 10:27:47
00045 suncat0239 pw.x -in pw.inp   Done                     01/01/2019 10:27:47
00046 suncat0239 pw.x -in pw.inp   Done                     01/01/2019 10:27:47
00047 suncat0239 pw.x -in pw.inp   Done                     01/01/2019 10:27:47
00048 suncat0099 pw.x -in pw.inp   Done                     01/01/2019 10:27:47
00049 suncat0099 pw.x -in pw.inp   Done                     01/01/2019 10:27:47
00050 suncat0099 pw.x -in pw.inp   Done                     01/01/2019 10:27:47
00051 suncat0099 pw.x -in pw.inp   Done                     01/01/2019 10:27:47
00052 suncat0099 pw.x -in pw.inp   Done                     01/01/2019 10:27:47
00053 suncat0099 pw.x -in pw.inp   Done                     01/01/2019 10:27:47
00054 suncat0099 pw.x -in pw.inp   Done                     01/01/2019 10:27:47
00055 suncat0099 pw.x -in pw.inp   Done                     01/01/2019 10:27:47
00056 suncat0098 pw.x -in pw.inp   Done                     01/01/2019 10:27:47
00057 suncat0098 pw.x -in pw.inp   Done                     01/01/2019 10:27:47
00058 suncat0098 pw.x -in pw.inp   Done                     01/01/2019 10:27:47
00059 suncat0098 pw.x -in pw.inp   Done                     01/01/2019 10:27:47
00060 suncat0098 pw.x -in pw.inp   Done                     01/01/2019 10:27:47
00061 suncat0098 pw.x -in pw.inp   Done                     01/01/2019 10:27:47
00062 suncat0098 pw.x -in pw.inp   Done                     01/01/2019 10:27:47
00063 suncat0098 pw.x -in pw.inp   Done                     01/01/2019 10:27:47