     Program PWSCF v.5.1rc2 (svn rev. 11289) starts on 19Dec2018 at 20:33:18

     Current dimensions of program PWSCF are:
     Max number of different atomic species (ntypx) = 10
     Max number of k-points (npk) =  40000
     Max angular momentum in pseudopotentials (lmaxx) =  3
     Presently stress not available with electric field

     IMPORTANT: XC functional enforced from input :
     Exchange-correlation      = BEEF-VDW ( 1  4 27 13 2)
     Any further DFT definition will be discarded
     Please, verify this is what you really want

     Subspace diagonalization in iterative solution of the eigenvalue problem:
     a serial algorithm will be used

     Generating pointlists ...
     new r_m :   0.4125 (alat units)  0.7795 (a.u.) for type    1
     new r_m :   0.4125 (alat units)  0.7795 (a.u.) for type    2

     bravais-lattice index     =            0
     lattice parameter (alat)  =       1.8897  a.u.
     unit-cell volume          =    5303.9668 (a.u.)^3
     number of atoms/cell      =           12
     number of atomic types    =            2
     number of electrons       =       156.00
     number of Kohn-Sham states=          108
     kinetic-energy cutoff     =      36.7493  Ry
     charge density cutoff     =     367.4932  Ry
     convergence threshold     =      1.0E-06
     mixing beta               =       0.1000
     number of iterations used =           10  plain     mixing
     Exchange-correlation      = BEEF-VDW ( 1  4 27 13 2)
     nstep                     =           50

     celldm(1)=   1.889726  celldm(2)=   0.000000  celldm(3)=   0.000000
     celldm(4)=   0.000000  celldm(5)=   0.000000  celldm(6)=   0.000000

     crystal axes: (cart. coord. in units of alat)
               a(1) = (   6.033984   0.000000   0.000000 )
               a(2) = (  -3.016992   5.225583   0.000000 )
               a(3) = (   0.000000   0.000000  24.926727 )

     reciprocal axes: (cart. coord. in units 2 pi/alat)
               b(1) = (  0.165728  0.095683  0.000000 )
               b(2) = (  0.000000  0.191366  0.000000 )
               b(3) = (  0.000000  0.000000  0.040118 )

     PseudoPot. # 1 for Cd read from file:
     /afs/slac.stanford.edu/u/if/mamunm/psp/gbrv1.5pbe/Cd.UPF
     MD5 check sum: 17164a7926edb8e0dc231208abae86a6
     Pseudo is Ultrasoft + core correction, Zval = 12.0
     Generated by new atomic code, or converted to UPF format
     Using radial grid of  889 points,  6 beta functions with:
                l(1) =   0
                l(2) =   0
                l(3) =   1
                l(4) =   1
                l(5) =   2
                l(6) =   2
     Q(r) pseudized with  6 coefficients,  rinner =    1.000   1.000   1.000
                                                       1.000   1.000

     PseudoPot. # 2 for Fe read from file:
     /afs/slac.stanford.edu/u/if/mamunm/psp/gbrv1.5pbe/Fe.UPF
     MD5 check sum: a130daea23fe5165f5d574ae7f82ed95
     Pseudo is Ultrasoft + core correction, Zval = 16.0
     Generated by new atomic code, or converted to UPF format
     Using radial grid of  861 points,  6 beta functions with:
                l(1) =   0
                l(2) =   0
                l(3) =   1
                l(4) =   1
                l(5) =   2
                l(6) =   2
     Q(r) pseudized with  8 coefficients,  rinner =    1.000   1.000   1.000
                                                       1.000   1.000

     vdW kernel table read from file vdW_kernel_table
     MD5 check sum: 095c7af220d748ca6e76c0b4c6cfb241

     atomic species   valence    mass     pseudopotential
        Cd1           12.00   112.41400     Cd( 1.00)
        Fe1           16.00    55.84500     Fe( 1.00)

     Starting magnetic structure
     atomic species   magnetization
        Cd1          0.167
        Fe1          0.125

     No symmetry found

   Cartesian axes

     site n.     atom                  positions (alat units)
         1           Cd1 tau(   1) = (   0.0000000   0.0000000  10.0000000  )
         2           Cd1 tau(   2) = (  -1.5084960   2.6127917  10.0000000  )
         3           Cd1 tau(   3) = (   1.5084960   2.6127917  10.0000000  )
         4           Fe1 tau(   4) = (   3.0169920   0.0000000  10.0000000  )
         5           Cd1 tau(   5) = (   3.0169920   1.7418611  12.4633636  )
         6           Cd1 tau(   6) = (   1.5084960   4.3546528  12.4633636  )
         7           Cd1 tau(   7) = (  -1.5084960   4.3546528  12.4633636  )
         8           Fe1 tau(   8) = (   0.0000000   1.7418611  12.4633636  )
         9           Cd1 tau(   9) = (  -0.0000000   3.4837223  14.9267273  )
        10           Cd1 tau(  10) = (   1.5084960   0.8709306  14.9267273  )
        11           Cd1 tau(  11) = (   4.5254880   0.8709306  14.9267273  )
        12           Fe1 tau(  12) = (   3.0169920   3.4837223  14.9267273  )

     number of k points=    40  Fermi-Dirac smearing, width (Ry)=  0.0110
                       cart. coord. in units 2pi/alat
        k(    1) = (   0.0000000   0.0000000   0.0000000), wk =   0.0277778
        k(    2) = (   0.0000000   0.0318944   0.0000000), wk =   0.0555556
        k(    3) = (   0.0000000   0.0637887   0.0000000), wk =   0.0555556
        k(    4) = (   0.0000000  -0.0956831   0.0000000), wk =   0.0277778
        k(    5) = (   0.0276213   0.0159472   0.0000000), wk =   0.0555556
        k(    6) = (   0.0276213   0.0478415   0.0000000), wk =   0.0555556
        k(    7) = (   0.0276213   0.0797359   0.0000000), wk =   0.0555556
        k(    8) = (   0.0276213  -0.0797359   0.0000000), wk =   0.0555556
        k(    9) = (   0.0276213  -0.0478415   0.0000000), wk =   0.0555556
        k(   10) = (   0.0276213  -0.0159472   0.0000000), wk =   0.0555556
        k(   11) = (   0.0552427   0.0318944   0.0000000), wk =   0.0555556
        k(   12) = (   0.0552427   0.0637887   0.0000000), wk =   0.0555556
        k(   13) = (   0.0552427   0.0956831   0.0000000), wk =   0.0555556
        k(   14) = (   0.0552427  -0.0637887   0.0000000), wk =   0.0555556
        k(   15) = (   0.0552427  -0.0318944   0.0000000), wk =   0.0555556
        k(   16) = (   0.0552427   0.0000000   0.0000000), wk =   0.0555556
        k(   17) = (  -0.0828640  -0.0478415   0.0000000), wk =   0.0277778
        k(   18) = (  -0.0828640  -0.0159472   0.0000000), wk =   0.0555556
        k(   19) = (  -0.0828640   0.0159472   0.0000000), wk =   0.0555556
        k(   20) = (  -0.0828640  -0.1435246   0.0000000), wk =   0.0277778
        k(   21) = (   0.0000000   0.0000000   0.0000000), wk =   0.0277778
        k(   22) = (   0.0000000   0.0318944   0.0000000), wk =   0.0555556
        k(   23) = (   0.0000000   0.0637887   0.0000000), wk =   0.0555556
        k(   24) = (   0.0000000  -0.0956831   0.0000000), wk =   0.0277778
        k(   25) = (   0.0276213   0.0159472   0.0000000), wk =   0.0555556
        k(   26) = (   0.0276213   0.0478415   0.0000000), wk =   0.0555556
        k(   27) = (   0.0276213   0.0797359   0.0000000), wk =   0.0555556
        k(   28) = (   0.0276213  -0.0797359   0.0000000), wk =   0.0555556
        k(   29) = (   0.0276213  -0.0478415   0.0000000), wk =   0.0555556
        k(   30) = (   0.0276213  -0.0159472   0.0000000), wk =   0.0555556
        k(   31) = (   0.0552427   0.0318944   0.0000000), wk =   0.0555556
        k(   32) = (   0.0552427   0.0637887   0.0000000), wk =   0.0555556
        k(   33) = (   0.0552427   0.0956831   0.0000000), wk =   0.0555556
        k(   34) = (   0.0552427  -0.0637887   0.0000000), wk =   0.0555556
        k(   35) = (   0.0552427  -0.0318944   0.0000000), wk =   0.0555556
        k(   36) = (   0.0552427   0.0000000   0.0000000), wk =   0.0555556
        k(   37) = (  -0.0828640  -0.0478415   0.0000000), wk =   0.0277778
        k(   38) = (  -0.0828640  -0.0159472   0.0000000), wk =   0.0555556
        k(   39) = (  -0.0828640   0.0159472   0.0000000), wk =   0.0555556
        k(   40) = (  -0.0828640  -0.1435246   0.0000000), wk =   0.0277778

     Largest allocated arrays     est. size (Mb)     dimensions
     Largest temporary arrays     est. size (Mb)     dimensions

     Check: negative/imaginary core charge=   -0.000002    0.000000

     Initial potential from superposition of free atoms
     Check: negative starting charge=(component1):   -0.109481
     Check: negative starting charge=(component2):   -0.078198

     starting charge  148.49961, renormalised to  156.00000

     negative rho (up, down):  1.150E-01 8.215E-02

     *
     * You are using vdW-DF for exchange-correlation in this calculation.
     * Please cite the following three references that made this development
     * possible:
     *
     *   M. Dion, H. Rydberg, E. Schroder, D. C. Langreth, and
     *   B. I. Lundqvist, Phys. Rev. Lett. 92, 246401 (2004).
     *
     *   T. Thonhauser, V. R. Cooper, S. Li, A. Puzder, P. Hyldgaard, and
     *   D. C. Langreth, Phys. Rev. B 76, 125112 (2007).
     *
     *   G. Roman-Perez and J. M. Soler, Phys. Rev. Lett. 103, 096102 (2009).
     *
     *
     * If you are using vdW-DF2, please also cite:
     *
     *   K. Lee, E. D. Murray, L. Kong, B. I. Lundqvist, and
     *   D. C. Langreth, Phys. Rev. B 82, 081101(R) (2010).
     *
     *
     * If you are calculating the stress with vdW-DF, please also cite:
     *
     *   R. Sabatini, E. Kucukbenli, B. Kolb, T. Thonhauser, and
     *   S. de Gironcoli, J. Phys.: Condens. Matter 24, 424209 (2012).
     *

     Carrying out vdW-DF run using the following parameters:

     Nqs =      20    Nr_points =    1024   r_max =   100.000
     q_mesh =
               0.00001000     0.04494208     0.09755937     0.15916263
               0.23128650     0.31572767     0.41458969     0.53033537
               0.66584808     0.82450364     1.01025438     1.22772762
               1.48234092     1.78043706     2.12944203     2.53805004
               3.01644009     3.57652955     4.23227104     5.00000000

     Gradients computed in reciprocal space

     Adding external electric field

     Computed dipole along edir(3) :
        Dipole               -0.0000 Ry au,         -0.0000 Debye
        Dipole field         -0.0000 Ry au

        Potential amp.        0.0000 Ry
        Total length         45.9271 bohr

[...]

     Starting wfc are  120 randomized atomic wfcs

     Self-consistent Calculation

     iteration #  1     ecut=    36.75 Ry     beta=0.10
     Davidson diagonalization with overlap
     ethr =  1.00E-02,  avg # of iterations =  8.1

[...]

     Magnetic moment per site:
     atom:    1    charge:    2.3409    magn:    0.3570    constr:    0.0000
     atom:    2    charge:    2.3409    magn:    0.3570    constr:    0.0000
     atom:    3    charge:    2.3409    magn:    0.3570    constr:    0.0000
     atom:    4    charge:    7.2639    magn:    0.9125    constr:    0.0000
     atom:    5    charge:    2.3496    magn:    0.3583    constr:    0.0000
     atom:    6    charge:    2.3496    magn:    0.3583    constr:    0.0000
     atom:    7    charge:    2.3496    magn:    0.3583    constr:    0.0000
     atom:    8    charge:    7.2655    magn:    0.9202    constr:    0.0000
[...]
        k(    1) = (   0.0000000   0.0000000   0.0000000), wk =   0.0277778
        k(    2) = (   0.0000000   0.0318944   0.0000000), wk =   0.0555556
        k(    3) = (   0.0000000   0.0637887   0.0000000), wk =   0.0555556
        k(    4) = (   0.0000000  -0.0956831   0.0000000), wk =   0.0277778
        k(    5) = (   0.0276213   0.0159472   0.0000000), wk =   0.0555556
        k(    6) = (   0.0276213   0.0478415   0.0000000), wk =   0.0555556
        k(    7) = (   0.0276213   0.0797359   0.0000000), wk =   0.0555556
        k(    8) = (   0.0276213  -0.0797359   0.0000000), wk =   0.0555556
        k(    9) = (   0.0276213  -0.0478415   0.0000000), wk =   0.0555556
        k(   10) = (   0.0276213  -0.0159472   0.0000000), wk =   0.0555556
        k(   11) = (   0.0552427   0.0318944   0.0000000), wk =   0.0555556
        k(   12) = (   0.0552427   0.0637887   0.0000000), wk =   0.0555556
        k(   13) = (   0.0552427   0.0956831   0.0000000), wk =   0.0555556
        k(   14) = (   0.0552427  -0.0637887   0.0000000), wk =   0.0555556
        k(   15) = (   0.0552427  -0.0318944   0.0000000), wk =   0.0555556
        k(   16) = (   0.0552427   0.0000000   0.0000000), wk =   0.0555556
        k(   17) = (  -0.0828640  -0.0478415   0.0000000), wk =   0.0277778
        k(   18) = (  -0.0828640  -0.0159472   0.0000000), wk =   0.0555556
        k(   19) = (  -0.0828640   0.0159472   0.0000000), wk =   0.0555556
        k(   20) = (  -0.0828640  -0.1435246   0.0000000), wk =   0.0277778
        k(   21) = (   0.0000000   0.0000000   0.0000000), wk =   0.0277778
        k(   22) = (   0.0000000   0.0318944   0.0000000), wk =   0.0555556
        k(   23) = (   0.0000000   0.0637887   0.0000000), wk =   0.0555556
        k(   24) = (   0.0000000  -0.0956831   0.0000000), wk =   0.0277778
        k(   25) = (   0.0276213   0.0159472   0.0000000), wk =   0.0555556
        k(   26) = (   0.0276213   0.0478415   0.0000000), wk =   0.0555556
        k(   27) = (   0.0276213   0.0797359   0.0000000), wk =   0.0555556
        k(   28) = (   0.0276213  -0.0797359   0.0000000), wk =   0.0555556
        k(   29) = (   0.0276213  -0.0478415   0.0000000), wk =   0.0555556
        k(   30) = (   0.0276213  -0.0159472   0.0000000), wk =   0.0555556
        k(   31) = (   0.0552427   0.0318944   0.0000000), wk =   0.0555556
        k(   32) = (   0.0552427   0.0637887   0.0000000), wk =   0.0555556
        k(   33) = (   0.0552427   0.0956831   0.0000000), wk =   0.0555556
        k(   34) = (   0.0552427  -0.0637887   0.0000000), wk =   0.0555556
        k(   35) = (   0.0552427  -0.0318944   0.0000000), wk =   0.0555556
        k(   36) = (   0.0552427   0.0000000   0.0000000), wk =   0.0555556
        k(   37) = (  -0.0828640  -0.0478415   0.0000000), wk =   0.0277778
        k(   38) = (  -0.0828640  -0.0159472   0.0000000), wk =   0.0555556
        k(   39) = (  -0.0828640   0.0159472   0.0000000), wk =   0.0555556
        k(   40) = (  -0.0828640  -0.1435246   0.0000000), wk =   0.0277778

     Largest allocated arrays     est. size (Mb)     dimensions
     Largest temporary arrays     est. size (Mb)     dimensions

     Check: negative/imaginary core charge=   -0.000002    0.000000

     Initial potential from superposition of free atoms
     Check: negative starting charge=(component1):   -0.112472
     Check: negative starting charge=(component2):   -0.080334

     starting charge  148.49961, renormalised to  156.00000

[...]

     *
     * You are using vdW-DF for exchange-correlation in this calculation.
     * Please cite the following three references that made this development
     * possible:
     *
     *   M. Dion, H. Rydberg, E. Schroder, D. C. Langreth, and
     *   B. I. Lundqvist, Phys. Rev. Lett. 92, 246401 (2004).
     *
     *   T. Thonhauser, V. R. Cooper, S. Li, A. Puzder, P. Hyldgaard, and
     *   D. C. Langreth, Phys. Rev. B 76, 125112 (2007).
     *
     *   G. Roman-Perez and J. M. Soler, Phys. Rev. Lett. 103, 096102 (2009).
     *
     *
     * If you are using vdW-DF2, please also cite:
     *
     *   K. Lee, E. D. Murray, L. Kong, B. I. Lundqvist, and
     *   D. C. Langreth, Phys. Rev. B 82, 081101(R) (2010).
     *
     *
     * If you are calculating the stress with vdW-DF, please also cite:
     *
     *   R. Sabatini, E. Kucukbenli, B. Kolb, T. Thonhauser, and
     *   S. de Gironcoli, J. Phys.: Condens. Matter 24, 424209 (2012).
     *

     Carrying out vdW-DF run using the following parameters:

     Nqs =      20    Nr_points =    1024   r_max =   100.000
     q_mesh =
               0.00001000     0.04494208     0.09755937     0.15916263
               0.23128650     0.31572767     0.41458969     0.53033537
               0.66584808     0.82450364     1.01025438     1.22772762
               1.48234092     1.78043706     2.12944203     2.53805004
               3.01644009     3.57652955     4.23227104     5.00000000

     Gradients computed in reciprocal space

[...]

     Starting wfc are  120 randomized atomic wfcs

     Self-consistent Calculation

[...]

     total energy              =   -1798.55843092 Ry
     Harris-Foulkes estimate   =   -1798.55841726 Ry
     estimated scf accuracy    <       0.00000113 Ry

[...]

     iteration # 27     ecut=    36.75 Ry     beta=0.10
     Davidson diagonalization with overlap
     ethr =  7.22E-10,  avg # of iterations =  2.6

[...]

     negative rho (up, down):  9.946E-02 1.005E-01

[...]

     Adding external electric field

     Computed dipole along edir(3) :
        Dipole               -0.0016 Ry au,         -0.0041 Debye
        Dipole field         -0.0000 Ry au

        Potential amp.        0.0004 Ry
        Total length         45.9271 bohr

     Magnetic moment per site:
     atom:    1    charge:    2.2866    magn:   -0.0001    constr:    0.0000
     atom:    2    charge:    2.2866    magn:   -0.0001    constr:    0.0000
     atom:    3    charge:    2.2866    magn:   -0.0001    constr:    0.0000
     atom:    4    charge:    7.0943    magn:    1.3429    constr:    0.0000
     atom:    5    charge:    2.2956    magn:   -0.0005    constr:    0.0000
     atom:    6    charge:    2.2956    magn:   -0.0005    constr:    0.0000
     atom:    7    charge:    2.2956    magn:   -0.0005    constr:    0.0000
     atom:    8    charge:    7.1071    magn:    1.3060    constr:    0.0000
     atom:    9    charge:    2.2939    magn:   -0.0008    constr:    0.0000
     atom:   10    charge:    2.2939    magn:   -0.0008    constr:    0.0000
     atom:   11    charge:    2.2939    magn:   -0.0008    constr:    0.0000
     atom:   12    charge:    7.1051    magn:    1.3234    constr:    0.0000

     End of self-consistent calculation

 ------ SPIN UP ------------

[...]

 ------ SPIN DOWN ----------

[...]

          k = 0.0552 0.0000 0.0000 ( 19953 PWs)   bands (ev):

[...]

          k =-0.0829-0.1435 0.0000 ( 19996 PWs)   bands (ev):

   -84.8887 -84.8863 -84.8256 -51.0623 -51.0239 -50.9928 -50.9928 -50.9722
   -50.9720 -50.9719 -50.9248 -50.9248  -9.0012  -8.8894  -8.8685  -8.7930
    -8.7443  -8.7109  -8.6758  -8.6264  -8.6234  -8.6108  -8.5901  -8.5840
    -8.5076  -8.4771  -8.4333  -8.4226  -8.3635  -8.3317  -8.3187  -8.2816
    -8.2633  -8.2553  -8.2426  -8.2114  -8.2092  -8.1871  -8.1761  -8.1480
    -8.1473  -8.1294  -8.1239  -8.1146  -8.1113  -8.0837  -8.0682  -8.0672
    -8.0597  -7.9944  -7.9850  -7.9205  -7.8898  -7.8806  -7.8069  -7.6895
    -7.6162  -5.8944  -5.6489  -4.1747  -4.0927  -2.8604  -2.4881  -1.9268
    -1.5571  -1.1820  -0.9299  -0.0407   0.1420   0.1962   0.2459   0.2599
     0.3524   0.6047   0.6340   0.7690   0.9908   1.1088   1.1331   1.2768
     1.3471   1.4046   1.9388   2.0429   2.0544   2.3826   4.0518   4.1994
     4.3064   4.4136   4.4910   4.5344   4.5662   5.0539   5.3618   5.3925
     5.6583   5.8176   5.8423   5.9008   6.0354   6.2305   6.6687   6.7713
     6.7923   6.8157   6.8532   7.1806

     the Fermi energy is     0.5599 ev

!    total energy              =   -1798.55849464 Ry
     Harris-Foulkes estimate   =   -1798.55843117 Ry
     estimated scf accuracy    <       0.00000083 Ry

     The total energy is the sum of the following terms:

     one-electron contribution =  -11375.76593902 Ry
     hartree contribution      =    5756.96423954 Ry
     xc contribution           =    -458.06720826 Ry
     ewald contribution        =    4278.37154189 Ry
     electric field correction =       0.00000001 Ry
     smearing contrib. (-TS)   =      -0.06112879 Ry

     total magnetization       =     8.52 Bohr mag/cell
     absolute magnetization    =     9.95 Bohr mag/cell

     convergence has been achieved in  27 iterations

 BEEF-vdW xc energy contributions
           1 :   -401.339605082678
           2 :    366.185380574678
           3 :   -307.123775460476
           4 :    241.229561776472
           5 :   -183.951158288986
           6 :    143.549273925980
           7 :   -119.796172462742
           8 :    106.701315731297
           9 :   -97.1054257120911
          10 :    86.4698182023967
          11 :   -74.1914843876120
          12 :    62.4134061614058
          13 :   -53.6600528609750
          14 :    48.9269412818874
          15 :   -47.2094450846972
          16 :    46.3854016250367
          17 :   -44.6278084218850
          18 :    41.3871092775199
          19 :   -37.4393015420095
          20 :    34.1265036064951
          21 :   -32.3868058675275
          22 :    32.1875402918664
          23 :   -32.6481256092330
          24 :    32.6699552399500
          25 :   -31.6239961926445
          26 :    29.6651591321122
          27 :   -27.5354076269981
          28 :    26.0350697911874
          29 :   -25.5276767186067
          30 :    25.7678775933427
          31 :   -35.9021057657293
          32 :   -26.0099526345870

     Forces acting on atoms (Ry/au):

     negative rho (up, down):  9.946E-02 1.005E-01
     atom    1 type  1   force =    -0.00000013    0.00732837   -0.01736690
     atom    2 type  1   force =     0.00634637   -0.00366435   -0.01736678
     atom    3 type  1   force =    -0.00634636   -0.00366422   -0.01736633
     atom    4 type  2   force =    -0.00000022    0.00000025    0.01943323
     atom    5 type  1   force =    -0.00000006   -0.00991058    0.00936988
     atom    6 type  1   force =    -0.00858249    0.00495525    0.00937112
     atom    7 type  1   force =     0.00858306    0.00495536    0.00937029
     atom    8 type  2   force =     0.00000032   -0.00000013    0.00389168
     atom    9 type  1   force =     0.00000197   -0.00068356    0.00006768
     atom   10 type  1   force =    -0.00059173    0.00034257    0.00006735
     atom   11 type  1   force =     0.00059079    0.00033995    0.00006726
     atom   12 type  2   force =    -0.00000151    0.00000109    0.00046152

     Total force =     0.044927     Total SCF correction =     0.001563

     entering subroutine stress ...

     negative rho (up, down):  9.946E-02 1.005E-01
          total   stress  (Ry/bohr**3)                   (kbar)     P=   -7.97
  -0.00008414   0.00000000  -0.00000000        -12.38      0.00     -0.00
   0.00000000  -0.00008414  -0.00000000          0.00    -12.38     -0.00
  -0.00000000  -0.00000000   0.00000565         -0.00     -0.00      0.83

 !ASE

     Writing output data file calc.save

     General routines

     Parallel routines

   This run was terminated on:   0:51:21  20Dec2018

   JOB DONE.
Job  /afs/slac/g/suncat/bin/suncat-tsmpirun -x LD_LIBRARY_PATH -wdir /scratch/qe773424_DVlJQ pw.x -in pw.inp

TID   HOST_NAME   COMMAND_LINE            STATUS            TERMINATION_TIME
00000 suncat0082 pw.x -in pw.inp   Done                     12/20/2018 00:51:21
00001 suncat0082 pw.x -in pw.inp   Done                     12/20/2018 00:51:21
00002 suncat0082 pw.x -in pw.inp   Done                     12/20/2018 00:51:21
00003 suncat0082 pw.x -in pw.inp   Done                     12/20/2018 00:51:21
00004 suncat0082 pw.x -in pw.inp   Done                     12/20/2018 00:51:21
00005 suncat0082 pw.x -in pw.inp   Done                     12/20/2018 00:51:21
00006 suncat0082 pw.x -in pw.inp   Done                     12/20/2018 00:51:21
00007 suncat0082 pw.x -in pw.inp   Done                     12/20/2018 00:51:21
00008 suncat0081 pw.x -in pw.inp   Done                     12/20/2018 00:51:21
00009 suncat0081 pw.x -in pw.inp   Done                     12/20/2018 00:51:21
00010 suncat0081 pw.x -in pw.inp   Done                     12/20/2018 00:51:21
00011 suncat0081 pw.x -in pw.inp   Done                     12/20/2018 00:51:21
00012 suncat0081 pw.x -in pw.inp   Done                     12/20/2018 00:51:21
00013 suncat0081 pw.x -in pw.inp   Done                     12/20/2018 00:51:21
00014 suncat0081 pw.x -in pw.inp   Done                     12/20/2018 00:51:21
00015 suncat0081 pw.x -in pw.inp   Done                     12/20/2018 00:51:21
00016 suncat0080 pw.x -in pw.inp   Done                     12/20/2018 00:51:21
00017 suncat0080 pw.x -in pw.inp   Done                     12/20/2018 00:51:21
00018 suncat0080 pw.x -in pw.inp   Done                     12/20/2018 00:51:21
00019 suncat0080 pw.x -in pw.inp   Done                     12/20/2018 00:51:21
00020 suncat0080 pw.x -in pw.inp   Done                     12/20/2018 00:51:21
00021 suncat0080 pw.x -in pw.inp   Done                     12/20/2018 00:51:21
00022 suncat0080 pw.x -in pw.inp   Done                     12/20/2018 00:51:21
00023 suncat0080 pw.x -in pw.inp   Done                     12/20/2018 00:51:21
00024 suncat0078 pw.x -in pw.inp   Done                     12/20/2018 00:51:21
00025 suncat0078 pw.x -in pw.inp   Done                     12/20/2018 00:51:21
00026 suncat0078 pw.x -in pw.inp   Done                     12/20/2018 00:51:21
00027 suncat0078 pw.x -in pw.inp   Done                     12/20/2018 00:51:21
00028 suncat0078 pw.x -in pw.inp   Done                     12/20/2018 00:51:21
00029 suncat0078 pw.x -in pw.inp   Done                     12/20/2018 00:51:21
00030 suncat0078 pw.x -in pw.inp   Done                     12/20/2018 00:51:21
00031 suncat0078 pw.x -in pw.inp   Done                     12/20/2018 00:51:21
00032 suncat0070 pw.x -in pw.inp   Done                     12/20/2018 00:51:21
00033 suncat0070 pw.x -in pw.inp   Done                     12/20/2018 00:51:21
00034 suncat0070 pw.x -in pw.inp   Done                     12/20/2018 00:51:21
00035 suncat0070 pw.x -in pw.inp   Done                     12/20/2018 00:51:21
00036 suncat0070 pw.x -in pw.inp   Done                     12/20/2018 00:51:21
00037 suncat0070 pw.x -in pw.inp   Done                     12/20/2018 00:51:21
00038 suncat0070 pw.x -in pw.inp   Done                     12/20/2018 00:51:21
00039 suncat0070 pw.x -in pw.inp   Done                     12/20/2018 00:51:21
00040 suncat0069 pw.x -in pw.inp   Done                     12/20/2018 00:51:21
00041 suncat0069 pw.x -in pw.inp   Done                     12/20/2018 00:51:21
00042 suncat0069 pw.x -in pw.inp   Done                     12/20/2018 00:51:21
00043 suncat0069 pw.x -in pw.inp   Done                     12/20/2018 00:51:21
00044 suncat0069 pw.x -in pw.inp   Done                     12/20/2018 00:51:21
00045 suncat0069 pw.x -in pw.inp   Done                     12/20/2018 00:51:21
00046 suncat0069 pw.x -in pw.inp   Done                     12/20/2018 00:51:21
00047 suncat0069 pw.x -in pw.inp   Done                     12/20/2018 00:51:21
00048 suncat0068 pw.x -in pw.inp   Done                     12/20/2018 00:51:21
00049 suncat0068 pw.x -in pw.inp   Done                     12/20/2018 00:51:21
00050 suncat0068 pw.x -in pw.inp   Done                     12/20/2018 00:51:21
00051 suncat0068 pw.x -in pw.inp   Done                     12/20/2018 00:51:21
00052 suncat0068 pw.x -in pw.inp   Done                     12/20/2018 00:51:21
00053 suncat0068 pw.x -in pw.inp   Done                     12/20/2018 00:51:21
00054 suncat0068 pw.x -in pw.inp   Done                     12/20/2018 00:51:21
00055 suncat0068 pw.x -in pw.inp   Done                     12/20/2018 00:51:21
00056 suncat0066 pw.x -in pw.inp   Done                     12/20/2018 00:51:21
00057 suncat0066 pw.x -in pw.inp   Done                     12/20/2018 00:51:21
00058 suncat0066 pw.x -in pw.inp   Done                     12/20/2018 00:51:21
00059 suncat0066 pw.x -in pw.inp   Done                     12/20/2018 00:51:21
00060 suncat0066 pw.x -in pw.inp   Done                     12/20/2018 00:51:21
00061 suncat0066 pw.x -in pw.inp   Done                     12/20/2018 00:51:21
00062 suncat0066 pw.x -in pw.inp   Done                     12/20/2018 00:51:21
00063 suncat0066 pw.x -in pw.inp   Done                     12/20/2018 00:51:21