     Program PWSCF v.5.1rc2 (svn rev. 11289) starts on 30Dec2018 at 20:56:50

     Current dimensions of program PWSCF are:
     Max number of different atomic species (ntypx) = 10
     Max number of k-points (npk) =  40000
     Max angular momentum in pseudopotentials (lmaxx) =  3
     Presently stress not available with electric field

     IMPORTANT: XC functional enforced from input :
     Exchange-correlation      = BEEF-VDW ( 1  4 27 13 2)
     Any further DFT definition will be discarded
     Please, verify this is what you really want

     Subspace diagonalization in iterative solution of the eigenvalue problem:
     a serial algorithm will be used

     bravais-lattice index     =            0
     lattice parameter (alat)  =       1.8897  a.u.
     unit-cell volume          =    4895.6510 (a.u.)^3
     number of atoms/cell      =           12
     number of atomic types    =            2
     number of electrons       =       174.00
     number of Kohn-Sham states=          117
     kinetic-energy cutoff     =      36.7493  Ry
     charge density cutoff     =     367.4932  Ry
     convergence threshold     =      1.0E-06
     mixing beta               =       0.1000
     number of iterations used =           10  plain     mixing
     Exchange-correlation      = BEEF-VDW ( 1  4 27 13 2)
     nstep                     =           50

     celldm(1)=   1.889726  celldm(2)=   0.000000  celldm(3)=   0.000000
     celldm(4)=   0.000000  celldm(5)=   0.000000  celldm(6)=   0.000000

     crystal axes: (cart. coord. in units of alat)
               a(1) = (   5.817719   0.000000   0.000000 )
               a(2) = (  -2.908859   5.038292   0.000000 )
               a(3) = (   0.000000   0.000000  24.750147 )

     reciprocal axes: (cart. coord. in units 2 pi/alat)
               b(1) = (  0.171889  0.099240  0.000000 )
               b(2) = (  0.000000  0.198480  0.000000 )
               b(3) = (  0.000000  0.000000  0.040404 )

     PseudoPot. # 1 for Nb read from file:
     /afs/slac.stanford.edu/u/if/mamunm/psp/gbrv1.5pbe/Nb.UPF
     MD5 check sum: 573aab8a2fa660278ed4a62cd769473f
     Pseudo is Ultrasoft + core correction, Zval = 13.0
     Generated by new atomic code, or converted to UPF format
     Using radial grid of  887 points,  6 beta functions with:
                l(1) =   0
                l(2) =   0
                l(3) =   1
                l(4) =   1
                l(5) =   2
                l(6) =   2
     Q(r) pseudized with  6 coefficients,  rinner =    1.000   1.000   1.000
                                                       1.000   1.000

     PseudoPot. # 2 for Ga read from file:
     /afs/slac.stanford.edu/u/if/mamunm/psp/gbrv1.5pbe/Ga.UPF
     MD5 check sum: ccd671392a58a050fbb373893b4fcd66
     Pseudo is Ultrasoft + core correction, Zval = 19.0
     Generated by new atomic code, or converted to UPF format
     Using radial grid of  871 points,  6 beta functions with:
                l(1) =   0
                l(2) =   0
                l(3) =   1
                l(4) =   1
                l(5) =   2
                l(6) =   2
     Q(r) pseudized with  8 coefficients,  rinner =    1.250   1.250   1.250
                                                       1.250   1.250

     vdW kernel table read from file vdW_kernel_table
     MD5 check sum: 095c7af220d748ca6e76c0b4c6cfb241

     atomic species   valence    mass     pseudopotential
        Nb1           13.00    92.90637     Nb( 1.00)
        Ga1           19.00    69.72300     Ga( 1.00)

     No symmetry found

   Cartesian axes

     site n.     atom                  positions (alat units)
         1           Nb1 tau(   1) = (   0.0000000   0.0000000  10.0000000  )
         2           Nb1 tau(   2) = (  -1.4544297   2.5191461  10.0000000  )
         3           Nb1 tau(   3) = (   1.4544297   2.5191461  10.0000000  )
         4           Ga1 tau(   4) = (   2.9088593   0.0000000  10.0000000  )
         5           Nb1 tau(   5) = (   2.9088593   1.6794307  12.3750737  )
         6           Nb1 tau(   6) = (   1.4544297   4.1985768  12.3750737  )
         7           Nb1 tau(   7) = (  -1.4544297   4.1985768  12.3750737  )
         8           Ga1 tau(   8) = (   0.0000000   1.6794307  12.3750737  )
         9           Nb1 tau(   9) = (  -0.0000000   3.3588614  14.7501474  )
        10           Nb1 tau(  10) = (   1.4544297   0.8397154  14.7501474  )
        11           Nb1 tau(  11) = (   4.3632890   0.8397154  14.7501474  )
        12           Ga1 tau(  12) = (   2.9088593   3.3588614  14.7501474  )

     number of k points=    20  Fermi-Dirac smearing, width (Ry)=  0.0110
                       cart. coord. in units 2pi/alat
        k(    1) = (   0.0000000   0.0000000   0.0000000), wk =   0.0555556
        k(    2) = (   0.0000000   0.0330800   0.0000000), wk =   0.1111111
        k(    3) = (   0.0000000   0.0661600   0.0000000), wk =   0.1111111
        k(    4) = (   0.0000000  -0.0992400   0.0000000), wk =   0.0555556
        k(    5) = (   0.0286481   0.0165400   0.0000000), wk =   0.1111111
        k(    6) = (   0.0286481   0.0496200   0.0000000), wk =   0.1111111
        k(    7) = (   0.0286481   0.0827000   0.0000000), wk =   0.1111111
        k(    8) = (   0.0286481  -0.0827000   0.0000000), wk =   0.1111111
        k(    9) = (   0.0286481  -0.0496200   0.0000000), wk =   0.1111111
        k(   10) = (   0.0286481  -0.0165400   0.0000000), wk =   0.1111111
        k(   11) = (   0.0572962   0.0330800   0.0000000), wk =   0.1111111
        k(   12) = (   0.0572962   0.0661600   0.0000000), wk =   0.1111111
        k(   13) = (   0.0572962   0.0992400   0.0000000), wk =   0.1111111
        k(   14) = (   0.0572962  -0.0661600   0.0000000), wk =   0.1111111
        k(   15) = (   0.0572962  -0.0330800   0.0000000), wk =   0.1111111
        k(   16) = (   0.0572962   0.0000000   0.0000000), wk =   0.1111111
        k(   17) = (  -0.0859443  -0.0496200   0.0000000), wk =   0.0555556
        k(   18) = (  -0.0859443  -0.0165400   0.0000000), wk =   0.1111111
        k(   19) = (  -0.0859443   0.0165400   0.0000000), wk =   0.1111111
        k(   20) = (  -0.0859443  -0.1488600   0.0000000), wk =   0.0555556

     Largest allocated arrays     est. size (Mb)     dimensions
     Largest temporary arrays     est. size (Mb)     dimensions

     Initial potential from superposition of free atoms
     Check: negative starting charge=   -0.004669

     starting charge  170.97540, renormalised to  174.00000

     negative rho (up, down):  4.752E-03 0.000E+00

     *
     * You are using vdW-DF for exchange-correlation in this calculation.
     * Please cite the following three references that made this development
     * possible:
     *
     *   M. Dion, H. Rydberg, E. Schroder, D. C. Langreth, and
     *   B. I. Lundqvist, Phys. Rev. Lett. 92, 246401 (2004).
     *
     *   T. Thonhauser, V. R. Cooper, S. Li, A. Puzder, P. Hyldgaard, and
     *   D. C. Langreth, Phys. Rev. B 76, 125112 (2007).
     *
     *   G. Roman-Perez and J. M. Soler, Phys. Rev. Lett. 103, 096102 (2009).
     *
     *
     * If you are using vdW-DF2, please also cite:
     *
     *   K. Lee, E. D. Murray, L. Kong, B. I. Lundqvist, and
     *   D. C. Langreth, Phys. Rev. B 82, 081101(R) (2010).
     *
     *
     * If you are calculating the stress with vdW-DF, please also cite:
     *
     *   R. Sabatini, E. Kucukbenli, B. Kolb, T. Thonhauser, and
     *   S. de Gironcoli, J. Phys.: Condens. Matter 24, 424209 (2012).
     *

     Carrying out vdW-DF run using the following parameters:

     Nqs =      20    Nr_points =    1024   r_max =   100.000
     q_mesh =
               0.00001000     0.04494208     0.09755937     0.15916263
               0.23128650     0.31572767     0.41458969     0.53033537
               0.66584808     0.82450364     1.01025438     1.22772762
               1.48234092     1.78043706     2.12944203     2.53805004
               3.01644009     3.57652955     4.23227104     5.00000000

     Gradients computed in reciprocal space

     Adding external electric field

     Computed dipole along edir(3) :
        Dipole                0.0000 Ry au,          0.0000 Debye
        Dipole field          0.0000 Ry au

        Potential amp.       -0.0000 Ry
        Total length         45.6017 bohr

     Starting wfc are  153 randomized atomic wfcs

     Self-consistent Calculation

     iteration #  1     ecut=    36.75 Ry     beta=0.10
     Davidson diagonalization with overlap
     ethr =  1.00E-02,  avg # of iterations =  2.3

[...]

     total energy              =   -2316.98010382 Ry
     Harris-Foulkes estimate   =   -2317.74453803 Ry
     estimated scf accuracy    <       4.92433927 Ry

[...]

     iteration #  8     ecut=    36.75 Ry     beta=0.10
     Davidson diagonalization with overlap
     c_bands:  1 eigenvalues not converged
     ethr =  6.77E-06,  avg # of iterations =  7.8

[...]

     iteration #  9     ecut=    36.75 Ry     beta=0.10
     Davidson diagonalization with overlap
     c_bands:  1 eigenvalues not converged
     ethr =  2.84E-06,  avg # of iterations =  4.7

[...]

     End of self-consistent calculation

          k = 0.0000 0.0000 0.0000 ( 18487 PWs)   bands (ev):

   -92.5367 -92.5367 -92.5319 -92.3752 -92.3752 -92.3378 -92.3378 -92.3377
   -92.3377 -53.5300 -53.5118 -53.3921 -53.3921 -53.3876 -53.3876 -53.3204
   -53.2078 -53.2077 -30.0621 -29.9699 -29.8849 -29.7979 -29.7979 -29.7885
   -29.7706 -29.7706 -29.6988 -29.6988 -29.6098 -29.4823 -29.4823 -29.3725
   -29.3725 -29.2797 -29.2146 -29.0934 -29.0849 -29.0849 -29.0204 -28.9901
   -28.9901 -28.9814 -28.9814 -28.8666 -28.8666 -12.9143 -12.9143 -12.9087
   -12.8914 -12.8914 -12.7263 -12.7189 -12.7054 -12.7054 -12.6976 -12.6976
   -12.6932 -12.6932 -12.6914 -12.6914  -6.3717  -5.1561  -5.1074  -2.5177
    -2.0308  -1.7241  -1.0162  -1.0162  -0.9261  -0.7234  -0.7234  -0.7227
    -0.5590  -0.5590  -0.4787  -0.4787   0.2160   0.2160   0.7327   0.8266
     1.1989   1.1989   1.4704   1.5154   1.5154   1.6981   1.6981   1.9465
     2.0453   2.0465   2.0537   2.0537   3.3751   3.3752   3.5633   3.5633
     3.6178   3.7099   3.7647   3.7647   3.8776   4.1088   4.1088   4.2517
     4.2517   4.5258   4.8950   4.8950   5.0212   5.0212   5.1239   5.1239
     5.1937   5.2093   5.6140   5.6190   5.8239

[...]

          k =-0.0859-0.0496 0.0000 ( 18380 PWs)   bands (ev):

[...]

     the Fermi energy is     1.6048 ev

!    total energy              =   -2316.55895839 Ry
     Harris-Foulkes estimate   =   -2316.55895504 Ry
     estimated scf accuracy    <       0.00000068 Ry

     The total energy is the sum of the following terms:

     one-electron contribution =  -15984.91999494 Ry
     hartree contribution      =    7990.63420125 Ry
     xc contribution           =    -320.82139561 Ry
     ewald contribution        =    5998.64474255 Ry
     electric field correction =       0.00000000 Ry
     smearing contrib. (-TS)   =      -0.09651164 Ry

     convergence has been achieved in  16 iterations

 BEEF-vdW xc energy contributions
           1 :   -280.463443557824
           2 :    255.212308903912
[...]
     PseudoPot. # 1 for Nb read from file:
     /afs/slac.stanford.edu/u/if/mamunm/psp/gbrv1.5pbe/Nb.UPF
     MD5 check sum: 573aab8a2fa660278ed4a62cd769473f
     Pseudo is Ultrasoft + core correction, Zval = 13.0
     Generated by new atomic code, or converted to UPF format
     Using radial grid of  887 points,  6 beta functions with:
                l(1) =   0
                l(2) =   0
                l(3) =   1
                l(4) =   1
                l(5) =   2
                l(6) =   2
     Q(r) pseudized with  6 coefficients,  rinner =    1.000   1.000   1.000
                                                       1.000   1.000

     PseudoPot. # 2 for Ga read from file:
     /afs/slac.stanford.edu/u/if/mamunm/psp/gbrv1.5pbe/Ga.UPF
     MD5 check sum: ccd671392a58a050fbb373893b4fcd66
     Pseudo is Ultrasoft + core correction, Zval = 19.0
     Generated by new atomic code, or converted to UPF format
     Using radial grid of  871 points,  6 beta functions with:
                l(1) =   0
                l(2) =   0
                l(3) =   1
                l(4) =   1
                l(5) =   2
                l(6) =   2
     Q(r) pseudized with  8 coefficients,  rinner =    1.250   1.250   1.250
                                                       1.250   1.250

     vdW kernel table read from file vdW_kernel_table
     MD5 check sum: 095c7af220d748ca6e76c0b4c6cfb241

     atomic species   valence    mass     pseudopotential
        Nb1           13.00    92.90637     Nb( 1.00)
        Ga1           19.00    69.72300     Ga( 1.00)

     No symmetry found

   Cartesian axes

     site n.     atom                  positions (alat units)
         1           Nb1 tau(   1) = (   0.0000000   0.0000000  10.0000000  )
         2           Nb1 tau(   2) = (  -1.4544297   2.5191461  10.0000000  )
         3           Nb1 tau(   3) = (   1.4544297   2.5191461  10.0000000  )
         4           Ga1 tau(   4) = (   2.9088593   0.0000000  10.0000000  )
         5           Nb1 tau(   5) = (   2.9088593   1.6794307  12.3750737  )
         6           Nb1 tau(   6) = (   1.4544297   4.1985768  12.3750737  )
         7           Nb1 tau(   7) = (  -1.4544297   4.1985768  12.3750737  )
         8           Ga1 tau(   8) = (   0.0000000   1.6794307  12.3750737  )
         9           Nb1 tau(   9) = (   0.0000188   3.3324800  14.6378119  )
        10           Nb1 tau(  10) = (   1.4315868   0.8529336  14.6378110  )
        11           Nb1 tau(  11) = (   4.3861640   0.8529300  14.6378141  )
        12           Ga1 tau(  12) = (   2.9088661   3.3588545  14.9937573  )

     number of k points=    20  Fermi-Dirac smearing, width (Ry)=  0.0110
                       cart. coord. in units 2pi/alat
        k(    1) = (   0.0000000   0.0000000   0.0000000), wk =   0.0555556
        k(    2) = (   0.0000000   0.0330800   0.0000000), wk =   0.1111111
        k(    3) = (   0.0000000   0.0661600   0.0000000), wk =   0.1111111
        k(    4) = (   0.0000000  -0.0992400   0.0000000), wk =   0.0555556
        k(    5) = (   0.0286481   0.0165400   0.0000000), wk =   0.1111111
        k(    6) = (   0.0286481   0.0496200   0.0000000), wk =   0.1111111
        k(    7) = (   0.0286481   0.0827000   0.0000000), wk =   0.1111111
        k(    8) = (   0.0286481  -0.0827000   0.0000000), wk =   0.1111111
        k(    9) = (   0.0286481  -0.0496200   0.0000000), wk =   0.1111111
        k(   10) = (   0.0286481  -0.0165400   0.0000000), wk =   0.1111111
        k(   11) = (   0.0572962   0.0330800   0.0000000), wk =   0.1111111
        k(   12) = (   0.0572962   0.0661600   0.0000000), wk =   0.1111111
        k(   13) = (   0.0572962   0.0992400   0.0000000), wk =   0.1111111
        k(   14) = (   0.0572962  -0.0661600   0.0000000), wk =   0.1111111
        k(   15) = (   0.0572962  -0.0330800   0.0000000), wk =   0.1111111
        k(   16) = (   0.0572962   0.0000000   0.0000000), wk =   0.1111111
        k(   17) = (  -0.0859443  -0.0496200   0.0000000), wk =   0.0555556
        k(   18) = (  -0.0859443  -0.0165400   0.0000000), wk =   0.1111111
        k(   19) = (  -0.0859443   0.0165400   0.0000000), wk =   0.1111111
        k(   20) = (  -0.0859443  -0.1488600   0.0000000), wk =   0.0555556

     Largest allocated arrays     est. size (Mb)     dimensions
     Largest temporary arrays     est. size (Mb)     dimensions

     Initial potential from superposition of free atoms
     Check: negative starting charge=   -0.004657

     starting charge  170.97540, renormalised to  174.00000

[...]

     *
     * You are using vdW-DF for exchange-correlation in this calculation.
     * Please cite the following three references that made this development
     * possible:
     *
     *   M. Dion, H. Rydberg, E. Schroder, D. C. Langreth, and
     *   B. I. Lundqvist, Phys. Rev. Lett. 92, 246401 (2004).
     *
     *   T. Thonhauser, V. R. Cooper, S. Li, A. Puzder, P. Hyldgaard, and
     *   D. C. Langreth, Phys. Rev. B 76, 125112 (2007).
     *
     *   G. Roman-Perez and J. M. Soler, Phys. Rev. Lett. 103, 096102 (2009).
     *
     *
     * If you are using vdW-DF2, please also cite:
     *
     *   K. Lee, E. D. Murray, L. Kong, B. I. Lundqvist, and
     *   D. C. Langreth, Phys. Rev. B 82, 081101(R) (2010).
     *
     *
     * If you are calculating the stress with vdW-DF, please also cite:
     *
     *   R. Sabatini, E. Kucukbenli, B. Kolb, T. Thonhauser, and
     *   S. de Gironcoli, J. Phys.: Condens. Matter 24, 424209 (2012).
     *

     Carrying out vdW-DF run using the following parameters:

     Nqs =      20    Nr_points =    1024   r_max =   100.000
     q_mesh =
               0.00001000     0.04494208     0.09755937     0.15916263
               0.23128650     0.31572767     0.41458969     0.53033537
               0.66584808     0.82450364     1.01025438     1.22772762
               1.48234092     1.78043706     2.12944203     2.53805004
               3.01644009     3.57652955     4.23227104     5.00000000

     Gradients computed in reciprocal space

[...]

     Starting wfc are  153 randomized atomic wfcs

     Self-consistent Calculation

[...]

     total energy              =   -2316.58257544 Ry
     Harris-Foulkes estimate   =   -2316.58257453 Ry
     estimated scf accuracy    <       0.00000179 Ry

     iteration # 17     ecut=    36.75 Ry     beta=0.10
     Davidson diagonalization with overlap
     ethr =  1.03E-09,  avg # of iterations =  2.0

[...]

     negative rho (up, down):  4.293E-03 0.000E+00

     Adding external electric field

     Computed dipole along edir(3) :
        Dipole               -0.0251 Ry au,         -0.0637 Debye
        Dipole field         -0.0001 Ry au

        Potential amp.        0.0059 Ry
        Total length         45.6017 bohr

     End of self-consistent calculation

[...]

          k = 0.0573 0.0000 0.0000 ( 18421 PWs)   bands (ev):

[...]

          k =-0.0859-0.1489 0.0000 ( 18380 PWs)   bands (ev):

   -92.5768 -92.5768 -92.5714 -92.4206 -92.3864 -92.3829 -92.3829 -92.3316
   -92.3316 -53.5205 -53.4885 -53.4765 -53.4412 -53.4333 -53.3920 -53.3057
   -53.2775 -53.2397 -29.9339 -29.9283 -29.8517 -29.7811 -29.7228 -29.7200
   -29.6714 -29.6279 -29.6058 -29.5632 -29.5480 -29.5341 -29.5043 -29.4716
   -29.4519 -29.4385 -29.4195 -29.3538 -29.2555 -29.2533 -29.2295 -29.0729
   -29.0622 -29.0515 -29.0221 -29.0072 -28.9141 -12.9581 -12.9489 -12.9470
   -12.9355 -12.9337 -12.7612 -12.7431 -12.7426 -12.7311 -12.7236 -12.7108
   -12.6876 -12.6872 -12.6683 -12.6612  -5.4350  -4.8043  -4.3487  -2.5967
    -1.9672  -1.8987  -1.4699  -1.3962  -0.7387  -0.6883  -0.5008  -0.4715
    -0.3907  -0.3317  -0.2627  -0.0428   0.2889   0.3410   0.4650   0.5134
     0.8197   0.8422   1.1014   1.1089   1.1444   1.2511   1.3062   1.6668
     1.7674   1.7702   1.9041   2.0474   2.1831   2.7177   2.9409   3.1237
     3.1614   3.2374   3.3486   3.5019   3.6583   3.6743   3.8106   3.8743
     3.9505   3.9661   4.1635   4.2485   4.4369   5.0240   5.2638   5.3325
     5.4243   5.8030   6.2980   6.4117   6.7836

     the Fermi energy is     1.5661 ev

!    total energy              =   -2316.58257876 Ry
     Harris-Foulkes estimate   =   -2316.58257591 Ry
     estimated scf accuracy    <       0.00000042 Ry

     The total energy is the sum of the following terms:

     one-electron contribution =  -15969.84078412 Ry
     hartree contribution      =    7982.93428686 Ry
     xc contribution           =    -320.91542250 Ry
     ewald contribution        =    5991.32929717 Ry
     electric field correction =       0.00000161 Ry
     smearing contrib. (-TS)   =      -0.08995779 Ry

     convergence has been achieved in  17 iterations

 BEEF-vdW xc energy contributions
           1 :   -280.812453272414
           2 :    255.581366106815
           3 :   -212.751243349706
           4 :    164.077457036361
           5 :   -120.552981927736
           6 :    88.5057143103738
           7 :   -68.3900488765722
           8 :    56.3528722033514
           9 :   -47.3137946076064
          10 :    37.7284349271943
          11 :   -26.7648175303773
          12 :    15.7002922250945
          13 :   -6.36469992356263
          14 :  -0.244454085656344
          15 :    4.41864049118374
          16 :   -7.25896369650849
          17 :    9.80478498083357
          18 :   -12.4331328379886
          19 :    14.8458505095451
          20 :   -16.5118007397247
          21 :    17.1456503082832
          22 :   -16.8787511665253
          23 :    16.0673212341162
          24 :   -14.9755077010320
          25 :    13.6200670363982
          26 :   -11.8905288833666
          27 :    9.80221630232313
          28 :   -7.63661836291055
          29 :    5.82669116444998
          30 :   -4.67401408606463
          31 :   -26.7585470967084
          32 :   -19.5606218832484

     Forces acting on atoms (Ry/au):

     negative rho (up, down):  4.293E-03 0.000E+00
     atom    1 type  1   force =     0.00000038    0.00737260    0.01978671
     atom    2 type  1   force =     0.00638594   -0.00368760    0.01978622
     atom    3 type  1   force =    -0.00638489   -0.00368736    0.01978604
     atom    4 type  2   force =    -0.00000550   -0.00000267   -0.03006203
     atom    5 type  1   force =     0.00000106    0.00945290   -0.00308641
     atom    6 type  1   force =     0.00818954   -0.00472641   -0.00308588
     atom    7 type  1   force =    -0.00818743   -0.00472665   -0.00308425
     atom    8 type  2   force =    -0.00000203    0.00000489   -0.02439582
     atom    9 type  1   force =    -0.00000112   -0.00110320    0.00112443
     atom   10 type  1   force =    -0.00095536    0.00054754    0.00112434
     atom   11 type  1   force =     0.00095629    0.00054950    0.00112385
     atom   12 type  2   force =     0.00000311    0.00000647    0.00098280

     Total force =     0.056050     Total SCF correction =     0.001828

     entering subroutine stress ...

     negative rho (up, down):  4.293E-03 0.000E+00
          total   stress  (Ry/bohr**3)                   (kbar)     P=  -14.40
  -0.00013354   0.00000000   0.00000000        -19.64      0.00      0.00
   0.00000000  -0.00013355   0.00000000          0.00    -19.65      0.00
   0.00000000   0.00000000  -0.00002662          0.00      0.00     -3.92

 !ASE

     Writing output data file calc.save

     General routines

     Parallel routines

   This run was terminated on:  22:49:44  30Dec2018

   JOB DONE.
Job  /afs/slac/g/suncat/bin/suncat-tsmpirun -x LD_LIBRARY_PATH -wdir /scratch/qe648628_3jzIu pw.x -in pw.inp

TID   HOST_NAME   COMMAND_LINE            STATUS            TERMINATION_TIME
00000 suncat0087 pw.x -in pw.inp   Done                     12/30/2018 22:49:44
00001 suncat0087 pw.x -in pw.inp   Done                     12/30/2018 22:49:44
00002 suncat0087 pw.x -in pw.inp   Done                     12/30/2018 22:49:44
00003 suncat0087 pw.x -in pw.inp   Done                     12/30/2018 22:49:44
00004 suncat0087 pw.x -in pw.inp   Done                     12/30/2018 22:49:44
00005 suncat0087 pw.x -in pw.inp   Done                     12/30/2018 22:49:44
00006 suncat0087 pw.x -in pw.inp   Done                     12/30/2018 22:49:44
00007 suncat0087 pw.x -in pw.inp   Done                     12/30/2018 22:49:44
00008 suncat0086 pw.x -in pw.inp   Done                     12/30/2018 22:49:44
00009 suncat0086 pw.x -in pw.inp   Done                     12/30/2018 22:49:45
00010 suncat0086 pw.x -in pw.inp   Done                     12/30/2018 22:49:44
00011 suncat0086 pw.x -in pw.inp   Done                     12/30/2018 22:49:45
00012 suncat0086 pw.x -in pw.inp   Done                     12/30/2018 22:49:45
00013 suncat0086 pw.x -in pw.inp   Done                     12/30/2018 22:49:45
00014 suncat0086 pw.x -in pw.inp   Done                     12/30/2018 22:49:44
00015 suncat0086 pw.x -in pw.inp   Done                     12/30/2018 22:49:45
00016 suncat0085 pw.x -in pw.inp   Done                     12/30/2018 22:49:44
00017 suncat0085 pw.x -in pw.inp   Done                     12/30/2018 22:49:44
00018 suncat0085 pw.x -in pw.inp   Done                     12/30/2018 22:49:44
00019 suncat0085 pw.x -in pw.inp   Done                     12/30/2018 22:49:44
00020 suncat0085 pw.x -in pw.inp   Done                     12/30/2018 22:49:44
00021 suncat0085 pw.x -in pw.inp   Done                     12/30/2018 22:49:44
00022 suncat0085 pw.x -in pw.inp   Done                     12/30/2018 22:49:44
00023 suncat0085 pw.x -in pw.inp   Done                     12/30/2018 22:49:45
00024 suncat0084 pw.x -in pw.inp   Done                     12/30/2018 22:49:44
00025 suncat0084 pw.x -in pw.inp   Done                     12/30/2018 22:49:44
00026 suncat0084 pw.x -in pw.inp   Done                     12/30/2018 22:49:44
00027 suncat0084 pw.x -in pw.inp   Done                     12/30/2018 22:49:44
00028 suncat0084 pw.x -in pw.inp   Done                     12/30/2018 22:49:44
00029 suncat0084 pw.x -in pw.inp   Done                     12/30/2018 22:49:44
00030 suncat0084 pw.x -in pw.inp   Done                     12/30/2018 22:49:44
00031 suncat0084 pw.x -in pw.inp   Done                     12/30/2018 22:49:44
00032 suncat0139 pw.x -in pw.inp   Done                     12/30/2018 22:49:44
00033 suncat0139 pw.x -in pw.inp   Done                     12/30/2018 22:49:45
00034 suncat0139 pw.x -in pw.inp   Done                     12/30/2018 22:49:44
00035 suncat0139 pw.x -in pw.inp   Done                     12/30/2018 22:49:44
00036 suncat0139 pw.x -in pw.inp   Done                     12/30/2018 22:49:44
00037 suncat0139 pw.x -in pw.inp   Done                     12/30/2018 22:49:44
00038 suncat0139 pw.x -in pw.inp   Done                     12/30/2018 22:49:44
00039 suncat0139 pw.x -in pw.inp   Done                     12/30/2018 22:49:44
00040 suncat0124 pw.x -in pw.inp   Done                     12/30/2018 22:49:44
00041 suncat0124 pw.x -in pw.inp   Done                     12/30/2018 22:49:44
00042 suncat0124 pw.x -in pw.inp   Done                     12/30/2018 22:49:44
00043 suncat0124 pw.x -in pw.inp   Done                     12/30/2018 22:49:45
00044 suncat0124 pw.x -in pw.inp   Done                     12/30/2018 22:49:45
00045 suncat0124 pw.x -in pw.inp   Done                     12/30/2018 22:49:44
00046 suncat0124 pw.x -in pw.inp   Done                     12/30/2018 22:49:44
00047 suncat0124 pw.x -in pw.inp   Done                     12/30/2018 22:49:44
00048 suncat0123 pw.x -in pw.inp   Done                     12/30/2018 22:49:44
00049 suncat0123 pw.x -in pw.inp   Done                     12/30/2018 22:49:44
00050 suncat0123 pw.x -in pw.inp   Done                     12/30/2018 22:49:44
00051 suncat0123 pw.x -in pw.inp   Done                     12/30/2018 22:49:44
00052 suncat0123 pw.x -in pw.inp   Done                     12/30/2018 22:49:44
00053 suncat0123 pw.x -in pw.inp   Done                     12/30/2018 22:49:44
00054 suncat0123 pw.x -in pw.inp   Done                     12/30/2018 22:49:44
00055 suncat0123 pw.x -in pw.inp   Done                     12/30/2018 22:49:44
00056 suncat0122 pw.x -in pw.inp   Done                     12/30/2018 22:49:45
00057 suncat0122 pw.x -in pw.inp   Done                     12/30/2018 22:49:44
00058 suncat0122 pw.x -in pw.inp   Done                     12/30/2018 22:49:44
00059 suncat0122 pw.x -in pw.inp   Done                     12/30/2018 22:49:44
00060 suncat0122 pw.x -in pw.inp   Done                     12/30/2018 22:49:44
00061 suncat0122 pw.x -in pw.inp   Done                     12/30/2018 22:49:44
00062 suncat0122 pw.x -in pw.inp   Done                     12/30/2018 22:49:44
00063 suncat0122 pw.x -in pw.inp   Done                     12/30/2018 22:49:45