     Program PWSCF v.5.1rc2 (svn rev. 11289) starts on  2Jan2019 at 21:10:21

     Current dimensions of program PWSCF are:
     Max number of different atomic species (ntypx) = 10
     Max number of k-points (npk) =  40000
     Max angular momentum in pseudopotentials (lmaxx) =  3
     Presently stress not available with electric field

     IMPORTANT: XC functional enforced from input :
     Exchange-correlation      = BEEF-VDW ( 1  4 27 13 2)
     Any further DFT definition will be discarded
     Please, verify this is what you really want

     Subspace diagonalization in iterative solution of the eigenvalue problem:
     a serial algorithm will be used

     bravais-lattice index     =            0
     lattice parameter (alat)  =       1.8897  a.u.
     unit-cell volume          =    6066.2143 (a.u.)^3
     number of atoms/cell      =           12
     number of atomic types    =            2
     number of electrons       =       141.00
     number of Kohn-Sham states=          100
     kinetic-energy cutoff     =      36.7493  Ry
     charge density cutoff     =     367.4932  Ry
     convergence threshold     =      1.0E-06
     mixing beta               =       0.1000
     number of iterations used =           10  plain     mixing
     Exchange-correlation      = BEEF-VDW ( 1  4 27 13 2)
     nstep                     =           50

     celldm(1)=   1.889726  celldm(2)=   0.000000  celldm(3)=   0.000000
     celldm(4)=   0.000000  celldm(5)=   0.000000  celldm(6)=   0.000000

     crystal axes: (cart. coord. in units of alat)
               a(1) = (   6.413296   0.000000   0.000000 )
               a(2) = (  -3.206648   5.554077   0.000000 )
               a(3) = (   0.000000   0.000000  25.236434 )

     reciprocal axes: (cart. coord. in units 2 pi/alat)
               b(1) = (  0.155926  0.090024  0.000000 )
               b(2) = (  0.000000  0.180048  0.000000 )
               b(3) = (  0.000000  0.000000  0.039625 )

     PseudoPot. # 1 for Zr read from file:
     /afs/slac.stanford.edu/u/if/mamunm/psp/gbrv1.5pbe/Zr.UPF
     MD5 check sum: 5db81b1e868ab7776c4564c113de050b
     Pseudo is Ultrasoft + core correction, Zval = 12.0
     Generated by new atomic code, or converted to UPF format
     Using radial grid of  887 points,  6 beta functions with:
                l(1) =   0
                l(2) =   0
                l(3) =   1
                l(4) =   1
                l(5) =   2
                l(6) =   2
     Q(r) pseudized with  6 coefficients,  rinner =    1.200   1.200   1.200
                                                       1.200   1.200

     PseudoPot. # 2 for Sc read from file:
     /afs/slac.stanford.edu/u/if/mamunm/psp/gbrv1.5pbe/Sc.UPF
     MD5 check sum: db30a2753ba66ef00f23801d899b7e7f
     Pseudo is Ultrasoft + core correction, Zval = 11.0
     Generated by new atomic code, or converted to UPF format
     Using radial grid of  849 points,  6 beta functions with:
                l(1) =   0
                l(2) =   0
                l(3) =   1
                l(4) =   1
                l(5) =   2
                l(6) =   2
     Q(r) pseudized with  6 coefficients,  rinner =    1.200   1.200   1.200
                                                       1.200   1.200

     vdW kernel table read from file vdW_kernel_table
     MD5 check sum: 095c7af220d748ca6e76c0b4c6cfb241

     atomic species   valence    mass     pseudopotential
        Zr1           12.00    91.22400     Zr( 1.00)
        Sc1           11.00    44.95591     Sc( 1.00)

     No symmetry found

   Cartesian axes

     site n.     atom                  positions (alat units)
         1           Zr1 tau(   1) = (   0.0000000   0.0000000  10.0000000  )
         2           Zr1 tau(   2) = (  -1.6033239   2.7770385  10.0000000  )
         3           Zr1 tau(   3) = (   1.6033239   2.7770385  10.0000000  )
         4           Sc1 tau(   4) = (   3.2066478   0.0000000  10.0000000  )
         5           Zr1 tau(   5) = (   3.2066478   1.8513590  12.6182170  )
         6           Zr1 tau(   6) = (   1.6033239   4.6283975  12.6182170  )
         7           Zr1 tau(   7) = (  -1.6033239   4.6283975  12.6182170  )
         8           Sc1 tau(   8) = (   0.0000000   1.8513590  12.6182170  )
         9           Zr1 tau(   9) = (  -0.0000000   3.7027180  15.2364340  )
        10           Zr1 tau(  10) = (   1.6033239   0.9256795  15.2364340  )
        11           Zr1 tau(  11) = (   4.8099718   0.9256795  15.2364340  )
        12           Sc1 tau(  12) = (   3.2066478   3.7027180  15.2364340  )

     number of k points=    20  Fermi-Dirac smearing, width (Ry)=  0.0110
                       cart. coord. in units 2pi/alat
        k(    1) = (   0.0000000   0.0000000   0.0000000), wk =   0.0555556
        k(    2) = (   0.0000000   0.0300080   0.0000000), wk =   0.1111111
        k(    3) = (   0.0000000   0.0600160   0.0000000), wk =   0.1111111
        k(    4) = (   0.0000000  -0.0900240   0.0000000), wk =   0.0555556
        k(    5) = (   0.0259877   0.0150040   0.0000000), wk =   0.1111111
        k(    6) = (   0.0259877   0.0450120   0.0000000), wk =   0.1111111
        k(    7) = (   0.0259877   0.0750200   0.0000000), wk =   0.1111111
        k(    8) = (   0.0259877  -0.0750200   0.0000000), wk =   0.1111111
        k(    9) = (   0.0259877  -0.0450120   0.0000000), wk =   0.1111111
        k(   10) = (   0.0259877  -0.0150040   0.0000000), wk =   0.1111111
        k(   11) = (   0.0519754   0.0300080   0.0000000), wk =   0.1111111
        k(   12) = (   0.0519754   0.0600160   0.0000000), wk =   0.1111111
        k(   13) = (   0.0519754   0.0900240   0.0000000), wk =   0.1111111
        k(   14) = (   0.0519754  -0.0600160   0.0000000), wk =   0.1111111
        k(   15) = (   0.0519754  -0.0300080   0.0000000), wk =   0.1111111
        k(   16) = (   0.0519754   0.0000000   0.0000000), wk =   0.1111111
        k(   17) = (  -0.0779630  -0.0450120   0.0000000), wk =   0.0555556
        k(   18) = (  -0.0779630  -0.0150040   0.0000000), wk =   0.1111111
        k(   19) = (  -0.0779630   0.0150040   0.0000000), wk =   0.1111111
        k(   20) = (  -0.0779630  -0.1350359   0.0000000), wk =   0.0555556

     Largest allocated arrays     est. size (Mb)     dimensions
     Largest temporary arrays     est. size (Mb)     dimensions

     Initial potential from superposition of free atoms
     Check: negative starting charge=   -0.548596

     starting charge  140.97345, renormalised to  141.00000

     negative rho (up, down):  5.487E-01 0.000E+00

     *
     * You are using vdW-DF for exchange-correlation in this calculation.
     * Please cite the following three references that made this development
     * possible:
     *
     *   M. Dion, H. Rydberg, E. Schroder, D. C. Langreth, and
     *   B. I. Lundqvist, Phys. Rev. Lett. 92, 246401 (2004).
     *
     *   T. Thonhauser, V. R. Cooper, S. Li, A. Puzder, P. Hyldgaard, and
     *   D. C. Langreth, Phys. Rev. B 76, 125112 (2007).
     *
     *   G. Roman-Perez and J. M. Soler, Phys. Rev. Lett. 103, 096102 (2009).
     *
     *
     * If you are using vdW-DF2, please also cite:
     *
     *   K. Lee, E. D. Murray, L. Kong, B. I. Lundqvist, and
     *   D. C. Langreth, Phys. Rev. B 82, 081101(R) (2010).
     *
     *
     * If you are calculating the stress with vdW-DF, please also cite:
     *
     *   R. Sabatini, E. Kucukbenli, B. Kolb, T. Thonhauser, and
     *   S. de Gironcoli, J. Phys.: Condens. Matter 24, 424209 (2012).
     *

     Carrying out vdW-DF run using the following parameters:

     Nqs =      20    Nr_points =    1024   r_max =   100.000
     q_mesh =
               0.00001000     0.04494208     0.09755937     0.15916263
               0.23128650     0.31572767     0.41458969     0.53033537
               0.66584808     0.82450364     1.01025438     1.22772762
               1.48234092     1.78043706     2.12944203     2.53805004
               3.01644009     3.57652955     4.23227104     5.00000000

     Gradients computed in reciprocal space

     Adding external electric field

     Computed dipole along edir(3) :
        Dipole                0.0000 Ry au,          0.0000 Debye
        Dipole field          0.0000 Ry au

        Potential amp.       -0.0000 Ry
        Total length         46.4977 bohr

     Starting wfc are  156 randomized atomic wfcs

     Self-consistent Calculation

     iteration #  1     ecut=    36.75 Ry     beta=0.10
     Davidson diagonalization with overlap
     ethr =  1.00E-02,  avg # of iterations =  2.0

[...]

     total energy              =   -1181.25007671 Ry
     Harris-Foulkes estimate   =   -1182.64355704 Ry
     estimated scf accuracy    <       7.80035182 Ry

[...]

     End of self-consistent calculation

          k = 0.0000 0.0000 0.0000 ( 22899 PWs)   bands (ev):

   -48.6639 -48.6635 -48.1847 -48.0610 -48.0597 -47.9969 -47.9969 -47.9962
   -47.9962 -47.7468 -47.6844 -47.6841 -27.3024 -27.2836 -27.2835 -27.2835
   -27.2771 -27.2771 -26.8302 -26.8299 -26.8298 -26.3507 -26.3289 -26.1569
   -26.1348 -26.1348 -26.0948 -26.0948 -26.0806 -26.0525 -26.0525 -26.0114
   -26.0025 -26.0025 -25.8341 -25.8187 -25.7698 -25.7698 -25.6995 -25.6995
   -25.6787 -25.6787 -25.6194 -25.5969 -25.5968 -25.4977 -25.4105 -25.4104
    -3.7151  -2.6277  -1.6655  -1.3407  -1.2103  -0.9575  -0.9575  -0.9288
    -0.9287  -0.8000  -0.5006  -0.5006  -0.4027  -0.2878  -0.2878   0.1966
     0.4856   0.4856   1.1494   1.1899   1.5052   1.5238   1.5238   1.8079
     1.8095   1.8096   1.9557   2.1211   2.2433   2.2433   2.3686   2.3686
     2.4427   2.4777   2.4777   2.5548   2.5548   2.6608   2.6608   2.6629
     2.8236   2.8236   3.0429   3.5666   3.5666   3.6121   4.0784   4.2185
     4.2189   4.2468   4.3480   4.3480

[...]

          k =-0.0780-0.0450 0.0000 ( 22820 PWs)   bands (ev):

[...]

     the Fermi energy is     1.1739 ev

!    total energy              =   -1182.03191688 Ry
     Harris-Foulkes estimate   =   -1182.03191657 Ry
     estimated scf accuracy    <       0.00000028 Ry

     The total energy is the sum of the following terms:

     one-electron contribution =   -7933.30208887 Ry
     hartree contribution      =    3955.02409148 Ry
     xc contribution           =    -206.90105354 Ry
     ewald contribution        =    3003.27089937 Ry
     electric field correction =       0.00000000 Ry
     smearing contrib. (-TS)   =      -0.12376532 Ry

     convergence has been achieved in  18 iterations

 BEEF-vdW xc energy contributions
           1 :   -176.891783074774
           2 :    159.301068868300
           3 :   -130.126521676494
           4 :    98.2498482688359
           5 :   -71.2632810939726
           6 :    52.6542044022574
           7 :   -41.5518054358136
           8 :    34.6115625950762
           9 :   -28.5316371309950
          10 :    21.7203950696009
          11 :   -14.4960122803696
          12 :    8.16898400060214
          13 :   -3.86100489798432
          14 :    1.80122081134718
          15 :   -1.35210374255601
          16 :    1.52969716103161
          17 :   -1.57670465936852
          18 :    1.25398344122053
[...]
               b(2) = (  0.000000  0.180048  0.000000 )
               b(3) = (  0.000000  0.000000  0.039625 )

     PseudoPot. # 1 for Zr read from file:
     /afs/slac.stanford.edu/u/if/mamunm/psp/gbrv1.5pbe/Zr.UPF
     MD5 check sum: 5db81b1e868ab7776c4564c113de050b
     Pseudo is Ultrasoft + core correction, Zval = 12.0
     Generated by new atomic code, or converted to UPF format
     Using radial grid of  887 points,  6 beta functions with:
                l(1) =   0
                l(2) =   0
                l(3) =   1
                l(4) =   1
                l(5) =   2
                l(6) =   2
     Q(r) pseudized with  6 coefficients,  rinner =    1.200   1.200   1.200
                                                       1.200   1.200

     PseudoPot. # 2 for Sc read from file:
     /afs/slac.stanford.edu/u/if/mamunm/psp/gbrv1.5pbe/Sc.UPF
     MD5 check sum: db30a2753ba66ef00f23801d899b7e7f
     Pseudo is Ultrasoft + core correction, Zval = 11.0
     Generated by new atomic code, or converted to UPF format
     Using radial grid of  849 points,  6 beta functions with:
                l(1) =   0
                l(2) =   0
                l(3) =   1
                l(4) =   1
                l(5) =   2
                l(6) =   2
     Q(r) pseudized with  6 coefficients,  rinner =    1.200   1.200   1.200
                                                       1.200   1.200

     vdW kernel table read from file vdW_kernel_table
     MD5 check sum: 095c7af220d748ca6e76c0b4c6cfb241

     atomic species   valence    mass     pseudopotential
        Zr1           12.00    91.22400     Zr( 1.00)
        Sc1           11.00    44.95591     Sc( 1.00)

     No symmetry found

   Cartesian axes

     site n.     atom                  positions (alat units)
         1           Zr1 tau(   1) = (   0.0000000   0.0000000  10.0000000  )
         2           Zr1 tau(   2) = (  -1.6033239   2.7770385  10.0000000  )
         3           Zr1 tau(   3) = (   1.6033239   2.7770385  10.0000000  )
         4           Sc1 tau(   4) = (   3.2066478   0.0000000  10.0000000  )
         5           Zr1 tau(   5) = (   3.2066478   1.8513590  12.6182170  )
         6           Zr1 tau(   6) = (   1.6033239   4.6283975  12.6182170  )
         7           Zr1 tau(   7) = (  -1.6033239   4.6283975  12.6182170  )
         8           Sc1 tau(   8) = (   0.0000000   1.8513590  12.6182170  )
         9           Zr1 tau(   9) = (  -0.0000018   3.6954892  15.0817225  )
        10           Zr1 tau(  10) = (   1.5970890   0.9292883  15.0817115  )
        11           Zr1 tau(  11) = (   4.8162169   0.9292962  15.0817181  )
        12           Sc1 tau(  12) = (   3.2066447   3.7027495  15.2390765  )

     number of k points=    20  Fermi-Dirac smearing, width (Ry)=  0.0110
                       cart. coord. in units 2pi/alat
        k(    1) = (   0.0000000   0.0000000   0.0000000), wk =   0.0555556
        k(    2) = (   0.0000000   0.0300080   0.0000000), wk =   0.1111111
        k(    3) = (   0.0000000   0.0600160   0.0000000), wk =   0.1111111
        k(    4) = (   0.0000000  -0.0900240   0.0000000), wk =   0.0555556
        k(    5) = (   0.0259877   0.0150040   0.0000000), wk =   0.1111111
        k(    6) = (   0.0259877   0.0450120   0.0000000), wk =   0.1111111
        k(    7) = (   0.0259877   0.0750200   0.0000000), wk =   0.1111111
        k(    8) = (   0.0259877  -0.0750200   0.0000000), wk =   0.1111111
        k(    9) = (   0.0259877  -0.0450120   0.0000000), wk =   0.1111111
        k(   10) = (   0.0259877  -0.0150040   0.0000000), wk =   0.1111111
        k(   11) = (   0.0519754   0.0300080   0.0000000), wk =   0.1111111
        k(   12) = (   0.0519754   0.0600160   0.0000000), wk =   0.1111111
        k(   13) = (   0.0519754   0.0900240   0.0000000), wk =   0.1111111
        k(   14) = (   0.0519754  -0.0600160   0.0000000), wk =   0.1111111
        k(   15) = (   0.0519754  -0.0300080   0.0000000), wk =   0.1111111
        k(   16) = (   0.0519754   0.0000000   0.0000000), wk =   0.1111111
        k(   17) = (  -0.0779630  -0.0450120   0.0000000), wk =   0.0555556
        k(   18) = (  -0.0779630  -0.0150040   0.0000000), wk =   0.1111111
        k(   19) = (  -0.0779630   0.0150040   0.0000000), wk =   0.1111111
        k(   20) = (  -0.0779630  -0.1350359   0.0000000), wk =   0.0555556

     Largest allocated arrays     est. size (Mb)     dimensions
     Largest temporary arrays     est. size (Mb)     dimensions

     Initial potential from superposition of free atoms
     Check: negative starting charge=   -0.547912

     starting charge  140.97345, renormalised to  141.00000

[...]

     *
     * You are using vdW-DF for exchange-correlation in this calculation.
     * Please cite the following three references that made this development
     * possible:
     *
     *   M. Dion, H. Rydberg, E. Schroder, D. C. Langreth, and
     *   B. I. Lundqvist, Phys. Rev. Lett. 92, 246401 (2004).
     *
     *   T. Thonhauser, V. R. Cooper, S. Li, A. Puzder, P. Hyldgaard, and
     *   D. C. Langreth, Phys. Rev. B 76, 125112 (2007).
     *
     *   G. Roman-Perez and J. M. Soler, Phys. Rev. Lett. 103, 096102 (2009).
     *
     *
     * If you are using vdW-DF2, please also cite:
     *
     *   K. Lee, E. D. Murray, L. Kong, B. I. Lundqvist, and
     *   D. C. Langreth, Phys. Rev. B 82, 081101(R) (2010).
     *
     *
     * If you are calculating the stress with vdW-DF, please also cite:
     *
     *   R. Sabatini, E. Kucukbenli, B. Kolb, T. Thonhauser, and
     *   S. de Gironcoli, J. Phys.: Condens. Matter 24, 424209 (2012).
     *

     Carrying out vdW-DF run using the following parameters:

     Nqs =      20    Nr_points =    1024   r_max =   100.000
     q_mesh =
               0.00001000     0.04494208     0.09755937     0.15916263
               0.23128650     0.31572767     0.41458969     0.53033537
               0.66584808     0.82450364     1.01025438     1.22772762
               1.48234092     1.78043706     2.12944203     2.53805004
               3.01644009     3.57652955     4.23227104     5.00000000

     Gradients computed in reciprocal space

[...]

     Starting wfc are  156 randomized atomic wfcs

     Self-consistent Calculation

[...]

     total energy              =   -1182.04106043 Ry
     Harris-Foulkes estimate   =   -1182.04105962 Ry
     estimated scf accuracy    <       0.00000222 Ry

     iteration # 18     ecut=    36.75 Ry     beta=0.10
     Davidson diagonalization with overlap
     ethr =  1.57E-09,  avg # of iterations =  2.9

[...]

     negative rho (up, down):  5.598E-01 0.000E+00

     Adding external electric field

     Computed dipole along edir(3) :
        Dipole               -0.0031 Ry au,         -0.0078 Debye
        Dipole field         -0.0000 Ry au

        Potential amp.        0.0006 Ry
        Total length         46.4977 bohr

     End of self-consistent calculation

[...]

          k = 0.0520 0.0000 0.0000 ( 22820 PWs)   bands (ev):

[...]

          k =-0.0780-0.1350 0.0000 ( 22820 PWs)   bands (ev):

   -48.7412 -48.6750 -48.0775 -48.0474 -48.0280 -48.0077 -47.9562 -47.9346
   -47.9130 -47.6678 -47.6467 -47.6261 -27.3755 -27.3391 -27.3217 -27.3068
   -27.2772 -27.2567 -26.7489 -26.7181 -26.6894 -26.2372 -26.1808 -26.1641
   -26.0957 -26.0657 -26.0407 -26.0098 -26.0014 -25.9903 -25.9753 -25.9733
   -25.9561 -25.9540 -25.9204 -25.9003 -25.8930 -25.8205 -25.7398 -25.6736
   -25.6458 -25.5987 -25.5820 -25.5361 -25.5236 -25.5005 -25.4971 -25.3805
    -2.3556  -2.2807  -1.4176  -1.2967  -0.6627  -0.6383  -0.6380  -0.4714
    -0.3592  -0.2160   0.0993   0.1888   0.3468   0.4026   0.4797   0.5168
     0.6212   0.7001   0.7399   0.7428   0.8935   0.9835   1.0061   1.0687
     1.1202   1.1591   1.2150   1.3149   1.5033   1.5424   1.5751   1.7141
     1.8356   2.0612   2.1312   2.2142   2.2734   2.4160   2.7873   2.8441
     2.9588   3.0484   3.3493   3.3794   3.4086   3.4517   3.4518   3.5901
     3.6870   3.7454   3.7564   3.8373

     the Fermi energy is     1.1622 ev

!    total energy              =   -1182.04106127 Ry
     Harris-Foulkes estimate   =   -1182.04106081 Ry
     estimated scf accuracy    <       0.00000050 Ry

     The total energy is the sum of the following terms:

     one-electron contribution =   -8066.53812099 Ry
     hartree contribution      =    4021.78420277 Ry
     xc contribution           =    -207.06455462 Ry
     ewald contribution        =    3069.89616754 Ry
     electric field correction =       0.00000002 Ry
     smearing contrib. (-TS)   =      -0.11875600 Ry

     convergence has been achieved in  18 iterations

 BEEF-vdW xc energy contributions
           1 :   -177.070072503191
           2 :    159.531577644437
           3 :   -130.405752218945
           4 :    98.5090892251237
           5 :   -71.4148140430144
           6 :    52.6574892652545
           7 :   -41.4467107686708
           8 :    34.4920510889451
           9 :   -28.4818330163691
          10 :    21.7628989038523
          11 :   -14.5870155710828
          12 :    8.23516080908178
          13 :   -3.84658167976482
          14 :    1.69668248700464
          15 :   -1.19460954655926
          16 :    1.38037018713516
          17 :   -1.48736864428020
          18 :    1.23941103853178
          19 :  -0.807563171907901
          20 :   0.555602443792026
          21 :  -0.761046466457628
          22 :    1.44662829930041
          23 :   -2.37422163547751
          24 :    3.17819897268575
          25 :   -3.56018310116090
          26 :    3.44366114698838
          27 :   -3.00738762715349
          28 :    2.57600323385699
          29 :   -2.42412711125047
          30 :    2.60797027306941
          31 :   -20.5376665821805
          32 :   -15.2111176909565

     Forces acting on atoms (Ry/au):

     negative rho (up, down):  5.598E-01 0.000E+00
     atom    1 type  1   force =    -0.00000086   -0.00047316    0.01358603
     atom    2 type  1   force =    -0.00041225    0.00023364    0.01358752
     atom    3 type  1   force =     0.00041173    0.00023528    0.01358700
     atom    4 type  2   force =    -0.00000110   -0.00000533   -0.00196296
     atom    5 type  1   force =     0.00000257    0.00468290   -0.00695779
     atom    6 type  1   force =     0.00405552   -0.00233888   -0.00695683
     atom    7 type  1   force =    -0.00405591   -0.00234206   -0.00695624
     atom    8 type  2   force =     0.00000212    0.00000242   -0.01744849
     atom    9 type  1   force =    -0.00000015   -0.00093466    0.00002874
     atom   10 type  1   force =    -0.00081082    0.00046867    0.00002809
     atom   11 type  1   force =     0.00080979    0.00046879    0.00002490
     atom   12 type  2   force =    -0.00000065    0.00000239   -0.00055997

     Total force =     0.032813     Total SCF correction =     0.002400

     entering subroutine stress ...

     negative rho (up, down):  5.598E-01 0.000E+00
          total   stress  (Ry/bohr**3)                   (kbar)     P=   -6.38
  -0.00004701   0.00000000   0.00000000         -6.92      0.00      0.00
   0.00000000  -0.00004699  -0.00000000          0.00     -6.91     -0.00
   0.00000000  -0.00000000  -0.00003610          0.00     -0.00     -5.31

 !ASE

     Writing output data file calc.save

     General routines

     Parallel routines

   This run was terminated on:  22:20:43   2Jan2019

   JOB DONE.
Job  /afs/slac/g/suncat/bin/suncat-tsmpirun -x LD_LIBRARY_PATH -wdir /scratch/qe649566_v1Akt pw.x -in pw.inp

TID   HOST_NAME   COMMAND_LINE            STATUS            TERMINATION_TIME
00000 suncat0027 pw.x -in pw.inp   Done                     01/02/2019 22:20:43
00001 suncat0027 pw.x -in pw.inp   Done                     01/02/2019 22:20:43
00002 suncat0027 pw.x -in pw.inp   Done                     01/02/2019 22:20:43
00003 suncat0027 pw.x -in pw.inp   Done                     01/02/2019 22:20:43
00004 suncat0027 pw.x -in pw.inp   Done                     01/02/2019 22:20:43
00005 suncat0027 pw.x -in pw.inp   Done                     01/02/2019 22:20:43
00006 suncat0027 pw.x -in pw.inp   Done                     01/02/2019 22:20:43
00007 suncat0027 pw.x -in pw.inp   Done                     01/02/2019 22:20:43
00008 suncat0026 pw.x -in pw.inp   Done                     01/02/2019 22:20:43
00009 suncat0026 pw.x -in pw.inp   Done                     01/02/2019 22:20:43
00010 suncat0026 pw.x -in pw.inp   Done                     01/02/2019 22:20:43
00011 suncat0026 pw.x -in pw.inp   Done                     01/02/2019 22:20:43
00012 suncat0026 pw.x -in pw.inp   Done                     01/02/2019 22:20:43
00013 suncat0026 pw.x -in pw.inp   Done                     01/02/2019 22:20:43
00014 suncat0026 pw.x -in pw.inp   Done                     01/02/2019 22:20:43
00015 suncat0026 pw.x -in pw.inp   Done                     01/02/2019 22:20:43
00016 suncat0192 pw.x -in pw.inp   Done                     01/02/2019 22:20:43
00017 suncat0192 pw.x -in pw.inp   Done                     01/02/2019 22:20:43
00018 suncat0192 pw.x -in pw.inp   Done                     01/02/2019 22:20:43
00019 suncat0192 pw.x -in pw.inp   Done                     01/02/2019 22:20:43
00020 suncat0192 pw.x -in pw.inp   Done                     01/02/2019 22:20:43
00021 suncat0192 pw.x -in pw.inp   Done                     01/02/2019 22:20:43
00022 suncat0192 pw.x -in pw.inp   Done                     01/02/2019 22:20:43
00023 suncat0192 pw.x -in pw.inp   Done                     01/02/2019 22:20:43
00024 suncat0185 pw.x -in pw.inp   Done                     01/02/2019 22:20:43
00025 suncat0185 pw.x -in pw.inp   Done                     01/02/2019 22:20:43
00026 suncat0185 pw.x -in pw.inp   Done                     01/02/2019 22:20:43
00027 suncat0185 pw.x -in pw.inp   Done                     01/02/2019 22:20:43
00028 suncat0185 pw.x -in pw.inp   Done                     01/02/2019 22:20:43
00029 suncat0185 pw.x -in pw.inp   Done                     01/02/2019 22:20:43
00030 suncat0185 pw.x -in pw.inp   Done                     01/02/2019 22:20:43
00031 suncat0185 pw.x -in pw.inp   Done                     01/02/2019 22:20:43
00032 suncat0184 pw.x -in pw.inp   Done                     01/02/2019 22:20:43
00033 suncat0184 pw.x -in pw.inp   Done                     01/02/2019 22:20:43
00034 suncat0184 pw.x -in pw.inp   Done                     01/02/2019 22:20:43
00035 suncat0184 pw.x -in pw.inp   Done                     01/02/2019 22:20:43
00036 suncat0184 pw.x -in pw.inp   Done                     01/02/2019 22:20:43
00037 suncat0184 pw.x -in pw.inp   Done                     01/02/2019 22:20:43
00038 suncat0184 pw.x -in pw.inp   Done                     01/02/2019 22:20:43
00039 suncat0184 pw.x -in pw.inp   Done                     01/02/2019 22:20:43
00040 suncat0183 pw.x -in pw.inp   Done                     01/02/2019 22:20:43
00041 suncat0183 pw.x -in pw.inp   Done                     01/02/2019 22:20:43
00042 suncat0183 pw.x -in pw.inp   Done                     01/02/2019 22:20:43
00043 suncat0183 pw.x -in pw.inp   Done                     01/02/2019 22:20:43
00044 suncat0183 pw.x -in pw.inp   Done                     01/02/2019 22:20:43
00045 suncat0183 pw.x -in pw.inp   Done                     01/02/2019 22:20:43
00046 suncat0183 pw.x -in pw.inp   Done                     01/02/2019 22:20:43
00047 suncat0183 pw.x -in pw.inp   Done                     01/02/2019 22:20:43
00048 suncat0172 pw.x -in pw.inp   Done                     01/02/2019 22:20:43
00049 suncat0172 pw.x -in pw.inp   Done                     01/02/2019 22:20:43
00050 suncat0172 pw.x -in pw.inp   Done                     01/02/2019 22:20:43
00051 suncat0172 pw.x -in pw.inp   Done                     01/02/2019 22:20:43
00052 suncat0172 pw.x -in pw.inp   Done                     01/02/2019 22:20:43
00053 suncat0172 pw.x -in pw.inp   Done                     01/02/2019 22:20:43
00054 suncat0172 pw.x -in pw.inp   Done                     01/02/2019 22:20:43
00055 suncat0172 pw.x -in pw.inp   Done                     01/02/2019 22:20:43
00056 suncat0171 pw.x -in pw.inp   Done                     01/02/2019 22:20:43
00057 suncat0171 pw.x -in pw.inp   Done                     01/02/2019 22:20:43
00058 suncat0171 pw.x -in pw.inp   Done                     01/02/2019 22:20:43
00059 suncat0171 pw.x -in pw.inp   Done                     01/02/2019 22:20:43
00060 suncat0171 pw.x -in pw.inp   Done                     01/02/2019 22:20:43
00061 suncat0171 pw.x -in pw.inp   Done                     01/02/2019 22:20:43
00062 suncat0171 pw.x -in pw.inp   Done                     01/02/2019 22:20:43
00063 suncat0171 pw.x -in pw.inp   Done                     01/02/2019 22:20:43