     Program PWSCF v.5.1rc2 (svn rev. 11289) starts on  2Jan2019 at 15:46:48

     Current dimensions of program PWSCF are:
     Max number of different atomic species (ntypx) = 10
     Max number of k-points (npk) =  40000
     Max angular momentum in pseudopotentials (lmaxx) =  3
     Presently stress not available with electric field

     IMPORTANT: XC functional enforced from input :
     Exchange-correlation      = BEEF-VDW ( 1  4 27 13 2)
     Any further DFT definition will be discarded
     Please, verify this is what you really want

     Subspace diagonalization in iterative solution of the eigenvalue problem:
     a serial algorithm will be used

     bravais-lattice index     =            0
     lattice parameter (alat)  =       1.8897  a.u.
     unit-cell volume          =    5104.0321 (a.u.)^3
     number of atoms/cell      =           12
     number of atomic types    =            2
     number of electrons       =       216.00
     number of Kohn-Sham states=          138
     kinetic-energy cutoff     =      36.7493  Ry
     charge density cutoff     =     367.4932  Ry
     convergence threshold     =      1.0E-06
     mixing beta               =       0.1000
     number of iterations used =           10  plain     mixing
     Exchange-correlation      = BEEF-VDW ( 1  4 27 13 2)
     nstep                     =           50

     celldm(1)=   1.889726  celldm(2)=   0.000000  celldm(3)=   0.000000
     celldm(4)=   0.000000  celldm(5)=   0.000000  celldm(6)=   0.000000

     crystal axes: (cart. coord. in units of alat)
               a(1) = (   5.929336   0.000000   0.000000 )
               a(2) = (  -2.964668   5.134956   0.000000 )
               a(3) = (   0.000000   0.000000  24.841283 )

     reciprocal axes: (cart. coord. in units 2 pi/alat)
               b(1) = (  0.168653  0.097372  0.000000 )
               b(2) = (  0.000000  0.194744  0.000000 )
               b(3) = (  0.000000  0.000000  0.040256 )

     PseudoPot. # 1 for Zn read from file:
     /afs/slac.stanford.edu/u/if/mamunm/psp/gbrv1.5pbe/Zn.UPF
     MD5 check sum: df62231357ef9e81f77b2b3087fa5675
     Pseudo is Ultrasoft, Zval = 20.0
     Generated by new atomic code, or converted to UPF format
     Using radial grid of  943 points,  6 beta functions with:
                l(1) =   0
                l(2) =   0
                l(3) =   1
                l(4) =   1
                l(5) =   2
                l(6) =   2
     Q(r) pseudized with  8 coefficients,  rinner =    1.100   1.100   1.100
                                                       1.100   1.100

     PseudoPot. # 2 for Hg read from file:
     /afs/slac.stanford.edu/u/if/mamunm/psp/gbrv1.5pbe/Hg.UPF
     MD5 check sum: 8f42caffe07f7fd9c0a564347f8c5498
     Pseudo is Ultrasoft + core correction, Zval = 12.0
     Generated by new atomic code, or converted to UPF format
     Using radial grid of  985 points,  6 beta functions with:
                l(1) =   0
                l(2) =   0
                l(3) =   1
                l(4) =   1
                l(5) =   2
                l(6) =   2
     Q(r) pseudized with  8 coefficients,  rinner =    2.000   2.000   2.000
                                                       2.000   2.000

     vdW kernel table read from file vdW_kernel_table
     MD5 check sum: 095c7af220d748ca6e76c0b4c6cfb241

     atomic species   valence    mass     pseudopotential
        Zn1           20.00    65.38000     Zn( 1.00)
        Hg1           12.00   200.59200     Hg( 1.00)

     No symmetry found

   Cartesian axes

     site n.     atom                  positions (alat units)
         1           Zn1 tau(   1) = (   0.0000000   0.0000000  10.0000000  )
         2           Zn1 tau(   2) = (  -1.4823340   2.5674779  10.0000000  )
         3           Zn1 tau(   3) = (   1.4823340   2.5674779  10.0000000  )
         4           Hg1 tau(   4) = (   2.9646681   0.0000000  10.0000000  )
         5           Zn1 tau(   5) = (   2.9646681   1.7116519  12.4206414  )
         6           Zn1 tau(   6) = (   1.4823340   4.2791298  12.4206414  )
         7           Zn1 tau(   7) = (  -1.4823340   4.2791298  12.4206414  )
         8           Hg1 tau(   8) = (   0.0000000   1.7116519  12.4206414  )
         9           Zn1 tau(   9) = (  -0.0000000   3.4233038  14.8412827  )
        10           Zn1 tau(  10) = (   1.4823340   0.8558260  14.8412827  )
        11           Zn1 tau(  11) = (   4.4470021   0.8558260  14.8412827  )
        12           Hg1 tau(  12) = (   2.9646681   3.4233038  14.8412827  )

     number of k points=    20  Fermi-Dirac smearing, width (Ry)=  0.0110
                       cart. coord. in units 2pi/alat
        k(    1) = (   0.0000000   0.0000000   0.0000000), wk =   0.0555556
        k(    2) = (   0.0000000   0.0324573   0.0000000), wk =   0.1111111
        k(    3) = (   0.0000000   0.0649145   0.0000000), wk =   0.1111111
        k(    4) = (   0.0000000  -0.0973718   0.0000000), wk =   0.0555556
        k(    5) = (   0.0281088   0.0162286   0.0000000), wk =   0.1111111
        k(    6) = (   0.0281088   0.0486859   0.0000000), wk =   0.1111111
        k(    7) = (   0.0281088   0.0811432   0.0000000), wk =   0.1111111
        k(    8) = (   0.0281088  -0.0811432   0.0000000), wk =   0.1111111
        k(    9) = (   0.0281088  -0.0486859   0.0000000), wk =   0.1111111
        k(   10) = (   0.0281088  -0.0162286   0.0000000), wk =   0.1111111
        k(   11) = (   0.0562176   0.0324573   0.0000000), wk =   0.1111111
        k(   12) = (   0.0562176   0.0649145   0.0000000), wk =   0.1111111
        k(   13) = (   0.0562176   0.0973718   0.0000000), wk =   0.1111111
        k(   14) = (   0.0562176  -0.0649145   0.0000000), wk =   0.1111111
        k(   15) = (   0.0562176  -0.0324573   0.0000000), wk =   0.1111111
        k(   16) = (   0.0562176   0.0000000   0.0000000), wk =   0.1111111
        k(   17) = (  -0.0843265  -0.0486859   0.0000000), wk =   0.0555556
        k(   18) = (  -0.0843265  -0.0162286   0.0000000), wk =   0.1111111
        k(   19) = (  -0.0843265   0.0162286   0.0000000), wk =   0.1111111
        k(   20) = (  -0.0843265  -0.1460577   0.0000000), wk =   0.0555556

     Largest allocated arrays     est. size (Mb)     dimensions
     Largest temporary arrays     est. size (Mb)     dimensions

     Initial potential from superposition of free atoms
     Check: negative starting charge=   -0.000843

     starting charge  215.99856, renormalised to  216.00000

     negative rho (up, down):  8.425E-04 0.000E+00

     *
     * You are using vdW-DF for exchange-correlation in this calculation.
     * Please cite the following three references that made this development
     * possible:
     *
     *   M. Dion, H. Rydberg, E. Schroder, D. C. Langreth, and
     *   B. I. Lundqvist, Phys. Rev. Lett. 92, 246401 (2004).
     *
     *   T. Thonhauser, V. R. Cooper, S. Li, A. Puzder, P. Hyldgaard, and
     *   D. C. Langreth, Phys. Rev. B 76, 125112 (2007).
     *
     *   G. Roman-Perez and J. M. Soler, Phys. Rev. Lett. 103, 096102 (2009).
     *
     *
     * If you are using vdW-DF2, please also cite:
     *
     *   K. Lee, E. D. Murray, L. Kong, B. I. Lundqvist, and
     *   D. C. Langreth, Phys. Rev. B 82, 081101(R) (2010).
     *
     *
     * If you are calculating the stress with vdW-DF, please also cite:
     *
     *   R. Sabatini, E. Kucukbenli, B. Kolb, T. Thonhauser, and
     *   S. de Gironcoli, J. Phys.: Condens. Matter 24, 424209 (2012).
     *

     Carrying out vdW-DF run using the following parameters:

     Nqs =      20    Nr_points =    1024   r_max =   100.000
     q_mesh =
               0.00001000     0.04494208     0.09755937     0.15916263
               0.23128650     0.31572767     0.41458969     0.53033537
               0.66584808     0.82450364     1.01025438     1.22772762
               1.48234092     1.78043706     2.12944203     2.53805004
               3.01644009     3.57652955     4.23227104     5.00000000

     Gradients computed in reciprocal space

     Adding external electric field

     Computed dipole along edir(3) :
        Dipole               -0.0000 Ry au,         -0.0000 Debye
        Dipole field         -0.0000 Ry au

        Potential amp.        0.0000 Ry
        Total length         45.7696 bohr

     Starting wfc are  144 randomized atomic wfcs

     Self-consistent Calculation

     iteration #  1     ecut=    36.75 Ry     beta=0.10
     Davidson diagonalization with overlap
     ethr =  1.00E-02,  avg # of iterations =  8.1

     Threshold (ethr) on eigenvalues was too large:
     Diagonalizing with lowered threshold

     Davidson diagonalization with overlap
     ethr =  3.37E-05,  avg # of iterations =  8.9

[...]

     total energy              =   -4492.14076233 Ry
     Harris-Foulkes estimate   =   -4492.14702863 Ry
     estimated scf accuracy    <       0.07550077 Ry

[...]

     End of self-consistent calculation

          k = 0.0000 0.0000 0.0000 ( 19219 PWs)   bands (ev):

  -126.3096-126.3090-126.3078-126.1150-126.1150-126.1147-126.1147-126.1147
  -126.1147 -80.4977 -80.4965 -80.4956 -80.4939 -80.4932 -80.4912 -80.4867
   -80.4826 -80.4816 -80.3095 -80.3094 -80.3091 -80.3090 -80.3089 -80.3088
   -80.2950 -80.2949 -80.2949 -80.2949 -80.2927 -80.2925 -80.2920 -80.2919
   -80.2864 -80.2863 -80.2863 -80.2862  -8.7171  -7.9994  -7.9993  -7.9402
    -7.9001  -7.8999  -7.8012  -7.7940  -7.7363  -7.7362  -7.6561  -7.6475
    -7.6475  -7.5905  -7.4023  -7.3530  -7.3528  -7.3036  -7.3036  -7.3013
    -7.3012  -7.2943  -7.2446  -7.2129  -7.2125  -7.2082  -7.1990  -7.1632
    -7.1631  -7.0852  -7.0852  -6.9627  -6.9627  -6.9170  -6.9170  -6.9143
    -6.8801  -6.8798  -6.8797  -6.8796  -6.8741  -6.8111  -6.7700  -6.7699
    -6.7589  -6.7156  -6.6665  -6.6640  -6.6475  -6.6474  -6.6397  -6.6397
    -6.5963  -6.5962  -6.4786  -6.4784  -6.4464  -6.4051  -6.3842  -6.3842
    -6.3365  -6.3365  -3.8626  -2.1075  -2.0730  -1.9002  -1.9001  -1.5967
    -1.5966  -0.7715  -0.7393  -0.5779  -0.5778  -0.3748   0.2618   0.2619
     1.5635   1.7950   1.7950   1.9350   2.2401   2.2402   2.5997   3.7622
     4.3380   5.0765   5.3068   5.5625   5.5625   5.6944   5.6944   5.7375
     5.7590   6.8810   7.3006   7.8294   7.9648   7.9649   8.1582   8.5264
     8.5264   8.5467

[...]

          k =-0.0843-0.0487 0.0000 ( 19212 PWs)   bands (ev):

[...]

     the Fermi energy is     0.3260 ev

!    total energy              =   -4492.13584082 Ry
     Harris-Foulkes estimate   =   -4492.13583188 Ry
     estimated scf accuracy    <       0.00000055 Ry

     The total energy is the sum of the following terms:

     one-electron contribution =  -25499.18681498 Ry
     hartree contribution      =   12755.50610711 Ry
     xc contribution           =    -511.76204875 Ry
     ewald contribution        =    8763.33549354 Ry
     electric field correction =       0.00000000 Ry
     smearing contrib. (-TS)   =      -0.02857775 Ry

     convergence has been achieved in  11 iterations

 BEEF-vdW xc energy contributions
           1 :   -452.798477236923
           2 :    411.671092263286
           3 :   -342.244155567887
[...]
     Q(r) pseudized with  8 coefficients,  rinner =    1.100   1.100   1.100
                                                       1.100   1.100

     PseudoPot. # 2 for Hg read from file:
     /afs/slac.stanford.edu/u/if/mamunm/psp/gbrv1.5pbe/Hg.UPF
     MD5 check sum: 8f42caffe07f7fd9c0a564347f8c5498
     Pseudo is Ultrasoft + core correction, Zval = 12.0
     Generated by new atomic code, or converted to UPF format
     Using radial grid of  985 points,  6 beta functions with:
                l(1) =   0
                l(2) =   0
                l(3) =   1
                l(4) =   1
                l(5) =   2
                l(6) =   2
     Q(r) pseudized with  8 coefficients,  rinner =    2.000   2.000   2.000
                                                       2.000   2.000

     vdW kernel table read from file vdW_kernel_table
     MD5 check sum: 095c7af220d748ca6e76c0b4c6cfb241

     atomic species   valence    mass     pseudopotential
        Zn1           20.00    65.38000     Zn( 1.00)
        Hg1           12.00   200.59200     Hg( 1.00)

     No symmetry found

   Cartesian axes

     site n.     atom                  positions (alat units)
         1           Zn1 tau(   1) = (   0.0000000   0.0000000  10.0000000  )
         2           Zn1 tau(   2) = (  -1.4823340   2.5674779  10.0000000  )
         3           Zn1 tau(   3) = (   1.4823340   2.5674779  10.0000000  )
         4           Hg1 tau(   4) = (   2.9646681   0.0000000  10.0000000  )
         5           Zn1 tau(   5) = (   2.9646681   1.7116519  12.4206414  )
         6           Zn1 tau(   6) = (   1.4823340   4.2791298  12.4206414  )
         7           Zn1 tau(   7) = (  -1.4823340   4.2791298  12.4206414  )
         8           Hg1 tau(   8) = (   0.0000000   1.7116519  12.4206414  )
         9           Zn1 tau(   9) = (   0.0002489   3.4918902  14.8942749  )
        10           Zn1 tau(  10) = (   1.5411407   0.8217503  14.8956330  )
        11           Zn1 tau(  11) = (   4.3878938   0.8212806  14.8942428  )
        12           Hg1 tau(  12) = (   2.9656540   3.4222663  15.4786562  )

     number of k points=    20  Fermi-Dirac smearing, width (Ry)=  0.0110
                       cart. coord. in units 2pi/alat
        k(    1) = (   0.0000000   0.0000000   0.0000000), wk =   0.0555556
        k(    2) = (   0.0000000   0.0324573   0.0000000), wk =   0.1111111
        k(    3) = (   0.0000000   0.0649145   0.0000000), wk =   0.1111111
        k(    4) = (   0.0000000  -0.0973718   0.0000000), wk =   0.0555556
        k(    5) = (   0.0281088   0.0162286   0.0000000), wk =   0.1111111
        k(    6) = (   0.0281088   0.0486859   0.0000000), wk =   0.1111111
        k(    7) = (   0.0281088   0.0811432   0.0000000), wk =   0.1111111
        k(    8) = (   0.0281088  -0.0811432   0.0000000), wk =   0.1111111
        k(    9) = (   0.0281088  -0.0486859   0.0000000), wk =   0.1111111
        k(   10) = (   0.0281088  -0.0162286   0.0000000), wk =   0.1111111
        k(   11) = (   0.0562176   0.0324573   0.0000000), wk =   0.1111111
        k(   12) = (   0.0562176   0.0649145   0.0000000), wk =   0.1111111
        k(   13) = (   0.0562176   0.0973718   0.0000000), wk =   0.1111111
        k(   14) = (   0.0562176  -0.0649145   0.0000000), wk =   0.1111111
        k(   15) = (   0.0562176  -0.0324573   0.0000000), wk =   0.1111111
        k(   16) = (   0.0562176   0.0000000   0.0000000), wk =   0.1111111
        k(   17) = (  -0.0843265  -0.0486859   0.0000000), wk =   0.0555556
        k(   18) = (  -0.0843265  -0.0162286   0.0000000), wk =   0.1111111
        k(   19) = (  -0.0843265   0.0162286   0.0000000), wk =   0.1111111
        k(   20) = (  -0.0843265  -0.1460577   0.0000000), wk =   0.0555556

     Largest allocated arrays     est. size (Mb)     dimensions
     Largest temporary arrays     est. size (Mb)     dimensions

     Initial potential from superposition of free atoms
     Check: negative starting charge=   -0.000792

     starting charge  215.99856, renormalised to  216.00000

[...]

     *
     * You are using vdW-DF for exchange-correlation in this calculation.
     * Please cite the following three references that made this development
     * possible:
     *
     *   M. Dion, H. Rydberg, E. Schroder, D. C. Langreth, and
     *   B. I. Lundqvist, Phys. Rev. Lett. 92, 246401 (2004).
     *
     *   T. Thonhauser, V. R. Cooper, S. Li, A. Puzder, P. Hyldgaard, and
     *   D. C. Langreth, Phys. Rev. B 76, 125112 (2007).
     *
     *   G. Roman-Perez and J. M. Soler, Phys. Rev. Lett. 103, 096102 (2009).
     *
     *
     * If you are using vdW-DF2, please also cite:
     *
     *   K. Lee, E. D. Murray, L. Kong, B. I. Lundqvist, and
     *   D. C. Langreth, Phys. Rev. B 82, 081101(R) (2010).
     *
     *
     * If you are calculating the stress with vdW-DF, please also cite:
     *
     *   R. Sabatini, E. Kucukbenli, B. Kolb, T. Thonhauser, and
     *   S. de Gironcoli, J. Phys.: Condens. Matter 24, 424209 (2012).
     *

     Carrying out vdW-DF run using the following parameters:

     Nqs =      20    Nr_points =    1024   r_max =   100.000
     q_mesh =
               0.00001000     0.04494208     0.09755937     0.15916263
               0.23128650     0.31572767     0.41458969     0.53033537
               0.66584808     0.82450364     1.01025438     1.22772762
               1.48234092     1.78043706     2.12944203     2.53805004
               3.01644009     3.57652955     4.23227104     5.00000000

     Gradients computed in reciprocal space

[...]

     Starting wfc are  144 randomized atomic wfcs

     Self-consistent Calculation

[...]

     Threshold (ethr) on eigenvalues was too large:
     Diagonalizing with lowered threshold

     Davidson diagonalization with overlap
     ethr =  3.23E-05,  avg # of iterations =  9.3

[...]

     total energy              =   -4492.16447701 Ry
     Harris-Foulkes estimate   =   -4492.16447394 Ry
     estimated scf accuracy    <       0.00000346 Ry

     iteration # 11     ecut=    36.75 Ry     beta=0.10
     Davidson diagonalization with overlap
     ethr =  1.60E-09,  avg # of iterations =  2.0

[...]

     negative rho (up, down):  9.114E-04 0.000E+00

     Adding external electric field

     Computed dipole along edir(3) :
        Dipole               -0.0053 Ry au,         -0.0134 Debye
        Dipole field         -0.0000 Ry au

        Potential amp.        0.0012 Ry
        Total length         45.7696 bohr

     End of self-consistent calculation

[...]

          k = 0.0562 0.0000 0.0000 ( 19201 PWs)   bands (ev):

[...]

          k =-0.0843-0.1461 0.0000 ( 19212 PWs)   bands (ev):

  -126.2288-126.2288-126.2286-126.1116-126.1115-126.1114-126.0595-126.0592
  -126.0589 -80.4161 -80.4159 -80.4156 -80.4130 -80.4123 -80.4114 -80.4034
   -80.4019 -80.4001 -80.3067 -80.3065 -80.3064 -80.2912 -80.2903 -80.2895
   -80.2864 -80.2847 -80.2828 -80.2519 -80.2515 -80.2512 -80.2391 -80.2380
   -80.2376 -80.2363 -80.2337 -80.2329  -7.8343  -7.6596  -7.6328  -7.5975
    -7.5574  -7.5334  -7.4763  -7.4469  -7.4345  -7.3965  -7.3810  -7.3374
    -7.2903  -7.2635  -7.2620  -7.2523  -7.2340  -7.1938  -7.1725  -7.1521
    -7.1510  -7.1467  -7.1436  -7.0907  -7.0894  -7.0865  -7.0706  -7.0613
    -7.0591  -7.0253  -7.0070  -7.0063  -6.9813  -6.9692  -6.9445  -6.9435
    -6.9324  -6.9272  -6.9229  -6.8852  -6.8776  -6.8717  -6.8498  -6.8301
    -6.8278  -6.8201  -6.7898  -6.7560  -6.7481  -6.7196  -6.7081  -6.6845
    -6.6414  -6.5908  -6.5784  -6.4840  -6.4156  -6.4091  -6.3666  -6.3615
    -6.2830  -6.2443  -4.9386  -4.8430  -3.3828  -3.2792  -2.8336  -2.3614
    -1.6991  -1.6352   0.2041   0.3236   0.9085   1.0354   2.4922   2.6330
     2.9174   3.1347   3.3522   3.7335   3.7638   3.8607   4.3729   4.3781
     4.8051   5.0989   5.1415   5.2208   5.6816   5.7343   5.8357   5.9972
     6.3049   6.3362   6.4178   6.4471   6.5573   6.5950   6.6931   6.7456
     6.7817   6.9399

     the Fermi energy is     0.3405 ev

!    total energy              =   -4492.16448549 Ry
     Harris-Foulkes estimate   =   -4492.16447727 Ry
     estimated scf accuracy    <       0.00000097 Ry

     The total energy is the sum of the following terms:

     one-electron contribution =  -25007.43598271 Ry
     hartree contribution      =   12510.12094762 Ry
     xc contribution           =    -511.68732660 Ry
     ewald contribution        =    8516.86612904 Ry
     electric field correction =       0.00000007 Ry
     smearing contrib. (-TS)   =      -0.02825291 Ry

     convergence has been achieved in  11 iterations

 BEEF-vdW xc energy contributions
           1 :   -453.219798614290
           2 :    411.974459859701
           3 :   -342.409550121278
           4 :    264.116412551670
           5 :   -194.692939536641
           6 :    143.342337769508
           7 :   -109.581631986067
           8 :    86.8102631396506
           9 :   -67.9031627993486
          10 :    49.3280754075586
          11 :   -31.8060987496075
          12 :    18.0106760174945
          13 :   -9.56051195535730
          14 :    5.54277136333997
          15 :   -3.30055496928009
          16 :   0.466503260476145
          17 :    3.50046319370682
          18 :   -7.36849581941266
          19 :    9.50864591135547
          20 :   -9.36609758879382
          21 :    7.88627434782785
          22 :   -6.69612617706974
          23 :    6.81786649637922
          24 :   -7.97533663411508
          25 :    8.98543559847769
          26 :   -8.82888918289115
          27 :    7.48826547099640
          28 :   -5.90134027764913
          29 :    5.13160604732911
          30 :   -5.48026012866063
          31 :   -36.6418869445651
          32 :   -25.4373375965057

     Forces acting on atoms (Ry/au):

     negative rho (up, down):  9.114E-04 0.000E+00
     atom    1 type  1   force =     0.00000087   -0.00494465   -0.00610602
     atom    2 type  1   force =    -0.00428262    0.00247233   -0.00610473
     atom    3 type  1   force =     0.00428301    0.00247164   -0.00610672
     atom    4 type  2   force =    -0.00000071    0.00000101   -0.01729920
     atom    5 type  1   force =    -0.00000984    0.00636962    0.00811690
     atom    6 type  1   force =     0.00552290   -0.00318947    0.00811722
     atom    7 type  1   force =    -0.00552170   -0.00317657    0.00811884
     atom    8 type  2   force =     0.00001542   -0.00000641    0.01152268
     atom    9 type  1   force =     0.00002945   -0.00098917   -0.00046259
     atom   10 type  1   force =    -0.00087740    0.00049267   -0.00051181
     atom   11 type  1   force =     0.00087840    0.00045937   -0.00046112
     atom   12 type  2   force =    -0.00003777    0.00003961    0.00117655

     Total force =     0.030689     Total SCF correction =     0.006073
     SCF correction compared to forces is large: reduce conv_thr to get better values

     entering subroutine stress ...

     negative rho (up, down):  9.114E-04 0.000E+00
          total   stress  (Ry/bohr**3)                   (kbar)     P=  -13.20
  -0.00012539   0.00000001  -0.00000002        -18.44      0.00     -0.00
   0.00000001  -0.00012537   0.00000001          0.00    -18.44      0.00
  -0.00000002   0.00000001  -0.00001848         -0.00      0.00     -2.72

 !ASE

     Writing output data file calc.save

     General routines

     Parallel routines

   This run was terminated on:  18:11:36   2Jan2019

   JOB DONE.
Job  /afs/slac/g/suncat/bin/suncat-tsmpirun -x LD_LIBRARY_PATH -wdir /scratch/qe649478_cPJSF pw.x -in pw.inp

TID   HOST_NAME   COMMAND_LINE            STATUS            TERMINATION_TIME
00000 suncat0259 pw.x -in pw.inp   Done                     01/02/2019 18:11:36
00001 suncat0259 pw.x -in pw.inp   Done                     01/02/2019 18:11:36
00002 suncat0259 pw.x -in pw.inp   Done                     01/02/2019 18:11:36
00003 suncat0259 pw.x -in pw.inp   Done                     01/02/2019 18:11:36
00004 suncat0259 pw.x -in pw.inp   Done                     01/02/2019 18:11:36
00005 suncat0259 pw.x -in pw.inp   Done                     01/02/2019 18:11:36
00006 suncat0259 pw.x -in pw.inp   Done                     01/02/2019 18:11:36
00007 suncat0259 pw.x -in pw.inp   Done                     01/02/2019 18:11:36
00008 suncat0256 pw.x -in pw.inp   Done                     01/02/2019 18:11:36
00009 suncat0256 pw.x -in pw.inp   Done                     01/02/2019 18:11:36
00010 suncat0256 pw.x -in pw.inp   Done                     01/02/2019 18:11:36
00011 suncat0256 pw.x -in pw.inp   Done                     01/02/2019 18:11:36
00012 suncat0256 pw.x -in pw.inp   Done                     01/02/2019 18:11:36
00013 suncat0256 pw.x -in pw.inp   Done                     01/02/2019 18:11:36
00014 suncat0256 pw.x -in pw.inp   Done                     01/02/2019 18:11:36
00015 suncat0256 pw.x -in pw.inp   Done                     01/02/2019 18:11:36
00016 suncat0255 pw.x -in pw.inp   Done                     01/02/2019 18:11:36
00017 suncat0255 pw.x -in pw.inp   Done                     01/02/2019 18:11:36
00018 suncat0255 pw.x -in pw.inp   Done                     01/02/2019 18:11:36
00019 suncat0255 pw.x -in pw.inp   Done                     01/02/2019 18:11:36
00020 suncat0255 pw.x -in pw.inp   Done                     01/02/2019 18:11:36
00021 suncat0255 pw.x -in pw.inp   Done                     01/02/2019 18:11:36
00022 suncat0255 pw.x -in pw.inp   Done                     01/02/2019 18:11:36
00023 suncat0255 pw.x -in pw.inp   Done                     01/02/2019 18:11:36
00024 suncat0232 pw.x -in pw.inp   Done                     01/02/2019 18:11:36
00025 suncat0232 pw.x -in pw.inp   Done                     01/02/2019 18:11:36
00026 suncat0232 pw.x -in pw.inp   Done                     01/02/2019 18:11:36
00027 suncat0232 pw.x -in pw.inp   Done                     01/02/2019 18:11:36
00028 suncat0232 pw.x -in pw.inp   Done                     01/02/2019 18:11:36
00029 suncat0232 pw.x -in pw.inp   Done                     01/02/2019 18:11:36
00030 suncat0232 pw.x -in pw.inp   Done                     01/02/2019 18:11:36
00031 suncat0232 pw.x -in pw.inp   Done                     01/02/2019 18:11:36
00032 suncat0220 pw.x -in pw.inp   Done                     01/02/2019 18:11:36
00033 suncat0220 pw.x -in pw.inp   Done                     01/02/2019 18:11:36
00034 suncat0220 pw.x -in pw.inp   Done                     01/02/2019 18:11:36
00035 suncat0220 pw.x -in pw.inp   Done                     01/02/2019 18:11:36
00036 suncat0220 pw.x -in pw.inp   Done                     01/02/2019 18:11:36
00037 suncat0220 pw.x -in pw.inp   Done                     01/02/2019 18:11:36
00038 suncat0220 pw.x -in pw.inp   Done                     01/02/2019 18:11:36
00039 suncat0220 pw.x -in pw.inp   Done                     01/02/2019 18:11:36
00040 suncat0219 pw.x -in pw.inp   Done                     01/02/2019 18:11:36
00041 suncat0219 pw.x -in pw.inp   Done                     01/02/2019 18:11:36
00042 suncat0219 pw.x -in pw.inp   Done                     01/02/2019 18:11:36
00043 suncat0219 pw.x -in pw.inp   Done                     01/02/2019 18:11:36
00044 suncat0219 pw.x -in pw.inp   Done                     01/02/2019 18:11:36
00045 suncat0219 pw.x -in pw.inp   Done                     01/02/2019 18:11:36
00046 suncat0219 pw.x -in pw.inp   Done                     01/02/2019 18:11:36
00047 suncat0219 pw.x -in pw.inp   Done                     01/02/2019 18:11:36
00048 suncat0201 pw.x -in pw.inp   Done                     01/02/2019 18:11:36
00049 suncat0201 pw.x -in pw.inp   Done                     01/02/2019 18:11:36
00050 suncat0201 pw.x -in pw.inp   Done                     01/02/2019 18:11:36
00051 suncat0201 pw.x -in pw.inp   Done                     01/02/2019 18:11:36
00052 suncat0201 pw.x -in pw.inp   Done                     01/02/2019 18:11:36
00053 suncat0201 pw.x -in pw.inp   Done                     01/02/2019 18:11:36
00054 suncat0201 pw.x -in pw.inp   Done                     01/02/2019 18:11:36
00055 suncat0201 pw.x -in pw.inp   Done                     01/02/2019 18:11:36
00056 suncat0200 pw.x -in pw.inp   Done                     01/02/2019 18:11:36
00057 suncat0200 pw.x -in pw.inp   Done                     01/02/2019 18:11:36
00058 suncat0200 pw.x -in pw.inp   Done                     01/02/2019 18:11:36
00059 suncat0200 pw.x -in pw.inp   Done                     01/02/2019 18:11:36
00060 suncat0200 pw.x -in pw.inp   Done                     01/02/2019 18:11:36
00061 suncat0200 pw.x -in pw.inp   Done                     01/02/2019 18:11:36
00062 suncat0200 pw.x -in pw.inp   Done                     01/02/2019 18:11:36
00063 suncat0200 pw.x -in pw.inp   Done                     01/02/2019 18:11:36