     Program PWSCF v.5.1rc2 (svn rev. 11289) starts on 26Dec2018 at 12:50:29

     Current dimensions of program PWSCF are:
     Max number of different atomic species (ntypx) = 10
     Max number of k-points (npk) =  40000
     Max angular momentum in pseudopotentials (lmaxx) =  3
     Presently stress not available with electric field

     IMPORTANT: XC functional enforced from input :
     Exchange-correlation      = BEEF-VDW ( 1  4 27 13 2)
     Any further DFT definition will be discarded
     Please, verify this is what you really want

     Subspace diagonalization in iterative solution of the eigenvalue problem:
     a serial algorithm will be used

     bravais-lattice index     =            0
     lattice parameter (alat)  =       1.8897  a.u.
     unit-cell volume          =    5929.6017 (a.u.)^3
     number of atoms/cell      =           12
     number of atomic types    =            2
     number of electrons       =       165.00
     number of Kohn-Sham states=          112
     kinetic-energy cutoff     =      36.7493  Ry
     charge density cutoff     =     367.4932  Ry
     convergence threshold     =      1.0E-06
     mixing beta               =       0.1000
     number of iterations used =           10  plain     mixing
     Exchange-correlation      = BEEF-VDW ( 1  4 27 13 2)
     nstep                     =           50

     celldm(1)=   1.889726  celldm(2)=   0.000000  celldm(3)=   0.000000
     celldm(4)=   0.000000  celldm(5)=   0.000000  celldm(6)=   0.000000

     crystal axes: (cart. coord. in units of alat)
               a(1) = (   6.347436   0.000000   0.000000 )
               a(2) = (  -3.173718   5.497041   0.000000 )
               a(3) = (   0.000000   0.000000  25.182660 )

     reciprocal axes: (cart. coord. in units 2 pi/alat)
               b(1) = (  0.157544  0.090958  0.000000 )
               b(2) = (  0.000000  0.181916  0.000000 )
               b(3) = (  0.000000  0.000000  0.039710 )

     PseudoPot. # 1 for In read from file:
     /afs/slac.stanford.edu/u/if/mamunm/psp/gbrv1.5pbe/In.UPF
     MD5 check sum: 90777abd96fbb83f2e67db2a40c566b9
     Pseudo is Ultrasoft + core correction, Zval = 13.0
     Generated by new atomic code, or converted to UPF format
     Using radial grid of  889 points,  6 beta functions with:
                l(1) =   0
                l(2) =   0
                l(3) =   1
                l(4) =   1
                l(5) =   2
                l(6) =   2
     Q(r) pseudized with  6 coefficients,  rinner =    1.400   1.400   1.400
                                                       1.400   1.400

     PseudoPot. # 2 for Pt read from file:
     /afs/slac.stanford.edu/u/if/mamunm/psp/gbrv1.5pbe/Pt.UPF
     MD5 check sum: f09d6de1a584b5a045c4fc126da2d0c4
     Pseudo is Ultrasoft + core correction, Zval = 16.0
     Generated by new atomic code, or converted to UPF format
     Using radial grid of  985 points,  6 beta functions with:
                l(1) =   0
                l(2) =   0
                l(3) =   1
                l(4) =   1
                l(5) =   2
                l(6) =   2
     Q(r) pseudized with  8 coefficients,  rinner =    1.300   1.300   1.300
                                                       1.300   1.300

     vdW kernel table read from file vdW_kernel_table
     MD5 check sum: 095c7af220d748ca6e76c0b4c6cfb241

     atomic species   valence    mass     pseudopotential
        In1           13.00   114.81800     In( 1.00)
        Pt1           16.00   195.08400     Pt( 1.00)

     No symmetry found

   Cartesian axes

     site n.     atom                  positions (alat units)
         1           In1 tau(   1) = (   0.0000000   0.0000000  10.0000000  )
         2           In1 tau(   2) = (  -1.5868591   2.7485205  10.0000000  )
         3           In1 tau(   3) = (   1.5868591   2.7485205  10.0000000  )
         4           Pt1 tau(   4) = (   3.1737181   0.0000000  10.0000000  )
         5           In1 tau(   5) = (   3.1737181   1.8323470  12.5913300  )
         6           In1 tau(   6) = (   1.5868591   4.5808675  12.5913300  )
         7           In1 tau(   7) = (  -1.5868591   4.5808675  12.5913300  )
         8           Pt1 tau(   8) = (   0.0000000   1.8323470  12.5913300  )
         9           In1 tau(   9) = (   0.0000000   3.6646940  15.1826600  )
        10           In1 tau(  10) = (   1.5868591   0.9161735  15.1826600  )
        11           In1 tau(  11) = (   4.7605772   0.9161735  15.1826600  )
        12           Pt1 tau(  12) = (   3.1737181   3.6646940  15.1826600  )

     number of k points=    20  Fermi-Dirac smearing, width (Ry)=  0.0110
                       cart. coord. in units 2pi/alat
        k(    1) = (   0.0000000   0.0000000   0.0000000), wk =   0.0555556
        k(    2) = (   0.0000000   0.0303193   0.0000000), wk =   0.1111111
        k(    3) = (   0.0000000   0.0606387   0.0000000), wk =   0.1111111
        k(    4) = (   0.0000000  -0.0909580   0.0000000), wk =   0.0555556
        k(    5) = (   0.0262573   0.0151597   0.0000000), wk =   0.1111111
        k(    6) = (   0.0262573   0.0454790   0.0000000), wk =   0.1111111
        k(    7) = (   0.0262573   0.0757984   0.0000000), wk =   0.1111111
        k(    8) = (   0.0262573  -0.0757984   0.0000000), wk =   0.1111111
        k(    9) = (   0.0262573  -0.0454790   0.0000000), wk =   0.1111111
        k(   10) = (   0.0262573  -0.0151597   0.0000000), wk =   0.1111111
        k(   11) = (   0.0525146   0.0303193   0.0000000), wk =   0.1111111
        k(   12) = (   0.0525146   0.0606387   0.0000000), wk =   0.1111111
        k(   13) = (   0.0525146   0.0909580   0.0000000), wk =   0.1111111
        k(   14) = (   0.0525146  -0.0606387   0.0000000), wk =   0.1111111
        k(   15) = (   0.0525146  -0.0303193   0.0000000), wk =   0.1111111
        k(   16) = (   0.0525146   0.0000000   0.0000000), wk =   0.1111111
        k(   17) = (  -0.0787720  -0.0454790   0.0000000), wk =   0.0555556
        k(   18) = (  -0.0787720  -0.0151597   0.0000000), wk =   0.1111111
        k(   19) = (  -0.0787720   0.0151597   0.0000000), wk =   0.1111111
        k(   20) = (  -0.0787720  -0.1364370   0.0000000), wk =   0.0555556

     Largest allocated arrays     est. size (Mb)     dimensions
     Largest temporary arrays     est. size (Mb)     dimensions

     Initial potential from superposition of free atoms
     Check: negative starting charge=   -0.557769

     starting charge  149.99996, renormalised to  165.00000

     negative rho (up, down):  6.135E-01 0.000E+00

     *
     * You are using vdW-DF for exchange-correlation in this calculation.
     * Please cite the following three references that made this development
     * possible:
     *
     *   M. Dion, H. Rydberg, E. Schroder, D. C. Langreth, and
     *   B. I. Lundqvist, Phys. Rev. Lett. 92, 246401 (2004).
     *
     *   T. Thonhauser, V. R. Cooper, S. Li, A. Puzder, P. Hyldgaard, and
     *   D. C. Langreth, Phys. Rev. B 76, 125112 (2007).
     *
     *   G. Roman-Perez and J. M. Soler, Phys. Rev. Lett. 103, 096102 (2009).
     *
     *
     * If you are using vdW-DF2, please also cite:
     *
     *   K. Lee, E. D. Murray, L. Kong, B. I. Lundqvist, and
     *   D. C. Langreth, Phys. Rev. B 82, 081101(R) (2010).
     *
     *
     * If you are calculating the stress with vdW-DF, please also cite:
     *
     *   R. Sabatini, E. Kucukbenli, B. Kolb, T. Thonhauser, and
     *   S. de Gironcoli, J. Phys.: Condens. Matter 24, 424209 (2012).
     *

     Carrying out vdW-DF run using the following parameters:

     Nqs =      20    Nr_points =    1024   r_max =   100.000
     q_mesh =
               0.00001000     0.04494208     0.09755937     0.15916263
               0.23128650     0.31572767     0.41458969     0.53033537
               0.66584808     0.82450364     1.01025438     1.22772762
               1.48234092     1.78043706     2.12944203     2.53805004
               3.01644009     3.57652955     4.23227104     5.00000000

     Gradients computed in reciprocal space

     Adding external electric field

     Computed dipole along edir(3) :
        Dipole               -0.0000 Ry au,         -0.0000 Debye
        Dipole field         -0.0000 Ry au

        Potential amp.        0.0000 Ry
        Total length         46.3986 bohr

     Starting wfc are  117 randomized atomic wfcs

     Self-consistent Calculation

     iteration #  1     ecut=    36.75 Ry     beta=0.10
     Davidson diagonalization with overlap
     ethr =  1.00E-02,  avg # of iterations =  8.4

[...]

     total energy              =   -1834.21996877 Ry
     Harris-Foulkes estimate   =   -1869.12737222 Ry
     estimated scf accuracy    <     203.63362743 Ry

[...]

     End of self-consistent calculation

          k = 0.0000 0.0000 0.0000 ( 22369 PWs)   bands (ev):

   -51.3854 -51.3854 -51.3520 -51.0182 -51.0182 -51.0181 -51.0181 -50.8764
   -50.8763 -14.5007 -14.4543 -14.4543 -14.4483 -14.3969 -14.3800 -14.3125
   -14.3125 -14.3009 -14.3009 -14.2843 -14.2823 -14.2823 -14.2420 -14.2218
   -14.2218 -14.2108 -14.1332 -14.1274 -14.1274 -14.1151 -14.0728 -14.0679
   -14.0679 -14.0600 -14.0600 -14.0093 -14.0093 -14.0015 -13.9997 -13.9997
   -13.9882 -13.9882 -13.9707 -13.9706 -13.9303 -13.9303 -13.9033 -13.9033
   -13.8807 -13.8677 -13.8570 -13.8570 -13.7826 -13.7799  -8.4474  -6.9681
    -5.0123  -4.0064  -4.0064  -3.3410  -3.3410  -2.7359  -2.7354  -2.7354
    -2.4961  -1.6801  -1.6530  -1.6530  -1.4856  -1.4856  -1.0430  -1.0430
    -0.9906  -0.9099  -0.7487  -0.6817  -0.6817  -0.4449  -0.4449  -0.3914
    -0.3914  -0.3331   0.2101   0.3686   0.3686   1.0025   1.0025   1.5579
     1.5579   1.7338   1.8894   2.8054   4.1596   4.5614   4.6667   4.6667
     4.7273   4.7273   5.1159   5.2324   5.6681   5.8946   6.3226   6.9518
     6.9519   7.1620   7.2567   7.6862   7.6863   7.8050   7.9460   7.9700

[...]

          k =-0.0788-0.0455 0.0000 ( 22268 PWs)   bands (ev):

[...]

     the Fermi energy is     0.7190 ev

!    total energy              =   -1850.07646188 Ry
     Harris-Foulkes estimate   =   -1850.07830133 Ry
     estimated scf accuracy    <       0.00000089 Ry

     The total energy is the sum of the following terms:

     one-electron contribution =  -11245.88939877 Ry
     hartree contribution      =    5691.77419595 Ry
     xc contribution           =    -528.12161619 Ry
     ewald contribution        =    4232.19053513 Ry
     electric field correction =       0.00000000 Ry
     smearing contrib. (-TS)   =      -0.03017800 Ry

     convergence has been achieved in  17 iterations

 BEEF-vdW xc energy contributions
           1 :   -465.167339135769
           2 :    427.696928662386
           3 :   -363.319976169760
           4 :    288.464034136481
           5 :   -218.800938234289
           6 :    163.909962922308
           7 :   -125.415127840864
           8 :    98.8562209304185
           9 :   -77.7645868867949
          10 :    57.5399564967109
          11 :   -37.2436496572591
          12 :    18.8579030198891
          13 :   -5.04187027529031
          14 :   -2.96752019746884
          15 :    6.09605821002947
[...]

     PseudoPot. # 1 for In read from file:
     /afs/slac.stanford.edu/u/if/mamunm/psp/gbrv1.5pbe/In.UPF
     MD5 check sum: 90777abd96fbb83f2e67db2a40c566b9
     Pseudo is Ultrasoft + core correction, Zval = 13.0
     Generated by new atomic code, or converted to UPF format
     Using radial grid of  889 points,  6 beta functions with:
                l(1) =   0
                l(2) =   0
                l(3) =   1
                l(4) =   1
                l(5) =   2
                l(6) =   2
     Q(r) pseudized with  6 coefficients,  rinner =    1.400   1.400   1.400
                                                       1.400   1.400

     PseudoPot. # 2 for Pt read from file:
     /afs/slac.stanford.edu/u/if/mamunm/psp/gbrv1.5pbe/Pt.UPF
     MD5 check sum: f09d6de1a584b5a045c4fc126da2d0c4
     Pseudo is Ultrasoft + core correction, Zval = 16.0
     Generated by new atomic code, or converted to UPF format
     Using radial grid of  985 points,  6 beta functions with:
                l(1) =   0
                l(2) =   0
                l(3) =   1
                l(4) =   1
                l(5) =   2
                l(6) =   2
     Q(r) pseudized with  8 coefficients,  rinner =    1.300   1.300   1.300
                                                       1.300   1.300

     vdW kernel table read from file vdW_kernel_table
     MD5 check sum: 095c7af220d748ca6e76c0b4c6cfb241

     atomic species   valence    mass     pseudopotential
        In1           13.00   114.81800     In( 1.00)
        Pt1           16.00   195.08400     Pt( 1.00)

     No symmetry found

   Cartesian axes

     site n.     atom                  positions (alat units)
         1           In1 tau(   1) = (   0.0000000   0.0000000  10.0000000  )
         2           In1 tau(   2) = (  -1.5868591   2.7485205  10.0000000  )
         3           In1 tau(   3) = (   1.5868591   2.7485205  10.0000000  )
         4           Pt1 tau(   4) = (   3.1737181   0.0000000  10.0000000  )
         5           In1 tau(   5) = (   3.1737181   1.8323470  12.5913300  )
         6           In1 tau(   6) = (   1.5868591   4.5808675  12.5913300  )
         7           In1 tau(   7) = (  -1.5868591   4.5808675  12.5913300  )
         8           Pt1 tau(   8) = (   0.0000000   1.8323470  12.5913300  )
         9           In1 tau(   9) = (  -0.0000028   3.6316706  15.3479453  )
        10           In1 tau(  10) = (   1.5582762   0.9326595  15.3479936  )
        11           In1 tau(  11) = (   4.7891545   0.9326612  15.3479880  )
        12           Pt1 tau(  12) = (   3.1737232   3.6647364  14.7642853  )

     number of k points=    20  Fermi-Dirac smearing, width (Ry)=  0.0110
                       cart. coord. in units 2pi/alat
        k(    1) = (   0.0000000   0.0000000   0.0000000), wk =   0.0555556
        k(    2) = (   0.0000000   0.0303193   0.0000000), wk =   0.1111111
        k(    3) = (   0.0000000   0.0606387   0.0000000), wk =   0.1111111
        k(    4) = (   0.0000000  -0.0909580   0.0000000), wk =   0.0555556
        k(    5) = (   0.0262573   0.0151597   0.0000000), wk =   0.1111111
        k(    6) = (   0.0262573   0.0454790   0.0000000), wk =   0.1111111
        k(    7) = (   0.0262573   0.0757984   0.0000000), wk =   0.1111111
        k(    8) = (   0.0262573  -0.0757984   0.0000000), wk =   0.1111111
        k(    9) = (   0.0262573  -0.0454790   0.0000000), wk =   0.1111111
        k(   10) = (   0.0262573  -0.0151597   0.0000000), wk =   0.1111111
        k(   11) = (   0.0525146   0.0303193   0.0000000), wk =   0.1111111
        k(   12) = (   0.0525146   0.0606387   0.0000000), wk =   0.1111111
        k(   13) = (   0.0525146   0.0909580   0.0000000), wk =   0.1111111
        k(   14) = (   0.0525146  -0.0606387   0.0000000), wk =   0.1111111
        k(   15) = (   0.0525146  -0.0303193   0.0000000), wk =   0.1111111
        k(   16) = (   0.0525146   0.0000000   0.0000000), wk =   0.1111111
        k(   17) = (  -0.0787720  -0.0454790   0.0000000), wk =   0.0555556
        k(   18) = (  -0.0787720  -0.0151597   0.0000000), wk =   0.1111111
        k(   19) = (  -0.0787720   0.0151597   0.0000000), wk =   0.1111111
        k(   20) = (  -0.0787720  -0.1364370   0.0000000), wk =   0.0555556

     Largest allocated arrays     est. size (Mb)     dimensions
     Largest temporary arrays     est. size (Mb)     dimensions

     Initial potential from superposition of free atoms
     Check: negative starting charge=   -0.557820

     starting charge  149.99996, renormalised to  165.00000

[...]

     *
     * You are using vdW-DF for exchange-correlation in this calculation.
     * Please cite the following three references that made this development
     * possible:
     *
     *   M. Dion, H. Rydberg, E. Schroder, D. C. Langreth, and
     *   B. I. Lundqvist, Phys. Rev. Lett. 92, 246401 (2004).
     *
     *   T. Thonhauser, V. R. Cooper, S. Li, A. Puzder, P. Hyldgaard, and
     *   D. C. Langreth, Phys. Rev. B 76, 125112 (2007).
     *
     *   G. Roman-Perez and J. M. Soler, Phys. Rev. Lett. 103, 096102 (2009).
     *
     *
     * If you are using vdW-DF2, please also cite:
     *
     *   K. Lee, E. D. Murray, L. Kong, B. I. Lundqvist, and
     *   D. C. Langreth, Phys. Rev. B 82, 081101(R) (2010).
     *
     *
     * If you are calculating the stress with vdW-DF, please also cite:
     *
     *   R. Sabatini, E. Kucukbenli, B. Kolb, T. Thonhauser, and
     *   S. de Gironcoli, J. Phys.: Condens. Matter 24, 424209 (2012).
     *

     Carrying out vdW-DF run using the following parameters:

     Nqs =      20    Nr_points =    1024   r_max =   100.000
     q_mesh =
               0.00001000     0.04494208     0.09755937     0.15916263
               0.23128650     0.31572767     0.41458969     0.53033537
               0.66584808     0.82450364     1.01025438     1.22772762
               1.48234092     1.78043706     2.12944203     2.53805004
               3.01644009     3.57652955     4.23227104     5.00000000

     Gradients computed in reciprocal space

[...]

     Starting wfc are  117 randomized atomic wfcs

     Self-consistent Calculation

[...]

     total energy              =   -1850.10021643 Ry
     Harris-Foulkes estimate   =   -1850.10021567 Ry
     estimated scf accuracy    <       0.00000144 Ry

     iteration # 22     ecut=    36.75 Ry     beta=0.10
     Davidson diagonalization with overlap
     ethr =  8.70E-10,  avg # of iterations =  2.0

[...]

     negative rho (up, down):  5.329E-01 0.000E+00

     Adding external electric field

     Computed dipole along edir(3) :
        Dipole                0.1166 Ry au,          0.2964 Debye
        Dipole field          0.0002 Ry au

        Potential amp.       -0.0229 Ry
        Total length         46.3986 bohr

     End of self-consistent calculation

[...]

          k = 0.0525 0.0000 0.0000 ( 22339 PWs)   bands (ev):

[...]

          k =-0.0788-0.1364 0.0000 ( 22268 PWs)   bands (ev):

   -51.2473 -51.2472 -51.1907 -51.1752 -51.1751 -51.1539 -50.9450 -50.9450
   -50.7994 -14.3487 -14.2656 -14.2462 -14.2344 -14.2186 -14.2068 -14.1916
   -14.1674 -14.1542 -14.1455 -14.1159 -14.1104 -14.0787 -14.0717 -14.0696
   -14.0666 -14.0554 -14.0246 -14.0225 -14.0123 -14.0114 -13.9982 -13.9967
   -13.9910 -13.9821 -13.9778 -13.9649 -13.9560 -13.9557 -13.9535 -13.9532
   -13.9414 -13.9385 -13.9321 -13.9290 -13.9288 -13.9064 -13.9039 -13.8773
   -13.8723 -13.8694 -13.8496 -13.8172 -13.7703 -13.7523  -7.1267  -6.7917
    -5.5359  -5.4984  -4.6022  -4.2784  -3.7770  -3.1600  -3.0598  -2.4890
    -2.1069  -1.9790  -1.9671  -1.6661  -1.6297  -1.5893  -1.5384  -1.3333
    -1.1990  -1.1819  -0.8611  -0.8428  -0.8167  -0.4669  -0.3856   0.1672
     0.4360   0.8666   1.1850   2.0655   2.0963   2.2573   2.5678   2.9620
     3.1366   3.4733   3.5582   3.6785   3.6993   4.3145   4.5577   4.7854
     4.9902   5.0771   5.2102   5.3500   5.7445   5.8164   5.8405   5.9361
     6.1882   6.2116   6.2636   6.4548   6.5236   6.8146   6.8582   6.9736

     the Fermi energy is     0.7934 ev

!    total energy              =   -1850.10022226 Ry
     Harris-Foulkes estimate   =   -1850.10021448 Ry
     estimated scf accuracy    <       0.00000055 Ry

     The total energy is the sum of the following terms:

     one-electron contribution =  -11239.17723099 Ry
     hartree contribution      =    5688.78225121 Ry
     xc contribution           =    -528.12272957 Ry
     ewald contribution        =    4228.44836059 Ry
     electric field correction =       0.00002882 Ry
     smearing contrib. (-TS)   =      -0.03090232 Ry

     convergence has been achieved in  22 iterations

 BEEF-vdW xc energy contributions
           1 :   -465.223599009607
           2 :    427.748875731835
           3 :   -363.362469265073
           4 :    288.492651339408
           5 :   -218.813075464904
           6 :    163.902422765019
           7 :   -125.383233855121
           8 :    98.7987031827906
           9 :   -77.6923281218048
          10 :    57.4791375220578
          11 :   -37.2264579873838
          12 :    18.9036660622675
          13 :   -5.14134153434088
          14 :   -2.85186060043901
          15 :    6.01053112083690
          16 :   -6.65356089054126
          17 :    7.03772390191295
          18 :   -8.26284053199356
          19 :    10.1105367018795
          20 :   -11.6948375635155
          21 :    12.3191750250191
          22 :   -11.9490604026090
          23 :    11.0947474941084
          24 :   -10.3447124412668
          25 :    9.96623803062852
          26 :   -9.83989538350147
          27 :    9.68222051834476
          28 :   -9.31168443695447
          29 :    8.74103471829801
          30 :   -8.07590162884833
          31 :   -40.7726744020546
          32 :   -29.7356597256614

     Forces acting on atoms (Ry/au):

     negative rho (up, down):  5.329E-01 0.000E+00
     atom    1 type  1   force =     0.00000009    0.01392947   -0.01309881
     atom    2 type  1   force =     0.01206301   -0.00696428   -0.01310266
     atom    3 type  1   force =    -0.01206328   -0.00696390   -0.01310282
     atom    4 type  2   force =    -0.00000002    0.00000137    0.03118475
     atom    5 type  1   force =    -0.00000022   -0.01323995    0.00374524
     atom    6 type  1   force =    -0.01146389    0.00661987    0.00374447
     atom    7 type  1   force =     0.01146380    0.00662009    0.00374404
     atom    8 type  2   force =     0.00000006   -0.00000229   -0.00406329
     atom    9 type  1   force =     0.00000020   -0.00019460    0.00074199
     atom   10 type  1   force =    -0.00017055    0.00009911    0.00074143
     atom   11 type  1   force =     0.00017070    0.00009922    0.00074206
     atom   12 type  2   force =     0.00000011   -0.00000412   -0.00127641

     Total force =     0.051549     Total SCF correction =     0.002901

     entering subroutine stress ...

     negative rho (up, down):  5.329E-01 0.000E+00
          total   stress  (Ry/bohr**3)                   (kbar)     P=   -7.71
  -0.00007808   0.00000000   0.00000000        -11.49      0.00      0.00
   0.00000000  -0.00007804  -0.00000000          0.00    -11.48     -0.00
   0.00000000  -0.00000000  -0.00000111          0.00     -0.00     -0.16

 !ASE

     Writing output data file calc.save

     General routines

     Parallel routines

   This run was terminated on:  15:31:30  26Dec2018

   JOB DONE.
Job  /afs/slac/g/suncat/bin/suncat-tsmpirun -x LD_LIBRARY_PATH -wdir /scratch/qe109889_NK5o0 pw.x -in pw.inp

TID   HOST_NAME   COMMAND_LINE            STATUS            TERMINATION_TIME
00000 suncat0138 pw.x -in pw.inp   Done                     12/26/2018 15:31:30
00001 suncat0138 pw.x -in pw.inp   Done                     12/26/2018 15:31:30
00002 suncat0138 pw.x -in pw.inp   Done                     12/26/2018 15:31:30
00003 suncat0138 pw.x -in pw.inp   Done                     12/26/2018 15:31:30
00004 suncat0138 pw.x -in pw.inp   Done                     12/26/2018 15:31:30
00005 suncat0138 pw.x -in pw.inp   Done                     12/26/2018 15:31:30
00006 suncat0138 pw.x -in pw.inp   Done                     12/26/2018 15:31:30
00007 suncat0138 pw.x -in pw.inp   Done                     12/26/2018 15:31:30
00008 suncat0113 pw.x -in pw.inp   Done                     12/26/2018 15:31:30
00009 suncat0113 pw.x -in pw.inp   Done                     12/26/2018 15:31:30
00010 suncat0113 pw.x -in pw.inp   Done                     12/26/2018 15:31:30
00011 suncat0113 pw.x -in pw.inp   Done                     12/26/2018 15:31:30
00012 suncat0113 pw.x -in pw.inp   Done                     12/26/2018 15:31:30
00013 suncat0113 pw.x -in pw.inp   Done                     12/26/2018 15:31:30
00014 suncat0113 pw.x -in pw.inp   Done                     12/26/2018 15:31:30
00015 suncat0113 pw.x -in pw.inp   Done                     12/26/2018 15:31:30
00016 suncat0110 pw.x -in pw.inp   Done                     12/26/2018 15:31:30
00017 suncat0110 pw.x -in pw.inp   Done                     12/26/2018 15:31:30
00018 suncat0110 pw.x -in pw.inp   Done                     12/26/2018 15:31:30
00019 suncat0110 pw.x -in pw.inp   Done                     12/26/2018 15:31:30
00020 suncat0110 pw.x -in pw.inp   Done                     12/26/2018 15:31:30
00021 suncat0110 pw.x -in pw.inp   Done                     12/26/2018 15:31:30
00022 suncat0110 pw.x -in pw.inp   Done                     12/26/2018 15:31:30
00023 suncat0110 pw.x -in pw.inp   Done                     12/26/2018 15:31:30
00024 suncat0109 pw.x -in pw.inp   Done                     12/26/2018 15:31:30
00025 suncat0109 pw.x -in pw.inp   Done                     12/26/2018 15:31:30
00026 suncat0109 pw.x -in pw.inp   Done                     12/26/2018 15:31:30
00027 suncat0109 pw.x -in pw.inp   Done                     12/26/2018 15:31:30
00028 suncat0109 pw.x -in pw.inp   Done                     12/26/2018 15:31:30
00029 suncat0109 pw.x -in pw.inp   Done                     12/26/2018 15:31:30
00030 suncat0109 pw.x -in pw.inp   Done                     12/26/2018 15:31:30
00031 suncat0109 pw.x -in pw.inp   Done                     12/26/2018 15:31:30
00032 suncat0262 pw.x -in pw.inp   Done                     12/26/2018 15:31:30
00033 suncat0262 pw.x -in pw.inp   Done                     12/26/2018 15:31:30
00034 suncat0262 pw.x -in pw.inp   Done                     12/26/2018 15:31:30
00035 suncat0262 pw.x -in pw.inp   Done                     12/26/2018 15:31:30
00036 suncat0262 pw.x -in pw.inp   Done                     12/26/2018 15:31:30
00037 suncat0262 pw.x -in pw.inp   Done                     12/26/2018 15:31:30
00038 suncat0262 pw.x -in pw.inp   Done                     12/26/2018 15:31:30
00039 suncat0262 pw.x -in pw.inp   Done                     12/26/2018 15:31:30
00040 suncat0258 pw.x -in pw.inp   Done                     12/26/2018 15:31:30
00041 suncat0258 pw.x -in pw.inp   Done                     12/26/2018 15:31:30
00042 suncat0258 pw.x -in pw.inp   Done                     12/26/2018 15:31:30
00043 suncat0258 pw.x -in pw.inp   Done                     12/26/2018 15:31:30
00044 suncat0258 pw.x -in pw.inp   Done                     12/26/2018 15:31:30
00045 suncat0258 pw.x -in pw.inp   Done                     12/26/2018 15:31:30
00046 suncat0258 pw.x -in pw.inp   Done                     12/26/2018 15:31:30
00047 suncat0258 pw.x -in pw.inp   Done                     12/26/2018 15:31:30
00048 suncat0257 pw.x -in pw.inp   Done                     12/26/2018 15:31:30
00049 suncat0257 pw.x -in pw.inp   Done                     12/26/2018 15:31:30
00050 suncat0257 pw.x -in pw.inp   Done                     12/26/2018 15:31:30
00051 suncat0257 pw.x -in pw.inp   Done                     12/26/2018 15:31:30
00052 suncat0257 pw.x -in pw.inp   Done                     12/26/2018 15:31:30
00053 suncat0257 pw.x -in pw.inp   Done                     12/26/2018 15:31:30
00054 suncat0257 pw.x -in pw.inp   Done                     12/26/2018 15:31:30
00055 suncat0257 pw.x -in pw.inp   Done                     12/26/2018 15:31:30
00056 suncat0251 pw.x -in pw.inp   Done                     12/26/2018 15:31:30
00057 suncat0251 pw.x -in pw.inp   Done                     12/26/2018 15:31:30
00058 suncat0251 pw.x -in pw.inp   Done                     12/26/2018 15:31:30
00059 suncat0251 pw.x -in pw.inp   Done                     12/26/2018 15:31:30
00060 suncat0251 pw.x -in pw.inp   Done                     12/26/2018 15:31:30
00061 suncat0251 pw.x -in pw.inp   Done                     12/26/2018 15:31:30
00062 suncat0251 pw.x -in pw.inp   Done                     12/26/2018 15:31:30
00063 suncat0251 pw.x -in pw.inp   Done                     12/26/2018 15:31:30