     Program PWSCF v.5.1rc2 (svn rev. 11289) starts on 25Dec2018 at 18: 1:19

     Current dimensions of program PWSCF are:
     Max number of different atomic species (ntypx) = 10
     Max number of k-points (npk) =  40000
     Max angular momentum in pseudopotentials (lmaxx) =  3
     Presently stress not available with electric field

     IMPORTANT: XC functional enforced from input :
     Exchange-correlation      = BEEF-VDW ( 1  4 27 13 2)
     Any further DFT definition will be discarded
     Please, verify this is what you really want

     Subspace diagonalization in iterative solution of the eigenvalue problem:
     a serial algorithm will be used

     bravais-lattice index     =            0
     lattice parameter (alat)  =       1.8897  a.u.
     unit-cell volume          =    3953.1959 (a.u.)^3
     number of atoms/cell      =           12
     number of atomic types    =            2
     number of electrons       =       216.00
     number of Kohn-Sham states=          138
     kinetic-energy cutoff     =      36.7493  Ry
     charge density cutoff     =     367.4932  Ry
     convergence threshold     =      1.0E-06
     mixing beta               =       0.1000
     number of iterations used =           10  plain     mixing
     Exchange-correlation      = BEEF-VDW ( 1  4 27 13 2)
     nstep                     =           50

     celldm(1)=   1.889726  celldm(2)=   0.000000  celldm(3)=   0.000000
     celldm(4)=   0.000000  celldm(5)=   0.000000  celldm(6)=   0.000000

     crystal axes: (cart. coord. in units of alat)
               a(1) = (   5.275248   0.000000   0.000000 )
               a(2) = (  -2.637624   4.568499   0.000000 )
               a(3) = (   0.000000   0.000000  24.307222 )

     reciprocal axes: (cart. coord. in units 2 pi/alat)
               b(1) = (  0.189565  0.109445  0.000000 )
               b(2) = (  0.000000  0.218890  0.000000 )
               b(3) = (  0.000000  0.000000  0.041140 )

     PseudoPot. # 1 for Cu read from file:
     /afs/slac.stanford.edu/u/if/mamunm/psp/gbrv1.5pbe/Cu.UPF
     MD5 check sum: 6e991ff952a84172a2a52a1c1e996048
     Pseudo is Ultrasoft + core correction, Zval = 19.0
     Generated by new atomic code, or converted to UPF format
     Using radial grid of  867 points,  6 beta functions with:
                l(1) =   0
                l(2) =   0
                l(3) =   1
                l(4) =   1
                l(5) =   2
                l(6) =   2
     Q(r) pseudized with  8 coefficients,  rinner =    1.150   1.150   1.150
                                                       1.150   1.150

     PseudoPot. # 2 for Re read from file:
     /afs/slac.stanford.edu/u/if/mamunm/psp/gbrv1.5pbe/Re.UPF
     MD5 check sum: 85f993410f3e006da9d71c142b4ad953
     Pseudo is Ultrasoft + core correction, Zval = 15.0
     Generated by new atomic code, or converted to UPF format
     Using radial grid of  981 points,  8 beta functions with:
                l(1) =   0
                l(2) =   0
                l(3) =   1
                l(4) =   1
                l(5) =   2
                l(6) =   2
                l(7) =   3
                l(8) =   3
     Q(r) pseudized with  8 coefficients,  rinner =    1.150   1.150   1.150
                                                       1.150   1.150   1.150
                                                       1.150

     vdW kernel table read from file vdW_kernel_table
     MD5 check sum: 095c7af220d748ca6e76c0b4c6cfb241

     atomic species   valence    mass     pseudopotential
        Cu1           19.00    63.54600     Cu( 1.00)
        Re1           15.00   186.20700     Re( 1.00)

     No symmetry found

   Cartesian axes

     site n.     atom                  positions (alat units)
         1           Cu1 tau(   1) = (   0.0000000   0.0000000  10.0000000  )
         2           Cu1 tau(   2) = (  -1.3188120   2.2842494  10.0000000  )
         3           Cu1 tau(   3) = (   1.3188120   2.2842494  10.0000000  )
         4           Re1 tau(   4) = (   2.6376241   0.0000000  10.0000000  )
         5           Cu1 tau(   5) = (   2.6376241   1.5228330  12.1536110  )
         6           Cu1 tau(   6) = (   1.3188120   3.8070824  12.1536110  )
         7           Cu1 tau(   7) = (  -1.3188120   3.8070824  12.1536110  )
         8           Re1 tau(   8) = (   0.0000000   1.5228330  12.1536110  )
         9           Cu1 tau(   9) = (  -0.0000000   3.0456659  14.3072220  )
        10           Cu1 tau(  10) = (   1.3188120   0.7614165  14.3072220  )
        11           Cu1 tau(  11) = (   3.9564361   0.7614165  14.3072220  )
        12           Re1 tau(  12) = (   2.6376241   3.0456659  14.3072220  )

     number of k points=    20  Fermi-Dirac smearing, width (Ry)=  0.0110
                       cart. coord. in units 2pi/alat
        k(    1) = (   0.0000000   0.0000000   0.0000000), wk =   0.0555556
        k(    2) = (   0.0000000   0.0364817   0.0000000), wk =   0.1111111
        k(    3) = (   0.0000000   0.0729634   0.0000000), wk =   0.1111111
        k(    4) = (   0.0000000  -0.1094451   0.0000000), wk =   0.0555556
        k(    5) = (   0.0315941   0.0182409   0.0000000), wk =   0.1111111
        k(    6) = (   0.0315941   0.0547226   0.0000000), wk =   0.1111111
        k(    7) = (   0.0315941   0.0912043   0.0000000), wk =   0.1111111
        k(    8) = (   0.0315941  -0.0912043   0.0000000), wk =   0.1111111
        k(    9) = (   0.0315941  -0.0547226   0.0000000), wk =   0.1111111
        k(   10) = (   0.0315941  -0.0182409   0.0000000), wk =   0.1111111
        k(   11) = (   0.0631882   0.0364817   0.0000000), wk =   0.1111111
        k(   12) = (   0.0631882   0.0729634   0.0000000), wk =   0.1111111
        k(   13) = (   0.0631882   0.1094451   0.0000000), wk =   0.1111111
        k(   14) = (   0.0631882  -0.0729634   0.0000000), wk =   0.1111111
        k(   15) = (   0.0631882  -0.0364817   0.0000000), wk =   0.1111111
        k(   16) = (   0.0631882   0.0000000   0.0000000), wk =   0.1111111
        k(   17) = (  -0.0947823  -0.0547226   0.0000000), wk =   0.0555556
        k(   18) = (  -0.0947823  -0.0182409   0.0000000), wk =   0.1111111
        k(   19) = (  -0.0947823   0.0182409   0.0000000), wk =   0.1111111
        k(   20) = (  -0.0947823  -0.1641677   0.0000000), wk =   0.0555556

     Largest allocated arrays     est. size (Mb)     dimensions
     Largest temporary arrays     est. size (Mb)     dimensions

     Initial potential from superposition of free atoms
     Check: negative starting charge=   -0.387255

     starting charge  205.49985, renormalised to  216.00000

     negative rho (up, down):  4.070E-01 0.000E+00

     *
     * You are using vdW-DF for exchange-correlation in this calculation.
     * Please cite the following three references that made this development
     * possible:
     *
     *   M. Dion, H. Rydberg, E. Schroder, D. C. Langreth, and
     *   B. I. Lundqvist, Phys. Rev. Lett. 92, 246401 (2004).
     *
     *   T. Thonhauser, V. R. Cooper, S. Li, A. Puzder, P. Hyldgaard, and
     *   D. C. Langreth, Phys. Rev. B 76, 125112 (2007).
     *
     *   G. Roman-Perez and J. M. Soler, Phys. Rev. Lett. 103, 096102 (2009).
     *
     *
     * If you are using vdW-DF2, please also cite:
     *
     *   K. Lee, E. D. Murray, L. Kong, B. I. Lundqvist, and
     *   D. C. Langreth, Phys. Rev. B 82, 081101(R) (2010).
     *
     *
     * If you are calculating the stress with vdW-DF, please also cite:
     *
     *   R. Sabatini, E. Kucukbenli, B. Kolb, T. Thonhauser, and
     *   S. de Gironcoli, J. Phys.: Condens. Matter 24, 424209 (2012).
     *

     Carrying out vdW-DF run using the following parameters:

     Nqs =      20    Nr_points =    1024   r_max =   100.000
     q_mesh =
               0.00001000     0.04494208     0.09755937     0.15916263
               0.23128650     0.31572767     0.41458969     0.53033537
               0.66584808     0.82450364     1.01025438     1.22772762
               1.48234092     1.78043706     2.12944203     2.53805004
               3.01644009     3.57652955     4.23227104     5.00000000

     Gradients computed in reciprocal space

     Adding external electric field

     Computed dipole along edir(3) :
        Dipole                0.0000 Ry au,          0.0000 Debye
        Dipole field          0.0000 Ry au

        Potential amp.       -0.0000 Ry
        Total length         44.7856 bohr

     Starting wfc are  156 randomized atomic wfcs

     Self-consistent Calculation

     iteration #  1     ecut=    36.75 Ry     beta=0.10
     Davidson diagonalization with overlap
     ethr =  1.00E-02,  avg # of iterations =  7.5

[...]

     total energy              =   -4213.89742325 Ry
     Harris-Foulkes estimate   =   -4228.80845584 Ry
     estimated scf accuracy    <      83.69629220 Ry

[...]

     End of self-consistent calculation

          k = 0.0000 0.0000 0.0000 ( 14993 PWs)   bands (ev):

  -111.6632-111.6589-111.6589-111.6081-111.6080-111.6039-111.6039-111.6038
  -111.6038 -79.4629 -79.0994 -79.0993 -69.1098 -69.1098 -69.1029 -69.0996
   -69.0996 -69.0991 -69.0991 -69.0891 -69.0826 -69.0826 -69.0797 -69.0758
   -69.0171 -69.0168 -68.9887 -68.9887 -68.9884 -68.9884 -68.9672 -68.9289
   -68.9289 -68.8949 -68.8906 -68.8730 -68.8730 -68.8718 -68.8718 -41.2494
   -41.0933 -41.0933 -40.8344 -40.8329 -40.7828 -40.7828 -40.7824 -40.7824
    -7.3436  -5.5151  -4.2962  -3.9382  -3.9382  -3.8368  -3.8368  -3.5258
    -3.3140  -3.3140  -3.2625  -3.2026  -3.2026  -3.1177  -2.9855  -2.4856
    -2.4856  -2.3258  -2.0986  -2.0986  -1.9725  -1.9466  -1.9297  -1.8480
    -1.8270  -1.8270  -1.7809  -1.7809  -1.7140  -1.7140  -1.6089  -1.6089
    -1.5779  -1.5779  -1.3612  -1.1598  -1.1598  -1.1148  -1.1148  -1.0870
    -1.0870  -0.9560  -0.8060  -0.8060  -0.7412  -0.7134  -0.7064  -0.6537
    -0.6363   0.0596   0.5647   0.5647   0.6287   0.6287   0.7063   0.7063
     0.9354   0.9354   1.1455   1.4774   1.4815   1.4815   1.7112   1.8644
     1.8644   2.1060   2.1060   3.6199   3.6775   3.6775   3.7505   3.7505
     3.7648   5.0952   5.3602   5.8151   6.4790   6.7337   7.0683   7.3137
     7.3137   7.3179   7.3179   7.5936   7.8577   8.5070   8.5070   9.0543
     9.5792  10.3137

[...]

          k =-0.0948-0.0547 0.0000 ( 14842 PWs)   bands (ev):

[...]

     the Fermi energy is     1.0002 ev

!    total energy              =   -4220.40182430 Ry
     Harris-Foulkes estimate   =   -4220.40181921 Ry
     estimated scf accuracy    <       0.00000004 Ry

     The total energy is the sum of the following terms:

     one-electron contribution =  -31583.87797828 Ry
     hartree contribution      =   15798.94061713 Ry
     xc contribution           =    -521.84839496 Ry
     ewald contribution        =   12086.46018490 Ry
     electric field correction =       0.00000000 Ry
     smearing contrib. (-TS)   =      -0.07625310 Ry

     convergence has been achieved in  22 iterations

 BEEF-vdW xc energy contributions
           1 :   -463.088749758925
           2 :    423.212017934555
           3 :   -354.513071119063
           4 :    274.250380330744
           5 :   -198.965216149714
[...]
                l(1) =   0
                l(2) =   0
                l(3) =   1
                l(4) =   1
                l(5) =   2
                l(6) =   2
     Q(r) pseudized with  8 coefficients,  rinner =    1.150   1.150   1.150
                                                       1.150   1.150

     PseudoPot. # 2 for Re read from file:
     /afs/slac.stanford.edu/u/if/mamunm/psp/gbrv1.5pbe/Re.UPF
     MD5 check sum: 85f993410f3e006da9d71c142b4ad953
     Pseudo is Ultrasoft + core correction, Zval = 15.0
     Generated by new atomic code, or converted to UPF format
     Using radial grid of  981 points,  8 beta functions with:
                l(1) =   0
                l(2) =   0
                l(3) =   1
                l(4) =   1
                l(5) =   2
                l(6) =   2
                l(7) =   3
                l(8) =   3
     Q(r) pseudized with  8 coefficients,  rinner =    1.150   1.150   1.150
                                                       1.150   1.150   1.150
                                                       1.150

     vdW kernel table read from file vdW_kernel_table
     MD5 check sum: 095c7af220d748ca6e76c0b4c6cfb241

     atomic species   valence    mass     pseudopotential
        Cu1           19.00    63.54600     Cu( 1.00)
        Re1           15.00   186.20700     Re( 1.00)

     No symmetry found

   Cartesian axes

     site n.     atom                  positions (alat units)
         1           Cu1 tau(   1) = (   0.0000000   0.0000000  10.0000000  )
         2           Cu1 tau(   2) = (  -1.3188120   2.2842494  10.0000000  )
         3           Cu1 tau(   3) = (   1.3188120   2.2842494  10.0000000  )
         4           Re1 tau(   4) = (   2.6376241   0.0000000  10.0000000  )
         5           Cu1 tau(   5) = (   2.6376241   1.5228330  12.1536110  )
         6           Cu1 tau(   6) = (   1.3188120   3.8070824  12.1536110  )
         7           Cu1 tau(   7) = (  -1.3188120   3.8070824  12.1536110  )
         8           Re1 tau(   8) = (   0.0000000   1.5228330  12.1536110  )
         9           Cu1 tau(   9) = (   0.0000054   3.0621155  14.3028380  )
        10           Cu1 tau(  10) = (   1.3330496   0.7531973  14.3028289  )
        11           Cu1 tau(  11) = (   3.9422016   0.7531859  14.3028361  )
        12           Re1 tau(  12) = (   2.6376367   3.0456528  14.1887406  )

     number of k points=    20  Fermi-Dirac smearing, width (Ry)=  0.0110
                       cart. coord. in units 2pi/alat
        k(    1) = (   0.0000000   0.0000000   0.0000000), wk =   0.0555556
        k(    2) = (   0.0000000   0.0364817   0.0000000), wk =   0.1111111
        k(    3) = (   0.0000000   0.0729634   0.0000000), wk =   0.1111111
        k(    4) = (   0.0000000  -0.1094451   0.0000000), wk =   0.0555556
        k(    5) = (   0.0315941   0.0182409   0.0000000), wk =   0.1111111
        k(    6) = (   0.0315941   0.0547226   0.0000000), wk =   0.1111111
        k(    7) = (   0.0315941   0.0912043   0.0000000), wk =   0.1111111
        k(    8) = (   0.0315941  -0.0912043   0.0000000), wk =   0.1111111
        k(    9) = (   0.0315941  -0.0547226   0.0000000), wk =   0.1111111
        k(   10) = (   0.0315941  -0.0182409   0.0000000), wk =   0.1111111
        k(   11) = (   0.0631882   0.0364817   0.0000000), wk =   0.1111111
        k(   12) = (   0.0631882   0.0729634   0.0000000), wk =   0.1111111
        k(   13) = (   0.0631882   0.1094451   0.0000000), wk =   0.1111111
        k(   14) = (   0.0631882  -0.0729634   0.0000000), wk =   0.1111111
        k(   15) = (   0.0631882  -0.0364817   0.0000000), wk =   0.1111111
        k(   16) = (   0.0631882   0.0000000   0.0000000), wk =   0.1111111
        k(   17) = (  -0.0947823  -0.0547226   0.0000000), wk =   0.0555556
        k(   18) = (  -0.0947823  -0.0182409   0.0000000), wk =   0.1111111
        k(   19) = (  -0.0947823   0.0182409   0.0000000), wk =   0.1111111
        k(   20) = (  -0.0947823  -0.1641677   0.0000000), wk =   0.0555556

     Largest allocated arrays     est. size (Mb)     dimensions
     Largest temporary arrays     est. size (Mb)     dimensions

     Initial potential from superposition of free atoms
     Check: negative starting charge=   -0.388466

     starting charge  205.49985, renormalised to  216.00000

[...]

     *
     * You are using vdW-DF for exchange-correlation in this calculation.
     * Please cite the following three references that made this development
     * possible:
     *
     *   M. Dion, H. Rydberg, E. Schroder, D. C. Langreth, and
     *   B. I. Lundqvist, Phys. Rev. Lett. 92, 246401 (2004).
     *
     *   T. Thonhauser, V. R. Cooper, S. Li, A. Puzder, P. Hyldgaard, and
     *   D. C. Langreth, Phys. Rev. B 76, 125112 (2007).
     *
     *   G. Roman-Perez and J. M. Soler, Phys. Rev. Lett. 103, 096102 (2009).
     *
     *
     * If you are using vdW-DF2, please also cite:
     *
     *   K. Lee, E. D. Murray, L. Kong, B. I. Lundqvist, and
     *   D. C. Langreth, Phys. Rev. B 82, 081101(R) (2010).
     *
     *
     * If you are calculating the stress with vdW-DF, please also cite:
     *
     *   R. Sabatini, E. Kucukbenli, B. Kolb, T. Thonhauser, and
     *   S. de Gironcoli, J. Phys.: Condens. Matter 24, 424209 (2012).
     *

     Carrying out vdW-DF run using the following parameters:

     Nqs =      20    Nr_points =    1024   r_max =   100.000
     q_mesh =
               0.00001000     0.04494208     0.09755937     0.15916263
               0.23128650     0.31572767     0.41458969     0.53033537
               0.66584808     0.82450364     1.01025438     1.22772762
               1.48234092     1.78043706     2.12944203     2.53805004
               3.01644009     3.57652955     4.23227104     5.00000000

     Gradients computed in reciprocal space

[...]

     Starting wfc are  156 randomized atomic wfcs

     Self-consistent Calculation

[...]

     total energy              =   -4220.40604370 Ry
     Harris-Foulkes estimate   =   -4220.40604121 Ry
     estimated scf accuracy    <       0.00000163 Ry

     iteration # 19     ecut=    36.75 Ry     beta=0.10
     Davidson diagonalization with overlap
     ethr =  7.53E-10,  avg # of iterations =  2.0

[...]

     negative rho (up, down):  3.893E-01 0.000E+00

     Adding external electric field

     Computed dipole along edir(3) :
        Dipole               -0.0055 Ry au,         -0.0141 Debye
        Dipole field         -0.0000 Ry au

        Potential amp.        0.0016 Ry
        Total length         44.7856 bohr

     End of self-consistent calculation

[...]

          k = 0.0632 0.0000 0.0000 ( 14889 PWs)   bands (ev):

[...]

          k =-0.0948-0.1642 0.0000 ( 14842 PWs)   bands (ev):

  -111.7286-111.7272-111.7258-111.6161-111.6147-111.6133-111.5940-111.5924
  -111.5910 -79.4794 -79.1041 -79.0893 -69.1864 -69.1807 -69.1764 -69.1563
   -69.1508 -69.1446 -69.1091 -69.1027 -69.0970 -69.0898 -69.0835 -69.0772
   -69.0167 -69.0129 -69.0060 -69.0009 -68.9985 -68.9922 -68.9881 -68.9826
   -68.9733 -68.8954 -68.8889 -68.8812 -68.8739 -68.8675 -68.8604 -41.2574
   -41.1150 -41.1133 -40.8497 -40.8166 -40.7977 -40.7961 -40.7803 -40.7787
    -5.6638  -5.4347  -4.1832  -3.8385  -3.5580  -3.3867  -3.3428  -3.1768
    -3.1092  -2.9774  -2.8437  -2.7166  -2.6679  -2.6369  -2.5629  -2.5290
    -2.3946  -2.3366  -2.3305  -2.2652  -2.2406  -2.2331  -2.0427  -1.9506
    -1.9185  -1.9108  -1.8893  -1.8696  -1.8531  -1.8020  -1.7961  -1.7646
    -1.7506  -1.6805  -1.6796  -1.6386  -1.5778  -1.5268  -1.4590  -1.4485
    -1.4174  -1.3788  -1.3719  -1.2982  -1.2640  -1.1357  -1.0731  -1.0515
    -0.8836  -0.7456  -0.6661  -0.6081   0.1040   0.1669   0.3305   0.4571
     0.4970   0.5087   0.6622   0.6945   0.7044   1.0370   1.2438   1.5215
     1.8115   2.0725   2.7178   3.2428   3.9190   4.2707   4.8089   5.0010
     5.6889   5.7124   6.6903   6.7345   7.2256   7.2704   7.5544   7.5659
     7.8020   8.4491   8.4980   8.5550   8.6550   8.7413   9.0725   9.1017
     9.1628   9.3597

     the Fermi energy is     0.9845 ev

!    total energy              =   -4220.40605394 Ry
     Harris-Foulkes estimate   =   -4220.40604380 Ry
     estimated scf accuracy    <       0.00000082 Ry

     The total energy is the sum of the following terms:

     one-electron contribution =  -31701.00852879 Ry
     hartree contribution      =   15857.37392172 Ry
     xc contribution           =    -521.90425139 Ry
     ewald contribution        =   12145.20895720 Ry
     electric field correction =       0.00000010 Ry
     smearing contrib. (-TS)   =      -0.07615277 Ry

     convergence has been achieved in  19 iterations

 BEEF-vdW xc energy contributions
           1 :   -463.148136845313
           2 :    423.302102781003
           3 :   -354.640637258632
           4 :    274.389833084002
           5 :   -199.073126879892
           6 :    138.954451655518
           7 :   -96.1534029584629
           8 :    66.6591655052730
           9 :   -44.5092131329077
          10 :    25.5659313192845
          11 :   -9.02173201540654
          12 :   -3.61336490012184
          13 :    10.7786844836452
          14 :   -12.6390361709123
          15 :    11.2817849633520
          16 :   -9.47771375024649
          17 :    9.07122622165969
          18 :   -10.1505968651348
          19 :    11.4573380372751
          20 :   -11.6040553901523
          21 :    10.1760708121371
          22 :   -7.98076006743941
          23 :    6.36885833578327
          24 :   -6.20322822820526
          25 :    7.24249467952569
          26 :   -8.35456440809122
          27 :    8.35860672121169
          28 :   -6.86972800618088
          29 :    4.55381741920530
          30 :   -2.64206073881678
          31 :   -37.3111955930384
          32 :   -26.1740119387828

     Forces acting on atoms (Ry/au):

     negative rho (up, down):  3.893E-01 0.000E+00
     atom    1 type  1   force =    -0.00000443   -0.00388479    0.00063304
     atom    2 type  1   force =    -0.00336203    0.00194212    0.00063706
     atom    3 type  1   force =     0.00336458    0.00194675    0.00063280
     atom    4 type  2   force =    -0.00000149   -0.00000025    0.02945339
     atom    5 type  1   force =     0.00000093   -0.00745809   -0.01154606
     atom    6 type  1   force =    -0.00646157    0.00373048   -0.01154561
     atom    7 type  1   force =     0.00646250    0.00372804   -0.01154828
     atom    8 type  2   force =    -0.00000129   -0.00000178    0.00426268
     atom    9 type  1   force =     0.00000100    0.00026649   -0.00035164
     atom   10 type  1   force =     0.00023604   -0.00013623   -0.00035152
     atom   11 type  1   force =    -0.00023290   -0.00013522   -0.00035276
     atom   12 type  2   force =    -0.00000135    0.00000247    0.00007689

     Total force =     0.038726     Total SCF correction =     0.001522

     entering subroutine stress ...

     negative rho (up, down):  3.893E-01 0.000E+00
          total   stress  (Ry/bohr**3)                   (kbar)     P=  -22.34
  -0.00017411   0.00000000  -0.00000000        -25.61      0.00     -0.00
   0.00000000  -0.00017411   0.00000000          0.00    -25.61      0.00
  -0.00000000   0.00000000  -0.00010733         -0.00      0.00    -15.79

 !ASE

     Writing output data file calc.save

     General routines

     Parallel routines

   This run was terminated on:  19:17:24  25Dec2018

   JOB DONE.
Job  /afs/slac/g/suncat/bin/suncat-tsmpirun -x LD_LIBRARY_PATH -wdir /scratch/qe109588_82RTj pw.x -in pw.inp

TID   HOST_NAME   COMMAND_LINE            STATUS            TERMINATION_TIME
00000 suncat0076 pw.x -in pw.inp   Done                     12/25/2018 19:17:24
00001 suncat0076 pw.x -in pw.inp   Done                     12/25/2018 19:17:24
00002 suncat0076 pw.x -in pw.inp   Done                     12/25/2018 19:17:24
00003 suncat0076 pw.x -in pw.inp   Done                     12/25/2018 19:17:24
00004 suncat0076 pw.x -in pw.inp   Done                     12/25/2018 19:17:24
00005 suncat0076 pw.x -in pw.inp   Done                     12/25/2018 19:17:24
00006 suncat0076 pw.x -in pw.inp   Done                     12/25/2018 19:17:24
00007 suncat0076 pw.x -in pw.inp   Done                     12/25/2018 19:17:24
00008 suncat0074 pw.x -in pw.inp   Done                     12/25/2018 19:17:24
00009 suncat0074 pw.x -in pw.inp   Done                     12/25/2018 19:17:24
00010 suncat0074 pw.x -in pw.inp   Done                     12/25/2018 19:17:24
00011 suncat0074 pw.x -in pw.inp   Done                     12/25/2018 19:17:24
00012 suncat0074 pw.x -in pw.inp   Done                     12/25/2018 19:17:24
00013 suncat0074 pw.x -in pw.inp   Done                     12/25/2018 19:17:24
00014 suncat0074 pw.x -in pw.inp   Done                     12/25/2018 19:17:24
00015 suncat0074 pw.x -in pw.inp   Done                     12/25/2018 19:17:24
00016 suncat0172 pw.x -in pw.inp   Done                     12/25/2018 19:17:24
00017 suncat0172 pw.x -in pw.inp   Done                     12/25/2018 19:17:24
00018 suncat0172 pw.x -in pw.inp   Done                     12/25/2018 19:17:24
00019 suncat0172 pw.x -in pw.inp   Done                     12/25/2018 19:17:24
00020 suncat0172 pw.x -in pw.inp   Done                     12/25/2018 19:17:24
00021 suncat0172 pw.x -in pw.inp   Done                     12/25/2018 19:17:24
00022 suncat0172 pw.x -in pw.inp   Done                     12/25/2018 19:17:24
00023 suncat0172 pw.x -in pw.inp   Done                     12/25/2018 19:17:24
00024 suncat0171 pw.x -in pw.inp   Done                     12/25/2018 19:17:24
00025 suncat0171 pw.x -in pw.inp   Done                     12/25/2018 19:17:24
00026 suncat0171 pw.x -in pw.inp   Done                     12/25/2018 19:17:24
00027 suncat0171 pw.x -in pw.inp   Done                     12/25/2018 19:17:24
00028 suncat0171 pw.x -in pw.inp   Done                     12/25/2018 19:17:24
00029 suncat0171 pw.x -in pw.inp   Done                     12/25/2018 19:17:24
00030 suncat0171 pw.x -in pw.inp   Done                     12/25/2018 19:17:24
00031 suncat0171 pw.x -in pw.inp   Done                     12/25/2018 19:17:24
00032 suncat0270 pw.x -in pw.inp   Done                     12/25/2018 19:17:24
00033 suncat0270 pw.x -in pw.inp   Done                     12/25/2018 19:17:24
00034 suncat0270 pw.x -in pw.inp   Done                     12/25/2018 19:17:24
00035 suncat0270 pw.x -in pw.inp   Done                     12/25/2018 19:17:24
00036 suncat0270 pw.x -in pw.inp   Done                     12/25/2018 19:17:24
00037 suncat0270 pw.x -in pw.inp   Done                     12/25/2018 19:17:24
00038 suncat0270 pw.x -in pw.inp   Done                     12/25/2018 19:17:24
00039 suncat0270 pw.x -in pw.inp   Done                     12/25/2018 19:17:24
00040 suncat0268 pw.x -in pw.inp   Done                     12/25/2018 19:17:24
00041 suncat0268 pw.x -in pw.inp   Done                     12/25/2018 19:17:24
00042 suncat0268 pw.x -in pw.inp   Done                     12/25/2018 19:17:24
00043 suncat0268 pw.x -in pw.inp   Done                     12/25/2018 19:17:24
00044 suncat0268 pw.x -in pw.inp   Done                     12/25/2018 19:17:24
00045 suncat0268 pw.x -in pw.inp   Done                     12/25/2018 19:17:24
00046 suncat0268 pw.x -in pw.inp   Done                     12/25/2018 19:17:24
00047 suncat0268 pw.x -in pw.inp   Done                     12/25/2018 19:17:24
00048 suncat0207 pw.x -in pw.inp   Done                     12/25/2018 19:17:24
00049 suncat0207 pw.x -in pw.inp   Done                     12/25/2018 19:17:24
00050 suncat0207 pw.x -in pw.inp   Done                     12/25/2018 19:17:24
00051 suncat0207 pw.x -in pw.inp   Done                     12/25/2018 19:17:24
00052 suncat0207 pw.x -in pw.inp   Done                     12/25/2018 19:17:24
00053 suncat0207 pw.x -in pw.inp   Done                     12/25/2018 19:17:24
00054 suncat0207 pw.x -in pw.inp   Done                     12/25/2018 19:17:24
00055 suncat0207 pw.x -in pw.inp   Done                     12/25/2018 19:17:24
00056 suncat0206 pw.x -in pw.inp   Done                     12/25/2018 19:17:24
00057 suncat0206 pw.x -in pw.inp   Done                     12/25/2018 19:17:24
00058 suncat0206 pw.x -in pw.inp   Done                     12/25/2018 19:17:24
00059 suncat0206 pw.x -in pw.inp   Done                     12/25/2018 19:17:24
00060 suncat0206 pw.x -in pw.inp   Done                     12/25/2018 19:17:24
00061 suncat0206 pw.x -in pw.inp   Done                     12/25/2018 19:17:24
00062 suncat0206 pw.x -in pw.inp   Done                     12/25/2018 19:17:24
00063 suncat0206 pw.x -in pw.inp   Done                     12/25/2018 19:17:24