     Program PWSCF v.5.1rc2 (svn rev. 11289) starts on 27Dec2018 at  1:58:56

     Current dimensions of program PWSCF are:
     Max number of different atomic species (ntypx) = 10
     Max number of k-points (npk) =  40000
     Max angular momentum in pseudopotentials (lmaxx) =  3
     Presently stress not available with electric field

     IMPORTANT: XC functional enforced from input :
     Exchange-correlation      = BEEF-VDW ( 1  4 27 13 2)
     Any further DFT definition will be discarded
     Please, verify this is what you really want

     Subspace diagonalization in iterative solution of the eigenvalue problem:
     a serial algorithm will be used

     bravais-lattice index     =            0
     lattice parameter (alat)  =       1.8897  a.u.
     unit-cell volume          =    4771.8964 (a.u.)^3
     number of atoms/cell      =           12
     number of atomic types    =            2
     number of electrons       =       165.00
     number of Kohn-Sham states=          112
     kinetic-energy cutoff     =      36.7493  Ry
     charge density cutoff     =     367.4932  Ry
     convergence threshold     =      1.0E-06
     mixing beta               =       0.1000
     number of iterations used =           10  plain     mixing
     Exchange-correlation      = BEEF-VDW ( 1  4 27 13 2)
     nstep                     =           50

     celldm(1)=   1.889726  celldm(2)=   0.000000  celldm(3)=   0.000000
     celldm(4)=   0.000000  celldm(5)=   0.000000  celldm(6)=   0.000000

     crystal axes: (cart. coord. in units of alat)
               a(1) = (   5.750131   0.000000   0.000000 )
               a(2) = (  -2.875065   4.979759   0.000000 )
               a(3) = (   0.000000   0.000000  24.694962 )

     reciprocal axes: (cart. coord. in units 2 pi/alat)
               b(1) = (  0.173909  0.100406  0.000000 )
               b(2) = (  0.000000  0.200813  0.000000 )
               b(3) = (  0.000000  0.000000  0.040494 )

     PseudoPot. # 1 for Mo read from file:
     /afs/slac.stanford.edu/u/if/mamunm/psp/gbrv1.5pbe/Mo.UPF
     MD5 check sum: 30c4dcd161f5d35cd49bb5239c51a633
     Pseudo is Ultrasoft + core correction, Zval = 14.0
     Generated by new atomic code, or converted to UPF format
     Using radial grid of  889 points,  6 beta functions with:
                l(1) =   0
                l(2) =   0
                l(3) =   1
                l(4) =   1
                l(5) =   2
                l(6) =   2
     Q(r) pseudized with  6 coefficients,  rinner =    1.000   1.000   1.000
                                                       1.000   1.000

     PseudoPot. # 2 for Nb read from file:
     /afs/slac.stanford.edu/u/if/mamunm/psp/gbrv1.5pbe/Nb.UPF
     MD5 check sum: 573aab8a2fa660278ed4a62cd769473f
     Pseudo is Ultrasoft + core correction, Zval = 13.0
     Generated by new atomic code, or converted to UPF format
     Using radial grid of  887 points,  6 beta functions with:
                l(1) =   0
                l(2) =   0
                l(3) =   1
                l(4) =   1
                l(5) =   2
                l(6) =   2
     Q(r) pseudized with  6 coefficients,  rinner =    1.000   1.000   1.000
                                                       1.000   1.000

     vdW kernel table read from file vdW_kernel_table
     MD5 check sum: 095c7af220d748ca6e76c0b4c6cfb241

     atomic species   valence    mass     pseudopotential
        Mo1           14.00    95.95000     Mo( 1.00)
        Nb1           13.00    92.90637     Nb( 1.00)

     No symmetry found

   Cartesian axes

     site n.     atom                  positions (alat units)
         1           Mo1 tau(   1) = (   0.0000000   0.0000000  10.0000000  )
         2           Mo1 tau(   2) = (  -1.4375326   2.4898796  10.0000000  )
         3           Mo1 tau(   3) = (   1.4375326   2.4898796  10.0000000  )
         4           Nb1 tau(   4) = (   2.8750653   0.0000000  10.0000000  )
         5           Mo1 tau(   5) = (   2.8750653   1.6599197  12.3474810  )
         6           Mo1 tau(   6) = (   1.4375326   4.1497993  12.3474810  )
         7           Mo1 tau(   7) = (  -1.4375326   4.1497993  12.3474810  )
         8           Nb1 tau(   8) = (   0.0000000   1.6599197  12.3474810  )
         9           Mo1 tau(   9) = (  -0.0000000   3.3198394  14.6949620  )
        10           Mo1 tau(  10) = (   1.4375326   0.8299599  14.6949620  )
        11           Mo1 tau(  11) = (   4.3125979   0.8299599  14.6949620  )
        12           Nb1 tau(  12) = (   2.8750653   3.3198394  14.6949620  )

     number of k points=    20  Fermi-Dirac smearing, width (Ry)=  0.0110
                       cart. coord. in units 2pi/alat
        k(    1) = (   0.0000000   0.0000000   0.0000000), wk =   0.0555556
        k(    2) = (   0.0000000   0.0334688   0.0000000), wk =   0.1111111
        k(    3) = (   0.0000000   0.0669376   0.0000000), wk =   0.1111111
        k(    4) = (   0.0000000  -0.1004065   0.0000000), wk =   0.0555556
        k(    5) = (   0.0289848   0.0167344   0.0000000), wk =   0.1111111
        k(    6) = (   0.0289848   0.0502032   0.0000000), wk =   0.1111111
        k(    7) = (   0.0289848   0.0836721   0.0000000), wk =   0.1111111
        k(    8) = (   0.0289848  -0.0836721   0.0000000), wk =   0.1111111
        k(    9) = (   0.0289848  -0.0502032   0.0000000), wk =   0.1111111
        k(   10) = (   0.0289848  -0.0167344   0.0000000), wk =   0.1111111
        k(   11) = (   0.0579697   0.0334688   0.0000000), wk =   0.1111111
        k(   12) = (   0.0579697   0.0669376   0.0000000), wk =   0.1111111
        k(   13) = (   0.0579697   0.1004065   0.0000000), wk =   0.1111111
        k(   14) = (   0.0579697  -0.0669376   0.0000000), wk =   0.1111111
        k(   15) = (   0.0579697  -0.0334688   0.0000000), wk =   0.1111111
        k(   16) = (   0.0579697   0.0000000   0.0000000), wk =   0.1111111
        k(   17) = (  -0.0869545  -0.0502032   0.0000000), wk =   0.0555556
        k(   18) = (  -0.0869545  -0.0167344   0.0000000), wk =   0.1111111
        k(   19) = (  -0.0869545   0.0167344   0.0000000), wk =   0.1111111
        k(   20) = (  -0.0869545  -0.1506097   0.0000000), wk =   0.0555556

     Largest allocated arrays     est. size (Mb)     dimensions
     Largest temporary arrays     est. size (Mb)     dimensions

     Initial potential from superposition of free atoms
     Check: negative starting charge=   -0.004745

     starting charge  164.98223, renormalised to  165.00000

     negative rho (up, down):  4.746E-03 0.000E+00

     *
     * You are using vdW-DF for exchange-correlation in this calculation.
     * Please cite the following three references that made this development
     * possible:
     *
     *   M. Dion, H. Rydberg, E. Schroder, D. C. Langreth, and
     *   B. I. Lundqvist, Phys. Rev. Lett. 92, 246401 (2004).
     *
     *   T. Thonhauser, V. R. Cooper, S. Li, A. Puzder, P. Hyldgaard, and
     *   D. C. Langreth, Phys. Rev. B 76, 125112 (2007).
     *
     *   G. Roman-Perez and J. M. Soler, Phys. Rev. Lett. 103, 096102 (2009).
     *
     *
     * If you are using vdW-DF2, please also cite:
     *
     *   K. Lee, E. D. Murray, L. Kong, B. I. Lundqvist, and
     *   D. C. Langreth, Phys. Rev. B 82, 081101(R) (2010).
     *
     *
     * If you are calculating the stress with vdW-DF, please also cite:
     *
     *   R. Sabatini, E. Kucukbenli, B. Kolb, T. Thonhauser, and
     *   S. de Gironcoli, J. Phys.: Condens. Matter 24, 424209 (2012).
     *

     Carrying out vdW-DF run using the following parameters:

     Nqs =      20    Nr_points =    1024   r_max =   100.000
     q_mesh =
               0.00001000     0.04494208     0.09755937     0.15916263
               0.23128650     0.31572767     0.41458969     0.53033537
               0.66584808     0.82450364     1.01025438     1.22772762
               1.48234092     1.78043706     2.12944203     2.53805004
               3.01644009     3.57652955     4.23227104     5.00000000

     Gradients computed in reciprocal space

     Adding external electric field

     Computed dipole along edir(3) :
        Dipole               -0.0000 Ry au,         -0.0000 Debye
        Dipole field         -0.0000 Ry au

        Potential amp.        0.0000 Ry
        Total length         45.5000 bohr

     Starting wfc are  156 randomized atomic wfcs

     Self-consistent Calculation

     iteration #  1     ecut=    36.75 Ry     beta=0.10
     Davidson diagonalization with overlap
     ethr =  1.00E-02,  avg # of iterations =  2.0

[...]

     total energy              =   -1614.20562921 Ry
     Harris-Foulkes estimate   =   -1615.92740923 Ry
     estimated scf accuracy    <       9.66558541 Ry

[...]

     End of self-consistent calculation

          k = 0.0000 0.0000 0.0000 ( 18007 PWs)   bands (ev):

   -58.8811 -58.7774 -58.7774 -58.7766 -58.7587 -58.6868 -58.6868 -58.6820
   -58.6820 -52.9104 -52.9097 -52.7606 -33.3538 -33.1867 -33.1700 -33.1512
   -33.1512 -33.1064 -33.0753 -33.0753 -32.9376 -32.9376 -32.8664 -32.7743
   -32.7743 -32.7641 -32.7641 -32.6909 -32.6063 -32.5909 -32.5909 -32.5255
   -32.5242 -32.5242 -32.4793 -32.4223 -32.4223 -32.4184 -32.4184 -29.0207
   -28.9829 -28.8502 -28.8502 -28.8415 -28.8415 -28.7832 -28.7489 -28.7489
    -3.6818  -2.3566  -2.0721  -2.0234  -2.0234  -1.9982  -1.6438  -1.6438
    -1.5967  -1.3660  -1.3601  -1.3601  -1.1509  -1.1509  -1.1423  -0.0456
    -0.0021  -0.0021   0.9224   0.9224   0.9623   0.9864   1.2471   1.6400
     1.6400   1.7986   1.8781   1.8781   2.0316   2.0672   2.0672   2.0793
     2.0793   2.0854   2.0854   2.3744   3.1404   3.1482   3.1482   3.3014
     3.3285   3.5520   3.5520   3.9655   3.9655   4.5263   4.5263   4.5742
     4.5742   4.5923   4.6518   4.6518   5.0175   5.0249   5.5725   5.5725
     5.6053   5.6053   5.8004   5.9846   6.0972   6.3753   6.3754   6.5026

[...]

          k =-0.0870-0.0502 0.0000 ( 17932 PWs)   bands (ev):

[...]

     the Fermi energy is     2.1014 ev

!    total energy              =   -1614.90257504 Ry
     Harris-Foulkes estimate   =   -1614.90257475 Ry
     estimated scf accuracy    <       0.00000050 Ry

     The total energy is the sum of the following terms:

     one-electron contribution =  -13923.65954090 Ry
     hartree contribution      =    6954.84264732 Ry
     xc contribution           =    -236.86266581 Ry
     ewald contribution        =    5590.89114169 Ry
     electric field correction =       0.00000000 Ry
     smearing contrib. (-TS)   =      -0.11415733 Ry

     convergence has been achieved in  20 iterations

 BEEF-vdW xc energy contributions
           1 :   -203.317790331948
           2 :    185.473636497734
           3 :   -154.950129204996
           4 :    119.896507989898
           5 :   -88.4009670260916
           6 :    65.8311130436030
           7 :   -53.5948185428352
           8 :    49.5440588368793
           9 :   -49.5981352702667
          10 :    49.7107580343483
          11 :   -47.3738304651009
          12 :    42.1586632124128
          13 :   -35.3038114950089
          14 :    28.7086123150073
          15 :   -23.8734571799496
[...]
     /afs/slac.stanford.edu/u/if/mamunm/psp/gbrv1.5pbe/Mo.UPF
     MD5 check sum: 30c4dcd161f5d35cd49bb5239c51a633
     Pseudo is Ultrasoft + core correction, Zval = 14.0
     Generated by new atomic code, or converted to UPF format
     Using radial grid of  889 points,  6 beta functions with:
                l(1) =   0
                l(2) =   0
                l(3) =   1
                l(4) =   1
                l(5) =   2
                l(6) =   2
     Q(r) pseudized with  6 coefficients,  rinner =    1.000   1.000   1.000
                                                       1.000   1.000

     PseudoPot. # 2 for Nb read from file:
     /afs/slac.stanford.edu/u/if/mamunm/psp/gbrv1.5pbe/Nb.UPF
     MD5 check sum: 573aab8a2fa660278ed4a62cd769473f
     Pseudo is Ultrasoft + core correction, Zval = 13.0
     Generated by new atomic code, or converted to UPF format
     Using radial grid of  887 points,  6 beta functions with:
                l(1) =   0
                l(2) =   0
                l(3) =   1
                l(4) =   1
                l(5) =   2
                l(6) =   2
     Q(r) pseudized with  6 coefficients,  rinner =    1.000   1.000   1.000
                                                       1.000   1.000

     vdW kernel table read from file vdW_kernel_table
     MD5 check sum: 095c7af220d748ca6e76c0b4c6cfb241

     atomic species   valence    mass     pseudopotential
        Mo1           14.00    95.95000     Mo( 1.00)
        Nb1           13.00    92.90637     Nb( 1.00)

     No symmetry found

   Cartesian axes

     site n.     atom                  positions (alat units)
         1           Mo1 tau(   1) = (   0.0000000   0.0000000  10.0000000  )
         2           Mo1 tau(   2) = (  -1.4375326   2.4898796  10.0000000  )
         3           Mo1 tau(   3) = (   1.4375326   2.4898796  10.0000000  )
         4           Nb1 tau(   4) = (   2.8750653   0.0000000  10.0000000  )
         5           Mo1 tau(   5) = (   2.8750653   1.6599197  12.3474810  )
         6           Mo1 tau(   6) = (   1.4375326   4.1497993  12.3474810  )
         7           Mo1 tau(   7) = (  -1.4375326   4.1497993  12.3474810  )
         8           Nb1 tau(   8) = (   0.0000000   1.6599197  12.3474810  )
         9           Mo1 tau(   9) = (  -0.0000029   3.3612974  14.6624091  )
        10           Mo1 tau(  10) = (   1.4734574   0.8092138  14.6624120  )
        11           Mo1 tau(  11) = (   4.2766780   0.8092204  14.6624129  )
        12           Nb1 tau(  12) = (   2.8750652   3.3198376  14.7997850  )

     number of k points=    20  Fermi-Dirac smearing, width (Ry)=  0.0110
                       cart. coord. in units 2pi/alat
        k(    1) = (   0.0000000   0.0000000   0.0000000), wk =   0.0555556
        k(    2) = (   0.0000000   0.0334688   0.0000000), wk =   0.1111111
        k(    3) = (   0.0000000   0.0669376   0.0000000), wk =   0.1111111
        k(    4) = (   0.0000000  -0.1004065   0.0000000), wk =   0.0555556
        k(    5) = (   0.0289848   0.0167344   0.0000000), wk =   0.1111111
        k(    6) = (   0.0289848   0.0502032   0.0000000), wk =   0.1111111
        k(    7) = (   0.0289848   0.0836721   0.0000000), wk =   0.1111111
        k(    8) = (   0.0289848  -0.0836721   0.0000000), wk =   0.1111111
        k(    9) = (   0.0289848  -0.0502032   0.0000000), wk =   0.1111111
        k(   10) = (   0.0289848  -0.0167344   0.0000000), wk =   0.1111111
        k(   11) = (   0.0579697   0.0334688   0.0000000), wk =   0.1111111
        k(   12) = (   0.0579697   0.0669376   0.0000000), wk =   0.1111111
        k(   13) = (   0.0579697   0.1004065   0.0000000), wk =   0.1111111
        k(   14) = (   0.0579697  -0.0669376   0.0000000), wk =   0.1111111
        k(   15) = (   0.0579697  -0.0334688   0.0000000), wk =   0.1111111
        k(   16) = (   0.0579697   0.0000000   0.0000000), wk =   0.1111111
        k(   17) = (  -0.0869545  -0.0502032   0.0000000), wk =   0.0555556
        k(   18) = (  -0.0869545  -0.0167344   0.0000000), wk =   0.1111111
        k(   19) = (  -0.0869545   0.0167344   0.0000000), wk =   0.1111111
        k(   20) = (  -0.0869545  -0.1506097   0.0000000), wk =   0.0555556

     Largest allocated arrays     est. size (Mb)     dimensions
     Largest temporary arrays     est. size (Mb)     dimensions

     Initial potential from superposition of free atoms
     Check: negative starting charge=   -0.004933

     starting charge  164.98223, renormalised to  165.00000

[...]

     *
     * You are using vdW-DF for exchange-correlation in this calculation.
     * Please cite the following three references that made this development
     * possible:
     *
     *   M. Dion, H. Rydberg, E. Schroder, D. C. Langreth, and
     *   B. I. Lundqvist, Phys. Rev. Lett. 92, 246401 (2004).
     *
     *   T. Thonhauser, V. R. Cooper, S. Li, A. Puzder, P. Hyldgaard, and
     *   D. C. Langreth, Phys. Rev. B 76, 125112 (2007).
     *
     *   G. Roman-Perez and J. M. Soler, Phys. Rev. Lett. 103, 096102 (2009).
     *
     *
     * If you are using vdW-DF2, please also cite:
     *
     *   K. Lee, E. D. Murray, L. Kong, B. I. Lundqvist, and
     *   D. C. Langreth, Phys. Rev. B 82, 081101(R) (2010).
     *
     *
     * If you are calculating the stress with vdW-DF, please also cite:
     *
     *   R. Sabatini, E. Kucukbenli, B. Kolb, T. Thonhauser, and
     *   S. de Gironcoli, J. Phys.: Condens. Matter 24, 424209 (2012).
     *

     Carrying out vdW-DF run using the following parameters:

     Nqs =      20    Nr_points =    1024   r_max =   100.000
     q_mesh =
               0.00001000     0.04494208     0.09755937     0.15916263
               0.23128650     0.31572767     0.41458969     0.53033537
               0.66584808     0.82450364     1.01025438     1.22772762
               1.48234092     1.78043706     2.12944203     2.53805004
               3.01644009     3.57652955     4.23227104     5.00000000

     Gradients computed in reciprocal space

[...]

     Starting wfc are  156 randomized atomic wfcs

     Self-consistent Calculation

[...]

     total energy              =   -1614.90724946 Ry
     Harris-Foulkes estimate   =   -1614.90724930 Ry
     estimated scf accuracy    <       0.00000118 Ry

     iteration # 20     ecut=    36.75 Ry     beta=0.10
     Davidson diagonalization with overlap
     ethr =  7.18E-10,  avg # of iterations =  2.0

[...]

     negative rho (up, down):  4.704E-03 0.000E+00

     Adding external electric field

     Computed dipole along edir(3) :
        Dipole                0.0141 Ry au,          0.0358 Debye
        Dipole field          0.0000 Ry au

        Potential amp.       -0.0034 Ry
        Total length         45.5000 bohr

     End of self-consistent calculation

[...]

          k = 0.0580 0.0000 0.0000 ( 17957 PWs)   bands (ev):

[...]

          k =-0.0870-0.1506 0.0000 ( 17932 PWs)   bands (ev):

   -58.8362 -58.8063 -58.7678 -58.7219 -58.7147 -58.6942 -58.6841 -58.6660
   -58.6578 -52.9837 -52.8904 -52.7401 -33.2054 -33.1349 -33.0702 -33.0097
   -33.0014 -32.9663 -32.9570 -32.9481 -32.8846 -32.8526 -32.7936 -32.7888
   -32.7433 -32.7397 -32.7220 -32.6926 -32.6876 -32.6815 -32.6423 -32.6417
   -32.6164 -32.5678 -32.5417 -32.5316 -32.5103 -32.4189 -32.4144 -29.0975
   -28.9813 -28.9515 -28.9150 -28.8829 -28.8438 -28.7843 -28.7616 -28.7466
    -2.1071  -2.0571  -1.2347  -1.2018  -1.0644  -0.9564  -0.8440  -0.8243
    -0.7432  -0.6870  -0.3406  -0.2763  -0.2218  -0.1583  -0.0253   0.0091
     0.3653   0.4646   0.4906   0.5468   0.6398   0.6624   0.9583   1.1513
     1.2602   1.2817   1.3846   1.4336   1.4381   1.4573   1.5940   1.6069
     1.6245   1.8108   1.8266   1.8526   1.9396   2.2056   2.3913   2.4757
     2.7743   2.9845   3.0181   3.0963   3.1952   3.3775   3.3871   3.5774
     3.6037   3.7670   3.8016   3.9645   4.0289   4.0699   4.1577   4.4833
     4.4875   4.8029   4.9465   4.9535   5.5302   5.7463   5.7770   5.8459

     the Fermi energy is     2.1211 ev

!    total energy              =   -1614.90725363 Ry
     Harris-Foulkes estimate   =   -1614.90724946 Ry
     estimated scf accuracy    <       0.00000043 Ry

     The total energy is the sum of the following terms:

     one-electron contribution =  -13923.57682140 Ry
     hartree contribution      =    6954.85949490 Ry
     xc contribution           =    -236.86207834 Ry
     ewald contribution        =    5590.78437780 Ry
     electric field correction =       0.00000052 Ry
     smearing contrib. (-TS)   =      -0.11222711 Ry

     convergence has been achieved in  20 iterations

 BEEF-vdW xc energy contributions
           1 :   -203.361919998092
           2 :    185.518845314676
           3 :   -154.997982787384
           4 :    119.947562613971
           5 :   -88.4534819963231
           6 :    65.8799453278735
           7 :   -53.6335946447362
           8 :    49.5687716765679
           9 :   -49.6101516880585
          10 :    49.7172084784790
          11 :   -47.3834185771564
          12 :    42.1774327966478
          13 :   -35.3333883962634
          14 :    28.7455807990271
          15 :   -23.9105284171320
          16 :    21.2657294951170
          17 :   -20.1524477806368
          18 :    19.3131444078616
          19 :   -17.6176798577450
          20 :    14.6303256693444
          21 :   -10.7608666222403
          22 :    6.96576641255228
          23 :   -4.20293543581613
          24 :    2.93605596183016
          25 :   -2.93580936903950
          26 :    3.44384266213788
          27 :   -3.58435299474229
          28 :    2.79095766454842
          29 :   -1.04039651495307
          30 :   -1.20267902084302
          31 :   -23.2327228107071
          32 :   -17.7365111925504

     Forces acting on atoms (Ry/au):

     negative rho (up, down):  4.704E-03 0.000E+00
     atom    1 type  1   force =     0.00000052   -0.01046833    0.00259353
     atom    2 type  1   force =    -0.00906761    0.00523504    0.00259279
     atom    3 type  1   force =     0.00906694    0.00523412    0.00259285
     atom    4 type  2   force =     0.00000011    0.00000025   -0.01652647
     atom    5 type  1   force =     0.00000042    0.00875740    0.00417816
     atom    6 type  1   force =     0.00758414   -0.00437814    0.00417832
     atom    7 type  1   force =    -0.00758418   -0.00437834    0.00417788
     atom    8 type  2   force =     0.00000034   -0.00000071   -0.00268935
     atom    9 type  1   force =    -0.00000006    0.00134913   -0.00069185
     atom   10 type  1   force =     0.00117014   -0.00067565   -0.00069412
     atom   11 type  1   force =    -0.00116951   -0.00067514   -0.00069325
     atom   12 type  2   force =    -0.00000126    0.00000037    0.00098149

     Total force =     0.030326     Total SCF correction =     0.003810
     SCF correction compared to forces is large: reduce conv_thr to get better values

     entering subroutine stress ...

     negative rho (up, down):  4.704E-03 0.000E+00
          total   stress  (Ry/bohr**3)                   (kbar)     P=  -30.33
  -0.00031148   0.00000000   0.00000000        -45.82      0.00      0.00
   0.00000000  -0.00031148  -0.00000000          0.00    -45.82     -0.00
   0.00000000  -0.00000000   0.00000444          0.00     -0.00      0.65

 !ASE

     Writing output data file calc.save

     General routines

     Parallel routines

   This run was terminated on:   2:52:37  27Dec2018

   JOB DONE.
Job  /afs/slac/g/suncat/bin/suncat-tsmpirun -x LD_LIBRARY_PATH -wdir /scratch/qe110135_iIcsH pw.x -in pw.inp

TID   HOST_NAME   COMMAND_LINE            STATUS            TERMINATION_TIME
00000 suncat0277 pw.x -in pw.inp   Done                     12/27/2018 02:52:37
00001 suncat0277 pw.x -in pw.inp   Done                     12/27/2018 02:52:37
00002 suncat0277 pw.x -in pw.inp   Done                     12/27/2018 02:52:37
00003 suncat0277 pw.x -in pw.inp   Done                     12/27/2018 02:52:37
00004 suncat0277 pw.x -in pw.inp   Done                     12/27/2018 02:52:37
00005 suncat0277 pw.x -in pw.inp   Done                     12/27/2018 02:52:37
00006 suncat0277 pw.x -in pw.inp   Done                     12/27/2018 02:52:37
00007 suncat0277 pw.x -in pw.inp   Done                     12/27/2018 02:52:37
00008 suncat0276 pw.x -in pw.inp   Done                     12/27/2018 02:52:37
00009 suncat0276 pw.x -in pw.inp   Done                     12/27/2018 02:52:37
00010 suncat0276 pw.x -in pw.inp   Done                     12/27/2018 02:52:37
00011 suncat0276 pw.x -in pw.inp   Done                     12/27/2018 02:52:37
00012 suncat0276 pw.x -in pw.inp   Done                     12/27/2018 02:52:37
00013 suncat0276 pw.x -in pw.inp   Done                     12/27/2018 02:52:37
00014 suncat0276 pw.x -in pw.inp   Done                     12/27/2018 02:52:37
00015 suncat0276 pw.x -in pw.inp   Done                     12/27/2018 02:52:37
00016 suncat0274 pw.x -in pw.inp   Done                     12/27/2018 02:52:37
00017 suncat0274 pw.x -in pw.inp   Done                     12/27/2018 02:52:37
00018 suncat0274 pw.x -in pw.inp   Done                     12/27/2018 02:52:37
00019 suncat0274 pw.x -in pw.inp   Done                     12/27/2018 02:52:37
00020 suncat0274 pw.x -in pw.inp   Done                     12/27/2018 02:52:37
00021 suncat0274 pw.x -in pw.inp   Done                     12/27/2018 02:52:37
00022 suncat0274 pw.x -in pw.inp   Done                     12/27/2018 02:52:37
00023 suncat0274 pw.x -in pw.inp   Done                     12/27/2018 02:52:37
00024 suncat0273 pw.x -in pw.inp   Done                     12/27/2018 02:52:37
00025 suncat0273 pw.x -in pw.inp   Done                     12/27/2018 02:52:37
00026 suncat0273 pw.x -in pw.inp   Done                     12/27/2018 02:52:37
00027 suncat0273 pw.x -in pw.inp   Done                     12/27/2018 02:52:37
00028 suncat0273 pw.x -in pw.inp   Done                     12/27/2018 02:52:37
00029 suncat0273 pw.x -in pw.inp   Done                     12/27/2018 02:52:37
00030 suncat0273 pw.x -in pw.inp   Done                     12/27/2018 02:52:37
00031 suncat0273 pw.x -in pw.inp   Done                     12/27/2018 02:52:37
00032 suncat0230 pw.x -in pw.inp   Done                     12/27/2018 02:52:37
00033 suncat0230 pw.x -in pw.inp   Done                     12/27/2018 02:52:37
00034 suncat0230 pw.x -in pw.inp   Done                     12/27/2018 02:52:37
00035 suncat0230 pw.x -in pw.inp   Done                     12/27/2018 02:52:37
00036 suncat0230 pw.x -in pw.inp   Done                     12/27/2018 02:52:37
00037 suncat0230 pw.x -in pw.inp   Done                     12/27/2018 02:52:37
00038 suncat0230 pw.x -in pw.inp   Done                     12/27/2018 02:52:37
00039 suncat0230 pw.x -in pw.inp   Done                     12/27/2018 02:52:37
00040 suncat0229 pw.x -in pw.inp   Done                     12/27/2018 02:52:37
00041 suncat0229 pw.x -in pw.inp   Done                     12/27/2018 02:52:37
00042 suncat0229 pw.x -in pw.inp   Done                     12/27/2018 02:52:37
00043 suncat0229 pw.x -in pw.inp   Done                     12/27/2018 02:52:37
00044 suncat0229 pw.x -in pw.inp   Done                     12/27/2018 02:52:37
00045 suncat0229 pw.x -in pw.inp   Done                     12/27/2018 02:52:37
00046 suncat0229 pw.x -in pw.inp   Done                     12/27/2018 02:52:37
00047 suncat0229 pw.x -in pw.inp   Done                     12/27/2018 02:52:37
00048 suncat0205 pw.x -in pw.inp   Done                     12/27/2018 02:52:37
00049 suncat0205 pw.x -in pw.inp   Done                     12/27/2018 02:52:37
00050 suncat0205 pw.x -in pw.inp   Done                     12/27/2018 02:52:37
00051 suncat0205 pw.x -in pw.inp   Done                     12/27/2018 02:52:37
00052 suncat0205 pw.x -in pw.inp   Done                     12/27/2018 02:52:37
00053 suncat0205 pw.x -in pw.inp   Done                     12/27/2018 02:52:37
00054 suncat0205 pw.x -in pw.inp   Done                     12/27/2018 02:52:37
00055 suncat0205 pw.x -in pw.inp   Done                     12/27/2018 02:52:37
00056 suncat0204 pw.x -in pw.inp   Done                     12/27/2018 02:52:37
00057 suncat0204 pw.x -in pw.inp   Done                     12/27/2018 02:52:37
00058 suncat0204 pw.x -in pw.inp   Done                     12/27/2018 02:52:37
00059 suncat0204 pw.x -in pw.inp   Done                     12/27/2018 02:52:37
00060 suncat0204 pw.x -in pw.inp   Done                     12/27/2018 02:52:37
00061 suncat0204 pw.x -in pw.inp   Done                     12/27/2018 02:52:37
00062 suncat0204 pw.x -in pw.inp   Done                     12/27/2018 02:52:37
00063 suncat0204 pw.x -in pw.inp   Done                     12/27/2018 02:52:37