     Program PWSCF v.5.1rc2 (svn rev. 11289) starts on 25Dec2018 at 10:37:59

     Current dimensions of program PWSCF are:
     Max number of different atomic species (ntypx) = 10
     Max number of k-points (npk) =  40000
     Max angular momentum in pseudopotentials (lmaxx) =  3
     Presently stress not available with electric field

     IMPORTANT: XC functional enforced from input :
     Exchange-correlation      = BEEF-VDW ( 1  4 27 13 2)
     Any further DFT definition will be discarded
     Please, verify this is what you really want

     Subspace diagonalization in iterative solution of the eigenvalue problem:
     a serial algorithm will be used

     bravais-lattice index     =            0
     lattice parameter (alat)  =       1.8897  a.u.
     unit-cell volume          =    3875.7428 (a.u.)^3
     number of atoms/cell      =           12
     number of atomic types    =            2
     number of electrons       =       171.00
     number of Kohn-Sham states=          115
     kinetic-energy cutoff     =      36.7493  Ry
     charge density cutoff     =     367.4932  Ry
     convergence threshold     =      1.0E-06
     mixing beta               =       0.1000
     number of iterations used =           10  plain     mixing
     Exchange-correlation      = BEEF-VDW ( 1  4 27 13 2)
     nstep                     =           50

     celldm(1)=   1.889726  celldm(2)=   0.000000  celldm(3)=   0.000000
     celldm(4)=   0.000000  celldm(5)=   0.000000  celldm(6)=   0.000000

     crystal axes: (cart. coord. in units of alat)
               a(1) = (   5.227508   0.000000   0.000000 )
               a(2) = (  -2.613754   4.527155   0.000000 )
               a(3) = (   0.000000   0.000000  24.268242 )

     reciprocal axes: (cart. coord. in units 2 pi/alat)
               b(1) = (  0.191296  0.110445  0.000000 )
               b(2) = (  0.000000  0.220889  0.000000 )
               b(3) = (  0.000000  0.000000  0.041206 )

     PseudoPot. # 1 for Cr read from file:
     /afs/slac.stanford.edu/u/if/mamunm/psp/gbrv1.5pbe/Cr.UPF
     MD5 check sum: 0d52af634a40206e4dee301ad30da4bf
     Pseudo is Ultrasoft + core correction, Zval = 14.0
     Generated by new atomic code, or converted to UPF format
     Using radial grid of  857 points,  6 beta functions with:
                l(1) =   0
                l(2) =   0
                l(3) =   1
                l(4) =   1
                l(5) =   2
                l(6) =   2
     Q(r) pseudized with  8 coefficients,  rinner =    0.950   0.950   0.950
                                                       0.950   0.950

     PseudoPot. # 2 for Ir read from file:
     /afs/slac.stanford.edu/u/if/mamunm/psp/gbrv1.5pbe/Ir.UPF
     MD5 check sum: 8836f839c3459d2b385c504ce6d91f2c
     Pseudo is Ultrasoft + core correction, Zval = 15.0
     Generated by new atomic code, or converted to UPF format
     Using radial grid of  983 points,  7 beta functions with:
                l(1) =   0
                l(2) =   0
                l(3) =   1
                l(4) =   1
                l(5) =   1
                l(6) =   2
                l(7) =   2
     Q(r) pseudized with  8 coefficients,  rinner =    1.400   1.400   1.400
                                                       1.400   1.400

     vdW kernel table read from file vdW_kernel_table
     MD5 check sum: 095c7af220d748ca6e76c0b4c6cfb241

     atomic species   valence    mass     pseudopotential
        Cr1           14.00    51.99610     Cr( 1.00)
        Ir1           15.00   192.21700     Ir( 1.00)

     No symmetry found

   Cartesian axes

     site n.     atom                  positions (alat units)
         1           Cr1 tau(   1) = (   0.0000000   0.0000000  10.0000000  )
         2           Cr1 tau(   2) = (  -1.3068770   2.2635773  10.0000000  )
         3           Cr1 tau(   3) = (   1.3068770   2.2635773  10.0000000  )
         4           Ir1 tau(   4) = (   2.6137539   0.0000000  10.0000000  )
         5           Cr1 tau(   5) = (   2.6137539   1.5090515  12.1341212  )
         6           Cr1 tau(   6) = (   1.3068770   3.7726288  12.1341212  )
         7           Cr1 tau(   7) = (  -1.3068770   3.7726288  12.1341212  )
         8           Ir1 tau(   8) = (   0.0000000   1.5090515  12.1341212  )
         9           Cr1 tau(   9) = (  -0.0000000   3.0181031  14.2682423  )
        10           Cr1 tau(  10) = (   1.3068770   0.7545258  14.2682423  )
        11           Cr1 tau(  11) = (   3.9206309   0.7545258  14.2682423  )
        12           Ir1 tau(  12) = (   2.6137539   3.0181031  14.2682423  )

     number of k points=    20  Fermi-Dirac smearing, width (Ry)=  0.0110
                       cart. coord. in units 2pi/alat
        k(    1) = (   0.0000000   0.0000000   0.0000000), wk =   0.0555556
        k(    2) = (   0.0000000   0.0368149   0.0000000), wk =   0.1111111
        k(    3) = (   0.0000000   0.0736298   0.0000000), wk =   0.1111111
        k(    4) = (   0.0000000  -0.1104446   0.0000000), wk =   0.0555556
        k(    5) = (   0.0318826   0.0184074   0.0000000), wk =   0.1111111
        k(    6) = (   0.0318826   0.0552223   0.0000000), wk =   0.1111111
        k(    7) = (   0.0318826   0.0920372   0.0000000), wk =   0.1111111
        k(    8) = (   0.0318826  -0.0920372   0.0000000), wk =   0.1111111
        k(    9) = (   0.0318826  -0.0552223   0.0000000), wk =   0.1111111
        k(   10) = (   0.0318826  -0.0184074   0.0000000), wk =   0.1111111
        k(   11) = (   0.0637652   0.0368149   0.0000000), wk =   0.1111111
        k(   12) = (   0.0637652   0.0736298   0.0000000), wk =   0.1111111
        k(   13) = (   0.0637652   0.1104446   0.0000000), wk =   0.1111111
        k(   14) = (   0.0637652  -0.0736298   0.0000000), wk =   0.1111111
        k(   15) = (   0.0637652  -0.0368149   0.0000000), wk =   0.1111111
        k(   16) = (   0.0637652   0.0000000   0.0000000), wk =   0.1111111
        k(   17) = (  -0.0956479  -0.0552223   0.0000000), wk =   0.0555556
        k(   18) = (  -0.0956479  -0.0184074   0.0000000), wk =   0.1111111
        k(   19) = (  -0.0956479   0.0184074   0.0000000), wk =   0.1111111
        k(   20) = (  -0.0956479  -0.1656670   0.0000000), wk =   0.0555556

     Largest allocated arrays     est. size (Mb)     dimensions
     Largest temporary arrays     est. size (Mb)     dimensions

     Check: negative/imaginary core charge=   -0.000003    0.000000

     Initial potential from superposition of free atoms
     Check: negative starting charge=   -1.096108

     starting charge  160.49977, renormalised to  171.00000

     negative rho (up, down):  1.168E+00 0.000E+00

     *
     * You are using vdW-DF for exchange-correlation in this calculation.
     * Please cite the following three references that made this development
     * possible:
     *
     *   M. Dion, H. Rydberg, E. Schroder, D. C. Langreth, and
     *   B. I. Lundqvist, Phys. Rev. Lett. 92, 246401 (2004).
     *
     *   T. Thonhauser, V. R. Cooper, S. Li, A. Puzder, P. Hyldgaard, and
     *   D. C. Langreth, Phys. Rev. B 76, 125112 (2007).
     *
     *   G. Roman-Perez and J. M. Soler, Phys. Rev. Lett. 103, 096102 (2009).
     *
     *
     * If you are using vdW-DF2, please also cite:
     *
     *   K. Lee, E. D. Murray, L. Kong, B. I. Lundqvist, and
     *   D. C. Langreth, Phys. Rev. B 82, 081101(R) (2010).
     *
     *
     * If you are calculating the stress with vdW-DF, please also cite:
     *
     *   R. Sabatini, E. Kucukbenli, B. Kolb, T. Thonhauser, and
     *   S. de Gironcoli, J. Phys.: Condens. Matter 24, 424209 (2012).
     *

     Carrying out vdW-DF run using the following parameters:

     Nqs =      20    Nr_points =    1024   r_max =   100.000
     q_mesh =
               0.00001000     0.04494208     0.09755937     0.15916263
               0.23128650     0.31572767     0.41458969     0.53033537
               0.66584808     0.82450364     1.01025438     1.22772762
               1.48234092     1.78043706     2.12944203     2.53805004
               3.01644009     3.57652955     4.23227104     5.00000000

     Gradients computed in reciprocal space

     Adding external electric field

     Computed dipole along edir(3) :
        Dipole                0.0000 Ry au,          0.0000 Debye
        Dipole field          0.0000 Ry au

        Potential amp.       -0.0000 Ry
        Total length         44.7138 bohr

     Starting wfc are  126 randomized atomic wfcs

     Self-consistent Calculation

     iteration #  1     ecut=    36.75 Ry     beta=0.10
     Davidson diagonalization with overlap
     ethr =  1.00E-02,  avg # of iterations =  6.5

[...]

     total energy              =   -2138.25347192 Ry
     Harris-Foulkes estimate   =   -2142.91681464 Ry
     estimated scf accuracy    <      28.54428949 Ry

[...]

     End of self-consistent calculation

          k = 0.0000 0.0000 0.0000 ( 14609 PWs)   bands (ev):

   -70.2768 -70.2015 -70.2014 -70.1852 -70.1739 -70.1189 -70.1188 -70.1160
   -70.1159 -47.9615 -47.9386 -47.9386 -47.5711 -47.5711 -47.5691 -47.5691
   -47.5434 -47.5360 -41.8280 -41.7241 -41.6984 -41.6984 -41.6270 -41.6270
   -41.6232 -41.6124 -41.5719 -41.5363 -41.5363 -41.5217 -41.5217 -41.5025
   -41.5025 -41.4435 -41.3954 -41.3954 -41.3555 -41.3240 -41.2991 -41.2846
   -41.2845 -41.1507 -41.1506 -41.1479 -41.1478  -6.1003  -4.3395  -3.6294
    -3.6293  -3.5836  -3.2534  -3.2534  -2.7537  -2.6648  -2.6648  -2.6372
    -2.6372  -2.5640  -2.0396  -1.7175  -1.7175  -1.4647  -1.0385  -0.9578
    -0.9578  -0.2711  -0.0049   0.2680   0.6497   0.6497   0.7538   0.8027
     0.8027   0.8628   0.8628   1.0089   1.0090   1.0614   1.1378   1.1378
     1.2111   1.7397   1.8828   1.8828   1.9231   1.9231   2.0357   2.2125
     2.2581   2.2581   2.6878   2.6878   2.8802   3.0536   3.0536   3.2168
     3.2169   3.2275   3.3277   3.3277   3.3729   3.4019   3.4019   3.6731
     3.6839   3.6839   3.8598   3.9036   3.9140   3.9140   3.9623   3.9623
     5.5608   5.5609   5.6393

[...]

          k =-0.0956-0.0552 0.0000 ( 14502 PWs)   bands (ev):

[...]

     the Fermi energy is     1.5584 ev

!    total energy              =   -2136.28287972 Ry
     Harris-Foulkes estimate   =   -2136.28288493 Ry
     estimated scf accuracy    <       0.00000055 Ry

     The total energy is the sum of the following terms:

     one-electron contribution =  -19076.14796548 Ry
     hartree contribution      =    9538.45298053 Ry
     xc contribution           =    -365.16830761 Ry
     ewald contribution        =    7766.68948223 Ry
     electric field correction =       0.00000000 Ry
     smearing contrib. (-TS)   =      -0.10906939 Ry

     convergence has been achieved in  26 iterations

 BEEF-vdW xc energy contributions
           1 :   -319.345638984643
           2 :    291.694389400543
           3 :   -244.379605071810
           4 :    189.848097766594
           5 :   -140.022718249992
           6 :    102.312853961420
           7 :   -78.2140817369697
           8 :    64.5888455991239
           9 :   -56.4617763039890
          10 :    49.7025099130012
          11 :   -42.4233856430767
          12 :    34.8302106725328
[...]
     MD5 check sum: 0d52af634a40206e4dee301ad30da4bf
     Pseudo is Ultrasoft + core correction, Zval = 14.0
     Generated by new atomic code, or converted to UPF format
     Using radial grid of  857 points,  6 beta functions with:
                l(1) =   0
                l(2) =   0
                l(3) =   1
                l(4) =   1
                l(5) =   2
                l(6) =   2
     Q(r) pseudized with  8 coefficients,  rinner =    0.950   0.950   0.950
                                                       0.950   0.950

     PseudoPot. # 2 for Ir read from file:
     /afs/slac.stanford.edu/u/if/mamunm/psp/gbrv1.5pbe/Ir.UPF
     MD5 check sum: 8836f839c3459d2b385c504ce6d91f2c
     Pseudo is Ultrasoft + core correction, Zval = 15.0
     Generated by new atomic code, or converted to UPF format
     Using radial grid of  983 points,  7 beta functions with:
                l(1) =   0
                l(2) =   0
                l(3) =   1
                l(4) =   1
                l(5) =   1
                l(6) =   2
                l(7) =   2
     Q(r) pseudized with  8 coefficients,  rinner =    1.400   1.400   1.400
                                                       1.400   1.400

     vdW kernel table read from file vdW_kernel_table
     MD5 check sum: 095c7af220d748ca6e76c0b4c6cfb241

     atomic species   valence    mass     pseudopotential
        Cr1           14.00    51.99610     Cr( 1.00)
        Ir1           15.00   192.21700     Ir( 1.00)

     No symmetry found

   Cartesian axes

     site n.     atom                  positions (alat units)
         1           Cr1 tau(   1) = (   0.0000000   0.0000000  10.0000000  )
         2           Cr1 tau(   2) = (  -1.3068770   2.2635773  10.0000000  )
         3           Cr1 tau(   3) = (   1.3068770   2.2635773  10.0000000  )
         4           Ir1 tau(   4) = (   2.6137539   0.0000000  10.0000000  )
         5           Cr1 tau(   5) = (   2.6137539   1.5090515  12.1341212  )
         6           Cr1 tau(   6) = (   1.3068770   3.7726288  12.1341212  )
         7           Cr1 tau(   7) = (  -1.3068770   3.7726288  12.1341212  )
         8           Ir1 tau(   8) = (   0.0000000   1.5090515  12.1341212  )
         9           Cr1 tau(   9) = (  -0.0000103   3.0459595  14.1500309  )
        10           Cr1 tau(  10) = (   1.3309660   0.7406099  14.1500043  )
        11           Cr1 tau(  11) = (   3.8965157   0.7406084  14.1500049  )
        12           Ir1 tau(  12) = (   2.6137582   3.0181031  14.2458473  )

     number of k points=    20  Fermi-Dirac smearing, width (Ry)=  0.0110
                       cart. coord. in units 2pi/alat
        k(    1) = (   0.0000000   0.0000000   0.0000000), wk =   0.0555556
        k(    2) = (   0.0000000   0.0368149   0.0000000), wk =   0.1111111
        k(    3) = (   0.0000000   0.0736298   0.0000000), wk =   0.1111111
        k(    4) = (   0.0000000  -0.1104446   0.0000000), wk =   0.0555556
        k(    5) = (   0.0318826   0.0184074   0.0000000), wk =   0.1111111
        k(    6) = (   0.0318826   0.0552223   0.0000000), wk =   0.1111111
        k(    7) = (   0.0318826   0.0920372   0.0000000), wk =   0.1111111
        k(    8) = (   0.0318826  -0.0920372   0.0000000), wk =   0.1111111
        k(    9) = (   0.0318826  -0.0552223   0.0000000), wk =   0.1111111
        k(   10) = (   0.0318826  -0.0184074   0.0000000), wk =   0.1111111
        k(   11) = (   0.0637652   0.0368149   0.0000000), wk =   0.1111111
        k(   12) = (   0.0637652   0.0736298   0.0000000), wk =   0.1111111
        k(   13) = (   0.0637652   0.1104446   0.0000000), wk =   0.1111111
        k(   14) = (   0.0637652  -0.0736298   0.0000000), wk =   0.1111111
        k(   15) = (   0.0637652  -0.0368149   0.0000000), wk =   0.1111111
        k(   16) = (   0.0637652   0.0000000   0.0000000), wk =   0.1111111
        k(   17) = (  -0.0956479  -0.0552223   0.0000000), wk =   0.0555556
        k(   18) = (  -0.0956479  -0.0184074   0.0000000), wk =   0.1111111
        k(   19) = (  -0.0956479   0.0184074   0.0000000), wk =   0.1111111
        k(   20) = (  -0.0956479  -0.1656670   0.0000000), wk =   0.0555556

     Largest allocated arrays     est. size (Mb)     dimensions
     Largest temporary arrays     est. size (Mb)     dimensions

     Check: negative/imaginary core charge=   -0.000003    0.000000

     Initial potential from superposition of free atoms
     Check: negative starting charge=   -1.096519

     starting charge  160.49977, renormalised to  171.00000

[...]

     *
     * You are using vdW-DF for exchange-correlation in this calculation.
     * Please cite the following three references that made this development
     * possible:
     *
     *   M. Dion, H. Rydberg, E. Schroder, D. C. Langreth, and
     *   B. I. Lundqvist, Phys. Rev. Lett. 92, 246401 (2004).
     *
     *   T. Thonhauser, V. R. Cooper, S. Li, A. Puzder, P. Hyldgaard, and
     *   D. C. Langreth, Phys. Rev. B 76, 125112 (2007).
     *
     *   G. Roman-Perez and J. M. Soler, Phys. Rev. Lett. 103, 096102 (2009).
     *
     *
     * If you are using vdW-DF2, please also cite:
     *
     *   K. Lee, E. D. Murray, L. Kong, B. I. Lundqvist, and
     *   D. C. Langreth, Phys. Rev. B 82, 081101(R) (2010).
     *
     *
     * If you are calculating the stress with vdW-DF, please also cite:
     *
     *   R. Sabatini, E. Kucukbenli, B. Kolb, T. Thonhauser, and
     *   S. de Gironcoli, J. Phys.: Condens. Matter 24, 424209 (2012).
     *

     Carrying out vdW-DF run using the following parameters:

     Nqs =      20    Nr_points =    1024   r_max =   100.000
     q_mesh =
               0.00001000     0.04494208     0.09755937     0.15916263
               0.23128650     0.31572767     0.41458969     0.53033537
               0.66584808     0.82450364     1.01025438     1.22772762
               1.48234092     1.78043706     2.12944203     2.53805004
               3.01644009     3.57652955     4.23227104     5.00000000

     Gradients computed in reciprocal space

[...]

     Starting wfc are  126 randomized atomic wfcs

     Self-consistent Calculation

[...]

     total energy              =   -2136.29234081 Ry
     Harris-Foulkes estimate   =   -2136.29234193 Ry
     estimated scf accuracy    <       0.00000140 Ry

     iteration # 25     ecut=    36.75 Ry     beta=0.10
     Davidson diagonalization with overlap
     ethr =  8.18E-10,  avg # of iterations =  2.0

[...]

     negative rho (up, down):  9.608E-01 0.000E+00

     Adding external electric field

     Computed dipole along edir(3) :
        Dipole                0.0066 Ry au,          0.0168 Debye
        Dipole field          0.0000 Ry au

        Potential amp.       -0.0019 Ry
        Total length         44.7138 bohr

     End of self-consistent calculation

[...]

          k = 0.0638 0.0000 0.0000 ( 14587 PWs)   bands (ev):

[...]

          k =-0.0956-0.1657 0.0000 ( 14502 PWs)   bands (ev):

   -70.2399 -70.2185 -70.1873 -70.1780 -70.1619 -70.1405 -70.0998 -70.0801
   -70.0598 -48.0138 -47.9838 -47.9773 -47.5737 -47.5670 -47.5476 -47.5452
   -47.5382 -47.5119 -41.7614 -41.6990 -41.6882 -41.6459 -41.6334 -41.6154
   -41.5802 -41.5774 -41.5643 -41.5457 -41.5378 -41.4743 -41.4718 -41.4451
   -41.4305 -41.4210 -41.4042 -41.4020 -41.3663 -41.3573 -41.3184 -41.2925
   -41.2720 -41.2404 -41.2331 -41.1881 -41.1225  -4.6242  -4.0740  -3.3062
    -3.0854  -2.9749  -2.7421  -2.4740  -2.4220  -2.3121  -2.1361  -1.9679
    -1.8231  -1.8150  -1.7348  -1.4933  -1.3416  -1.3289  -1.1686  -1.0610
    -0.7331  -0.6885  -0.6197  -0.3207  -0.2700  -0.2067   0.1291   0.3118
     0.4446   0.4825   0.5667   0.6550   0.6979   0.7340   0.7839   0.8254
     0.9136   0.9486   1.0716   1.0945   1.1645   1.4989   1.5924   1.6911
     1.8575   1.9098   2.0044   2.0474   2.1405   2.2431   2.3617   2.4097
     2.4098   2.4601   2.5388   2.6562   2.6685   2.7344   2.8916   3.1301
     3.2144   3.4844   3.5343   3.6947   3.7314   4.3586   4.3796   5.2955
     5.5310   5.8427   6.0214

     the Fermi energy is     1.5543 ev

!    total energy              =   -2136.29233372 Ry
     Harris-Foulkes estimate   =   -2136.29234084 Ry
     estimated scf accuracy    <       0.00000034 Ry

     The total energy is the sum of the following terms:

     one-electron contribution =  -19325.25707624 Ry
     hartree contribution      =    9663.05425729 Ry
     xc contribution           =    -365.36046662 Ry
     ewald contribution        =    7891.37532301 Ry
     electric field correction =       0.00000014 Ry
     smearing contrib. (-TS)   =      -0.10437130 Ry

     convergence has been achieved in  25 iterations

 BEEF-vdW xc energy contributions
           1 :   -319.542474712371
           2 :    291.958141309541
           3 :   -244.719348871111
           4 :    190.198696881999
           5 :   -140.283414984639
           6 :    102.414796052641
           7 :   -78.1691088107852
           8 :    64.4851173614054
           9 :   -56.4091011238658
          10 :    49.7649377814855
          11 :   -42.5839649359093
          12 :    35.0089883497807
          13 :   -28.2009890876228
          14 :    23.1175067355368
          15 :   -19.8650627012329
          16 :    17.8258009485961
          17 :   -16.2588546325946
          18 :    14.8446924125357
          19 :   -13.7867764973241
          20 :    13.4568653277069
          21 :   -13.9121606829467
          22 :    14.6821331771469
          23 :   -14.9994785379774
          24 :    14.3046568258995
          25 :   -12.6545541857503
          26 :    10.7368195080812
          27 :   -9.47018220656184
          28 :    9.44564708791535
          29 :   -10.5618670237898
          30 :    12.0771729636138
          31 :   -29.6969816694173
          32 :   -21.7231223531899

     Forces acting on atoms (Ry/au):

     negative rho (up, down):  9.608E-01 0.000E+00
     atom    1 type  1   force =     0.00000080   -0.00407998    0.02207651
     atom    2 type  1   force =    -0.00353720    0.00204203    0.02206538
     atom    3 type  1   force =     0.00353456    0.00203986    0.02207236
     atom    4 type  2   force =    -0.00000412    0.00000486   -0.00301597
     atom    5 type  1   force =    -0.00000123    0.00039314   -0.01139638
     atom    6 type  1   force =     0.00033889   -0.00019737   -0.01139806
     atom    7 type  1   force =    -0.00033806   -0.00019540   -0.01139534
     atom    8 type  2   force =     0.00000200    0.00000093   -0.02800387
     atom    9 type  1   force =     0.00000371   -0.00042179   -0.00056834
     atom   10 type  1   force =    -0.00035491    0.00020940   -0.00055374
     atom   11 type  1   force =     0.00035926    0.00020766   -0.00056308
     atom   12 type  2   force =    -0.00000369   -0.00000334    0.00068054

     Total force =     0.051930     Total SCF correction =     0.001698

     entering subroutine stress ...

     negative rho (up, down):  9.608E-01 0.000E+00
          total   stress  (Ry/bohr**3)                   (kbar)     P=  -22.82
  -0.00019073  -0.00000002  -0.00000001        -28.06     -0.00     -0.00
  -0.00000002  -0.00019074   0.00000001         -0.00    -28.06      0.00
  -0.00000001   0.00000001  -0.00008400         -0.00      0.00    -12.36

 !ASE

     Writing output data file calc.save

     General routines

     Parallel routines

   This run was terminated on:  12:33:50  25Dec2018

   JOB DONE.
Job  /afs/slac/g/suncat/bin/suncat-tsmpirun -x LD_LIBRARY_PATH -wdir /scratch/qe109511_OWQz9 pw.x -in pw.inp

TID   HOST_NAME   COMMAND_LINE            STATUS            TERMINATION_TIME
00000 suncat0073 pw.x -in pw.inp   Done                     12/25/2018 12:33:50
00001 suncat0073 pw.x -in pw.inp   Done                     12/25/2018 12:33:50
00002 suncat0073 pw.x -in pw.inp   Done                     12/25/2018 12:33:50
00003 suncat0073 pw.x -in pw.inp   Done                     12/25/2018 12:33:50
00004 suncat0073 pw.x -in pw.inp   Done                     12/25/2018 12:33:50
00005 suncat0073 pw.x -in pw.inp   Done                     12/25/2018 12:33:50
00006 suncat0073 pw.x -in pw.inp   Done                     12/25/2018 12:33:50
00007 suncat0073 pw.x -in pw.inp   Done                     12/25/2018 12:33:50
00008 suncat0072 pw.x -in pw.inp   Done                     12/25/2018 12:33:50
00009 suncat0072 pw.x -in pw.inp   Done                     12/25/2018 12:33:50
00010 suncat0072 pw.x -in pw.inp   Done                     12/25/2018 12:33:50
00011 suncat0072 pw.x -in pw.inp   Done                     12/25/2018 12:33:50
00012 suncat0072 pw.x -in pw.inp   Done                     12/25/2018 12:33:50
00013 suncat0072 pw.x -in pw.inp   Done                     12/25/2018 12:33:50
00014 suncat0072 pw.x -in pw.inp   Done                     12/25/2018 12:33:50
00015 suncat0072 pw.x -in pw.inp   Done                     12/25/2018 12:33:50
00016 suncat0008 pw.x -in pw.inp   Done                     12/25/2018 12:33:50
00017 suncat0008 pw.x -in pw.inp   Done                     12/25/2018 12:33:50
00018 suncat0008 pw.x -in pw.inp   Done                     12/25/2018 12:33:50
00019 suncat0008 pw.x -in pw.inp   Done                     12/25/2018 12:33:50
00020 suncat0008 pw.x -in pw.inp   Done                     12/25/2018 12:33:50
00021 suncat0008 pw.x -in pw.inp   Done                     12/25/2018 12:33:50
00022 suncat0008 pw.x -in pw.inp   Done                     12/25/2018 12:33:50
00023 suncat0008 pw.x -in pw.inp   Done                     12/25/2018 12:33:50
00024 suncat0184 pw.x -in pw.inp   Done                     12/25/2018 12:33:50
00025 suncat0184 pw.x -in pw.inp   Done                     12/25/2018 12:33:50
00026 suncat0184 pw.x -in pw.inp   Done                     12/25/2018 12:33:50
00027 suncat0184 pw.x -in pw.inp   Done                     12/25/2018 12:33:50
00028 suncat0184 pw.x -in pw.inp   Done                     12/25/2018 12:33:50
00029 suncat0184 pw.x -in pw.inp   Done                     12/25/2018 12:33:50
00030 suncat0184 pw.x -in pw.inp   Done                     12/25/2018 12:33:50
00031 suncat0184 pw.x -in pw.inp   Done                     12/25/2018 12:33:50
00032 suncat0256 pw.x -in pw.inp   Done                     12/25/2018 12:33:50
00033 suncat0256 pw.x -in pw.inp   Done                     12/25/2018 12:33:50
00034 suncat0256 pw.x -in pw.inp   Done                     12/25/2018 12:33:50
00035 suncat0256 pw.x -in pw.inp   Done                     12/25/2018 12:33:50
00036 suncat0256 pw.x -in pw.inp   Done                     12/25/2018 12:33:50
00037 suncat0256 pw.x -in pw.inp   Done                     12/25/2018 12:33:50
00038 suncat0256 pw.x -in pw.inp   Done                     12/25/2018 12:33:50
00039 suncat0256 pw.x -in pw.inp   Done                     12/25/2018 12:33:50
00040 suncat0255 pw.x -in pw.inp   Done                     12/25/2018 12:33:50
00041 suncat0255 pw.x -in pw.inp   Done                     12/25/2018 12:33:50
00042 suncat0255 pw.x -in pw.inp   Done                     12/25/2018 12:33:50
00043 suncat0255 pw.x -in pw.inp   Done                     12/25/2018 12:33:50
00044 suncat0255 pw.x -in pw.inp   Done                     12/25/2018 12:33:50
00045 suncat0255 pw.x -in pw.inp   Done                     12/25/2018 12:33:50
00046 suncat0255 pw.x -in pw.inp   Done                     12/25/2018 12:33:50
00047 suncat0255 pw.x -in pw.inp   Done                     12/25/2018 12:33:50
00048 suncat0222 pw.x -in pw.inp   Done                     12/25/2018 12:33:50
00049 suncat0222 pw.x -in pw.inp   Done                     12/25/2018 12:33:50
00050 suncat0222 pw.x -in pw.inp   Done                     12/25/2018 12:33:50
00051 suncat0222 pw.x -in pw.inp   Done                     12/25/2018 12:33:50
00052 suncat0222 pw.x -in pw.inp   Done                     12/25/2018 12:33:50
00053 suncat0222 pw.x -in pw.inp   Done                     12/25/2018 12:33:50
00054 suncat0222 pw.x -in pw.inp   Done                     12/25/2018 12:33:50
00055 suncat0222 pw.x -in pw.inp   Done                     12/25/2018 12:33:50
00056 suncat0221 pw.x -in pw.inp   Done                     12/25/2018 12:33:50
00057 suncat0221 pw.x -in pw.inp   Done                     12/25/2018 12:33:50
00058 suncat0221 pw.x -in pw.inp   Done                     12/25/2018 12:33:50
00059 suncat0221 pw.x -in pw.inp   Done                     12/25/2018 12:33:50
00060 suncat0221 pw.x -in pw.inp   Done                     12/25/2018 12:33:50
00061 suncat0221 pw.x -in pw.inp   Done                     12/25/2018 12:33:50
00062 suncat0221 pw.x -in pw.inp   Done                     12/25/2018 12:33:50
00063 suncat0221 pw.x -in pw.inp   Done                     12/25/2018 12:33:50