     Program PWSCF v.5.1rc2 (svn rev. 11289) starts on  1Jan2019 at 14:38:26

     Current dimensions of program PWSCF are:
     Max number of different atomic species (ntypx) = 10
     Max number of k-points (npk) =  40000
     Max angular momentum in pseudopotentials (lmaxx) =  3
     Presently stress not available with electric field

     IMPORTANT: XC functional enforced from input :
     Exchange-correlation      = BEEF-VDW ( 1  4 27 13 2)
     Any further DFT definition will be discarded
     Please, verify this is what you really want

     Subspace diagonalization in iterative solution of the eigenvalue problem:
     a serial algorithm will be used

     bravais-lattice index     =            0
     lattice parameter (alat)  =       1.8897  a.u.
     unit-cell volume          =    5881.8662 (a.u.)^3
     number of atoms/cell      =           12
     number of atomic types    =            2
     number of electrons       =       174.00
     number of Kohn-Sham states=          117
     kinetic-energy cutoff     =      36.7493  Ry
     charge density cutoff     =     367.4932  Ry
     convergence threshold     =      1.0E-06
     mixing beta               =       0.1000
     number of iterations used =           10  plain     mixing
     Exchange-correlation      = BEEF-VDW ( 1  4 27 13 2)
     nstep                     =           50

     celldm(1)=   1.889726  celldm(2)=   0.000000  celldm(3)=   0.000000
     celldm(4)=   0.000000  celldm(5)=   0.000000  celldm(6)=   0.000000

     crystal axes: (cart. coord. in units of alat)
               a(1) = (   6.324216   0.000000   0.000000 )
               a(2) = (  -3.162108   5.476932   0.000000 )
               a(3) = (   0.000000   0.000000  25.163701 )

     reciprocal axes: (cart. coord. in units 2 pi/alat)
               b(1) = (  0.158122  0.091292  0.000000 )
               b(2) = (  0.000000  0.182584  0.000000 )
               b(3) = (  0.000000  0.000000  0.039740 )

     PseudoPot. # 1 for Sn read from file:
     /afs/slac.stanford.edu/u/if/mamunm/psp/gbrv1.5pbe/Sn.UPF
     MD5 check sum: 469debedee59599fedebd795477fea03
     Pseudo is Ultrasoft + core correction, Zval = 14.0
     Generated by new atomic code, or converted to UPF format
     Using radial grid of  891 points,  6 beta functions with:
                l(1) =   0
                l(2) =   0
                l(3) =   1
                l(4) =   1
                l(5) =   2
                l(6) =   2
     Q(r) pseudized with  8 coefficients,  rinner =    1.350   1.350   1.350
                                                       1.350   1.350

     PseudoPot. # 2 for Ru read from file:
     /afs/slac.stanford.edu/u/if/mamunm/psp/gbrv1.5pbe/Ru.UPF
     MD5 check sum: 7158a806dd851261a58e6920c40ebe78
     Pseudo is Ultrasoft + core correction, Zval = 16.0
     Generated by new atomic code, or converted to UPF format
     Using radial grid of  967 points,  6 beta functions with:
                l(1) =   0
                l(2) =   0
                l(3) =   1
                l(4) =   1
                l(5) =   2
                l(6) =   2
     Q(r) pseudized with  8 coefficients,  rinner =    1.300   1.300   1.300
                                                       1.300   1.300

     vdW kernel table read from file vdW_kernel_table
     MD5 check sum: 095c7af220d748ca6e76c0b4c6cfb241

     atomic species   valence    mass     pseudopotential
        Sn1           14.00   118.71000     Sn( 1.00)
        Ru1           16.00   101.07000     Ru( 1.00)

     No symmetry found

   Cartesian axes

     site n.     atom                  positions (alat units)
         1           Sn1 tau(   1) = (   0.0000000   0.0000000  10.0000000  )
         2           Sn1 tau(   2) = (  -1.5810540   2.7384659  10.0000000  )
         3           Sn1 tau(   3) = (   1.5810540   2.7384659  10.0000000  )
         4           Ru1 tau(   4) = (   3.1621080   0.0000000  10.0000000  )
         5           Sn1 tau(   5) = (   3.1621080   1.8256439  12.5818504  )
         6           Sn1 tau(   6) = (   1.5810540   4.5641098  12.5818504  )
         7           Sn1 tau(   7) = (  -1.5810540   4.5641098  12.5818504  )
         8           Ru1 tau(   8) = (   0.0000000   1.8256439  12.5818504  )
         9           Sn1 tau(   9) = (  -0.0000000   3.6512878  15.1637008  )
        10           Sn1 tau(  10) = (   1.5810540   0.9128220  15.1637008  )
        11           Sn1 tau(  11) = (   4.7431620   0.9128220  15.1637008  )
        12           Ru1 tau(  12) = (   3.1621080   3.6512878  15.1637008  )

     number of k points=    20  Fermi-Dirac smearing, width (Ry)=  0.0110
                       cart. coord. in units 2pi/alat
        k(    1) = (   0.0000000   0.0000000   0.0000000), wk =   0.0555556
        k(    2) = (   0.0000000   0.0304307   0.0000000), wk =   0.1111111
        k(    3) = (   0.0000000   0.0608613   0.0000000), wk =   0.1111111
        k(    4) = (   0.0000000  -0.0912920   0.0000000), wk =   0.0555556
        k(    5) = (   0.0263537   0.0152153   0.0000000), wk =   0.1111111
        k(    6) = (   0.0263537   0.0456460   0.0000000), wk =   0.1111111
        k(    7) = (   0.0263537   0.0760767   0.0000000), wk =   0.1111111
        k(    8) = (   0.0263537  -0.0760767   0.0000000), wk =   0.1111111
        k(    9) = (   0.0263537  -0.0456460   0.0000000), wk =   0.1111111
        k(   10) = (   0.0263537  -0.0152153   0.0000000), wk =   0.1111111
        k(   11) = (   0.0527075   0.0304307   0.0000000), wk =   0.1111111
        k(   12) = (   0.0527075   0.0608613   0.0000000), wk =   0.1111111
        k(   13) = (   0.0527075   0.0912920   0.0000000), wk =   0.1111111
        k(   14) = (   0.0527075  -0.0608613   0.0000000), wk =   0.1111111
        k(   15) = (   0.0527075  -0.0304307   0.0000000), wk =   0.1111111
        k(   16) = (   0.0527075   0.0000000   0.0000000), wk =   0.1111111
        k(   17) = (  -0.0790612  -0.0456460   0.0000000), wk =   0.0555556
        k(   18) = (  -0.0790612  -0.0152153   0.0000000), wk =   0.1111111
        k(   19) = (  -0.0790612   0.0152153   0.0000000), wk =   0.1111111
        k(   20) = (  -0.0790612  -0.1369380   0.0000000), wk =   0.0555556

     Largest allocated arrays     est. size (Mb)     dimensions
     Largest temporary arrays     est. size (Mb)     dimensions

     Initial potential from superposition of free atoms
     Check: negative starting charge=   -0.221466

     starting charge  161.99955, renormalised to  174.00000

     negative rho (up, down):  2.379E-01 0.000E+00

     *
     * You are using vdW-DF for exchange-correlation in this calculation.
     * Please cite the following three references that made this development
     * possible:
     *
     *   M. Dion, H. Rydberg, E. Schroder, D. C. Langreth, and
     *   B. I. Lundqvist, Phys. Rev. Lett. 92, 246401 (2004).
     *
     *   T. Thonhauser, V. R. Cooper, S. Li, A. Puzder, P. Hyldgaard, and
     *   D. C. Langreth, Phys. Rev. B 76, 125112 (2007).
     *
     *   G. Roman-Perez and J. M. Soler, Phys. Rev. Lett. 103, 096102 (2009).
     *
     *
     * If you are using vdW-DF2, please also cite:
     *
     *   K. Lee, E. D. Murray, L. Kong, B. I. Lundqvist, and
     *   D. C. Langreth, Phys. Rev. B 82, 081101(R) (2010).
     *
     *
     * If you are calculating the stress with vdW-DF, please also cite:
     *
     *   R. Sabatini, E. Kucukbenli, B. Kolb, T. Thonhauser, and
     *   S. de Gironcoli, J. Phys.: Condens. Matter 24, 424209 (2012).
     *

     Carrying out vdW-DF run using the following parameters:

     Nqs =      20    Nr_points =    1024   r_max =   100.000
     q_mesh =
               0.00001000     0.04494208     0.09755937     0.15916263
               0.23128650     0.31572767     0.41458969     0.53033537
               0.66584808     0.82450364     1.01025438     1.22772762
               1.48234092     1.78043706     2.12944203     2.53805004
               3.01644009     3.57652955     4.23227104     5.00000000

     Gradients computed in reciprocal space

     Adding external electric field

     Computed dipole along edir(3) :
        Dipole               -0.0000 Ry au,         -0.0000 Debye
        Dipole field         -0.0000 Ry au

        Potential amp.        0.0000 Ry
        Total length         46.3637 bohr

     Starting wfc are  120 randomized atomic wfcs

     Self-consistent Calculation

     iteration #  1     ecut=    36.75 Ry     beta=0.10
     Davidson diagonalization with overlap
     ethr =  1.00E-02,  avg # of iterations =  8.1

[...]

     total energy              =   -2031.43677686 Ry
     Harris-Foulkes estimate   =   -2037.16949724 Ry
     estimated scf accuracy    <      33.49552491 Ry

[...]

     End of self-consistent calculation

          k = 0.0000 0.0000 0.0000 ( 22135 PWs)   bands (ev):

   -70.8483 -70.6389 -70.6388 -40.8562 -40.8562 -40.8120 -40.6892 -40.6892
   -40.6891 -40.6891 -40.5593 -40.5592 -21.0199 -20.9883 -20.9883 -20.9668
   -20.9207 -20.9129 -20.8857 -20.8857 -20.8743 -20.8743 -20.8670 -20.8670
   -20.8360 -20.8319 -20.8310 -20.8104 -20.8104 -20.7807 -20.7807 -20.7755
   -20.7602 -20.7602 -20.7458 -20.7458 -20.7421 -20.7242 -20.7125 -20.7125
   -20.7046 -20.7046 -20.6902 -20.6776 -20.6776 -20.6702 -20.6702 -20.6647
   -20.6569 -20.6569 -20.6539 -20.6539 -20.6278 -20.6274 -20.6274 -20.5713
   -20.5710  -9.7991  -8.4413  -6.6684  -5.6649  -5.6649  -4.9161  -4.9161
    -3.9010  -3.9010  -3.6943  -2.9437  -2.4187  -2.1335  -2.1335  -1.8764
    -0.7804  -0.7804  -0.7420  -0.7420  -0.4111   0.1369   0.1369   0.2095
     0.2095   0.3889   0.5037   0.5037   0.7042   0.8809   0.8809   0.8879
     0.8879   1.2276   1.2460   1.2460   2.2018   2.4113   3.1287   3.5829
     3.5829   3.6245   3.6245   4.4108   4.5483   4.6847   4.8385   5.2019
     5.7917   5.7917   5.9035   5.9883   6.1945   6.6527   6.6527   6.9137
     7.3721   7.5745   7.5746   8.0109   8.0421

[...]

          k =-0.0791-0.0456 0.0000 ( 22040 PWs)   bands (ev):

[...]

     the Fermi energy is     1.0954 ev

!    total energy              =   -2031.32006125 Ry
     Harris-Foulkes estimate   =   -2031.32150856 Ry
     estimated scf accuracy    <       0.00000014 Ry

     The total energy is the sum of the following terms:

     one-electron contribution =  -12717.15057612 Ry
     hartree contribution      =    6407.45529739 Ry
     xc contribution           =    -481.21480985 Ry
     ewald contribution        =    4759.65943103 Ry
     electric field correction =       0.00000000 Ry
     smearing contrib. (-TS)   =      -0.06940370 Ry

     convergence has been achieved in  22 iterations

 BEEF-vdW xc energy contributions
           1 :   -421.939430939454
           2 :    386.437525903835
           3 :   -326.071315380502
           4 :    257.445781274898
           5 :   -196.452870235359
           6 :    152.714627540694
           7 :   -127.401919052262
           8 :    114.922941450996
           9 :   -107.174679121751
          10 :    97.9689032462068
          11 :   -85.4783946640413
          12 :    71.8527016739956
          13 :   -60.7706745195526
          14 :    54.6647748140439
[...]
     Generated by new atomic code, or converted to UPF format
     Using radial grid of  891 points,  6 beta functions with:
                l(1) =   0
                l(2) =   0
                l(3) =   1
                l(4) =   1
                l(5) =   2
                l(6) =   2
     Q(r) pseudized with  8 coefficients,  rinner =    1.350   1.350   1.350
                                                       1.350   1.350

     PseudoPot. # 2 for Ru read from file:
     /afs/slac.stanford.edu/u/if/mamunm/psp/gbrv1.5pbe/Ru.UPF
     MD5 check sum: 7158a806dd851261a58e6920c40ebe78
     Pseudo is Ultrasoft + core correction, Zval = 16.0
     Generated by new atomic code, or converted to UPF format
     Using radial grid of  967 points,  6 beta functions with:
                l(1) =   0
                l(2) =   0
                l(3) =   1
                l(4) =   1
                l(5) =   2
                l(6) =   2
     Q(r) pseudized with  8 coefficients,  rinner =    1.300   1.300   1.300
                                                       1.300   1.300

     vdW kernel table read from file vdW_kernel_table
     MD5 check sum: 095c7af220d748ca6e76c0b4c6cfb241

     atomic species   valence    mass     pseudopotential
        Sn1           14.00   118.71000     Sn( 1.00)
        Ru1           16.00   101.07000     Ru( 1.00)

     No symmetry found

   Cartesian axes

     site n.     atom                  positions (alat units)
         1           Sn1 tau(   1) = (   0.0000000   0.0000000  10.0000000  )
         2           Sn1 tau(   2) = (  -1.5810540   2.7384659  10.0000000  )
         3           Sn1 tau(   3) = (   1.5810540   2.7384659  10.0000000  )
         4           Ru1 tau(   4) = (   3.1621080   0.0000000  10.0000000  )
         5           Sn1 tau(   5) = (   3.1621080   1.8256439  12.5818504  )
         6           Sn1 tau(   6) = (   1.5810540   4.5641098  12.5818504  )
         7           Sn1 tau(   7) = (  -1.5810540   4.5641098  12.5818504  )
         8           Ru1 tau(   8) = (   0.0000000   1.8256439  12.5818504  )
         9           Sn1 tau(   9) = (   0.0000050   3.5874334  15.2335851  )
        10           Sn1 tau(  10) = (   1.5257160   0.9447976  15.2336085  )
        11           Sn1 tau(  11) = (   4.7985010   0.9448087  15.2336043  )
        12           Ru1 tau(  12) = (   3.1621068   3.6512679  14.5860150  )

     number of k points=    20  Fermi-Dirac smearing, width (Ry)=  0.0110
                       cart. coord. in units 2pi/alat
        k(    1) = (   0.0000000   0.0000000   0.0000000), wk =   0.0555556
        k(    2) = (   0.0000000   0.0304307   0.0000000), wk =   0.1111111
        k(    3) = (   0.0000000   0.0608613   0.0000000), wk =   0.1111111
        k(    4) = (   0.0000000  -0.0912920   0.0000000), wk =   0.0555556
        k(    5) = (   0.0263537   0.0152153   0.0000000), wk =   0.1111111
        k(    6) = (   0.0263537   0.0456460   0.0000000), wk =   0.1111111
        k(    7) = (   0.0263537   0.0760767   0.0000000), wk =   0.1111111
        k(    8) = (   0.0263537  -0.0760767   0.0000000), wk =   0.1111111
        k(    9) = (   0.0263537  -0.0456460   0.0000000), wk =   0.1111111
        k(   10) = (   0.0263537  -0.0152153   0.0000000), wk =   0.1111111
        k(   11) = (   0.0527075   0.0304307   0.0000000), wk =   0.1111111
        k(   12) = (   0.0527075   0.0608613   0.0000000), wk =   0.1111111
        k(   13) = (   0.0527075   0.0912920   0.0000000), wk =   0.1111111
        k(   14) = (   0.0527075  -0.0608613   0.0000000), wk =   0.1111111
        k(   15) = (   0.0527075  -0.0304307   0.0000000), wk =   0.1111111
        k(   16) = (   0.0527075   0.0000000   0.0000000), wk =   0.1111111
        k(   17) = (  -0.0790612  -0.0456460   0.0000000), wk =   0.0555556
        k(   18) = (  -0.0790612  -0.0152153   0.0000000), wk =   0.1111111
        k(   19) = (  -0.0790612   0.0152153   0.0000000), wk =   0.1111111
        k(   20) = (  -0.0790612  -0.1369380   0.0000000), wk =   0.0555556

     Largest allocated arrays     est. size (Mb)     dimensions
     Largest temporary arrays     est. size (Mb)     dimensions

     Initial potential from superposition of free atoms
     Check: negative starting charge=   -0.220950

     starting charge  161.99955, renormalised to  174.00000

[...]

     *
     * You are using vdW-DF for exchange-correlation in this calculation.
     * Please cite the following three references that made this development
     * possible:
     *
     *   M. Dion, H. Rydberg, E. Schroder, D. C. Langreth, and
     *   B. I. Lundqvist, Phys. Rev. Lett. 92, 246401 (2004).
     *
     *   T. Thonhauser, V. R. Cooper, S. Li, A. Puzder, P. Hyldgaard, and
     *   D. C. Langreth, Phys. Rev. B 76, 125112 (2007).
     *
     *   G. Roman-Perez and J. M. Soler, Phys. Rev. Lett. 103, 096102 (2009).
     *
     *
     * If you are using vdW-DF2, please also cite:
     *
     *   K. Lee, E. D. Murray, L. Kong, B. I. Lundqvist, and
     *   D. C. Langreth, Phys. Rev. B 82, 081101(R) (2010).
     *
     *
     * If you are calculating the stress with vdW-DF, please also cite:
     *
     *   R. Sabatini, E. Kucukbenli, B. Kolb, T. Thonhauser, and
     *   S. de Gironcoli, J. Phys.: Condens. Matter 24, 424209 (2012).
     *

     Carrying out vdW-DF run using the following parameters:

     Nqs =      20    Nr_points =    1024   r_max =   100.000
     q_mesh =
               0.00001000     0.04494208     0.09755937     0.15916263
               0.23128650     0.31572767     0.41458969     0.53033537
               0.66584808     0.82450364     1.01025438     1.22772762
               1.48234092     1.78043706     2.12944203     2.53805004
               3.01644009     3.57652955     4.23227104     5.00000000

     Gradients computed in reciprocal space

[...]

     Starting wfc are  120 randomized atomic wfcs

     Self-consistent Calculation

[...]

     iteration # 18     ecut=    36.75 Ry     beta=0.10
     Davidson diagonalization with overlap
     c_bands:  1 eigenvalues not converged
     ethr =  2.50E-06,  avg # of iterations =  4.0

[...]

     total energy              =   -2031.36758721 Ry
     Harris-Foulkes estimate   =   -2031.36758762 Ry
     estimated scf accuracy    <       0.00000159 Ry

     iteration # 26     ecut=    36.75 Ry     beta=0.10
     Davidson diagonalization with overlap
     ethr =  9.13E-10,  avg # of iterations =  1.1

[...]

     negative rho (up, down):  2.213E-01 0.000E+00

     Adding external electric field

     Computed dipole along edir(3) :
        Dipole                0.0708 Ry au,          0.1799 Debye
        Dipole field          0.0002 Ry au

        Potential amp.       -0.0140 Ry
        Total length         46.3637 bohr

     End of self-consistent calculation

[...]

          k = 0.0527 0.0000 0.0000 ( 22135 PWs)   bands (ev):

[...]

          k =-0.0791-0.1369 0.0000 ( 22040 PWs)   bands (ev):

   -70.8691 -70.7573 -70.6816 -40.8760 -40.8759 -40.8328 -40.8022 -40.7768
   -40.7768 -40.7180 -40.7179 -40.6325 -21.0136 -20.9433 -20.9337 -20.9161
   -20.9149 -20.8926 -20.8903 -20.8816 -20.8760 -20.8545 -20.8236 -20.8235
   -20.8181 -20.8161 -20.8028 -20.7922 -20.7757 -20.7694 -20.7612 -20.7502
   -20.7489 -20.7373 -20.7282 -20.7266 -20.7149 -20.7090 -20.7051 -20.7040
   -20.6973 -20.6904 -20.6903 -20.6863 -20.6781 -20.6779 -20.6754 -20.6703
   -20.6635 -20.6569 -20.6560 -20.6515 -20.6353 -20.6340 -20.6287 -20.5941
   -20.5818  -8.7605  -8.3726  -7.2945  -6.9213  -6.1537  -6.1514  -5.4316
    -4.8794  -3.4880  -3.2543  -2.7496  -2.0652  -1.4527  -1.2684  -1.0476
    -1.0409  -0.9848  -0.5652  -0.4443  -0.2356  -0.0832   0.2387   0.3979
     0.4256   0.5410   0.5738   0.6705   0.8185   1.0373   1.1094   1.5263
     1.5275   1.6992   2.1100   2.2272   2.4382   2.5481   2.6474   2.9723
     3.3878   3.6011   3.7985   3.9383   3.9853   4.5994   4.9169   5.2257
     5.3377   5.6786   5.9130   5.9712   6.2027   6.3406   6.4846   6.5967
     6.6223   6.8703   6.9375   7.0637   7.0769

     the Fermi energy is     1.0987 ev

!    total energy              =   -2031.36758710 Ry
     Harris-Foulkes estimate   =   -2031.36758672 Ry
     estimated scf accuracy    <       0.00000034 Ry

     The total energy is the sum of the following terms:

     one-electron contribution =  -12892.80271157 Ry
     hartree contribution      =    6495.18476690 Ry
     xc contribution           =    -481.32975287 Ry
     ewald contribution        =    4847.64416783 Ry
     electric field correction =       0.00001070 Ry
     smearing contrib. (-TS)   =      -0.06406810 Ry

     convergence has been achieved in  26 iterations

 BEEF-vdW xc energy contributions
           1 :   -422.103828562545
           2 :    386.657608439575
           3 :   -326.358169531006
           4 :    257.748877742045
           5 :   -196.685339325643
           6 :    152.804932683283
           7 :   -127.336889542448
           8 :    114.756959592054
           9 :   -107.002384592896
          10 :    97.8775237196203
          11 :   -85.5050445253388
          12 :    71.9694795268861
          13 :   -60.9038095658286
          14 :    54.7366396209843
          15 :   -53.2177111597931
          16 :    53.8393120394987
          17 :   -53.5884547260730
          18 :    50.7734614752952
          19 :   -45.8123542564718
          20 :    40.6383899383940
          21 :   -37.2619997329855
          22 :    36.4727361966843
          23 :   -37.4657922318895
          24 :    38.5125206534771
          25 :   -38.1369317885939
          26 :    36.0022635770177
          27 :   -32.9842060180947
          28 :    30.4721577231494
          29 :   -29.4236154299663
          30 :    29.7959179640881
          31 :   -37.9844452102167
          32 :   -27.8891933065510

     Forces acting on atoms (Ry/au):

     negative rho (up, down):  2.213E-01 0.000E+00
     atom    1 type  1   force =     0.00000130    0.02094914   -0.00833835
     atom    2 type  1   force =     0.01814859   -0.01047398   -0.00834065
     atom    3 type  1   force =    -0.01814993   -0.01047874   -0.00833813
     atom    4 type  2   force =    -0.00000054    0.00000112    0.06097814
     atom    5 type  1   force =     0.00000004   -0.01810806   -0.01191415
     atom    6 type  1   force =    -0.01568075    0.00905651   -0.01191912
     atom    7 type  1   force =     0.01568055    0.00905726   -0.01191707
     atom    8 type  2   force =     0.00000001    0.00000093    0.00133088
     atom    9 type  1   force =    -0.00000146    0.00126535   -0.00005060
     atom   10 type  1   force =     0.00109612   -0.00063460   -0.00005671
     atom   11 type  1   force =    -0.00109380   -0.00063464   -0.00006288
     atom   12 type  2   force =    -0.00000014   -0.00000029   -0.00137135

     Total force =     0.081623     Total SCF correction =     0.003181

     entering subroutine stress ...

     negative rho (up, down):  2.213E-01 0.000E+00
          total   stress  (Ry/bohr**3)                   (kbar)     P=  -10.41
  -0.00008278   0.00000000   0.00000000        -12.18      0.00      0.00
   0.00000000  -0.00008278   0.00000000          0.00    -12.18      0.00
   0.00000000   0.00000000  -0.00004677          0.00      0.00     -6.88

 !ASE

     Writing output data file calc.save

     General routines

     Parallel routines

   This run was terminated on:  16:33:19   1Jan2019

   JOB DONE.
Job  /afs/slac/g/suncat/bin/suncat-tsmpirun -x LD_LIBRARY_PATH -wdir /scratch/qe649056_4aRy7 pw.x -in pw.inp

TID   HOST_NAME   COMMAND_LINE            STATUS            TERMINATION_TIME
00000 suncat0058 pw.x -in pw.inp   Done                     01/01/2019 16:33:19
00001 suncat0058 pw.x -in pw.inp   Done                     01/01/2019 16:33:19
00002 suncat0058 pw.x -in pw.inp   Done                     01/01/2019 16:33:19
00003 suncat0058 pw.x -in pw.inp   Done                     01/01/2019 16:33:19
00004 suncat0058 pw.x -in pw.inp   Done                     01/01/2019 16:33:19
00005 suncat0058 pw.x -in pw.inp   Done                     01/01/2019 16:33:19
00006 suncat0058 pw.x -in pw.inp   Done                     01/01/2019 16:33:19
00007 suncat0058 pw.x -in pw.inp   Done                     01/01/2019 16:33:19
00008 suncat0056 pw.x -in pw.inp   Done                     01/01/2019 16:33:19
00009 suncat0056 pw.x -in pw.inp   Done                     01/01/2019 16:33:19
00010 suncat0056 pw.x -in pw.inp   Done                     01/01/2019 16:33:19
00011 suncat0056 pw.x -in pw.inp   Done                     01/01/2019 16:33:19
00012 suncat0056 pw.x -in pw.inp   Done                     01/01/2019 16:33:19
00013 suncat0056 pw.x -in pw.inp   Done                     01/01/2019 16:33:19
00014 suncat0056 pw.x -in pw.inp   Done                     01/01/2019 16:33:19
00015 suncat0056 pw.x -in pw.inp   Done                     01/01/2019 16:33:19
00016 suncat0054 pw.x -in pw.inp   Done                     01/01/2019 16:33:19
00017 suncat0054 pw.x -in pw.inp   Done                     01/01/2019 16:33:19
00018 suncat0054 pw.x -in pw.inp   Done                     01/01/2019 16:33:19
00019 suncat0054 pw.x -in pw.inp   Done                     01/01/2019 16:33:19
00020 suncat0054 pw.x -in pw.inp   Done                     01/01/2019 16:33:19
00021 suncat0054 pw.x -in pw.inp   Done                     01/01/2019 16:33:19
00022 suncat0054 pw.x -in pw.inp   Done                     01/01/2019 16:33:19
00023 suncat0054 pw.x -in pw.inp   Done                     01/01/2019 16:33:19
00024 suncat0052 pw.x -in pw.inp   Done                     01/01/2019 16:33:19
00025 suncat0052 pw.x -in pw.inp   Done                     01/01/2019 16:33:19
00026 suncat0052 pw.x -in pw.inp   Done                     01/01/2019 16:33:19
00027 suncat0052 pw.x -in pw.inp   Done                     01/01/2019 16:33:19
00028 suncat0052 pw.x -in pw.inp   Done                     01/01/2019 16:33:19
00029 suncat0052 pw.x -in pw.inp   Done                     01/01/2019 16:33:19
00030 suncat0052 pw.x -in pw.inp   Done                     01/01/2019 16:33:19
00031 suncat0052 pw.x -in pw.inp   Done                     01/01/2019 16:33:19
00032 suncat0048 pw.x -in pw.inp   Done                     01/01/2019 16:33:19
00033 suncat0048 pw.x -in pw.inp   Done                     01/01/2019 16:33:19
00034 suncat0048 pw.x -in pw.inp   Done                     01/01/2019 16:33:19
00035 suncat0048 pw.x -in pw.inp   Done                     01/01/2019 16:33:19
00036 suncat0048 pw.x -in pw.inp   Done                     01/01/2019 16:33:19
00037 suncat0048 pw.x -in pw.inp   Done                     01/01/2019 16:33:19
00038 suncat0048 pw.x -in pw.inp   Done                     01/01/2019 16:33:19
00039 suncat0048 pw.x -in pw.inp   Done                     01/01/2019 16:33:19
00040 suncat0047 pw.x -in pw.inp   Done                     01/01/2019 16:33:19
00041 suncat0047 pw.x -in pw.inp   Done                     01/01/2019 16:33:19
00042 suncat0047 pw.x -in pw.inp   Done                     01/01/2019 16:33:19
00043 suncat0047 pw.x -in pw.inp   Done                     01/01/2019 16:33:19
00044 suncat0047 pw.x -in pw.inp   Done                     01/01/2019 16:33:19
00045 suncat0047 pw.x -in pw.inp   Done                     01/01/2019 16:33:19
00046 suncat0047 pw.x -in pw.inp   Done                     01/01/2019 16:33:19
00047 suncat0047 pw.x -in pw.inp   Done                     01/01/2019 16:33:19
00048 suncat0121 pw.x -in pw.inp   Done                     01/01/2019 16:33:19
00049 suncat0121 pw.x -in pw.inp   Done                     01/01/2019 16:33:19
00050 suncat0121 pw.x -in pw.inp   Done                     01/01/2019 16:33:19
00051 suncat0121 pw.x -in pw.inp   Done                     01/01/2019 16:33:19
00052 suncat0121 pw.x -in pw.inp   Done                     01/01/2019 16:33:19
00053 suncat0121 pw.x -in pw.inp   Done                     01/01/2019 16:33:19
00054 suncat0121 pw.x -in pw.inp   Done                     01/01/2019 16:33:19
00055 suncat0121 pw.x -in pw.inp   Done                     01/01/2019 16:33:19
00056 suncat0115 pw.x -in pw.inp   Done                     01/01/2019 16:33:19
00057 suncat0115 pw.x -in pw.inp   Done                     01/01/2019 16:33:19
00058 suncat0115 pw.x -in pw.inp   Done                     01/01/2019 16:33:19
00059 suncat0115 pw.x -in pw.inp   Done                     01/01/2019 16:33:19
00060 suncat0115 pw.x -in pw.inp   Done                     01/01/2019 16:33:19
00061 suncat0115 pw.x -in pw.inp   Done                     01/01/2019 16:33:19
00062 suncat0115 pw.x -in pw.inp   Done                     01/01/2019 16:33:19
00063 suncat0115 pw.x -in pw.inp   Done                     01/01/2019 16:33:19