     Program PWSCF v.5.1rc2 (svn rev. 11289) starts on 25Dec2018 at  8:35:27

     Current dimensions of program PWSCF are:
     Max number of different atomic species (ntypx) = 10
     Max number of k-points (npk) =  40000
     Max angular momentum in pseudopotentials (lmaxx) =  3
     Presently stress not available with electric field

     IMPORTANT: XC functional enforced from input :
     Exchange-correlation      = BEEF-VDW ( 1  4 27 13 2)
     Any further DFT definition will be discarded
     Please, verify this is what you really want

     Subspace diagonalization in iterative solution of the eigenvalue problem:
     a serial algorithm will be used

     bravais-lattice index     =            0
     lattice parameter (alat)  =       1.8897  a.u.
     unit-cell volume          =    4860.8761 (a.u.)^3
     number of atoms/cell      =           12
     number of atomic types    =            2
     number of electrons       =       219.00
     number of Kohn-Sham states=          139
     kinetic-energy cutoff     =      36.7493  Ry
     charge density cutoff     =     367.4932  Ry
     convergence threshold     =      1.0E-06
     mixing beta               =       0.1000
     number of iterations used =           10  plain     mixing
     Exchange-correlation      = BEEF-VDW ( 1  4 27 13 2)
     nstep                     =           50

     celldm(1)=   1.889726  celldm(2)=   0.000000  celldm(3)=   0.000000
     celldm(4)=   0.000000  celldm(5)=   0.000000  celldm(6)=   0.000000

     crystal axes: (cart. coord. in units of alat)
               a(1) = (   5.798827   0.000000   0.000000 )
               a(2) = (  -2.899413   5.021931   0.000000 )
               a(3) = (   0.000000   0.000000  24.734722 )

     reciprocal axes: (cart. coord. in units 2 pi/alat)
               b(1) = (  0.172449  0.099563  0.000000 )
               b(2) = (  0.000000  0.199127  0.000000 )
               b(3) = (  0.000000  0.000000  0.040429 )

     PseudoPot. # 1 for Ag read from file:
     /afs/slac.stanford.edu/u/if/mamunm/psp/gbrv1.5pbe/Ag.UPF
     MD5 check sum: d66d668201baa78d5eb5b04ef7011058
     Pseudo is Ultrasoft + core correction, Zval = 19.0
     Generated by new atomic code, or converted to UPF format
     Using radial grid of  887 points,  6 beta functions with:
                l(1) =   0
                l(2) =   0
                l(3) =   1
                l(4) =   1
                l(5) =   2
                l(6) =   2
     Q(r) pseudized with  6 coefficients,  rinner =    1.300   1.300   1.300
                                                       1.300   1.300

     PseudoPot. # 2 for Ru read from file:
     /afs/slac.stanford.edu/u/if/mamunm/psp/gbrv1.5pbe/Ru.UPF
     MD5 check sum: 7158a806dd851261a58e6920c40ebe78
     Pseudo is Ultrasoft + core correction, Zval = 16.0
     Generated by new atomic code, or converted to UPF format
     Using radial grid of  967 points,  6 beta functions with:
                l(1) =   0
                l(2) =   0
                l(3) =   1
                l(4) =   1
                l(5) =   2
                l(6) =   2
     Q(r) pseudized with  8 coefficients,  rinner =    1.300   1.300   1.300
                                                       1.300   1.300

     vdW kernel table read from file vdW_kernel_table
     MD5 check sum: 095c7af220d748ca6e76c0b4c6cfb241

     atomic species   valence    mass     pseudopotential
        Ag1           19.00   107.86820     Ag( 1.00)
        Ru1           16.00   101.07000     Ru( 1.00)

     No symmetry found

   Cartesian axes

     site n.     atom                  positions (alat units)
         1           Ag1 tau(   1) = (   0.0000000   0.0000000  10.0000000  )
         2           Ag1 tau(   2) = (  -1.4497067   2.5109657  10.0000000  )
         3           Ag1 tau(   3) = (   1.4497067   2.5109657  10.0000000  )
         4           Ru1 tau(   4) = (   2.8994134   0.0000000  10.0000000  )
         5           Ag1 tau(   5) = (   2.8994134   1.6739771  12.3673611  )
         6           Ag1 tau(   6) = (   1.4497067   4.1849428  12.3673611  )
         7           Ag1 tau(   7) = (  -1.4497067   4.1849428  12.3673611  )
         8           Ru1 tau(   8) = (   0.0000000   1.6739771  12.3673611  )
         9           Ag1 tau(   9) = (  -0.0000000   3.3479542  14.7347223  )
        10           Ag1 tau(  10) = (   1.4497067   0.8369886  14.7347223  )
        11           Ag1 tau(  11) = (   4.3491201   0.8369886  14.7347223  )
        12           Ru1 tau(  12) = (   2.8994134   3.3479542  14.7347223  )

     number of k points=    20  Fermi-Dirac smearing, width (Ry)=  0.0110
                       cart. coord. in units 2pi/alat
        k(    1) = (   0.0000000   0.0000000   0.0000000), wk =   0.0555556
        k(    2) = (   0.0000000   0.0331878   0.0000000), wk =   0.1111111
        k(    3) = (   0.0000000   0.0663755   0.0000000), wk =   0.1111111
        k(    4) = (   0.0000000  -0.0995633   0.0000000), wk =   0.0555556
        k(    5) = (   0.0287414   0.0165939   0.0000000), wk =   0.1111111
        k(    6) = (   0.0287414   0.0497816   0.0000000), wk =   0.1111111
        k(    7) = (   0.0287414   0.0829694   0.0000000), wk =   0.1111111
        k(    8) = (   0.0287414  -0.0829694   0.0000000), wk =   0.1111111
        k(    9) = (   0.0287414  -0.0497816   0.0000000), wk =   0.1111111
        k(   10) = (   0.0287414  -0.0165939   0.0000000), wk =   0.1111111
        k(   11) = (   0.0574829   0.0331878   0.0000000), wk =   0.1111111
        k(   12) = (   0.0574829   0.0663755   0.0000000), wk =   0.1111111
        k(   13) = (   0.0574829   0.0995633   0.0000000), wk =   0.1111111
        k(   14) = (   0.0574829  -0.0663755   0.0000000), wk =   0.1111111
        k(   15) = (   0.0574829  -0.0331878   0.0000000), wk =   0.1111111
        k(   16) = (   0.0574829   0.0000000   0.0000000), wk =   0.1111111
        k(   17) = (  -0.0862243  -0.0497816   0.0000000), wk =   0.0555556
        k(   18) = (  -0.0862243  -0.0165939   0.0000000), wk =   0.1111111
        k(   19) = (  -0.0862243   0.0165939   0.0000000), wk =   0.1111111
        k(   20) = (  -0.0862243  -0.1493449   0.0000000), wk =   0.0555556

     Largest allocated arrays     est. size (Mb)     dimensions
     Largest temporary arrays     est. size (Mb)     dimensions

     Initial potential from superposition of free atoms
     Check: negative starting charge=   -0.226083

     starting charge  211.49953, renormalised to  219.00000

     negative rho (up, down):  2.341E-01 0.000E+00

     *
     * You are using vdW-DF for exchange-correlation in this calculation.
     * Please cite the following three references that made this development
     * possible:
     *
     *   M. Dion, H. Rydberg, E. Schroder, D. C. Langreth, and
     *   B. I. Lundqvist, Phys. Rev. Lett. 92, 246401 (2004).
     *
     *   T. Thonhauser, V. R. Cooper, S. Li, A. Puzder, P. Hyldgaard, and
     *   D. C. Langreth, Phys. Rev. B 76, 125112 (2007).
     *
     *   G. Roman-Perez and J. M. Soler, Phys. Rev. Lett. 103, 096102 (2009).
     *
     *
     * If you are using vdW-DF2, please also cite:
     *
     *   K. Lee, E. D. Murray, L. Kong, B. I. Lundqvist, and
     *   D. C. Langreth, Phys. Rev. B 82, 081101(R) (2010).
     *
     *
     * If you are calculating the stress with vdW-DF, please also cite:
     *
     *   R. Sabatini, E. Kucukbenli, B. Kolb, T. Thonhauser, and
     *   S. de Gironcoli, J. Phys.: Condens. Matter 24, 424209 (2012).
     *

     Carrying out vdW-DF run using the following parameters:

     Nqs =      20    Nr_points =    1024   r_max =   100.000
     q_mesh =
               0.00001000     0.04494208     0.09755937     0.15916263
               0.23128650     0.31572767     0.41458969     0.53033537
               0.66584808     0.82450364     1.01025438     1.22772762
               1.48234092     1.78043706     2.12944203     2.53805004
               3.01644009     3.57652955     4.23227104     5.00000000

     Gradients computed in reciprocal space

     Adding external electric field

     Computed dipole along edir(3) :
        Dipole                0.0000 Ry au,          0.0000 Debye
        Dipole field          0.0000 Ry au

        Potential amp.       -0.0000 Ry
        Total length         45.5733 bohr

     Starting wfc are  156 randomized atomic wfcs

     Self-consistent Calculation

     iteration #  1     ecut=    36.75 Ry     beta=0.10
     Davidson diagonalization with overlap
     ethr =  1.00E-02,  avg # of iterations =  7.4

[...]

     total energy              =   -3253.00852153 Ry
     Harris-Foulkes estimate   =   -3261.50733015 Ry
     estimated scf accuracy    <      48.56039537 Ry

[...]

     End of self-consistent calculation

          k = 0.0000 0.0000 0.0000 ( 18295 PWs)   bands (ev):

   -90.3682 -90.3601 -90.3601 -90.2886 -90.2883 -90.2806 -90.2806 -90.2804
   -90.2804 -70.5275 -70.2920 -70.2919 -53.9078 -53.8917 -53.8917 -53.8739
   -53.8636 -53.8636 -53.8457 -53.8426 -53.8419 -53.8234 -53.8234 -53.8162
   -53.8162 -53.7990 -53.7990 -53.7750 -53.7726 -53.7494 -53.7494 -53.7476
   -53.7476 -53.7465 -53.7336 -53.7298 -53.7298 -53.7249 -53.7249 -40.5733
   -40.4865 -40.4865 -40.3027 -40.3027 -40.3025 -40.3025 -40.2638 -40.2629
    -4.9098  -4.2818  -4.1349  -4.1022  -4.0903  -4.0457  -4.0457  -3.9825
    -3.9026  -3.9026  -3.8308  -3.8308  -3.7812  -3.6869  -3.6869  -3.3174
    -3.0608  -3.0608  -3.0156  -3.0156  -2.7916  -2.7850  -2.7215  -2.5464
    -2.5464  -2.5014  -2.5014  -2.4182  -2.4182  -2.2796  -2.2796  -2.2321
    -2.1657  -2.1657  -2.1101  -1.9464  -1.9464  -1.8564  -1.8564  -1.6377
    -1.6377  -1.5051  -1.3821  -1.3821  -1.2640  -1.1935  -1.1477  -0.1395
     0.5088   0.8719   0.8719   0.9413   0.9918   0.9918   0.9919   0.9919
     1.1414   1.1414   1.4007   1.4007   1.5701   1.6237   1.6237   2.2227
     2.6259   2.8101   2.8101   3.8187   3.8187   3.8639   4.0550   4.0550
     4.1730   5.3445   5.6590   6.0073   6.5881   6.5881   6.9052   6.9052
     6.9672   6.9738   7.3489   7.6876   7.8815   7.8815   8.1425   9.3089
     9.6538  10.0012  10.0012

[...]

          k =-0.0862-0.0498 0.0000 ( 18264 PWs)   bands (ev):

[...]

     the Fermi energy is     1.3735 ev

!    total energy              =   -3254.72968194 Ry
     Harris-Foulkes estimate   =   -3254.72968297 Ry
     estimated scf accuracy    <       0.00000050 Ry

     The total energy is the sum of the following terms:

     one-electron contribution =  -25035.36076724 Ry
     hartree contribution      =   12513.28260458 Ry
     xc contribution           =    -351.18928766 Ry
     ewald contribution        =    9618.62769765 Ry
     electric field correction =       0.00000000 Ry
     smearing contrib. (-TS)   =      -0.08992927 Ry

     convergence has been achieved in  17 iterations

 BEEF-vdW xc energy contributions
           1 :   -304.408101708833
           2 :    276.513806864412
           3 :   -229.543672778996
           4 :    177.101754555342
           5 :   -131.941016027978
           6 :    101.470116547143
           7 :   -86.1939794623576
           8 :    81.2645123769964
[...]
                l(1) =   0
                l(2) =   0
                l(3) =   1
                l(4) =   1
                l(5) =   2
                l(6) =   2
     Q(r) pseudized with  6 coefficients,  rinner =    1.300   1.300   1.300
                                                       1.300   1.300

     PseudoPot. # 2 for Ru read from file:
     /afs/slac.stanford.edu/u/if/mamunm/psp/gbrv1.5pbe/Ru.UPF
     MD5 check sum: 7158a806dd851261a58e6920c40ebe78
     Pseudo is Ultrasoft + core correction, Zval = 16.0
     Generated by new atomic code, or converted to UPF format
     Using radial grid of  967 points,  6 beta functions with:
                l(1) =   0
                l(2) =   0
                l(3) =   1
                l(4) =   1
                l(5) =   2
                l(6) =   2
     Q(r) pseudized with  8 coefficients,  rinner =    1.300   1.300   1.300
                                                       1.300   1.300

     vdW kernel table read from file vdW_kernel_table
     MD5 check sum: 095c7af220d748ca6e76c0b4c6cfb241

     atomic species   valence    mass     pseudopotential
        Ag1           19.00   107.86820     Ag( 1.00)
        Ru1           16.00   101.07000     Ru( 1.00)

     No symmetry found

   Cartesian axes

     site n.     atom                  positions (alat units)
         1           Ag1 tau(   1) = (   0.0000000   0.0000000  10.0000000  )
         2           Ag1 tau(   2) = (  -1.4497067   2.5109657  10.0000000  )
         3           Ag1 tau(   3) = (   1.4497067   2.5109657  10.0000000  )
         4           Ru1 tau(   4) = (   2.8994134   0.0000000  10.0000000  )
         5           Ag1 tau(   5) = (   2.8994134   1.6739771  12.3673611  )
         6           Ag1 tau(   6) = (   1.4497067   4.1849428  12.3673611  )
         7           Ag1 tau(   7) = (  -1.4497067   4.1849428  12.3673611  )
         8           Ru1 tau(   8) = (   0.0000000   1.6739771  12.3673611  )
         9           Ag1 tau(   9) = (  -0.0000012   3.3382916  14.7894992  )
        10           Ag1 tau(  10) = (   1.4413416   0.8418185  14.7894989  )
        11           Ag1 tau(  11) = (   4.3574860   0.8418206  14.7894992  )
        12           Ru1 tau(  12) = (   2.8994136   3.3479530  14.6159632  )

     number of k points=    20  Fermi-Dirac smearing, width (Ry)=  0.0110
                       cart. coord. in units 2pi/alat
        k(    1) = (   0.0000000   0.0000000   0.0000000), wk =   0.0555556
        k(    2) = (   0.0000000   0.0331878   0.0000000), wk =   0.1111111
        k(    3) = (   0.0000000   0.0663755   0.0000000), wk =   0.1111111
        k(    4) = (   0.0000000  -0.0995633   0.0000000), wk =   0.0555556
        k(    5) = (   0.0287414   0.0165939   0.0000000), wk =   0.1111111
        k(    6) = (   0.0287414   0.0497816   0.0000000), wk =   0.1111111
        k(    7) = (   0.0287414   0.0829694   0.0000000), wk =   0.1111111
        k(    8) = (   0.0287414  -0.0829694   0.0000000), wk =   0.1111111
        k(    9) = (   0.0287414  -0.0497816   0.0000000), wk =   0.1111111
        k(   10) = (   0.0287414  -0.0165939   0.0000000), wk =   0.1111111
        k(   11) = (   0.0574829   0.0331878   0.0000000), wk =   0.1111111
        k(   12) = (   0.0574829   0.0663755   0.0000000), wk =   0.1111111
        k(   13) = (   0.0574829   0.0995633   0.0000000), wk =   0.1111111
        k(   14) = (   0.0574829  -0.0663755   0.0000000), wk =   0.1111111
        k(   15) = (   0.0574829  -0.0331878   0.0000000), wk =   0.1111111
        k(   16) = (   0.0574829   0.0000000   0.0000000), wk =   0.1111111
        k(   17) = (  -0.0862243  -0.0497816   0.0000000), wk =   0.0555556
        k(   18) = (  -0.0862243  -0.0165939   0.0000000), wk =   0.1111111
        k(   19) = (  -0.0862243   0.0165939   0.0000000), wk =   0.1111111
        k(   20) = (  -0.0862243  -0.1493449   0.0000000), wk =   0.0555556

     Largest allocated arrays     est. size (Mb)     dimensions
     Largest temporary arrays     est. size (Mb)     dimensions

     Initial potential from superposition of free atoms
     Check: negative starting charge=   -0.224146

     starting charge  211.49953, renormalised to  219.00000

[...]

     *
     * You are using vdW-DF for exchange-correlation in this calculation.
     * Please cite the following three references that made this development
     * possible:
     *
     *   M. Dion, H. Rydberg, E. Schroder, D. C. Langreth, and
     *   B. I. Lundqvist, Phys. Rev. Lett. 92, 246401 (2004).
     *
     *   T. Thonhauser, V. R. Cooper, S. Li, A. Puzder, P. Hyldgaard, and
     *   D. C. Langreth, Phys. Rev. B 76, 125112 (2007).
     *
     *   G. Roman-Perez and J. M. Soler, Phys. Rev. Lett. 103, 096102 (2009).
     *
     *
     * If you are using vdW-DF2, please also cite:
     *
     *   K. Lee, E. D. Murray, L. Kong, B. I. Lundqvist, and
     *   D. C. Langreth, Phys. Rev. B 82, 081101(R) (2010).
     *
     *
     * If you are calculating the stress with vdW-DF, please also cite:
     *
     *   R. Sabatini, E. Kucukbenli, B. Kolb, T. Thonhauser, and
     *   S. de Gironcoli, J. Phys.: Condens. Matter 24, 424209 (2012).
     *

     Carrying out vdW-DF run using the following parameters:

     Nqs =      20    Nr_points =    1024   r_max =   100.000
     q_mesh =
               0.00001000     0.04494208     0.09755937     0.15916263
               0.23128650     0.31572767     0.41458969     0.53033537
               0.66584808     0.82450364     1.01025438     1.22772762
               1.48234092     1.78043706     2.12944203     2.53805004
               3.01644009     3.57652955     4.23227104     5.00000000

     Gradients computed in reciprocal space

[...]

     Starting wfc are  156 randomized atomic wfcs

     Self-consistent Calculation

[...]

     total energy              =   -3254.73477425 Ry
     Harris-Foulkes estimate   =   -3254.73477316 Ry
     estimated scf accuracy    <       0.00000441 Ry

     iteration # 18     ecut=    36.75 Ry     beta=0.10
     Davidson diagonalization with overlap
     ethr =  2.01E-09,  avg # of iterations =  2.0

[...]

     negative rho (up, down):  2.265E-01 0.000E+00

     Adding external electric field

     Computed dipole along edir(3) :
        Dipole               -0.0014 Ry au,         -0.0036 Debye
        Dipole field         -0.0000 Ry au

        Potential amp.        0.0003 Ry
        Total length         45.5733 bohr

     End of self-consistent calculation

[...]

          k = 0.0575 0.0000 0.0000 ( 18307 PWs)   bands (ev):

[...]

          k =-0.0862-0.1493 0.0000 ( 18264 PWs)   bands (ev):

   -90.3812 -90.3784 -90.3757 -90.2889 -90.2863 -90.2836 -90.2650 -90.2623
   -90.2596 -70.5392 -70.3199 -70.2983 -53.9100 -53.8857 -53.8840 -53.8799
   -53.8782 -53.8702 -53.8693 -53.8570 -53.8289 -53.8228 -53.8093 -53.8006
   -53.8002 -53.7954 -53.7890 -53.7807 -53.7800 -53.7735 -53.7661 -53.7554
   -53.7396 -53.7361 -53.7320 -53.7303 -53.7142 -53.7099 -53.7059 -40.5810
   -40.4993 -40.4984 -40.3307 -40.3299 -40.3103 -40.3094 -40.2967 -40.2692
    -3.9848  -3.8487  -3.7488  -3.6747  -3.6541  -3.5705  -3.5357  -3.5289
    -3.4833  -3.4505  -3.4452  -3.3590  -3.2080  -3.1882  -3.1740  -3.1598
    -3.0468  -3.0156  -2.9827  -2.8383  -2.7705  -2.7360  -2.7266  -2.6755
    -2.6447  -2.5954  -2.5618  -2.5503  -2.4396  -2.4290  -2.4176  -2.4036
    -2.3485  -2.3470  -2.2496  -2.2364  -2.1904  -2.1696  -2.1163  -2.1043
    -2.0682  -2.0369  -2.0208  -1.8132  -1.6586  -1.5598  -1.4826  -1.2788
    -0.5552  -0.4435   0.1047   0.2884   0.6615   0.6836   0.6977   0.7915
     0.8164   0.8509   0.8644   1.0006   1.0198   1.0906   1.3026   1.6139
     2.0296   2.5448   2.8997   3.4271   3.4374   4.0317   4.8588   5.0109
     5.6854   5.7185   6.6866   6.6957   7.2680   7.2880   7.4319   7.4365
     8.0408   8.1280   8.5176   8.5421   8.6124   8.8983   8.9321   8.9593
     9.0370   9.0454   9.4196

     the Fermi energy is     1.3657 ev

!    total energy              =   -3254.73477350 Ry
     Harris-Foulkes estimate   =   -3254.73477484 Ry
     estimated scf accuracy    <       0.00000091 Ry

     The total energy is the sum of the following terms:

     one-electron contribution =  -24975.63882350 Ry
     hartree contribution      =   12483.39431010 Ry
     xc contribution           =    -351.18420436 Ry
     ewald contribution        =    9588.78301954 Ry
     electric field correction =       0.00000001 Ry
     smearing contrib. (-TS)   =      -0.08907529 Ry

     convergence has been achieved in  18 iterations

 BEEF-vdW xc energy contributions
           1 :   -304.438135452898
           2 :    276.537334626777
           3 :   -229.560920959665
           4 :    177.119282029957
           5 :   -131.965039936545
           6 :    101.500527385420
           7 :   -86.2239679279728
           8 :    81.2860132883227
           9 :   -79.9276685983254
          10 :    76.8967380744648
          11 :   -70.2898326590596
          12 :    61.3063146674649
          13 :   -52.5473785135916
          14 :    46.0901060412231
          15 :   -42.4131114996312
          16 :    40.5314317123271
          17 :   -38.9484261631756
          18 :    36.6588955413696
          19 :   -33.5971677894603
          20 :    30.3955688543867
          21 :   -27.7711545017063
          22 :    26.0087131849625
          23 :   -24.8467223782819
          24 :    23.7535602858190
          25 :   -22.3416871940636
          26 :    20.6207051810283
          27 :   -18.9431224738963
          28 :    17.7170142858616
          29 :   -17.1076903112017
          30 :    16.9305089823317
          31 :   -30.5849371047203
          32 :   -22.4543125601917

     Forces acting on atoms (Ry/au):

     negative rho (up, down):  2.265E-01 0.000E+00
     atom    1 type  1   force =     0.00000014    0.00453841   -0.00768687
     atom    2 type  1   force =     0.00393044   -0.00226915   -0.00768684
     atom    3 type  1   force =    -0.00393025   -0.00226920   -0.00768660
     atom    4 type  2   force =    -0.00000004    0.00000005    0.02088019
     atom    5 type  1   force =    -0.00000056   -0.00651542   -0.00239505
     atom    6 type  1   force =    -0.00564235    0.00325741   -0.00239469
     atom    7 type  1   force =     0.00564251    0.00325799   -0.00239486
     atom    8 type  2   force =    -0.00000005   -0.00000012    0.00616398
     atom    9 type  1   force =     0.00000035   -0.00042407    0.00092691
     atom   10 type  1   force =    -0.00036760    0.00021219    0.00092677
     atom   11 type  1   force =     0.00036749    0.00021161    0.00092709
     atom   12 type  2   force =    -0.00000008    0.00000030    0.00041997

     Total force =     0.029341     Total SCF correction =     0.005646
     SCF correction compared to forces is large: reduce conv_thr to get better values

     entering subroutine stress ...

     negative rho (up, down):  2.265E-01 0.000E+00
          total   stress  (Ry/bohr**3)                   (kbar)     P=   -6.10
  -0.00005576  -0.00000000   0.00000000         -8.20     -0.00      0.00
  -0.00000000  -0.00005576   0.00000000         -0.00     -8.20      0.00
   0.00000000   0.00000000  -0.00001292          0.00      0.00     -1.90

 !ASE

     Writing output data file calc.save

     General routines

     Parallel routines

   This run was terminated on:   9:58:16  25Dec2018

   JOB DONE.
Job  /afs/slac/g/suncat/bin/suncat-tsmpirun -x LD_LIBRARY_PATH -wdir /scratch/qe109443_Vq25G pw.x -in pw.inp

TID   HOST_NAME   COMMAND_LINE            STATUS            TERMINATION_TIME
00000 suncat0190 pw.x -in pw.inp   Done                     12/25/2018 09:58:16
00001 suncat0190 pw.x -in pw.inp   Done                     12/25/2018 09:58:16
00002 suncat0190 pw.x -in pw.inp   Done                     12/25/2018 09:58:16
00003 suncat0190 pw.x -in pw.inp   Done                     12/25/2018 09:58:16
00004 suncat0190 pw.x -in pw.inp   Done                     12/25/2018 09:58:16
00005 suncat0190 pw.x -in pw.inp   Done                     12/25/2018 09:58:16
00006 suncat0190 pw.x -in pw.inp   Done                     12/25/2018 09:58:16
00007 suncat0190 pw.x -in pw.inp   Done                     12/25/2018 09:58:16
00008 suncat0009 pw.x -in pw.inp   Done                     12/25/2018 09:58:16
00009 suncat0009 pw.x -in pw.inp   Done                     12/25/2018 09:58:16
00010 suncat0009 pw.x -in pw.inp   Done                     12/25/2018 09:58:16
00011 suncat0009 pw.x -in pw.inp   Done                     12/25/2018 09:58:16
00012 suncat0009 pw.x -in pw.inp   Done                     12/25/2018 09:58:16
00013 suncat0009 pw.x -in pw.inp   Done                     12/25/2018 09:58:16
00014 suncat0009 pw.x -in pw.inp   Done                     12/25/2018 09:58:16
00015 suncat0009 pw.x -in pw.inp   Done                     12/25/2018 09:58:16
00016 suncat0114 pw.x -in pw.inp   Done                     12/25/2018 09:58:16
00017 suncat0114 pw.x -in pw.inp   Done                     12/25/2018 09:58:16
00018 suncat0114 pw.x -in pw.inp   Done                     12/25/2018 09:58:16
00019 suncat0114 pw.x -in pw.inp   Done                     12/25/2018 09:58:16
00020 suncat0114 pw.x -in pw.inp   Done                     12/25/2018 09:58:16
00021 suncat0114 pw.x -in pw.inp   Done                     12/25/2018 09:58:16
00022 suncat0114 pw.x -in pw.inp   Done                     12/25/2018 09:58:16
00023 suncat0114 pw.x -in pw.inp   Done                     12/25/2018 09:58:16
00024 suncat0113 pw.x -in pw.inp   Done                     12/25/2018 09:58:16
00025 suncat0113 pw.x -in pw.inp   Done                     12/25/2018 09:58:16
00026 suncat0113 pw.x -in pw.inp   Done                     12/25/2018 09:58:16
00027 suncat0113 pw.x -in pw.inp   Done                     12/25/2018 09:58:16
00028 suncat0113 pw.x -in pw.inp   Done                     12/25/2018 09:58:16
00029 suncat0113 pw.x -in pw.inp   Done                     12/25/2018 09:58:16
00030 suncat0113 pw.x -in pw.inp   Done                     12/25/2018 09:58:16
00031 suncat0113 pw.x -in pw.inp   Done                     12/25/2018 09:58:16
00032 suncat0230 pw.x -in pw.inp   Done                     12/25/2018 09:58:16
00033 suncat0230 pw.x -in pw.inp   Done                     12/25/2018 09:58:16
00034 suncat0230 pw.x -in pw.inp   Done                     12/25/2018 09:58:16
00035 suncat0230 pw.x -in pw.inp   Done                     12/25/2018 09:58:16
00036 suncat0230 pw.x -in pw.inp   Done                     12/25/2018 09:58:16
00037 suncat0230 pw.x -in pw.inp   Done                     12/25/2018 09:58:16
00038 suncat0230 pw.x -in pw.inp   Done                     12/25/2018 09:58:16
00039 suncat0230 pw.x -in pw.inp   Done                     12/25/2018 09:58:16
00040 suncat0229 pw.x -in pw.inp   Done                     12/25/2018 09:58:16
00041 suncat0229 pw.x -in pw.inp   Done                     12/25/2018 09:58:16
00042 suncat0229 pw.x -in pw.inp   Done                     12/25/2018 09:58:16
00043 suncat0229 pw.x -in pw.inp   Done                     12/25/2018 09:58:16
00044 suncat0229 pw.x -in pw.inp   Done                     12/25/2018 09:58:16
00045 suncat0229 pw.x -in pw.inp   Done                     12/25/2018 09:58:16
00046 suncat0229 pw.x -in pw.inp   Done                     12/25/2018 09:58:16
00047 suncat0229 pw.x -in pw.inp   Done                     12/25/2018 09:58:16
00048 suncat0205 pw.x -in pw.inp   Done                     12/25/2018 09:58:16
00049 suncat0205 pw.x -in pw.inp   Done                     12/25/2018 09:58:16
00050 suncat0205 pw.x -in pw.inp   Done                     12/25/2018 09:58:16
00051 suncat0205 pw.x -in pw.inp   Done                     12/25/2018 09:58:16
00052 suncat0205 pw.x -in pw.inp   Done                     12/25/2018 09:58:16
00053 suncat0205 pw.x -in pw.inp   Done                     12/25/2018 09:58:16
00054 suncat0205 pw.x -in pw.inp   Done                     12/25/2018 09:58:16
00055 suncat0205 pw.x -in pw.inp   Done                     12/25/2018 09:58:16
00056 suncat0204 pw.x -in pw.inp   Done                     12/25/2018 09:58:16
00057 suncat0204 pw.x -in pw.inp   Done                     12/25/2018 09:58:16
00058 suncat0204 pw.x -in pw.inp   Done                     12/25/2018 09:58:16
00059 suncat0204 pw.x -in pw.inp   Done                     12/25/2018 09:58:16
00060 suncat0204 pw.x -in pw.inp   Done                     12/25/2018 09:58:16
00061 suncat0204 pw.x -in pw.inp   Done                     12/25/2018 09:58:16
00062 suncat0204 pw.x -in pw.inp   Done                     12/25/2018 09:58:16
00063 suncat0204 pw.x -in pw.inp   Done                     12/25/2018 09:58:16