     Program PWSCF v.5.1rc2 (svn rev. 11289) starts on 31Dec2018 at 13: 5: 5

     Current dimensions of program PWSCF are:
     Max number of different atomic species (ntypx) = 10
     Max number of k-points (npk) =  40000
     Max angular momentum in pseudopotentials (lmaxx) =  3
     Presently stress not available with electric field

     IMPORTANT: XC functional enforced from input :
     Exchange-correlation      = BEEF-VDW ( 1  4 27 13 2)
     Any further DFT definition will be discarded
     Please, verify this is what you really want

     Subspace diagonalization in iterative solution of the eigenvalue problem:
     a serial algorithm will be used

     bravais-lattice index     =            0
     lattice parameter (alat)  =       1.8897  a.u.
     unit-cell volume          =    5292.0945 (a.u.)^3
     number of atoms/cell      =           12
     number of atomic types    =            2
     number of electrons       =       177.00
     number of Kohn-Sham states=          118
     kinetic-energy cutoff     =      36.7493  Ry
     charge density cutoff     =     367.4932  Ry
     convergence threshold     =      1.0E-06
     mixing beta               =       0.1000
     number of iterations used =           10  plain     mixing
     Exchange-correlation      = BEEF-VDW ( 1  4 27 13 2)
     nstep                     =           50

     celldm(1)=   1.889726  celldm(2)=   0.000000  celldm(3)=   0.000000
     celldm(4)=   0.000000  celldm(5)=   0.000000  celldm(6)=   0.000000

     crystal axes: (cart. coord. in units of alat)
               a(1) = (   6.027834   0.000000   0.000000 )
               a(2) = (  -3.013917   5.220258   0.000000 )
               a(3) = (   0.000000   0.000000  24.921706 )

     reciprocal axes: (cart. coord. in units 2 pi/alat)
               b(1) = (  0.165897  0.095781  0.000000 )
               b(2) = (  0.000000  0.191561  0.000000 )
               b(3) = (  0.000000  0.000000  0.040126 )

     PseudoPot. # 1 for Pd read from file:
     /afs/slac.stanford.edu/u/if/mamunm/psp/gbrv1.5pbe/Pd.UPF
     MD5 check sum: 2d733d2bc2cbfd217af676df1668a4bc
     Pseudo is Ultrasoft + core correction, Zval = 16.0
     Generated by new atomic code, or converted to UPF format
     Using radial grid of  887 points,  6 beta functions with:
                l(1) =   0
                l(2) =   0
                l(3) =   1
                l(4) =   1
                l(5) =   2
                l(6) =   2
     Q(r) pseudized with  8 coefficients,  rinner =    1.130   1.130   1.130
                                                       1.130   1.130

     PseudoPot. # 2 for La read from file:
     /afs/slac.stanford.edu/u/if/mamunm/psp/gbrv1.5pbe/La.UPF
     MD5 check sum: 5937b0c7494ba0601a847275249473aa
     Pseudo is Ultrasoft + core correction, Zval = 11.0
     Generated by new atomic code, or converted to UPF format
     Using radial grid of  995 points,  8 beta functions with:
                l(1) =   0
                l(2) =   0
                l(3) =   1
                l(4) =   1
                l(5) =   2
                l(6) =   2
                l(7) =   3
                l(8) =   3
     Q(r) pseudized with  8 coefficients,  rinner =    1.700   1.700   1.700
                                                       1.700   1.700   1.700
                                                       1.700

     vdW kernel table read from file vdW_kernel_table
     MD5 check sum: 095c7af220d748ca6e76c0b4c6cfb241

     atomic species   valence    mass     pseudopotential
        Pd1           16.00   106.42000     Pd( 1.00)
        La1           11.00   138.90547     La( 1.00)

     No symmetry found

   Cartesian axes

     site n.     atom                  positions (alat units)
         1           Pd1 tau(   1) = (   0.0000000   0.0000000  10.0000000  )
         2           Pd1 tau(   2) = (  -1.5069585   2.6101288  10.0000000  )
         3           Pd1 tau(   3) = (   1.5069585   2.6101288  10.0000000  )
         4           La1 tau(   4) = (   3.0139171   0.0000000  10.0000000  )
         5           Pd1 tau(   5) = (   3.0139171   1.7400858  12.4608530  )
         6           Pd1 tau(   6) = (   1.5069585   4.3502146  12.4608530  )
         7           Pd1 tau(   7) = (  -1.5069585   4.3502146  12.4608530  )
         8           La1 tau(   8) = (   0.0000000   1.7400858  12.4608530  )
         9           Pd1 tau(   9) = (  -0.0000000   3.4801717  14.9217060  )
        10           Pd1 tau(  10) = (   1.5069585   0.8700429  14.9217060  )
        11           Pd1 tau(  11) = (   4.5208756   0.8700429  14.9217060  )
        12           La1 tau(  12) = (   3.0139171   3.4801717  14.9217060  )

     number of k points=    20  Fermi-Dirac smearing, width (Ry)=  0.0110
                       cart. coord. in units 2pi/alat
        k(    1) = (   0.0000000   0.0000000   0.0000000), wk =   0.0555556
        k(    2) = (   0.0000000   0.0319269   0.0000000), wk =   0.1111111
        k(    3) = (   0.0000000   0.0638538   0.0000000), wk =   0.1111111
        k(    4) = (   0.0000000  -0.0957807   0.0000000), wk =   0.0555556
        k(    5) = (   0.0276495   0.0159635   0.0000000), wk =   0.1111111
        k(    6) = (   0.0276495   0.0478904   0.0000000), wk =   0.1111111
        k(    7) = (   0.0276495   0.0798173   0.0000000), wk =   0.1111111
        k(    8) = (   0.0276495  -0.0798173   0.0000000), wk =   0.1111111
        k(    9) = (   0.0276495  -0.0478904   0.0000000), wk =   0.1111111
        k(   10) = (   0.0276495  -0.0159635   0.0000000), wk =   0.1111111
        k(   11) = (   0.0552990   0.0319269   0.0000000), wk =   0.1111111
        k(   12) = (   0.0552990   0.0638538   0.0000000), wk =   0.1111111
        k(   13) = (   0.0552990   0.0957807   0.0000000), wk =   0.1111111
        k(   14) = (   0.0552990  -0.0638538   0.0000000), wk =   0.1111111
        k(   15) = (   0.0552990  -0.0319269   0.0000000), wk =   0.1111111
        k(   16) = (   0.0552990  -0.0000000   0.0000000), wk =   0.1111111
        k(   17) = (  -0.0829485  -0.0478904   0.0000000), wk =   0.0555556
        k(   18) = (  -0.0829485  -0.0159635   0.0000000), wk =   0.1111111
        k(   19) = (  -0.0829485   0.0159635   0.0000000), wk =   0.1111111
        k(   20) = (  -0.0829485  -0.1436711   0.0000000), wk =   0.0555556

     Largest allocated arrays     est. size (Mb)     dimensions
     Largest temporary arrays     est. size (Mb)     dimensions

     Initial potential from superposition of free atoms
     Check: negative starting charge=   -0.882030

     starting charge  172.40373, renormalised to  177.00000

     negative rho (up, down):  9.055E-01 0.000E+00

     *
     * You are using vdW-DF for exchange-correlation in this calculation.
     * Please cite the following three references that made this development
     * possible:
     *
     *   M. Dion, H. Rydberg, E. Schroder, D. C. Langreth, and
     *   B. I. Lundqvist, Phys. Rev. Lett. 92, 246401 (2004).
     *
     *   T. Thonhauser, V. R. Cooper, S. Li, A. Puzder, P. Hyldgaard, and
     *   D. C. Langreth, Phys. Rev. B 76, 125112 (2007).
     *
     *   G. Roman-Perez and J. M. Soler, Phys. Rev. Lett. 103, 096102 (2009).
     *
     *
     * If you are using vdW-DF2, please also cite:
     *
     *   K. Lee, E. D. Murray, L. Kong, B. I. Lundqvist, and
     *   D. C. Langreth, Phys. Rev. B 82, 081101(R) (2010).
     *
     *
     * If you are calculating the stress with vdW-DF, please also cite:
     *
     *   R. Sabatini, E. Kucukbenli, B. Kolb, T. Thonhauser, and
     *   S. de Gironcoli, J. Phys.: Condens. Matter 24, 424209 (2012).
     *

     Carrying out vdW-DF run using the following parameters:

     Nqs =      20    Nr_points =    1024   r_max =   100.000
     q_mesh =
               0.00001000     0.04494208     0.09755937     0.15916263
               0.23128650     0.31572767     0.41458969     0.53033537
               0.66584808     0.82450364     1.01025438     1.22772762
               1.48234092     1.78043706     2.12944203     2.53805004
               3.01644009     3.57652955     4.23227104     5.00000000

     Gradients computed in reciprocal space

     Adding external electric field

     Computed dipole along edir(3) :
        Dipole               -0.0000 Ry au,         -0.0000 Debye
        Dipole field         -0.0000 Ry au

        Potential amp.        0.0000 Ry
        Total length         45.9178 bohr

     Starting wfc are  168 randomized atomic wfcs

     Self-consistent Calculation

     iteration #  1     ecut=    36.75 Ry     beta=0.10
     Davidson diagonalization with overlap
     ethr =  1.00E-02,  avg # of iterations =  2.0

[...]

     total energy              =   -2085.13927635 Ry
     Harris-Foulkes estimate   =   -2115.89032995 Ry
     estimated scf accuracy    <     168.53152314 Ry

[...]

     End of self-consistent calculation

          k = 0.0000 0.0000 0.0000 ( 19735 PWs)   bands (ev):

   -48.3494 -48.3127 -48.3127 -48.2636 -48.2636 -48.2274 -48.1439 -48.0842
   -48.0841 -48.0228 -48.0228 -48.0178 -48.0178 -47.9822 -47.9816 -47.8698
   -47.8697 -47.8079 -47.8078 -47.8070 -47.8070 -47.7796 -47.7752 -47.7395
   -47.7395 -47.7384 -47.7384 -31.1695 -31.1656 -30.3266 -14.9224 -14.8703
   -14.8013 -14.8013 -14.7914 -14.7914 -14.0985 -14.0985 -14.0760  -2.9673
    -2.4501  -2.4501  -2.3530  -2.1620  -2.1620  -2.0226  -1.9724  -1.9633
    -1.9633  -1.8209  -1.8209  -1.7689  -1.5804  -1.4994  -1.0253  -1.0253
    -1.0076  -1.0076  -0.8380  -0.7264  -0.6721  -0.5736  -0.5735  -0.5077
    -0.3859  -0.3859  -0.2573  -0.2573  -0.1488  -0.1488  -0.1053   0.1133
     0.2057   0.2057   0.4711   0.4712   0.4901   0.4901   0.6161   0.6161
     0.6556   0.9652   0.9790   0.9790   1.2091   1.2393   1.4135   2.2100
     2.9135   3.3000   3.5107   3.6831   3.6831   3.6875   3.6875   3.8339
     3.8339   3.8488   3.8643   3.9013   3.9059   3.9059   3.9364   3.9469
     3.9469   3.9935   3.9935   4.0588   4.2035   4.2035   4.3011   4.3011
     4.5217   4.6334   4.6334   4.6737   4.6921   4.8339

[...]

          k =-0.0829-0.0479 0.0000 ( 19946 PWs)   bands (ev):

[...]

     the Fermi energy is     1.7732 ev

!    total energy              =   -2110.75820336 Ry
     Harris-Foulkes estimate   =   -2110.75821629 Ry
     estimated scf accuracy    <       0.00000010 Ry

     The total energy is the sum of the following terms:

     one-electron contribution =  -14677.15766426 Ry
     hartree contribution      =    7382.04819607 Ry
     xc contribution           =    -445.60701922 Ry
     ewald contribution        =    5629.98705461 Ry
     electric field correction =       0.00000000 Ry
     smearing contrib. (-TS)   =      -0.02877057 Ry

     convergence has been achieved in  19 iterations

 BEEF-vdW xc energy contributions
           1 :   -390.266647818894
           2 :    357.489073182022
           3 :   -300.798322019778
           4 :    234.286927137959
           5 :   -172.088148871634
           6 :    123.983913867090
           7 :   -93.3483780161060
           8 :    77.7272264144826
           9 :   -71.3381390415891
          10 :    68.1445508582697
[...]
     Pseudo is Ultrasoft + core correction, Zval = 16.0
     Generated by new atomic code, or converted to UPF format
     Using radial grid of  887 points,  6 beta functions with:
                l(1) =   0
                l(2) =   0
                l(3) =   1
                l(4) =   1
                l(5) =   2
                l(6) =   2
     Q(r) pseudized with  8 coefficients,  rinner =    1.130   1.130   1.130
                                                       1.130   1.130

     PseudoPot. # 2 for La read from file:
     /afs/slac.stanford.edu/u/if/mamunm/psp/gbrv1.5pbe/La.UPF
     MD5 check sum: 5937b0c7494ba0601a847275249473aa
     Pseudo is Ultrasoft + core correction, Zval = 11.0
     Generated by new atomic code, or converted to UPF format
     Using radial grid of  995 points,  8 beta functions with:
                l(1) =   0
                l(2) =   0
                l(3) =   1
                l(4) =   1
                l(5) =   2
                l(6) =   2
                l(7) =   3
                l(8) =   3
     Q(r) pseudized with  8 coefficients,  rinner =    1.700   1.700   1.700
                                                       1.700   1.700   1.700
                                                       1.700

     vdW kernel table read from file vdW_kernel_table
     MD5 check sum: 095c7af220d748ca6e76c0b4c6cfb241

     atomic species   valence    mass     pseudopotential
        Pd1           16.00   106.42000     Pd( 1.00)
        La1           11.00   138.90547     La( 1.00)

     No symmetry found

   Cartesian axes

     site n.     atom                  positions (alat units)
         1           Pd1 tau(   1) = (   0.0000000   0.0000000  10.0000000  )
         2           Pd1 tau(   2) = (  -1.5069585   2.6101288  10.0000000  )
         3           Pd1 tau(   3) = (   1.5069585   2.6101288  10.0000000  )
         4           La1 tau(   4) = (   3.0139171   0.0000000  10.0000000  )
         5           Pd1 tau(   5) = (   3.0139171   1.7400858  12.4608530  )
         6           Pd1 tau(   6) = (   1.5069585   4.3502146  12.4608530  )
         7           Pd1 tau(   7) = (  -1.5069585   4.3502146  12.4608530  )
         8           La1 tau(   8) = (   0.0000000   1.7400858  12.4608530  )
         9           Pd1 tau(   9) = (  -0.0000063   3.5085830  14.8705545  )
        10           Pd1 tau(  10) = (   1.5315623   0.8558309  14.8705482  )
        11           Pd1 tau(  11) = (   4.4962745   0.8558391  14.8705655  )
        12           La1 tau(  12) = (   3.0139092   3.4801685  15.0656900  )

     number of k points=    20  Fermi-Dirac smearing, width (Ry)=  0.0110
                       cart. coord. in units 2pi/alat
        k(    1) = (   0.0000000   0.0000000   0.0000000), wk =   0.0555556
        k(    2) = (   0.0000000   0.0319269   0.0000000), wk =   0.1111111
        k(    3) = (   0.0000000   0.0638538   0.0000000), wk =   0.1111111
        k(    4) = (   0.0000000  -0.0957807   0.0000000), wk =   0.0555556
        k(    5) = (   0.0276495   0.0159635   0.0000000), wk =   0.1111111
        k(    6) = (   0.0276495   0.0478904   0.0000000), wk =   0.1111111
        k(    7) = (   0.0276495   0.0798173   0.0000000), wk =   0.1111111
        k(    8) = (   0.0276495  -0.0798173   0.0000000), wk =   0.1111111
        k(    9) = (   0.0276495  -0.0478904   0.0000000), wk =   0.1111111
        k(   10) = (   0.0276495  -0.0159635   0.0000000), wk =   0.1111111
        k(   11) = (   0.0552990   0.0319269   0.0000000), wk =   0.1111111
        k(   12) = (   0.0552990   0.0638538   0.0000000), wk =   0.1111111
        k(   13) = (   0.0552990   0.0957807   0.0000000), wk =   0.1111111
        k(   14) = (   0.0552990  -0.0638538   0.0000000), wk =   0.1111111
        k(   15) = (   0.0552990  -0.0319269   0.0000000), wk =   0.1111111
        k(   16) = (   0.0552990  -0.0000000   0.0000000), wk =   0.1111111
        k(   17) = (  -0.0829485  -0.0478904   0.0000000), wk =   0.0555556
        k(   18) = (  -0.0829485  -0.0159635   0.0000000), wk =   0.1111111
        k(   19) = (  -0.0829485   0.0159635   0.0000000), wk =   0.1111111
        k(   20) = (  -0.0829485  -0.1436711   0.0000000), wk =   0.0555556

     Largest allocated arrays     est. size (Mb)     dimensions
     Largest temporary arrays     est. size (Mb)     dimensions

     Initial potential from superposition of free atoms
     Check: negative starting charge=   -0.882989

     starting charge  172.40373, renormalised to  177.00000

[...]

     *
     * You are using vdW-DF for exchange-correlation in this calculation.
     * Please cite the following three references that made this development
     * possible:
     *
     *   M. Dion, H. Rydberg, E. Schroder, D. C. Langreth, and
     *   B. I. Lundqvist, Phys. Rev. Lett. 92, 246401 (2004).
     *
     *   T. Thonhauser, V. R. Cooper, S. Li, A. Puzder, P. Hyldgaard, and
     *   D. C. Langreth, Phys. Rev. B 76, 125112 (2007).
     *
     *   G. Roman-Perez and J. M. Soler, Phys. Rev. Lett. 103, 096102 (2009).
     *
     *
     * If you are using vdW-DF2, please also cite:
     *
     *   K. Lee, E. D. Murray, L. Kong, B. I. Lundqvist, and
     *   D. C. Langreth, Phys. Rev. B 82, 081101(R) (2010).
     *
     *
     * If you are calculating the stress with vdW-DF, please also cite:
     *
     *   R. Sabatini, E. Kucukbenli, B. Kolb, T. Thonhauser, and
     *   S. de Gironcoli, J. Phys.: Condens. Matter 24, 424209 (2012).
     *

     Carrying out vdW-DF run using the following parameters:

     Nqs =      20    Nr_points =    1024   r_max =   100.000
     q_mesh =
               0.00001000     0.04494208     0.09755937     0.15916263
               0.23128650     0.31572767     0.41458969     0.53033537
               0.66584808     0.82450364     1.01025438     1.22772762
               1.48234092     1.78043706     2.12944203     2.53805004
               3.01644009     3.57652955     4.23227104     5.00000000

     Gradients computed in reciprocal space

[...]

     Starting wfc are  168 randomized atomic wfcs

     Self-consistent Calculation

[...]

     total energy              =   -2110.76812174 Ry
     Harris-Foulkes estimate   =   -2110.76812434 Ry
     estimated scf accuracy    <       0.00000229 Ry

     iteration # 21     ecut=    36.75 Ry     beta=0.10
     Davidson diagonalization with overlap
     ethr =  1.29E-09,  avg # of iterations =  3.2

[...]

     negative rho (up, down):  8.342E-01 0.000E+00

     Adding external electric field

     Computed dipole along edir(3) :
        Dipole                0.0872 Ry au,          0.2216 Debye
        Dipole field          0.0002 Ry au

        Potential amp.       -0.0190 Ry
        Total length         45.9178 bohr

     End of self-consistent calculation

[...]

          k = 0.0553-0.0000 0.0000 ( 19925 PWs)   bands (ev):

[...]

          k =-0.0829-0.1437 0.0000 ( 19946 PWs)   bands (ev):

   -48.1491 -48.1343 -48.1245 -48.1057 -48.0939 -48.0809 -47.9848 -47.9679
   -47.9673 -47.9505 -47.9466 -47.9246 -47.9088 -47.8951 -47.8849 -47.8110
   -47.7886 -47.7727 -47.7343 -47.7283 -47.7164 -47.7140 -47.6996 -47.6974
   -47.6593 -47.6481 -47.6310 -31.2342 -31.0480 -30.2022 -14.9392 -14.9148
   -14.8636 -14.7828 -14.7686 -14.7146 -14.0691 -14.0127 -13.9694  -1.8445
    -1.7081  -1.6934  -1.5976  -1.5390  -1.4862  -1.4382  -1.2961  -1.2591
    -1.2306  -1.2006  -1.1835  -1.1679  -1.0567  -0.9637  -0.8943  -0.7343
    -0.6608  -0.6490  -0.5909  -0.5538  -0.4687  -0.4442  -0.3686  -0.3331
    -0.2775  -0.2442  -0.2021  -0.1842  -0.1035  -0.1011  -0.0785  -0.0642
     0.0272   0.0318   0.0603   0.1297   0.1570   0.1691   0.1800   0.2290
     0.2971   0.3277   0.4007   0.6501   0.7440   1.0079   1.1928   1.4325
     1.5979   2.0872   2.5387   2.6835   3.2513   3.6338   3.7010   3.7386
     3.7945   3.8164   3.8540   3.8966   3.9088   3.9393   3.9888   4.0092
     4.0224   4.0445   4.0912   4.1052   4.1341   4.1567   4.1936   4.2002
     4.3435   4.5624   4.6237   4.6722   4.8196   4.8910

     the Fermi energy is     1.8726 ev

!    total energy              =   -2110.76811290 Ry
     Harris-Foulkes estimate   =   -2110.76812239 Ry
     estimated scf accuracy    <       0.00000083 Ry

     The total energy is the sum of the following terms:

     one-electron contribution =  -14707.46183539 Ry
     hartree contribution      =    7397.78987093 Ry
     xc contribution           =    -445.58146648 Ry
     ewald contribution        =    5644.51411480 Ry
     electric field correction =       0.00001806 Ry
     smearing contrib. (-TS)   =      -0.02881483 Ry

     convergence has been achieved in  21 iterations

 BEEF-vdW xc energy contributions
           1 :   -390.416845530757
           2 :    357.639744205969
           3 :   -300.947955915080
           4 :    234.433393837633
           5 :   -172.232315785382
           6 :    124.133047961035
           7 :   -93.5144187791810
           8 :    77.9174884701996
           9 :   -71.5461168780993
          10 :    68.3509994129137
          11 :   -64.3300021955068
          12 :    58.2616494134944
          13 :   -50.9925493179334
          14 :    44.0479992310667
          15 :   -38.4561242326257
          16 :    34.3109603595098
          17 :   -31.0717617964959
          18 :    28.1858025691740
          19 :   -25.5435588984584
          20 :    23.4907082052996
          21 :   -22.4644011717381
          22 :    22.5539836655699
          23 :   -23.3062230542752
          24 :    23.9047678805831
          25 :   -23.6034095961012
          26 :    22.1319908723251
          27 :   -19.8292641070772
          28 :    17.4363826424085
          29 :   -15.6889931159570
          30 :    14.9442630959161
          31 :   -36.2512336983771
          32 :   -26.5026595152628

     Forces acting on atoms (Ry/au):

     negative rho (up, down):  8.342E-01 0.000E+00
     atom    1 type  1   force =     0.00000021   -0.00394830    0.00630992
     atom    2 type  1   force =    -0.00341935    0.00197396    0.00631069
     atom    3 type  1   force =     0.00341955    0.00197380    0.00631043
     atom    4 type  2   force =     0.00000019   -0.00000061   -0.01601287
     atom    5 type  1   force =     0.00000035    0.00482092    0.00208987
     atom    6 type  1   force =     0.00417505   -0.00241018    0.00209005
     atom    7 type  1   force =    -0.00417540   -0.00241077    0.00208925
     atom    8 type  2   force =    -0.00000030    0.00000019   -0.00387465
     atom    9 type  1   force =     0.00000018   -0.00054767   -0.00157804
     atom   10 type  1   force =    -0.00047385    0.00027435   -0.00157775
     atom   11 type  1   force =     0.00047352    0.00027400   -0.00157975
     atom   12 type  2   force =    -0.00000014    0.00000031   -0.00057714

     Total force =     0.023004     Total SCF correction =     0.002156

     entering subroutine stress ...

     negative rho (up, down):  8.342E-01 0.000E+00
          total   stress  (Ry/bohr**3)                   (kbar)     P=   -9.52
  -0.00008709  -0.00000000   0.00000000        -12.81     -0.00      0.00
  -0.00000000  -0.00008709   0.00000000         -0.00    -12.81      0.00
   0.00000000   0.00000000  -0.00001999          0.00      0.00     -2.94

 !ASE

     Writing output data file calc.save

     General routines

     Parallel routines

   This run was terminated on:  14:23: 3  31Dec2018

   JOB DONE.
Job  /afs/slac/g/suncat/bin/suncat-tsmpirun -x LD_LIBRARY_PATH -wdir /scratch/qe648772_etcnA pw.x -in pw.inp

TID   HOST_NAME   COMMAND_LINE            STATUS            TERMINATION_TIME
00000 suncat0251 pw.x -in pw.inp   Done                     12/31/2018 14:23:03
00001 suncat0251 pw.x -in pw.inp   Done                     12/31/2018 14:23:03
00002 suncat0251 pw.x -in pw.inp   Done                     12/31/2018 14:23:03
00003 suncat0251 pw.x -in pw.inp   Done                     12/31/2018 14:23:03
00004 suncat0251 pw.x -in pw.inp   Done                     12/31/2018 14:23:03
00005 suncat0251 pw.x -in pw.inp   Done                     12/31/2018 14:23:03
00006 suncat0251 pw.x -in pw.inp   Done                     12/31/2018 14:23:03
00007 suncat0251 pw.x -in pw.inp   Done                     12/31/2018 14:23:03
00008 suncat0244 pw.x -in pw.inp   Done                     12/31/2018 14:23:03
00009 suncat0244 pw.x -in pw.inp   Done                     12/31/2018 14:23:03
00010 suncat0244 pw.x -in pw.inp   Done                     12/31/2018 14:23:03
00011 suncat0244 pw.x -in pw.inp   Done                     12/31/2018 14:23:03
00012 suncat0244 pw.x -in pw.inp   Done                     12/31/2018 14:23:03
00013 suncat0244 pw.x -in pw.inp   Done                     12/31/2018 14:23:03
00014 suncat0244 pw.x -in pw.inp   Done                     12/31/2018 14:23:03
00015 suncat0244 pw.x -in pw.inp   Done                     12/31/2018 14:23:03
00016 suncat0243 pw.x -in pw.inp   Done                     12/31/2018 14:23:03
00017 suncat0243 pw.x -in pw.inp   Done                     12/31/2018 14:23:03
00018 suncat0243 pw.x -in pw.inp   Done                     12/31/2018 14:23:03
00019 suncat0243 pw.x -in pw.inp   Done                     12/31/2018 14:23:03
00020 suncat0243 pw.x -in pw.inp   Done                     12/31/2018 14:23:03
00021 suncat0243 pw.x -in pw.inp   Done                     12/31/2018 14:23:03
00022 suncat0243 pw.x -in pw.inp   Done                     12/31/2018 14:23:03
00023 suncat0243 pw.x -in pw.inp   Done                     12/31/2018 14:23:03
00024 suncat0242 pw.x -in pw.inp   Done                     12/31/2018 14:23:03
00025 suncat0242 pw.x -in pw.inp   Done                     12/31/2018 14:23:03
00026 suncat0242 pw.x -in pw.inp   Done                     12/31/2018 14:23:03
00027 suncat0242 pw.x -in pw.inp   Done                     12/31/2018 14:23:03
00028 suncat0242 pw.x -in pw.inp   Done                     12/31/2018 14:23:03
00029 suncat0242 pw.x -in pw.inp   Done                     12/31/2018 14:23:03
00030 suncat0242 pw.x -in pw.inp   Done                     12/31/2018 14:23:03
00031 suncat0242 pw.x -in pw.inp   Done                     12/31/2018 14:23:03
00032 suncat0209 pw.x -in pw.inp   Done                     12/31/2018 14:23:03
00033 suncat0209 pw.x -in pw.inp   Done                     12/31/2018 14:23:03
00034 suncat0209 pw.x -in pw.inp   Done                     12/31/2018 14:23:03
00035 suncat0209 pw.x -in pw.inp   Done                     12/31/2018 14:23:03
00036 suncat0209 pw.x -in pw.inp   Done                     12/31/2018 14:23:03
00037 suncat0209 pw.x -in pw.inp   Done                     12/31/2018 14:23:03
00038 suncat0209 pw.x -in pw.inp   Done                     12/31/2018 14:23:03
00039 suncat0209 pw.x -in pw.inp   Done                     12/31/2018 14:23:03
00040 suncat0205 pw.x -in pw.inp   Done                     12/31/2018 14:23:03
00041 suncat0205 pw.x -in pw.inp   Done                     12/31/2018 14:23:03
00042 suncat0205 pw.x -in pw.inp   Done                     12/31/2018 14:23:03
00043 suncat0205 pw.x -in pw.inp   Done                     12/31/2018 14:23:03
00044 suncat0205 pw.x -in pw.inp   Done                     12/31/2018 14:23:03
00045 suncat0205 pw.x -in pw.inp   Done                     12/31/2018 14:23:03
00046 suncat0205 pw.x -in pw.inp   Done                     12/31/2018 14:23:03
00047 suncat0205 pw.x -in pw.inp   Done                     12/31/2018 14:23:03
00048 suncat0204 pw.x -in pw.inp   Done                     12/31/2018 14:23:03
00049 suncat0204 pw.x -in pw.inp   Done                     12/31/2018 14:23:03
00050 suncat0204 pw.x -in pw.inp   Done                     12/31/2018 14:23:03
00051 suncat0204 pw.x -in pw.inp   Done                     12/31/2018 14:23:03
00052 suncat0204 pw.x -in pw.inp   Done                     12/31/2018 14:23:03
00053 suncat0204 pw.x -in pw.inp   Done                     12/31/2018 14:23:03
00054 suncat0204 pw.x -in pw.inp   Done                     12/31/2018 14:23:03
00055 suncat0204 pw.x -in pw.inp   Done                     12/31/2018 14:23:03
00056 suncat0203 pw.x -in pw.inp   Done                     12/31/2018 14:23:03
00057 suncat0203 pw.x -in pw.inp   Done                     12/31/2018 14:23:03
00058 suncat0203 pw.x -in pw.inp   Done                     12/31/2018 14:23:03
00059 suncat0203 pw.x -in pw.inp   Done                     12/31/2018 14:23:03
00060 suncat0203 pw.x -in pw.inp   Done                     12/31/2018 14:23:03
00061 suncat0203 pw.x -in pw.inp   Done                     12/31/2018 14:23:03
00062 suncat0203 pw.x -in pw.inp   Done                     12/31/2018 14:23:03
00063 suncat0203 pw.x -in pw.inp   Done                     12/31/2018 14:23:03