     Program PWSCF v.5.1rc2 (svn rev. 11289) starts on 26Dec2018 at  8: 0:53

     Current dimensions of program PWSCF are:
     Max number of different atomic species (ntypx) = 10
     Max number of k-points (npk) =  40000
     Max angular momentum in pseudopotentials (lmaxx) =  3
     Presently stress not available with electric field

     IMPORTANT: XC functional enforced from input :
     Exchange-correlation      = BEEF-VDW ( 1  4 27 13 2)
     Any further DFT definition will be discarded
     Please, verify this is what you really want

     Subspace diagonalization in iterative solution of the eigenvalue problem:
     a serial algorithm will be used

     bravais-lattice index     =            0
     lattice parameter (alat)  =       1.8897  a.u.
     unit-cell volume          =    5834.5504 (a.u.)^3
     number of atoms/cell      =           12
     number of atomic types    =            2
     number of electrons       =       147.00
     number of Kohn-Sham states=          103
     kinetic-energy cutoff     =      36.7493  Ry
     charge density cutoff     =     367.4932  Ry
     convergence threshold     =      1.0E-06
     mixing beta               =       0.1000
     number of iterations used =           10  plain     mixing
     Exchange-correlation      = BEEF-VDW ( 1  4 27 13 2)
     nstep                     =           50

     celldm(1)=   1.889726  celldm(2)=   0.000000  celldm(3)=   0.000000
     celldm(4)=   0.000000  celldm(5)=   0.000000  celldm(6)=   0.000000

     crystal axes: (cart. coord. in units of alat)
               a(1) = (   6.301092   0.000000   0.000000 )
               a(2) = (  -3.150546   5.456906   0.000000 )
               a(3) = (   0.000000   0.000000  25.144820 )

     reciprocal axes: (cart. coord. in units 2 pi/alat)
               b(1) = (  0.158703  0.091627  0.000000 )
               b(2) = (  0.000000  0.183254  0.000000 )
               b(3) = (  0.000000  0.000000  0.039770 )

     PseudoPot. # 1 for Hf read from file:
     /afs/slac.stanford.edu/u/if/mamunm/psp/gbrv1.5pbe/Hf.UPF
     MD5 check sum: 8ee9378dfe14276e333edf04c5e4aa26
     Pseudo is Ultrasoft + core correction, Zval = 12.0
     Generated by new atomic code, or converted to UPF format
     Using radial grid of  921 points,  8 beta functions with:
                l(1) =   0
                l(2) =   0
                l(3) =   0
                l(4) =   1
                l(5) =   1
                l(6) =   2
                l(7) =   2
                l(8) =   3
     Q(r) pseudized with  6 coefficients,  rinner =    1.200   1.200   1.200
                                                       1.200   1.200   1.200
                                                       1.200

     PseudoPot. # 2 for Tl read from file:
     /afs/slac.stanford.edu/u/if/mamunm/psp/gbrv1.5pbe/Tl.UPF
     MD5 check sum: b76cf1f7e72655a2b2c53cf6385d7059
     Pseudo is Ultrasoft + core correction, Zval = 13.0
     Generated by new atomic code, or converted to UPF format
     Using radial grid of  899 points,  6 beta functions with:
                l(1) =   0
                l(2) =   0
                l(3) =   1
                l(4) =   1
                l(5) =   2
                l(6) =   2
     Q(r) pseudized with  6 coefficients,  rinner =    1.100   1.100   1.100
                                                       1.100   1.100

     vdW kernel table read from file vdW_kernel_table
     MD5 check sum: 095c7af220d748ca6e76c0b4c6cfb241

     atomic species   valence    mass     pseudopotential
        Hf1           12.00   178.49000     Hf( 1.00)
        Tl1           13.00   204.38000     Tl( 1.00)

     No symmetry found

   Cartesian axes

     site n.     atom                  positions (alat units)
         1           Hf1 tau(   1) = (   0.0000000   0.0000000  10.0000000  )
         2           Hf1 tau(   2) = (  -1.5752730   2.7284528  10.0000000  )
         3           Hf1 tau(   3) = (   1.5752730   2.7284528  10.0000000  )
         4           Tl1 tau(   4) = (   3.1505460   0.0000000  10.0000000  )
         5           Hf1 tau(   5) = (   3.1505460   1.8189686  12.5724100  )
         6           Hf1 tau(   6) = (   1.5752730   4.5474214  12.5724100  )
         7           Hf1 tau(   7) = (  -1.5752730   4.5474214  12.5724100  )
         8           Tl1 tau(   8) = (   0.0000000   1.8189686  12.5724100  )
         9           Hf1 tau(   9) = (  -0.0000000   3.6379371  15.1448200  )
        10           Hf1 tau(  10) = (   1.5752730   0.9094843  15.1448200  )
        11           Hf1 tau(  11) = (   4.7258189   0.9094843  15.1448200  )
        12           Tl1 tau(  12) = (   3.1505460   3.6379371  15.1448200  )

     number of k points=    20  Fermi-Dirac smearing, width (Ry)=  0.0110
                       cart. coord. in units 2pi/alat
        k(    1) = (   0.0000000   0.0000000   0.0000000), wk =   0.0555556
        k(    2) = (   0.0000000   0.0305423   0.0000000), wk =   0.1111111
        k(    3) = (   0.0000000   0.0610847   0.0000000), wk =   0.1111111
        k(    4) = (   0.0000000  -0.0916270   0.0000000), wk =   0.0555556
        k(    5) = (   0.0264504   0.0152712   0.0000000), wk =   0.1111111
        k(    6) = (   0.0264504   0.0458135   0.0000000), wk =   0.1111111
        k(    7) = (   0.0264504   0.0763558   0.0000000), wk =   0.1111111
        k(    8) = (   0.0264504  -0.0763558   0.0000000), wk =   0.1111111
        k(    9) = (   0.0264504  -0.0458135   0.0000000), wk =   0.1111111
        k(   10) = (   0.0264504  -0.0152712   0.0000000), wk =   0.1111111
        k(   11) = (   0.0529009   0.0305423   0.0000000), wk =   0.1111111
        k(   12) = (   0.0529009   0.0610847   0.0000000), wk =   0.1111111
        k(   13) = (   0.0529009   0.0916270   0.0000000), wk =   0.1111111
        k(   14) = (   0.0529009  -0.0610847   0.0000000), wk =   0.1111111
        k(   15) = (   0.0529009  -0.0305423   0.0000000), wk =   0.1111111
        k(   16) = (   0.0529009   0.0000000   0.0000000), wk =   0.1111111
        k(   17) = (  -0.0793513  -0.0458135   0.0000000), wk =   0.0555556
        k(   18) = (  -0.0793513  -0.0152712   0.0000000), wk =   0.1111111
        k(   19) = (  -0.0793513   0.0152712   0.0000000), wk =   0.1111111
        k(   20) = (  -0.0793513  -0.1374405   0.0000000), wk =   0.0555556

     Largest allocated arrays     est. size (Mb)     dimensions
     Largest temporary arrays     est. size (Mb)     dimensions

     Check: negative/imaginary core charge=   -0.000003    0.000000

     Initial potential from superposition of free atoms
     Check: negative starting charge=   -1.122329

     starting charge  128.98538, renormalised to  147.00000

     negative rho (up, down):  1.279E+00 0.000E+00

     *
     * You are using vdW-DF for exchange-correlation in this calculation.
     * Please cite the following three references that made this development
     * possible:
     *
     *   M. Dion, H. Rydberg, E. Schroder, D. C. Langreth, and
     *   B. I. Lundqvist, Phys. Rev. Lett. 92, 246401 (2004).
     *
     *   T. Thonhauser, V. R. Cooper, S. Li, A. Puzder, P. Hyldgaard, and
     *   D. C. Langreth, Phys. Rev. B 76, 125112 (2007).
     *
     *   G. Roman-Perez and J. M. Soler, Phys. Rev. Lett. 103, 096102 (2009).
     *
     *
     * If you are using vdW-DF2, please also cite:
     *
     *   K. Lee, E. D. Murray, L. Kong, B. I. Lundqvist, and
     *   D. C. Langreth, Phys. Rev. B 82, 081101(R) (2010).
     *
     *
     * If you are calculating the stress with vdW-DF, please also cite:
     *
     *   R. Sabatini, E. Kucukbenli, B. Kolb, T. Thonhauser, and
     *   S. de Gironcoli, J. Phys.: Condens. Matter 24, 424209 (2012).
     *

     Carrying out vdW-DF run using the following parameters:

     Nqs =      20    Nr_points =    1024   r_max =   100.000
     q_mesh =
               0.00001000     0.04494208     0.09755937     0.15916263
               0.23128650     0.31572767     0.41458969     0.53033537
               0.66584808     0.82450364     1.01025438     1.22772762
               1.48234092     1.78043706     2.12944203     2.53805004
               3.01644009     3.57652955     4.23227104     5.00000000

     Gradients computed in reciprocal space

     Adding external electric field

     Computed dipole along edir(3) :
        Dipole               -0.0000 Ry au,         -0.0000 Debye
        Dipole field         -0.0000 Ry au

        Potential amp.        0.0000 Ry
        Total length         46.3289 bohr

     Starting wfc are  144 randomized atomic wfcs

     Self-consistent Calculation

     iteration #  1     ecut=    36.75 Ry     beta=0.10
     Davidson diagonalization with overlap
     ethr =  1.00E-02,  avg # of iterations =  7.9

[...]

     total energy              =   -1881.32596812 Ry
     Harris-Foulkes estimate   =   -1896.18160705 Ry
     estimated scf accuracy    <      87.09240328 Ry

[...]

     End of self-consistent calculation

          k = 0.0000 0.0000 0.0000 ( 22003 PWs)   bands (ev):

   -61.1459 -61.1454 -61.1151 -61.1151 -61.1149 -61.1149 -60.6317 -60.6010
   -60.6002 -29.8579 -29.8561 -29.8111 -29.7957 -29.7957 -29.7759 -29.7759
   -29.7552 -29.7552 -29.7449 -29.7105 -29.7105 -29.5292 -29.5207 -29.4888
   -29.3469 -29.3468 -29.2926 -29.2926 -29.2671 -29.2670 -29.1153 -29.1149
   -29.0705 -29.0644 -28.8476 -28.8472 -10.0257 -10.0257 -10.0149  -9.9784
    -9.9783  -9.8783  -9.8783  -9.8780  -9.8780  -9.8545  -9.8336  -9.7806
    -9.7806  -9.7710  -9.7710  -6.9373  -5.6933  -5.2717  -2.0687  -1.9972
    -1.7155  -0.6959  -0.6958  -0.3809  -0.3809  -0.0383  -0.0382   0.0569
     0.2658   0.7087   0.7088   0.8636   0.8636   1.2150   1.2962   1.4253
     1.7529   1.7529   1.8142   1.8142   2.1427   2.1427   2.1515   2.4092
     2.4093   2.4976   2.7467   3.0934   3.4330   4.3806   4.3806   4.4497
     4.6091   4.6091   4.6687   4.6763   4.6763   4.7732   4.7732   4.8190
     4.8695   4.9522   5.0643   5.0643   5.1190   5.1616   5.1616

[...]

          k =-0.0794-0.0458 0.0000 ( 21892 PWs)   bands (ev):

[...]

     the Fermi energy is     1.6394 ev

!    total energy              =   -1885.25948143 Ry
     Harris-Foulkes estimate   =   -1885.25946126 Ry
     estimated scf accuracy    <       0.00000091 Ry

     The total energy is the sum of the following terms:

     one-electron contribution =   -8881.18849571 Ry
     hartree contribution      =    4450.21237982 Ry
     xc contribution           =    -888.19185965 Ry
     ewald contribution        =    3433.99662222 Ry
     electric field correction =       0.00000004 Ry
     smearing contrib. (-TS)   =      -0.08812814 Ry

     convergence has been achieved in  19 iterations

 BEEF-vdW xc energy contributions
           1 :   -800.579408933078
           2 :    744.459759771811
           3 :   -644.857933516943
           4 :    522.227966856288
           5 :   -397.948342574706
           6 :    288.299970655212
           7 :   -201.626412488212
           8 :    138.929584711471
           9 :   -96.6352689525318
          10 :    69.5993095741021
          11 :   -53.0529775242449
          12 :    43.1650880258172
[...]
     MD5 check sum: 8ee9378dfe14276e333edf04c5e4aa26
     Pseudo is Ultrasoft + core correction, Zval = 12.0
     Generated by new atomic code, or converted to UPF format
     Using radial grid of  921 points,  8 beta functions with:
                l(1) =   0
                l(2) =   0
                l(3) =   0
                l(4) =   1
                l(5) =   1
                l(6) =   2
                l(7) =   2
                l(8) =   3
     Q(r) pseudized with  6 coefficients,  rinner =    1.200   1.200   1.200
                                                       1.200   1.200   1.200
                                                       1.200

     PseudoPot. # 2 for Tl read from file:
     /afs/slac.stanford.edu/u/if/mamunm/psp/gbrv1.5pbe/Tl.UPF
     MD5 check sum: b76cf1f7e72655a2b2c53cf6385d7059
     Pseudo is Ultrasoft + core correction, Zval = 13.0
     Generated by new atomic code, or converted to UPF format
     Using radial grid of  899 points,  6 beta functions with:
                l(1) =   0
                l(2) =   0
                l(3) =   1
                l(4) =   1
                l(5) =   2
                l(6) =   2
     Q(r) pseudized with  6 coefficients,  rinner =    1.100   1.100   1.100
                                                       1.100   1.100

     vdW kernel table read from file vdW_kernel_table
     MD5 check sum: 095c7af220d748ca6e76c0b4c6cfb241

     atomic species   valence    mass     pseudopotential
        Hf1           12.00   178.49000     Hf( 1.00)
        Tl1           13.00   204.38000     Tl( 1.00)

     No symmetry found

   Cartesian axes

     site n.     atom                  positions (alat units)
         1           Hf1 tau(   1) = (   0.0000000   0.0000000  10.0000000  )
         2           Hf1 tau(   2) = (  -1.5752730   2.7284528  10.0000000  )
         3           Hf1 tau(   3) = (   1.5752730   2.7284528  10.0000000  )
         4           Tl1 tau(   4) = (   3.1505460   0.0000000  10.0000000  )
         5           Hf1 tau(   5) = (   3.1505460   1.8189686  12.5724100  )
         6           Hf1 tau(   6) = (   1.5752730   4.5474214  12.5724100  )
         7           Hf1 tau(   7) = (  -1.5752730   4.5474214  12.5724100  )
         8           Tl1 tau(   8) = (   0.0000000   1.8189686  12.5724100  )
         9           Hf1 tau(   9) = (  -0.0000108   3.6484439  15.0667402  )
        10           Hf1 tau(  10) = (   1.5853449   0.9031878  15.0665266  )
        11           Hf1 tau(  11) = (   4.7157408   0.9031952  15.0665345  )
        12           Tl1 tau(  12) = (   3.1505262   3.6380022  15.4056330  )

     number of k points=    20  Fermi-Dirac smearing, width (Ry)=  0.0110
                       cart. coord. in units 2pi/alat
        k(    1) = (   0.0000000   0.0000000   0.0000000), wk =   0.0555556
        k(    2) = (   0.0000000   0.0305423   0.0000000), wk =   0.1111111
        k(    3) = (   0.0000000   0.0610847   0.0000000), wk =   0.1111111
        k(    4) = (   0.0000000  -0.0916270   0.0000000), wk =   0.0555556
        k(    5) = (   0.0264504   0.0152712   0.0000000), wk =   0.1111111
        k(    6) = (   0.0264504   0.0458135   0.0000000), wk =   0.1111111
        k(    7) = (   0.0264504   0.0763558   0.0000000), wk =   0.1111111
        k(    8) = (   0.0264504  -0.0763558   0.0000000), wk =   0.1111111
        k(    9) = (   0.0264504  -0.0458135   0.0000000), wk =   0.1111111
        k(   10) = (   0.0264504  -0.0152712   0.0000000), wk =   0.1111111
        k(   11) = (   0.0529009   0.0305423   0.0000000), wk =   0.1111111
        k(   12) = (   0.0529009   0.0610847   0.0000000), wk =   0.1111111
        k(   13) = (   0.0529009   0.0916270   0.0000000), wk =   0.1111111
        k(   14) = (   0.0529009  -0.0610847   0.0000000), wk =   0.1111111
        k(   15) = (   0.0529009  -0.0305423   0.0000000), wk =   0.1111111
        k(   16) = (   0.0529009   0.0000000   0.0000000), wk =   0.1111111
        k(   17) = (  -0.0793513  -0.0458135   0.0000000), wk =   0.0555556
        k(   18) = (  -0.0793513  -0.0152712   0.0000000), wk =   0.1111111
        k(   19) = (  -0.0793513   0.0152712   0.0000000), wk =   0.1111111
        k(   20) = (  -0.0793513  -0.1374405   0.0000000), wk =   0.0555556

     Largest allocated arrays     est. size (Mb)     dimensions
     Largest temporary arrays     est. size (Mb)     dimensions

     Check: negative/imaginary core charge=   -0.000003    0.000000

     Initial potential from superposition of free atoms
     Check: negative starting charge=   -1.122321

     starting charge  128.98538, renormalised to  147.00000

[...]

     *
     * You are using vdW-DF for exchange-correlation in this calculation.
     * Please cite the following three references that made this development
     * possible:
     *
     *   M. Dion, H. Rydberg, E. Schroder, D. C. Langreth, and
     *   B. I. Lundqvist, Phys. Rev. Lett. 92, 246401 (2004).
     *
     *   T. Thonhauser, V. R. Cooper, S. Li, A. Puzder, P. Hyldgaard, and
     *   D. C. Langreth, Phys. Rev. B 76, 125112 (2007).
     *
     *   G. Roman-Perez and J. M. Soler, Phys. Rev. Lett. 103, 096102 (2009).
     *
     *
     * If you are using vdW-DF2, please also cite:
     *
     *   K. Lee, E. D. Murray, L. Kong, B. I. Lundqvist, and
     *   D. C. Langreth, Phys. Rev. B 82, 081101(R) (2010).
     *
     *
     * If you are calculating the stress with vdW-DF, please also cite:
     *
     *   R. Sabatini, E. Kucukbenli, B. Kolb, T. Thonhauser, and
     *   S. de Gironcoli, J. Phys.: Condens. Matter 24, 424209 (2012).
     *

     Carrying out vdW-DF run using the following parameters:

     Nqs =      20    Nr_points =    1024   r_max =   100.000
     q_mesh =
               0.00001000     0.04494208     0.09755937     0.15916263
               0.23128650     0.31572767     0.41458969     0.53033537
               0.66584808     0.82450364     1.01025438     1.22772762
               1.48234092     1.78043706     2.12944203     2.53805004
               3.01644009     3.57652955     4.23227104     5.00000000

     Gradients computed in reciprocal space

[...]

     Starting wfc are  144 randomized atomic wfcs

     Self-consistent Calculation

[...]

     total energy              =   -1885.27939896 Ry
     Harris-Foulkes estimate   =   -1885.27939544 Ry
     estimated scf accuracy    <       0.00000175 Ry

     iteration # 20     ecut=    36.75 Ry     beta=0.10
     Davidson diagonalization with overlap
     ethr =  1.19E-09,  avg # of iterations =  2.7

[...]

     negative rho (up, down):  1.190E+00 0.000E+00

     Adding external electric field

     Computed dipole along edir(3) :
        Dipole               -0.0372 Ry au,         -0.0946 Debye
        Dipole field         -0.0001 Ry au

        Potential amp.        0.0074 Ry
        Total length         46.3289 bohr

     End of self-consistent calculation

[...]

          k = 0.0529 0.0000 0.0000 ( 21997 PWs)   bands (ev):

[...]

          k =-0.0794-0.1374 0.0000 ( 21892 PWs)   bands (ev):

   -61.1825 -61.1723 -61.1620 -61.0659 -61.0549 -61.0450 -60.6068 -60.5964
   -60.5861 -29.8563 -29.8208 -29.8156 -29.7813 -29.7527 -29.7167 -29.7142
   -29.7056 -29.6872 -29.6605 -29.6589 -29.6042 -29.5740 -29.5519 -29.5518
   -29.4679 -29.3660 -29.3655 -29.2808 -29.2120 -29.2012 -29.1739 -29.1654
   -29.0778 -29.0042 -28.9662 -28.8536 -10.0598 -10.0305 -10.0253  -9.9917
    -9.9894  -9.9115  -9.8707  -9.8504  -9.8240  -9.8211  -9.7314  -9.6978
    -9.6574  -9.6277  -9.6254  -5.9114  -5.3962  -4.8917  -3.0915  -2.2516
    -2.0731  -1.7153  -0.6325  -0.4419  -0.4133  -0.1550   0.1566   0.2329
     0.2572   0.7369   0.8201   0.8562   0.9469   1.0454   1.3298   1.4168
     1.4796   1.5395   1.5452   1.7925   1.8536   1.9859   2.3264   2.4901
     2.5049   2.6942   2.8140   2.9278   3.1940   3.7937   3.9440   4.1160
     4.1374   4.1416   4.1728   4.2863   4.4271   4.5219   4.5735   4.5893
     4.6290   4.8683   4.8888   4.9673   5.2496   5.4644   5.5632

     the Fermi energy is     1.5970 ev

!    total energy              =   -1885.27941449 Ry
     Harris-Foulkes estimate   =   -1885.27939903 Ry
     estimated scf accuracy    <       0.00000042 Ry

     The total energy is the sum of the following terms:

     one-electron contribution =   -8862.89378651 Ry
     hartree contribution      =    4441.09971703 Ry
     xc contribution           =    -888.23432783 Ry
     ewald contribution        =    3424.83868939 Ry
     electric field correction =       0.00000298 Ry
     smearing contrib. (-TS)   =      -0.08970955 Ry

     convergence has been achieved in  20 iterations

 BEEF-vdW xc energy contributions
           1 :   -800.931384010453
           2 :    744.805944286847
           3 :   -645.193943818453
           4 :    522.552085915493
           5 :   -398.262396958036
           6 :    288.612395916220
           7 :   -201.950076788368
           8 :    139.270922777924
           9 :   -96.9827687672317
          10 :    69.9262182147532
          11 :   -53.3349445042928
          12 :    43.4013351989685
          13 :   -37.0169947049347
          14 :    31.4563588433149
          15 :   -24.5038308277973
          16 :    14.9502538734235
          17 :   -3.04260760355760
          18 :   -9.55985079680784
          19 :    20.4309971200155
          20 :   -27.3638097722329
          21 :    29.2149745432877
          22 :   -26.2484241032557
          23 :    19.9077492536838
          24 :   -12.2468864969844
          25 :    5.32291472655209
          26 :  -0.758147731579470
          27 :  -0.505824901537949
          28 :   -1.67685743060599
          29 :    6.62586007483117
          30 :   -12.9334317188349
          31 :   -58.8808830113040
          32 :   -42.6159241546484

     Forces acting on atoms (Ry/au):

     negative rho (up, down):  1.190E+00 0.000E+00
     atom    1 type  1   force =    -0.00000154   -0.00642033    0.01188515
     atom    2 type  1   force =    -0.00559704    0.00323472    0.01177583
     atom    3 type  1   force =     0.00559688    0.00323491    0.01177490
     atom    4 type  2   force =    -0.00000161    0.00004743   -0.03010105
     atom    5 type  1   force =     0.00000270    0.00903683    0.00058021
     atom    6 type  1   force =     0.00778524   -0.00451581    0.00054424
     atom    7 type  1   force =    -0.00778753   -0.00452054    0.00054043
     atom    8 type  2   force =     0.00000352    0.00000406   -0.00951096
     atom    9 type  1   force =    -0.00000016    0.00095175    0.00062835
     atom   10 type  1   force =     0.00081707   -0.00048335    0.00063443
     atom   11 type  1   force =    -0.00081975   -0.00048426    0.00063237
     atom   12 type  2   force =     0.00000222   -0.00008541    0.00061611

     Total force =     0.042295     Total SCF correction =     0.002563

     entering subroutine stress ...

     negative rho (up, down):  1.190E+00 0.000E+00
          total   stress  (Ry/bohr**3)                   (kbar)     P=  -12.85
  -0.00011274  -0.00000000   0.00000000        -16.59     -0.00      0.00
  -0.00000000  -0.00011264   0.00000006         -0.00    -16.57      0.01
   0.00000000   0.00000006  -0.00003672          0.00      0.01     -5.40

 !ASE

     Writing output data file calc.save

     General routines

     Parallel routines

   This run was terminated on:   9:43: 2  26Dec2018

   JOB DONE.
Job  /afs/slac/g/suncat/bin/suncat-tsmpirun -x LD_LIBRARY_PATH -wdir /scratch/qe109776_cdPNN pw.x -in pw.inp

TID   HOST_NAME   COMMAND_LINE            STATUS            TERMINATION_TIME
00000 suncat0024 pw.x -in pw.inp   Done                     12/26/2018 09:43:02
00001 suncat0024 pw.x -in pw.inp   Done                     12/26/2018 09:43:02
00002 suncat0024 pw.x -in pw.inp   Done                     12/26/2018 09:43:02
00003 suncat0024 pw.x -in pw.inp   Done                     12/26/2018 09:43:02
00004 suncat0024 pw.x -in pw.inp   Done                     12/26/2018 09:43:02
00005 suncat0024 pw.x -in pw.inp   Done                     12/26/2018 09:43:02
00006 suncat0024 pw.x -in pw.inp   Done                     12/26/2018 09:43:02
00007 suncat0024 pw.x -in pw.inp   Done                     12/26/2018 09:43:02
00008 suncat0023 pw.x -in pw.inp   Done                     12/26/2018 09:43:02
00009 suncat0023 pw.x -in pw.inp   Done                     12/26/2018 09:43:02
00010 suncat0023 pw.x -in pw.inp   Done                     12/26/2018 09:43:02
00011 suncat0023 pw.x -in pw.inp   Done                     12/26/2018 09:43:02
00012 suncat0023 pw.x -in pw.inp   Done                     12/26/2018 09:43:02
00013 suncat0023 pw.x -in pw.inp   Done                     12/26/2018 09:43:02
00014 suncat0023 pw.x -in pw.inp   Done                     12/26/2018 09:43:02
00015 suncat0023 pw.x -in pw.inp   Done                     12/26/2018 09:43:02
00016 suncat0022 pw.x -in pw.inp   Done                     12/26/2018 09:43:02
00017 suncat0022 pw.x -in pw.inp   Done                     12/26/2018 09:43:02
00018 suncat0022 pw.x -in pw.inp   Done                     12/26/2018 09:43:02
00019 suncat0022 pw.x -in pw.inp   Done                     12/26/2018 09:43:02
00020 suncat0022 pw.x -in pw.inp   Done                     12/26/2018 09:43:02
00021 suncat0022 pw.x -in pw.inp   Done                     12/26/2018 09:43:02
00022 suncat0022 pw.x -in pw.inp   Done                     12/26/2018 09:43:02
00023 suncat0022 pw.x -in pw.inp   Done                     12/26/2018 09:43:02
00024 suncat0018 pw.x -in pw.inp   Done                     12/26/2018 09:43:02
00025 suncat0018 pw.x -in pw.inp   Done                     12/26/2018 09:43:02
00026 suncat0018 pw.x -in pw.inp   Done                     12/26/2018 09:43:02
00027 suncat0018 pw.x -in pw.inp   Done                     12/26/2018 09:43:02
00028 suncat0018 pw.x -in pw.inp   Done                     12/26/2018 09:43:02
00029 suncat0018 pw.x -in pw.inp   Done                     12/26/2018 09:43:02
00030 suncat0018 pw.x -in pw.inp   Done                     12/26/2018 09:43:02
00031 suncat0018 pw.x -in pw.inp   Done                     12/26/2018 09:43:02
00032 suncat0017 pw.x -in pw.inp   Done                     12/26/2018 09:43:02
00033 suncat0017 pw.x -in pw.inp   Done                     12/26/2018 09:43:02
00034 suncat0017 pw.x -in pw.inp   Done                     12/26/2018 09:43:02
00035 suncat0017 pw.x -in pw.inp   Done                     12/26/2018 09:43:02
00036 suncat0017 pw.x -in pw.inp   Done                     12/26/2018 09:43:02
00037 suncat0017 pw.x -in pw.inp   Done                     12/26/2018 09:43:02
00038 suncat0017 pw.x -in pw.inp   Done                     12/26/2018 09:43:02
00039 suncat0017 pw.x -in pw.inp   Done                     12/26/2018 09:43:02
00040 suncat0016 pw.x -in pw.inp   Done                     12/26/2018 09:43:02
00041 suncat0016 pw.x -in pw.inp   Done                     12/26/2018 09:43:02
00042 suncat0016 pw.x -in pw.inp   Done                     12/26/2018 09:43:02
00043 suncat0016 pw.x -in pw.inp   Done                     12/26/2018 09:43:02
00044 suncat0016 pw.x -in pw.inp   Done                     12/26/2018 09:43:02
00045 suncat0016 pw.x -in pw.inp   Done                     12/26/2018 09:43:02
00046 suncat0016 pw.x -in pw.inp   Done                     12/26/2018 09:43:02
00047 suncat0016 pw.x -in pw.inp   Done                     12/26/2018 09:43:02
00048 suncat0014 pw.x -in pw.inp   Done                     12/26/2018 09:43:02
00049 suncat0014 pw.x -in pw.inp   Done                     12/26/2018 09:43:02
00050 suncat0014 pw.x -in pw.inp   Done                     12/26/2018 09:43:02
00051 suncat0014 pw.x -in pw.inp   Done                     12/26/2018 09:43:02
00052 suncat0014 pw.x -in pw.inp   Done                     12/26/2018 09:43:02
00053 suncat0014 pw.x -in pw.inp   Done                     12/26/2018 09:43:02
00054 suncat0014 pw.x -in pw.inp   Done                     12/26/2018 09:43:02
00055 suncat0014 pw.x -in pw.inp   Done                     12/26/2018 09:43:02
00056 suncat0198 pw.x -in pw.inp   Done                     12/26/2018 09:43:02
00057 suncat0198 pw.x -in pw.inp   Done                     12/26/2018 09:43:02
00058 suncat0198 pw.x -in pw.inp   Done                     12/26/2018 09:43:02
00059 suncat0198 pw.x -in pw.inp   Done                     12/26/2018 09:43:02
00060 suncat0198 pw.x -in pw.inp   Done                     12/26/2018 09:43:02
00061 suncat0198 pw.x -in pw.inp   Done                     12/26/2018 09:43:02
00062 suncat0198 pw.x -in pw.inp   Done                     12/26/2018 09:43:02
00063 suncat0198 pw.x -in pw.inp   Done                     12/26/2018 09:43:02