     Program PWSCF v.5.1rc2 (svn rev. 11289) starts on 19Dec2018 at  8:49: 4

     Current dimensions of program PWSCF are:
     Max number of different atomic species (ntypx) = 10
     Max number of k-points (npk) =  40000
     Max angular momentum in pseudopotentials (lmaxx) =  3
     Presently stress not available with electric field

     IMPORTANT: XC functional enforced from input :
     Exchange-correlation      = BEEF-VDW ( 1  4 27 13 2)
     Any further DFT definition will be discarded
     Please, verify this is what you really want

     Subspace diagonalization in iterative solution of the eigenvalue problem:
     a serial algorithm will be used

     Found symmetry operation: I + (  0.5000  0.0000  0.0000)
     This is a supercell, fractional translations are disabled

     bravais-lattice index     =            0
     lattice parameter (alat)  =       1.8897  a.u.
     unit-cell volume          =    4548.0066 (a.u.)^3
     number of atoms/cell      =           12
     number of atomic types    =            2
     number of electrons       =       144.00
     number of Kohn-Sham states=          102
     kinetic-energy cutoff     =      36.7493  Ry
     charge density cutoff     =     367.4932  Ry
     convergence threshold     =      1.0E-06
     mixing beta               =       0.1000
     number of iterations used =           10  plain     mixing
     Exchange-correlation      = BEEF-VDW ( 1  4 27 13 2)
     nstep                     =           50

     celldm(1)=   1.889726  celldm(2)=   0.000000  celldm(3)=   0.000000
     celldm(4)=   0.000000  celldm(5)=   0.000000  celldm(6)=   0.000000

     crystal axes: (cart. coord. in units of alat)
               a(1) = (   5.525924   0.000000   0.000000 )
               a(2) = (  -2.762962   4.959938   0.000000 )
               a(3) = (   0.000000   0.000000  24.589142 )

     reciprocal axes: (cart. coord. in units 2 pi/alat)
               b(1) = (  0.180965  0.100808  0.000000 )
               b(2) = (  0.000000  0.201615  0.000000 )
               b(3) = (  0.000000  0.000000  0.040668 )

     PseudoPot. # 1 for V  read from file:
     /afs/slac.stanford.edu/u/if/mamunm/psp/gbrv1.5pbe/V.UPF
     MD5 check sum: 22b79981416ebb76fdaf5b1b8640f6fb
     Pseudo is Ultrasoft + core correction, Zval = 13.0
     Generated by new atomic code, or converted to UPF format
     Using radial grid of  853 points,  6 beta functions with:
                l(1) =   0
                l(2) =   0
                l(3) =   1
                l(4) =   1
                l(5) =   2
                l(6) =   2
     Q(r) pseudized with  8 coefficients,  rinner =    1.100   1.100   1.100
                                                       1.100   1.100

     PseudoPot. # 2 for Au read from file:
     /afs/slac.stanford.edu/u/if/mamunm/psp/gbrv1.5pbe/Au.UPF
     MD5 check sum: 9d7f43293ad2c663164586bc4b293ffc
     Pseudo is Ultrasoft + core correction, Zval = 11.0
     Generated by new atomic code, or converted to UPF format
     Using radial grid of  985 points,  7 beta functions with:
                l(1) =   0
                l(2) =   0
                l(3) =   1
                l(4) =   1
                l(5) =   2
                l(6) =   2
                l(7) =   3
     Q(r) pseudized with  6 coefficients,  rinner =    1.900   1.900   1.900
                                                       1.900   1.900   1.900
                                                       1.900

     vdW kernel table read from file vdW_kernel_table
     MD5 check sum: 095c7af220d748ca6e76c0b4c6cfb241

     atomic species   valence    mass     pseudopotential
        V1            13.00    50.94150     V ( 1.00)
        Au1           11.00   196.96657     Au( 1.00)

     No symmetry found

   Cartesian axes

     site n.     atom                  positions (alat units)
         1           V1  tau(   1) = (   0.0000000   0.0000000  10.0000000  )
         2           V1  tau(   2) = (   2.7629619   0.0000000  10.0000000  )
         3           Au1 tau(   3) = (   1.3814810   2.4799688  10.0000000  )
         4           Au1 tau(   4) = (  -1.3814810   2.4799688  10.0000000  )
         5           V1  tau(   5) = (   2.7629619   1.5391239  12.2945710  )
         6           V1  tau(   6) = (  -0.0000000   1.5391239  12.2945710  )
         7           Au1 tau(   7) = (  -1.3814810   4.0190927  12.2945710  )
         8           Au1 tau(   8) = (   1.3814810   4.0190927  12.2945710  )
         9           V1  tau(   9) = (   0.0000000   3.0782479  14.5891420  )
        10           V1  tau(  10) = (   2.7629619   3.0782479  14.5891420  )
        11           Au1 tau(  11) = (   4.1444429   0.5982791  14.5891420  )
        12           Au1 tau(  12) = (   1.3814810   0.5982791  14.5891420  )

     number of k points=    20  Fermi-Dirac smearing, width (Ry)=  0.0110
                       cart. coord. in units 2pi/alat
        k(    1) = (   0.0000000   0.0000000   0.0000000), wk =   0.0555556
        k(    2) = (   0.0000000   0.0336026   0.0000000), wk =   0.1111111
        k(    3) = (   0.0000000   0.0672051   0.0000000), wk =   0.1111111
        k(    4) = (   0.0000000  -0.1008077   0.0000000), wk =   0.0555556
        k(    5) = (   0.0301609   0.0168013   0.0000000), wk =   0.1111111
        k(    6) = (   0.0301609   0.0504039   0.0000000), wk =   0.1111111
        k(    7) = (   0.0301609   0.0840064   0.0000000), wk =   0.1111111
        k(    8) = (   0.0301609  -0.0840064   0.0000000), wk =   0.1111111
        k(    9) = (   0.0301609  -0.0504039   0.0000000), wk =   0.1111111
        k(   10) = (   0.0301609  -0.0168013   0.0000000), wk =   0.1111111
        k(   11) = (   0.0603217   0.0336026   0.0000000), wk =   0.1111111
        k(   12) = (   0.0603217   0.0672051   0.0000000), wk =   0.1111111
        k(   13) = (   0.0603217   0.1008077   0.0000000), wk =   0.1111111
        k(   14) = (   0.0603217  -0.0672051   0.0000000), wk =   0.1111111
        k(   15) = (   0.0603217  -0.0336026   0.0000000), wk =   0.1111111
        k(   16) = (   0.0603217   0.0000000   0.0000000), wk =   0.1111111
        k(   17) = (  -0.0904826  -0.0504039   0.0000000), wk =   0.0555556
        k(   18) = (  -0.0904826  -0.0168013   0.0000000), wk =   0.1111111
        k(   19) = (  -0.0904826   0.0168013   0.0000000), wk =   0.1111111
        k(   20) = (  -0.0904826  -0.1512116   0.0000000), wk =   0.0555556

     Largest allocated arrays     est. size (Mb)     dimensions
     Largest temporary arrays     est. size (Mb)     dimensions

     Check: negative/imaginary core charge=   -0.000002    0.000000

     Initial potential from superposition of free atoms
     Check: negative starting charge=   -0.005741

     starting charge  143.99190, renormalised to  144.00000

     negative rho (up, down):  5.741E-03 0.000E+00

     *
     * You are using vdW-DF for exchange-correlation in this calculation.
     * Please cite the following three references that made this development
     * possible:
     *
     *   M. Dion, H. Rydberg, E. Schroder, D. C. Langreth, and
     *   B. I. Lundqvist, Phys. Rev. Lett. 92, 246401 (2004).
     *
     *   T. Thonhauser, V. R. Cooper, S. Li, A. Puzder, P. Hyldgaard, and
     *   D. C. Langreth, Phys. Rev. B 76, 125112 (2007).
     *
     *   G. Roman-Perez and J. M. Soler, Phys. Rev. Lett. 103, 096102 (2009).
     *
     *
     * If you are using vdW-DF2, please also cite:
     *
     *   K. Lee, E. D. Murray, L. Kong, B. I. Lundqvist, and
     *   D. C. Langreth, Phys. Rev. B 82, 081101(R) (2010).
     *
     *
     * If you are calculating the stress with vdW-DF, please also cite:
     *
     *   R. Sabatini, E. Kucukbenli, B. Kolb, T. Thonhauser, and
     *   S. de Gironcoli, J. Phys.: Condens. Matter 24, 424209 (2012).
     *

     Carrying out vdW-DF run using the following parameters:

     Nqs =      20    Nr_points =    1024   r_max =   100.000
     q_mesh =
               0.00001000     0.04494208     0.09755937     0.15916263
               0.23128650     0.31572767     0.41458969     0.53033537
               0.66584808     0.82450364     1.01025438     1.22772762
               1.48234092     1.78043706     2.12944203     2.53805004
               3.01644009     3.57652955     4.23227104     5.00000000

     Gradients computed in reciprocal space

     Adding external electric field

     Computed dipole along edir(3) :
        Dipole               -0.0000 Ry au,         -0.0000 Debye
        Dipole field         -0.0000 Ry au

        Potential amp.        0.0000 Ry
        Total length         45.3051 bohr

     Starting wfc are  114 randomized atomic wfcs

     Self-consistent Calculation

     iteration #  1     ecut=    36.75 Ry     beta=0.10
     Davidson diagonalization with overlap
     ethr =  1.00E-02,  avg # of iterations =  4.7

[...]

     total energy              =   -1573.75763795 Ry
     Harris-Foulkes estimate   =   -1575.46724157 Ry
     estimated scf accuracy    <       9.52397881 Ry

[...]

     End of self-consistent calculation

          k = 0.0000 0.0000 0.0000 ( 17097 PWs)   bands (ev):

   -63.5785 -63.5710 -63.5443 -63.5390 -63.5320 -63.5053 -37.5184 -37.5093
   -37.4839 -37.4830 -37.4814 -37.4734 -37.4466 -37.4400 -37.4012 -37.3869
   -37.3718 -37.3692 -37.3516 -37.1900 -37.1581 -37.1483 -37.0423 -37.0411
    -7.3453  -6.0197  -5.7574  -5.7215  -5.4409  -5.3745  -5.2218  -5.0659
    -5.0538  -4.9330  -4.8179  -4.7067  -4.6666  -4.3601  -4.1696  -3.8813
    -3.8021  -3.6434  -3.6059  -3.5377  -3.4494  -3.3595  -3.1230  -3.0925
    -2.9527  -2.9199  -2.8124  -2.6173  -2.5741  -2.2593  -1.9533  -1.2473
    -1.2043  -0.3318  -0.1443  -0.0427   0.2189   0.2811   0.3118   0.3360
     0.4196   0.4634   0.4741   0.7421   0.8083   0.9952   1.0528   1.2036
     1.2754   1.4554   1.5687   1.6538   1.8610   1.9457   1.9585   2.0500
     2.1532   2.2360   2.2874   2.3057   2.4537   2.5696   2.6308   2.6397
     2.6727   2.8483   3.1011   3.2037   3.5280   3.5537   3.6036   4.0059
     4.0547   4.7534   5.0319   5.3841   5.5176   5.8644

[...]

          k =-0.0905-0.0504 0.0000 ( 17152 PWs)   bands (ev):

[...]

     the Fermi energy is     1.0250 ev

!    total energy              =   -1574.62610643 Ry
     Harris-Foulkes estimate   =   -1574.62610634 Ry
     estimated scf accuracy    <       0.00000069 Ry

     The total energy is the sum of the following terms:

     one-electron contribution =  -11258.25308033 Ry
     hartree contribution      =    5669.50950929 Ry
     xc contribution           =    -505.88712781 Ry
     ewald contribution        =    4520.10443319 Ry
     electric field correction =       0.00000000 Ry
     smearing contrib. (-TS)   =      -0.09984077 Ry

     convergence has been achieved in  21 iterations

 BEEF-vdW xc energy contributions
           1 :   -448.455753872605
           2 :    413.797142782390
           3 :   -353.149938588297
           4 :    280.198490758356
           5 :   -208.586803167365
           6 :    147.882692183711
           7 :   -102.059386024796
           8 :    70.3968376062024
           9 :   -49.6719634172992
          10 :    36.2770714311513
[...]

     Program PWSCF v.5.1rc2 (svn rev. 11289) starts on 19Dec2018 at  8:58: 7

[...]

   This run was terminated on:   9: 3: 9  19Dec2018

[...]

     Program PWSCF v.5.1rc2 (svn rev. 11289) starts on 19Dec2018 at  9: 3:15

[...]

     Found symmetry operation: I + (  0.5000  0.0000  0.0000)
     This is a supercell, fractional translations are disabled

[...]

   This run was terminated on:   9: 8: 7  19Dec2018

[...]

     Program PWSCF v.5.1rc2 (svn rev. 11289) starts on 19Dec2018 at  9: 8:13

[...]

   This run was terminated on:   9:28:13  19Dec2018

[...]

     Program PWSCF v.5.1rc2 (svn rev. 11289) starts on 19Dec2018 at  9:33:12

     Current dimensions of program PWSCF are:
     Max number of different atomic species (ntypx) = 10
     Max number of k-points (npk) =  40000
     Max angular momentum in pseudopotentials (lmaxx) =  3
     Presently stress not available with electric field

     IMPORTANT: XC functional enforced from input :
     Exchange-correlation      = BEEF-VDW ( 1  4 27 13 2)
     Any further DFT definition will be discarded
     Please, verify this is what you really want

     Subspace diagonalization in iterative solution of the eigenvalue problem:
     a serial algorithm will be used

     bravais-lattice index     =            0
     lattice parameter (alat)  =       1.8897  a.u.
     unit-cell volume          =    4548.0066 (a.u.)^3
     number of atoms/cell      =           12
     number of atomic types    =            2
     number of electrons       =       144.00
     number of Kohn-Sham states=          102
     kinetic-energy cutoff     =      36.7493  Ry
     charge density cutoff     =     367.4932  Ry
     convergence threshold     =      1.0E-06
     mixing beta               =       0.1000
     number of iterations used =           10  plain     mixing
     Exchange-correlation      = BEEF-VDW ( 1  4 27 13 2)
     nstep                     =           50

     celldm(1)=   1.889726  celldm(2)=   0.000000  celldm(3)=   0.000000
     celldm(4)=   0.000000  celldm(5)=   0.000000  celldm(6)=   0.000000

     crystal axes: (cart. coord. in units of alat)
               a(1) = (   5.525924   0.000000   0.000000 )
               a(2) = (  -2.762962   4.959938   0.000000 )
               a(3) = (   0.000000   0.000000  24.589142 )

     reciprocal axes: (cart. coord. in units 2 pi/alat)
               b(1) = (  0.180965  0.100808  0.000000 )
               b(2) = (  0.000000  0.201615  0.000000 )
               b(3) = (  0.000000  0.000000  0.040668 )

     PseudoPot. # 1 for V  read from file:
     /afs/slac.stanford.edu/u/if/mamunm/psp/gbrv1.5pbe/V.UPF
     MD5 check sum: 22b79981416ebb76fdaf5b1b8640f6fb
     Pseudo is Ultrasoft + core correction, Zval = 13.0
     Generated by new atomic code, or converted to UPF format
     Using radial grid of  853 points,  6 beta functions with:
                l(1) =   0
                l(2) =   0
                l(3) =   1
                l(4) =   1
                l(5) =   2
                l(6) =   2
     Q(r) pseudized with  8 coefficients,  rinner =    1.100   1.100   1.100
                                                       1.100   1.100

     PseudoPot. # 2 for Au read from file:
     /afs/slac.stanford.edu/u/if/mamunm/psp/gbrv1.5pbe/Au.UPF
     MD5 check sum: 9d7f43293ad2c663164586bc4b293ffc
     Pseudo is Ultrasoft + core correction, Zval = 11.0
     Generated by new atomic code, or converted to UPF format
     Using radial grid of  985 points,  7 beta functions with:
                l(1) =   0
                l(2) =   0
                l(3) =   1
                l(4) =   1
                l(5) =   2
                l(6) =   2
                l(7) =   3
     Q(r) pseudized with  6 coefficients,  rinner =    1.900   1.900   1.900
                                                       1.900   1.900   1.900
                                                       1.900

     vdW kernel table read from file vdW_kernel_table
     MD5 check sum: 095c7af220d748ca6e76c0b4c6cfb241

     atomic species   valence    mass     pseudopotential
        V1            13.00    50.94150     V ( 1.00)
        Au1           11.00   196.96657     Au( 1.00)

     No symmetry found

   Cartesian axes

     site n.     atom                  positions (alat units)
         1           V1  tau(   1) = (   0.0000000   0.0000000  10.0000000  )
         2           V1  tau(   2) = (   2.7629619   0.0000000  10.0000000  )
         3           Au1 tau(   3) = (   1.3814810   2.4799688  10.0000000  )
         4           Au1 tau(   4) = (  -1.3814810   2.4799688  10.0000000  )
         5           V1  tau(   5) = (   2.7629619   1.5391239  12.2945710  )
         6           V1  tau(   6) = (  -0.0000000   1.5391239  12.2945710  )
         7           Au1 tau(   7) = (  -1.3814810   4.0190927  12.2945710  )
         8           Au1 tau(   8) = (   1.3814810   4.0190927  12.2945710  )
         9           V1  tau(   9) = (   0.0001498   2.9779384  14.3922607  )
        10           V1  tau(  10) = (   2.7631054   2.9780621  14.3922828  )
        11           Au1 tau(  11) = (   4.1446338   0.6134671  14.6881332  )
        12           Au1 tau(  12) = (   1.3812645   0.6134716  14.6881349  )

     number of k points=    20  Fermi-Dirac smearing, width (Ry)=  0.0110
                       cart. coord. in units 2pi/alat
        k(    1) = (   0.0000000   0.0000000   0.0000000), wk =   0.0555556
        k(    2) = (   0.0000000   0.0336026   0.0000000), wk =   0.1111111
        k(    3) = (   0.0000000   0.0672051   0.0000000), wk =   0.1111111
        k(    4) = (   0.0000000  -0.1008077   0.0000000), wk =   0.0555556
        k(    5) = (   0.0301609   0.0168013   0.0000000), wk =   0.1111111
        k(    6) = (   0.0301609   0.0504039   0.0000000), wk =   0.1111111
        k(    7) = (   0.0301609   0.0840064   0.0000000), wk =   0.1111111
        k(    8) = (   0.0301609  -0.0840064   0.0000000), wk =   0.1111111
        k(    9) = (   0.0301609  -0.0504039   0.0000000), wk =   0.1111111
        k(   10) = (   0.0301609  -0.0168013   0.0000000), wk =   0.1111111
        k(   11) = (   0.0603217   0.0336026   0.0000000), wk =   0.1111111
        k(   12) = (   0.0603217   0.0672051   0.0000000), wk =   0.1111111
        k(   13) = (   0.0603217   0.1008077   0.0000000), wk =   0.1111111
        k(   14) = (   0.0603217  -0.0672051   0.0000000), wk =   0.1111111
        k(   15) = (   0.0603217  -0.0336026   0.0000000), wk =   0.1111111
        k(   16) = (   0.0603217   0.0000000   0.0000000), wk =   0.1111111
        k(   17) = (  -0.0904826  -0.0504039   0.0000000), wk =   0.0555556
        k(   18) = (  -0.0904826  -0.0168013   0.0000000), wk =   0.1111111
        k(   19) = (  -0.0904826   0.0168013   0.0000000), wk =   0.1111111
        k(   20) = (  -0.0904826  -0.1512116   0.0000000), wk =   0.0555556

     Largest allocated arrays     est. size (Mb)     dimensions
     Largest temporary arrays     est. size (Mb)     dimensions

     Check: negative/imaginary core charge=   -0.000002    0.000000

     Initial potential from superposition of free atoms
     Check: negative starting charge=   -0.005736

     starting charge  143.99190, renormalised to  144.00000

[...]

     *
     * You are using vdW-DF for exchange-correlation in this calculation.
     * Please cite the following three references that made this development
     * possible:
     *
     *   M. Dion, H. Rydberg, E. Schroder, D. C. Langreth, and
     *   B. I. Lundqvist, Phys. Rev. Lett. 92, 246401 (2004).
     *
     *   T. Thonhauser, V. R. Cooper, S. Li, A. Puzder, P. Hyldgaard, and
     *   D. C. Langreth, Phys. Rev. B 76, 125112 (2007).
     *
     *   G. Roman-Perez and J. M. Soler, Phys. Rev. Lett. 103, 096102 (2009).
     *
     *
     * If you are using vdW-DF2, please also cite:
     *
     *   K. Lee, E. D. Murray, L. Kong, B. I. Lundqvist, and
     *   D. C. Langreth, Phys. Rev. B 82, 081101(R) (2010).
     *
     *
     * If you are calculating the stress with vdW-DF, please also cite:
     *
     *   R. Sabatini, E. Kucukbenli, B. Kolb, T. Thonhauser, and
     *   S. de Gironcoli, J. Phys.: Condens. Matter 24, 424209 (2012).
     *

     Carrying out vdW-DF run using the following parameters:

     Nqs =      20    Nr_points =    1024   r_max =   100.000
     q_mesh =
               0.00001000     0.04494208     0.09755937     0.15916263
               0.23128650     0.31572767     0.41458969     0.53033537
               0.66584808     0.82450364     1.01025438     1.22772762
               1.48234092     1.78043706     2.12944203     2.53805004
               3.01644009     3.57652955     4.23227104     5.00000000

     Gradients computed in reciprocal space

[...]

     Starting wfc are  114 randomized atomic wfcs

     Self-consistent Calculation

[...]

     total energy              =   -1574.64764326 Ry
     Harris-Foulkes estimate   =   -1574.64764315 Ry
     estimated scf accuracy    <       0.00000281 Ry

     iteration # 23     ecut=    36.75 Ry     beta=0.10
     Davidson diagonalization with overlap
     ethr =  1.12E-09,  avg # of iterations =  1.0

[...]

     negative rho (up, down):  6.530E-03 0.000E+00

     Adding external electric field

     Computed dipole along edir(3) :
        Dipole               -0.0657 Ry au,         -0.1669 Debye
        Dipole field         -0.0002 Ry au

        Potential amp.        0.0164 Ry
        Total length         45.3051 bohr

     End of self-consistent calculation

[...]

          k = 0.0603 0.0000 0.0000 ( 17136 PWs)   bands (ev):

[...]

          k =-0.0905-0.1512 0.0000 ( 17152 PWs)   bands (ev):

   -63.6567 -63.6565 -63.6023 -63.6021 -63.5517 -63.5514 -37.6027 -37.6025
   -37.5576 -37.5576 -37.5282 -37.5279 -37.4860 -37.4859 -37.4629 -37.4627
   -37.3841 -37.3839 -37.2946 -37.2944 -37.2620 -37.2617 -37.1497 -37.1495
    -5.8125  -5.8124  -5.0190  -5.0188  -4.7911  -4.7910  -4.7806  -4.7805
    -4.4896  -4.4896  -4.4131  -4.4129  -4.1599  -4.1595  -3.9568  -3.9561
    -3.7754  -3.7751  -3.7300  -3.7294  -3.6173  -3.6172  -3.5213  -3.5203
    -3.4369  -3.4366  -3.3703  -3.3697  -3.1256  -3.1249  -3.0191  -3.0188
    -2.8806  -2.8804  -1.0479  -1.0478  -0.5197  -0.5196  -0.0333  -0.0332
     0.2313   0.2314   0.4746   0.4747   0.8306   0.8307   0.9779   0.9780
     1.1205   1.1206   1.2199   1.2201   1.2368   1.2370   1.3862   1.3864
     1.5293   1.5294   2.0869   2.0870   2.1928   2.1929   2.3486   2.3486
     2.8128   2.8129   3.2739   3.2740   3.7602   3.7603   4.6918   4.6920
     5.3585   5.3586   6.2639   6.2639   6.8562   6.8562

     the Fermi energy is     0.9411 ev

!    total energy              =   -1574.64764330 Ry
     Harris-Foulkes estimate   =   -1574.64764293 Ry
     estimated scf accuracy    <       0.00000087 Ry

     The total energy is the sum of the following terms:

     one-electron contribution =  -11352.28441766 Ry
     hartree contribution      =    5716.18472613 Ry
     xc contribution           =    -505.98678612 Ry
     ewald contribution        =    4567.53505530 Ry
     electric field correction =       0.00001191 Ry
     smearing contrib. (-TS)   =      -0.09623286 Ry

     convergence has been achieved in  23 iterations

 BEEF-vdW xc energy contributions
           1 :   -448.553147960957
           2 :    413.906246656143
           3 :   -353.264699557952
           4 :    280.291662448008
           5 :   -208.629317086594
           6 :    147.869590089563
           7 :   -102.015971632520
           8 :    70.3594991685826
           9 :   -49.6619500963259
          10 :    36.2870507965410
          11 :   -27.4458985284074
          12 :    21.4274019607409
          13 :   -17.2374728003711
          14 :    14.1744129201103
          15 :   -11.6642337498498
          16 :    9.32761878304518
          17 :   -7.06173331931711
          18 :    4.95824878806195
          19 :   -3.09986897435442
          20 :    1.41806557864248
          21 :   0.243179276327908
          22 :   -1.91452311802306
          23 :    3.33850424898174
          24 :   -4.03425276682862
          25 :    3.57970690123386
          26 :   -1.93097086719274
          27 :  -0.445910685822241
          28 :    2.73310521967937
          29 :   -4.13137483427670
          30 :    4.23123042220277
          31 :   -37.9602743370324
          32 :   -27.6417639280052

     Forces acting on atoms (Ry/au):

     negative rho (up, down):  6.530E-03 0.000E+00
     atom    1 type  1   force =     0.00000005    0.01529501    0.02896471
     atom    2 type  1   force =     0.00000021    0.01529977    0.02894413
     atom    3 type  2   force =     0.00001315   -0.02426479   -0.02750383
     atom    4 type  2   force =    -0.00001934   -0.02426281   -0.02750343
     atom    5 type  1   force =    -0.00001043   -0.00566092    0.00107896
     atom    6 type  1   force =    -0.00001022   -0.00563958    0.00109078
     atom    7 type  2   force =    -0.00006841    0.01493934   -0.00427329
     atom    8 type  2   force =     0.00006868    0.01493977   -0.00427520
     atom    9 type  1   force =     0.00000617   -0.00026766    0.00036966
     atom   10 type  1   force =     0.00000679   -0.00032656    0.00036479
     atom   11 type  2   force =    -0.00016745   -0.00002574    0.00137185
     atom   12 type  2   force =     0.00018080   -0.00002583    0.00137087

     Total force =     0.073406     Total SCF correction =     0.003001

     entering subroutine stress ...

     negative rho (up, down):  6.530E-03 0.000E+00
          total   stress  (Ry/bohr**3)                   (kbar)     P=  -10.87
  -0.00009737   0.00000001  -0.00000001        -14.32      0.00     -0.00
   0.00000001  -0.00012224   0.00001640          0.00    -17.98      2.41
  -0.00000001   0.00001640  -0.00000198         -0.00      2.41     -0.29

 !ASE

     Writing output data file calc.save

     General routines

     Parallel routines

   This run was terminated on:   9:38: 5  19Dec2018

   JOB DONE.
Job  /afs/slac/g/suncat/bin/suncat-tsmpirun -x LD_LIBRARY_PATH -wdir /scratch/qe530742_29fJN pw.x -in pw.inp

TID   HOST_NAME   COMMAND_LINE            STATUS            TERMINATION_TIME
00000 suncat2044 pw.x -in pw.inp   Done                     12/19/2018 09:38:05
00001 suncat2044 pw.x -in pw.inp   Done                     12/19/2018 09:38:05
00002 suncat2044 pw.x -in pw.inp   Done                     12/19/2018 09:38:05
00003 suncat2044 pw.x -in pw.inp   Done                     12/19/2018 09:38:05
00004 suncat2044 pw.x -in pw.inp   Done                     12/19/2018 09:38:05
00005 suncat2044 pw.x -in pw.inp   Done                     12/19/2018 09:38:05
00006 suncat2044 pw.x -in pw.inp   Done                     12/19/2018 09:38:05
00007 suncat2044 pw.x -in pw.inp   Done                     12/19/2018 09:38:05
00008 suncat2044 pw.x -in pw.inp   Done                     12/19/2018 09:38:05
00009 suncat2044 pw.x -in pw.inp   Done                     12/19/2018 09:38:05
00010 suncat2044 pw.x -in pw.inp   Done                     12/19/2018 09:38:05
00011 suncat2044 pw.x -in pw.inp   Done                     12/19/2018 09:38:05
00012 suncat2044 pw.x -in pw.inp   Done                     12/19/2018 09:38:05
00013 suncat2044 pw.x -in pw.inp   Done                     12/19/2018 09:38:05
00014 suncat2044 pw.x -in pw.inp   Done                     12/19/2018 09:38:05
00015 suncat2044 pw.x -in pw.inp   Done                     12/19/2018 09:38:05
00016 suncat2043 pw.x -in pw.inp   Done                     12/19/2018 09:38:05
00017 suncat2043 pw.x -in pw.inp   Done                     12/19/2018 09:38:05
00018 suncat2043 pw.x -in pw.inp   Done                     12/19/2018 09:38:05
00019 suncat2043 pw.x -in pw.inp   Done                     12/19/2018 09:38:05
00020 suncat2043 pw.x -in pw.inp   Done                     12/19/2018 09:38:05
00021 suncat2043 pw.x -in pw.inp   Done                     12/19/2018 09:38:05
00022 suncat2043 pw.x -in pw.inp   Done                     12/19/2018 09:38:05
00023 suncat2043 pw.x -in pw.inp   Done                     12/19/2018 09:38:05
00024 suncat2043 pw.x -in pw.inp   Done                     12/19/2018 09:38:05
00025 suncat2043 pw.x -in pw.inp   Done                     12/19/2018 09:38:05
00026 suncat2043 pw.x -in pw.inp   Done                     12/19/2018 09:38:05
00027 suncat2043 pw.x -in pw.inp   Done                     12/19/2018 09:38:05
00028 suncat2043 pw.x -in pw.inp   Done                     12/19/2018 09:38:05
00029 suncat2043 pw.x -in pw.inp   Done                     12/19/2018 09:38:05
00030 suncat2043 pw.x -in pw.inp   Done                     12/19/2018 09:38:05
00031 suncat2043 pw.x -in pw.inp   Done                     12/19/2018 09:38:05