     Program PWSCF v.5.1rc2 (svn rev. 11289) starts on  1Jan2019 at 22:34:40

     Current dimensions of program PWSCF are:
     Max number of different atomic species (ntypx) = 10
     Max number of k-points (npk) =  40000
     Max angular momentum in pseudopotentials (lmaxx) =  3
     Presently stress not available with electric field

     IMPORTANT: XC functional enforced from input :
     Exchange-correlation      = BEEF-VDW ( 1  4 27 13 2)
     Any further DFT definition will be discarded
     Please, verify this is what you really want

     Subspace diagonalization in iterative solution of the eigenvalue problem:
     a serial algorithm will be used

     bravais-lattice index     =            0
     lattice parameter (alat)  =       1.8897  a.u.
     unit-cell volume          =    5606.6354 (a.u.)^3
     number of atoms/cell      =           12
     number of atomic types    =            2
     number of electrons       =       141.00
     number of Kohn-Sham states=          100
     kinetic-energy cutoff     =      36.7493  Ry
     charge density cutoff     =     367.4932  Ry
     convergence threshold     =      1.0E-06
     mixing beta               =       0.1000
     number of iterations used =           10  plain     mixing
     Exchange-correlation      = BEEF-VDW ( 1  4 27 13 2)
     nstep                     =           50

     celldm(1)=   1.889726  celldm(2)=   0.000000  celldm(3)=   0.000000
     celldm(4)=   0.000000  celldm(5)=   0.000000  celldm(6)=   0.000000

     crystal axes: (cart. coord. in units of alat)
               a(1) = (   6.188154   0.000000   0.000000 )
               a(2) = (  -3.094077   5.359098   0.000000 )
               a(3) = (   0.000000   0.000000  25.052606 )

     reciprocal axes: (cart. coord. in units 2 pi/alat)
               b(1) = (  0.161599  0.093299  0.000000 )
               b(2) = (  0.000000  0.186599  0.000000 )
               b(3) = (  0.000000  0.000000  0.039916 )

     PseudoPot. # 1 for Ti read from file:
     /afs/slac.stanford.edu/u/if/mamunm/psp/gbrv1.5pbe/Ti.UPF
     MD5 check sum: 88a00a6731bd790ddea75d31a80cb452
     Pseudo is Ultrasoft + core correction, Zval = 12.0
     Generated by new atomic code, or converted to UPF format
     Using radial grid of  851 points,  6 beta functions with:
                l(1) =   0
                l(2) =   0
                l(3) =   1
                l(4) =   1
                l(5) =   2
                l(6) =   2
     Q(r) pseudized with  6 coefficients,  rinner =    1.000   1.000   1.000
                                                       1.000   1.000

     PseudoPot. # 2 for La read from file:
     /afs/slac.stanford.edu/u/if/mamunm/psp/gbrv1.5pbe/La.UPF
     MD5 check sum: 5937b0c7494ba0601a847275249473aa
     Pseudo is Ultrasoft + core correction, Zval = 11.0
     Generated by new atomic code, or converted to UPF format
     Using radial grid of  995 points,  8 beta functions with:
                l(1) =   0
                l(2) =   0
                l(3) =   1
                l(4) =   1
                l(5) =   2
                l(6) =   2
                l(7) =   3
                l(8) =   3
     Q(r) pseudized with  8 coefficients,  rinner =    1.700   1.700   1.700
                                                       1.700   1.700   1.700
                                                       1.700

     vdW kernel table read from file vdW_kernel_table
     MD5 check sum: 095c7af220d748ca6e76c0b4c6cfb241

     atomic species   valence    mass     pseudopotential
        Ti1           12.00    47.86700     Ti( 1.00)
        La1           11.00   138.90547     La( 1.00)

     No symmetry found

   Cartesian axes

     site n.     atom                  positions (alat units)
         1           Ti1 tau(   1) = (   0.0000000   0.0000000  10.0000000  )
         2           Ti1 tau(   2) = (  -1.5470384   2.6795491  10.0000000  )
         3           Ti1 tau(   3) = (   1.5470384   2.6795491  10.0000000  )
         4           La1 tau(   4) = (   3.0940768   0.0000000  10.0000000  )
         5           Ti1 tau(   5) = (   3.0940768   1.7863661  12.5263031  )
         6           Ti1 tau(   6) = (   1.5470384   4.4659152  12.5263031  )
         7           Ti1 tau(   7) = (  -1.5470384   4.4659152  12.5263031  )
         8           La1 tau(   8) = (   0.0000000   1.7863661  12.5263031  )
         9           Ti1 tau(   9) = (  -0.0000000   3.5727321  15.0526062  )
        10           Ti1 tau(  10) = (   1.5470384   0.8931830  15.0526062  )
        11           Ti1 tau(  11) = (   4.6411152   0.8931830  15.0526062  )
        12           La1 tau(  12) = (   3.0940768   3.5727321  15.0526062  )

     number of k points=    20  Fermi-Dirac smearing, width (Ry)=  0.0110
                       cart. coord. in units 2pi/alat
        k(    1) = (   0.0000000   0.0000000   0.0000000), wk =   0.0555556
        k(    2) = (   0.0000000   0.0310998   0.0000000), wk =   0.1111111
        k(    3) = (   0.0000000   0.0621995   0.0000000), wk =   0.1111111
        k(    4) = (   0.0000000  -0.0932993   0.0000000), wk =   0.0555556
        k(    5) = (   0.0269332   0.0155499   0.0000000), wk =   0.1111111
        k(    6) = (   0.0269332   0.0466496   0.0000000), wk =   0.1111111
        k(    7) = (   0.0269332   0.0777494   0.0000000), wk =   0.1111111
        k(    8) = (   0.0269332  -0.0777494   0.0000000), wk =   0.1111111
        k(    9) = (   0.0269332  -0.0466496   0.0000000), wk =   0.1111111
        k(   10) = (   0.0269332  -0.0155499   0.0000000), wk =   0.1111111
        k(   11) = (   0.0538664   0.0310998   0.0000000), wk =   0.1111111
        k(   12) = (   0.0538664   0.0621995   0.0000000), wk =   0.1111111
        k(   13) = (   0.0538664   0.0932993   0.0000000), wk =   0.1111111
        k(   14) = (   0.0538664  -0.0621995   0.0000000), wk =   0.1111111
        k(   15) = (   0.0538664  -0.0310998   0.0000000), wk =   0.1111111
        k(   16) = (   0.0538664   0.0000000   0.0000000), wk =   0.1111111
        k(   17) = (  -0.0807995  -0.0466496   0.0000000), wk =   0.0555556
        k(   18) = (  -0.0807995  -0.0155499   0.0000000), wk =   0.1111111
        k(   19) = (  -0.0807995   0.0155499   0.0000000), wk =   0.1111111
        k(   20) = (  -0.0807995  -0.1399489   0.0000000), wk =   0.0555556

     Largest allocated arrays     est. size (Mb)     dimensions
     Largest temporary arrays     est. size (Mb)     dimensions

     Check: negative/imaginary core charge=   -0.000005    0.000000

     Initial potential from superposition of free atoms
     Check: negative starting charge=   -0.220228

     starting charge  131.90340, renormalised to  141.00000

     negative rho (up, down):  2.354E-01 0.000E+00

     *
     * You are using vdW-DF for exchange-correlation in this calculation.
     * Please cite the following three references that made this development
     * possible:
     *
     *   M. Dion, H. Rydberg, E. Schroder, D. C. Langreth, and
     *   B. I. Lundqvist, Phys. Rev. Lett. 92, 246401 (2004).
     *
     *   T. Thonhauser, V. R. Cooper, S. Li, A. Puzder, P. Hyldgaard, and
     *   D. C. Langreth, Phys. Rev. B 76, 125112 (2007).
     *
     *   G. Roman-Perez and J. M. Soler, Phys. Rev. Lett. 103, 096102 (2009).
     *
     *
     * If you are using vdW-DF2, please also cite:
     *
     *   K. Lee, E. D. Murray, L. Kong, B. I. Lundqvist, and
     *   D. C. Langreth, Phys. Rev. B 82, 081101(R) (2010).
     *
     *
     * If you are calculating the stress with vdW-DF, please also cite:
     *
     *   R. Sabatini, E. Kucukbenli, B. Kolb, T. Thonhauser, and
     *   S. de Gironcoli, J. Phys.: Condens. Matter 24, 424209 (2012).
     *

     Carrying out vdW-DF run using the following parameters:

     Nqs =      20    Nr_points =    1024   r_max =   100.000
     q_mesh =
               0.00001000     0.04494208     0.09755937     0.15916263
               0.23128650     0.31572767     0.41458969     0.53033537
               0.66584808     0.82450364     1.01025438     1.22772762
               1.48234092     1.78043706     2.12944203     2.53805004
               3.01644009     3.57652955     4.23227104     5.00000000

     Gradients computed in reciprocal space

     Adding external electric field

     Computed dipole along edir(3) :
        Dipole                0.0000 Ry au,          0.0000 Debye
        Dipole field          0.0000 Ry au

        Potential amp.       -0.0000 Ry
        Total length         46.1590 bohr

     Starting wfc are  150 randomized atomic wfcs

     Self-consistent Calculation

     iteration #  1     ecut=    36.75 Ry     beta=0.10
     Davidson diagonalization with overlap
     ethr =  1.00E-02,  avg # of iterations =  3.2

[...]

     total energy              =   -1390.49570684 Ry
     Harris-Foulkes estimate   =   -1391.83220586 Ry
     estimated scf accuracy    <       7.83189008 Ry

[...]

     End of self-consistent calculation

          k = 0.0000 0.0000 0.0000 ( 21043 PWs)   bands (ev):

   -55.9681 -55.9668 -55.9394 -55.9392 -55.9391 -55.9389 -55.8354 -55.8085
   -55.8084 -32.2910 -32.2895 -32.2586 -32.2585 -32.2585 -32.2526 -32.2525
   -32.2435 -32.2434 -32.2274 -32.2200 -32.2199 -32.1676 -32.1298 -32.1221
   -32.1178 -32.1177 -32.0200 -32.0200 -32.0131 -32.0126 -32.0124 -32.0108
   -32.0059 -32.0058 -31.8856 -31.8856 -31.0724 -31.0408 -30.5483 -14.8440
   -14.8440 -14.8375 -14.8375 -14.8373 -14.7962 -14.4321 -14.3941 -14.3941
    -3.2076  -2.1311  -1.4781  -1.1860  -1.1860  -1.1183  -1.1183  -0.5744
    -0.5744  -0.1806  -0.1805  -0.1651  -0.0587   0.2873   0.3449   0.4225
     0.4226   0.5894   1.1820   1.3254   1.3491   1.3491   1.4920   1.5780
     1.7968   1.8836   1.9815   1.9816   2.0385   2.0386   2.1201   2.1202
     2.1666   2.1667   2.2120   2.3240   2.3241   2.5542   2.5688   2.7683
     2.7683   2.8260   2.8261   2.9514   3.1331   3.1332   3.2663   3.2663
     3.4226   3.7259   3.7260   3.9021

[...]

          k =-0.0808-0.0466 0.0000 ( 21104 PWs)   bands (ev):

[...]

     the Fermi energy is     1.2392 ev

!    total energy              =   -1390.66569158 Ry
     Harris-Foulkes estimate   =   -1390.66569749 Ry
     estimated scf accuracy    <       0.00000097 Ry

     The total energy is the sum of the following terms:

     one-electron contribution =   -8777.81424426 Ry
     hartree contribution      =    4382.03180244 Ry
     xc contribution           =    -321.01351867 Ry
     ewald contribution        =    3326.26579673 Ry
     electric field correction =       0.00000000 Ry
     smearing contrib. (-TS)   =      -0.13552782 Ry

     convergence has been achieved in  23 iterations

 BEEF-vdW xc energy contributions
           1 :   -279.842244598334
           2 :    253.740378409234
           3 :   -209.532444040584
           4 :    159.265560961656
           5 :   -113.762949066076
           6 :    78.9185006547813
           7 :   -55.1667507650948
           8 :    39.5543709196415
           9 :   -28.5609660363351
          10 :    19.9070482573590
          11 :   -12.7556897226559
          12 :    6.86764106980957
          13 :   -1.77174831841444
[...]
     /afs/slac.stanford.edu/u/if/mamunm/psp/gbrv1.5pbe/Ti.UPF
     MD5 check sum: 88a00a6731bd790ddea75d31a80cb452
     Pseudo is Ultrasoft + core correction, Zval = 12.0
     Generated by new atomic code, or converted to UPF format
     Using radial grid of  851 points,  6 beta functions with:
                l(1) =   0
                l(2) =   0
                l(3) =   1
                l(4) =   1
                l(5) =   2
                l(6) =   2
     Q(r) pseudized with  6 coefficients,  rinner =    1.000   1.000   1.000
                                                       1.000   1.000

     PseudoPot. # 2 for La read from file:
     /afs/slac.stanford.edu/u/if/mamunm/psp/gbrv1.5pbe/La.UPF
     MD5 check sum: 5937b0c7494ba0601a847275249473aa
     Pseudo is Ultrasoft + core correction, Zval = 11.0
     Generated by new atomic code, or converted to UPF format
     Using radial grid of  995 points,  8 beta functions with:
                l(1) =   0
                l(2) =   0
                l(3) =   1
                l(4) =   1
                l(5) =   2
                l(6) =   2
                l(7) =   3
                l(8) =   3
     Q(r) pseudized with  8 coefficients,  rinner =    1.700   1.700   1.700
                                                       1.700   1.700   1.700
                                                       1.700

     vdW kernel table read from file vdW_kernel_table
     MD5 check sum: 095c7af220d748ca6e76c0b4c6cfb241

     atomic species   valence    mass     pseudopotential
        Ti1           12.00    47.86700     Ti( 1.00)
        La1           11.00   138.90547     La( 1.00)

     No symmetry found

   Cartesian axes

     site n.     atom                  positions (alat units)
         1           Ti1 tau(   1) = (   0.0000000   0.0000000  10.0000000  )
         2           Ti1 tau(   2) = (  -1.5470384   2.6795491  10.0000000  )
         3           Ti1 tau(   3) = (   1.5470384   2.6795491  10.0000000  )
         4           La1 tau(   4) = (   3.0940768   0.0000000  10.0000000  )
         5           Ti1 tau(   5) = (   3.0940768   1.7863661  12.5263031  )
         6           Ti1 tau(   6) = (   1.5470384   4.4659152  12.5263031  )
         7           Ti1 tau(   7) = (  -1.5470384   4.4659152  12.5263031  )
         8           La1 tau(   8) = (   0.0000000   1.7863661  12.5263031  )
         9           Ti1 tau(   9) = (   0.0000549   3.7471669  14.8161475  )
        10           Ti1 tau(  10) = (   1.6981335   0.8060363  14.8161495  )
        11           Ti1 tau(  11) = (   4.4900763   0.8060066  14.8161743  )
        12           La1 tau(  12) = (   3.0941641   3.5728417  15.5597671  )

     number of k points=    20  Fermi-Dirac smearing, width (Ry)=  0.0110
                       cart. coord. in units 2pi/alat
        k(    1) = (   0.0000000   0.0000000   0.0000000), wk =   0.0555556
        k(    2) = (   0.0000000   0.0310998   0.0000000), wk =   0.1111111
        k(    3) = (   0.0000000   0.0621995   0.0000000), wk =   0.1111111
        k(    4) = (   0.0000000  -0.0932993   0.0000000), wk =   0.0555556
        k(    5) = (   0.0269332   0.0155499   0.0000000), wk =   0.1111111
        k(    6) = (   0.0269332   0.0466496   0.0000000), wk =   0.1111111
        k(    7) = (   0.0269332   0.0777494   0.0000000), wk =   0.1111111
        k(    8) = (   0.0269332  -0.0777494   0.0000000), wk =   0.1111111
        k(    9) = (   0.0269332  -0.0466496   0.0000000), wk =   0.1111111
        k(   10) = (   0.0269332  -0.0155499   0.0000000), wk =   0.1111111
        k(   11) = (   0.0538664   0.0310998   0.0000000), wk =   0.1111111
        k(   12) = (   0.0538664   0.0621995   0.0000000), wk =   0.1111111
        k(   13) = (   0.0538664   0.0932993   0.0000000), wk =   0.1111111
        k(   14) = (   0.0538664  -0.0621995   0.0000000), wk =   0.1111111
        k(   15) = (   0.0538664  -0.0310998   0.0000000), wk =   0.1111111
        k(   16) = (   0.0538664   0.0000000   0.0000000), wk =   0.1111111
        k(   17) = (  -0.0807995  -0.0466496   0.0000000), wk =   0.0555556
        k(   18) = (  -0.0807995  -0.0155499   0.0000000), wk =   0.1111111
        k(   19) = (  -0.0807995   0.0155499   0.0000000), wk =   0.1111111
        k(   20) = (  -0.0807995  -0.1399489   0.0000000), wk =   0.0555556

     Largest allocated arrays     est. size (Mb)     dimensions
     Largest temporary arrays     est. size (Mb)     dimensions

     Check: negative/imaginary core charge=   -0.000005    0.000000

     Initial potential from superposition of free atoms
     Check: negative starting charge=   -0.221283

     starting charge  131.90340, renormalised to  141.00000

[...]

     *
     * You are using vdW-DF for exchange-correlation in this calculation.
     * Please cite the following three references that made this development
     * possible:
     *
     *   M. Dion, H. Rydberg, E. Schroder, D. C. Langreth, and
     *   B. I. Lundqvist, Phys. Rev. Lett. 92, 246401 (2004).
     *
     *   T. Thonhauser, V. R. Cooper, S. Li, A. Puzder, P. Hyldgaard, and
     *   D. C. Langreth, Phys. Rev. B 76, 125112 (2007).
     *
     *   G. Roman-Perez and J. M. Soler, Phys. Rev. Lett. 103, 096102 (2009).
     *
     *
     * If you are using vdW-DF2, please also cite:
     *
     *   K. Lee, E. D. Murray, L. Kong, B. I. Lundqvist, and
     *   D. C. Langreth, Phys. Rev. B 82, 081101(R) (2010).
     *
     *
     * If you are calculating the stress with vdW-DF, please also cite:
     *
     *   R. Sabatini, E. Kucukbenli, B. Kolb, T. Thonhauser, and
     *   S. de Gironcoli, J. Phys.: Condens. Matter 24, 424209 (2012).
     *

     Carrying out vdW-DF run using the following parameters:

     Nqs =      20    Nr_points =    1024   r_max =   100.000
     q_mesh =
               0.00001000     0.04494208     0.09755937     0.15916263
               0.23128650     0.31572767     0.41458969     0.53033537
               0.66584808     0.82450364     1.01025438     1.22772762
               1.48234092     1.78043706     2.12944203     2.53805004
               3.01644009     3.57652955     4.23227104     5.00000000

     Gradients computed in reciprocal space

[...]

     Starting wfc are  150 randomized atomic wfcs

     Self-consistent Calculation

[...]

     total energy              =   -1390.73182088 Ry
     Harris-Foulkes estimate   =   -1390.73182072 Ry
     estimated scf accuracy    <       0.00000580 Ry

     iteration # 26     ecut=    36.75 Ry     beta=0.10
     Davidson diagonalization with overlap
     ethr =  1.11E-09,  avg # of iterations =  1.4

[...]

     negative rho (up, down):  1.308E-01 0.000E+00

     Adding external electric field

     Computed dipole along edir(3) :
        Dipole                0.1984 Ry au,          0.5044 Debye
        Dipole field          0.0004 Ry au

        Potential amp.       -0.0411 Ry
        Total length         46.1590 bohr

     End of self-consistent calculation

[...]

          k = 0.0539 0.0000 0.0000 ( 21063 PWs)   bands (ev):

[...]

          k =-0.0808-0.1399 0.0000 ( 21104 PWs)   bands (ev):

   -55.7635 -55.7543 -55.7447 -55.5961 -55.5818 -55.5709 -55.5275 -55.4926
   -55.4887 -32.0921 -32.0751 -32.0582 -32.0396 -32.0029 -31.9795 -31.9771
   -31.9624 -31.9427 -31.9210 -31.9083 -31.8991 -31.8793 -31.8697 -31.8602
   -31.8510 -31.8236 -31.8004 -31.7653 -31.7482 -31.7218 -31.6545 -31.6451
   -31.6343 -31.6225 -31.6188 -31.5641 -31.3591 -30.8424 -30.3373 -15.1110
   -15.0860 -15.0602 -14.7432 -14.6928 -14.6557 -14.3076 -14.2893 -14.2619
    -1.6800  -1.6135  -0.8896  -0.5152  -0.3740  -0.2044  -0.0191   0.0044
     0.2547   0.3259   0.4560   0.6186   0.6563   0.7335   0.7390   0.8676
     0.9956   1.0117   1.0676   1.1118   1.1826   1.3048   1.3145   1.3462
     1.4828   1.5362   1.6045   1.7158   1.7949   1.8513   1.8668   2.0427
     2.0780   2.1630   2.2180   2.3931   2.4834   2.5153   2.5613   2.5690
     2.6939   2.8148   2.8397   2.8999   2.9163   3.0246   3.0433   3.0945
     3.2823   3.2894   3.4016   3.4190

     the Fermi energy is     1.4143 ev

!    total energy              =   -1390.73182145 Ry
     Harris-Foulkes estimate   =   -1390.73181762 Ry
     estimated scf accuracy    <       0.00000083 Ry

     The total energy is the sum of the following terms:

     one-electron contribution =   -8848.03535446 Ry
     hartree contribution      =    4418.17675159 Ry
     xc contribution           =    -321.03807610 Ry
     ewald contribution        =    3360.29406896 Ry
     electric field correction =       0.00008826 Ry
     smearing contrib. (-TS)   =      -0.12929970 Ry

     convergence has been achieved in  26 iterations

 BEEF-vdW xc energy contributions
           1 :   -280.100586729087
           2 :    254.009890362311
           3 :   -209.806565085289
           4 :    159.515826721192
           5 :   -113.962735582541
           6 :    79.0810602990427
           7 :   -55.3488047022971
           8 :    39.8053022432138
           9 :   -28.8667579805594
          10 :    20.1889556855530
          11 :   -12.9246603706568
          12 :    6.88624833832080
          13 :   -1.67984085346433
          14 :   -3.46042901412744
          15 :    9.14572511792198
          16 :   -15.2101713902547
          17 :    20.5978388539583
          18 :   -23.9216912194419
          19 :    24.3060892565989
          20 :   -21.9233314589711
          21 :    17.8674168271220
          22 :   -13.5012540586638
          23 :    9.75221950122261
          24 :   -6.81040076184973
          25 :    4.33534539846067
          26 :   -1.91809815878372
          27 :  -0.579465229415007
          28 :    3.00506406355760
          29 :   -5.13363073574305
          30 :    6.87497485350997
          31 :   -26.8063622773784
          32 :   -19.1851428661607

     Forces acting on atoms (Ry/au):

     negative rho (up, down):  1.308E-01 0.000E+00
     atom    1 type  1   force =     0.00000133   -0.01537938    0.01836222
     atom    2 type  1   force =    -0.01331760    0.00768934    0.01836435
     atom    3 type  1   force =     0.01332129    0.00769003    0.01835883
     atom    4 type  2   force =    -0.00000112   -0.00000062   -0.04585882
     atom    5 type  1   force =    -0.00000257    0.00784333    0.00096933
     atom    6 type  1   force =     0.00679424   -0.00392208    0.00096655
     atom    7 type  1   force =    -0.00678697   -0.00391492    0.00097289
     atom    8 type  2   force =    -0.00001314   -0.00000288   -0.01029536
     atom    9 type  1   force =     0.00000094   -0.00000029   -0.00038849
     atom   10 type  1   force =     0.00000040    0.00000053   -0.00039191
     atom   11 type  1   force =     0.00000441    0.00000223   -0.00039385
     atom   12 type  2   force =    -0.00000121   -0.00000528   -0.00066575

     Total force =     0.064174     Total SCF correction =     0.002416

     entering subroutine stress ...

     negative rho (up, down):  1.308E-01 0.000E+00
          total   stress  (Ry/bohr**3)                   (kbar)     P=   -5.64
  -0.00005109  -0.00000001  -0.00000001         -7.52     -0.00     -0.00
  -0.00000001  -0.00005110  -0.00000000         -0.00     -7.52     -0.00
  -0.00000001  -0.00000000  -0.00001274         -0.00     -0.00     -1.87

 !ASE

     Writing output data file calc.save

     General routines

     Parallel routines

   This run was terminated on:   0:26: 8   2Jan2019

   JOB DONE.
Job  /afs/slac/g/suncat/bin/suncat-tsmpirun -x LD_LIBRARY_PATH -wdir /scratch/qe649204_zAhlA pw.x -in pw.inp

TID   HOST_NAME   COMMAND_LINE            STATUS            TERMINATION_TIME
00000 suncat0182 pw.x -in pw.inp   Done                     01/02/2019 00:26:08
00001 suncat0182 pw.x -in pw.inp   Done                     01/02/2019 00:26:08
00002 suncat0182 pw.x -in pw.inp   Done                     01/02/2019 00:26:08
00003 suncat0182 pw.x -in pw.inp   Done                     01/02/2019 00:26:08
00004 suncat0182 pw.x -in pw.inp   Done                     01/02/2019 00:26:08
00005 suncat0182 pw.x -in pw.inp   Done                     01/02/2019 00:26:08
00006 suncat0182 pw.x -in pw.inp   Done                     01/02/2019 00:26:08
00007 suncat0182 pw.x -in pw.inp   Done                     01/02/2019 00:26:08
00008 suncat0181 pw.x -in pw.inp   Done                     01/02/2019 00:26:08
00009 suncat0181 pw.x -in pw.inp   Done                     01/02/2019 00:26:08
00010 suncat0181 pw.x -in pw.inp   Done                     01/02/2019 00:26:08
00011 suncat0181 pw.x -in pw.inp   Done                     01/02/2019 00:26:08
00012 suncat0181 pw.x -in pw.inp   Done                     01/02/2019 00:26:08
00013 suncat0181 pw.x -in pw.inp   Done                     01/02/2019 00:26:08
00014 suncat0181 pw.x -in pw.inp   Done                     01/02/2019 00:26:08
00015 suncat0181 pw.x -in pw.inp   Done                     01/02/2019 00:26:08
00016 suncat0132 pw.x -in pw.inp   Done                     01/02/2019 00:26:08
00017 suncat0132 pw.x -in pw.inp   Done                     01/02/2019 00:26:08
00018 suncat0132 pw.x -in pw.inp   Done                     01/02/2019 00:26:08
00019 suncat0132 pw.x -in pw.inp   Done                     01/02/2019 00:26:08
00020 suncat0132 pw.x -in pw.inp   Done                     01/02/2019 00:26:08
00021 suncat0132 pw.x -in pw.inp   Done                     01/02/2019 00:26:08
00022 suncat0132 pw.x -in pw.inp   Done                     01/02/2019 00:26:08
00023 suncat0132 pw.x -in pw.inp   Done                     01/02/2019 00:26:08
00024 suncat0131 pw.x -in pw.inp   Done                     01/02/2019 00:26:08
00025 suncat0131 pw.x -in pw.inp   Done                     01/02/2019 00:26:08
00026 suncat0131 pw.x -in pw.inp   Done                     01/02/2019 00:26:08
00027 suncat0131 pw.x -in pw.inp   Done                     01/02/2019 00:26:08
00028 suncat0131 pw.x -in pw.inp   Done                     01/02/2019 00:26:08
00029 suncat0131 pw.x -in pw.inp   Done                     01/02/2019 00:26:08
00030 suncat0131 pw.x -in pw.inp   Done                     01/02/2019 00:26:08
00031 suncat0131 pw.x -in pw.inp   Done                     01/02/2019 00:26:08
00032 suncat0130 pw.x -in pw.inp   Done                     01/02/2019 00:26:08
00033 suncat0130 pw.x -in pw.inp   Done                     01/02/2019 00:26:08
00034 suncat0130 pw.x -in pw.inp   Done                     01/02/2019 00:26:08
00035 suncat0130 pw.x -in pw.inp   Done                     01/02/2019 00:26:08
00036 suncat0130 pw.x -in pw.inp   Done                     01/02/2019 00:26:08
00037 suncat0130 pw.x -in pw.inp   Done                     01/02/2019 00:26:08
00038 suncat0130 pw.x -in pw.inp   Done                     01/02/2019 00:26:08
00039 suncat0130 pw.x -in pw.inp   Done                     01/02/2019 00:26:08
00040 suncat0124 pw.x -in pw.inp   Done                     01/02/2019 00:26:08
00041 suncat0124 pw.x -in pw.inp   Done                     01/02/2019 00:26:08
00042 suncat0124 pw.x -in pw.inp   Done                     01/02/2019 00:26:08
00043 suncat0124 pw.x -in pw.inp   Done                     01/02/2019 00:26:08
00044 suncat0124 pw.x -in pw.inp   Done                     01/02/2019 00:26:08
00045 suncat0124 pw.x -in pw.inp   Done                     01/02/2019 00:26:08
00046 suncat0124 pw.x -in pw.inp   Done                     01/02/2019 00:26:08
00047 suncat0124 pw.x -in pw.inp   Done                     01/02/2019 00:26:08
00048 suncat0280 pw.x -in pw.inp   Done                     01/02/2019 00:26:08
00049 suncat0280 pw.x -in pw.inp   Done                     01/02/2019 00:26:08
00050 suncat0280 pw.x -in pw.inp   Done                     01/02/2019 00:26:08
00051 suncat0280 pw.x -in pw.inp   Done                     01/02/2019 00:26:08
00052 suncat0280 pw.x -in pw.inp   Done                     01/02/2019 00:26:08
00053 suncat0280 pw.x -in pw.inp   Done                     01/02/2019 00:26:08
00054 suncat0280 pw.x -in pw.inp   Done                     01/02/2019 00:26:08
00055 suncat0280 pw.x -in pw.inp   Done                     01/02/2019 00:26:08
00056 suncat0279 pw.x -in pw.inp   Done                     01/02/2019 00:26:08
00057 suncat0279 pw.x -in pw.inp   Done                     01/02/2019 00:26:08
00058 suncat0279 pw.x -in pw.inp   Done                     01/02/2019 00:26:08
00059 suncat0279 pw.x -in pw.inp   Done                     01/02/2019 00:26:08
00060 suncat0279 pw.x -in pw.inp   Done                     01/02/2019 00:26:08
00061 suncat0279 pw.x -in pw.inp   Done                     01/02/2019 00:26:08
00062 suncat0279 pw.x -in pw.inp   Done                     01/02/2019 00:26:08
00063 suncat0279 pw.x -in pw.inp   Done                     01/02/2019 00:26:08