     Program PWSCF v.5.1rc2 (svn rev. 11289) starts on 19Dec2018 at 15: 8: 3

     Current dimensions of program PWSCF are:
     Max number of different atomic species (ntypx) = 10
     Max number of k-points (npk) =  40000
     Max angular momentum in pseudopotentials (lmaxx) =  3
     Presently stress not available with electric field

     IMPORTANT: XC functional enforced from input :
     Exchange-correlation      = BEEF-VDW ( 1  4 27 13 2)
     Any further DFT definition will be discarded
     Please, verify this is what you really want

     Subspace diagonalization in iterative solution of the eigenvalue problem:
     a serial algorithm will be used

     Generating pointlists ...
     new r_m :   0.4125 (alat units)  0.7795 (a.u.) for type    1
     new r_m :   0.4125 (alat units)  0.7795 (a.u.) for type    2

     bravais-lattice index     =            0
     lattice parameter (alat)  =       1.8897  a.u.
     unit-cell volume          =    4872.1499 (a.u.)^3
     number of atoms/cell      =           12
     number of atomic types    =            2
     number of electrons       =       219.00
     number of Kohn-Sham states=          139
     kinetic-energy cutoff     =      36.7493  Ry
     charge density cutoff     =     367.4932  Ry
     convergence threshold     =      1.0E-06
     mixing beta               =       0.1000
     number of iterations used =           10  plain     mixing
     Exchange-correlation      = BEEF-VDW ( 1  4 27 13 2)
     nstep                     =           50

     celldm(1)=   1.889726  celldm(2)=   0.000000  celldm(3)=   0.000000
     celldm(4)=   0.000000  celldm(5)=   0.000000  celldm(6)=   0.000000

     crystal axes: (cart. coord. in units of alat)
               a(1) = (   5.804960   0.000000   0.000000 )
               a(2) = (  -2.902480   5.027243   0.000000 )
               a(3) = (   0.000000   0.000000  24.739730 )

     reciprocal axes: (cart. coord. in units 2 pi/alat)
               b(1) = (  0.172266  0.099458  0.000000 )
               b(2) = (  0.000000  0.198916  0.000000 )
               b(3) = (  0.000000  0.000000  0.040421 )

     PseudoPot. # 1 for Ag read from file:
     /afs/slac.stanford.edu/u/if/mamunm/psp/gbrv1.5pbe/Ag.UPF
     MD5 check sum: d66d668201baa78d5eb5b04ef7011058
     Pseudo is Ultrasoft + core correction, Zval = 19.0
     Generated by new atomic code, or converted to UPF format
     Using radial grid of  887 points,  6 beta functions with:
                l(1) =   0
                l(2) =   0
                l(3) =   1
                l(4) =   1
                l(5) =   2
                l(6) =   2
     Q(r) pseudized with  6 coefficients,  rinner =    1.300   1.300   1.300
                                                       1.300   1.300

     PseudoPot. # 2 for Fe read from file:
     /afs/slac.stanford.edu/u/if/mamunm/psp/gbrv1.5pbe/Fe.UPF
     MD5 check sum: a130daea23fe5165f5d574ae7f82ed95
     Pseudo is Ultrasoft + core correction, Zval = 16.0
     Generated by new atomic code, or converted to UPF format
     Using radial grid of  861 points,  6 beta functions with:
                l(1) =   0
                l(2) =   0
                l(3) =   1
                l(4) =   1
                l(5) =   2
                l(6) =   2
     Q(r) pseudized with  8 coefficients,  rinner =    1.000   1.000   1.000
                                                       1.000   1.000

     vdW kernel table read from file vdW_kernel_table
     MD5 check sum: 095c7af220d748ca6e76c0b4c6cfb241

     atomic species   valence    mass     pseudopotential
        Ag1           19.00   107.86820     Ag( 1.00)
        Fe1           16.00    55.84500     Fe( 1.00)

     Starting magnetic structure
     atomic species   magnetization
        Ag1          0.105
        Fe1          0.125

     No symmetry found

   Cartesian axes

     site n.     atom                  positions (alat units)
         1           Ag1 tau(   1) = (   0.0000000   0.0000000  10.0000000  )
         2           Ag1 tau(   2) = (  -1.4512400   2.5136214  10.0000000  )
         3           Ag1 tau(   3) = (   1.4512400   2.5136214  10.0000000  )
         4           Fe1 tau(   4) = (   2.9024800   0.0000000  10.0000000  )
         5           Ag1 tau(   5) = (   2.9024800   1.6757476  12.3698650  )
         6           Ag1 tau(   6) = (   1.4512400   4.1893690  12.3698650  )
         7           Ag1 tau(   7) = (  -1.4512400   4.1893690  12.3698650  )
         8           Fe1 tau(   8) = (   0.0000000   1.6757476  12.3698650  )
         9           Ag1 tau(   9) = (  -0.0000000   3.3514952  14.7397300  )
        10           Ag1 tau(  10) = (   1.4512400   0.8378738  14.7397300  )
        11           Ag1 tau(  11) = (   4.3537200   0.8378738  14.7397300  )
        12           Fe1 tau(  12) = (   2.9024800   3.3514952  14.7397300  )

     number of k points=    40  Fermi-Dirac smearing, width (Ry)=  0.0110
                       cart. coord. in units 2pi/alat
        k(    1) = (   0.0000000   0.0000000   0.0000000), wk =   0.0277778
        k(    2) = (   0.0000000   0.0331527   0.0000000), wk =   0.0555556
        k(    3) = (   0.0000000   0.0663054   0.0000000), wk =   0.0555556
        k(    4) = (   0.0000000  -0.0994581   0.0000000), wk =   0.0277778
        k(    5) = (   0.0287111   0.0165763   0.0000000), wk =   0.0555556
        k(    6) = (   0.0287111   0.0497290   0.0000000), wk =   0.0555556
        k(    7) = (   0.0287111   0.0828817   0.0000000), wk =   0.0555556
        k(    8) = (   0.0287111  -0.0828817   0.0000000), wk =   0.0555556
        k(    9) = (   0.0287111  -0.0497290   0.0000000), wk =   0.0555556
        k(   10) = (   0.0287111  -0.0165763   0.0000000), wk =   0.0555556
        k(   11) = (   0.0574222   0.0331527   0.0000000), wk =   0.0555556
        k(   12) = (   0.0574222   0.0663054   0.0000000), wk =   0.0555556
        k(   13) = (   0.0574222   0.0994581   0.0000000), wk =   0.0555556
        k(   14) = (   0.0574222  -0.0663054   0.0000000), wk =   0.0555556
        k(   15) = (   0.0574222  -0.0331527   0.0000000), wk =   0.0555556
        k(   16) = (   0.0574222   0.0000000   0.0000000), wk =   0.0555556
        k(   17) = (  -0.0861332  -0.0497290   0.0000000), wk =   0.0277778
        k(   18) = (  -0.0861332  -0.0165763   0.0000000), wk =   0.0555556
        k(   19) = (  -0.0861332   0.0165763   0.0000000), wk =   0.0555556
        k(   20) = (  -0.0861332  -0.1491871   0.0000000), wk =   0.0277778
        k(   21) = (   0.0000000   0.0000000   0.0000000), wk =   0.0277778
        k(   22) = (   0.0000000   0.0331527   0.0000000), wk =   0.0555556
        k(   23) = (   0.0000000   0.0663054   0.0000000), wk =   0.0555556
        k(   24) = (   0.0000000  -0.0994581   0.0000000), wk =   0.0277778
        k(   25) = (   0.0287111   0.0165763   0.0000000), wk =   0.0555556
        k(   26) = (   0.0287111   0.0497290   0.0000000), wk =   0.0555556
        k(   27) = (   0.0287111   0.0828817   0.0000000), wk =   0.0555556
        k(   28) = (   0.0287111  -0.0828817   0.0000000), wk =   0.0555556
        k(   29) = (   0.0287111  -0.0497290   0.0000000), wk =   0.0555556
        k(   30) = (   0.0287111  -0.0165763   0.0000000), wk =   0.0555556
        k(   31) = (   0.0574222   0.0331527   0.0000000), wk =   0.0555556
        k(   32) = (   0.0574222   0.0663054   0.0000000), wk =   0.0555556
        k(   33) = (   0.0574222   0.0994581   0.0000000), wk =   0.0555556
        k(   34) = (   0.0574222  -0.0663054   0.0000000), wk =   0.0555556
        k(   35) = (   0.0574222  -0.0331527   0.0000000), wk =   0.0555556
        k(   36) = (   0.0574222   0.0000000   0.0000000), wk =   0.0555556
        k(   37) = (  -0.0861332  -0.0497290   0.0000000), wk =   0.0277778
        k(   38) = (  -0.0861332  -0.0165763   0.0000000), wk =   0.0555556
        k(   39) = (  -0.0861332   0.0165763   0.0000000), wk =   0.0555556
        k(   40) = (  -0.0861332  -0.1491871   0.0000000), wk =   0.0277778

     Largest allocated arrays     est. size (Mb)     dimensions
     Largest temporary arrays     est. size (Mb)     dimensions

     Check: negative/imaginary core charge=   -0.000003    0.000000

     Initial potential from superposition of free atoms
     Check: negative starting charge=(component1):   -0.001126
     Check: negative starting charge=(component2):   -0.000912

     starting charge  211.49956, renormalised to  219.00000

     negative rho (up, down):  1.166E-03 9.439E-04

     *
     * You are using vdW-DF for exchange-correlation in this calculation.
     * Please cite the following three references that made this development
     * possible:
     *
     *   M. Dion, H. Rydberg, E. Schroder, D. C. Langreth, and
     *   B. I. Lundqvist, Phys. Rev. Lett. 92, 246401 (2004).
     *
     *   T. Thonhauser, V. R. Cooper, S. Li, A. Puzder, P. Hyldgaard, and
     *   D. C. Langreth, Phys. Rev. B 76, 125112 (2007).
     *
     *   G. Roman-Perez and J. M. Soler, Phys. Rev. Lett. 103, 096102 (2009).
     *
     *
     * If you are using vdW-DF2, please also cite:
     *
     *   K. Lee, E. D. Murray, L. Kong, B. I. Lundqvist, and
     *   D. C. Langreth, Phys. Rev. B 82, 081101(R) (2010).
     *
     *
     * If you are calculating the stress with vdW-DF, please also cite:
     *
     *   R. Sabatini, E. Kucukbenli, B. Kolb, T. Thonhauser, and
     *   S. de Gironcoli, J. Phys.: Condens. Matter 24, 424209 (2012).
     *

     Carrying out vdW-DF run using the following parameters:

     Nqs =      20    Nr_points =    1024   r_max =   100.000
     q_mesh =
               0.00001000     0.04494208     0.09755937     0.15916263
               0.23128650     0.31572767     0.41458969     0.53033537
               0.66584808     0.82450364     1.01025438     1.22772762
               1.48234092     1.78043706     2.12944203     2.53805004
               3.01644009     3.57652955     4.23227104     5.00000000

     Gradients computed in reciprocal space

     Adding external electric field

     Computed dipole along edir(3) :
        Dipole                0.0000 Ry au,          0.0000 Debye
        Dipole field          0.0000 Ry au

        Potential amp.       -0.0000 Ry
        Total length         45.5825 bohr

[...]

     Starting wfc are  156 randomized atomic wfcs

     Self-consistent Calculation

     iteration #  1     ecut=    36.75 Ry     beta=0.10
     Davidson diagonalization with overlap
     ethr =  1.00E-02,  avg # of iterations =  7.0

[...]

     Magnetic moment per site:
     atom:    1    charge:    5.1400    magn:    0.5220    constr:    0.0000
     atom:    2    charge:    5.1400    magn:    0.5221    constr:    0.0000
     atom:    3    charge:    5.1400    magn:    0.5220    constr:    0.0000
     atom:    4    charge:    7.3423    magn:    0.8252    constr:    0.0000
     atom:    5    charge:    5.1274    magn:    0.5200    constr:    0.0000
     atom:    6    charge:    5.1275    magn:    0.5200    constr:    0.0000
     atom:    7    charge:    5.1275    magn:    0.5200    constr:    0.0000
     atom:    8    charge:    7.3302    magn:    0.8241    constr:    0.0000
[...]
        k(    5) = (   0.0287111   0.0165763   0.0000000), wk =   0.0555556
        k(    6) = (   0.0287111   0.0497290   0.0000000), wk =   0.0555556
        k(    7) = (   0.0287111   0.0828817   0.0000000), wk =   0.0555556
        k(    8) = (   0.0287111  -0.0828817   0.0000000), wk =   0.0555556
        k(    9) = (   0.0287111  -0.0497290   0.0000000), wk =   0.0555556
        k(   10) = (   0.0287111  -0.0165763   0.0000000), wk =   0.0555556
        k(   11) = (   0.0574222   0.0331527   0.0000000), wk =   0.0555556
        k(   12) = (   0.0574222   0.0663054   0.0000000), wk =   0.0555556
        k(   13) = (   0.0574222   0.0994581   0.0000000), wk =   0.0555556
        k(   14) = (   0.0574222  -0.0663054   0.0000000), wk =   0.0555556
        k(   15) = (   0.0574222  -0.0331527   0.0000000), wk =   0.0555556
        k(   16) = (   0.0574222   0.0000000   0.0000000), wk =   0.0555556
        k(   17) = (  -0.0861332  -0.0497290   0.0000000), wk =   0.0277778
        k(   18) = (  -0.0861332  -0.0165763   0.0000000), wk =   0.0555556
        k(   19) = (  -0.0861332   0.0165763   0.0000000), wk =   0.0555556
        k(   20) = (  -0.0861332  -0.1491871   0.0000000), wk =   0.0277778
        k(   21) = (   0.0000000   0.0000000   0.0000000), wk =   0.0277778
        k(   22) = (   0.0000000   0.0331527   0.0000000), wk =   0.0555556
        k(   23) = (   0.0000000   0.0663054   0.0000000), wk =   0.0555556
        k(   24) = (   0.0000000  -0.0994581   0.0000000), wk =   0.0277778
        k(   25) = (   0.0287111   0.0165763   0.0000000), wk =   0.0555556
        k(   26) = (   0.0287111   0.0497290   0.0000000), wk =   0.0555556
        k(   27) = (   0.0287111   0.0828817   0.0000000), wk =   0.0555556
        k(   28) = (   0.0287111  -0.0828817   0.0000000), wk =   0.0555556
        k(   29) = (   0.0287111  -0.0497290   0.0000000), wk =   0.0555556
        k(   30) = (   0.0287111  -0.0165763   0.0000000), wk =   0.0555556
        k(   31) = (   0.0574222   0.0331527   0.0000000), wk =   0.0555556
        k(   32) = (   0.0574222   0.0663054   0.0000000), wk =   0.0555556
        k(   33) = (   0.0574222   0.0994581   0.0000000), wk =   0.0555556
        k(   34) = (   0.0574222  -0.0663054   0.0000000), wk =   0.0555556
        k(   35) = (   0.0574222  -0.0331527   0.0000000), wk =   0.0555556
        k(   36) = (   0.0574222   0.0000000   0.0000000), wk =   0.0555556
        k(   37) = (  -0.0861332  -0.0497290   0.0000000), wk =   0.0277778
        k(   38) = (  -0.0861332  -0.0165763   0.0000000), wk =   0.0555556
        k(   39) = (  -0.0861332   0.0165763   0.0000000), wk =   0.0555556
        k(   40) = (  -0.0861332  -0.1491871   0.0000000), wk =   0.0277778

     Largest allocated arrays     est. size (Mb)     dimensions
     Largest temporary arrays     est. size (Mb)     dimensions

     Check: negative/imaginary core charge=   -0.000003    0.000000

     Initial potential from superposition of free atoms
     Check: negative starting charge=(component1):   -0.001120
     Check: negative starting charge=(component2):   -0.000907

     starting charge  211.49956, renormalised to  219.00000

[...]

     *
     * You are using vdW-DF for exchange-correlation in this calculation.
     * Please cite the following three references that made this development
     * possible:
     *
     *   M. Dion, H. Rydberg, E. Schroder, D. C. Langreth, and
     *   B. I. Lundqvist, Phys. Rev. Lett. 92, 246401 (2004).
     *
     *   T. Thonhauser, V. R. Cooper, S. Li, A. Puzder, P. Hyldgaard, and
     *   D. C. Langreth, Phys. Rev. B 76, 125112 (2007).
     *
     *   G. Roman-Perez and J. M. Soler, Phys. Rev. Lett. 103, 096102 (2009).
     *
     *
     * If you are using vdW-DF2, please also cite:
     *
     *   K. Lee, E. D. Murray, L. Kong, B. I. Lundqvist, and
     *   D. C. Langreth, Phys. Rev. B 82, 081101(R) (2010).
     *
     *
     * If you are calculating the stress with vdW-DF, please also cite:
     *
     *   R. Sabatini, E. Kucukbenli, B. Kolb, T. Thonhauser, and
     *   S. de Gironcoli, J. Phys.: Condens. Matter 24, 424209 (2012).
     *

     Carrying out vdW-DF run using the following parameters:

     Nqs =      20    Nr_points =    1024   r_max =   100.000
     q_mesh =
               0.00001000     0.04494208     0.09755937     0.15916263
               0.23128650     0.31572767     0.41458969     0.53033537
               0.66584808     0.82450364     1.01025438     1.22772762
               1.48234092     1.78043706     2.12944203     2.53805004
               3.01644009     3.57652955     4.23227104     5.00000000

     Gradients computed in reciprocal space

[...]

     Starting wfc are  156 randomized atomic wfcs

     Self-consistent Calculation

[...]

     total energy              =   -3423.59847040 Ry
     Harris-Foulkes estimate   =   -3423.59846714 Ry
     estimated scf accuracy    <       0.00000122 Ry

[...]

     iteration # 46     ecut=    36.75 Ry     beta=0.10
     Davidson diagonalization with overlap
     ethr =  4.80E-10,  avg # of iterations =  2.4

[...]

     negative rho (up, down):  9.262E-04 1.571E-03

[...]

     Adding external electric field

     Computed dipole along edir(3) :
        Dipole               -0.0088 Ry au,         -0.0224 Debye
        Dipole field         -0.0000 Ry au

        Potential amp.        0.0021 Ry
        Total length         45.5825 bohr

     Magnetic moment per site:
     atom:    1    charge:    5.0817    magn:    0.0061    constr:    0.0000
     atom:    2    charge:    5.0817    magn:    0.0061    constr:    0.0000
     atom:    3    charge:    5.0817    magn:    0.0061    constr:    0.0000
     atom:    4    charge:    7.1052    magn:    1.4313    constr:    0.0000
     atom:    5    charge:    5.0704    magn:    0.0072    constr:    0.0000
     atom:    6    charge:    5.0704    magn:    0.0072    constr:    0.0000
     atom:    7    charge:    5.0704    magn:    0.0072    constr:    0.0000
     atom:    8    charge:    7.0924    magn:    1.4185    constr:    0.0000
     atom:    9    charge:    5.0737    magn:    0.0059    constr:    0.0000
     atom:   10    charge:    5.0737    magn:    0.0059    constr:    0.0000
     atom:   11    charge:    5.0737    magn:    0.0059    constr:    0.0000
     atom:   12    charge:    7.0934    magn:    1.4143    constr:    0.0000

     End of self-consistent calculation

 ------ SPIN UP ------------

[...]

 ------ SPIN DOWN ----------

[...]

          k = 0.0574 0.0000 0.0000 ( 18331 PWs)   bands (ev):

[...]

          k =-0.0861-0.1492 0.0000 ( 18280 PWs)   bands (ev):

   -91.0038 -91.0012 -90.9985 -90.7786 -90.7760 -90.7734 -90.7560 -90.7532
   -90.7506 -84.3758 -84.3707 -84.3337 -54.5338 -54.5082 -54.5028 -54.4998
   -54.4926 -54.4853 -54.4839 -54.4744 -54.4438 -54.3136 -54.2949 -54.2878
   -54.2834 -54.2809 -54.2688 -54.2685 -54.2659 -54.2601 -54.2485 -54.2417
   -54.2412 -54.2374 -54.2257 -54.2195 -54.2152 -54.2105 -54.2023 -50.5146
   -50.4962 -50.4734 -50.4715 -50.4712 -50.4692 -50.4689 -50.4282 -50.4279
    -4.6221  -4.4208  -4.3889  -4.2599  -4.2303  -4.1464  -4.0947  -4.0074
    -3.9985  -3.9797  -3.9107  -3.8958  -3.7347  -3.7209  -3.6854  -3.6677
    -3.6509  -3.5940  -3.4442  -3.3023  -3.2458  -3.2183  -3.1963  -3.1579
    -3.1162  -3.0903  -3.0414  -2.9988  -2.9850  -2.9511  -2.9366  -2.8605
    -2.8554  -2.8471  -2.8016  -2.7663  -2.7284  -2.7126  -2.6514  -2.6037
    -2.5448  -2.5208  -2.4855  -2.3374  -2.2051  -2.0050  -1.8365  -1.7714
    -1.1893  -0.4945   0.3590   0.5723   0.7790   0.8290   1.0046   1.0328
     1.1370   1.1539   1.2410   1.3587   1.4650   1.5644   1.6958   1.7914
     1.8192   2.1195   2.2984   2.5814   2.6809   3.0837   4.0785   4.2010
     4.6746   4.7887   6.1511   6.1699   6.7563   6.7727   6.9657   6.9700
     7.2061   7.2371   7.5355   7.6250   7.6947   7.8382   8.0271   8.0502
     8.3924   8.4450   8.7620

     the Fermi energy is     1.1963 ev

!    total energy              =   -3423.59848482 Ry
     Harris-Foulkes estimate   =   -3423.59847160 Ry
     estimated scf accuracy    <       0.00000070 Ry

     The total energy is the sum of the following terms:

     one-electron contribution =  -25264.74996533 Ry
     hartree contribution      =   12623.87366055 Ry
     xc contribution           =    -361.52905823 Ry
     ewald contribution        =    9578.88212042 Ry
     electric field correction =       0.00000020 Ry
     smearing contrib. (-TS)   =      -0.07524244 Ry

     total magnetization       =     9.69 Bohr mag/cell
     absolute magnetization    =    10.56 Bohr mag/cell

     convergence has been achieved in  46 iterations

 BEEF-vdW xc energy contributions
           1 :   -314.154950149852
           2 :    284.322492505289
           3 :   -234.598079412848
           4 :    179.974686242513
           5 :   -133.881123099438
           6 :    103.335277509353
           7 :   -87.8844077603966
           8 :    81.9819652141731
           9 :   -78.9131507176786
          10 :    74.0722000143770
          11 :   -66.2772106432694
          12 :    57.0366160838706
          13 :   -48.7181337617022
          14 :    42.8507548709581
          15 :   -39.4289663996760
          16 :    37.3116266715308
          17 :   -35.2025024015498
          18 :    32.4734795540221
          19 :   -29.3721092810777
          20 :    26.6083527744692
          21 :   -24.7175760229172
          22 :    23.6526891109060
          23 :   -22.8564222319734
          24 :    21.6989394038465
          25 :   -19.9465453764375
          26 :    17.9184504441549
          27 :   -16.2435744331102
          28 :    15.4027656015563
          29 :   -15.3944704478407
          30 :    15.7407657545305
          31 :   -30.3042246402156
          32 :   -21.8749539108115

     Forces acting on atoms (Ry/au):

     negative rho (up, down):  9.262E-04 1.571E-03
     atom    1 type  1   force =     0.00000002    0.00559736   -0.00436421
     atom    2 type  1   force =     0.00484745   -0.00279870   -0.00436424
     atom    3 type  1   force =    -0.00484745   -0.00279871   -0.00436425
     atom    4 type  2   force =    -0.00000001    0.00000015    0.00788708
     atom    5 type  1   force =     0.00000001   -0.00551226    0.00105422
     atom    6 type  1   force =    -0.00477379    0.00275609    0.00105428
     atom    7 type  1   force =     0.00477372    0.00275621    0.00105422
     atom    8 type  2   force =    -0.00000002   -0.00000002    0.00283693
     atom    9 type  1   force =     0.00000001   -0.00003485   -0.00001486
     atom   10 type  1   force =    -0.00003011    0.00001755   -0.00001484
     atom   11 type  1   force =     0.00003021    0.00001741   -0.00001488
     atom   12 type  2   force =    -0.00000004   -0.00000023   -0.00074945

     Total force =     0.017789     Total SCF correction =     0.001489

     entering subroutine stress ...

     negative rho (up, down):  9.262E-04 1.571E-03
          total   stress  (Ry/bohr**3)                   (kbar)     P=   -4.83
  -0.00004315  -0.00000000   0.00000000         -6.35     -0.00      0.00
  -0.00000000  -0.00004315  -0.00000000         -0.00     -6.35     -0.00
   0.00000000  -0.00000000  -0.00001226          0.00     -0.00     -1.80

 !ASE

     Writing output data file calc.save

     General routines

     Parallel routines

   This run was terminated on:  21:33:28  19Dec2018

   JOB DONE.
Job  /afs/slac/g/suncat/bin/suncat-tsmpirun -x LD_LIBRARY_PATH -wdir /scratch/qe773157_vOogb pw.x -in pw.inp

TID   HOST_NAME   COMMAND_LINE            STATUS            TERMINATION_TIME
00000 suncat0129 pw.x -in pw.inp   Done                     12/19/2018 21:33:28
00001 suncat0129 pw.x -in pw.inp   Done                     12/19/2018 21:33:28
00002 suncat0129 pw.x -in pw.inp   Done                     12/19/2018 21:33:28
00003 suncat0129 pw.x -in pw.inp   Done                     12/19/2018 21:33:28
00004 suncat0129 pw.x -in pw.inp   Done                     12/19/2018 21:33:28
00005 suncat0129 pw.x -in pw.inp   Done                     12/19/2018 21:33:28
00006 suncat0129 pw.x -in pw.inp   Done                     12/19/2018 21:33:28
00007 suncat0129 pw.x -in pw.inp   Done                     12/19/2018 21:33:28
00008 suncat0124 pw.x -in pw.inp   Done                     12/19/2018 21:33:28
00009 suncat0124 pw.x -in pw.inp   Done                     12/19/2018 21:33:28
00010 suncat0124 pw.x -in pw.inp   Done                     12/19/2018 21:33:28
00011 suncat0124 pw.x -in pw.inp   Done                     12/19/2018 21:33:28
00012 suncat0124 pw.x -in pw.inp   Done                     12/19/2018 21:33:28
00013 suncat0124 pw.x -in pw.inp   Done                     12/19/2018 21:33:28
00014 suncat0124 pw.x -in pw.inp   Done                     12/19/2018 21:33:28
00015 suncat0124 pw.x -in pw.inp   Done                     12/19/2018 21:33:28
00016 suncat0123 pw.x -in pw.inp   Done                     12/19/2018 21:33:28
00017 suncat0123 pw.x -in pw.inp   Done                     12/19/2018 21:33:28
00018 suncat0123 pw.x -in pw.inp   Done                     12/19/2018 21:33:28
00019 suncat0123 pw.x -in pw.inp   Done                     12/19/2018 21:33:28
00020 suncat0123 pw.x -in pw.inp   Done                     12/19/2018 21:33:28
00021 suncat0123 pw.x -in pw.inp   Done                     12/19/2018 21:33:28
00022 suncat0123 pw.x -in pw.inp   Done                     12/19/2018 21:33:28
00023 suncat0123 pw.x -in pw.inp   Done                     12/19/2018 21:33:28
00024 suncat0122 pw.x -in pw.inp   Done                     12/19/2018 21:33:28
00025 suncat0122 pw.x -in pw.inp   Done                     12/19/2018 21:33:28
00026 suncat0122 pw.x -in pw.inp   Done                     12/19/2018 21:33:28
00027 suncat0122 pw.x -in pw.inp   Done                     12/19/2018 21:33:28
00028 suncat0122 pw.x -in pw.inp   Done                     12/19/2018 21:33:28
00029 suncat0122 pw.x -in pw.inp   Done                     12/19/2018 21:33:28
00030 suncat0122 pw.x -in pw.inp   Done                     12/19/2018 21:33:28
00031 suncat0122 pw.x -in pw.inp   Done                     12/19/2018 21:33:28
00032 suncat0121 pw.x -in pw.inp   Done                     12/19/2018 21:33:28
00033 suncat0121 pw.x -in pw.inp   Done                     12/19/2018 21:33:28
00034 suncat0121 pw.x -in pw.inp   Done                     12/19/2018 21:33:28
00035 suncat0121 pw.x -in pw.inp   Done                     12/19/2018 21:33:28
00036 suncat0121 pw.x -in pw.inp   Done                     12/19/2018 21:33:28
00037 suncat0121 pw.x -in pw.inp   Done                     12/19/2018 21:33:28
00038 suncat0121 pw.x -in pw.inp   Done                     12/19/2018 21:33:28
00039 suncat0121 pw.x -in pw.inp   Done                     12/19/2018 21:33:28
00040 suncat0115 pw.x -in pw.inp   Done                     12/19/2018 21:33:28
00041 suncat0115 pw.x -in pw.inp   Done                     12/19/2018 21:33:28
00042 suncat0115 pw.x -in pw.inp   Done                     12/19/2018 21:33:28
00043 suncat0115 pw.x -in pw.inp   Done                     12/19/2018 21:33:28
00044 suncat0115 pw.x -in pw.inp   Done                     12/19/2018 21:33:28
00045 suncat0115 pw.x -in pw.inp   Done                     12/19/2018 21:33:28
00046 suncat0115 pw.x -in pw.inp   Done                     12/19/2018 21:33:28
00047 suncat0115 pw.x -in pw.inp   Done                     12/19/2018 21:33:28
00048 suncat0114 pw.x -in pw.inp   Done                     12/19/2018 21:33:28
00049 suncat0114 pw.x -in pw.inp   Done                     12/19/2018 21:33:28
00050 suncat0114 pw.x -in pw.inp   Done                     12/19/2018 21:33:28
00051 suncat0114 pw.x -in pw.inp   Done                     12/19/2018 21:33:28
00052 suncat0114 pw.x -in pw.inp   Done                     12/19/2018 21:33:28
00053 suncat0114 pw.x -in pw.inp   Done                     12/19/2018 21:33:28
00054 suncat0114 pw.x -in pw.inp   Done                     12/19/2018 21:33:28
00055 suncat0114 pw.x -in pw.inp   Done                     12/19/2018 21:33:28
00056 suncat0113 pw.x -in pw.inp   Done                     12/19/2018 21:33:28
00057 suncat0113 pw.x -in pw.inp   Done                     12/19/2018 21:33:28
00058 suncat0113 pw.x -in pw.inp   Done                     12/19/2018 21:33:28
00059 suncat0113 pw.x -in pw.inp   Done                     12/19/2018 21:33:28
00060 suncat0113 pw.x -in pw.inp   Done                     12/19/2018 21:33:28
00061 suncat0113 pw.x -in pw.inp   Done                     12/19/2018 21:33:28
00062 suncat0113 pw.x -in pw.inp   Done                     12/19/2018 21:33:28
00063 suncat0113 pw.x -in pw.inp   Done                     12/19/2018 21:33:28