     Program PWSCF v.5.1rc2 (svn rev. 11289) starts on 30Dec2018 at 17:37:20

     Current dimensions of program PWSCF are:
     Max number of different atomic species (ntypx) = 10
     Max number of k-points (npk) =  40000
     Max angular momentum in pseudopotentials (lmaxx) =  3
     Presently stress not available with electric field

     IMPORTANT: XC functional enforced from input :
     Exchange-correlation      = BEEF-VDW ( 1  4 27 13 2)
     Any further DFT definition will be discarded
     Please, verify this is what you really want

     Subspace diagonalization in iterative solution of the eigenvalue problem:
     a serial algorithm will be used

     bravais-lattice index     =            0
     lattice parameter (alat)  =       1.8897  a.u.
     unit-cell volume          =    4370.5272 (a.u.)^3
     number of atoms/cell      =           12
     number of atomic types    =            2
     number of electrons       =       183.00
     number of Kohn-Sham states=          121
     kinetic-energy cutoff     =      36.7493  Ry
     charge density cutoff     =     367.4932  Ry
     convergence threshold     =      1.0E-06
     mixing beta               =       0.1000
     number of iterations used =           10  plain     mixing
     Exchange-correlation      = BEEF-VDW ( 1  4 27 13 2)
     nstep                     =           50

     celldm(1)=   1.889726  celldm(2)=   0.000000  celldm(3)=   0.000000
     celldm(4)=   0.000000  celldm(5)=   0.000000  celldm(6)=   0.000000

     crystal axes: (cart. coord. in units of alat)
               a(1) = (   5.523710   0.000000   0.000000 )
               a(2) = (  -2.761855   4.783673   0.000000 )
               a(3) = (   0.000000   0.000000  24.510090 )

     reciprocal axes: (cart. coord. in units 2 pi/alat)
               b(1) = (  0.181038  0.104522  0.000000 )
               b(2) = (  0.000000  0.209044  0.000000 )
               b(3) = (  0.000000  0.000000  0.040800 )

     PseudoPot. # 1 for Mo read from file:
     /afs/slac.stanford.edu/u/if/mamunm/psp/gbrv1.5pbe/Mo.UPF
     MD5 check sum: 30c4dcd161f5d35cd49bb5239c51a633
     Pseudo is Ultrasoft + core correction, Zval = 14.0
     Generated by new atomic code, or converted to UPF format
     Using radial grid of  889 points,  6 beta functions with:
                l(1) =   0
                l(2) =   0
                l(3) =   1
                l(4) =   1
                l(5) =   2
                l(6) =   2
     Q(r) pseudized with  6 coefficients,  rinner =    1.000   1.000   1.000
                                                       1.000   1.000

     PseudoPot. # 2 for Cu read from file:
     /afs/slac.stanford.edu/u/if/mamunm/psp/gbrv1.5pbe/Cu.UPF
     MD5 check sum: 6e991ff952a84172a2a52a1c1e996048
     Pseudo is Ultrasoft + core correction, Zval = 19.0
     Generated by new atomic code, or converted to UPF format
     Using radial grid of  867 points,  6 beta functions with:
                l(1) =   0
                l(2) =   0
                l(3) =   1
                l(4) =   1
                l(5) =   2
                l(6) =   2
     Q(r) pseudized with  8 coefficients,  rinner =    1.150   1.150   1.150
                                                       1.150   1.150

     vdW kernel table read from file vdW_kernel_table
     MD5 check sum: 095c7af220d748ca6e76c0b4c6cfb241

     atomic species   valence    mass     pseudopotential
        Mo1           14.00    95.95000     Mo( 1.00)
        Cu1           19.00    63.54600     Cu( 1.00)

     No symmetry found

   Cartesian axes

     site n.     atom                  positions (alat units)
         1           Mo1 tau(   1) = (   0.0000000   0.0000000  10.0000000  )
         2           Mo1 tau(   2) = (  -1.3809274   2.3918365  10.0000000  )
         3           Mo1 tau(   3) = (   1.3809274   2.3918365  10.0000000  )
         4           Cu1 tau(   4) = (   2.7618548   0.0000000  10.0000000  )
         5           Mo1 tau(   5) = (   2.7618548   1.5945576  12.2550450  )
         6           Mo1 tau(   6) = (   1.3809274   3.9863941  12.2550450  )
         7           Mo1 tau(   7) = (  -1.3809274   3.9863941  12.2550450  )
         8           Cu1 tau(   8) = (   0.0000000   1.5945576  12.2550450  )
         9           Mo1 tau(   9) = (  -0.0000000   3.1891153  14.5100901  )
        10           Mo1 tau(  10) = (   1.3809274   0.7972788  14.5100901  )
        11           Mo1 tau(  11) = (   4.1427823   0.7972788  14.5100901  )
        12           Cu1 tau(  12) = (   2.7618548   3.1891153  14.5100901  )

     number of k points=    20  Fermi-Dirac smearing, width (Ry)=  0.0110
                       cart. coord. in units 2pi/alat
        k(    1) = (   0.0000000   0.0000000   0.0000000), wk =   0.0555556
        k(    2) = (   0.0000000   0.0348407   0.0000000), wk =   0.1111111
        k(    3) = (   0.0000000   0.0696815   0.0000000), wk =   0.1111111
        k(    4) = (   0.0000000  -0.1045222   0.0000000), wk =   0.0555556
        k(    5) = (   0.0301730   0.0174204   0.0000000), wk =   0.1111111
        k(    6) = (   0.0301730   0.0522611   0.0000000), wk =   0.1111111
        k(    7) = (   0.0301730   0.0871018   0.0000000), wk =   0.1111111
        k(    8) = (   0.0301730  -0.0871018   0.0000000), wk =   0.1111111
        k(    9) = (   0.0301730  -0.0522611   0.0000000), wk =   0.1111111
        k(   10) = (   0.0301730  -0.0174204   0.0000000), wk =   0.1111111
        k(   11) = (   0.0603459   0.0348407   0.0000000), wk =   0.1111111
        k(   12) = (   0.0603459   0.0696815   0.0000000), wk =   0.1111111
        k(   13) = (   0.0603459   0.1045222   0.0000000), wk =   0.1111111
        k(   14) = (   0.0603459  -0.0696815   0.0000000), wk =   0.1111111
        k(   15) = (   0.0603459  -0.0348407   0.0000000), wk =   0.1111111
        k(   16) = (   0.0603459   0.0000000   0.0000000), wk =   0.1111111
        k(   17) = (  -0.0905189  -0.0522611   0.0000000), wk =   0.0555556
        k(   18) = (  -0.0905189  -0.0174204   0.0000000), wk =   0.1111111
        k(   19) = (  -0.0905189   0.0174204   0.0000000), wk =   0.1111111
        k(   20) = (  -0.0905189  -0.1567833   0.0000000), wk =   0.0555556

     Largest allocated arrays     est. size (Mb)     dimensions
     Largest temporary arrays     est. size (Mb)     dimensions

     Initial potential from superposition of free atoms
     Check: negative starting charge=   -0.004165

     starting charge  179.99042, renormalised to  183.00000

     negative rho (up, down):  4.235E-03 0.000E+00

     *
     * You are using vdW-DF for exchange-correlation in this calculation.
     * Please cite the following three references that made this development
     * possible:
     *
     *   M. Dion, H. Rydberg, E. Schroder, D. C. Langreth, and
     *   B. I. Lundqvist, Phys. Rev. Lett. 92, 246401 (2004).
     *
     *   T. Thonhauser, V. R. Cooper, S. Li, A. Puzder, P. Hyldgaard, and
     *   D. C. Langreth, Phys. Rev. B 76, 125112 (2007).
     *
     *   G. Roman-Perez and J. M. Soler, Phys. Rev. Lett. 103, 096102 (2009).
     *
     *
     * If you are using vdW-DF2, please also cite:
     *
     *   K. Lee, E. D. Murray, L. Kong, B. I. Lundqvist, and
     *   D. C. Langreth, Phys. Rev. B 82, 081101(R) (2010).
     *
     *
     * If you are calculating the stress with vdW-DF, please also cite:
     *
     *   R. Sabatini, E. Kucukbenli, B. Kolb, T. Thonhauser, and
     *   S. de Gironcoli, J. Phys.: Condens. Matter 24, 424209 (2012).
     *

     Carrying out vdW-DF run using the following parameters:

     Nqs =      20    Nr_points =    1024   r_max =   100.000
     q_mesh =
               0.00001000     0.04494208     0.09755937     0.15916263
               0.23128650     0.31572767     0.41458969     0.53033537
               0.66584808     0.82450364     1.01025438     1.22772762
               1.48234092     1.78043706     2.12944203     2.53805004
               3.01644009     3.57652955     4.23227104     5.00000000

     Gradients computed in reciprocal space

     Adding external electric field

     Computed dipole along edir(3) :
        Dipole               -0.0000 Ry au,         -0.0000 Debye
        Dipole field         -0.0000 Ry au

        Potential amp.        0.0000 Ry
        Total length         45.1594 bohr

     Starting wfc are  156 randomized atomic wfcs

     Self-consistent Calculation

     iteration #  1     ecut=    36.75 Ry     beta=0.10
     Davidson diagonalization with overlap
     ethr =  1.00E-02,  avg # of iterations =  2.0

[...]

     total energy              =   -2474.14779696 Ry
     Harris-Foulkes estimate   =   -2475.21191205 Ry
     estimated scf accuracy    <       6.03308897 Ry

[...]

     iteration # 11     ecut=    36.75 Ry     beta=0.10
     Davidson diagonalization with overlap
     c_bands:  1 eigenvalues not converged
     ethr =  1.86E-05,  avg # of iterations =  8.6

[...]

     End of self-consistent calculation

          k = 0.0000 0.0000 0.0000 ( 16391 PWs)   bands (ev):

  -111.2845-111.0415-111.0415 -68.6633 -68.6633 -68.6348 -68.4425 -68.4425
   -68.4425 -68.4425 -68.3688 -68.3687 -59.3932 -59.2588 -59.2252 -59.2252
   -59.2242 -59.1165 -59.1164 -59.1064 -59.1063 -34.0552 -33.8049 -33.7897
   -33.6990 -33.6990 -33.6553 -33.6326 -33.6326 -33.4637 -33.4637 -33.3335
   -33.2152 -33.2152 -33.1955 -33.1955 -33.1076 -32.9593 -32.9471 -32.9471
   -32.9358 -32.8594 -32.8594 -32.8472 -32.7200 -32.7200 -32.7128 -32.7128
    -4.9149  -3.5056  -3.4414  -3.2072  -2.6863  -2.6863  -2.6584  -2.3829
    -2.3829  -2.3324  -2.2629  -2.2629  -2.2539  -2.0382  -2.0382  -1.4008
    -1.4008  -1.2458  -1.2458  -1.0896  -0.8705  -0.8699  -0.5873  -0.3675
    -0.3675  -0.2122  -0.2122   0.0739   0.0739   0.4184   0.4184   0.6664
     0.6664   0.6733   0.7036   0.7036   1.1266   1.3937   1.5952   1.5952
     1.9424   2.1700   2.2787   2.2787   2.5738   3.1419   3.2772   3.2772
     3.5270   3.5270   3.6329   3.6329   3.7437   3.7437   3.8602   3.8602
     4.1598   4.1598   4.3725   4.3725   4.3752   4.9017   4.9017   5.1074
     5.5519   5.8935   5.9736   5.9868   6.1614   6.1883   6.1883   6.2058
     6.3434

[...]

          k =-0.0905-0.0523 0.0000 ( 16456 PWs)   bands (ev):

[...]

     the Fermi energy is     1.7722 ev

!    total energy              =   -2474.18516529 Ry
     Harris-Foulkes estimate   =   -2474.18516421 Ry
     estimated scf accuracy    <       0.00000049 Ry

     The total energy is the sum of the following terms:

     one-electron contribution =  -19660.81621233 Ry
     hartree contribution      =    9828.62422834 Ry
     xc contribution           =    -299.81291212 Ry
     ewald contribution        =    7657.90808877 Ry
     electric field correction =       0.00000000 Ry
     smearing contrib. (-TS)   =      -0.08835794 Ry

     convergence has been achieved in  25 iterations

 BEEF-vdW xc energy contributions
           1 :   -260.845960297788
           2 :    237.625583864815
           3 :   -197.960836383781
           4 :    152.468474681524
           5 :   -111.461979580666
           6 :    81.4616140410874
           7 :   -63.7905680552153
[...]
     /afs/slac.stanford.edu/u/if/mamunm/psp/gbrv1.5pbe/Mo.UPF
     MD5 check sum: 30c4dcd161f5d35cd49bb5239c51a633
     Pseudo is Ultrasoft + core correction, Zval = 14.0
     Generated by new atomic code, or converted to UPF format
     Using radial grid of  889 points,  6 beta functions with:
                l(1) =   0
                l(2) =   0
                l(3) =   1
                l(4) =   1
                l(5) =   2
                l(6) =   2
     Q(r) pseudized with  6 coefficients,  rinner =    1.000   1.000   1.000
                                                       1.000   1.000

     PseudoPot. # 2 for Cu read from file:
     /afs/slac.stanford.edu/u/if/mamunm/psp/gbrv1.5pbe/Cu.UPF
     MD5 check sum: 6e991ff952a84172a2a52a1c1e996048
     Pseudo is Ultrasoft + core correction, Zval = 19.0
     Generated by new atomic code, or converted to UPF format
     Using radial grid of  867 points,  6 beta functions with:
                l(1) =   0
                l(2) =   0
                l(3) =   1
                l(4) =   1
                l(5) =   2
                l(6) =   2
     Q(r) pseudized with  8 coefficients,  rinner =    1.150   1.150   1.150
                                                       1.150   1.150

     vdW kernel table read from file vdW_kernel_table
     MD5 check sum: 095c7af220d748ca6e76c0b4c6cfb241

     atomic species   valence    mass     pseudopotential
        Mo1           14.00    95.95000     Mo( 1.00)
        Cu1           19.00    63.54600     Cu( 1.00)

     No symmetry found

   Cartesian axes

     site n.     atom                  positions (alat units)
         1           Mo1 tau(   1) = (   0.0000000   0.0000000  10.0000000  )
         2           Mo1 tau(   2) = (  -1.3809274   2.3918365  10.0000000  )
         3           Mo1 tau(   3) = (   1.3809274   2.3918365  10.0000000  )
         4           Cu1 tau(   4) = (   2.7618548   0.0000000  10.0000000  )
         5           Mo1 tau(   5) = (   2.7618548   1.5945576  12.2550450  )
         6           Mo1 tau(   6) = (   1.3809274   3.9863941  12.2550450  )
         7           Mo1 tau(   7) = (  -1.3809274   3.9863941  12.2550450  )
         8           Cu1 tau(   8) = (   0.0000000   1.5945576  12.2550450  )
         9           Mo1 tau(   9) = (   0.0000048   3.1915659  14.4152767  )
        10           Mo1 tau(  10) = (   1.3830509   0.7960567  14.4152764  )
        11           Mo1 tau(  11) = (   4.1406635   0.7960540  14.4152769  )
        12           Cu1 tau(  12) = (   2.7618477   3.1891223  14.5663632  )

     number of k points=    20  Fermi-Dirac smearing, width (Ry)=  0.0110
                       cart. coord. in units 2pi/alat
        k(    1) = (   0.0000000   0.0000000   0.0000000), wk =   0.0555556
        k(    2) = (   0.0000000   0.0348407   0.0000000), wk =   0.1111111
        k(    3) = (   0.0000000   0.0696815   0.0000000), wk =   0.1111111
        k(    4) = (   0.0000000  -0.1045222   0.0000000), wk =   0.0555556
        k(    5) = (   0.0301730   0.0174204   0.0000000), wk =   0.1111111
        k(    6) = (   0.0301730   0.0522611   0.0000000), wk =   0.1111111
        k(    7) = (   0.0301730   0.0871018   0.0000000), wk =   0.1111111
        k(    8) = (   0.0301730  -0.0871018   0.0000000), wk =   0.1111111
        k(    9) = (   0.0301730  -0.0522611   0.0000000), wk =   0.1111111
        k(   10) = (   0.0301730  -0.0174204   0.0000000), wk =   0.1111111
        k(   11) = (   0.0603459   0.0348407   0.0000000), wk =   0.1111111
        k(   12) = (   0.0603459   0.0696815   0.0000000), wk =   0.1111111
        k(   13) = (   0.0603459   0.1045222   0.0000000), wk =   0.1111111
        k(   14) = (   0.0603459  -0.0696815   0.0000000), wk =   0.1111111
        k(   15) = (   0.0603459  -0.0348407   0.0000000), wk =   0.1111111
        k(   16) = (   0.0603459   0.0000000   0.0000000), wk =   0.1111111
        k(   17) = (  -0.0905189  -0.0522611   0.0000000), wk =   0.0555556
        k(   18) = (  -0.0905189  -0.0174204   0.0000000), wk =   0.1111111
        k(   19) = (  -0.0905189   0.0174204   0.0000000), wk =   0.1111111
        k(   20) = (  -0.0905189  -0.1567833   0.0000000), wk =   0.0555556

     Largest allocated arrays     est. size (Mb)     dimensions
     Largest temporary arrays     est. size (Mb)     dimensions

     Initial potential from superposition of free atoms
     Check: negative starting charge=   -0.004368

     starting charge  179.99042, renormalised to  183.00000

[...]

     *
     * You are using vdW-DF for exchange-correlation in this calculation.
     * Please cite the following three references that made this development
     * possible:
     *
     *   M. Dion, H. Rydberg, E. Schroder, D. C. Langreth, and
     *   B. I. Lundqvist, Phys. Rev. Lett. 92, 246401 (2004).
     *
     *   T. Thonhauser, V. R. Cooper, S. Li, A. Puzder, P. Hyldgaard, and
     *   D. C. Langreth, Phys. Rev. B 76, 125112 (2007).
     *
     *   G. Roman-Perez and J. M. Soler, Phys. Rev. Lett. 103, 096102 (2009).
     *
     *
     * If you are using vdW-DF2, please also cite:
     *
     *   K. Lee, E. D. Murray, L. Kong, B. I. Lundqvist, and
     *   D. C. Langreth, Phys. Rev. B 82, 081101(R) (2010).
     *
     *
     * If you are calculating the stress with vdW-DF, please also cite:
     *
     *   R. Sabatini, E. Kucukbenli, B. Kolb, T. Thonhauser, and
     *   S. de Gironcoli, J. Phys.: Condens. Matter 24, 424209 (2012).
     *

     Carrying out vdW-DF run using the following parameters:

     Nqs =      20    Nr_points =    1024   r_max =   100.000
     q_mesh =
               0.00001000     0.04494208     0.09755937     0.15916263
               0.23128650     0.31572767     0.41458969     0.53033537
               0.66584808     0.82450364     1.01025438     1.22772762
               1.48234092     1.78043706     2.12944203     2.53805004
               3.01644009     3.57652955     4.23227104     5.00000000

     Gradients computed in reciprocal space

[...]

     Starting wfc are  156 randomized atomic wfcs

     Self-consistent Calculation

[...]

     total energy              =   -2474.19198532 Ry
     Harris-Foulkes estimate   =   -2474.19198385 Ry
     estimated scf accuracy    <       0.00000122 Ry

     iteration # 20     ecut=    36.75 Ry     beta=0.10
     Davidson diagonalization with overlap
     ethr =  6.67E-10,  avg # of iterations =  2.2

[...]

     negative rho (up, down):  4.318E-03 0.000E+00

     Adding external electric field

     Computed dipole along edir(3) :
        Dipole                0.0053 Ry au,          0.0136 Debye
        Dipole field          0.0000 Ry au

        Potential amp.       -0.0014 Ry
        Total length         45.1594 bohr

     End of self-consistent calculation

[...]

          k = 0.0603 0.0000 0.0000 ( 16456 PWs)   bands (ev):

[...]

          k =-0.0905-0.1568 0.0000 ( 16456 PWs)   bands (ev):

  -111.3880-111.0497-110.9740 -68.7613 -68.7613 -68.7483 -68.4516 -68.4516
   -68.3856 -68.3856 -68.3754 -68.2839 -59.3489 -59.3054 -59.2361 -59.2150
   -59.1789 -59.1598 -59.1316 -59.1255 -59.0832 -33.8860 -33.7938 -33.6914
   -33.6004 -33.5834 -33.5226 -33.5026 -33.4701 -33.4231 -33.3716 -33.2687
   -33.2529 -33.2313 -33.2197 -33.1898 -33.1817 -33.1660 -33.1640 -33.0826
   -33.0533 -33.0235 -32.9247 -32.9059 -32.8525 -32.8498 -32.7694 -32.7322
    -3.4599  -3.2263  -2.3761  -2.3702  -2.1982  -2.1308  -2.1257  -1.9784
    -1.8680  -1.8429  -1.7536  -1.7088  -1.6604  -1.5648  -1.4561  -1.4306
    -1.2849  -1.2032  -1.1588  -1.1313  -1.1071  -1.0296  -0.8376  -0.7140
    -0.5584  -0.4147  -0.2746  -0.1620  -0.1386  -0.1370   0.1725   0.2389
     0.4071   0.4876   0.5093   0.8012   0.8952   0.9284   0.9469   1.0699
     1.2880   1.3227   1.5314   1.6032   1.6618   1.8091   1.8664   1.8841
     2.5240   2.6451   2.7475   3.0703   3.0826   3.1723   3.3130   3.3135
     3.3351   3.5175   3.5969   3.7238   4.1410   4.5905   4.5999   4.9253
     4.9685   5.2308   5.8515   5.9295   6.4822   7.1089   7.4505   7.5214
     7.6343

     the Fermi energy is     1.7597 ev

!    total energy              =   -2474.19198908 Ry
     Harris-Foulkes estimate   =   -2474.19198564 Ry
     estimated scf accuracy    <       0.00000031 Ry

     The total energy is the sum of the following terms:

     one-electron contribution =  -19788.36923853 Ry
     hartree contribution      =    9892.34648742 Ry
     xc contribution           =    -299.95461440 Ry
     ewald contribution        =    7721.87176031 Ry
     electric field correction =       0.00000008 Ry
     smearing contrib. (-TS)   =      -0.08638397 Ry

     convergence has been achieved in  20 iterations

 BEEF-vdW xc energy contributions
           1 :   -260.989064797730
           2 :    237.814356983711
           3 :   -198.210166243839
           4 :    152.746872820204
           5 :   -111.703568024544
           6 :    81.5987250073405
           7 :   -63.7908213807868
           8 :    55.3757217432437
           9 :   -51.5787910433713
          10 :    48.2626965571650
          11 :   -43.4238279171752
          12 :    37.2503300438284
          13 :   -31.1282297322480
          14 :    26.3822572143917
          15 :   -23.4751884061594
          16 :    21.9358407232171
          17 :   -20.8387422448637
          18 :    19.4042412378714
          19 :   -17.3535303652029
          20 :    14.8826223149375
          21 :   -12.3857946616528
          22 :    10.1630969897860
          23 :   -8.29639961824694
          24 :    6.71228672671441
          25 :   -5.32226218271154
          26 :    4.09879630759281
          27 :   -3.03854741754276
          28 :    2.07183996553789
          29 :   -1.02963954992265
          30 :  -0.277877042722366
          31 :   -26.0693044114528
          32 :   -19.3003690185012

     Forces acting on atoms (Ry/au):

     negative rho (up, down):  4.318E-03 0.000E+00
     atom    1 type  1   force =     0.00000098   -0.00154156    0.01858783
     atom    2 type  1   force =    -0.00133450    0.00077100    0.01858784
     atom    3 type  1   force =     0.00133637    0.00077103    0.01858872
     atom    4 type  2   force =    -0.00000104   -0.00000158   -0.01161473
     atom    5 type  1   force =     0.00000089    0.00344168   -0.00975293
     atom    6 type  1   force =     0.00298099   -0.00172039   -0.00975349
     atom    7 type  1   force =    -0.00297990   -0.00172072   -0.00975251
     atom    8 type  2   force =    -0.00000629   -0.00000199   -0.01778716
     atom    9 type  1   force =    -0.00000144   -0.00029234    0.00052652
     atom   10 type  1   force =    -0.00025238    0.00014574    0.00052661
     atom   11 type  1   force =     0.00025325    0.00014784    0.00052621
     atom   12 type  2   force =     0.00000306    0.00000127    0.00131710

     Total force =     0.042646     Total SCF correction =     0.003637

     entering subroutine stress ...

     negative rho (up, down):  4.318E-03 0.000E+00
          total   stress  (Ry/bohr**3)                   (kbar)     P=  -19.13
  -0.00016669  -0.00000000  -0.00000000        -24.52     -0.00     -0.00
  -0.00000000  -0.00016668  -0.00000000         -0.00    -24.52     -0.00
  -0.00000000  -0.00000000  -0.00005668         -0.00     -0.00     -8.34

 !ASE

     Writing output data file calc.save

     General routines

     Parallel routines

   This run was terminated on:  19:19: 1  30Dec2018

   JOB DONE.
Job  /afs/slac/g/suncat/bin/suncat-tsmpirun -x LD_LIBRARY_PATH -wdir /scratch/qe648596_vVMf4 pw.x -in pw.inp

TID   HOST_NAME   COMMAND_LINE            STATUS            TERMINATION_TIME
00000 suncat0024 pw.x -in pw.inp   Done                     12/30/2018 19:19:01
00001 suncat0024 pw.x -in pw.inp   Done                     12/30/2018 19:19:01
00002 suncat0024 pw.x -in pw.inp   Done                     12/30/2018 19:19:01
00003 suncat0024 pw.x -in pw.inp   Done                     12/30/2018 19:19:01
00004 suncat0024 pw.x -in pw.inp   Done                     12/30/2018 19:19:01
00005 suncat0024 pw.x -in pw.inp   Done                     12/30/2018 19:19:01
00006 suncat0024 pw.x -in pw.inp   Done                     12/30/2018 19:19:01
00007 suncat0024 pw.x -in pw.inp   Done                     12/30/2018 19:19:01
00008 suncat0023 pw.x -in pw.inp   Done                     12/30/2018 19:19:01
00009 suncat0023 pw.x -in pw.inp   Done                     12/30/2018 19:19:01
00010 suncat0023 pw.x -in pw.inp   Done                     12/30/2018 19:19:01
00011 suncat0023 pw.x -in pw.inp   Done                     12/30/2018 19:19:01
00012 suncat0023 pw.x -in pw.inp   Done                     12/30/2018 19:19:01
00013 suncat0023 pw.x -in pw.inp   Done                     12/30/2018 19:19:01
00014 suncat0023 pw.x -in pw.inp   Done                     12/30/2018 19:19:01
00015 suncat0023 pw.x -in pw.inp   Done                     12/30/2018 19:19:01
00016 suncat0190 pw.x -in pw.inp   Done                     12/30/2018 19:19:01
00017 suncat0190 pw.x -in pw.inp   Done                     12/30/2018 19:19:01
00018 suncat0190 pw.x -in pw.inp   Done                     12/30/2018 19:19:01
00019 suncat0190 pw.x -in pw.inp   Done                     12/30/2018 19:19:01
00020 suncat0190 pw.x -in pw.inp   Done                     12/30/2018 19:19:01
00021 suncat0190 pw.x -in pw.inp   Done                     12/30/2018 19:19:01
00022 suncat0190 pw.x -in pw.inp   Done                     12/30/2018 19:19:01
00023 suncat0190 pw.x -in pw.inp   Done                     12/30/2018 19:19:01
00024 suncat0009 pw.x -in pw.inp   Done                     12/30/2018 19:19:01
00025 suncat0009 pw.x -in pw.inp   Done                     12/30/2018 19:19:01
00026 suncat0009 pw.x -in pw.inp   Done                     12/30/2018 19:19:01
00027 suncat0009 pw.x -in pw.inp   Done                     12/30/2018 19:19:01
00028 suncat0009 pw.x -in pw.inp   Done                     12/30/2018 19:19:01
00029 suncat0009 pw.x -in pw.inp   Done                     12/30/2018 19:19:01
00030 suncat0009 pw.x -in pw.inp   Done                     12/30/2018 19:19:01
00031 suncat0009 pw.x -in pw.inp   Done                     12/30/2018 19:19:01
00032 suncat0185 pw.x -in pw.inp   Done                     12/30/2018 19:19:01
00033 suncat0185 pw.x -in pw.inp   Done                     12/30/2018 19:19:01
00034 suncat0185 pw.x -in pw.inp   Done                     12/30/2018 19:19:01
00035 suncat0185 pw.x -in pw.inp   Done                     12/30/2018 19:19:01
00036 suncat0185 pw.x -in pw.inp   Done                     12/30/2018 19:19:01
00037 suncat0185 pw.x -in pw.inp   Done                     12/30/2018 19:19:01
00038 suncat0185 pw.x -in pw.inp   Done                     12/30/2018 19:19:01
00039 suncat0185 pw.x -in pw.inp   Done                     12/30/2018 19:19:01
00040 suncat0183 pw.x -in pw.inp   Done                     12/30/2018 19:19:01
00041 suncat0183 pw.x -in pw.inp   Done                     12/30/2018 19:19:01
00042 suncat0183 pw.x -in pw.inp   Done                     12/30/2018 19:19:01
00043 suncat0183 pw.x -in pw.inp   Done                     12/30/2018 19:19:01
00044 suncat0183 pw.x -in pw.inp   Done                     12/30/2018 19:19:01
00045 suncat0183 pw.x -in pw.inp   Done                     12/30/2018 19:19:01
00046 suncat0183 pw.x -in pw.inp   Done                     12/30/2018 19:19:01
00047 suncat0183 pw.x -in pw.inp   Done                     12/30/2018 19:19:01
00048 suncat0182 pw.x -in pw.inp   Done                     12/30/2018 19:19:01
00049 suncat0182 pw.x -in pw.inp   Done                     12/30/2018 19:19:01
00050 suncat0182 pw.x -in pw.inp   Done                     12/30/2018 19:19:01
00051 suncat0182 pw.x -in pw.inp   Done                     12/30/2018 19:19:01
00052 suncat0182 pw.x -in pw.inp   Done                     12/30/2018 19:19:01
00053 suncat0182 pw.x -in pw.inp   Done                     12/30/2018 19:19:01
00054 suncat0182 pw.x -in pw.inp   Done                     12/30/2018 19:19:01
00055 suncat0182 pw.x -in pw.inp   Done                     12/30/2018 19:19:01
00056 suncat0181 pw.x -in pw.inp   Done                     12/30/2018 19:19:01
00057 suncat0181 pw.x -in pw.inp   Done                     12/30/2018 19:19:01
00058 suncat0181 pw.x -in pw.inp   Done                     12/30/2018 19:19:01
00059 suncat0181 pw.x -in pw.inp   Done                     12/30/2018 19:19:01
00060 suncat0181 pw.x -in pw.inp   Done                     12/30/2018 19:19:01
00061 suncat0181 pw.x -in pw.inp   Done                     12/30/2018 19:19:01
00062 suncat0181 pw.x -in pw.inp   Done                     12/30/2018 19:19:01
00063 suncat0181 pw.x -in pw.inp   Done                     12/30/2018 19:19:01