     Program PWSCF v.5.1rc2 (svn rev. 11289) starts on 19Dec2018 at 17:20:49

     Current dimensions of program PWSCF are:
     Max number of different atomic species (ntypx) = 10
     Max number of k-points (npk) =  40000
     Max angular momentum in pseudopotentials (lmaxx) =  3
     Presently stress not available with electric field

     IMPORTANT: XC functional enforced from input :
     Exchange-correlation      = BEEF-VDW ( 1  4 27 13 2)
     Any further DFT definition will be discarded
     Please, verify this is what you really want

     Subspace diagonalization in iterative solution of the eigenvalue problem:
     a serial algorithm will be used

     bravais-lattice index     =            0
     lattice parameter (alat)  =       1.8897  a.u.
     unit-cell volume          =    4774.8442 (a.u.)^3
     number of atoms/cell      =           12
     number of atomic types    =            2
     number of electrons       =        84.00
     number of Kohn-Sham states=           72
     kinetic-energy cutoff     =      36.7493  Ry
     charge density cutoff     =     367.4932  Ry
     convergence threshold     =      1.0E-06
     mixing beta               =       0.1000
     number of iterations used =           10  plain     mixing
     Exchange-correlation      = BEEF-VDW ( 1  4 27 13 2)
     nstep                     =           50

     celldm(1)=   1.889726  celldm(2)=   0.000000  celldm(3)=   0.000000
     celldm(4)=   0.000000  celldm(5)=   0.000000  celldm(6)=   0.000000

     crystal axes: (cart. coord. in units of alat)
               a(1) = (   5.751752   0.000000   0.000000 )
               a(2) = (  -2.875876   4.981163   0.000000 )
               a(3) = (   0.000000   0.000000  24.696286 )

     reciprocal axes: (cart. coord. in units 2 pi/alat)
               b(1) = (  0.173860  0.100378  0.000000 )
               b(2) = (  0.000000  0.200756  0.000000 )
               b(3) = (  0.000000  0.000000  0.040492 )

     PseudoPot. # 1 for Al read from file:
     /afs/slac.stanford.edu/u/if/mamunm/psp/gbrv1.5pbe/Al.UPF
     MD5 check sum: 0a6289f5291fc8f409219462bc851e1f
     Pseudo is Ultrasoft + core correction, Zval =  3.0
     Generated by new atomic code, or converted to UPF format
     Using radial grid of  893 points,  3 beta functions with:
                l(1) =   0
                l(2) =   1
                l(3) =   2
     Q(r) pseudized with  8 coefficients,  rinner =    0.900   0.900   0.900
                                                       0.900   0.900

     PseudoPot. # 2 for Ga read from file:
     /afs/slac.stanford.edu/u/if/mamunm/psp/gbrv1.5pbe/Ga.UPF
     MD5 check sum: ccd671392a58a050fbb373893b4fcd66
     Pseudo is Ultrasoft + core correction, Zval = 19.0
     Generated by new atomic code, or converted to UPF format
     Using radial grid of  871 points,  6 beta functions with:
                l(1) =   0
                l(2) =   0
                l(3) =   1
                l(4) =   1
                l(5) =   2
                l(6) =   2
     Q(r) pseudized with  8 coefficients,  rinner =    1.250   1.250   1.250
                                                       1.250   1.250

     vdW kernel table read from file vdW_kernel_table
     MD5 check sum: 095c7af220d748ca6e76c0b4c6cfb241

     atomic species   valence    mass     pseudopotential
        Al1            3.00    26.98154     Al( 1.00)
        Ga1           19.00    69.72300     Ga( 1.00)

     No symmetry found

   Cartesian axes

     site n.     atom                  positions (alat units)
         1           Al1 tau(   1) = (   0.0000000   0.0000000  10.0000000  )
         2           Al1 tau(   2) = (  -1.4379380   2.4905817  10.0000000  )
         3           Al1 tau(   3) = (   1.4379380   2.4905817  10.0000000  )
         4           Ga1 tau(   4) = (   2.8758761   0.0000000  10.0000000  )
         5           Al1 tau(   5) = (   2.8758761   1.6603878  12.3481430  )
         6           Al1 tau(   6) = (   1.4379380   4.1509696  12.3481430  )
         7           Al1 tau(   7) = (  -1.4379380   4.1509696  12.3481430  )
         8           Ga1 tau(   8) = (   0.0000000   1.6603878  12.3481430  )
         9           Al1 tau(   9) = (  -0.0000000   3.3207757  14.6962860  )
        10           Al1 tau(  10) = (   1.4379380   0.8301939  14.6962860  )
        11           Al1 tau(  11) = (   4.3138141   0.8301939  14.6962860  )
        12           Ga1 tau(  12) = (   2.8758761   3.3207757  14.6962860  )

     number of k points=    20  Fermi-Dirac smearing, width (Ry)=  0.0110
                       cart. coord. in units 2pi/alat
        k(    1) = (   0.0000000   0.0000000   0.0000000), wk =   0.0555556
        k(    2) = (   0.0000000   0.0334594   0.0000000), wk =   0.1111111
        k(    3) = (   0.0000000   0.0669188   0.0000000), wk =   0.1111111
        k(    4) = (   0.0000000  -0.1003782   0.0000000), wk =   0.0555556
        k(    5) = (   0.0289767   0.0167297   0.0000000), wk =   0.1111111
        k(    6) = (   0.0289767   0.0501891   0.0000000), wk =   0.1111111
        k(    7) = (   0.0289767   0.0836485   0.0000000), wk =   0.1111111
        k(    8) = (   0.0289767  -0.0836485   0.0000000), wk =   0.1111111
        k(    9) = (   0.0289767  -0.0501891   0.0000000), wk =   0.1111111
        k(   10) = (   0.0289767  -0.0167297   0.0000000), wk =   0.1111111
        k(   11) = (   0.0579534   0.0334594   0.0000000), wk =   0.1111111
        k(   12) = (   0.0579534   0.0669188   0.0000000), wk =   0.1111111
        k(   13) = (   0.0579534   0.1003782   0.0000000), wk =   0.1111111
        k(   14) = (   0.0579534  -0.0669188   0.0000000), wk =   0.1111111
        k(   15) = (   0.0579534  -0.0334594   0.0000000), wk =   0.1111111
        k(   16) = (   0.0579534   0.0000000   0.0000000), wk =   0.1111111
        k(   17) = (  -0.0869300  -0.0501891   0.0000000), wk =   0.0555556
        k(   18) = (  -0.0869300  -0.0167297   0.0000000), wk =   0.1111111
        k(   19) = (  -0.0869300   0.0167297   0.0000000), wk =   0.1111111
        k(   20) = (  -0.0869300  -0.1505672   0.0000000), wk =   0.0555556

     Largest allocated arrays     est. size (Mb)     dimensions
     Largest temporary arrays     est. size (Mb)     dimensions

     Initial potential from superposition of free atoms
     Check: negative starting charge=   -0.000487

     starting charge   80.97781, renormalised to   84.00000

     negative rho (up, down):  5.055E-04 0.000E+00

     *
     * You are using vdW-DF for exchange-correlation in this calculation.
     * Please cite the following three references that made this development
     * possible:
     *
     *   M. Dion, H. Rydberg, E. Schroder, D. C. Langreth, and
     *   B. I. Lundqvist, Phys. Rev. Lett. 92, 246401 (2004).
     *
     *   T. Thonhauser, V. R. Cooper, S. Li, A. Puzder, P. Hyldgaard, and
     *   D. C. Langreth, Phys. Rev. B 76, 125112 (2007).
     *
     *   G. Roman-Perez and J. M. Soler, Phys. Rev. Lett. 103, 096102 (2009).
     *
     *
     * If you are using vdW-DF2, please also cite:
     *
     *   K. Lee, E. D. Murray, L. Kong, B. I. Lundqvist, and
     *   D. C. Langreth, Phys. Rev. B 82, 081101(R) (2010).
     *
     *
     * If you are calculating the stress with vdW-DF, please also cite:
     *
     *   R. Sabatini, E. Kucukbenli, B. Kolb, T. Thonhauser, and
     *   S. de Gironcoli, J. Phys.: Condens. Matter 24, 424209 (2012).
     *

     Carrying out vdW-DF run using the following parameters:

     Nqs =      20    Nr_points =    1024   r_max =   100.000
     q_mesh =
               0.00001000     0.04494208     0.09755937     0.15916263
               0.23128650     0.31572767     0.41458969     0.53033537
               0.66584808     0.82450364     1.01025438     1.22772762
               1.48234092     1.78043706     2.12944203     2.53805004
               3.01644009     3.57652955     4.23227104     5.00000000

     Gradients computed in reciprocal space

     Adding external electric field

     Computed dipole along edir(3) :
        Dipole               -0.0000 Ry au,         -0.0000 Debye
        Dipole field         -0.0000 Ry au

        Potential amp.        0.0000 Ry
        Total length         45.5025 bohr

     Starting wfc are   72 randomized atomic wfcs

     Self-consistent Calculation

     iteration #  1     ecut=    36.75 Ry     beta=0.10
     Davidson diagonalization with overlap
     ethr =  1.00E-02,  avg # of iterations =  7.8

[...]

     total energy              =   -1311.75679186 Ry
     Harris-Foulkes estimate   =   -1314.68349998 Ry
     estimated scf accuracy    <      16.11913276 Ry

[...]

     End of self-consistent calculation

          k = 0.0000 0.0000 0.0000 ( 18019 PWs)   bands (ev):

   -95.1181 -95.1174 -95.1173 -95.0579 -95.0579 -95.0361 -95.0361 -95.0360
   -95.0360 -15.4874 -15.4836 -15.4836 -15.4729 -15.4729 -15.4008 -15.3997
   -15.3873 -15.3873 -15.3872 -15.3872 -15.3817 -15.3817 -15.3789 -15.3789
   -11.1006  -9.4278  -6.9447  -5.5162  -5.3486  -4.9674  -4.9674  -4.8459
    -4.8459  -3.8252  -3.7747  -3.5874  -3.5874  -3.4311  -2.9065  -2.9065
    -1.3869  -1.2450  -0.7680  -0.7680  -0.4320  -0.4320   0.0821   2.1033
     2.1196   2.2022   2.4552   2.4552   2.4579   2.4579   3.0701   3.7494
     4.0705   5.4598   5.5394   5.5532   5.5532   5.6030   5.6062   5.7070
     5.7070   5.9748   6.0562   6.0562   7.0159   7.0574   7.1032   7.1032

[...]

          k =-0.0869-0.0502 0.0000 ( 17940 PWs)   bands (ev):

[...]

     the Fermi energy is    -0.4027 ev

!    total energy              =   -1311.50649612 Ry
     Harris-Foulkes estimate   =   -1311.50649113 Ry
     estimated scf accuracy    <       0.00000009 Ry

     The total energy is the sum of the following terms:

     one-electron contribution =   -4828.12898708 Ry
     hartree contribution      =    2419.50992571 Ry
     xc contribution           =    -188.93315704 Ry
     ewald contribution        =    1286.07488340 Ry
     electric field correction =       0.00000000 Ry
     smearing contrib. (-TS)   =      -0.02916112 Ry

     convergence has been achieved in  15 iterations

 BEEF-vdW xc energy contributions
           1 :   -165.849006426828
           2 :    149.067746925656
           3 :   -121.545520538111
           4 :    91.9879038114104
           5 :   -67.4478596245057
           6 :    50.6456925162846
           7 :   -40.1194140980792
           8 :    32.5314962018177
           9 :   -25.2857749462604
          10 :    17.8026386290630
          11 :   -11.0565278884772
          12 :    6.21014576316048
          13 :   -3.54925944379698
          14 :    2.36286157887912
          15 :   -1.57157511319232
          16 :   0.447367111747383
          17 :    1.08194138638362
          18 :   -2.60713866524674
          19 :    3.63247451698726
          20 :   -3.90902317353965
          21 :    3.56372050055609
          22 :   -3.01292900111520
          23 :    2.71939071355672
          24 :   -2.91232687540463
          25 :    3.43371065912697
          26 :   -3.83868187777682
          27 :    3.71852167050054
          28 :   -3.02778300702352
[...]
               a(1) = (   5.751752   0.000000   0.000000 )
               a(2) = (  -2.875876   4.981163   0.000000 )
               a(3) = (   0.000000   0.000000  24.696286 )

     reciprocal axes: (cart. coord. in units 2 pi/alat)
               b(1) = (  0.173860  0.100378  0.000000 )
               b(2) = (  0.000000  0.200756  0.000000 )
               b(3) = (  0.000000  0.000000  0.040492 )

     PseudoPot. # 1 for Al read from file:
     /afs/slac.stanford.edu/u/if/mamunm/psp/gbrv1.5pbe/Al.UPF
     MD5 check sum: 0a6289f5291fc8f409219462bc851e1f
     Pseudo is Ultrasoft + core correction, Zval =  3.0
     Generated by new atomic code, or converted to UPF format
     Using radial grid of  893 points,  3 beta functions with:
                l(1) =   0
                l(2) =   1
                l(3) =   2
     Q(r) pseudized with  8 coefficients,  rinner =    0.900   0.900   0.900
                                                       0.900   0.900

     PseudoPot. # 2 for Ga read from file:
     /afs/slac.stanford.edu/u/if/mamunm/psp/gbrv1.5pbe/Ga.UPF
     MD5 check sum: ccd671392a58a050fbb373893b4fcd66
     Pseudo is Ultrasoft + core correction, Zval = 19.0
     Generated by new atomic code, or converted to UPF format
     Using radial grid of  871 points,  6 beta functions with:
                l(1) =   0
                l(2) =   0
                l(3) =   1
                l(4) =   1
                l(5) =   2
                l(6) =   2
     Q(r) pseudized with  8 coefficients,  rinner =    1.250   1.250   1.250
                                                       1.250   1.250

     vdW kernel table read from file vdW_kernel_table
     MD5 check sum: 095c7af220d748ca6e76c0b4c6cfb241

     atomic species   valence    mass     pseudopotential
        Al1            3.00    26.98154     Al( 1.00)
        Ga1           19.00    69.72300     Ga( 1.00)

     No symmetry found

   Cartesian axes

     site n.     atom                  positions (alat units)
         1           Al1 tau(   1) = (   0.0000000   0.0000000  10.0000000  )
         2           Al1 tau(   2) = (  -1.4379380   2.4905817  10.0000000  )
         3           Al1 tau(   3) = (   1.4379380   2.4905817  10.0000000  )
         4           Ga1 tau(   4) = (   2.8758761   0.0000000  10.0000000  )
         5           Al1 tau(   5) = (   2.8758761   1.6603878  12.3481430  )
         6           Al1 tau(   6) = (   1.4379380   4.1509696  12.3481430  )
         7           Al1 tau(   7) = (  -1.4379380   4.1509696  12.3481430  )
         8           Ga1 tau(   8) = (   0.0000000   1.6603878  12.3481430  )
         9           Al1 tau(   9) = (  -0.0000030   3.3311126  14.6570227  )
        10           Al1 tau(  10) = (   1.4468882   0.8250286  14.6570216  )
        11           Al1 tau(  11) = (   4.3048616   0.8250309  14.6570223  )
        12           Ga1 tau(  12) = (   2.8758737   3.3207810  14.7369192  )

     number of k points=    20  Fermi-Dirac smearing, width (Ry)=  0.0110
                       cart. coord. in units 2pi/alat
        k(    1) = (   0.0000000   0.0000000   0.0000000), wk =   0.0555556
        k(    2) = (   0.0000000   0.0334594   0.0000000), wk =   0.1111111
        k(    3) = (   0.0000000   0.0669188   0.0000000), wk =   0.1111111
        k(    4) = (   0.0000000  -0.1003782   0.0000000), wk =   0.0555556
        k(    5) = (   0.0289767   0.0167297   0.0000000), wk =   0.1111111
        k(    6) = (   0.0289767   0.0501891   0.0000000), wk =   0.1111111
        k(    7) = (   0.0289767   0.0836485   0.0000000), wk =   0.1111111
        k(    8) = (   0.0289767  -0.0836485   0.0000000), wk =   0.1111111
        k(    9) = (   0.0289767  -0.0501891   0.0000000), wk =   0.1111111
        k(   10) = (   0.0289767  -0.0167297   0.0000000), wk =   0.1111111
        k(   11) = (   0.0579534   0.0334594   0.0000000), wk =   0.1111111
        k(   12) = (   0.0579534   0.0669188   0.0000000), wk =   0.1111111
        k(   13) = (   0.0579534   0.1003782   0.0000000), wk =   0.1111111
        k(   14) = (   0.0579534  -0.0669188   0.0000000), wk =   0.1111111
        k(   15) = (   0.0579534  -0.0334594   0.0000000), wk =   0.1111111
        k(   16) = (   0.0579534   0.0000000   0.0000000), wk =   0.1111111
        k(   17) = (  -0.0869300  -0.0501891   0.0000000), wk =   0.0555556
        k(   18) = (  -0.0869300  -0.0167297   0.0000000), wk =   0.1111111
        k(   19) = (  -0.0869300   0.0167297   0.0000000), wk =   0.1111111
        k(   20) = (  -0.0869300  -0.1505672   0.0000000), wk =   0.0555556

     Largest allocated arrays     est. size (Mb)     dimensions
     Largest temporary arrays     est. size (Mb)     dimensions

     Initial potential from superposition of free atoms
     Check: negative starting charge=   -0.000490

     starting charge   80.97781, renormalised to   84.00000

[...]

     *
     * You are using vdW-DF for exchange-correlation in this calculation.
     * Please cite the following three references that made this development
     * possible:
     *
     *   M. Dion, H. Rydberg, E. Schroder, D. C. Langreth, and
     *   B. I. Lundqvist, Phys. Rev. Lett. 92, 246401 (2004).
     *
     *   T. Thonhauser, V. R. Cooper, S. Li, A. Puzder, P. Hyldgaard, and
     *   D. C. Langreth, Phys. Rev. B 76, 125112 (2007).
     *
     *   G. Roman-Perez and J. M. Soler, Phys. Rev. Lett. 103, 096102 (2009).
     *
     *
     * If you are using vdW-DF2, please also cite:
     *
     *   K. Lee, E. D. Murray, L. Kong, B. I. Lundqvist, and
     *   D. C. Langreth, Phys. Rev. B 82, 081101(R) (2010).
     *
     *
     * If you are calculating the stress with vdW-DF, please also cite:
     *
     *   R. Sabatini, E. Kucukbenli, B. Kolb, T. Thonhauser, and
     *   S. de Gironcoli, J. Phys.: Condens. Matter 24, 424209 (2012).
     *

     Carrying out vdW-DF run using the following parameters:

     Nqs =      20    Nr_points =    1024   r_max =   100.000
     q_mesh =
               0.00001000     0.04494208     0.09755937     0.15916263
               0.23128650     0.31572767     0.41458969     0.53033537
               0.66584808     0.82450364     1.01025438     1.22772762
               1.48234092     1.78043706     2.12944203     2.53805004
               3.01644009     3.57652955     4.23227104     5.00000000

     Gradients computed in reciprocal space

[...]

     Starting wfc are   72 randomized atomic wfcs

     Self-consistent Calculation

[...]

     total energy              =   -1311.51456999 Ry
     Harris-Foulkes estimate   =   -1311.51456914 Ry
     estimated scf accuracy    <       0.00000168 Ry

     iteration # 14     ecut=    36.75 Ry     beta=0.10
     Davidson diagonalization with overlap
     ethr =  2.00E-09,  avg # of iterations =  2.0

[...]

     negative rho (up, down):  5.918E-04 0.000E+00

     Adding external electric field

     Computed dipole along edir(3) :
        Dipole               -0.0042 Ry au,         -0.0106 Debye
        Dipole field         -0.0000 Ry au

        Potential amp.        0.0010 Ry
        Total length         45.5025 bohr

     End of self-consistent calculation

[...]

          k = 0.0580 0.0000 0.0000 ( 17975 PWs)   bands (ev):

[...]

          k =-0.0869-0.1506 0.0000 ( 17940 PWs)   bands (ev):

   -95.1293 -95.1282 -95.1281 -95.0628 -95.0617 -95.0405 -95.0405 -95.0388
   -95.0388 -15.4988 -15.4958 -15.4938 -15.4835 -15.4834 -15.4034 -15.4022
   -15.3926 -15.3914 -15.3896 -15.3884 -15.3869 -15.3848 -15.3847 -15.3818
    -9.7315  -9.5397  -8.0768  -7.8263  -6.7948  -6.4353  -5.4914  -5.1957
    -4.8917  -4.7525  -2.5133  -2.3111  -1.9932  -1.9784  -0.9411  -0.9268
    -0.6049  -0.4697   0.3366   0.8048   0.8926   0.9441   1.2919   1.3256
     1.3350   1.5066   2.2081   2.2195   3.0514   3.3349   3.5673   3.6854
     3.7272   3.7868   3.7900   3.8231   4.2624   4.3913   4.5624   4.5966
     5.2530   5.2728   5.5149   5.5675   6.0359   6.2740   6.4000   6.4318

     the Fermi energy is    -0.4123 ev

!    total energy              =   -1311.51457546 Ry
     Harris-Foulkes estimate   =   -1311.51457056 Ry
     estimated scf accuracy    <       0.00000074 Ry

     The total energy is the sum of the following terms:

     one-electron contribution =   -4820.92968451 Ry
     hartree contribution      =    2415.88251585 Ry
     xc contribution           =    -188.95831691 Ry
     ewald contribution        =    1282.51994750 Ry
     electric field correction =       0.00000005 Ry
     smearing contrib. (-TS)   =      -0.02903744 Ry

     convergence has been achieved in  14 iterations

 BEEF-vdW xc energy contributions
           1 :   -166.084900999560
           2 :    149.306696487614
           3 :   -121.788524246285
           4 :    92.2341981332392
           5 :   -67.6973618285313
           6 :    50.9007705993536
           7 :   -40.3832473517509
           8 :    32.8042891115240
           9 :   -25.5628027661935
          10 :    18.0768003207578
          11 :   -11.3235884865156
          12 :    6.47192873204457
          13 :   -3.81149437715649
          14 :    2.62943356492664
          15 :   -1.84043437583347
          16 :   0.712131592035433
          17 :   0.826254365941708
          18 :   -2.35981747930620
          19 :    3.38817710821820
          20 :   -3.66344203067257
          21 :    3.31881285670943
          22 :   -2.77686733669250
          23 :    2.50103703503220
          24 :   -2.71429199540097
          25 :    3.24879261870001
          26 :   -3.65153876314781
          27 :    3.51128616926536
          28 :   -2.78709618104727
          29 :    1.87353433883123
          30 :   -1.32042501220249
          31 :   -14.7082007835815
          32 :   -10.2760482612936

     Forces acting on atoms (Ry/au):

     negative rho (up, down):  5.918E-04 0.000E+00
     atom    1 type  1   force =     0.00000029   -0.00169197    0.00416027
     atom    2 type  1   force =    -0.00146568    0.00084709    0.00416027
     atom    3 type  1   force =     0.00146622    0.00084706    0.00416029
     atom    4 type  2   force =    -0.00000136   -0.00000366   -0.00359146
     atom    5 type  1   force =     0.00000024    0.00217195   -0.00189219
     atom    6 type  1   force =     0.00188050   -0.00108481   -0.00189198
     atom    7 type  1   force =    -0.00188003   -0.00108483   -0.00189217
     atom    8 type  2   force =    -0.00000130   -0.00000205   -0.00322192
     atom    9 type  1   force =     0.00000055   -0.00094383   -0.00023544
     atom   10 type  1   force =    -0.00081779    0.00047310   -0.00023535
     atom   11 type  1   force =     0.00081833    0.00047281   -0.00023543
     atom   12 type  2   force =     0.00000002   -0.00000085    0.00071509

     Total force =     0.010585     Total SCF correction =     0.001156
     SCF correction compared to forces is large: reduce conv_thr to get better values

     entering subroutine stress ...

     negative rho (up, down):  5.918E-04 0.000E+00
          total   stress  (Ry/bohr**3)                   (kbar)     P=   -6.75
  -0.00006081  -0.00000000   0.00000000         -8.95     -0.00      0.00
  -0.00000000  -0.00006081  -0.00000000         -0.00     -8.95     -0.00
   0.00000000  -0.00000000  -0.00001601          0.00     -0.00     -2.36

 !ASE

     Writing output data file calc.save

     General routines

     Parallel routines

   This run was terminated on:  17:59:49  19Dec2018

   JOB DONE.
Job  /afs/slac/g/suncat/bin/suncat-tsmpirun -x LD_LIBRARY_PATH -wdir /scratch/qe773261_UpnSh pw.x -in pw.inp

TID   HOST_NAME   COMMAND_LINE            STATUS            TERMINATION_TIME
00000 suncat0137 pw.x -in pw.inp   Done                     12/19/2018 17:59:49
00001 suncat0137 pw.x -in pw.inp   Done                     12/19/2018 17:59:49
00002 suncat0137 pw.x -in pw.inp   Done                     12/19/2018 17:59:49
00003 suncat0137 pw.x -in pw.inp   Done                     12/19/2018 17:59:49
00004 suncat0137 pw.x -in pw.inp   Done                     12/19/2018 17:59:49
00005 suncat0137 pw.x -in pw.inp   Done                     12/19/2018 17:59:49
00006 suncat0137 pw.x -in pw.inp   Done                     12/19/2018 17:59:49
00007 suncat0137 pw.x -in pw.inp   Done                     12/19/2018 17:59:49
00008 suncat0136 pw.x -in pw.inp   Done                     12/19/2018 17:59:49
00009 suncat0136 pw.x -in pw.inp   Done                     12/19/2018 17:59:49
00010 suncat0136 pw.x -in pw.inp   Done                     12/19/2018 17:59:49
00011 suncat0136 pw.x -in pw.inp   Done                     12/19/2018 17:59:49
00012 suncat0136 pw.x -in pw.inp   Done                     12/19/2018 17:59:49
00013 suncat0136 pw.x -in pw.inp   Done                     12/19/2018 17:59:49
00014 suncat0136 pw.x -in pw.inp   Done                     12/19/2018 17:59:49
00015 suncat0136 pw.x -in pw.inp   Done                     12/19/2018 17:59:49
00016 suncat0135 pw.x -in pw.inp   Done                     12/19/2018 17:59:49
00017 suncat0135 pw.x -in pw.inp   Done                     12/19/2018 17:59:49
00018 suncat0135 pw.x -in pw.inp   Done                     12/19/2018 17:59:49
00019 suncat0135 pw.x -in pw.inp   Done                     12/19/2018 17:59:49
00020 suncat0135 pw.x -in pw.inp   Done                     12/19/2018 17:59:49
00021 suncat0135 pw.x -in pw.inp   Done                     12/19/2018 17:59:49
00022 suncat0135 pw.x -in pw.inp   Done                     12/19/2018 17:59:49
00023 suncat0135 pw.x -in pw.inp   Done                     12/19/2018 17:59:49
00024 suncat0134 pw.x -in pw.inp   Done                     12/19/2018 17:59:49
00025 suncat0134 pw.x -in pw.inp   Done                     12/19/2018 17:59:49
00026 suncat0134 pw.x -in pw.inp   Done                     12/19/2018 17:59:49
00027 suncat0134 pw.x -in pw.inp   Done                     12/19/2018 17:59:49
00028 suncat0134 pw.x -in pw.inp   Done                     12/19/2018 17:59:49
00029 suncat0134 pw.x -in pw.inp   Done                     12/19/2018 17:59:49
00030 suncat0134 pw.x -in pw.inp   Done                     12/19/2018 17:59:49
00031 suncat0134 pw.x -in pw.inp   Done                     12/19/2018 17:59:49
00032 suncat0133 pw.x -in pw.inp   Done                     12/19/2018 17:59:49
00033 suncat0133 pw.x -in pw.inp   Done                     12/19/2018 17:59:49
00034 suncat0133 pw.x -in pw.inp   Done                     12/19/2018 17:59:49
00035 suncat0133 pw.x -in pw.inp   Done                     12/19/2018 17:59:49
00036 suncat0133 pw.x -in pw.inp   Done                     12/19/2018 17:59:49
00037 suncat0133 pw.x -in pw.inp   Done                     12/19/2018 17:59:49
00038 suncat0133 pw.x -in pw.inp   Done                     12/19/2018 17:59:49
00039 suncat0133 pw.x -in pw.inp   Done                     12/19/2018 17:59:49
00040 suncat0132 pw.x -in pw.inp   Done                     12/19/2018 17:59:49
00041 suncat0132 pw.x -in pw.inp   Done                     12/19/2018 17:59:49
00042 suncat0132 pw.x -in pw.inp   Done                     12/19/2018 17:59:49
00043 suncat0132 pw.x -in pw.inp   Done                     12/19/2018 17:59:49
00044 suncat0132 pw.x -in pw.inp   Done                     12/19/2018 17:59:49
00045 suncat0132 pw.x -in pw.inp   Done                     12/19/2018 17:59:49
00046 suncat0132 pw.x -in pw.inp   Done                     12/19/2018 17:59:49
00047 suncat0132 pw.x -in pw.inp   Done                     12/19/2018 17:59:49
00048 suncat0131 pw.x -in pw.inp   Done                     12/19/2018 17:59:49
00049 suncat0131 pw.x -in pw.inp   Done                     12/19/2018 17:59:49
00050 suncat0131 pw.x -in pw.inp   Done                     12/19/2018 17:59:49
00051 suncat0131 pw.x -in pw.inp   Done                     12/19/2018 17:59:49
00052 suncat0131 pw.x -in pw.inp   Done                     12/19/2018 17:59:49
00053 suncat0131 pw.x -in pw.inp   Done                     12/19/2018 17:59:49
00054 suncat0131 pw.x -in pw.inp   Done                     12/19/2018 17:59:49
00055 suncat0131 pw.x -in pw.inp   Done                     12/19/2018 17:59:49
00056 suncat0130 pw.x -in pw.inp   Done                     12/19/2018 17:59:49
00057 suncat0130 pw.x -in pw.inp   Done                     12/19/2018 17:59:49
00058 suncat0130 pw.x -in pw.inp   Done                     12/19/2018 17:59:49
00059 suncat0130 pw.x -in pw.inp   Done                     12/19/2018 17:59:49
00060 suncat0130 pw.x -in pw.inp   Done                     12/19/2018 17:59:49
00061 suncat0130 pw.x -in pw.inp   Done                     12/19/2018 17:59:49
00062 suncat0130 pw.x -in pw.inp   Done                     12/19/2018 17:59:49
00063 suncat0130 pw.x -in pw.inp   Done                     12/19/2018 17:59:49