     Program PWSCF v.5.1rc2 (svn rev. 11289) starts on 27Dec2018 at 17:35:42

     Current dimensions of program PWSCF are:
     Max number of different atomic species (ntypx) = 10
     Max number of k-points (npk) =  40000
     Max angular momentum in pseudopotentials (lmaxx) =  3
     Presently stress not available with electric field

     IMPORTANT: XC functional enforced from input :
     Exchange-correlation      = BEEF-VDW ( 1  4 27 13 2)
     Any further DFT definition will be discarded
     Please, verify this is what you really want

     Subspace diagonalization in iterative solution of the eigenvalue problem:
     a serial algorithm will be used

     bravais-lattice index     =            0
     lattice parameter (alat)  =       1.8897  a.u.
     unit-cell volume          =    4434.7544 (a.u.)^3
     number of atoms/cell      =           12
     number of atomic types    =            2
     number of electrons       =       192.00
     number of Kohn-Sham states=          126
     kinetic-energy cutoff     =      36.7493  Ry
     charge density cutoff     =     367.4932  Ry
     convergence threshold     =      1.0E-06
     mixing beta               =       0.1000
     number of iterations used =           10  plain     mixing
     Exchange-correlation      = BEEF-VDW ( 1  4 27 13 2)
     nstep                     =           50

     celldm(1)=   1.889726  celldm(2)=   0.000000  celldm(3)=   0.000000
     celldm(4)=   0.000000  celldm(5)=   0.000000  celldm(6)=   0.000000

     crystal axes: (cart. coord. in units of alat)
               a(1) = (   5.560722   0.000000   0.000000 )
               a(2) = (  -2.780361   4.815726   0.000000 )
               a(3) = (   0.000000   0.000000  24.540310 )

     reciprocal axes: (cart. coord. in units 2 pi/alat)
               b(1) = (  0.179833  0.103827  0.000000 )
               b(2) = (  0.000000  0.207653  0.000000 )
               b(3) = (  0.000000  0.000000  0.040749 )

     PseudoPot. # 1 for Pd read from file:
     /afs/slac.stanford.edu/u/if/mamunm/psp/gbrv1.5pbe/Pd.UPF
     MD5 check sum: 2d733d2bc2cbfd217af676df1668a4bc
     Pseudo is Ultrasoft + core correction, Zval = 16.0
     Generated by new atomic code, or converted to UPF format
     Using radial grid of  887 points,  6 beta functions with:
                l(1) =   0
                l(2) =   0
                l(3) =   1
                l(4) =   1
                l(5) =   2
                l(6) =   2
     Q(r) pseudized with  8 coefficients,  rinner =    1.130   1.130   1.130
                                                       1.130   1.130

     PseudoPot. # 2 for Ru read from file:
     /afs/slac.stanford.edu/u/if/mamunm/psp/gbrv1.5pbe/Ru.UPF
     MD5 check sum: 7158a806dd851261a58e6920c40ebe78
     Pseudo is Ultrasoft + core correction, Zval = 16.0
     Generated by new atomic code, or converted to UPF format
     Using radial grid of  967 points,  6 beta functions with:
                l(1) =   0
                l(2) =   0
                l(3) =   1
                l(4) =   1
                l(5) =   2
                l(6) =   2
     Q(r) pseudized with  8 coefficients,  rinner =    1.300   1.300   1.300
                                                       1.300   1.300

     vdW kernel table read from file vdW_kernel_table
     MD5 check sum: 095c7af220d748ca6e76c0b4c6cfb241

     atomic species   valence    mass     pseudopotential
        Pd1           16.00   106.42000     Pd( 1.00)
        Ru1           16.00   101.07000     Ru( 1.00)

     No symmetry found

   Cartesian axes

     site n.     atom                  positions (alat units)
         1           Pd1 tau(   1) = (   0.0000000   0.0000000  10.0000000  )
         2           Pd1 tau(   2) = (  -1.3901804   2.4078631  10.0000000  )
         3           Pd1 tau(   3) = (   1.3901804   2.4078631  10.0000000  )
         4           Ru1 tau(   4) = (   2.7803608   0.0000000  10.0000000  )
         5           Pd1 tau(   5) = (   2.7803608   1.6052420  12.2701551  )
         6           Pd1 tau(   6) = (   1.3901804   4.0131051  12.2701551  )
         7           Pd1 tau(   7) = (  -1.3901804   4.0131051  12.2701551  )
         8           Ru1 tau(   8) = (   0.0000000   1.6052420  12.2701551  )
         9           Pd1 tau(   9) = (  -0.0000000   3.2104841  14.5403101  )
        10           Pd1 tau(  10) = (   1.3901804   0.8026210  14.5403101  )
        11           Pd1 tau(  11) = (   4.1705412   0.8026210  14.5403101  )
        12           Ru1 tau(  12) = (   2.7803608   3.2104841  14.5403101  )

     number of k points=    20  Fermi-Dirac smearing, width (Ry)=  0.0110
                       cart. coord. in units 2pi/alat
        k(    1) = (   0.0000000   0.0000000   0.0000000), wk =   0.0555556
        k(    2) = (   0.0000000   0.0346088   0.0000000), wk =   0.1111111
        k(    3) = (   0.0000000   0.0692177   0.0000000), wk =   0.1111111
        k(    4) = (   0.0000000  -0.1038265   0.0000000), wk =   0.0555556
        k(    5) = (   0.0299721   0.0173044   0.0000000), wk =   0.1111111
        k(    6) = (   0.0299721   0.0519133   0.0000000), wk =   0.1111111
        k(    7) = (   0.0299721   0.0865221   0.0000000), wk =   0.1111111
        k(    8) = (   0.0299721  -0.0865221   0.0000000), wk =   0.1111111
        k(    9) = (   0.0299721  -0.0519133   0.0000000), wk =   0.1111111
        k(   10) = (   0.0299721  -0.0173044   0.0000000), wk =   0.1111111
        k(   11) = (   0.0599443   0.0346088   0.0000000), wk =   0.1111111
        k(   12) = (   0.0599443   0.0692177   0.0000000), wk =   0.1111111
        k(   13) = (   0.0599443   0.1038265   0.0000000), wk =   0.1111111
        k(   14) = (   0.0599443  -0.0692177   0.0000000), wk =   0.1111111
        k(   15) = (   0.0599443  -0.0346088   0.0000000), wk =   0.1111111
        k(   16) = (   0.0599443   0.0000000   0.0000000), wk =   0.1111111
        k(   17) = (  -0.0899164  -0.0519133   0.0000000), wk =   0.0555556
        k(   18) = (  -0.0899164  -0.0173044   0.0000000), wk =   0.1111111
        k(   19) = (  -0.0899164   0.0173044   0.0000000), wk =   0.1111111
        k(   20) = (  -0.0899164  -0.1557398   0.0000000), wk =   0.0555556

     Largest allocated arrays     est. size (Mb)     dimensions
     Largest temporary arrays     est. size (Mb)     dimensions

     Initial potential from superposition of free atoms
     Check: negative starting charge=   -0.914982

     starting charge  184.49989, renormalised to  192.00000

     negative rho (up, down):  9.522E-01 0.000E+00

     *
     * You are using vdW-DF for exchange-correlation in this calculation.
     * Please cite the following three references that made this development
     * possible:
     *
     *   M. Dion, H. Rydberg, E. Schroder, D. C. Langreth, and
     *   B. I. Lundqvist, Phys. Rev. Lett. 92, 246401 (2004).
     *
     *   T. Thonhauser, V. R. Cooper, S. Li, A. Puzder, P. Hyldgaard, and
     *   D. C. Langreth, Phys. Rev. B 76, 125112 (2007).
     *
     *   G. Roman-Perez and J. M. Soler, Phys. Rev. Lett. 103, 096102 (2009).
     *
     *
     * If you are using vdW-DF2, please also cite:
     *
     *   K. Lee, E. D. Murray, L. Kong, B. I. Lundqvist, and
     *   D. C. Langreth, Phys. Rev. B 82, 081101(R) (2010).
     *
     *
     * If you are calculating the stress with vdW-DF, please also cite:
     *
     *   R. Sabatini, E. Kucukbenli, B. Kolb, T. Thonhauser, and
     *   S. de Gironcoli, J. Phys.: Condens. Matter 24, 424209 (2012).
     *

     Carrying out vdW-DF run using the following parameters:

     Nqs =      20    Nr_points =    1024   r_max =   100.000
     q_mesh =
               0.00001000     0.04494208     0.09755937     0.15916263
               0.23128650     0.31572767     0.41458969     0.53033537
               0.66584808     0.82450364     1.01025438     1.22772762
               1.48234092     1.78043706     2.12944203     2.53805004
               3.01644009     3.57652955     4.23227104     5.00000000

     Gradients computed in reciprocal space

     Adding external electric field

     Computed dipole along edir(3) :
        Dipole               -0.0000 Ry au,         -0.0000 Debye
        Dipole field         -0.0000 Ry au

        Potential amp.        0.0000 Ry
        Total length         45.2151 bohr

     Starting wfc are  147 randomized atomic wfcs

     Self-consistent Calculation

     iteration #  1     ecut=    36.75 Ry     beta=0.10
     Davidson diagonalization with overlap
     ethr =  1.00E-02,  avg # of iterations =  7.5

[...]

     total energy              =   -2379.22988798 Ry
     Harris-Foulkes estimate   =   -2390.15490976 Ry
     estimated scf accuracy    <      63.50041203 Ry

[...]

     End of self-consistent calculation

          k = 0.0000 0.0000 0.0000 ( 16703 PWs)   bands (ev):

   -71.4475 -71.0367 -71.0365 -49.0617 -48.9976 -48.9976 -48.9295 -48.9295
   -48.9077 -48.8724 -48.7742 -48.7742 -48.7227 -48.7227 -48.7183 -48.7162
   -48.6945 -48.6945 -48.6112 -48.6079 -48.4974 -48.4974 -48.4962 -48.4962
   -48.4543 -48.4338 -48.4131 -48.4131 -48.4041 -48.4041 -41.4402 -41.3602
   -41.3602 -41.0294 -41.0294 -41.0285 -41.0285 -40.9237 -40.9201  -4.8877
    -3.5997  -3.5919  -3.5908  -3.5908  -3.5647  -3.4056  -3.3299  -3.3299
    -3.1691  -3.1648  -3.1648  -2.9679  -2.9011  -2.9011  -2.0094  -1.9170
    -1.9170  -1.6931  -1.6931  -1.5626  -1.4410  -1.3275  -1.3275  -1.2346
    -1.1300  -1.1300  -1.0077  -0.9454  -0.9454  -0.9018  -0.9018  -0.4782
    -0.4782  -0.1211   0.1178   0.1178   0.1394   0.1394   0.2701   0.2701
     0.2793   0.7078   0.7139   0.8955   0.8955   1.0272   1.1133   1.1133
     1.2696   1.2925   1.3170   1.4119   1.4119   1.6653   1.6653   1.7746
     1.8310   1.8310   2.0617   2.0617   2.1945   2.1945   2.6570   3.4797
     3.4797   3.5242   4.9129   4.9129   5.0740   5.1602   5.1602   5.2672
     5.8421   6.1107   6.4941   7.4377   8.2909   8.4262   8.4262   8.4823
     8.4823   8.6006   8.6430   9.6828   9.6828   9.8185

[...]

          k =-0.0899-0.0519 0.0000 ( 16668 PWs)   bands (ev):

[...]

     the Fermi energy is     1.3533 ev

!    total energy              =   -2383.17663589 Ry
     Harris-Foulkes estimate   =   -2383.17663723 Ry
     estimated scf accuracy    <       0.00000037 Ry

     The total energy is the sum of the following terms:

     one-electron contribution =  -20684.36136390 Ry
     hartree contribution      =   10377.91128923 Ry
     xc contribution           =    -372.90561629 Ry
     ewald contribution        =    8296.30070252 Ry
     electric field correction =       0.00000000 Ry
     smearing contrib. (-TS)   =      -0.12164746 Ry

     convergence has been achieved in  19 iterations

 BEEF-vdW xc energy contributions
           1 :   -324.425942037665
           2 :    296.827122121415
           3 :   -249.530252378783
           4 :    194.995557184917
           5 :   -145.496418059695
           6 :    109.110640395246
           7 :   -87.9040436503366
           8 :    78.6591479055875
           9 :   -75.4485892806578
          10 :    72.6830090748174
          11 :   -67.2809016160116
[...]
     MD5 check sum: 2d733d2bc2cbfd217af676df1668a4bc
     Pseudo is Ultrasoft + core correction, Zval = 16.0
     Generated by new atomic code, or converted to UPF format
     Using radial grid of  887 points,  6 beta functions with:
                l(1) =   0
                l(2) =   0
                l(3) =   1
                l(4) =   1
                l(5) =   2
                l(6) =   2
     Q(r) pseudized with  8 coefficients,  rinner =    1.130   1.130   1.130
                                                       1.130   1.130

     PseudoPot. # 2 for Ru read from file:
     /afs/slac.stanford.edu/u/if/mamunm/psp/gbrv1.5pbe/Ru.UPF
     MD5 check sum: 7158a806dd851261a58e6920c40ebe78
     Pseudo is Ultrasoft + core correction, Zval = 16.0
     Generated by new atomic code, or converted to UPF format
     Using radial grid of  967 points,  6 beta functions with:
                l(1) =   0
                l(2) =   0
                l(3) =   1
                l(4) =   1
                l(5) =   2
                l(6) =   2
     Q(r) pseudized with  8 coefficients,  rinner =    1.300   1.300   1.300
                                                       1.300   1.300

     vdW kernel table read from file vdW_kernel_table
     MD5 check sum: 095c7af220d748ca6e76c0b4c6cfb241

     atomic species   valence    mass     pseudopotential
        Pd1           16.00   106.42000     Pd( 1.00)
        Ru1           16.00   101.07000     Ru( 1.00)

     No symmetry found

   Cartesian axes

     site n.     atom                  positions (alat units)
         1           Pd1 tau(   1) = (   0.0000000   0.0000000  10.0000000  )
         2           Pd1 tau(   2) = (  -1.3901804   2.4078631  10.0000000  )
         3           Pd1 tau(   3) = (   1.3901804   2.4078631  10.0000000  )
         4           Ru1 tau(   4) = (   2.7803608   0.0000000  10.0000000  )
         5           Pd1 tau(   5) = (   2.7803608   1.6052420  12.2701551  )
         6           Pd1 tau(   6) = (   1.3901804   4.0131051  12.2701551  )
         7           Pd1 tau(   7) = (  -1.3901804   4.0131051  12.2701551  )
         8           Ru1 tau(   8) = (   0.0000000   1.6052420  12.2701551  )
         9           Pd1 tau(   9) = (  -0.0000005   3.1920333  14.5598881  )
        10           Pd1 tau(  10) = (   1.3742016   0.8118458  14.5598881  )
        11           Pd1 tau(  11) = (   4.1865197   0.8118459  14.5598883  )
        12           Ru1 tau(  12) = (   2.7803613   3.2104842  14.4169398  )

     number of k points=    20  Fermi-Dirac smearing, width (Ry)=  0.0110
                       cart. coord. in units 2pi/alat
        k(    1) = (   0.0000000   0.0000000   0.0000000), wk =   0.0555556
        k(    2) = (   0.0000000   0.0346088   0.0000000), wk =   0.1111111
        k(    3) = (   0.0000000   0.0692177   0.0000000), wk =   0.1111111
        k(    4) = (   0.0000000  -0.1038265   0.0000000), wk =   0.0555556
        k(    5) = (   0.0299721   0.0173044   0.0000000), wk =   0.1111111
        k(    6) = (   0.0299721   0.0519133   0.0000000), wk =   0.1111111
        k(    7) = (   0.0299721   0.0865221   0.0000000), wk =   0.1111111
        k(    8) = (   0.0299721  -0.0865221   0.0000000), wk =   0.1111111
        k(    9) = (   0.0299721  -0.0519133   0.0000000), wk =   0.1111111
        k(   10) = (   0.0299721  -0.0173044   0.0000000), wk =   0.1111111
        k(   11) = (   0.0599443   0.0346088   0.0000000), wk =   0.1111111
        k(   12) = (   0.0599443   0.0692177   0.0000000), wk =   0.1111111
        k(   13) = (   0.0599443   0.1038265   0.0000000), wk =   0.1111111
        k(   14) = (   0.0599443  -0.0692177   0.0000000), wk =   0.1111111
        k(   15) = (   0.0599443  -0.0346088   0.0000000), wk =   0.1111111
        k(   16) = (   0.0599443   0.0000000   0.0000000), wk =   0.1111111
        k(   17) = (  -0.0899164  -0.0519133   0.0000000), wk =   0.0555556
        k(   18) = (  -0.0899164  -0.0173044   0.0000000), wk =   0.1111111
        k(   19) = (  -0.0899164   0.0173044   0.0000000), wk =   0.1111111
        k(   20) = (  -0.0899164  -0.1557398   0.0000000), wk =   0.0555556

     Largest allocated arrays     est. size (Mb)     dimensions
     Largest temporary arrays     est. size (Mb)     dimensions

     Initial potential from superposition of free atoms
     Check: negative starting charge=   -0.907703

     starting charge  184.49989, renormalised to  192.00000

[...]

     *
     * You are using vdW-DF for exchange-correlation in this calculation.
     * Please cite the following three references that made this development
     * possible:
     *
     *   M. Dion, H. Rydberg, E. Schroder, D. C. Langreth, and
     *   B. I. Lundqvist, Phys. Rev. Lett. 92, 246401 (2004).
     *
     *   T. Thonhauser, V. R. Cooper, S. Li, A. Puzder, P. Hyldgaard, and
     *   D. C. Langreth, Phys. Rev. B 76, 125112 (2007).
     *
     *   G. Roman-Perez and J. M. Soler, Phys. Rev. Lett. 103, 096102 (2009).
     *
     *
     * If you are using vdW-DF2, please also cite:
     *
     *   K. Lee, E. D. Murray, L. Kong, B. I. Lundqvist, and
     *   D. C. Langreth, Phys. Rev. B 82, 081101(R) (2010).
     *
     *
     * If you are calculating the stress with vdW-DF, please also cite:
     *
     *   R. Sabatini, E. Kucukbenli, B. Kolb, T. Thonhauser, and
     *   S. de Gironcoli, J. Phys.: Condens. Matter 24, 424209 (2012).
     *

     Carrying out vdW-DF run using the following parameters:

     Nqs =      20    Nr_points =    1024   r_max =   100.000
     q_mesh =
               0.00001000     0.04494208     0.09755937     0.15916263
               0.23128650     0.31572767     0.41458969     0.53033537
               0.66584808     0.82450364     1.01025438     1.22772762
               1.48234092     1.78043706     2.12944203     2.53805004
               3.01644009     3.57652955     4.23227104     5.00000000

     Gradients computed in reciprocal space

[...]

     Starting wfc are  147 randomized atomic wfcs

     Self-consistent Calculation

[...]

     total energy              =   -2383.18295179 Ry
     Harris-Foulkes estimate   =   -2383.18295268 Ry
     estimated scf accuracy    <       0.00000815 Ry

     iteration # 19     ecut=    36.75 Ry     beta=0.10
     Davidson diagonalization with overlap
     ethr =  4.25E-09,  avg # of iterations =  1.0

[...]

     negative rho (up, down):  9.458E-01 0.000E+00

     Adding external electric field

     Computed dipole along edir(3) :
        Dipole                0.0009 Ry au,          0.0022 Debye
        Dipole field          0.0000 Ry au

        Potential amp.       -0.0002 Ry
        Total length         45.2151 bohr

     End of self-consistent calculation

[...]

          k = 0.0599 0.0000 0.0000 ( 16634 PWs)   bands (ev):

[...]

          k =-0.0899-0.1557 0.0000 ( 16668 PWs)   bands (ev):

   -71.4318 -71.1021 -71.0169 -49.0811 -49.0309 -49.0046 -48.9863 -48.9600
   -48.9307 -48.8913 -48.8591 -48.7970 -48.7088 -48.6909 -48.6641 -48.6487
   -48.6421 -48.6250 -48.6216 -48.6086 -48.5747 -48.5490 -48.5005 -48.4770
   -48.4301 -48.4213 -48.4089 -48.4043 -48.3946 -48.3829 -41.4278 -41.3497
   -41.3460 -41.0858 -41.0822 -41.0214 -41.0173 -41.0140 -40.8987  -3.5259
    -3.4845  -3.0005  -2.9242  -2.9120  -2.8430  -2.7011  -2.6989  -2.6636
    -2.5728  -2.5372  -2.3888  -2.3415  -2.2022  -2.1674  -2.1381  -1.9222
    -1.8458  -1.8275  -1.8235  -1.5583  -1.5455  -1.4194  -1.3413  -1.1715
    -1.1530  -1.0965  -1.0619  -0.9727  -0.9277  -0.9157  -0.8630  -0.8232
    -0.8036  -0.7643  -0.7321  -0.6357  -0.5872  -0.5049  -0.3715  -0.3211
    -0.2257  -0.1679  -0.0497  -0.0324  -0.0200   0.3020   0.3307   0.3950
     0.4830   0.5564   0.7498   0.7754   0.8732   0.8955   0.9862   1.0822
     1.0991   1.2097   1.4814   1.5275   1.5616   1.6774   2.0558   3.5478
     3.7251   3.7648   4.4517   4.8730   5.2215   5.8165   5.9470   7.0167
     7.0403   7.3684   7.3903   7.9521   7.9665   8.0489   8.0576   9.1766
     9.1968   9.2584   9.2930   9.7412   9.7516  10.3167

     the Fermi energy is     1.3570 ev

!    total energy              =   -2383.18294951 Ry
     Harris-Foulkes estimate   =   -2383.18295193 Ry
     estimated scf accuracy    <       0.00000061 Ry

     The total energy is the sum of the following terms:

     one-electron contribution =  -20730.06194106 Ry
     hartree contribution      =   10400.73249409 Ry
     xc contribution           =    -372.94062796 Ry
     ewald contribution        =    8319.20569464 Ry
     electric field correction =       0.00000000 Ry
     smearing contrib. (-TS)   =      -0.11856922 Ry

     convergence has been achieved in  19 iterations

 BEEF-vdW xc energy contributions
           1 :   -324.511469862359
           2 :    296.927395312592
           3 :   -249.650658596717
           4 :    195.126213690220
           5 :   -145.614553874071
           6 :    109.191831609060
           7 :   -87.9368531588922
           8 :    78.6538772765126
           9 :   -75.4339185601751
          10 :    72.6916378202516
          11 :   -67.3321696421654
          12 :    59.2987070391535
          13 :   -50.6150035742463
          14 :    43.6958339675677
          15 :   -39.8916091807212
          16 :    38.9183139493286
          17 :   -39.2657246941111
          18 :    39.1766007656264
          19 :   -37.5860763452628
          20 :    34.5371826202802
          21 :   -30.9459121124938
          22 :    27.9470450729320
          23 :   -26.2351329724689
          24 :    25.7471657221133
          25 :   -25.8040838232556
          26 :    25.5677554198142
          27 :   -24.5232590128326
          28 :    22.7175453644815
          29 :   -20.6535304476682
          30 :    18.9408270001907
          31 :   -31.9990897822892
          32 :   -23.7885601868752

     Forces acting on atoms (Ry/au):

     negative rho (up, down):  9.458E-01 0.000E+00
     atom    1 type  1   force =     0.00000017    0.01117394   -0.00544439
     atom    2 type  1   force =     0.00967698   -0.00558694   -0.00544429
     atom    3 type  1   force =    -0.00967696   -0.00558727   -0.00544403
     atom    4 type  2   force =     0.00000002    0.00000012    0.02805492
     atom    5 type  1   force =    -0.00000005   -0.00645549   -0.00421512
     atom    6 type  1   force =    -0.00559064    0.00322775   -0.00421489
     atom    7 type  1   force =     0.00559069    0.00322775   -0.00421515
     atom    8 type  2   force =    -0.00000017    0.00000011    0.00096809
     atom    9 type  1   force =     0.00000026    0.00013849    0.00003880
     atom   10 type  1   force =     0.00011964   -0.00006911    0.00003843
     atom   11 type  1   force =    -0.00011968   -0.00006936    0.00003890
     atom   12 type  2   force =    -0.00000026    0.00000002   -0.00016130

     Total force =     0.037814     Total SCF correction =     0.003680

     entering subroutine stress ...

     negative rho (up, down):  9.458E-01 0.000E+00
          total   stress  (Ry/bohr**3)                   (kbar)     P=  -11.04
  -0.00009990   0.00000000   0.00000000        -14.70      0.00      0.00
   0.00000000  -0.00009990  -0.00000000          0.00    -14.70     -0.00
   0.00000000  -0.00000000  -0.00002544          0.00     -0.00     -3.74

 !ASE

     Writing output data file calc.save

     General routines

     Parallel routines

   This run was terminated on:  18:54:59  27Dec2018

   JOB DONE.
Job  /afs/slac/g/suncat/bin/suncat-tsmpirun -x LD_LIBRARY_PATH -wdir /scratch/qe110474_8ELxu pw.x -in pw.inp

TID   HOST_NAME   COMMAND_LINE            STATUS            TERMINATION_TIME
00000 suncat0087 pw.x -in pw.inp   Done                     12/27/2018 18:54:59
00001 suncat0087 pw.x -in pw.inp   Done                     12/27/2018 18:54:59
00002 suncat0087 pw.x -in pw.inp   Done                     12/27/2018 18:54:59
00003 suncat0087 pw.x -in pw.inp   Done                     12/27/2018 18:54:59
00004 suncat0087 pw.x -in pw.inp   Done                     12/27/2018 18:54:59
00005 suncat0087 pw.x -in pw.inp   Done                     12/27/2018 18:54:59
00006 suncat0087 pw.x -in pw.inp   Done                     12/27/2018 18:54:59
00007 suncat0087 pw.x -in pw.inp   Done                     12/27/2018 18:54:59
00008 suncat0086 pw.x -in pw.inp   Done                     12/27/2018 18:54:59
00009 suncat0086 pw.x -in pw.inp   Done                     12/27/2018 18:54:59
00010 suncat0086 pw.x -in pw.inp   Done                     12/27/2018 18:54:59
00011 suncat0086 pw.x -in pw.inp   Done                     12/27/2018 18:54:59
00012 suncat0086 pw.x -in pw.inp   Done                     12/27/2018 18:54:59
00013 suncat0086 pw.x -in pw.inp   Done                     12/27/2018 18:54:59
00014 suncat0086 pw.x -in pw.inp   Done                     12/27/2018 18:54:59
00015 suncat0086 pw.x -in pw.inp   Done                     12/27/2018 18:54:59
00016 suncat0085 pw.x -in pw.inp   Done                     12/27/2018 18:54:59
00017 suncat0085 pw.x -in pw.inp   Done                     12/27/2018 18:54:59
00018 suncat0085 pw.x -in pw.inp   Done                     12/27/2018 18:54:59
00019 suncat0085 pw.x -in pw.inp   Done                     12/27/2018 18:54:59
00020 suncat0085 pw.x -in pw.inp   Done                     12/27/2018 18:54:59
00021 suncat0085 pw.x -in pw.inp   Done                     12/27/2018 18:54:59
00022 suncat0085 pw.x -in pw.inp   Done                     12/27/2018 18:54:59
00023 suncat0085 pw.x -in pw.inp   Done                     12/27/2018 18:54:59
00024 suncat0084 pw.x -in pw.inp   Done                     12/27/2018 18:54:59
00025 suncat0084 pw.x -in pw.inp   Done                     12/27/2018 18:54:59
00026 suncat0084 pw.x -in pw.inp   Done                     12/27/2018 18:54:59
00027 suncat0084 pw.x -in pw.inp   Done                     12/27/2018 18:54:59
00028 suncat0084 pw.x -in pw.inp   Done                     12/27/2018 18:54:59
00029 suncat0084 pw.x -in pw.inp   Done                     12/27/2018 18:54:59
00030 suncat0084 pw.x -in pw.inp   Done                     12/27/2018 18:54:59
00031 suncat0084 pw.x -in pw.inp   Done                     12/27/2018 18:54:59
00032 suncat0073 pw.x -in pw.inp   Done                     12/27/2018 18:54:59
00033 suncat0073 pw.x -in pw.inp   Done                     12/27/2018 18:54:59
00034 suncat0073 pw.x -in pw.inp   Done                     12/27/2018 18:54:59
00035 suncat0073 pw.x -in pw.inp   Done                     12/27/2018 18:54:59
00036 suncat0073 pw.x -in pw.inp   Done                     12/27/2018 18:54:59
00037 suncat0073 pw.x -in pw.inp   Done                     12/27/2018 18:54:59
00038 suncat0073 pw.x -in pw.inp   Done                     12/27/2018 18:54:59
00039 suncat0073 pw.x -in pw.inp   Done                     12/27/2018 18:54:59
00040 suncat0244 pw.x -in pw.inp   Done                     12/27/2018 18:54:59
00041 suncat0244 pw.x -in pw.inp   Done                     12/27/2018 18:54:59
00042 suncat0244 pw.x -in pw.inp   Done                     12/27/2018 18:54:59
00043 suncat0244 pw.x -in pw.inp   Done                     12/27/2018 18:54:59
00044 suncat0244 pw.x -in pw.inp   Done                     12/27/2018 18:54:59
00045 suncat0244 pw.x -in pw.inp   Done                     12/27/2018 18:54:59
00046 suncat0244 pw.x -in pw.inp   Done                     12/27/2018 18:54:59
00047 suncat0244 pw.x -in pw.inp   Done                     12/27/2018 18:54:59
00048 suncat0243 pw.x -in pw.inp   Done                     12/27/2018 18:54:59
00049 suncat0243 pw.x -in pw.inp   Done                     12/27/2018 18:54:59
00050 suncat0243 pw.x -in pw.inp   Done                     12/27/2018 18:54:59
00051 suncat0243 pw.x -in pw.inp   Done                     12/27/2018 18:54:59
00052 suncat0243 pw.x -in pw.inp   Done                     12/27/2018 18:54:59
00053 suncat0243 pw.x -in pw.inp   Done                     12/27/2018 18:54:59
00054 suncat0243 pw.x -in pw.inp   Done                     12/27/2018 18:54:59
00055 suncat0243 pw.x -in pw.inp   Done                     12/27/2018 18:54:59
00056 suncat0242 pw.x -in pw.inp   Done                     12/27/2018 18:54:59
00057 suncat0242 pw.x -in pw.inp   Done                     12/27/2018 18:54:59
00058 suncat0242 pw.x -in pw.inp   Done                     12/27/2018 18:54:59
00059 suncat0242 pw.x -in pw.inp   Done                     12/27/2018 18:54:59
00060 suncat0242 pw.x -in pw.inp   Done                     12/27/2018 18:54:59
00061 suncat0242 pw.x -in pw.inp   Done                     12/27/2018 18:54:59
00062 suncat0242 pw.x -in pw.inp   Done                     12/27/2018 18:54:59
00063 suncat0242 pw.x -in pw.inp   Done                     12/27/2018 18:54:59