     Program PWSCF v.5.1rc2 (svn rev. 11289) starts on  1Jan2019 at 18:11:44

     Current dimensions of program PWSCF are:
     Max number of different atomic species (ntypx) = 10
     Max number of k-points (npk) =  40000
     Max angular momentum in pseudopotentials (lmaxx) =  3
     Presently stress not available with electric field

     IMPORTANT: XC functional enforced from input :
     Exchange-correlation      = BEEF-VDW ( 1  4 27 13 2)
     Any further DFT definition will be discarded
     Please, verify this is what you really want

     Subspace diagonalization in iterative solution of the eigenvalue problem:
     a serial algorithm will be used

     bravais-lattice index     =            0
     lattice parameter (alat)  =       1.8897  a.u.
     unit-cell volume          =    5203.0227 (a.u.)^3
     number of atoms/cell      =           12
     number of atomic types    =            2
     number of electrons       =       159.00
     number of Kohn-Sham states=          109
     kinetic-energy cutoff     =      36.7493  Ry
     charge density cutoff     =     367.4932  Ry
     convergence threshold     =      1.0E-06
     mixing beta               =       0.1000
     number of iterations used =           10  plain     mixing
     Exchange-correlation      = BEEF-VDW ( 1  4 27 13 2)
     nstep                     =           50

     celldm(1)=   1.889726  celldm(2)=   0.000000  celldm(3)=   0.000000
     celldm(4)=   0.000000  celldm(5)=   0.000000  celldm(6)=   0.000000

     crystal axes: (cart. coord. in units of alat)
               a(1) = (   5.981439   0.000000   0.000000 )
               a(2) = (  -2.990720   5.180078   0.000000 )
               a(3) = (   0.000000   0.000000  24.883825 )

     reciprocal axes: (cart. coord. in units 2 pi/alat)
               b(1) = (  0.167184  0.096524  0.000000 )
               b(2) = (  0.000000  0.193047  0.000000 )
               b(3) = (  0.000000  0.000000  0.040187 )

     PseudoPot. # 1 for Ta read from file:
     /afs/slac.stanford.edu/u/if/mamunm/psp/gbrv1.5pbe/Ta.UPF
     MD5 check sum: f8bbe9446314a3b8ea5d9f3e3836c939
     Pseudo is Ultrasoft + core correction, Zval = 13.0
     Generated by new atomic code, or converted to UPF format
     Using radial grid of  921 points,  7 beta functions with:
                l(1) =   0
                l(2) =   0
                l(3) =   1
                l(4) =   1
                l(5) =   2
                l(6) =   2
                l(7) =   3
     Q(r) pseudized with  6 coefficients,  rinner =    1.300   1.300   1.300
                                                       1.300   1.300   1.300
                                                       1.300

     PseudoPot. # 2 for Sn read from file:
     /afs/slac.stanford.edu/u/if/mamunm/psp/gbrv1.5pbe/Sn.UPF
     MD5 check sum: 469debedee59599fedebd795477fea03
     Pseudo is Ultrasoft + core correction, Zval = 14.0
     Generated by new atomic code, or converted to UPF format
     Using radial grid of  891 points,  6 beta functions with:
                l(1) =   0
                l(2) =   0
                l(3) =   1
                l(4) =   1
                l(5) =   2
                l(6) =   2
     Q(r) pseudized with  8 coefficients,  rinner =    1.350   1.350   1.350
                                                       1.350   1.350

     vdW kernel table read from file vdW_kernel_table
     MD5 check sum: 095c7af220d748ca6e76c0b4c6cfb241

     atomic species   valence    mass     pseudopotential
        Ta1           13.00   180.94788     Ta( 1.00)
        Sn1           14.00   118.71000     Sn( 1.00)

     No symmetry found

   Cartesian axes

     site n.     atom                  positions (alat units)
         1           Ta1 tau(   1) = (   0.0000000   0.0000000  10.0000000  )
         2           Ta1 tau(   2) = (  -1.4953598   2.5900391  10.0000000  )
         3           Ta1 tau(   3) = (   1.4953598   2.5900391  10.0000000  )
         4           Sn1 tau(   4) = (   2.9907195   0.0000000  10.0000000  )
         5           Ta1 tau(   5) = (   2.9907195   1.7266927  12.4419123  )
         6           Ta1 tau(   6) = (   1.4953598   4.3167318  12.4419123  )
         7           Ta1 tau(   7) = (  -1.4953598   4.3167318  12.4419123  )
         8           Sn1 tau(   8) = (   0.0000000   1.7266927  12.4419123  )
         9           Ta1 tau(   9) = (  -0.0000000   3.4533854  14.8838245  )
        10           Ta1 tau(  10) = (   1.4953598   0.8633464  14.8838245  )
        11           Ta1 tau(  11) = (   4.4860793   0.8633464  14.8838245  )
        12           Sn1 tau(  12) = (   2.9907195   3.4533854  14.8838245  )

     number of k points=    20  Fermi-Dirac smearing, width (Ry)=  0.0110
                       cart. coord. in units 2pi/alat
        k(    1) = (   0.0000000   0.0000000   0.0000000), wk =   0.0555556
        k(    2) = (   0.0000000   0.0321745   0.0000000), wk =   0.1111111
        k(    3) = (   0.0000000   0.0643491   0.0000000), wk =   0.1111111
        k(    4) = (   0.0000000  -0.0965236   0.0000000), wk =   0.0555556
        k(    5) = (   0.0278640   0.0160873   0.0000000), wk =   0.1111111
        k(    6) = (   0.0278640   0.0482618   0.0000000), wk =   0.1111111
        k(    7) = (   0.0278640   0.0804364   0.0000000), wk =   0.1111111
        k(    8) = (   0.0278640  -0.0804364   0.0000000), wk =   0.1111111
        k(    9) = (   0.0278640  -0.0482618   0.0000000), wk =   0.1111111
        k(   10) = (   0.0278640  -0.0160873   0.0000000), wk =   0.1111111
        k(   11) = (   0.0557279   0.0321745   0.0000000), wk =   0.1111111
        k(   12) = (   0.0557279   0.0643491   0.0000000), wk =   0.1111111
        k(   13) = (   0.0557279   0.0965236   0.0000000), wk =   0.1111111
        k(   14) = (   0.0557279  -0.0643491   0.0000000), wk =   0.1111111
        k(   15) = (   0.0557279  -0.0321745   0.0000000), wk =   0.1111111
        k(   16) = (   0.0557279  -0.0000000   0.0000000), wk =   0.1111111
        k(   17) = (  -0.0835919  -0.0482618   0.0000000), wk =   0.0555556
        k(   18) = (  -0.0835919  -0.0160873   0.0000000), wk =   0.1111111
        k(   19) = (  -0.0835919   0.0160873   0.0000000), wk =   0.1111111
        k(   20) = (  -0.0835919  -0.1447855   0.0000000), wk =   0.0555556

     Largest allocated arrays     est. size (Mb)     dimensions
     Largest temporary arrays     est. size (Mb)     dimensions

     Initial potential from superposition of free atoms
     Check: negative starting charge=   -0.842951

     starting charge  155.98986, renormalised to  159.00000

     negative rho (up, down):  8.592E-01 0.000E+00

     *
     * You are using vdW-DF for exchange-correlation in this calculation.
     * Please cite the following three references that made this development
     * possible:
     *
     *   M. Dion, H. Rydberg, E. Schroder, D. C. Langreth, and
     *   B. I. Lundqvist, Phys. Rev. Lett. 92, 246401 (2004).
     *
     *   T. Thonhauser, V. R. Cooper, S. Li, A. Puzder, P. Hyldgaard, and
     *   D. C. Langreth, Phys. Rev. B 76, 125112 (2007).
     *
     *   G. Roman-Perez and J. M. Soler, Phys. Rev. Lett. 103, 096102 (2009).
     *
     *
     * If you are using vdW-DF2, please also cite:
     *
     *   K. Lee, E. D. Murray, L. Kong, B. I. Lundqvist, and
     *   D. C. Langreth, Phys. Rev. B 82, 081101(R) (2010).
     *
     *
     * If you are calculating the stress with vdW-DF, please also cite:
     *
     *   R. Sabatini, E. Kucukbenli, B. Kolb, T. Thonhauser, and
     *   S. de Gironcoli, J. Phys.: Condens. Matter 24, 424209 (2012).
     *

     Carrying out vdW-DF run using the following parameters:

     Nqs =      20    Nr_points =    1024   r_max =   100.000
     q_mesh =
               0.00001000     0.04494208     0.09755937     0.15916263
               0.23128650     0.31572767     0.41458969     0.53033537
               0.66584808     0.82450364     1.01025438     1.22772762
               1.48234092     1.78043706     2.12944203     2.53805004
               3.01644009     3.57652955     4.23227104     5.00000000

     Gradients computed in reciprocal space

     Adding external electric field

     Computed dipole along edir(3) :
        Dipole               -0.0000 Ry au,         -0.0000 Debye
        Dipole field         -0.0000 Ry au

        Potential amp.        0.0000 Ry
        Total length         45.8480 bohr

     Starting wfc are  144 randomized atomic wfcs

     Self-consistent Calculation

     iteration #  1     ecut=    36.75 Ry     beta=0.10
     Davidson diagonalization with overlap
     ethr =  1.00E-02,  avg # of iterations =  2.2

[...]

     total energy              =   -1770.95138065 Ry
     Harris-Foulkes estimate   =   -1771.29567399 Ry
     estimated scf accuracy    <       2.26956227 Ry

[...]

     End of self-consistent calculation

          k = 0.0000 0.0000 0.0000 ( 19507 PWs)   bands (ev):

   -66.5856 -66.5840 -66.5444 -66.5444 -66.5440 -66.5440 -66.3555 -66.3159
   -66.3158 -33.1562 -33.1364 -33.1361 -33.1105 -33.1105 -33.0826 -33.0826
   -33.0632 -33.0632 -33.0156 -32.9990 -32.9444 -32.9444 -32.8169 -32.8169
   -32.7908 -32.7605 -32.5753 -32.5752 -32.5738 -32.5456 -32.4838 -32.4838
   -32.4754 -32.4754 -32.3390 -32.3389 -19.8434 -19.8434 -19.8365 -19.8130
   -19.8130 -19.3942 -19.3884 -19.3590 -19.3590 -19.3512 -19.3512 -19.3319
   -19.3319 -19.3314 -19.3314  -7.9722  -6.4722  -6.1950  -2.6965  -2.6781
    -2.4154  -1.6723  -1.6723  -1.3510  -1.3509  -1.0265  -1.0264  -0.7424
    -0.6412  -0.3289  -0.3289   0.0716   0.0716   0.6756   0.7827   0.9277
     1.0301   1.0301   1.1683   1.1683   1.5646   1.5646   1.6962   1.6962
     2.0697   2.2804   2.4178   3.1109   3.1565   3.6808   3.6809   3.9178
     3.9179   4.0383   4.0463   4.0904   4.0904   4.4238   4.4238   4.5135
     4.5135   4.7278   4.8812   4.9243   4.9243   5.3156   5.3156   5.5260
     5.5261   5.7231   5.9391   6.2096   6.4382

[...]

          k =-0.0836-0.0483 0.0000 ( 19572 PWs)   bands (ev):

[...]

     the Fermi energy is     1.8849 ev

!    total energy              =   -1770.85705734 Ry
     Harris-Foulkes estimate   =   -1770.85849880 Ry
     estimated scf accuracy    <       0.00000076 Ry

     The total energy is the sum of the following terms:

     one-electron contribution =  -11805.99978889 Ry
     hartree contribution      =    5906.96779143 Ry
     xc contribution           =    -525.98957537 Ry
     ewald contribution        =    4654.24091943 Ry
     electric field correction =       0.00000001 Ry
     smearing contrib. (-TS)   =      -0.07640395 Ry

     convergence has been achieved in  14 iterations

 BEEF-vdW xc energy contributions
           1 :   -462.791908031983
           2 :    426.732312557862
           3 :   -364.103608575443
           4 :    289.979951353220
           5 :   -219.357953643363
           6 :    162.337272206138
           7 :   -122.019670040929
           8 :    95.5608505576039
           9 :   -77.3296708205277
          10 :    62.3099097207207
          11 :   -48.1211629691997
          12 :    35.0491206055867
          13 :   -24.6248945399321
[...]
     Using radial grid of  921 points,  7 beta functions with:
                l(1) =   0
                l(2) =   0
                l(3) =   1
                l(4) =   1
                l(5) =   2
                l(6) =   2
                l(7) =   3
     Q(r) pseudized with  6 coefficients,  rinner =    1.300   1.300   1.300
                                                       1.300   1.300   1.300
                                                       1.300

     PseudoPot. # 2 for Sn read from file:
     /afs/slac.stanford.edu/u/if/mamunm/psp/gbrv1.5pbe/Sn.UPF
     MD5 check sum: 469debedee59599fedebd795477fea03
     Pseudo is Ultrasoft + core correction, Zval = 14.0
     Generated by new atomic code, or converted to UPF format
     Using radial grid of  891 points,  6 beta functions with:
                l(1) =   0
                l(2) =   0
                l(3) =   1
                l(4) =   1
                l(5) =   2
                l(6) =   2
     Q(r) pseudized with  8 coefficients,  rinner =    1.350   1.350   1.350
                                                       1.350   1.350

     vdW kernel table read from file vdW_kernel_table
     MD5 check sum: 095c7af220d748ca6e76c0b4c6cfb241

     atomic species   valence    mass     pseudopotential
        Ta1           13.00   180.94788     Ta( 1.00)
        Sn1           14.00   118.71000     Sn( 1.00)

     No symmetry found

   Cartesian axes

     site n.     atom                  positions (alat units)
         1           Ta1 tau(   1) = (   0.0000000   0.0000000  10.0000000  )
         2           Ta1 tau(   2) = (  -1.4953598   2.5900391  10.0000000  )
         3           Ta1 tau(   3) = (   1.4953598   2.5900391  10.0000000  )
         4           Sn1 tau(   4) = (   2.9907195   0.0000000  10.0000000  )
         5           Ta1 tau(   5) = (   2.9907195   1.7266927  12.4419123  )
         6           Ta1 tau(   6) = (   1.4953598   4.3167318  12.4419123  )
         7           Ta1 tau(   7) = (  -1.4953598   4.3167318  12.4419123  )
         8           Sn1 tau(   8) = (   0.0000000   1.7266927  12.4419123  )
         9           Ta1 tau(   9) = (  -0.0000175   3.4910897  14.7573899  )
        10           Ta1 tau(  10) = (   1.5280845   0.8444487  14.7573998  )
        11           Ta1 tau(  11) = (   4.4533901   0.8444899  14.7574133  )
        12           Sn1 tau(  12) = (   2.9907134   3.4532726  15.2259687  )

     number of k points=    20  Fermi-Dirac smearing, width (Ry)=  0.0110
                       cart. coord. in units 2pi/alat
        k(    1) = (   0.0000000   0.0000000   0.0000000), wk =   0.0555556
        k(    2) = (   0.0000000   0.0321745   0.0000000), wk =   0.1111111
        k(    3) = (   0.0000000   0.0643491   0.0000000), wk =   0.1111111
        k(    4) = (   0.0000000  -0.0965236   0.0000000), wk =   0.0555556
        k(    5) = (   0.0278640   0.0160873   0.0000000), wk =   0.1111111
        k(    6) = (   0.0278640   0.0482618   0.0000000), wk =   0.1111111
        k(    7) = (   0.0278640   0.0804364   0.0000000), wk =   0.1111111
        k(    8) = (   0.0278640  -0.0804364   0.0000000), wk =   0.1111111
        k(    9) = (   0.0278640  -0.0482618   0.0000000), wk =   0.1111111
        k(   10) = (   0.0278640  -0.0160873   0.0000000), wk =   0.1111111
        k(   11) = (   0.0557279   0.0321745   0.0000000), wk =   0.1111111
        k(   12) = (   0.0557279   0.0643491   0.0000000), wk =   0.1111111
        k(   13) = (   0.0557279   0.0965236   0.0000000), wk =   0.1111111
        k(   14) = (   0.0557279  -0.0643491   0.0000000), wk =   0.1111111
        k(   15) = (   0.0557279  -0.0321745   0.0000000), wk =   0.1111111
        k(   16) = (   0.0557279  -0.0000000   0.0000000), wk =   0.1111111
        k(   17) = (  -0.0835919  -0.0482618   0.0000000), wk =   0.0555556
        k(   18) = (  -0.0835919  -0.0160873   0.0000000), wk =   0.1111111
        k(   19) = (  -0.0835919   0.0160873   0.0000000), wk =   0.1111111
        k(   20) = (  -0.0835919  -0.1447855   0.0000000), wk =   0.0555556

     Largest allocated arrays     est. size (Mb)     dimensions
     Largest temporary arrays     est. size (Mb)     dimensions

     Initial potential from superposition of free atoms
     Check: negative starting charge=   -0.846605

     starting charge  155.98986, renormalised to  159.00000

[...]

     *
     * You are using vdW-DF for exchange-correlation in this calculation.
     * Please cite the following three references that made this development
     * possible:
     *
     *   M. Dion, H. Rydberg, E. Schroder, D. C. Langreth, and
     *   B. I. Lundqvist, Phys. Rev. Lett. 92, 246401 (2004).
     *
     *   T. Thonhauser, V. R. Cooper, S. Li, A. Puzder, P. Hyldgaard, and
     *   D. C. Langreth, Phys. Rev. B 76, 125112 (2007).
     *
     *   G. Roman-Perez and J. M. Soler, Phys. Rev. Lett. 103, 096102 (2009).
     *
     *
     * If you are using vdW-DF2, please also cite:
     *
     *   K. Lee, E. D. Murray, L. Kong, B. I. Lundqvist, and
     *   D. C. Langreth, Phys. Rev. B 82, 081101(R) (2010).
     *
     *
     * If you are calculating the stress with vdW-DF, please also cite:
     *
     *   R. Sabatini, E. Kucukbenli, B. Kolb, T. Thonhauser, and
     *   S. de Gironcoli, J. Phys.: Condens. Matter 24, 424209 (2012).
     *

     Carrying out vdW-DF run using the following parameters:

     Nqs =      20    Nr_points =    1024   r_max =   100.000
     q_mesh =
               0.00001000     0.04494208     0.09755937     0.15916263
               0.23128650     0.31572767     0.41458969     0.53033537
               0.66584808     0.82450364     1.01025438     1.22772762
               1.48234092     1.78043706     2.12944203     2.53805004
               3.01644009     3.57652955     4.23227104     5.00000000

     Gradients computed in reciprocal space

[...]

     Starting wfc are  144 randomized atomic wfcs

     Self-consistent Calculation

[...]

     iteration #  9     ecut=    36.75 Ry     beta=0.10
     Davidson diagonalization with overlap
     c_bands:  1 eigenvalues not converged
     ethr =  3.24E-06,  avg # of iterations =  8.0

[...]

     total energy              =   -1770.89921957 Ry
     Harris-Foulkes estimate   =   -1770.89922000 Ry
     estimated scf accuracy    <       0.00000108 Ry

     iteration # 16     ecut=    36.75 Ry     beta=0.10
     Davidson diagonalization with overlap
     ethr =  6.80E-10,  avg # of iterations =  2.0

[...]

     negative rho (up, down):  8.835E-01 0.000E+00

     Adding external electric field

     Computed dipole along edir(3) :
        Dipole                0.0229 Ry au,          0.0582 Debye
        Dipole field          0.0001 Ry au

        Potential amp.       -0.0051 Ry
        Total length         45.8480 bohr

     End of self-consistent calculation

[...]

          k = 0.0557-0.0000 0.0000 ( 19577 PWs)   bands (ev):

[...]

          k =-0.0836-0.1448 0.0000 ( 19572 PWs)   bands (ev):

   -66.5599 -66.5464 -66.5329 -66.4936 -66.4744 -66.4620 -66.3120 -66.2994
   -66.2865 -33.1158 -33.1113 -33.0995 -33.0235 -33.0126 -33.0001 -32.9958
   -32.9567 -32.9434 -32.9065 -32.8953 -32.8697 -32.8495 -32.8385 -32.8283
   -32.7310 -32.6923 -32.6664 -32.6616 -32.6443 -32.6297 -32.5160 -32.4852
   -32.4442 -32.4362 -32.4089 -32.3195 -19.8490 -19.8398 -19.8339 -19.8204
   -19.8198 -19.4707 -19.4287 -19.4279 -19.3814 -19.3727 -19.3667 -19.3504
   -19.3499 -19.3203 -19.3122  -6.9044  -6.1259  -5.5724  -3.8950  -2.9865
    -2.8838  -2.6642  -1.4630  -1.2188  -1.1497  -1.0414  -0.8115  -0.7746
    -0.5036   0.0498   0.1923   0.3515   0.4372   0.5967   0.6206   0.6970
     0.7692   1.0915   1.1024   1.1282   1.4273   1.5157   1.8155   1.9065
     2.0039   2.1693   2.3298   2.4464   2.9208   3.1767   3.2801   3.6079
     3.6275   3.7244   3.7471   3.8635   4.0423   4.1478   4.1673   4.2160
     4.2413   4.5094   4.6362   4.8087   4.8634   5.1857   5.5701   5.5953
     5.7237   6.3888   6.7751   6.8282   6.8591

     the Fermi energy is     1.9060 ev

!    total energy              =   -1770.89921686 Ry
     Harris-Foulkes estimate   =   -1770.89921951 Ry
     estimated scf accuracy    <       0.00000045 Ry

     The total energy is the sum of the following terms:

     one-electron contribution =  -11801.79530577 Ry
     hartree contribution      =    5904.93078749 Ry
     xc contribution           =    -526.06647807 Ry
     ewald contribution        =    4652.10494341 Ry
     electric field correction =       0.00000127 Ry
     smearing contrib. (-TS)   =      -0.07316518 Ry

     convergence has been achieved in  16 iterations

 BEEF-vdW xc energy contributions
           1 :   -463.127425468853
           2 :    427.073958369254
           3 :   -364.447227986568
           4 :    290.307255597957
           5 :   -219.644672068004
           6 :    162.568255785511
           7 :   -122.198552802664
           8 :    95.7076930945115
           9 :   -77.4702569493151
          10 :    62.4649134949861
          11 :   -48.2996639692633
          12 :    35.2458582089039
          13 :   -24.8207152117012
          14 :    18.0890914918742
          15 :   -14.7300450588591
          16 :    13.2344464117836
          17 :   -11.8684744165545
          18 :    9.66050138758055
          19 :   -6.79718641324297
          20 :    4.26756195254848
          21 :   -3.06952228901355
          22 :    3.51185009783160
          23 :   -5.02516837665894
          24 :    6.53906848513560
          25 :   -7.13630949325352
          26 :    6.55703859947113
          27 :   -5.26447211642551
          28 :    4.07930948152614
          29 :   -3.65157209623328
          30 :    4.10500770825331
          31 :   -41.0569588162707
          32 :   -30.4282822426209

     Forces acting on atoms (Ry/au):

     negative rho (up, down):  8.835E-01 0.000E+00
     atom    1 type  1   force =    -0.00000165   -0.00961763    0.03239931
     atom    2 type  1   force =    -0.00832991    0.00480730    0.03239888
     atom    3 type  1   force =     0.00833095    0.00481006    0.03240046
     atom    4 type  2   force =    -0.00000149   -0.00000427   -0.06198732
     atom    5 type  1   force =     0.00000150    0.01732035   -0.00220083
     atom    6 type  1   force =     0.01500189   -0.00865966   -0.00219829
     atom    7 type  1   force =    -0.01500193   -0.00866165   -0.00220090
     atom    8 type  2   force =    -0.00000177   -0.00000329   -0.02994099
     atom    9 type  1   force =     0.00000933    0.00124048    0.00018780
     atom   10 type  1   force =     0.00105354   -0.00062746    0.00018286
     atom   11 type  1   force =    -0.00105920   -0.00064169    0.00017682
     atom   12 type  2   force =    -0.00000126    0.00003746    0.00078220

     Total force =     0.095318     Total SCF correction =     0.001856

     entering subroutine stress ...

     negative rho (up, down):  8.835E-01 0.000E+00
          total   stress  (Ry/bohr**3)                   (kbar)     P=  -24.31
  -0.00021266  -0.00000000   0.00000000        -31.28     -0.00      0.00
  -0.00000000  -0.00021266   0.00000001         -0.00    -31.28      0.00
   0.00000000   0.00000001  -0.00007038          0.00      0.00    -10.35

 !ASE

     Writing output data file calc.save

     General routines

     Parallel routines

   This run was terminated on:  19:23:20   1Jan2019

   JOB DONE.
Job  /afs/slac/g/suncat/bin/suncat-tsmpirun -x LD_LIBRARY_PATH -wdir /scratch/qe649132_2AaNh pw.x -in pw.inp

TID   HOST_NAME   COMMAND_LINE            STATUS            TERMINATION_TIME
00000 suncat0097 pw.x -in pw.inp   Done                     01/01/2019 19:23:20
00001 suncat0097 pw.x -in pw.inp   Done                     01/01/2019 19:23:20
00002 suncat0097 pw.x -in pw.inp   Done                     01/01/2019 19:23:20
00003 suncat0097 pw.x -in pw.inp   Done                     01/01/2019 19:23:20
00004 suncat0097 pw.x -in pw.inp   Done                     01/01/2019 19:23:20
00005 suncat0097 pw.x -in pw.inp   Done                     01/01/2019 19:23:20
00006 suncat0097 pw.x -in pw.inp   Done                     01/01/2019 19:23:20
00007 suncat0097 pw.x -in pw.inp   Done                     01/01/2019 19:23:20
00008 suncat0094 pw.x -in pw.inp   Done                     01/01/2019 19:23:20
00009 suncat0094 pw.x -in pw.inp   Done                     01/01/2019 19:23:20
00010 suncat0094 pw.x -in pw.inp   Done                     01/01/2019 19:23:20
00011 suncat0094 pw.x -in pw.inp   Done                     01/01/2019 19:23:20
00012 suncat0094 pw.x -in pw.inp   Done                     01/01/2019 19:23:20
00013 suncat0094 pw.x -in pw.inp   Done                     01/01/2019 19:23:20
00014 suncat0094 pw.x -in pw.inp   Done                     01/01/2019 19:23:20
00015 suncat0094 pw.x -in pw.inp   Done                     01/01/2019 19:23:20
00016 suncat0093 pw.x -in pw.inp   Done                     01/01/2019 19:23:20
00017 suncat0093 pw.x -in pw.inp   Done                     01/01/2019 19:23:20
00018 suncat0093 pw.x -in pw.inp   Done                     01/01/2019 19:23:20
00019 suncat0093 pw.x -in pw.inp   Done                     01/01/2019 19:23:20
00020 suncat0093 pw.x -in pw.inp   Done                     01/01/2019 19:23:20
00021 suncat0093 pw.x -in pw.inp   Done                     01/01/2019 19:23:20
00022 suncat0093 pw.x -in pw.inp   Done                     01/01/2019 19:23:20
00023 suncat0093 pw.x -in pw.inp   Done                     01/01/2019 19:23:20
00024 suncat0079 pw.x -in pw.inp   Done                     01/01/2019 19:23:20
00025 suncat0079 pw.x -in pw.inp   Done                     01/01/2019 19:23:20
00026 suncat0079 pw.x -in pw.inp   Done                     01/01/2019 19:23:20
00027 suncat0079 pw.x -in pw.inp   Done                     01/01/2019 19:23:20
00028 suncat0079 pw.x -in pw.inp   Done                     01/01/2019 19:23:20
00029 suncat0079 pw.x -in pw.inp   Done                     01/01/2019 19:23:20
00030 suncat0079 pw.x -in pw.inp   Done                     01/01/2019 19:23:20
00031 suncat0079 pw.x -in pw.inp   Done                     01/01/2019 19:23:20
00032 suncat0166 pw.x -in pw.inp   Done                     01/01/2019 19:23:20
00033 suncat0166 pw.x -in pw.inp   Done                     01/01/2019 19:23:20
00034 suncat0166 pw.x -in pw.inp   Done                     01/01/2019 19:23:20
00035 suncat0166 pw.x -in pw.inp   Done                     01/01/2019 19:23:20
00036 suncat0166 pw.x -in pw.inp   Done                     01/01/2019 19:23:20
00037 suncat0166 pw.x -in pw.inp   Done                     01/01/2019 19:23:20
00038 suncat0166 pw.x -in pw.inp   Done                     01/01/2019 19:23:20
00039 suncat0166 pw.x -in pw.inp   Done                     01/01/2019 19:23:20
00040 suncat0149 pw.x -in pw.inp   Done                     01/01/2019 19:23:20
00041 suncat0149 pw.x -in pw.inp   Done                     01/01/2019 19:23:20
00042 suncat0149 pw.x -in pw.inp   Done                     01/01/2019 19:23:20
00043 suncat0149 pw.x -in pw.inp   Done                     01/01/2019 19:23:20
00044 suncat0149 pw.x -in pw.inp   Done                     01/01/2019 19:23:20
00045 suncat0149 pw.x -in pw.inp   Done                     01/01/2019 19:23:20
00046 suncat0149 pw.x -in pw.inp   Done                     01/01/2019 19:23:20
00047 suncat0149 pw.x -in pw.inp   Done                     01/01/2019 19:23:20
00048 suncat0148 pw.x -in pw.inp   Done                     01/01/2019 19:23:20
00049 suncat0148 pw.x -in pw.inp   Done                     01/01/2019 19:23:20
00050 suncat0148 pw.x -in pw.inp   Done                     01/01/2019 19:23:20
00051 suncat0148 pw.x -in pw.inp   Done                     01/01/2019 19:23:20
00052 suncat0148 pw.x -in pw.inp   Done                     01/01/2019 19:23:20
00053 suncat0148 pw.x -in pw.inp   Done                     01/01/2019 19:23:20
00054 suncat0148 pw.x -in pw.inp   Done                     01/01/2019 19:23:20
00055 suncat0148 pw.x -in pw.inp   Done                     01/01/2019 19:23:20
00056 suncat0142 pw.x -in pw.inp   Done                     01/01/2019 19:23:20
00057 suncat0142 pw.x -in pw.inp   Done                     01/01/2019 19:23:20
00058 suncat0142 pw.x -in pw.inp   Done                     01/01/2019 19:23:20
00059 suncat0142 pw.x -in pw.inp   Done                     01/01/2019 19:23:20
00060 suncat0142 pw.x -in pw.inp   Done                     01/01/2019 19:23:20
00061 suncat0142 pw.x -in pw.inp   Done                     01/01/2019 19:23:20
00062 suncat0142 pw.x -in pw.inp   Done                     01/01/2019 19:23:20
00063 suncat0142 pw.x -in pw.inp   Done                     01/01/2019 19:23:20