     Program PWSCF v.5.1rc2 (svn rev. 11289) starts on 20Dec2018 at  2: 1: 4

     Current dimensions of program PWSCF are:
     Max number of different atomic species (ntypx) = 10
     Max number of k-points (npk) =  40000
     Max angular momentum in pseudopotentials (lmaxx) =  3
     Presently stress not available with electric field

     IMPORTANT: XC functional enforced from input :
     Exchange-correlation      = BEEF-VDW ( 1  4 27 13 2)
     Any further DFT definition will be discarded
     Please, verify this is what you really want

     Subspace diagonalization in iterative solution of the eigenvalue problem:
     a serial algorithm will be used

     bravais-lattice index     =            0
     lattice parameter (alat)  =       1.8897  a.u.
     unit-cell volume          =    6755.3081 (a.u.)^3
     number of atoms/cell      =           12
     number of atomic types    =            2
     number of electrons       =       147.00
     number of Kohn-Sham states=          103
     kinetic-energy cutoff     =      36.7493  Ry
     charge density cutoff     =     367.4932  Ry
     convergence threshold     =      1.0E-06
     mixing beta               =       0.1000
     number of iterations used =           10  plain     mixing
     Exchange-correlation      = BEEF-VDW ( 1  4 27 13 2)
     nstep                     =           50

     celldm(1)=   1.889726  celldm(2)=   0.000000  celldm(3)=   0.000000
     celldm(4)=   0.000000  celldm(5)=   0.000000  celldm(6)=   0.000000

     crystal axes: (cart. coord. in units of alat)
               a(1) = (   6.733025   0.000000   0.000000 )
               a(2) = (  -3.366513   5.830971   0.000000 )
               a(3) = (   0.000000   0.000000  25.497492 )

     reciprocal axes: (cart. coord. in units 2 pi/alat)
               b(1) = (  0.148522  0.085749  0.000000 )
               b(2) = (  0.000000  0.171498  0.000000 )
               b(3) = (  0.000000  0.000000  0.039220 )

     PseudoPot. # 1 for Cd read from file:
     /afs/slac.stanford.edu/u/if/mamunm/psp/gbrv1.5pbe/Cd.UPF
     MD5 check sum: 17164a7926edb8e0dc231208abae86a6
     Pseudo is Ultrasoft + core correction, Zval = 12.0
     Generated by new atomic code, or converted to UPF format
     Using radial grid of  889 points,  6 beta functions with:
                l(1) =   0
                l(2) =   0
                l(3) =   1
                l(4) =   1
                l(5) =   2
                l(6) =   2
     Q(r) pseudized with  6 coefficients,  rinner =    1.000   1.000   1.000
                                                       1.000   1.000

     PseudoPot. # 2 for Tl read from file:
     /afs/slac.stanford.edu/u/if/mamunm/psp/gbrv1.5pbe/Tl.UPF
     MD5 check sum: b76cf1f7e72655a2b2c53cf6385d7059
     Pseudo is Ultrasoft + core correction, Zval = 13.0
     Generated by new atomic code, or converted to UPF format
     Using radial grid of  899 points,  6 beta functions with:
                l(1) =   0
                l(2) =   0
                l(3) =   1
                l(4) =   1
                l(5) =   2
                l(6) =   2
     Q(r) pseudized with  6 coefficients,  rinner =    1.100   1.100   1.100
                                                       1.100   1.100

     vdW kernel table read from file vdW_kernel_table
     MD5 check sum: 095c7af220d748ca6e76c0b4c6cfb241

     atomic species   valence    mass     pseudopotential
        Cd1           12.00   112.41400     Cd( 1.00)
        Tl1           13.00   204.38000     Tl( 1.00)

     No symmetry found

   Cartesian axes

     site n.     atom                  positions (alat units)
         1           Cd1 tau(   1) = (   0.0000000   0.0000000  10.0000000  )
         2           Cd1 tau(   2) = (  -1.6832563   2.9154854  10.0000000  )
         3           Cd1 tau(   3) = (   1.6832563   2.9154854  10.0000000  )
         4           Tl1 tau(   4) = (   3.3665125   0.0000000  10.0000000  )
         5           Cd1 tau(   5) = (   3.3665125   1.9436569  12.7487460  )
         6           Cd1 tau(   6) = (   1.6832563   4.8591423  12.7487460  )
         7           Cd1 tau(   7) = (  -1.6832563   4.8591423  12.7487460  )
         8           Tl1 tau(   8) = (   0.0000000   1.9436569  12.7487460  )
         9           Cd1 tau(   9) = (  -0.0000000   3.8873138  15.4974920  )
        10           Cd1 tau(  10) = (   1.6832563   0.9718285  15.4974920  )
        11           Cd1 tau(  11) = (   5.0497688   0.9718285  15.4974920  )
        12           Tl1 tau(  12) = (   3.3665125   3.8873138  15.4974920  )

     number of k points=    20  Fermi-Dirac smearing, width (Ry)=  0.0110
                       cart. coord. in units 2pi/alat
        k(    1) = (   0.0000000   0.0000000   0.0000000), wk =   0.0555556
        k(    2) = (   0.0000000   0.0285830   0.0000000), wk =   0.1111111
        k(    3) = (   0.0000000   0.0571660   0.0000000), wk =   0.1111111
        k(    4) = (   0.0000000  -0.0857490   0.0000000), wk =   0.0555556
        k(    5) = (   0.0247536   0.0142915   0.0000000), wk =   0.1111111
        k(    6) = (   0.0247536   0.0428745   0.0000000), wk =   0.1111111
        k(    7) = (   0.0247536   0.0714575   0.0000000), wk =   0.1111111
        k(    8) = (   0.0247536  -0.0714575   0.0000000), wk =   0.1111111
        k(    9) = (   0.0247536  -0.0428745   0.0000000), wk =   0.1111111
        k(   10) = (   0.0247536  -0.0142915   0.0000000), wk =   0.1111111
        k(   11) = (   0.0495072   0.0285830   0.0000000), wk =   0.1111111
        k(   12) = (   0.0495072   0.0571660   0.0000000), wk =   0.1111111
        k(   13) = (   0.0495072   0.0857490   0.0000000), wk =   0.1111111
        k(   14) = (   0.0495072  -0.0571660   0.0000000), wk =   0.1111111
        k(   15) = (   0.0495072  -0.0285830   0.0000000), wk =   0.1111111
        k(   16) = (   0.0495072   0.0000000   0.0000000), wk =   0.1111111
        k(   17) = (  -0.0742608  -0.0428745   0.0000000), wk =   0.0555556
        k(   18) = (  -0.0742608  -0.0142915   0.0000000), wk =   0.1111111
        k(   19) = (  -0.0742608   0.0142915   0.0000000), wk =   0.1111111
        k(   20) = (  -0.0742608  -0.1286235   0.0000000), wk =   0.0555556

     Largest allocated arrays     est. size (Mb)     dimensions
     Largest temporary arrays     est. size (Mb)     dimensions

     Initial potential from superposition of free atoms
     Check: negative starting charge=   -0.348163

     starting charge  142.48503, renormalised to  147.00000

     negative rho (up, down):  3.592E-01 0.000E+00

     *
     * You are using vdW-DF for exchange-correlation in this calculation.
     * Please cite the following three references that made this development
     * possible:
     *
     *   M. Dion, H. Rydberg, E. Schroder, D. C. Langreth, and
     *   B. I. Lundqvist, Phys. Rev. Lett. 92, 246401 (2004).
     *
     *   T. Thonhauser, V. R. Cooper, S. Li, A. Puzder, P. Hyldgaard, and
     *   D. C. Langreth, Phys. Rev. B 76, 125112 (2007).
     *
     *   G. Roman-Perez and J. M. Soler, Phys. Rev. Lett. 103, 096102 (2009).
     *
     *
     * If you are using vdW-DF2, please also cite:
     *
     *   K. Lee, E. D. Murray, L. Kong, B. I. Lundqvist, and
     *   D. C. Langreth, Phys. Rev. B 82, 081101(R) (2010).
     *
     *
     * If you are calculating the stress with vdW-DF, please also cite:
     *
     *   R. Sabatini, E. Kucukbenli, B. Kolb, T. Thonhauser, and
     *   S. de Gironcoli, J. Phys.: Condens. Matter 24, 424209 (2012).
     *

     Carrying out vdW-DF run using the following parameters:

     Nqs =      20    Nr_points =    1024   r_max =   100.000
     q_mesh =
               0.00001000     0.04494208     0.09755937     0.15916263
               0.23128650     0.31572767     0.41458969     0.53033537
               0.66584808     0.82450364     1.01025438     1.22772762
               1.48234092     1.78043706     2.12944203     2.53805004
               3.01644009     3.57652955     4.23227104     5.00000000

     Gradients computed in reciprocal space

     Adding external electric field

     Computed dipole along edir(3) :
        Dipole                0.0000 Ry au,          0.0000 Debye
        Dipole field          0.0000 Ry au

        Potential amp.       -0.0000 Ry
        Total length         46.9787 bohr

     Starting wfc are  108 randomized atomic wfcs

     Self-consistent Calculation

     iteration #  1     ecut=    36.75 Ry     beta=0.10
     Davidson diagonalization with overlap
     ethr =  1.00E-02,  avg # of iterations =  9.3

     Threshold (ethr) on eigenvalues was too large:
     Diagonalizing with lowered threshold

     Davidson diagonalization with overlap
     ethr =  4.64E-04,  avg # of iterations =  4.5

[...]

     total energy              =   -1485.30291097 Ry
     Harris-Foulkes estimate   =   -1485.40952678 Ry
     estimated scf accuracy    <       0.65316704 Ry

[...]

     iteration #  4     ecut=    36.75 Ry     beta=0.10
     Davidson diagonalization with overlap
     c_bands:  1 eigenvalues not converged
     ethr =  1.47E-05,  avg # of iterations =  8.5

[...]

     End of self-consistent calculation

          k = 0.0000 0.0000 0.0000 ( 25425 PWs)   bands (ev):

   -11.6785 -11.6765 -11.6765 -11.6567 -11.6567 -11.5765 -11.5737 -11.5737
   -11.5702 -11.5702 -11.5662 -11.5419 -11.5419 -11.5377 -11.5377  -9.0582
    -8.9904  -8.8955  -8.8697  -8.8697  -8.8474  -8.7985  -8.7440  -8.7440
    -8.7320  -8.7320  -8.7248  -8.7248  -8.7041  -8.6614  -8.6614  -8.6612
    -8.6433  -8.5581  -8.5581  -8.5194  -8.4873  -8.4873  -8.4795  -8.4191
    -8.4191  -8.4185  -8.4185  -8.4100  -8.3892  -8.3892  -8.3569  -8.3569
    -8.3276  -8.3276  -8.2859  -8.2859  -8.2764  -8.2748  -8.2748  -8.2197
    -8.1907  -8.1907  -8.1385  -8.1323  -7.7923  -6.5795  -5.2197  -3.1551
    -2.9246  -2.2021  -1.9764  -1.9764  -1.8840  -1.8840  -0.9970  -0.8857
    -0.8857  -0.5711  -0.4486  -0.4486   0.4824   0.7321   0.9678   0.9678
     1.2773   1.2773   2.0011   3.3182   3.6449   3.8170   3.8873   4.3756
     4.3756   4.5031   4.5031   4.5099   4.7151   6.0855   6.1120   6.1120
     6.2682   6.4950   6.5048   6.5048   6.6097   6.9307   6.9312

[...]

          k =-0.0743-0.0429 0.0000 ( 25394 PWs)   bands (ev):

[...]

     the Fermi energy is     0.2343 ev

!    total energy              =   -1485.16003559 Ry
     Harris-Foulkes estimate   =   -1485.16003605 Ry
     estimated scf accuracy    <       0.00000058 Ry

     The total energy is the sum of the following terms:

     one-electron contribution =   -7694.03904277 Ry
     hartree contribution      =    3935.37602197 Ry
     xc contribution           =    -558.90061382 Ry
     ewald contribution        =    2832.43393342 Ry
     electric field correction =       0.00000000 Ry
     smearing contrib. (-TS)   =      -0.03033439 Ry

     convergence has been achieved in  13 iterations

 BEEF-vdW xc energy contributions
           1 :   -492.531369658047
           2 :    452.416678231779
           3 :   -384.121846027607
           4 :    306.027433134504
           5 :   -235.290307258834
           6 :    181.856029246623
[...]
     Pseudo is Ultrasoft + core correction, Zval = 12.0
     Generated by new atomic code, or converted to UPF format
     Using radial grid of  889 points,  6 beta functions with:
                l(1) =   0
                l(2) =   0
                l(3) =   1
                l(4) =   1
                l(5) =   2
                l(6) =   2
     Q(r) pseudized with  6 coefficients,  rinner =    1.000   1.000   1.000
                                                       1.000   1.000

     PseudoPot. # 2 for Tl read from file:
     /afs/slac.stanford.edu/u/if/mamunm/psp/gbrv1.5pbe/Tl.UPF
     MD5 check sum: b76cf1f7e72655a2b2c53cf6385d7059
     Pseudo is Ultrasoft + core correction, Zval = 13.0
     Generated by new atomic code, or converted to UPF format
     Using radial grid of  899 points,  6 beta functions with:
                l(1) =   0
                l(2) =   0
                l(3) =   1
                l(4) =   1
                l(5) =   2
                l(6) =   2
     Q(r) pseudized with  6 coefficients,  rinner =    1.100   1.100   1.100
                                                       1.100   1.100

     vdW kernel table read from file vdW_kernel_table
     MD5 check sum: 095c7af220d748ca6e76c0b4c6cfb241

     atomic species   valence    mass     pseudopotential
        Cd1           12.00   112.41400     Cd( 1.00)
        Tl1           13.00   204.38000     Tl( 1.00)

     No symmetry found

   Cartesian axes

     site n.     atom                  positions (alat units)
         1           Cd1 tau(   1) = (   0.0000000   0.0000000  10.0000000  )
         2           Cd1 tau(   2) = (  -1.6832563   2.9154854  10.0000000  )
         3           Cd1 tau(   3) = (   1.6832563   2.9154854  10.0000000  )
         4           Tl1 tau(   4) = (   3.3665125   0.0000000  10.0000000  )
         5           Cd1 tau(   5) = (   3.3665125   1.9436569  12.7487460  )
         6           Cd1 tau(   6) = (   1.6832563   4.8591423  12.7487460  )
         7           Cd1 tau(   7) = (  -1.6832563   4.8591423  12.7487460  )
         8           Tl1 tau(   8) = (   0.0000000   1.9436569  12.7487460  )
         9           Cd1 tau(   9) = (   0.0000633   3.9290094  15.5817598  )
        10           Cd1 tau(  10) = (   1.7194112   0.9510032  15.5818310  )
        11           Cd1 tau(  11) = (   5.0135716   0.9509543  15.5817818  )
        12           Tl1 tau(  12) = (   3.3665687   3.8873205  15.6123580  )

     number of k points=    20  Fermi-Dirac smearing, width (Ry)=  0.0110
                       cart. coord. in units 2pi/alat
        k(    1) = (   0.0000000   0.0000000   0.0000000), wk =   0.0555556
        k(    2) = (   0.0000000   0.0285830   0.0000000), wk =   0.1111111
        k(    3) = (   0.0000000   0.0571660   0.0000000), wk =   0.1111111
        k(    4) = (   0.0000000  -0.0857490   0.0000000), wk =   0.0555556
        k(    5) = (   0.0247536   0.0142915   0.0000000), wk =   0.1111111
        k(    6) = (   0.0247536   0.0428745   0.0000000), wk =   0.1111111
        k(    7) = (   0.0247536   0.0714575   0.0000000), wk =   0.1111111
        k(    8) = (   0.0247536  -0.0714575   0.0000000), wk =   0.1111111
        k(    9) = (   0.0247536  -0.0428745   0.0000000), wk =   0.1111111
        k(   10) = (   0.0247536  -0.0142915   0.0000000), wk =   0.1111111
        k(   11) = (   0.0495072   0.0285830   0.0000000), wk =   0.1111111
        k(   12) = (   0.0495072   0.0571660   0.0000000), wk =   0.1111111
        k(   13) = (   0.0495072   0.0857490   0.0000000), wk =   0.1111111
        k(   14) = (   0.0495072  -0.0571660   0.0000000), wk =   0.1111111
        k(   15) = (   0.0495072  -0.0285830   0.0000000), wk =   0.1111111
        k(   16) = (   0.0495072   0.0000000   0.0000000), wk =   0.1111111
        k(   17) = (  -0.0742608  -0.0428745   0.0000000), wk =   0.0555556
        k(   18) = (  -0.0742608  -0.0142915   0.0000000), wk =   0.1111111
        k(   19) = (  -0.0742608   0.0142915   0.0000000), wk =   0.1111111
        k(   20) = (  -0.0742608  -0.1286235   0.0000000), wk =   0.0555556

     Largest allocated arrays     est. size (Mb)     dimensions
     Largest temporary arrays     est. size (Mb)     dimensions

     Initial potential from superposition of free atoms
     Check: negative starting charge=   -0.345643

     starting charge  142.48503, renormalised to  147.00000

[...]

     *
     * You are using vdW-DF for exchange-correlation in this calculation.
     * Please cite the following three references that made this development
     * possible:
     *
     *   M. Dion, H. Rydberg, E. Schroder, D. C. Langreth, and
     *   B. I. Lundqvist, Phys. Rev. Lett. 92, 246401 (2004).
     *
     *   T. Thonhauser, V. R. Cooper, S. Li, A. Puzder, P. Hyldgaard, and
     *   D. C. Langreth, Phys. Rev. B 76, 125112 (2007).
     *
     *   G. Roman-Perez and J. M. Soler, Phys. Rev. Lett. 103, 096102 (2009).
     *
     *
     * If you are using vdW-DF2, please also cite:
     *
     *   K. Lee, E. D. Murray, L. Kong, B. I. Lundqvist, and
     *   D. C. Langreth, Phys. Rev. B 82, 081101(R) (2010).
     *
     *
     * If you are calculating the stress with vdW-DF, please also cite:
     *
     *   R. Sabatini, E. Kucukbenli, B. Kolb, T. Thonhauser, and
     *   S. de Gironcoli, J. Phys.: Condens. Matter 24, 424209 (2012).
     *

     Carrying out vdW-DF run using the following parameters:

     Nqs =      20    Nr_points =    1024   r_max =   100.000
     q_mesh =
               0.00001000     0.04494208     0.09755937     0.15916263
               0.23128650     0.31572767     0.41458969     0.53033537
               0.66584808     0.82450364     1.01025438     1.22772762
               1.48234092     1.78043706     2.12944203     2.53805004
               3.01644009     3.57652955     4.23227104     5.00000000

     Gradients computed in reciprocal space

[...]

     Starting wfc are  108 randomized atomic wfcs

     Self-consistent Calculation

[...]

     Threshold (ethr) on eigenvalues was too large:
     Diagonalizing with lowered threshold

     Davidson diagonalization with overlap
     ethr =  4.63E-04,  avg # of iterations =  5.0

[...]

     total energy              =   -1485.16251790 Ry
     Harris-Foulkes estimate   =   -1485.16250052 Ry
     estimated scf accuracy    <       0.00000349 Ry

     iteration # 13     ecut=    36.75 Ry     beta=0.10
     Davidson diagonalization with overlap
     ethr =  2.37E-09,  avg # of iterations =  3.0

[...]

     negative rho (up, down):  3.539E-01 0.000E+00

     Adding external electric field

     Computed dipole along edir(3) :
        Dipole                0.0088 Ry au,          0.0224 Debye
        Dipole field          0.0000 Ry au

        Potential amp.       -0.0015 Ry
        Total length         46.9787 bohr

     End of self-consistent calculation

[...]

          k = 0.0495 0.0000 0.0000 ( 25418 PWs)   bands (ev):

[...]

          k =-0.0743-0.1286 0.0000 ( 25394 PWs)   bands (ev):

   -11.6449 -11.6316 -11.6300 -11.6168 -11.6147 -11.5655 -11.5631 -11.5500
   -11.5486 -11.5450 -11.5423 -11.5358 -11.5344 -11.5324 -11.5260  -8.8514
    -8.7984  -8.7919  -8.7429  -8.7272  -8.7032  -8.6967  -8.6903  -8.6798
    -8.6797  -8.6624  -8.6561  -8.6551  -8.6090  -8.5771  -8.5749  -8.5484
    -8.5239  -8.5109  -8.5040  -8.4826  -8.4775  -8.4764  -8.4675  -8.4633
    -8.4603  -8.4463  -8.4436  -8.4305  -8.4282  -8.4171  -8.4140  -8.4037
    -8.3995  -8.3905  -8.3784  -8.3574  -8.3554  -8.3523  -8.3383  -8.3120
    -8.2970  -8.2608  -8.1975  -8.1593  -6.8338  -6.4952  -5.9527  -4.6927
    -3.9457  -3.3183  -3.1063  -2.4922  -2.0685  -1.8799  -1.3000  -0.1149
     0.5711   0.6143   1.4382   1.4594   1.6234   1.9067   2.2420   2.4617
     2.8982   2.9108   2.9477   3.0791   3.4953   3.9022   3.9896   4.0351
     4.3610   4.3972   4.5210   4.7839   4.8143   4.8794   4.9871   5.0599
     5.0782   5.2727   5.4125   5.5459   5.5832   5.5937   5.8202

     the Fermi energy is     0.2425 ev

!    total energy              =   -1485.16251640 Ry
     Harris-Foulkes estimate   =   -1485.16251885 Ry
     estimated scf accuracy    <       0.00000061 Ry

     The total energy is the sum of the following terms:

     one-electron contribution =   -7593.82131404 Ry
     hartree contribution      =    3885.35092140 Ry
     xc contribution           =    -558.86379899 Ry
     ewald contribution        =    2782.20162438 Ry
     electric field correction =       0.00000014 Ry
     smearing contrib. (-TS)   =      -0.02994930 Ry

     convergence has been achieved in  13 iterations

 BEEF-vdW xc energy contributions
           1 :   -492.488812481158
           2 :    452.335149404377
           3 :   -383.997693010722
           4 :    305.899124767686
           5 :   -235.211382130090
           6 :    181.855041400693
           7 :   -146.737375005310
           8 :    124.278022244753
           9 :   -107.180654857885
          10 :    90.6086259795693
          11 :   -73.7874065916934
          12 :    58.8318214231866
          13 :   -48.2016776613616
          14 :    42.6446096279496
          15 :   -40.7684699332826
          16 :    40.1132558905791
          17 :   -38.6994612833397
          18 :    35.9628773889873
          19 :   -32.6331797275678
          20 :    29.8744041013611
          21 :   -28.3978247458875
          22 :    28.0960134217116
          23 :   -28.2848181096873
          24 :    28.2311714460540
          25 :   -27.5651222763676
          26 :    26.3689528455307
          27 :   -25.0068803324319
          28 :    23.8819639168873
          29 :   -23.2646989807519
          30 :    23.2188873089592
          31 :   -42.6022733057343
          32 :   -30.9662035434768

     Forces acting on atoms (Ry/au):

     negative rho (up, down):  3.539E-01 0.000E+00
     atom    1 type  1   force =     0.00000404   -0.00382711   -0.00439888
     atom    2 type  1   force =    -0.00331297    0.00190825   -0.00440754
     atom    3 type  1   force =     0.00331216    0.00191296   -0.00440673
     atom    4 type  2   force =    -0.00000487    0.00000262   -0.00643944
     atom    5 type  1   force =     0.00000102    0.00115514    0.00315194
     atom    6 type  1   force =     0.00100374   -0.00057720    0.00315228
     atom    7 type  1   force =    -0.00100197   -0.00057779    0.00315218
     atom    8 type  2   force =    -0.00000035    0.00000081    0.00570997
     atom    9 type  1   force =    -0.00000719   -0.00005188    0.00116915
     atom   10 type  1   force =    -0.00005024    0.00002863    0.00117282
     atom   11 type  1   force =     0.00005394    0.00002456    0.00116812
     atom   12 type  2   force =     0.00000270    0.00000099    0.00097612

     Total force =     0.014665     Total SCF correction =     0.003436
     SCF correction compared to forces is large: reduce conv_thr to get better values

     entering subroutine stress ...

     negative rho (up, down):  3.539E-01 0.000E+00
          total   stress  (Ry/bohr**3)                   (kbar)     P=   -4.93
  -0.00004401   0.00000000  -0.00000000         -6.47      0.00     -0.00
   0.00000000  -0.00004401   0.00000000          0.00     -6.47      0.00
  -0.00000000   0.00000000  -0.00001253         -0.00      0.00     -1.84

 !ASE

     Writing output data file calc.save

     General routines

     Parallel routines

   This run was terminated on:   3:11:43  20Dec2018

   JOB DONE.
Job  /afs/slac/g/suncat/bin/suncat-tsmpirun -x LD_LIBRARY_PATH -wdir /scratch/qe773479_2wN7x pw.x -in pw.inp

TID   HOST_NAME   COMMAND_LINE            STATUS            TERMINATION_TIME
00000 suncat0038 pw.x -in pw.inp   Done                     12/20/2018 03:11:43
00001 suncat0038 pw.x -in pw.inp   Done                     12/20/2018 03:11:43
00002 suncat0038 pw.x -in pw.inp   Done                     12/20/2018 03:11:43
00003 suncat0038 pw.x -in pw.inp   Done                     12/20/2018 03:11:43
00004 suncat0038 pw.x -in pw.inp   Done                     12/20/2018 03:11:43
00005 suncat0038 pw.x -in pw.inp   Done                     12/20/2018 03:11:43
00006 suncat0038 pw.x -in pw.inp   Done                     12/20/2018 03:11:43
00007 suncat0038 pw.x -in pw.inp   Done                     12/20/2018 03:11:43
00008 suncat0037 pw.x -in pw.inp   Done                     12/20/2018 03:11:43
00009 suncat0037 pw.x -in pw.inp   Done                     12/20/2018 03:11:43
00010 suncat0037 pw.x -in pw.inp   Done                     12/20/2018 03:11:43
00011 suncat0037 pw.x -in pw.inp   Done                     12/20/2018 03:11:43
00012 suncat0037 pw.x -in pw.inp   Done                     12/20/2018 03:11:43
00013 suncat0037 pw.x -in pw.inp   Done                     12/20/2018 03:11:43
00014 suncat0037 pw.x -in pw.inp   Done                     12/20/2018 03:11:43
00015 suncat0037 pw.x -in pw.inp   Done                     12/20/2018 03:11:43
00016 suncat0033 pw.x -in pw.inp   Done                     12/20/2018 03:11:43
00017 suncat0033 pw.x -in pw.inp   Done                     12/20/2018 03:11:43
00018 suncat0033 pw.x -in pw.inp   Done                     12/20/2018 03:11:43
00019 suncat0033 pw.x -in pw.inp   Done                     12/20/2018 03:11:43
00020 suncat0033 pw.x -in pw.inp   Done                     12/20/2018 03:11:43
00021 suncat0033 pw.x -in pw.inp   Done                     12/20/2018 03:11:43
00022 suncat0033 pw.x -in pw.inp   Done                     12/20/2018 03:11:43
00023 suncat0033 pw.x -in pw.inp   Done                     12/20/2018 03:11:43
00024 suncat0032 pw.x -in pw.inp   Done                     12/20/2018 03:11:43
00025 suncat0032 pw.x -in pw.inp   Done                     12/20/2018 03:11:43
00026 suncat0032 pw.x -in pw.inp   Done                     12/20/2018 03:11:43
00027 suncat0032 pw.x -in pw.inp   Done                     12/20/2018 03:11:43
00028 suncat0032 pw.x -in pw.inp   Done                     12/20/2018 03:11:43
00029 suncat0032 pw.x -in pw.inp   Done                     12/20/2018 03:11:43
00030 suncat0032 pw.x -in pw.inp   Done                     12/20/2018 03:11:43
00031 suncat0032 pw.x -in pw.inp   Done                     12/20/2018 03:11:43
00032 suncat0169 pw.x -in pw.inp   Done                     12/20/2018 03:11:43
00033 suncat0169 pw.x -in pw.inp   Done                     12/20/2018 03:11:43
00034 suncat0169 pw.x -in pw.inp   Done                     12/20/2018 03:11:43
00035 suncat0169 pw.x -in pw.inp   Done                     12/20/2018 03:11:43
00036 suncat0169 pw.x -in pw.inp   Done                     12/20/2018 03:11:43
00037 suncat0169 pw.x -in pw.inp   Done                     12/20/2018 03:11:43
00038 suncat0169 pw.x -in pw.inp   Done                     12/20/2018 03:11:43
00039 suncat0169 pw.x -in pw.inp   Done                     12/20/2018 03:11:43
00040 suncat0168 pw.x -in pw.inp   Done                     12/20/2018 03:11:43
00041 suncat0168 pw.x -in pw.inp   Done                     12/20/2018 03:11:43
00042 suncat0168 pw.x -in pw.inp   Done                     12/20/2018 03:11:43
00043 suncat0168 pw.x -in pw.inp   Done                     12/20/2018 03:11:43
00044 suncat0168 pw.x -in pw.inp   Done                     12/20/2018 03:11:43
00045 suncat0168 pw.x -in pw.inp   Done                     12/20/2018 03:11:43
00046 suncat0168 pw.x -in pw.inp   Done                     12/20/2018 03:11:43
00047 suncat0168 pw.x -in pw.inp   Done                     12/20/2018 03:11:43
00048 suncat0110 pw.x -in pw.inp   Done                     12/20/2018 03:11:43
00049 suncat0110 pw.x -in pw.inp   Done                     12/20/2018 03:11:43
00050 suncat0110 pw.x -in pw.inp   Done                     12/20/2018 03:11:43
00051 suncat0110 pw.x -in pw.inp   Done                     12/20/2018 03:11:43
00052 suncat0110 pw.x -in pw.inp   Done                     12/20/2018 03:11:43
00053 suncat0110 pw.x -in pw.inp   Done                     12/20/2018 03:11:43
00054 suncat0110 pw.x -in pw.inp   Done                     12/20/2018 03:11:43
00055 suncat0110 pw.x -in pw.inp   Done                     12/20/2018 03:11:43
00056 suncat0109 pw.x -in pw.inp   Done                     12/20/2018 03:11:43
00057 suncat0109 pw.x -in pw.inp   Done                     12/20/2018 03:11:43
00058 suncat0109 pw.x -in pw.inp   Done                     12/20/2018 03:11:43
00059 suncat0109 pw.x -in pw.inp   Done                     12/20/2018 03:11:43
00060 suncat0109 pw.x -in pw.inp   Done                     12/20/2018 03:11:43
00061 suncat0109 pw.x -in pw.inp   Done                     12/20/2018 03:11:43
00062 suncat0109 pw.x -in pw.inp   Done                     12/20/2018 03:11:43
00063 suncat0109 pw.x -in pw.inp   Done                     12/20/2018 03:11:43