     Program PWSCF v.5.1rc2 (svn rev. 11289) starts on 25Dec2018 at 18:21:17

     Current dimensions of program PWSCF are:
     Max number of different atomic species (ntypx) = 10
     Max number of k-points (npk) =  40000
     Max angular momentum in pseudopotentials (lmaxx) =  3
     Presently stress not available with electric field

     IMPORTANT: XC functional enforced from input :
     Exchange-correlation      = BEEF-VDW ( 1  4 27 13 2)
     Any further DFT definition will be discarded
     Please, verify this is what you really want

     Subspace diagonalization in iterative solution of the eigenvalue problem:
     a serial algorithm will be used

     bravais-lattice index     =            0
     lattice parameter (alat)  =       1.8897  a.u.
     unit-cell volume          =    4377.3377 (a.u.)^3
     number of atoms/cell      =           12
     number of atomic types    =            2
     number of electrons       =       213.00
     number of Kohn-Sham states=          136
     kinetic-energy cutoff     =      36.7493  Ry
     charge density cutoff     =     367.4932  Ry
     convergence threshold     =      1.0E-06
     mixing beta               =       0.1000
     number of iterations used =           10  plain     mixing
     Exchange-correlation      = BEEF-VDW ( 1  4 27 13 2)
     nstep                     =           50

     celldm(1)=   1.889726  celldm(2)=   0.000000  celldm(3)=   0.000000
     celldm(4)=   0.000000  celldm(5)=   0.000000  celldm(6)=   0.000000

     crystal axes: (cart. coord. in units of alat)
               a(1) = (   5.527649   0.000000   0.000000 )
               a(2) = (  -2.763825   4.787084   0.000000 )
               a(3) = (   0.000000   0.000000  24.513307 )

     reciprocal axes: (cart. coord. in units 2 pi/alat)
               b(1) = (  0.180909  0.104448  0.000000 )
               b(2) = (  0.000000  0.208895  0.000000 )
               b(3) = (  0.000000  0.000000  0.040794 )

     PseudoPot. # 1 for Cu read from file:
     /afs/slac.stanford.edu/u/if/mamunm/psp/gbrv1.5pbe/Cu.UPF
     MD5 check sum: 6e991ff952a84172a2a52a1c1e996048
     Pseudo is Ultrasoft + core correction, Zval = 19.0
     Generated by new atomic code, or converted to UPF format
     Using radial grid of  867 points,  6 beta functions with:
                l(1) =   0
                l(2) =   0
                l(3) =   1
                l(4) =   1
                l(5) =   2
                l(6) =   2
     Q(r) pseudized with  8 coefficients,  rinner =    1.150   1.150   1.150
                                                       1.150   1.150

     PseudoPot. # 2 for Sn read from file:
     /afs/slac.stanford.edu/u/if/mamunm/psp/gbrv1.5pbe/Sn.UPF
     MD5 check sum: 469debedee59599fedebd795477fea03
     Pseudo is Ultrasoft + core correction, Zval = 14.0
     Generated by new atomic code, or converted to UPF format
     Using radial grid of  891 points,  6 beta functions with:
                l(1) =   0
                l(2) =   0
                l(3) =   1
                l(4) =   1
                l(5) =   2
                l(6) =   2
     Q(r) pseudized with  8 coefficients,  rinner =    1.350   1.350   1.350
                                                       1.350   1.350

     vdW kernel table read from file vdW_kernel_table
     MD5 check sum: 095c7af220d748ca6e76c0b4c6cfb241

     atomic species   valence    mass     pseudopotential
        Cu1           19.00    63.54600     Cu( 1.00)
        Sn1           14.00   118.71000     Sn( 1.00)

     No symmetry found

   Cartesian axes

     site n.     atom                  positions (alat units)
         1           Cu1 tau(   1) = (   0.0000000   0.0000000  10.0000000  )
         2           Cu1 tau(   2) = (  -1.3819123   2.3935422  10.0000000  )
         3           Cu1 tau(   3) = (   1.3819123   2.3935422  10.0000000  )
         4           Sn1 tau(   4) = (   2.7638245   0.0000000  10.0000000  )
         5           Cu1 tau(   5) = (   2.7638245   1.5956948  12.2566533  )
         6           Cu1 tau(   6) = (   1.3819123   3.9892371  12.2566533  )
         7           Cu1 tau(   7) = (  -1.3819123   3.9892371  12.2566533  )
         8           Sn1 tau(   8) = (   0.0000000   1.5956948  12.2566533  )
         9           Cu1 tau(   9) = (  -0.0000000   3.1913897  14.5133065  )
        10           Cu1 tau(  10) = (   1.3819123   0.7978474  14.5133065  )
        11           Cu1 tau(  11) = (   4.1457368   0.7978474  14.5133065  )
        12           Sn1 tau(  12) = (   2.7638245   3.1913897  14.5133065  )

     number of k points=    20  Fermi-Dirac smearing, width (Ry)=  0.0110
                       cart. coord. in units 2pi/alat
        k(    1) = (   0.0000000   0.0000000   0.0000000), wk =   0.0555556
        k(    2) = (   0.0000000   0.0348159   0.0000000), wk =   0.1111111
        k(    3) = (   0.0000000   0.0696318   0.0000000), wk =   0.1111111
        k(    4) = (   0.0000000  -0.1044477   0.0000000), wk =   0.0555556
        k(    5) = (   0.0301515   0.0174080   0.0000000), wk =   0.1111111
        k(    6) = (   0.0301515   0.0522239   0.0000000), wk =   0.1111111
        k(    7) = (   0.0301515   0.0870398   0.0000000), wk =   0.1111111
        k(    8) = (   0.0301515  -0.0870398   0.0000000), wk =   0.1111111
        k(    9) = (   0.0301515  -0.0522239   0.0000000), wk =   0.1111111
        k(   10) = (   0.0301515  -0.0174080   0.0000000), wk =   0.1111111
        k(   11) = (   0.0603029   0.0348159   0.0000000), wk =   0.1111111
        k(   12) = (   0.0603029   0.0696318   0.0000000), wk =   0.1111111
        k(   13) = (   0.0603029   0.1044477   0.0000000), wk =   0.1111111
        k(   14) = (   0.0603029  -0.0696318   0.0000000), wk =   0.1111111
        k(   15) = (   0.0603029  -0.0348159   0.0000000), wk =   0.1111111
        k(   16) = (   0.0603029   0.0000000   0.0000000), wk =   0.1111111
        k(   17) = (  -0.0904544  -0.0522239   0.0000000), wk =   0.0555556
        k(   18) = (  -0.0904544  -0.0174080   0.0000000), wk =   0.1111111
        k(   19) = (  -0.0904544   0.0174080   0.0000000), wk =   0.1111111
        k(   20) = (  -0.0904544  -0.1566716   0.0000000), wk =   0.0555556

     Largest allocated arrays     est. size (Mb)     dimensions
     Largest temporary arrays     est. size (Mb)     dimensions

     Initial potential from superposition of free atoms
     Check: negative starting charge=   -0.000685

     starting charge  200.99985, renormalised to  213.00000

     negative rho (up, down):  7.255E-04 0.000E+00

     *
     * You are using vdW-DF for exchange-correlation in this calculation.
     * Please cite the following three references that made this development
     * possible:
     *
     *   M. Dion, H. Rydberg, E. Schroder, D. C. Langreth, and
     *   B. I. Lundqvist, Phys. Rev. Lett. 92, 246401 (2004).
     *
     *   T. Thonhauser, V. R. Cooper, S. Li, A. Puzder, P. Hyldgaard, and
     *   D. C. Langreth, Phys. Rev. B 76, 125112 (2007).
     *
     *   G. Roman-Perez and J. M. Soler, Phys. Rev. Lett. 103, 096102 (2009).
     *
     *
     * If you are using vdW-DF2, please also cite:
     *
     *   K. Lee, E. D. Murray, L. Kong, B. I. Lundqvist, and
     *   D. C. Langreth, Phys. Rev. B 82, 081101(R) (2010).
     *
     *
     * If you are calculating the stress with vdW-DF, please also cite:
     *
     *   R. Sabatini, E. Kucukbenli, B. Kolb, T. Thonhauser, and
     *   S. de Gironcoli, J. Phys.: Condens. Matter 24, 424209 (2012).
     *

     Carrying out vdW-DF run using the following parameters:

     Nqs =      20    Nr_points =    1024   r_max =   100.000
     q_mesh =
               0.00001000     0.04494208     0.09755937     0.15916263
               0.23128650     0.31572767     0.41458969     0.53033537
               0.66584808     0.82450364     1.01025438     1.22772762
               1.48234092     1.78043706     2.12944203     2.53805004
               3.01644009     3.57652955     4.23227104     5.00000000

     Gradients computed in reciprocal space

     Adding external electric field

     Computed dipole along edir(3) :
        Dipole               -0.0000 Ry au,         -0.0000 Debye
        Dipole field         -0.0000 Ry au

        Potential amp.        0.0000 Ry
        Total length         45.1653 bohr

     Starting wfc are  144 randomized atomic wfcs

     Self-consistent Calculation

     iteration #  1     ecut=    36.75 Ry     beta=0.10
     Davidson diagonalization with overlap
     ethr =  1.00E-02,  avg # of iterations =  7.5

[...]

     total energy              =   -4097.32104467 Ry
     Harris-Foulkes estimate   =   -4140.72763599 Ry
     estimated scf accuracy    <     245.61676568 Ry

[...]

     End of self-consistent calculation

          k = 0.0000 0.0000 0.0000 ( 16439 PWs)   bands (ev):

  -112.2375-112.2353-112.2353-111.8580-111.8570-111.8558-111.8558-111.8548
  -111.8548 -69.6839 -69.6809 -69.6809 -69.6689 -69.6689 -69.6682 -69.5646
   -69.5493 -69.5493 -69.3167 -69.3167 -69.3157 -69.3157 -69.3057 -69.3047
   -69.2815 -69.2805 -69.2604 -69.2604 -69.2594 -69.2594 -69.2048 -69.2037
   -69.1976 -69.1976 -69.1966 -69.1966 -21.3335 -21.3254 -21.3254 -21.3114
   -21.3114 -21.0994 -21.0978 -21.0755 -21.0755 -21.0742 -21.0742 -21.0530
   -21.0530 -21.0520 -21.0520  -9.6531  -7.9871  -6.7734  -3.9827  -3.8257
    -3.6464  -3.5432  -3.5432  -3.2702  -3.2702  -3.1639  -3.1639  -2.9970
    -2.9970  -2.9838  -2.7701  -2.6120  -2.6120  -2.5319  -2.4506  -2.4506
    -2.3548  -2.3323  -2.2482  -2.2482  -2.1477  -2.1477  -2.1158  -2.0548
    -2.0548  -1.8309  -1.8309  -1.7738  -1.7738  -1.7425  -1.7060  -1.7060
    -1.5896  -1.5889  -1.5846  -1.5846  -1.5490  -1.5490  -1.4632  -1.3663
    -1.3663  -1.3114  -1.3114  -1.2091  -1.2021  -1.2001  -0.6917  -0.4661
    -0.4617  -0.4617  -0.1373  -0.1373   0.5189   1.2596   2.5088   2.5088
     2.5567   2.8509   3.8289   3.9533   3.9533   4.4237   4.5590   4.5590
     4.9301   5.7296   5.8248   6.4164   6.5308   7.1703   7.1703   7.3364
     7.3364   7.6304   7.9965   9.4101   9.4101   9.5217   9.8254   9.8254

[...]

          k =-0.0905-0.0522 0.0000 ( 16456 PWs)   bands (ev):

[...]

     the Fermi energy is     0.5999 ev

!    total energy              =   -4126.49943958 Ry
     Harris-Foulkes estimate   =   -4126.49942903 Ry
     estimated scf accuracy    <       0.00000070 Ry

     The total energy is the sum of the following terms:

     one-electron contribution =  -28039.62067606 Ry
     hartree contribution      =   14046.62036530 Ry
     xc contribution           =    -493.78808655 Ry
     ewald contribution        =   10360.31172507 Ry
     electric field correction =       0.00000000 Ry
     smearing contrib. (-TS)   =      -0.02276734 Ry

     convergence has been achieved in  18 iterations

 BEEF-vdW xc energy contributions
           1 :   -436.751693241332
           2 :    397.169123698610
           3 :   -330.109417099883
           4 :    254.115346970398
           5 :   -186.195261369820
           6 :    135.685684780854
           7 :   -102.671306511555
           8 :    80.9958656233992
           9 :   -63.4967058442217
[...]
     Generated by new atomic code, or converted to UPF format
     Using radial grid of  867 points,  6 beta functions with:
                l(1) =   0
                l(2) =   0
                l(3) =   1
                l(4) =   1
                l(5) =   2
                l(6) =   2
     Q(r) pseudized with  8 coefficients,  rinner =    1.150   1.150   1.150
                                                       1.150   1.150

     PseudoPot. # 2 for Sn read from file:
     /afs/slac.stanford.edu/u/if/mamunm/psp/gbrv1.5pbe/Sn.UPF
     MD5 check sum: 469debedee59599fedebd795477fea03
     Pseudo is Ultrasoft + core correction, Zval = 14.0
     Generated by new atomic code, or converted to UPF format
     Using radial grid of  891 points,  6 beta functions with:
                l(1) =   0
                l(2) =   0
                l(3) =   1
                l(4) =   1
                l(5) =   2
                l(6) =   2
     Q(r) pseudized with  8 coefficients,  rinner =    1.350   1.350   1.350
                                                       1.350   1.350

     vdW kernel table read from file vdW_kernel_table
     MD5 check sum: 095c7af220d748ca6e76c0b4c6cfb241

     atomic species   valence    mass     pseudopotential
        Cu1           19.00    63.54600     Cu( 1.00)
        Sn1           14.00   118.71000     Sn( 1.00)

     No symmetry found

   Cartesian axes

     site n.     atom                  positions (alat units)
         1           Cu1 tau(   1) = (   0.0000000   0.0000000  10.0000000  )
         2           Cu1 tau(   2) = (  -1.3819123   2.3935422  10.0000000  )
         3           Cu1 tau(   3) = (   1.3819123   2.3935422  10.0000000  )
         4           Sn1 tau(   4) = (   2.7638245   0.0000000  10.0000000  )
         5           Cu1 tau(   5) = (   2.7638245   1.5956948  12.2566533  )
         6           Cu1 tau(   6) = (   1.3819123   3.9892371  12.2566533  )
         7           Cu1 tau(   7) = (  -1.3819123   3.9892371  12.2566533  )
         8           Sn1 tau(   8) = (   0.0000000   1.5956948  12.2566533  )
         9           Cu1 tau(   9) = (   0.0000051   3.2669906  14.4391785  )
        10           Cu1 tau(  10) = (   1.4473782   0.7600586  14.4391814  )
        11           Cu1 tau(  11) = (   4.0802774   0.7600552  14.4391731  )
        12           Sn1 tau(  12) = (   2.7638360   3.1913905  14.8069558  )

     number of k points=    20  Fermi-Dirac smearing, width (Ry)=  0.0110
                       cart. coord. in units 2pi/alat
        k(    1) = (   0.0000000   0.0000000   0.0000000), wk =   0.0555556
        k(    2) = (   0.0000000   0.0348159   0.0000000), wk =   0.1111111
        k(    3) = (   0.0000000   0.0696318   0.0000000), wk =   0.1111111
        k(    4) = (   0.0000000  -0.1044477   0.0000000), wk =   0.0555556
        k(    5) = (   0.0301515   0.0174080   0.0000000), wk =   0.1111111
        k(    6) = (   0.0301515   0.0522239   0.0000000), wk =   0.1111111
        k(    7) = (   0.0301515   0.0870398   0.0000000), wk =   0.1111111
        k(    8) = (   0.0301515  -0.0870398   0.0000000), wk =   0.1111111
        k(    9) = (   0.0301515  -0.0522239   0.0000000), wk =   0.1111111
        k(   10) = (   0.0301515  -0.0174080   0.0000000), wk =   0.1111111
        k(   11) = (   0.0603029   0.0348159   0.0000000), wk =   0.1111111
        k(   12) = (   0.0603029   0.0696318   0.0000000), wk =   0.1111111
        k(   13) = (   0.0603029   0.1044477   0.0000000), wk =   0.1111111
        k(   14) = (   0.0603029  -0.0696318   0.0000000), wk =   0.1111111
        k(   15) = (   0.0603029  -0.0348159   0.0000000), wk =   0.1111111
        k(   16) = (   0.0603029   0.0000000   0.0000000), wk =   0.1111111
        k(   17) = (  -0.0904544  -0.0522239   0.0000000), wk =   0.0555556
        k(   18) = (  -0.0904544  -0.0174080   0.0000000), wk =   0.1111111
        k(   19) = (  -0.0904544   0.0174080   0.0000000), wk =   0.1111111
        k(   20) = (  -0.0904544  -0.1566716   0.0000000), wk =   0.0555556

     Largest allocated arrays     est. size (Mb)     dimensions
     Largest temporary arrays     est. size (Mb)     dimensions

     Initial potential from superposition of free atoms
     Check: negative starting charge=   -0.000695

     starting charge  200.99985, renormalised to  213.00000

[...]

     *
     * You are using vdW-DF for exchange-correlation in this calculation.
     * Please cite the following three references that made this development
     * possible:
     *
     *   M. Dion, H. Rydberg, E. Schroder, D. C. Langreth, and
     *   B. I. Lundqvist, Phys. Rev. Lett. 92, 246401 (2004).
     *
     *   T. Thonhauser, V. R. Cooper, S. Li, A. Puzder, P. Hyldgaard, and
     *   D. C. Langreth, Phys. Rev. B 76, 125112 (2007).
     *
     *   G. Roman-Perez and J. M. Soler, Phys. Rev. Lett. 103, 096102 (2009).
     *
     *
     * If you are using vdW-DF2, please also cite:
     *
     *   K. Lee, E. D. Murray, L. Kong, B. I. Lundqvist, and
     *   D. C. Langreth, Phys. Rev. B 82, 081101(R) (2010).
     *
     *
     * If you are calculating the stress with vdW-DF, please also cite:
     *
     *   R. Sabatini, E. Kucukbenli, B. Kolb, T. Thonhauser, and
     *   S. de Gironcoli, J. Phys.: Condens. Matter 24, 424209 (2012).
     *

     Carrying out vdW-DF run using the following parameters:

     Nqs =      20    Nr_points =    1024   r_max =   100.000
     q_mesh =
               0.00001000     0.04494208     0.09755937     0.15916263
               0.23128650     0.31572767     0.41458969     0.53033537
               0.66584808     0.82450364     1.01025438     1.22772762
               1.48234092     1.78043706     2.12944203     2.53805004
               3.01644009     3.57652955     4.23227104     5.00000000

     Gradients computed in reciprocal space

[...]

     Starting wfc are  144 randomized atomic wfcs

     Self-consistent Calculation

[...]

     total energy              =   -4126.50944367 Ry
     Harris-Foulkes estimate   =   -4126.50944173 Ry
     estimated scf accuracy    <       0.00000115 Ry

     iteration # 20     ecut=    36.75 Ry     beta=0.10
     Davidson diagonalization with overlap
     ethr =  5.41E-10,  avg # of iterations =  2.0

[...]

     negative rho (up, down):  9.658E-04 0.000E+00

     Adding external electric field

     Computed dipole along edir(3) :
        Dipole                0.0281 Ry au,          0.0714 Debye
        Dipole field          0.0001 Ry au

        Potential amp.       -0.0073 Ry
        Total length         45.1653 bohr

     End of self-consistent calculation

[...]

          k = 0.0603 0.0000 0.0000 ( 16466 PWs)   bands (ev):

[...]

          k =-0.0905-0.1567 0.0000 ( 16456 PWs)   bands (ev):

  -112.1460-112.1453-112.1446-111.8615-111.8597-111.8592-111.8291-111.8284
  -111.8276 -69.5941 -69.5903 -69.5872 -69.5685 -69.5647 -69.5605 -69.4833
   -69.4783 -69.4728 -69.3107 -69.3080 -69.3003 -69.2888 -69.2858 -69.2851
   -69.2820 -69.2709 -69.2663 -69.2431 -69.2369 -69.2304 -69.2116 -69.2064
   -69.2044 -69.1750 -69.1725 -69.1695 -21.2918 -21.2875 -21.2872 -21.2700
   -21.2687 -21.0905 -21.0815 -21.0586 -21.0582 -21.0578 -21.0565 -21.0302
   -21.0270 -21.0064 -21.0040  -8.3940  -7.7125  -6.9735  -5.3657  -4.3571
    -4.3034  -4.2453  -3.2888  -3.1845  -3.1308  -3.0083  -3.0080  -2.9460
    -2.8269  -2.7811  -2.6887  -2.6336  -2.6050  -2.5951  -2.5384  -2.4875
    -2.4129  -2.3790  -2.3028  -2.2615  -2.2096  -2.1114  -2.0883  -2.0841
    -2.0802  -2.0398  -2.0379  -1.9904  -1.9739  -1.9123  -1.9110  -1.8833
    -1.8230  -1.8163  -1.7928  -1.7868  -1.7068  -1.6838  -1.6380  -1.6165
    -1.5393  -1.5100  -1.4417  -1.3713  -1.3101  -0.9370  -0.6282  -0.6257
    -0.1087  -0.0403   0.7932   1.4503   1.6685   2.2457   3.4887   4.1117
     4.5274   4.6184   4.7962   4.8604   5.0303   5.6209   5.7740   5.8591
     5.9755   6.2534   6.3177   6.5224   6.5531   6.5701   7.1702   7.2663
     7.3996   7.4220   7.5077   7.6595   7.7945   8.1511   8.4553   8.6378

     the Fermi energy is     0.6272 ev

!    total energy              =   -4126.50945028 Ry
     Harris-Foulkes estimate   =   -4126.50944364 Ry
     estimated scf accuracy    <       0.00000050 Ry

     The total energy is the sum of the following terms:

     one-electron contribution =  -28039.11540203 Ry
     hartree contribution      =   14046.62285523 Ry
     xc contribution           =    -493.72621632 Ry
     ewald contribution        =   10359.73214986 Ry
     electric field correction =       0.00000226 Ry
     smearing contrib. (-TS)   =      -0.02283929 Ry

     convergence has been achieved in  20 iterations

 BEEF-vdW xc energy contributions
           1 :   -436.690262569167
           2 :    397.086329211677
           3 :   -329.994858866044
           4 :    253.977310868801
           5 :   -186.061127382526
           6 :    135.589521470544
           7 :   -102.633446049359
           8 :    81.0074652832295
           9 :   -63.5222606439041
          10 :    46.2477768540381
          11 :   -29.6631252992729
          12 :    16.7367590645886
          13 :   -9.80955975540707
          14 :    8.53812143924256
          15 :   -10.0798662496153
          16 :    11.0335389717344
          17 :   -9.56362387503827
          18 :    6.23740633844841
          19 :   -3.17119511361375
          20 :    2.26725615682665
          21 :   -3.84232184108510
          22 :    6.52965638134924
          23 :   -8.37609365778246
          24 :    8.24367020496470
          25 :   -6.51243010478493
          26 :    4.66244697940726
          27 :   -4.13086860591443
          28 :    5.30157175505627
          29 :   -7.31825008090016
          30 :    8.78100012716311
          31 :   -35.6075721317709
          32 :   -24.8141165820623

     Forces acting on atoms (Ry/au):

     negative rho (up, down):  9.658E-04 0.000E+00
     atom    1 type  1   force =     0.00000057   -0.00709660    0.00498583
     atom    2 type  1   force =    -0.00614526    0.00354852    0.00498718
     atom    3 type  1   force =     0.00614565    0.00355004    0.00498565
     atom    4 type  2   force =     0.00000030    0.00000087   -0.02821293
     atom    5 type  1   force =     0.00000026    0.00814825    0.00589011
     atom    6 type  1   force =     0.00705488   -0.00407478    0.00589212
     atom    7 type  1   force =    -0.00705482   -0.00407486    0.00589272
     atom    8 type  2   force =    -0.00000082    0.00000080   -0.00008514
     atom    9 type  1   force =     0.00000030    0.00001832   -0.00091503
     atom   10 type  1   force =     0.00001811   -0.00001178   -0.00091745
     atom   11 type  1   force =    -0.00001837   -0.00000860   -0.00091146
     atom   12 type  2   force =    -0.00000078   -0.00000018   -0.00159160

     Total force =     0.036469     Total SCF correction =     0.002473

     entering subroutine stress ...

     negative rho (up, down):  9.658E-04 0.000E+00
          total   stress  (Ry/bohr**3)                   (kbar)     P=  -20.34
  -0.00018197   0.00000000  -0.00000000        -26.77      0.00     -0.00
   0.00000000  -0.00018197  -0.00000000          0.00    -26.77     -0.00
  -0.00000000  -0.00000000  -0.00005080         -0.00     -0.00     -7.47

 !ASE

     Writing output data file calc.save

     General routines

     Parallel routines

   This run was terminated on:  23:47:59  25Dec2018

   JOB DONE.
Job  /afs/slac/g/suncat/bin/suncat-tsmpirun -x LD_LIBRARY_PATH -wdir /scratch/qe109594_sFx1N pw.x -in pw.inp

TID   HOST_NAME   COMMAND_LINE            STATUS            TERMINATION_TIME
00000 suncat0077 pw.x -in pw.inp   Done                     12/25/2018 23:47:59
00001 suncat0077 pw.x -in pw.inp   Done                     12/25/2018 23:47:59
00002 suncat0077 pw.x -in pw.inp   Done                     12/25/2018 23:47:59
00003 suncat0077 pw.x -in pw.inp   Done                     12/25/2018 23:47:59
00004 suncat0077 pw.x -in pw.inp   Done                     12/25/2018 23:47:59
00005 suncat0077 pw.x -in pw.inp   Done                     12/25/2018 23:47:59
00006 suncat0077 pw.x -in pw.inp   Done                     12/25/2018 23:47:59
00007 suncat0077 pw.x -in pw.inp   Done                     12/25/2018 23:47:59
00008 suncat0069 pw.x -in pw.inp   Done                     12/25/2018 23:47:59
00009 suncat0069 pw.x -in pw.inp   Done                     12/25/2018 23:47:59
00010 suncat0069 pw.x -in pw.inp   Done                     12/25/2018 23:47:59
00011 suncat0069 pw.x -in pw.inp   Done                     12/25/2018 23:47:59
00012 suncat0069 pw.x -in pw.inp   Done                     12/25/2018 23:47:59
00013 suncat0069 pw.x -in pw.inp   Done                     12/25/2018 23:47:59
00014 suncat0069 pw.x -in pw.inp   Done                     12/25/2018 23:47:59
00015 suncat0069 pw.x -in pw.inp   Done                     12/25/2018 23:47:59
00016 suncat0065 pw.x -in pw.inp   Done                     12/25/2018 23:47:59
00017 suncat0065 pw.x -in pw.inp   Done                     12/25/2018 23:47:59
00018 suncat0065 pw.x -in pw.inp   Done                     12/25/2018 23:47:59
00019 suncat0065 pw.x -in pw.inp   Done                     12/25/2018 23:47:59
00020 suncat0065 pw.x -in pw.inp   Done                     12/25/2018 23:47:59
00021 suncat0065 pw.x -in pw.inp   Done                     12/25/2018 23:47:59
00022 suncat0065 pw.x -in pw.inp   Done                     12/25/2018 23:47:59
00023 suncat0065 pw.x -in pw.inp   Done                     12/25/2018 23:47:59
00024 suncat0057 pw.x -in pw.inp   Done                     12/25/2018 23:47:59
00025 suncat0057 pw.x -in pw.inp   Done                     12/25/2018 23:47:59
00026 suncat0057 pw.x -in pw.inp   Done                     12/25/2018 23:47:59
00027 suncat0057 pw.x -in pw.inp   Done                     12/25/2018 23:47:59
00028 suncat0057 pw.x -in pw.inp   Done                     12/25/2018 23:47:59
00029 suncat0057 pw.x -in pw.inp   Done                     12/25/2018 23:47:59
00030 suncat0057 pw.x -in pw.inp   Done                     12/25/2018 23:47:59
00031 suncat0057 pw.x -in pw.inp   Done                     12/25/2018 23:47:59
00032 suncat0051 pw.x -in pw.inp   Done                     12/25/2018 23:47:59
00033 suncat0051 pw.x -in pw.inp   Done                     12/25/2018 23:47:59
00034 suncat0051 pw.x -in pw.inp   Done                     12/25/2018 23:47:59
00035 suncat0051 pw.x -in pw.inp   Done                     12/25/2018 23:47:59
00036 suncat0051 pw.x -in pw.inp   Done                     12/25/2018 23:47:59
00037 suncat0051 pw.x -in pw.inp   Done                     12/25/2018 23:47:59
00038 suncat0051 pw.x -in pw.inp   Done                     12/25/2018 23:47:59
00039 suncat0051 pw.x -in pw.inp   Done                     12/25/2018 23:47:59
00040 suncat0043 pw.x -in pw.inp   Done                     12/25/2018 23:47:59
00041 suncat0043 pw.x -in pw.inp   Done                     12/25/2018 23:47:59
00042 suncat0043 pw.x -in pw.inp   Done                     12/25/2018 23:47:59
00043 suncat0043 pw.x -in pw.inp   Done                     12/25/2018 23:47:59
00044 suncat0043 pw.x -in pw.inp   Done                     12/25/2018 23:47:59
00045 suncat0043 pw.x -in pw.inp   Done                     12/25/2018 23:47:59
00046 suncat0043 pw.x -in pw.inp   Done                     12/25/2018 23:47:59
00047 suncat0043 pw.x -in pw.inp   Done                     12/25/2018 23:47:59
00048 suncat0010 pw.x -in pw.inp   Done                     12/25/2018 23:47:59
00049 suncat0010 pw.x -in pw.inp   Done                     12/25/2018 23:47:59
00050 suncat0010 pw.x -in pw.inp   Done                     12/25/2018 23:47:59
00051 suncat0010 pw.x -in pw.inp   Done                     12/25/2018 23:47:59
00052 suncat0010 pw.x -in pw.inp   Done                     12/25/2018 23:47:59
00053 suncat0010 pw.x -in pw.inp   Done                     12/25/2018 23:47:59
00054 suncat0010 pw.x -in pw.inp   Done                     12/25/2018 23:47:59
00055 suncat0010 pw.x -in pw.inp   Done                     12/25/2018 23:47:59
00056 suncat0100 pw.x -in pw.inp   Done                     12/25/2018 23:47:59
00057 suncat0100 pw.x -in pw.inp   Done                     12/25/2018 23:47:59
00058 suncat0100 pw.x -in pw.inp   Done                     12/25/2018 23:47:59
00059 suncat0100 pw.x -in pw.inp   Done                     12/25/2018 23:47:59
00060 suncat0100 pw.x -in pw.inp   Done                     12/25/2018 23:47:59
00061 suncat0100 pw.x -in pw.inp   Done                     12/25/2018 23:47:59
00062 suncat0100 pw.x -in pw.inp   Done                     12/25/2018 23:47:59
00063 suncat0100 pw.x -in pw.inp   Done                     12/25/2018 23:47:59