     Program PWSCF v.5.1rc2 (svn rev. 11289) starts on 20Dec2018 at  3:12:49

     Current dimensions of program PWSCF are:
     Max number of different atomic species (ntypx) = 10
     Max number of k-points (npk) =  40000
     Max angular momentum in pseudopotentials (lmaxx) =  3
     Presently stress not available with electric field

     IMPORTANT: XC functional enforced from input :
     Exchange-correlation      = BEEF-VDW ( 1  4 27 13 2)
     Any further DFT definition will be discarded
     Please, verify this is what you really want

     Subspace diagonalization in iterative solution of the eigenvalue problem:
     a serial algorithm will be used

     bravais-lattice index     =            0
     lattice parameter (alat)  =       1.8897  a.u.
     unit-cell volume          =    5835.5118 (a.u.)^3
     number of atoms/cell      =           12
     number of atomic types    =            2
     number of electrons       =       168.00
     number of Kohn-Sham states=          114
     kinetic-energy cutoff     =      36.7493  Ry
     charge density cutoff     =     367.4932  Ry
     convergence threshold     =      1.0E-06
     mixing beta               =       0.1000
     number of iterations used =           10  plain     mixing
     Exchange-correlation      = BEEF-VDW ( 1  4 27 13 2)
     nstep                     =           50

     celldm(1)=   1.889726  celldm(2)=   0.000000  celldm(3)=   0.000000
     celldm(4)=   0.000000  celldm(5)=   0.000000  celldm(6)=   0.000000

     crystal axes: (cart. coord. in units of alat)
               a(1) = (   6.301563   0.000000   0.000000 )
               a(2) = (  -3.150781   5.457314   0.000000 )
               a(3) = (   0.000000   0.000000  25.145205 )

     reciprocal axes: (cart. coord. in units 2 pi/alat)
               b(1) = (  0.158691  0.091620  0.000000 )
               b(2) = (  0.000000  0.183240  0.000000 )
               b(3) = (  0.000000  0.000000  0.039769 )

     PseudoPot. # 1 for Cd read from file:
     /afs/slac.stanford.edu/u/if/mamunm/psp/gbrv1.5pbe/Cd.UPF
     MD5 check sum: 17164a7926edb8e0dc231208abae86a6
     Pseudo is Ultrasoft + core correction, Zval = 12.0
     Generated by new atomic code, or converted to UPF format
     Using radial grid of  889 points,  6 beta functions with:
                l(1) =   0
                l(2) =   0
                l(3) =   1
                l(4) =   1
                l(5) =   2
                l(6) =   2
     Q(r) pseudized with  6 coefficients,  rinner =    1.000   1.000   1.000
                                                       1.000   1.000

     PseudoPot. # 2 for Zn read from file:
     /afs/slac.stanford.edu/u/if/mamunm/psp/gbrv1.5pbe/Zn.UPF
     MD5 check sum: df62231357ef9e81f77b2b3087fa5675
     Pseudo is Ultrasoft, Zval = 20.0
     Generated by new atomic code, or converted to UPF format
     Using radial grid of  943 points,  6 beta functions with:
                l(1) =   0
                l(2) =   0
                l(3) =   1
                l(4) =   1
                l(5) =   2
                l(6) =   2
     Q(r) pseudized with  8 coefficients,  rinner =    1.100   1.100   1.100
                                                       1.100   1.100

     vdW kernel table read from file vdW_kernel_table
     MD5 check sum: 095c7af220d748ca6e76c0b4c6cfb241

     atomic species   valence    mass     pseudopotential
        Cd1           12.00   112.41400     Cd( 1.00)
        Zn1           20.00    65.38000     Zn( 1.00)

     No symmetry found

   Cartesian axes

     site n.     atom                  positions (alat units)
         1           Cd1 tau(   1) = (   0.0000000   0.0000000  10.0000000  )
         2           Cd1 tau(   2) = (  -1.5753907   2.7286568  10.0000000  )
         3           Cd1 tau(   3) = (   1.5753907   2.7286568  10.0000000  )
         4           Zn1 tau(   4) = (   3.1507814   0.0000000  10.0000000  )
         5           Cd1 tau(   5) = (   3.1507814   1.8191045  12.5726023  )
         6           Cd1 tau(   6) = (   1.5753907   4.5477613  12.5726023  )
         7           Cd1 tau(   7) = (  -1.5753907   4.5477613  12.5726023  )
         8           Zn1 tau(   8) = (   0.0000000   1.8191045  12.5726023  )
         9           Cd1 tau(   9) = (  -0.0000000   3.6382090  15.1452045  )
        10           Cd1 tau(  10) = (   1.5753907   0.9095523  15.1452045  )
        11           Cd1 tau(  11) = (   4.7261722   0.9095523  15.1452045  )
        12           Zn1 tau(  12) = (   3.1507814   3.6382090  15.1452045  )

     number of k points=    20  Fermi-Dirac smearing, width (Ry)=  0.0110
                       cart. coord. in units 2pi/alat
        k(    1) = (   0.0000000   0.0000000   0.0000000), wk =   0.0555556
        k(    2) = (   0.0000000   0.0305401   0.0000000), wk =   0.1111111
        k(    3) = (   0.0000000   0.0610801   0.0000000), wk =   0.1111111
        k(    4) = (   0.0000000  -0.0916202   0.0000000), wk =   0.0555556
        k(    5) = (   0.0264485   0.0152700   0.0000000), wk =   0.1111111
        k(    6) = (   0.0264485   0.0458101   0.0000000), wk =   0.1111111
        k(    7) = (   0.0264485   0.0763501   0.0000000), wk =   0.1111111
        k(    8) = (   0.0264485  -0.0763501   0.0000000), wk =   0.1111111
        k(    9) = (   0.0264485  -0.0458101   0.0000000), wk =   0.1111111
        k(   10) = (   0.0264485  -0.0152700   0.0000000), wk =   0.1111111
        k(   11) = (   0.0528969   0.0305401   0.0000000), wk =   0.1111111
        k(   12) = (   0.0528969   0.0610801   0.0000000), wk =   0.1111111
        k(   13) = (   0.0528969   0.0916202   0.0000000), wk =   0.1111111
        k(   14) = (   0.0528969  -0.0610801   0.0000000), wk =   0.1111111
        k(   15) = (   0.0528969  -0.0305401   0.0000000), wk =   0.1111111
        k(   16) = (   0.0528969   0.0000000   0.0000000), wk =   0.1111111
        k(   17) = (  -0.0793454  -0.0458101   0.0000000), wk =   0.0555556
        k(   18) = (  -0.0793454  -0.0152700   0.0000000), wk =   0.1111111
        k(   19) = (  -0.0793454   0.0152700   0.0000000), wk =   0.1111111
        k(   20) = (  -0.0793454  -0.1374303   0.0000000), wk =   0.0555556

     Largest allocated arrays     est. size (Mb)     dimensions
     Largest temporary arrays     est. size (Mb)     dimensions

     Initial potential from superposition of free atoms
     Check: negative starting charge=   -0.195432

     starting charge  163.49921, renormalised to  168.00000

     negative rho (up, down):  2.008E-01 0.000E+00

     *
     * You are using vdW-DF for exchange-correlation in this calculation.
     * Please cite the following three references that made this development
     * possible:
     *
     *   M. Dion, H. Rydberg, E. Schroder, D. C. Langreth, and
     *   B. I. Lundqvist, Phys. Rev. Lett. 92, 246401 (2004).
     *
     *   T. Thonhauser, V. R. Cooper, S. Li, A. Puzder, P. Hyldgaard, and
     *   D. C. Langreth, Phys. Rev. B 76, 125112 (2007).
     *
     *   G. Roman-Perez and J. M. Soler, Phys. Rev. Lett. 103, 096102 (2009).
     *
     *
     * If you are using vdW-DF2, please also cite:
     *
     *   K. Lee, E. D. Murray, L. Kong, B. I. Lundqvist, and
     *   D. C. Langreth, Phys. Rev. B 82, 081101(R) (2010).
     *
     *
     * If you are calculating the stress with vdW-DF, please also cite:
     *
     *   R. Sabatini, E. Kucukbenli, B. Kolb, T. Thonhauser, and
     *   S. de Gironcoli, J. Phys.: Condens. Matter 24, 424209 (2012).
     *

     Carrying out vdW-DF run using the following parameters:

     Nqs =      20    Nr_points =    1024   r_max =   100.000
     q_mesh =
               0.00001000     0.04494208     0.09755937     0.15916263
               0.23128650     0.31572767     0.41458969     0.53033537
               0.66584808     0.82450364     1.01025438     1.22772762
               1.48234092     1.78043706     2.12944203     2.53805004
               3.01644009     3.57652955     4.23227104     5.00000000

     Gradients computed in reciprocal space

     Adding external electric field

     Computed dipole along edir(3) :
        Dipole                0.0000 Ry au,          0.0000 Debye
        Dipole field          0.0000 Ry au

        Potential amp.       -0.0000 Ry
        Total length         46.3296 bohr

     Starting wfc are  120 randomized atomic wfcs

     Self-consistent Calculation

     iteration #  1     ecut=    36.75 Ry     beta=0.10
     Davidson diagonalization with overlap
     ethr =  1.00E-02,  avg # of iterations =  7.8

[...]

     total energy              =   -2415.54461548 Ry
     Harris-Foulkes estimate   =   -2437.99355981 Ry
     estimated scf accuracy    <     122.78967715 Ry

[...]

     End of self-consistent calculation

          k = 0.0000 0.0000 0.0000 ( 22003 PWs)   bands (ev):

  -126.2760-126.1132-126.1131 -80.4598 -80.4545 -80.4544 -80.3046 -80.3044
   -80.2898 -80.2896 -80.2896 -80.2895  -9.3874  -9.3073  -9.2720  -9.2719
    -9.2155  -9.1662  -9.1545  -9.0726  -9.0726  -9.0512  -9.0512  -9.0051
    -9.0050  -8.8961  -8.8961  -8.8954  -8.8572  -8.8361  -8.7298  -8.7298
    -8.6985  -8.6749  -8.6551  -8.6551  -8.5945  -8.5945  -8.5090  -8.5090
    -8.4802  -8.4802  -8.4625  -8.4005  -8.4005  -8.3897  -8.3897  -8.3450
    -8.3450  -8.2874  -8.2874  -8.2636  -8.2061  -8.1650  -8.1650  -8.0555
    -8.0489  -7.6402  -7.1383  -7.1233  -7.1231  -7.1025  -7.1022  -7.0124
    -6.9786  -6.9784  -6.9507  -6.9507  -6.9505  -6.9386  -6.9384  -6.9275
    -6.9273  -5.9889  -3.4784  -1.9702  -1.8933  -1.7590  -1.7590  -1.5874
    -1.5874  -0.6838  -0.6770  -0.5690  -0.5690  -0.2857   0.1331   0.1331
     1.3333   1.6389   1.6764   1.6764   2.1078   2.1078   2.3792   3.5151
     4.0895   4.8075   4.8496   4.9574   5.0900   5.1007   5.1007   5.1910
     5.1910   6.6398   7.0215   7.1640   7.1732   7.1732   7.5306   7.5307
     7.6213   7.7214

[...]

          k =-0.0793-0.0458 0.0000 ( 21892 PWs)   bands (ev):

[...]

     the Fermi energy is     0.2448 ev

!    total energy              =   -2433.03750012 Ry
     Harris-Foulkes estimate   =   -2433.03750660 Ry
     estimated scf accuracy    <       0.00000052 Ry

     The total energy is the sum of the following terms:

     one-electron contribution =  -12894.20229162 Ry
     hartree contribution      =    6510.30912718 Ry
     xc contribution           =    -497.16856769 Ry
     ewald contribution        =    4448.05496611 Ry
     electric field correction =       0.00000000 Ry
     smearing contrib. (-TS)   =      -0.03073410 Ry

     convergence has been achieved in  14 iterations

 BEEF-vdW xc energy contributions
           1 :   -437.217573299700
           2 :    398.726372245518
           3 :   -334.026641044997
           4 :    261.819146810828
           5 :   -199.023057826070
           6 :    154.562858547353
           7 :   -127.881130274460
           8 :    112.129934045643
           9 :   -99.5509145754395
          10 :    85.7806236713101
          11 :   -71.0093497435645
          12 :    58.1144897176195
          13 :   -49.6426320393020
          14 :    45.8083569377796
          15 :   -44.5717670399376
[...]
     /afs/slac.stanford.edu/u/if/mamunm/psp/gbrv1.5pbe/Cd.UPF
     MD5 check sum: 17164a7926edb8e0dc231208abae86a6
     Pseudo is Ultrasoft + core correction, Zval = 12.0
     Generated by new atomic code, or converted to UPF format
     Using radial grid of  889 points,  6 beta functions with:
                l(1) =   0
                l(2) =   0
                l(3) =   1
                l(4) =   1
                l(5) =   2
                l(6) =   2
     Q(r) pseudized with  6 coefficients,  rinner =    1.000   1.000   1.000
                                                       1.000   1.000

     PseudoPot. # 2 for Zn read from file:
     /afs/slac.stanford.edu/u/if/mamunm/psp/gbrv1.5pbe/Zn.UPF
     MD5 check sum: df62231357ef9e81f77b2b3087fa5675
     Pseudo is Ultrasoft, Zval = 20.0
     Generated by new atomic code, or converted to UPF format
     Using radial grid of  943 points,  6 beta functions with:
                l(1) =   0
                l(2) =   0
                l(3) =   1
                l(4) =   1
                l(5) =   2
                l(6) =   2
     Q(r) pseudized with  8 coefficients,  rinner =    1.100   1.100   1.100
                                                       1.100   1.100

     vdW kernel table read from file vdW_kernel_table
     MD5 check sum: 095c7af220d748ca6e76c0b4c6cfb241

     atomic species   valence    mass     pseudopotential
        Cd1           12.00   112.41400     Cd( 1.00)
        Zn1           20.00    65.38000     Zn( 1.00)

     No symmetry found

   Cartesian axes

     site n.     atom                  positions (alat units)
         1           Cd1 tau(   1) = (   0.0000000   0.0000000  10.0000000  )
         2           Cd1 tau(   2) = (  -1.5753907   2.7286568  10.0000000  )
         3           Cd1 tau(   3) = (   1.5753907   2.7286568  10.0000000  )
         4           Zn1 tau(   4) = (   3.1507814   0.0000000  10.0000000  )
         5           Cd1 tau(   5) = (   3.1507814   1.8191045  12.5726023  )
         6           Cd1 tau(   6) = (   1.5753907   4.5477613  12.5726023  )
         7           Cd1 tau(   7) = (  -1.5753907   4.5477613  12.5726023  )
         8           Zn1 tau(   8) = (   0.0000000   1.8191045  12.5726023  )
         9           Cd1 tau(   9) = (   0.0000128   3.6289859  15.3770162  )
        10           Cd1 tau(  10) = (   1.5673326   0.9141657  15.3768499  )
        11           Cd1 tau(  11) = (   4.7343016   0.9141372  15.3768445  )
        12           Zn1 tau(  12) = (   3.1508405   3.6381118  15.1525157  )

     number of k points=    20  Fermi-Dirac smearing, width (Ry)=  0.0110
                       cart. coord. in units 2pi/alat
        k(    1) = (   0.0000000   0.0000000   0.0000000), wk =   0.0555556
        k(    2) = (   0.0000000   0.0305401   0.0000000), wk =   0.1111111
        k(    3) = (   0.0000000   0.0610801   0.0000000), wk =   0.1111111
        k(    4) = (   0.0000000  -0.0916202   0.0000000), wk =   0.0555556
        k(    5) = (   0.0264485   0.0152700   0.0000000), wk =   0.1111111
        k(    6) = (   0.0264485   0.0458101   0.0000000), wk =   0.1111111
        k(    7) = (   0.0264485   0.0763501   0.0000000), wk =   0.1111111
        k(    8) = (   0.0264485  -0.0763501   0.0000000), wk =   0.1111111
        k(    9) = (   0.0264485  -0.0458101   0.0000000), wk =   0.1111111
        k(   10) = (   0.0264485  -0.0152700   0.0000000), wk =   0.1111111
        k(   11) = (   0.0528969   0.0305401   0.0000000), wk =   0.1111111
        k(   12) = (   0.0528969   0.0610801   0.0000000), wk =   0.1111111
        k(   13) = (   0.0528969   0.0916202   0.0000000), wk =   0.1111111
        k(   14) = (   0.0528969  -0.0610801   0.0000000), wk =   0.1111111
        k(   15) = (   0.0528969  -0.0305401   0.0000000), wk =   0.1111111
        k(   16) = (   0.0528969   0.0000000   0.0000000), wk =   0.1111111
        k(   17) = (  -0.0793454  -0.0458101   0.0000000), wk =   0.0555556
        k(   18) = (  -0.0793454  -0.0152700   0.0000000), wk =   0.1111111
        k(   19) = (  -0.0793454   0.0152700   0.0000000), wk =   0.1111111
        k(   20) = (  -0.0793454  -0.1374303   0.0000000), wk =   0.0555556

     Largest allocated arrays     est. size (Mb)     dimensions
     Largest temporary arrays     est. size (Mb)     dimensions

     Initial potential from superposition of free atoms
     Check: negative starting charge=   -0.194437

     starting charge  163.49921, renormalised to  168.00000

[...]

     *
     * You are using vdW-DF for exchange-correlation in this calculation.
     * Please cite the following three references that made this development
     * possible:
     *
     *   M. Dion, H. Rydberg, E. Schroder, D. C. Langreth, and
     *   B. I. Lundqvist, Phys. Rev. Lett. 92, 246401 (2004).
     *
     *   T. Thonhauser, V. R. Cooper, S. Li, A. Puzder, P. Hyldgaard, and
     *   D. C. Langreth, Phys. Rev. B 76, 125112 (2007).
     *
     *   G. Roman-Perez and J. M. Soler, Phys. Rev. Lett. 103, 096102 (2009).
     *
     *
     * If you are using vdW-DF2, please also cite:
     *
     *   K. Lee, E. D. Murray, L. Kong, B. I. Lundqvist, and
     *   D. C. Langreth, Phys. Rev. B 82, 081101(R) (2010).
     *
     *
     * If you are calculating the stress with vdW-DF, please also cite:
     *
     *   R. Sabatini, E. Kucukbenli, B. Kolb, T. Thonhauser, and
     *   S. de Gironcoli, J. Phys.: Condens. Matter 24, 424209 (2012).
     *

     Carrying out vdW-DF run using the following parameters:

     Nqs =      20    Nr_points =    1024   r_max =   100.000
     q_mesh =
               0.00001000     0.04494208     0.09755937     0.15916263
               0.23128650     0.31572767     0.41458969     0.53033537
               0.66584808     0.82450364     1.01025438     1.22772762
               1.48234092     1.78043706     2.12944203     2.53805004
               3.01644009     3.57652955     4.23227104     5.00000000

     Gradients computed in reciprocal space

[...]

     Starting wfc are  120 randomized atomic wfcs

     Self-consistent Calculation

[...]

     total energy              =   -2433.04413808 Ry
     Harris-Foulkes estimate   =   -2433.04414072 Ry
     estimated scf accuracy    <       0.00000328 Ry

     iteration # 15     ecut=    36.75 Ry     beta=0.10
     Davidson diagonalization with overlap
     ethr =  1.95E-09,  avg # of iterations =  3.7

[...]

     negative rho (up, down):  2.002E-01 0.000E+00

     Adding external electric field

     Computed dipole along edir(3) :
        Dipole                0.0167 Ry au,          0.0424 Debye
        Dipole field          0.0000 Ry au

        Potential amp.       -0.0033 Ry
        Total length         46.3296 bohr

     End of self-consistent calculation

[...]

          k = 0.0529 0.0000 0.0000 ( 22005 PWs)   bands (ev):

[...]

          k =-0.0793-0.1374 0.0000 ( 21892 PWs)   bands (ev):

  -126.1956-126.0893-126.0732 -80.3806 -80.3740 -80.3739 -80.2811 -80.2656
   -80.2654 -80.2635 -80.2501 -80.2500  -9.1688  -9.0713  -9.0466  -9.0037
    -8.9556  -8.9254  -8.9251  -8.8899  -8.8871  -8.8704  -8.8635  -8.8433
    -8.8195  -8.7607  -8.7486  -8.7074  -8.6641  -8.6601  -8.6266  -8.6119
    -8.6063  -8.5991  -8.5637  -8.5596  -8.5531  -8.5416  -8.5394  -8.5247
    -8.5158  -8.5101  -8.5033  -8.4941  -8.4900  -8.4698  -8.4498  -8.4474
    -8.4356  -8.3931  -8.3827  -8.3424  -8.3114  -8.3035  -8.2663  -8.1588
    -8.1065  -7.1096  -7.0834  -7.0702  -7.0665  -7.0507  -6.9826  -6.9740
    -6.9624  -6.9623  -6.9531  -6.9517  -6.9398  -6.9313  -6.9274  -6.9227
    -6.0047  -5.9541  -4.5438  -4.4583  -3.1558  -2.8979  -2.3978  -2.3101
    -1.7527  -1.5284   0.1399   0.4693   0.8510   0.8722   2.1510   2.4906
     2.5828   2.7709   3.2767   3.2997   3.3884   3.5202   3.7857   4.0401
     4.4406   4.5092   4.7183   4.7291   5.2464   5.3171   5.3432   5.3757
     5.6429   5.7807   5.9226   6.0066   6.0348   6.0534   6.0890   6.1728
     6.3256   6.3331

     the Fermi energy is     0.2757 ev

!    total energy              =   -2433.04413084 Ry
     Harris-Foulkes estimate   =   -2433.04413848 Ry
     estimated scf accuracy    <       0.00000075 Ry

     The total energy is the sum of the following terms:

     one-electron contribution =  -12640.44360652 Ry
     hartree contribution      =    6383.71936083 Ry
     xc contribution           =    -497.09348283 Ry
     ewald contribution        =    4320.80421937 Ry
     electric field correction =       0.00000060 Ry
     smearing contrib. (-TS)   =      -0.03062228 Ry

     convergence has been achieved in  15 iterations

 BEEF-vdW xc energy contributions
           1 :   -437.163445257642
           2 :    398.590503938161
           3 :   -333.799297299836
           4 :    261.575291006417
           5 :   -198.866854178122
           6 :    154.549317642663
           7 :   -127.975087716636
           8 :    112.232557531439
           9 :   -99.5722252864472
          10 :    85.7026529695080
          11 :   -70.8932653232491
          12 :    58.0488051960798
          13 :   -49.6740861276962
          14 :    45.9088547748464
          15 :   -44.6651271291884
          16 :    43.3092296814682
          17 :   -40.4190147901628
          18 :    36.3896169197204
          19 :   -32.6913117599373
          20 :    30.5499764833870
          21 :   -30.0786677108650
          22 :    30.3787167917206
          23 :   -30.3450986694256
          24 :    29.4565863164576
          25 :   -27.9841755946407
          26 :    26.5879749185544
          27 :   -25.7302387267074
          28 :    25.3818069777345
          29 :   -25.1801707322766
          30 :    24.8140851657746
          31 :   -37.8257773221285
          32 :   -27.0839494686859

     Forces acting on atoms (Ry/au):

     negative rho (up, down):  2.002E-01 0.000E+00
     atom    1 type  1   force =    -0.00000055    0.00324077   -0.00925762
     atom    2 type  1   force =     0.00280939   -0.00161795   -0.00926068
     atom    3 type  1   force =    -0.00279654   -0.00161257   -0.00927477
     atom    4 type  2   force =     0.00000761    0.00000736   -0.00218523
     atom    5 type  1   force =    -0.00000061   -0.00322582    0.00864001
     atom    6 type  1   force =    -0.00278512    0.00161085    0.00862861
     atom    7 type  1   force =     0.00278963    0.00161386    0.00863558
     atom    8 type  2   force =    -0.00000474    0.00000333    0.00547582
     atom    9 type  1   force =    -0.00000290    0.00042927   -0.00024538
     atom   10 type  1   force =     0.00038453   -0.00022369   -0.00023020
     atom   11 type  1   force =    -0.00039461   -0.00022362   -0.00022744
     atom   12 type  2   force =    -0.00000609   -0.00000182   -0.00069869

     Total force =     0.024078     Total SCF correction =     0.003273
     SCF correction compared to forces is large: reduce conv_thr to get better values

     entering subroutine stress ...

     negative rho (up, down):  2.002E-01 0.000E+00
          total   stress  (Ry/bohr**3)                   (kbar)     P=   -9.60
  -0.00009424  -0.00000000   0.00000000        -13.86     -0.00      0.00
  -0.00000000  -0.00009425   0.00000000         -0.00    -13.86      0.00
   0.00000000   0.00000000  -0.00000719          0.00      0.00     -1.06

 !ASE

     Writing output data file calc.save

     General routines

     Parallel routines

   This run was terminated on:   4:19:54  20Dec2018

   JOB DONE.
Job  /afs/slac/g/suncat/bin/suncat-tsmpirun -x LD_LIBRARY_PATH -wdir /scratch/qe773489_Mbw6t pw.x -in pw.inp

TID   HOST_NAME   COMMAND_LINE            STATUS            TERMINATION_TIME
00000 suncat0230 pw.x -in pw.inp   Done                     12/20/2018 04:19:54
00001 suncat0230 pw.x -in pw.inp   Done                     12/20/2018 04:19:54
00002 suncat0230 pw.x -in pw.inp   Done                     12/20/2018 04:19:54
00003 suncat0230 pw.x -in pw.inp   Done                     12/20/2018 04:19:54
00004 suncat0230 pw.x -in pw.inp   Done                     12/20/2018 04:19:54
00005 suncat0230 pw.x -in pw.inp   Done                     12/20/2018 04:19:54
00006 suncat0230 pw.x -in pw.inp   Done                     12/20/2018 04:19:54
00007 suncat0230 pw.x -in pw.inp   Done                     12/20/2018 04:19:54
00008 suncat0229 pw.x -in pw.inp   Done                     12/20/2018 04:19:54
00009 suncat0229 pw.x -in pw.inp   Done                     12/20/2018 04:19:54
00010 suncat0229 pw.x -in pw.inp   Done                     12/20/2018 04:19:54
00011 suncat0229 pw.x -in pw.inp   Done                     12/20/2018 04:19:54
00012 suncat0229 pw.x -in pw.inp   Done                     12/20/2018 04:19:54
00013 suncat0229 pw.x -in pw.inp   Done                     12/20/2018 04:19:54
00014 suncat0229 pw.x -in pw.inp   Done                     12/20/2018 04:19:54
00015 suncat0229 pw.x -in pw.inp   Done                     12/20/2018 04:19:54
00016 suncat0228 pw.x -in pw.inp   Done                     12/20/2018 04:19:54
00017 suncat0228 pw.x -in pw.inp   Done                     12/20/2018 04:19:54
00018 suncat0228 pw.x -in pw.inp   Done                     12/20/2018 04:19:54
00019 suncat0228 pw.x -in pw.inp   Done                     12/20/2018 04:19:54
00020 suncat0228 pw.x -in pw.inp   Done                     12/20/2018 04:19:54
00021 suncat0228 pw.x -in pw.inp   Done                     12/20/2018 04:19:54
00022 suncat0228 pw.x -in pw.inp   Done                     12/20/2018 04:19:54
00023 suncat0228 pw.x -in pw.inp   Done                     12/20/2018 04:19:54
00024 suncat0227 pw.x -in pw.inp   Done                     12/20/2018 04:19:54
00025 suncat0227 pw.x -in pw.inp   Done                     12/20/2018 04:19:54
00026 suncat0227 pw.x -in pw.inp   Done                     12/20/2018 04:19:54
00027 suncat0227 pw.x -in pw.inp   Done                     12/20/2018 04:19:54
00028 suncat0227 pw.x -in pw.inp   Done                     12/20/2018 04:19:54
00029 suncat0227 pw.x -in pw.inp   Done                     12/20/2018 04:19:54
00030 suncat0227 pw.x -in pw.inp   Done                     12/20/2018 04:19:54
00031 suncat0227 pw.x -in pw.inp   Done                     12/20/2018 04:19:54
00032 suncat0214 pw.x -in pw.inp   Done                     12/20/2018 04:19:54
00033 suncat0214 pw.x -in pw.inp   Done                     12/20/2018 04:19:54
00034 suncat0214 pw.x -in pw.inp   Done                     12/20/2018 04:19:54
00035 suncat0214 pw.x -in pw.inp   Done                     12/20/2018 04:19:54
00036 suncat0214 pw.x -in pw.inp   Done                     12/20/2018 04:19:54
00037 suncat0214 pw.x -in pw.inp   Done                     12/20/2018 04:19:54
00038 suncat0214 pw.x -in pw.inp   Done                     12/20/2018 04:19:54
00039 suncat0214 pw.x -in pw.inp   Done                     12/20/2018 04:19:54
00040 suncat0213 pw.x -in pw.inp   Done                     12/20/2018 04:19:54
00041 suncat0213 pw.x -in pw.inp   Done                     12/20/2018 04:19:54
00042 suncat0213 pw.x -in pw.inp   Done                     12/20/2018 04:19:54
00043 suncat0213 pw.x -in pw.inp   Done                     12/20/2018 04:19:54
00044 suncat0213 pw.x -in pw.inp   Done                     12/20/2018 04:19:54
00045 suncat0213 pw.x -in pw.inp   Done                     12/20/2018 04:19:54
00046 suncat0213 pw.x -in pw.inp   Done                     12/20/2018 04:19:54
00047 suncat0213 pw.x -in pw.inp   Done                     12/20/2018 04:19:54
00048 suncat0209 pw.x -in pw.inp   Done                     12/20/2018 04:19:54
00049 suncat0209 pw.x -in pw.inp   Done                     12/20/2018 04:19:54
00050 suncat0209 pw.x -in pw.inp   Done                     12/20/2018 04:19:54
00051 suncat0209 pw.x -in pw.inp   Done                     12/20/2018 04:19:54
00052 suncat0209 pw.x -in pw.inp   Done                     12/20/2018 04:19:54
00053 suncat0209 pw.x -in pw.inp   Done                     12/20/2018 04:19:54
00054 suncat0209 pw.x -in pw.inp   Done                     12/20/2018 04:19:54
00055 suncat0209 pw.x -in pw.inp   Done                     12/20/2018 04:19:54
00056 suncat0203 pw.x -in pw.inp   Done                     12/20/2018 04:19:54
00057 suncat0203 pw.x -in pw.inp   Done                     12/20/2018 04:19:54
00058 suncat0203 pw.x -in pw.inp   Done                     12/20/2018 04:19:54
00059 suncat0203 pw.x -in pw.inp   Done                     12/20/2018 04:19:54
00060 suncat0203 pw.x -in pw.inp   Done                     12/20/2018 04:19:54
00061 suncat0203 pw.x -in pw.inp   Done                     12/20/2018 04:19:54
00062 suncat0203 pw.x -in pw.inp   Done                     12/20/2018 04:19:54
00063 suncat0203 pw.x -in pw.inp   Done                     12/20/2018 04:19:54