     Program PWSCF v.5.1rc2 (svn rev. 11289) starts on 26Dec2018 at 17:33:39

     Current dimensions of program PWSCF are:
     Max number of different atomic species (ntypx) = 10
     Max number of k-points (npk) =  40000
     Max angular momentum in pseudopotentials (lmaxx) =  3
     Presently stress not available with electric field

     IMPORTANT: XC functional enforced from input :
     Exchange-correlation      = BEEF-VDW ( 1  4 27 13 2)
     Any further DFT definition will be discarded
     Please, verify this is what you really want

     Subspace diagonalization in iterative solution of the eigenvalue problem:
     a serial algorithm will be used

     bravais-lattice index     =            0
     lattice parameter (alat)  =       1.8897  a.u.
     unit-cell volume          =    7121.7777 (a.u.)^3
     number of atoms/cell      =           12
     number of atomic types    =            2
     number of electrons       =       144.00
     number of Kohn-Sham states=          102
     kinetic-energy cutoff     =      36.7493  Ry
     charge density cutoff     =     367.4932  Ry
     convergence threshold     =      1.0E-06
     mixing beta               =       0.1000
     number of iterations used =           10  plain     mixing
     Exchange-correlation      = BEEF-VDW ( 1  4 27 13 2)
     nstep                     =           50

     celldm(1)=   1.889726  celldm(2)=   0.000000  celldm(3)=   0.000000
     celldm(4)=   0.000000  celldm(5)=   0.000000  celldm(6)=   0.000000

     crystal axes: (cart. coord. in units of alat)
               a(1) = (   6.895346   0.000000   0.000000 )
               a(2) = (  -3.447673   5.971545   0.000000 )
               a(3) = (   0.000000   0.000000  25.630026 )

     reciprocal axes: (cart. coord. in units 2 pi/alat)
               b(1) = (  0.145025  0.083730  0.000000 )
               b(2) = (  0.000000  0.167461  0.000000 )
               b(3) = (  0.000000  0.000000  0.039017 )

     PseudoPot. # 1 for La read from file:
     /afs/slac.stanford.edu/u/if/mamunm/psp/gbrv1.5pbe/La.UPF
     MD5 check sum: 5937b0c7494ba0601a847275249473aa
     Pseudo is Ultrasoft + core correction, Zval = 11.0
     Generated by new atomic code, or converted to UPF format
     Using radial grid of  995 points,  8 beta functions with:
                l(1) =   0
                l(2) =   0
                l(3) =   1
                l(4) =   1
                l(5) =   2
                l(6) =   2
                l(7) =   3
                l(8) =   3
     Q(r) pseudized with  8 coefficients,  rinner =    1.700   1.700   1.700
                                                       1.700   1.700   1.700
                                                       1.700

     PseudoPot. # 2 for Rh read from file:
     /afs/slac.stanford.edu/u/if/mamunm/psp/gbrv1.5pbe/Rh.UPF
     MD5 check sum: 761627e959a2e3a1f56b0b5fe687810e
     Pseudo is Ultrasoft + core correction, Zval = 15.0
     Generated by new atomic code, or converted to UPF format
     Using radial grid of  969 points,  7 beta functions with:
                l(1) =   0
                l(2) =   0
                l(3) =   1
                l(4) =   1
                l(5) =   2
                l(6) =   2
                l(7) =   2
     Q(r) pseudized with  8 coefficients,  rinner =    1.200   1.200   1.200
                                                       1.200   1.200

     vdW kernel table read from file vdW_kernel_table
     MD5 check sum: 095c7af220d748ca6e76c0b4c6cfb241

     atomic species   valence    mass     pseudopotential
        La1           11.00   138.90547     La( 1.00)
        Rh1           15.00   102.90550     Rh( 1.00)

     No symmetry found

   Cartesian axes

     site n.     atom                  positions (alat units)
         1           La1 tau(   1) = (   0.0000000   0.0000000  10.0000000  )
         2           La1 tau(   2) = (  -1.7238365   2.9857724  10.0000000  )
         3           La1 tau(   3) = (   1.7238365   2.9857724  10.0000000  )
         4           Rh1 tau(   4) = (   3.4476730   0.0000000  10.0000000  )
         5           La1 tau(   5) = (   3.4476730   1.9905149  12.8150132  )
         6           La1 tau(   6) = (   1.7238365   4.9762873  12.8150132  )
         7           La1 tau(   7) = (  -1.7238365   4.9762873  12.8150132  )
         8           Rh1 tau(   8) = (   0.0000000   1.9905149  12.8150132  )
         9           La1 tau(   9) = (  -0.0000000   3.9810299  15.6300264  )
        10           La1 tau(  10) = (   1.7238365   0.9952575  15.6300264  )
        11           La1 tau(  11) = (   5.1715095   0.9952575  15.6300264  )
        12           Rh1 tau(  12) = (   3.4476730   3.9810299  15.6300264  )

     number of k points=    20  Fermi-Dirac smearing, width (Ry)=  0.0110
                       cart. coord. in units 2pi/alat
        k(    1) = (   0.0000000   0.0000000   0.0000000), wk =   0.0555556
        k(    2) = (   0.0000000   0.0279101   0.0000000), wk =   0.1111111
        k(    3) = (   0.0000000   0.0558203   0.0000000), wk =   0.1111111
        k(    4) = (   0.0000000  -0.0837304   0.0000000), wk =   0.0555556
        k(    5) = (   0.0241709   0.0139551   0.0000000), wk =   0.1111111
        k(    6) = (   0.0241709   0.0418652   0.0000000), wk =   0.1111111
        k(    7) = (   0.0241709   0.0697754   0.0000000), wk =   0.1111111
        k(    8) = (   0.0241709  -0.0697754   0.0000000), wk =   0.1111111
        k(    9) = (   0.0241709  -0.0418652   0.0000000), wk =   0.1111111
        k(   10) = (   0.0241709  -0.0139551   0.0000000), wk =   0.1111111
        k(   11) = (   0.0483418   0.0279101   0.0000000), wk =   0.1111111
        k(   12) = (   0.0483418   0.0558203   0.0000000), wk =   0.1111111
        k(   13) = (   0.0483418   0.0837304   0.0000000), wk =   0.1111111
        k(   14) = (   0.0483418  -0.0558203   0.0000000), wk =   0.1111111
        k(   15) = (   0.0483418  -0.0279101   0.0000000), wk =   0.1111111
        k(   16) = (   0.0483418   0.0000000   0.0000000), wk =   0.1111111
        k(   17) = (  -0.0725127  -0.0418652   0.0000000), wk =   0.0555556
        k(   18) = (  -0.0725127  -0.0139551   0.0000000), wk =   0.1111111
        k(   19) = (  -0.0725127   0.0139551   0.0000000), wk =   0.1111111
        k(   20) = (  -0.0725127  -0.1255956   0.0000000), wk =   0.0555556

     Largest allocated arrays     est. size (Mb)     dimensions
     Largest temporary arrays     est. size (Mb)     dimensions

     Initial potential from superposition of free atoms
     Check: negative starting charge=   -0.785491

     starting charge  142.21109, renormalised to  144.00000

     negative rho (up, down):  7.954E-01 0.000E+00

     *
     * You are using vdW-DF for exchange-correlation in this calculation.
     * Please cite the following three references that made this development
     * possible:
     *
     *   M. Dion, H. Rydberg, E. Schroder, D. C. Langreth, and
     *   B. I. Lundqvist, Phys. Rev. Lett. 92, 246401 (2004).
     *
     *   T. Thonhauser, V. R. Cooper, S. Li, A. Puzder, P. Hyldgaard, and
     *   D. C. Langreth, Phys. Rev. B 76, 125112 (2007).
     *
     *   G. Roman-Perez and J. M. Soler, Phys. Rev. Lett. 103, 096102 (2009).
     *
     *
     * If you are using vdW-DF2, please also cite:
     *
     *   K. Lee, E. D. Murray, L. Kong, B. I. Lundqvist, and
     *   D. C. Langreth, Phys. Rev. B 82, 081101(R) (2010).
     *
     *
     * If you are calculating the stress with vdW-DF, please also cite:
     *
     *   R. Sabatini, E. Kucukbenli, B. Kolb, T. Thonhauser, and
     *   S. de Gironcoli, J. Phys.: Condens. Matter 24, 424209 (2012).
     *

     Carrying out vdW-DF run using the following parameters:

     Nqs =      20    Nr_points =    1024   r_max =   100.000
     q_mesh =
               0.00001000     0.04494208     0.09755937     0.15916263
               0.23128650     0.31572767     0.41458969     0.53033537
               0.66584808     0.82450364     1.01025438     1.22772762
               1.48234092     1.78043706     2.12944203     2.53805004
               3.01644009     3.57652955     4.23227104     5.00000000

     Gradients computed in reciprocal space

     Adding external electric field

     Computed dipole along edir(3) :
        Dipole               -0.0000 Ry au,         -0.0000 Debye
        Dipole field         -0.0000 Ry au

        Potential amp.        0.0000 Ry
        Total length         47.2229 bohr

     Starting wfc are  216 randomized atomic wfcs

     Self-consistent Calculation

     iteration #  1     ecut=    36.75 Ry     beta=0.10
     Davidson diagonalization with overlap
     ethr =  1.00E-02,  avg # of iterations =  1.9

[...]

     total energy              =   -1452.32060872 Ry
     Harris-Foulkes estimate   =   -1453.54971027 Ry
     estimated scf accuracy    <       6.86239337 Ry

[...]

     iteration #  8     ecut=    36.75 Ry     beta=0.10
     Davidson diagonalization with overlap
     c_bands:  1 eigenvalues not converged
     ethr =  5.18E-05,  avg # of iterations = 15.1

[...]

     End of self-consistent calculation

          k = 0.0000 0.0000 0.0000 ( 26793 PWs)   bands (ev):

   -43.6039 -43.6039 -43.5942 -43.3747 -43.3747 -43.3747 -43.3747 -43.2587
   -43.2585 -31.2017 -31.1729 -30.9476 -30.9476 -30.9406 -30.9406 -30.7734
   -30.5598 -30.5598 -15.8619 -15.6983 -15.4401 -15.2514 -15.2514 -15.1307
   -15.1031 -15.1031 -15.0718 -15.0718 -14.8786 -14.6165 -14.6165 -14.3717
   -14.3717 -14.2454 -14.1556 -14.0132 -13.9594 -13.9594 -13.9077 -13.9077
   -13.8782 -13.8782 -13.7149 -13.5761 -13.5761  -1.2030  -0.6728  -0.4719
    -0.3477  -0.2298  -0.2298   0.0097   0.0849   0.0849   0.1301   0.1301
     0.1915   0.1915   0.2203   0.3406   0.7685   0.7685   0.8349   0.8349
     1.1033   1.2709   1.4717   1.8092   2.2245   2.2245   2.3047   2.3047
     2.4103   2.5079   2.5079   2.5367   3.0071   3.0071   3.0628   3.0628
     3.1460   3.1460   3.3421   3.3714   3.4006   3.4861   3.5367   3.5439
     3.5439   3.5810   3.6602   3.6602   3.6874   3.7020   3.7021   3.7498
     3.7527   3.7527   3.7566   3.8006   3.8008   3.8101

[...]

          k =-0.0725-0.0419 0.0000 ( 26754 PWs)   bands (ev):

[...]

     the Fermi energy is     2.1899 ev

!    total energy              =   -1452.80943351 Ry
     Harris-Foulkes estimate   =   -1452.80944846 Ry
     estimated scf accuracy    <       0.00000054 Ry

     The total energy is the sum of the following terms:

     one-electron contribution =   -6898.14407622 Ry
     hartree contribution      =    3471.33975785 Ry
     xc contribution           =    -550.15821949 Ry
     ewald contribution        =    2524.27111368 Ry
     electric field correction =       0.00000002 Ry
     smearing contrib. (-TS)   =      -0.11800935 Ry

     convergence has been achieved in  20 iterations

 BEEF-vdW xc energy contributions
           1 :   -486.193396145555
           2 :    447.163206533338
           3 :   -378.269982854355
           4 :    294.518101350797
           5 :   -211.839778115872
           6 :    142.679278714328
           7 :   -93.4952795208715
           8 :    64.5355420910224
[...]
     Generated by new atomic code, or converted to UPF format
     Using radial grid of  995 points,  8 beta functions with:
                l(1) =   0
                l(2) =   0
                l(3) =   1
                l(4) =   1
                l(5) =   2
                l(6) =   2
                l(7) =   3
                l(8) =   3
     Q(r) pseudized with  8 coefficients,  rinner =    1.700   1.700   1.700
                                                       1.700   1.700   1.700
                                                       1.700

     PseudoPot. # 2 for Rh read from file:
     /afs/slac.stanford.edu/u/if/mamunm/psp/gbrv1.5pbe/Rh.UPF
     MD5 check sum: 761627e959a2e3a1f56b0b5fe687810e
     Pseudo is Ultrasoft + core correction, Zval = 15.0
     Generated by new atomic code, or converted to UPF format
     Using radial grid of  969 points,  7 beta functions with:
                l(1) =   0
                l(2) =   0
                l(3) =   1
                l(4) =   1
                l(5) =   2
                l(6) =   2
                l(7) =   2
     Q(r) pseudized with  8 coefficients,  rinner =    1.200   1.200   1.200
                                                       1.200   1.200

     vdW kernel table read from file vdW_kernel_table
     MD5 check sum: 095c7af220d748ca6e76c0b4c6cfb241

     atomic species   valence    mass     pseudopotential
        La1           11.00   138.90547     La( 1.00)
        Rh1           15.00   102.90550     Rh( 1.00)

     No symmetry found

   Cartesian axes

     site n.     atom                  positions (alat units)
         1           La1 tau(   1) = (   0.0000000   0.0000000  10.0000000  )
         2           La1 tau(   2) = (  -1.7238365   2.9857724  10.0000000  )
         3           La1 tau(   3) = (   1.7238365   2.9857724  10.0000000  )
         4           Rh1 tau(   4) = (   3.4476730   0.0000000  10.0000000  )
         5           La1 tau(   5) = (   3.4476730   1.9905149  12.8150132  )
         6           La1 tau(   6) = (   1.7238365   4.9762873  12.8150132  )
         7           La1 tau(   7) = (  -1.7238365   4.9762873  12.8150132  )
         8           Rh1 tau(   8) = (   0.0000000   1.9905149  12.8150132  )
         9           La1 tau(   9) = (  -0.0000057   3.8501190  15.6725483  )
        10           La1 tau(  10) = (   1.6104433   1.0607598  15.6725204  )
        11           La1 tau(  11) = (   5.2849245   1.0607320  15.6725000  )
        12           Rh1 tau(  12) = (   3.4476867   3.9810221  14.9162694  )

     number of k points=    20  Fermi-Dirac smearing, width (Ry)=  0.0110
                       cart. coord. in units 2pi/alat
        k(    1) = (   0.0000000   0.0000000   0.0000000), wk =   0.0555556
        k(    2) = (   0.0000000   0.0279101   0.0000000), wk =   0.1111111
        k(    3) = (   0.0000000   0.0558203   0.0000000), wk =   0.1111111
        k(    4) = (   0.0000000  -0.0837304   0.0000000), wk =   0.0555556
        k(    5) = (   0.0241709   0.0139551   0.0000000), wk =   0.1111111
        k(    6) = (   0.0241709   0.0418652   0.0000000), wk =   0.1111111
        k(    7) = (   0.0241709   0.0697754   0.0000000), wk =   0.1111111
        k(    8) = (   0.0241709  -0.0697754   0.0000000), wk =   0.1111111
        k(    9) = (   0.0241709  -0.0418652   0.0000000), wk =   0.1111111
        k(   10) = (   0.0241709  -0.0139551   0.0000000), wk =   0.1111111
        k(   11) = (   0.0483418   0.0279101   0.0000000), wk =   0.1111111
        k(   12) = (   0.0483418   0.0558203   0.0000000), wk =   0.1111111
        k(   13) = (   0.0483418   0.0837304   0.0000000), wk =   0.1111111
        k(   14) = (   0.0483418  -0.0558203   0.0000000), wk =   0.1111111
        k(   15) = (   0.0483418  -0.0279101   0.0000000), wk =   0.1111111
        k(   16) = (   0.0483418   0.0000000   0.0000000), wk =   0.1111111
        k(   17) = (  -0.0725127  -0.0418652   0.0000000), wk =   0.0555556
        k(   18) = (  -0.0725127  -0.0139551   0.0000000), wk =   0.1111111
        k(   19) = (  -0.0725127   0.0139551   0.0000000), wk =   0.1111111
        k(   20) = (  -0.0725127  -0.1255956   0.0000000), wk =   0.0555556

     Largest allocated arrays     est. size (Mb)     dimensions
     Largest temporary arrays     est. size (Mb)     dimensions

     Initial potential from superposition of free atoms
     Check: negative starting charge=   -0.784232

     starting charge  142.21109, renormalised to  144.00000

[...]

     *
     * You are using vdW-DF for exchange-correlation in this calculation.
     * Please cite the following three references that made this development
     * possible:
     *
     *   M. Dion, H. Rydberg, E. Schroder, D. C. Langreth, and
     *   B. I. Lundqvist, Phys. Rev. Lett. 92, 246401 (2004).
     *
     *   T. Thonhauser, V. R. Cooper, S. Li, A. Puzder, P. Hyldgaard, and
     *   D. C. Langreth, Phys. Rev. B 76, 125112 (2007).
     *
     *   G. Roman-Perez and J. M. Soler, Phys. Rev. Lett. 103, 096102 (2009).
     *
     *
     * If you are using vdW-DF2, please also cite:
     *
     *   K. Lee, E. D. Murray, L. Kong, B. I. Lundqvist, and
     *   D. C. Langreth, Phys. Rev. B 82, 081101(R) (2010).
     *
     *
     * If you are calculating the stress with vdW-DF, please also cite:
     *
     *   R. Sabatini, E. Kucukbenli, B. Kolb, T. Thonhauser, and
     *   S. de Gironcoli, J. Phys.: Condens. Matter 24, 424209 (2012).
     *

     Carrying out vdW-DF run using the following parameters:

     Nqs =      20    Nr_points =    1024   r_max =   100.000
     q_mesh =
               0.00001000     0.04494208     0.09755937     0.15916263
               0.23128650     0.31572767     0.41458969     0.53033537
               0.66584808     0.82450364     1.01025438     1.22772762
               1.48234092     1.78043706     2.12944203     2.53805004
               3.01644009     3.57652955     4.23227104     5.00000000

     Gradients computed in reciprocal space

[...]

     Starting wfc are  216 randomized atomic wfcs

     Self-consistent Calculation

[...]

     iteration #  8     ecut=    36.75 Ry     beta=0.10
     Davidson diagonalization with overlap
     c_bands:  1 eigenvalues not converged
     ethr =  3.91E-05,  avg # of iterations =  8.6

[...]

     total energy              =   -1452.85077345 Ry
     Harris-Foulkes estimate   =   -1452.85077691 Ry
     estimated scf accuracy    <       0.00000179 Ry

     iteration # 21     ecut=    36.75 Ry     beta=0.10
     Davidson diagonalization with overlap
     ethr =  1.24E-09,  avg # of iterations =  3.8

[...]

     negative rho (up, down):  5.514E-01 0.000E+00

     Adding external electric field

     Computed dipole along edir(3) :
        Dipole                0.1090 Ry au,          0.2771 Debye
        Dipole field          0.0002 Ry au

        Potential amp.       -0.0182 Ry
        Total length         47.2229 bohr

     End of self-consistent calculation

[...]

          k = 0.0483 0.0000 0.0000 ( 26825 PWs)   bands (ev):

[...]

          k =-0.0725-0.1256 0.0000 ( 26754 PWs)   bands (ev):

   -43.7154 -43.6514 -43.6513 -43.5157 -43.5155 -43.5144 -43.2808 -43.2807
   -43.1538 -31.1014 -31.0501 -30.9724 -30.9181 -30.8889 -30.8609 -30.5379
   -30.4684 -30.3902 -15.4797 -15.3494 -15.2026 -15.0493 -14.9506 -14.8909
   -14.8471 -14.8387 -14.7446 -14.6985 -14.6601 -14.6455 -14.6330 -14.6173
   -14.5179 -14.3743 -14.3500 -14.2533 -14.0791 -14.0229 -14.0081 -13.8909
   -13.8847 -13.8061 -13.7937 -13.7539 -13.4884  -0.2219  -0.1388   0.0154
     0.0426   0.0641   0.2784   0.2875   0.3466   0.4174   0.5266   0.5525
     0.6700   0.7549   0.8491   0.8565   0.8834   0.9382   0.9935   1.0732
     1.1783   1.2712   1.3976   1.7154   1.8400   1.9927   2.1278   2.2423
     2.2675   2.4559   2.4993   2.6334   2.7217   2.7375   2.9025   2.9490
     2.9627   3.0484   3.1083   3.2160   3.2513   3.2739   3.4189   3.4232
     3.5347   3.5476   3.6139   3.6370   3.6830   3.7056   3.7356   3.7699
     3.7709   3.8150   3.8151   3.8192   3.8821   3.9131

     the Fermi energy is     2.2610 ev

!    total energy              =   -1452.85076081 Ry
     Harris-Foulkes estimate   =   -1452.85077254 Ry
     estimated scf accuracy    <       0.00000045 Ry

     The total energy is the sum of the following terms:

     one-electron contribution =   -7079.25664985 Ry
     hartree contribution      =    3562.15465487 Ry
     xc contribution           =    -550.31876866 Ry
     ewald contribution        =    2614.68235711 Ry
     electric field correction =       0.00002097 Ry
     smearing contrib. (-TS)   =      -0.11237525 Ry

     convergence has been achieved in  21 iterations

 BEEF-vdW xc energy contributions
           1 :   -486.366808146752
           2 :    447.417451071685
           3 :   -378.619680212435
           4 :    294.887013365553
           5 :   -212.091590426942
           6 :    142.689180794799
           7 :   -93.2273903661468
           8 :    64.0789237134805
           9 :   -50.9478933154016
          10 :    47.2923833226436
          11 :   -46.7425571841769
          12 :    44.7670875065377
          13 :   -39.2613445363019
          14 :    30.2179918972018
          15 :   -18.9525794709053
          16 :    7.32518308730164
          17 :    2.83303691443723
          18 :   -10.0951810318008
          19 :    13.6817234284374
          20 :   -13.5994477961718
          21 :    10.6475272010712
          22 :   -6.24660210930824
          23 :    2.07158100369645
          24 :   0.446891015354367
          25 :  -0.588436895485643
          26 :   -1.43047420343112
          27 :    4.59195107844960
          28 :   -7.52922669228269
          29 :    9.09835709671586
          30 :   -8.82487219098402
          31 :   -42.3419631965778
          32 :   -30.6254871926758

     Forces acting on atoms (Ry/au):

     negative rho (up, down):  5.514E-01 0.000E+00
     atom    1 type  1   force =     0.00000049    0.02108621   -0.01023852
     atom    2 type  1   force =     0.01826110   -0.01054315   -0.01023894
     atom    3 type  1   force =    -0.01826059   -0.01054189   -0.01024026
     atom    4 type  2   force =    -0.00000203    0.00000101    0.03680617
     atom    5 type  1   force =    -0.00000043   -0.01412037    0.00012449
     atom    6 type  1   force =    -0.01222723    0.00705680    0.00012360
     atom    7 type  1   force =     0.01222771    0.00706031    0.00012526
     atom    8 type  2   force =     0.00000150   -0.00000133   -0.00592658
     atom    9 type  1   force =    -0.00000240    0.00052843   -0.00003889
     atom   10 type  1   force =     0.00045688   -0.00026338   -0.00003776
     atom   11 type  1   force =    -0.00045488   -0.00026310   -0.00003666
     atom   12 type  2   force =    -0.00000013    0.00000047   -0.00042191

     Total force =     0.060310     Total SCF correction =     0.001760

     entering subroutine stress ...

     negative rho (up, down):  5.514E-01 0.000E+00
          total   stress  (Ry/bohr**3)                   (kbar)     P=   -6.62
  -0.00005303  -0.00000000   0.00000000         -7.80     -0.00      0.00
  -0.00000000  -0.00005303   0.00000000         -0.00     -7.80      0.00
   0.00000000   0.00000000  -0.00002887          0.00      0.00     -4.25

 !ASE

     Writing output data file calc.save

     General routines

     Parallel routines

   This run was terminated on:  20:29:34  26Dec2018

   JOB DONE.
Job  /afs/slac/g/suncat/bin/suncat-tsmpirun -x LD_LIBRARY_PATH -wdir /scratch/qe110022_rE9mh pw.x -in pw.inp

TID   HOST_NAME   COMMAND_LINE            STATUS            TERMINATION_TIME
00000 suncat0024 pw.x -in pw.inp   Done                     12/26/2018 20:29:34
00001 suncat0024 pw.x -in pw.inp   Done                     12/26/2018 20:29:34
00002 suncat0024 pw.x -in pw.inp   Done                     12/26/2018 20:29:34
00003 suncat0024 pw.x -in pw.inp   Done                     12/26/2018 20:29:34
00004 suncat0024 pw.x -in pw.inp   Done                     12/26/2018 20:29:34
00005 suncat0024 pw.x -in pw.inp   Done                     12/26/2018 20:29:34
00006 suncat0024 pw.x -in pw.inp   Done                     12/26/2018 20:29:34
00007 suncat0024 pw.x -in pw.inp   Done                     12/26/2018 20:29:34
00008 suncat0023 pw.x -in pw.inp   Done                     12/26/2018 20:29:34
00009 suncat0023 pw.x -in pw.inp   Done                     12/26/2018 20:29:34
00010 suncat0023 pw.x -in pw.inp   Done                     12/26/2018 20:29:34
00011 suncat0023 pw.x -in pw.inp   Done                     12/26/2018 20:29:34
00012 suncat0023 pw.x -in pw.inp   Done                     12/26/2018 20:29:34
00013 suncat0023 pw.x -in pw.inp   Done                     12/26/2018 20:29:34
00014 suncat0023 pw.x -in pw.inp   Done                     12/26/2018 20:29:34
00015 suncat0023 pw.x -in pw.inp   Done                     12/26/2018 20:29:34
00016 suncat0022 pw.x -in pw.inp   Done                     12/26/2018 20:29:34
00017 suncat0022 pw.x -in pw.inp   Done                     12/26/2018 20:29:34
00018 suncat0022 pw.x -in pw.inp   Done                     12/26/2018 20:29:34
00019 suncat0022 pw.x -in pw.inp   Done                     12/26/2018 20:29:34
00020 suncat0022 pw.x -in pw.inp   Done                     12/26/2018 20:29:34
00021 suncat0022 pw.x -in pw.inp   Done                     12/26/2018 20:29:34
00022 suncat0022 pw.x -in pw.inp   Done                     12/26/2018 20:29:34
00023 suncat0022 pw.x -in pw.inp   Done                     12/26/2018 20:29:34
00024 suncat0018 pw.x -in pw.inp   Done                     12/26/2018 20:29:34
00025 suncat0018 pw.x -in pw.inp   Done                     12/26/2018 20:29:34
00026 suncat0018 pw.x -in pw.inp   Done                     12/26/2018 20:29:34
00027 suncat0018 pw.x -in pw.inp   Done                     12/26/2018 20:29:34
00028 suncat0018 pw.x -in pw.inp   Done                     12/26/2018 20:29:34
00029 suncat0018 pw.x -in pw.inp   Done                     12/26/2018 20:29:34
00030 suncat0018 pw.x -in pw.inp   Done                     12/26/2018 20:29:34
00031 suncat0018 pw.x -in pw.inp   Done                     12/26/2018 20:29:34
00032 suncat0017 pw.x -in pw.inp   Done                     12/26/2018 20:29:34
00033 suncat0017 pw.x -in pw.inp   Done                     12/26/2018 20:29:34
00034 suncat0017 pw.x -in pw.inp   Done                     12/26/2018 20:29:34
00035 suncat0017 pw.x -in pw.inp   Done                     12/26/2018 20:29:34
00036 suncat0017 pw.x -in pw.inp   Done                     12/26/2018 20:29:34
00037 suncat0017 pw.x -in pw.inp   Done                     12/26/2018 20:29:34
00038 suncat0017 pw.x -in pw.inp   Done                     12/26/2018 20:29:34
00039 suncat0017 pw.x -in pw.inp   Done                     12/26/2018 20:29:34
00040 suncat0016 pw.x -in pw.inp   Done                     12/26/2018 20:29:34
00041 suncat0016 pw.x -in pw.inp   Done                     12/26/2018 20:29:34
00042 suncat0016 pw.x -in pw.inp   Done                     12/26/2018 20:29:34
00043 suncat0016 pw.x -in pw.inp   Done                     12/26/2018 20:29:34
00044 suncat0016 pw.x -in pw.inp   Done                     12/26/2018 20:29:34
00045 suncat0016 pw.x -in pw.inp   Done                     12/26/2018 20:29:34
00046 suncat0016 pw.x -in pw.inp   Done                     12/26/2018 20:29:34
00047 suncat0016 pw.x -in pw.inp   Done                     12/26/2018 20:29:34
00048 suncat0014 pw.x -in pw.inp   Done                     12/26/2018 20:29:34
00049 suncat0014 pw.x -in pw.inp   Done                     12/26/2018 20:29:34
00050 suncat0014 pw.x -in pw.inp   Done                     12/26/2018 20:29:34
00051 suncat0014 pw.x -in pw.inp   Done                     12/26/2018 20:29:34
00052 suncat0014 pw.x -in pw.inp   Done                     12/26/2018 20:29:34
00053 suncat0014 pw.x -in pw.inp   Done                     12/26/2018 20:29:34
00054 suncat0014 pw.x -in pw.inp   Done                     12/26/2018 20:29:34
00055 suncat0014 pw.x -in pw.inp   Done                     12/26/2018 20:29:34
00056 suncat0198 pw.x -in pw.inp   Done                     12/26/2018 20:29:34
00057 suncat0198 pw.x -in pw.inp   Done                     12/26/2018 20:29:34
00058 suncat0198 pw.x -in pw.inp   Done                     12/26/2018 20:29:34
00059 suncat0198 pw.x -in pw.inp   Done                     12/26/2018 20:29:34
00060 suncat0198 pw.x -in pw.inp   Done                     12/26/2018 20:29:34
00061 suncat0198 pw.x -in pw.inp   Done                     12/26/2018 20:29:34
00062 suncat0198 pw.x -in pw.inp   Done                     12/26/2018 20:29:34
00063 suncat0198 pw.x -in pw.inp   Done                     12/26/2018 20:29:34