     Program PWSCF v.5.1rc2 (svn rev. 11289) starts on  2Jan2019 at 16:14:53

     Current dimensions of program PWSCF are:
     Max number of different atomic species (ntypx) = 10
     Max number of k-points (npk) =  40000
     Max angular momentum in pseudopotentials (lmaxx) =  3
     Presently stress not available with electric field

     IMPORTANT: XC functional enforced from input :
     Exchange-correlation      = BEEF-VDW ( 1  4 27 13 2)
     Any further DFT definition will be discarded
     Please, verify this is what you really want

     Subspace diagonalization in iterative solution of the eigenvalue problem:
     a serial algorithm will be used

     bravais-lattice index     =            0
     lattice parameter (alat)  =       1.8897  a.u.
     unit-cell volume          =    4308.9982 (a.u.)^3
     number of atoms/cell      =           12
     number of atomic types    =            2
     number of electrons       =       222.00
     number of Kohn-Sham states=          141
     kinetic-energy cutoff     =      36.7493  Ry
     charge density cutoff     =     367.4932  Ry
     convergence threshold     =      1.0E-06
     mixing beta               =       0.1000
     number of iterations used =           10  plain     mixing
     Exchange-correlation      = BEEF-VDW ( 1  4 27 13 2)
     nstep                     =           50

     celldm(1)=   1.889726  celldm(2)=   0.000000  celldm(3)=   0.000000
     celldm(4)=   0.000000  celldm(5)=   0.000000  celldm(6)=   0.000000

     crystal axes: (cart. coord. in units of alat)
               a(1) = (   5.487959   0.000000   0.000000 )
               a(2) = (  -2.743979   4.752712   0.000000 )
               a(3) = (   0.000000   0.000000  24.480900 )

     reciprocal axes: (cart. coord. in units 2 pi/alat)
               b(1) = (  0.182217  0.105203  0.000000 )
               b(2) = (  0.000000  0.210406  0.000000 )
               b(3) = (  0.000000  0.000000  0.040848 )

     PseudoPot. # 1 for Zn read from file:
     /afs/slac.stanford.edu/u/if/mamunm/psp/gbrv1.5pbe/Zn.UPF
     MD5 check sum: df62231357ef9e81f77b2b3087fa5675
     Pseudo is Ultrasoft, Zval = 20.0
     Generated by new atomic code, or converted to UPF format
     Using radial grid of  943 points,  6 beta functions with:
                l(1) =   0
                l(2) =   0
                l(3) =   1
                l(4) =   1
                l(5) =   2
                l(6) =   2
     Q(r) pseudized with  8 coefficients,  rinner =    1.100   1.100   1.100
                                                       1.100   1.100

     PseudoPot. # 2 for Mo read from file:
     /afs/slac.stanford.edu/u/if/mamunm/psp/gbrv1.5pbe/Mo.UPF
     MD5 check sum: 30c4dcd161f5d35cd49bb5239c51a633
     Pseudo is Ultrasoft + core correction, Zval = 14.0
     Generated by new atomic code, or converted to UPF format
     Using radial grid of  889 points,  6 beta functions with:
                l(1) =   0
                l(2) =   0
                l(3) =   1
                l(4) =   1
                l(5) =   2
                l(6) =   2
     Q(r) pseudized with  6 coefficients,  rinner =    1.000   1.000   1.000
                                                       1.000   1.000

     vdW kernel table read from file vdW_kernel_table
     MD5 check sum: 095c7af220d748ca6e76c0b4c6cfb241

     atomic species   valence    mass     pseudopotential
        Zn1           20.00    65.38000     Zn( 1.00)
        Mo1           14.00    95.95000     Mo( 1.00)

     No symmetry found

   Cartesian axes

     site n.     atom                  positions (alat units)
         1           Zn1 tau(   1) = (   0.0000000   0.0000000  10.0000000  )
         2           Zn1 tau(   2) = (  -1.3719897   2.3763559  10.0000000  )
         3           Zn1 tau(   3) = (   1.3719897   2.3763559  10.0000000  )
         4           Mo1 tau(   4) = (   2.7439795   0.0000000  10.0000000  )
         5           Zn1 tau(   5) = (   2.7439795   1.5842373  12.2404499  )
         6           Zn1 tau(   6) = (   1.3719897   3.9605932  12.2404499  )
         7           Zn1 tau(   7) = (  -1.3719897   3.9605932  12.2404499  )
         8           Mo1 tau(   8) = (   0.0000000   1.5842373  12.2404499  )
         9           Zn1 tau(   9) = (  -0.0000000   3.1684746  14.4808997  )
        10           Zn1 tau(  10) = (   1.3719897   0.7921186  14.4808997  )
        11           Zn1 tau(  11) = (   4.1159692   0.7921186  14.4808997  )
        12           Mo1 tau(  12) = (   2.7439795   3.1684746  14.4808997  )

     number of k points=    20  Fermi-Dirac smearing, width (Ry)=  0.0110
                       cart. coord. in units 2pi/alat
        k(    1) = (   0.0000000   0.0000000   0.0000000), wk =   0.0555556
        k(    2) = (   0.0000000   0.0350677   0.0000000), wk =   0.1111111
        k(    3) = (   0.0000000   0.0701354   0.0000000), wk =   0.1111111
        k(    4) = (   0.0000000  -0.1052031   0.0000000), wk =   0.0555556
        k(    5) = (   0.0303695   0.0175338   0.0000000), wk =   0.1111111
        k(    6) = (   0.0303695   0.0526015   0.0000000), wk =   0.1111111
        k(    7) = (   0.0303695   0.0876692   0.0000000), wk =   0.1111111
        k(    8) = (   0.0303695  -0.0876692   0.0000000), wk =   0.1111111
        k(    9) = (   0.0303695  -0.0526015   0.0000000), wk =   0.1111111
        k(   10) = (   0.0303695  -0.0175338   0.0000000), wk =   0.1111111
        k(   11) = (   0.0607390   0.0350677   0.0000000), wk =   0.1111111
        k(   12) = (   0.0607390   0.0701354   0.0000000), wk =   0.1111111
        k(   13) = (   0.0607390   0.1052031   0.0000000), wk =   0.1111111
        k(   14) = (   0.0607390  -0.0701354   0.0000000), wk =   0.1111111
        k(   15) = (   0.0607390  -0.0350677   0.0000000), wk =   0.1111111
        k(   16) = (   0.0607390   0.0000000   0.0000000), wk =   0.1111111
        k(   17) = (  -0.0911086  -0.0526015   0.0000000), wk =   0.0555556
        k(   18) = (  -0.0911086  -0.0175338   0.0000000), wk =   0.1111111
        k(   19) = (  -0.0911086   0.0175338   0.0000000), wk =   0.1111111
        k(   20) = (  -0.0911086  -0.1578046   0.0000000), wk =   0.0555556

     Largest allocated arrays     est. size (Mb)     dimensions
     Largest temporary arrays     est. size (Mb)     dimensions

     Initial potential from superposition of free atoms
     Check: negative starting charge=   -0.002602

     starting charge  221.99554, renormalised to  222.00000

     negative rho (up, down):  2.602E-03 0.000E+00

     *
     * You are using vdW-DF for exchange-correlation in this calculation.
     * Please cite the following three references that made this development
     * possible:
     *
     *   M. Dion, H. Rydberg, E. Schroder, D. C. Langreth, and
     *   B. I. Lundqvist, Phys. Rev. Lett. 92, 246401 (2004).
     *
     *   T. Thonhauser, V. R. Cooper, S. Li, A. Puzder, P. Hyldgaard, and
     *   D. C. Langreth, Phys. Rev. B 76, 125112 (2007).
     *
     *   G. Roman-Perez and J. M. Soler, Phys. Rev. Lett. 103, 096102 (2009).
     *
     *
     * If you are using vdW-DF2, please also cite:
     *
     *   K. Lee, E. D. Murray, L. Kong, B. I. Lundqvist, and
     *   D. C. Langreth, Phys. Rev. B 82, 081101(R) (2010).
     *
     *
     * If you are calculating the stress with vdW-DF, please also cite:
     *
     *   R. Sabatini, E. Kucukbenli, B. Kolb, T. Thonhauser, and
     *   S. de Gironcoli, J. Phys.: Condens. Matter 24, 424209 (2012).
     *

     Carrying out vdW-DF run using the following parameters:

     Nqs =      20    Nr_points =    1024   r_max =   100.000
     q_mesh =
               0.00001000     0.04494208     0.09755937     0.15916263
               0.23128650     0.31572767     0.41458969     0.53033537
               0.66584808     0.82450364     1.01025438     1.22772762
               1.48234092     1.78043706     2.12944203     2.53805004
               3.01644009     3.57652955     4.23227104     5.00000000

     Gradients computed in reciprocal space

     Adding external electric field

     Computed dipole along edir(3) :
        Dipole               -0.0000 Ry au,         -0.0000 Debye
        Dipole field         -0.0000 Ry au

        Potential amp.        0.0000 Ry
        Total length         45.1056 bohr

     Starting wfc are  156 randomized atomic wfcs

     Self-consistent Calculation

     iteration #  1     ecut=    36.75 Ry     beta=0.10
     Davidson diagonalization with overlap
     ethr =  1.00E-02,  avg # of iterations =  7.7

[...]

     total energy              =   -4584.53293894 Ry
     Harris-Foulkes estimate   =   -4585.16564884 Ry
     estimated scf accuracy    <       3.58708954 Ry

[...]

     End of self-consistent calculation

          k = 0.0000 0.0000 0.0000 ( 16091 PWs)   bands (ev):

  -125.2474-125.2462-125.2461-125.0412-125.0412-125.0399-125.0399-125.0399
  -125.0399 -79.4619 -79.4517 -79.4517 -79.4174 -79.4174 -79.4114 -79.3922
   -79.3858 -79.3858 -79.2497 -79.2495 -79.2404 -79.2404 -79.2402 -79.2402
   -79.2177 -79.2176 -79.2112 -79.2112 -79.2111 -79.2111 -79.1907 -79.1907
   -79.1906 -79.1906 -79.1853 -79.1852 -59.8587 -59.6880 -59.6880 -33.9342
   -33.9264 -33.9264 -33.8684 -33.8659 -33.6839 -33.6839 -33.6832 -33.6832
    -7.8773  -6.8504  -6.7907  -6.7810  -6.7810  -6.7619  -6.6816  -6.6360
    -6.6360  -6.5797  -6.5797  -6.5678  -6.4247  -6.4247  -6.3721  -6.2802
    -6.2291  -6.2291  -6.1542  -6.1166  -6.1166  -6.1036  -6.0752  -6.0752
    -6.0510  -6.0123  -6.0123  -5.8548  -5.8548  -5.8327  -5.8327  -5.7726
    -5.7725  -5.7625  -5.7486  -5.7486  -5.7288  -5.7288  -5.6442  -5.6442
    -5.6124  -5.5763  -5.5393  -5.5393  -5.4738  -5.3963  -5.3937  -3.2468
    -1.8942  -1.8942  -1.3242  -1.3242  -1.2502  -0.8405  -0.8405  -0.5876
     0.0384   0.1263   0.1263   0.6851   1.0935   1.0989   1.0989   1.3719
     1.3719   1.5232   1.5232   2.2684   2.4236   2.4236   2.5156   2.8202
     2.8202   4.5747   4.7612   5.1417   5.1417   5.1566   5.1566   5.2200
     5.5173   5.9336   6.0267   6.0267   6.5133   6.5648   6.8780   8.2250
     8.3802   8.4038   8.4038   8.7363   8.9916

[...]

          k =-0.0911-0.0526 0.0000 ( 16164 PWs)   bands (ev):

[...]

     the Fermi energy is     1.0656 ev

!    total energy              =   -4584.68264341 Ry
     Harris-Foulkes estimate   =   -4584.68263971 Ry
     estimated scf accuracy    <       0.00000024 Ry

     The total energy is the sum of the following terms:

     one-electron contribution =  -31183.13714057 Ry
     hartree contribution      =   15579.35544703 Ry
     xc contribution           =    -450.93663697 Ry
     ewald contribution        =   11470.09082937 Ry
     electric field correction =       0.00000000 Ry
     smearing contrib. (-TS)   =      -0.05514226 Ry

     convergence has been achieved in  15 iterations

 BEEF-vdW xc energy contributions
           1 :   -399.007436889004
           2 :    362.225112733320
           3 :   -300.229184292068
           4 :    230.655721063961
           5 :   -169.514022244321
           6 :    125.307675636163
           7 :   -97.6291998612910
           8 :    80.1697846971305
[...]
     Using radial grid of  943 points,  6 beta functions with:
                l(1) =   0
                l(2) =   0
                l(3) =   1
                l(4) =   1
                l(5) =   2
                l(6) =   2
     Q(r) pseudized with  8 coefficients,  rinner =    1.100   1.100   1.100
                                                       1.100   1.100

     PseudoPot. # 2 for Mo read from file:
     /afs/slac.stanford.edu/u/if/mamunm/psp/gbrv1.5pbe/Mo.UPF
     MD5 check sum: 30c4dcd161f5d35cd49bb5239c51a633
     Pseudo is Ultrasoft + core correction, Zval = 14.0
     Generated by new atomic code, or converted to UPF format
     Using radial grid of  889 points,  6 beta functions with:
                l(1) =   0
                l(2) =   0
                l(3) =   1
                l(4) =   1
                l(5) =   2
                l(6) =   2
     Q(r) pseudized with  6 coefficients,  rinner =    1.000   1.000   1.000
                                                       1.000   1.000

     vdW kernel table read from file vdW_kernel_table
     MD5 check sum: 095c7af220d748ca6e76c0b4c6cfb241

     atomic species   valence    mass     pseudopotential
        Zn1           20.00    65.38000     Zn( 1.00)
        Mo1           14.00    95.95000     Mo( 1.00)

     No symmetry found

   Cartesian axes

     site n.     atom                  positions (alat units)
         1           Zn1 tau(   1) = (   0.0000000   0.0000000  10.0000000  )
         2           Zn1 tau(   2) = (  -1.3719897   2.3763559  10.0000000  )
         3           Zn1 tau(   3) = (   1.3719897   2.3763559  10.0000000  )
         4           Mo1 tau(   4) = (   2.7439795   0.0000000  10.0000000  )
         5           Zn1 tau(   5) = (   2.7439795   1.5842373  12.2404499  )
         6           Zn1 tau(   6) = (   1.3719897   3.9605932  12.2404499  )
         7           Zn1 tau(   7) = (  -1.3719897   3.9605932  12.2404499  )
         8           Mo1 tau(   8) = (   0.0000000   1.5842373  12.2404499  )
         9           Zn1 tau(   9) = (  -0.0000079   3.1847252  14.6230015  )
        10           Zn1 tau(  10) = (   1.3860786   0.7839918  14.6229781  )
        11           Zn1 tau(  11) = (   4.1018841   0.7839884  14.6229939  )
        12           Mo1 tau(  12) = (   2.7439807   3.1684782  14.3196014  )

     number of k points=    20  Fermi-Dirac smearing, width (Ry)=  0.0110
                       cart. coord. in units 2pi/alat
        k(    1) = (   0.0000000   0.0000000   0.0000000), wk =   0.0555556
        k(    2) = (   0.0000000   0.0350677   0.0000000), wk =   0.1111111
        k(    3) = (   0.0000000   0.0701354   0.0000000), wk =   0.1111111
        k(    4) = (   0.0000000  -0.1052031   0.0000000), wk =   0.0555556
        k(    5) = (   0.0303695   0.0175338   0.0000000), wk =   0.1111111
        k(    6) = (   0.0303695   0.0526015   0.0000000), wk =   0.1111111
        k(    7) = (   0.0303695   0.0876692   0.0000000), wk =   0.1111111
        k(    8) = (   0.0303695  -0.0876692   0.0000000), wk =   0.1111111
        k(    9) = (   0.0303695  -0.0526015   0.0000000), wk =   0.1111111
        k(   10) = (   0.0303695  -0.0175338   0.0000000), wk =   0.1111111
        k(   11) = (   0.0607390   0.0350677   0.0000000), wk =   0.1111111
        k(   12) = (   0.0607390   0.0701354   0.0000000), wk =   0.1111111
        k(   13) = (   0.0607390   0.1052031   0.0000000), wk =   0.1111111
        k(   14) = (   0.0607390  -0.0701354   0.0000000), wk =   0.1111111
        k(   15) = (   0.0607390  -0.0350677   0.0000000), wk =   0.1111111
        k(   16) = (   0.0607390   0.0000000   0.0000000), wk =   0.1111111
        k(   17) = (  -0.0911086  -0.0526015   0.0000000), wk =   0.0555556
        k(   18) = (  -0.0911086  -0.0175338   0.0000000), wk =   0.1111111
        k(   19) = (  -0.0911086   0.0175338   0.0000000), wk =   0.1111111
        k(   20) = (  -0.0911086  -0.1578046   0.0000000), wk =   0.0555556

     Largest allocated arrays     est. size (Mb)     dimensions
     Largest temporary arrays     est. size (Mb)     dimensions

     Initial potential from superposition of free atoms
     Check: negative starting charge=   -0.002599

     starting charge  221.99554, renormalised to  222.00000

[...]

     *
     * You are using vdW-DF for exchange-correlation in this calculation.
     * Please cite the following three references that made this development
     * possible:
     *
     *   M. Dion, H. Rydberg, E. Schroder, D. C. Langreth, and
     *   B. I. Lundqvist, Phys. Rev. Lett. 92, 246401 (2004).
     *
     *   T. Thonhauser, V. R. Cooper, S. Li, A. Puzder, P. Hyldgaard, and
     *   D. C. Langreth, Phys. Rev. B 76, 125112 (2007).
     *
     *   G. Roman-Perez and J. M. Soler, Phys. Rev. Lett. 103, 096102 (2009).
     *
     *
     * If you are using vdW-DF2, please also cite:
     *
     *   K. Lee, E. D. Murray, L. Kong, B. I. Lundqvist, and
     *   D. C. Langreth, Phys. Rev. B 82, 081101(R) (2010).
     *
     *
     * If you are calculating the stress with vdW-DF, please also cite:
     *
     *   R. Sabatini, E. Kucukbenli, B. Kolb, T. Thonhauser, and
     *   S. de Gironcoli, J. Phys.: Condens. Matter 24, 424209 (2012).
     *

     Carrying out vdW-DF run using the following parameters:

     Nqs =      20    Nr_points =    1024   r_max =   100.000
     q_mesh =
               0.00001000     0.04494208     0.09755937     0.15916263
               0.23128650     0.31572767     0.41458969     0.53033537
               0.66584808     0.82450364     1.01025438     1.22772762
               1.48234092     1.78043706     2.12944203     2.53805004
               3.01644009     3.57652955     4.23227104     5.00000000

     Gradients computed in reciprocal space

[...]

     Starting wfc are  156 randomized atomic wfcs

     Self-consistent Calculation

[...]

     total energy              =   -4584.69995872 Ry
     Harris-Foulkes estimate   =   -4584.69995857 Ry
     estimated scf accuracy    <       0.00000447 Ry

     iteration # 15     ecut=    36.75 Ry     beta=0.10
     Davidson diagonalization with overlap
     ethr =  2.01E-09,  avg # of iterations =  2.0

[...]

     negative rho (up, down):  2.705E-03 0.000E+00

     Adding external electric field

     Computed dipole along edir(3) :
        Dipole               -0.0371 Ry au,         -0.0944 Debye
        Dipole field         -0.0001 Ry au

        Potential amp.        0.0098 Ry
        Total length         45.1056 bohr

     End of self-consistent calculation

[...]

          k = 0.0607 0.0000 0.0000 ( 16230 PWs)   bands (ev):

[...]

          k =-0.0911-0.1578 0.0000 ( 16164 PWs)   bands (ev):

  -125.1804-125.1799-125.1795-125.0982-125.0978-125.0974-124.9313-124.9309
  -124.9305 -79.3855 -79.3820 -79.3788 -79.3516 -79.3496 -79.3477 -79.3285
   -79.3265 -79.3241 -79.3036 -79.3007 -79.2981 -79.2726 -79.2701 -79.2675
   -79.2484 -79.2466 -79.2445 -79.1400 -79.1365 -79.1337 -79.1090 -79.1067
   -79.1043 -79.0766 -79.0748 -79.0727 -59.9467 -59.7111 -59.6236 -34.0049
   -34.0044 -34.0024 -33.8750 -33.7981 -33.7167 -33.7153 -33.6252 -33.6239
    -6.7854  -6.5917  -6.5433  -6.4672  -6.4370  -6.4136  -6.3860  -6.3784
    -6.3742  -6.3308  -6.3168  -6.2954  -6.2907  -6.2156  -6.1979  -6.1281
    -6.1236  -6.1115  -6.0825  -6.0701  -6.0332  -6.0186  -5.9985  -5.9653
    -5.9624  -5.9482  -5.9375  -5.9274  -5.9022  -5.8973  -5.8745  -5.8568
    -5.8512  -5.8346  -5.8318  -5.8034  -5.8012  -5.7796  -5.7532  -5.7278
    -5.6484  -5.6210  -5.6025  -5.5406  -5.5334  -5.4661  -5.4260  -4.3511
    -3.7683  -3.0102  -2.1234  -1.8597  -1.6106  -1.2247  -0.9030  -0.3322
    -0.3237   0.1641   0.2215   0.2724   0.3079   0.5325   0.8477   0.9860
     1.4969   1.6630   2.2782   2.3661   2.9304   3.1179   3.5416   3.7210
     4.0086   4.1945   5.6914   5.7191   5.8407   6.1176   6.3485   6.4636
     6.6440   6.6680   6.7544   6.7800   6.9069   6.9439   7.2927   7.7459
     7.7862   7.8398   7.9092   8.0843   8.2228

     the Fermi energy is     1.0104 ev

!    total energy              =   -4584.69996244 Ry
     Harris-Foulkes estimate   =   -4584.69995892 Ry
     estimated scf accuracy    <       0.00000077 Ry

     The total energy is the sum of the following terms:

     one-electron contribution =  -30838.39823925 Ry
     hartree contribution      =   15407.25635364 Ry
     xc contribution           =    -450.88806397 Ry
     ewald contribution        =   11297.38613519 Ry
     electric field correction =       0.00000402 Ry
     smearing contrib. (-TS)   =      -0.05615207 Ry

     convergence has been achieved in  15 iterations

 BEEF-vdW xc energy contributions
           1 :   -398.957409707330
           2 :    362.148659820090
           3 :   -300.121965409955
           4 :    230.538929234505
           5 :   -169.416415075443
           6 :    125.241733477195
           7 :   -97.5806023768813
           8 :    80.1094501056103
           9 :   -65.7115047177724
          10 :    50.5244265555156
          11 :   -34.9721760754090
          12 :    21.8957903961272
          13 :   -13.6176510380988
          14 :    10.0604829335812
          15 :   -8.95994123271157
          16 :    7.61462222765834
          17 :   -4.68199500267588
          18 :   0.745774326529158
          19 :    2.54718334447665
          20 :   -3.95170581773709
          21 :    3.55176339576815
          22 :   -2.56395203054933
          23 :    2.31596998493347
          24 :   -3.26588671408643
          25 :    4.78736925147348
          26 :   -5.79786115528742
          27 :    5.66442281994887
          28 :   -4.67426872048372
          29 :    3.75073050228627
          30 :   -3.69864640241724
          31 :   -32.6875930665580
          32 :   -22.8163685037717

     Forces acting on atoms (Ry/au):

     negative rho (up, down):  2.705E-03 0.000E+00
     atom    1 type  1   force =    -0.00000164   -0.00524942   -0.01755615
     atom    2 type  1   force =    -0.00455036    0.00262450   -0.01755844
     atom    3 type  1   force =     0.00454982    0.00262561   -0.01755663
     atom    4 type  2   force =     0.00000005   -0.00000015    0.05444026
     atom    5 type  1   force =     0.00000059   -0.01215633   -0.00619548
     atom    6 type  1   force =    -0.01052690    0.00607768   -0.00619501
     atom    7 type  1   force =     0.01052773    0.00607884   -0.00619492
     atom    8 type  2   force =    -0.00000000    0.00000007    0.01660186
     atom    9 type  1   force =     0.00000221   -0.00033143    0.00007051
     atom   10 type  1   force =    -0.00028945    0.00016672    0.00007044
     atom   11 type  1   force =     0.00028900    0.00016464    0.00006990
     atom   12 type  2   force =    -0.00000105   -0.00000072    0.00000365

     Total force =     0.069323     Total SCF correction =     0.003313

     entering subroutine stress ...

     negative rho (up, down):  2.705E-03 0.000E+00
          total   stress  (Ry/bohr**3)                   (kbar)     P=  -13.27
  -0.00011341   0.00000000   0.00000000        -16.68      0.00      0.00
   0.00000000  -0.00011341  -0.00000000          0.00    -16.68     -0.00
   0.00000000  -0.00000000  -0.00004374          0.00     -0.00     -6.43

 !ASE

     Writing output data file calc.save

     General routines

     Parallel routines

   This run was terminated on:  17:32:38   2Jan2019

   JOB DONE.
Job  /afs/slac/g/suncat/bin/suncat-tsmpirun -x LD_LIBRARY_PATH -wdir /scratch/qe649490_33G0Z pw.x -in pw.inp

TID   HOST_NAME   COMMAND_LINE            STATUS            TERMINATION_TIME
00000 suncat0058 pw.x -in pw.inp   Done                     01/02/2019 17:32:38
00001 suncat0058 pw.x -in pw.inp   Done                     01/02/2019 17:32:38
00002 suncat0058 pw.x -in pw.inp   Done                     01/02/2019 17:32:38
00003 suncat0058 pw.x -in pw.inp   Done                     01/02/2019 17:32:38
00004 suncat0058 pw.x -in pw.inp   Done                     01/02/2019 17:32:38
00005 suncat0058 pw.x -in pw.inp   Done                     01/02/2019 17:32:38
00006 suncat0058 pw.x -in pw.inp   Done                     01/02/2019 17:32:38
00007 suncat0058 pw.x -in pw.inp   Done                     01/02/2019 17:32:38
00008 suncat0056 pw.x -in pw.inp   Done                     01/02/2019 17:32:38
00009 suncat0056 pw.x -in pw.inp   Done                     01/02/2019 17:32:38
00010 suncat0056 pw.x -in pw.inp   Done                     01/02/2019 17:32:38
00011 suncat0056 pw.x -in pw.inp   Done                     01/02/2019 17:32:38
00012 suncat0056 pw.x -in pw.inp   Done                     01/02/2019 17:32:38
00013 suncat0056 pw.x -in pw.inp   Done                     01/02/2019 17:32:38
00014 suncat0056 pw.x -in pw.inp   Done                     01/02/2019 17:32:38
00015 suncat0056 pw.x -in pw.inp   Done                     01/02/2019 17:32:38
00016 suncat0054 pw.x -in pw.inp   Done                     01/02/2019 17:32:38
00017 suncat0054 pw.x -in pw.inp   Done                     01/02/2019 17:32:38
00018 suncat0054 pw.x -in pw.inp   Done                     01/02/2019 17:32:38
00019 suncat0054 pw.x -in pw.inp   Done                     01/02/2019 17:32:38
00020 suncat0054 pw.x -in pw.inp   Done                     01/02/2019 17:32:38
00021 suncat0054 pw.x -in pw.inp   Done                     01/02/2019 17:32:38
00022 suncat0054 pw.x -in pw.inp   Done                     01/02/2019 17:32:38
00023 suncat0054 pw.x -in pw.inp   Done                     01/02/2019 17:32:38
00024 suncat0052 pw.x -in pw.inp   Done                     01/02/2019 17:32:38
00025 suncat0052 pw.x -in pw.inp   Done                     01/02/2019 17:32:38
00026 suncat0052 pw.x -in pw.inp   Done                     01/02/2019 17:32:38
00027 suncat0052 pw.x -in pw.inp   Done                     01/02/2019 17:32:38
00028 suncat0052 pw.x -in pw.inp   Done                     01/02/2019 17:32:38
00029 suncat0052 pw.x -in pw.inp   Done                     01/02/2019 17:32:38
00030 suncat0052 pw.x -in pw.inp   Done                     01/02/2019 17:32:38
00031 suncat0052 pw.x -in pw.inp   Done                     01/02/2019 17:32:38
00032 suncat0048 pw.x -in pw.inp   Done                     01/02/2019 17:32:38
00033 suncat0048 pw.x -in pw.inp   Done                     01/02/2019 17:32:38
00034 suncat0048 pw.x -in pw.inp   Done                     01/02/2019 17:32:38
00035 suncat0048 pw.x -in pw.inp   Done                     01/02/2019 17:32:38
00036 suncat0048 pw.x -in pw.inp   Done                     01/02/2019 17:32:38
00037 suncat0048 pw.x -in pw.inp   Done                     01/02/2019 17:32:38
00038 suncat0048 pw.x -in pw.inp   Done                     01/02/2019 17:32:38
00039 suncat0048 pw.x -in pw.inp   Done                     01/02/2019 17:32:38
00040 suncat0047 pw.x -in pw.inp   Done                     01/02/2019 17:32:38
00041 suncat0047 pw.x -in pw.inp   Done                     01/02/2019 17:32:38
00042 suncat0047 pw.x -in pw.inp   Done                     01/02/2019 17:32:38
00043 suncat0047 pw.x -in pw.inp   Done                     01/02/2019 17:32:38
00044 suncat0047 pw.x -in pw.inp   Done                     01/02/2019 17:32:38
00045 suncat0047 pw.x -in pw.inp   Done                     01/02/2019 17:32:38
00046 suncat0047 pw.x -in pw.inp   Done                     01/02/2019 17:32:38
00047 suncat0047 pw.x -in pw.inp   Done                     01/02/2019 17:32:38
00048 suncat0121 pw.x -in pw.inp   Done                     01/02/2019 17:32:38
00049 suncat0121 pw.x -in pw.inp   Done                     01/02/2019 17:32:38
00050 suncat0121 pw.x -in pw.inp   Done                     01/02/2019 17:32:38
00051 suncat0121 pw.x -in pw.inp   Done                     01/02/2019 17:32:38
00052 suncat0121 pw.x -in pw.inp   Done                     01/02/2019 17:32:38
00053 suncat0121 pw.x -in pw.inp   Done                     01/02/2019 17:32:38
00054 suncat0121 pw.x -in pw.inp   Done                     01/02/2019 17:32:38
00055 suncat0121 pw.x -in pw.inp   Done                     01/02/2019 17:32:38
00056 suncat0115 pw.x -in pw.inp   Done                     01/02/2019 17:32:38
00057 suncat0115 pw.x -in pw.inp   Done                     01/02/2019 17:32:38
00058 suncat0115 pw.x -in pw.inp   Done                     01/02/2019 17:32:38
00059 suncat0115 pw.x -in pw.inp   Done                     01/02/2019 17:32:38
00060 suncat0115 pw.x -in pw.inp   Done                     01/02/2019 17:32:38
00061 suncat0115 pw.x -in pw.inp   Done                     01/02/2019 17:32:38
00062 suncat0115 pw.x -in pw.inp   Done                     01/02/2019 17:32:38
00063 suncat0115 pw.x -in pw.inp   Done                     01/02/2019 17:32:38