     Program PWSCF v.5.1rc2 (svn rev. 11289) starts on 19Dec2018 at  4:21:57

     Current dimensions of program PWSCF are:
     Max number of different atomic species (ntypx) = 10
     Max number of k-points (npk) =  40000
     Max angular momentum in pseudopotentials (lmaxx) =  3
     Presently stress not available with electric field

     IMPORTANT: XC functional enforced from input :
     Exchange-correlation      = BEEF-VDW ( 1  4 27 13 2)
     Any further DFT definition will be discarded
     Please, verify this is what you really want

     Subspace diagonalization in iterative solution of the eigenvalue problem:
     a serial algorithm will be used

     Found symmetry operation: I + (  0.5000  0.5000  0.0000)
     This is a supercell, fractional translations are disabled

     bravais-lattice index     =            0
     lattice parameter (alat)  =       1.8897  a.u.
     unit-cell volume          =    5532.4701 (a.u.)^3
     number of atoms/cell      =           12
     number of atomic types    =            2
     number of electrons       =       162.00
     number of Kohn-Sham states=          111
     kinetic-energy cutoff     =      36.7493  Ry
     charge density cutoff     =     367.4932  Ry
     convergence threshold     =      1.0E-06
     mixing beta               =       0.1000
     number of iterations used =           10  plain     mixing
     Exchange-correlation      = BEEF-VDW ( 1  4 27 13 2)
     nstep                     =           50

     celldm(1)=   1.889726  celldm(2)=   0.000000  celldm(3)=   0.000000
     celldm(4)=   0.000000  celldm(5)=   0.000000  celldm(6)=   0.000000

     crystal axes: (cart. coord. in units of alat)
               a(1) = (   5.916807   0.000000   0.000000 )
               a(2) = (   1.966437   5.580478   0.000000 )
               a(3) = (   0.000000   0.000000  24.829255 )

     reciprocal axes: (cart. coord. in units 2 pi/alat)
               b(1) = (  0.169010 -0.059555  0.000000 )
               b(2) = (  0.000000  0.179196  0.000000 )
               b(3) = (  0.000000  0.000000  0.040275 )

     PseudoPot. # 1 for Ru read from file:
     /afs/slac.stanford.edu/u/if/mamunm/psp/gbrv1.5pbe/Ru.UPF
     MD5 check sum: 7158a806dd851261a58e6920c40ebe78
     Pseudo is Ultrasoft + core correction, Zval = 16.0
     Generated by new atomic code, or converted to UPF format
     Using radial grid of  967 points,  6 beta functions with:
                l(1) =   0
                l(2) =   0
                l(3) =   1
                l(4) =   1
                l(5) =   2
                l(6) =   2
     Q(r) pseudized with  8 coefficients,  rinner =    1.300   1.300   1.300
                                                       1.300   1.300

     PseudoPot. # 2 for Y  read from file:
     /afs/slac.stanford.edu/u/if/mamunm/psp/gbrv1.5pbe/Y.UPF
     MD5 check sum: d034151ed7554c50b6e82763ed42c788
     Pseudo is Ultrasoft + core correction, Zval = 11.0
     Generated by new atomic code, or converted to UPF format
     Using radial grid of  885 points,  6 beta functions with:
                l(1) =   0
                l(2) =   0
                l(3) =   1
                l(4) =   1
                l(5) =   2
                l(6) =   2
     Q(r) pseudized with  8 coefficients,  rinner =    1.200   1.200   1.200
                                                       1.200   1.200

     vdW kernel table read from file vdW_kernel_table
     MD5 check sum: 095c7af220d748ca6e76c0b4c6cfb241

     atomic species   valence    mass     pseudopotential
        Ru1           16.00   101.07000     Ru( 1.00)
        Y1            11.00    88.90584     Y ( 1.00)

     No symmetry found

   Cartesian axes

     site n.     atom                  positions (alat units)
         1           Ru1 tau(   1) = (   0.0000000   0.0000000  10.0000000  )
         2           Ru1 tau(   2) = (   3.9416221   2.7902388  10.0000000  )
         3           Y1  tau(   3) = (   2.9584035   0.0000000  10.0000000  )
         4           Y1  tau(   4) = (   0.9832186   2.7902388  10.0000000  )
         5           Ru1 tau(   5) = (   5.9168071   4.1884545  12.4146275  )
         6           Ru1 tau(   6) = (   1.9751849   1.3982156  12.4146275  )
         7           Y1  tau(   7) = (   2.9584035   4.1884545  12.4146275  )
         8           Y1  tau(   8) = (   4.9335885   1.3982156  12.4146275  )
         9           Ru1 tau(   9) = (   3.9503699   2.7964313  14.8292549  )
        10           Ru1 tau(  10) = (   0.0087478   0.0061925  14.8292549  )
        11           Y1  tau(  11) = (   0.9919664   2.7964313  14.8292549  )
        12           Y1  tau(  12) = (   2.9671513   0.0061925  14.8292549  )

     number of k points=    20  Fermi-Dirac smearing, width (Ry)=  0.0110
                       cart. coord. in units 2pi/alat
        k(    1) = (   0.0000000   0.0000000   0.0000000), wk =   0.0555556
        k(    2) = (   0.0000000   0.0298660   0.0000000), wk =   0.1111111
        k(    3) = (   0.0000000   0.0597320   0.0000000), wk =   0.1111111
        k(    4) = (   0.0000000  -0.0895981   0.0000000), wk =   0.0555556
        k(    5) = (   0.0281683  -0.0099259   0.0000000), wk =   0.1111111
        k(    6) = (   0.0281683   0.0199401   0.0000000), wk =   0.1111111
        k(    7) = (   0.0281683   0.0498061   0.0000000), wk =   0.1111111
        k(    8) = (   0.0281683  -0.0995240   0.0000000), wk =   0.1111111
        k(    9) = (   0.0281683  -0.0696579   0.0000000), wk =   0.1111111
        k(   10) = (   0.0281683  -0.0397919   0.0000000), wk =   0.1111111
        k(   11) = (   0.0563367  -0.0198518   0.0000000), wk =   0.1111111
        k(   12) = (   0.0563367   0.0100142   0.0000000), wk =   0.1111111
        k(   13) = (   0.0563367   0.0398802   0.0000000), wk =   0.1111111
        k(   14) = (   0.0563367  -0.1094499   0.0000000), wk =   0.1111111
        k(   15) = (   0.0563367  -0.0795839   0.0000000), wk =   0.1111111
        k(   16) = (   0.0563367  -0.0497178   0.0000000), wk =   0.1111111
        k(   17) = (  -0.0845050   0.0297777   0.0000000), wk =   0.0555556
        k(   18) = (  -0.0845050   0.0596437   0.0000000), wk =   0.1111111
        k(   19) = (  -0.0845050   0.0895098   0.0000000), wk =   0.1111111
        k(   20) = (  -0.0845050  -0.0598204   0.0000000), wk =   0.0555556

     Largest allocated arrays     est. size (Mb)     dimensions
     Largest temporary arrays     est. size (Mb)     dimensions

     Initial potential from superposition of free atoms
     Check: negative starting charge=   -0.425314

     starting charge  155.97309, renormalised to  162.00000

     negative rho (up, down):  4.417E-01 0.000E+00

     *
     * You are using vdW-DF for exchange-correlation in this calculation.
     * Please cite the following three references that made this development
     * possible:
     *
     *   M. Dion, H. Rydberg, E. Schroder, D. C. Langreth, and
     *   B. I. Lundqvist, Phys. Rev. Lett. 92, 246401 (2004).
     *
     *   T. Thonhauser, V. R. Cooper, S. Li, A. Puzder, P. Hyldgaard, and
     *   D. C. Langreth, Phys. Rev. B 76, 125112 (2007).
     *
     *   G. Roman-Perez and J. M. Soler, Phys. Rev. Lett. 103, 096102 (2009).
     *
     *
     * If you are using vdW-DF2, please also cite:
     *
     *   K. Lee, E. D. Murray, L. Kong, B. I. Lundqvist, and
     *   D. C. Langreth, Phys. Rev. B 82, 081101(R) (2010).
     *
     *
     * If you are calculating the stress with vdW-DF, please also cite:
     *
     *   R. Sabatini, E. Kucukbenli, B. Kolb, T. Thonhauser, and
     *   S. de Gironcoli, J. Phys.: Condens. Matter 24, 424209 (2012).
     *

     Carrying out vdW-DF run using the following parameters:

     Nqs =      20    Nr_points =    1024   r_max =   100.000
     q_mesh =
               0.00001000     0.04494208     0.09755937     0.15916263
               0.23128650     0.31572767     0.41458969     0.53033537
               0.66584808     0.82450364     1.01025438     1.22772762
               1.48234092     1.78043706     2.12944203     2.53805004
               3.01644009     3.57652955     4.23227104     5.00000000

     Gradients computed in reciprocal space

     Adding external electric field

     Computed dipole along edir(3) :
        Dipole                0.0000 Ry au,          0.0000 Debye
        Dipole field          0.0000 Ry au

        Potential amp.       -0.0000 Ry
        Total length         45.7475 bohr

     Starting wfc are  156 randomized atomic wfcs

     Self-consistent Calculation

     iteration #  1     ecut=    36.75 Ry     beta=0.10
     Davidson diagonalization with overlap
     ethr =  1.00E-02,  avg # of iterations =  2.0

[...]

     total energy              =   -1733.33538561 Ry
     Harris-Foulkes estimate   =   -1734.16808257 Ry
     estimated scf accuracy    <       5.20232380 Ry

[...]

     End of self-consistent calculation

          k = 0.0000 0.0000 0.0000 ( 20879 PWs)   bands (ev):

   -70.1720 -70.1698 -69.8825 -69.8824 -69.8803 -69.8803 -40.8338 -40.8162
   -40.7868 -40.7768 -40.1850 -40.1750 -40.1717 -40.1688 -40.1678 -40.1410
   -40.0372 -40.0051 -39.9285 -39.9056 -39.9048 -39.9015 -39.9004 -39.8846
   -39.8845 -39.8717 -39.8680 -39.8675 -39.8438 -39.7936 -21.0095 -20.9991
   -20.8916 -20.8892 -20.8575 -20.8333 -20.7494 -20.7232 -20.7215 -20.6852
   -20.5565 -20.5538 -20.2127 -19.9867 -19.9801 -19.9407 -19.9116 -19.7438
    -2.9692  -1.7747  -1.4519  -1.2050  -1.1989  -1.0987  -1.0378  -1.0105
    -0.9721  -0.8895  -0.6547  -0.4229  -0.3700   0.0199   0.0671   0.1380
     0.1819   0.2288   0.2523   0.2613   0.3894   0.4139   0.5908   0.9086
     0.9576   1.0271   1.1319   1.4348   1.4893   1.5547   1.6743   1.7217
     2.0102   2.4617   2.8573   2.9602   3.0831   3.0855   3.0897   3.3059
     3.9393   4.0385   4.0715   4.1080   4.1666   4.1754   4.3368   4.4976
     4.7428   4.8638   5.2016   5.2347   5.2486   5.3074   5.3115   5.3471
     5.3679   5.4140   5.5577   5.6474   5.7621   5.9102   6.1886

[...]

          k =-0.0845 0.0298 0.0000 ( 20772 PWs)   bands (ev):

[...]

     the Fermi energy is     1.6746 ev

!    total energy              =   -1733.04981656 Ry
     Harris-Foulkes estimate   =   -1733.04981976 Ry
     estimated scf accuracy    <       0.00000049 Ry

     The total energy is the sum of the following terms:

     one-electron contribution =  -11775.04419778 Ry
     hartree contribution      =    5888.64782957 Ry
     xc contribution           =    -331.46659895 Ry
     ewald contribution        =    4484.89638341 Ry
     electric field correction =       0.00000001 Ry
     smearing contrib. (-TS)   =      -0.08323282 Ry

     convergence has been achieved in  18 iterations

 BEEF-vdW xc energy contributions
           1 :   -288.413246481234
           2 :    261.672647833847
           3 :   -215.325139749749
           4 :    160.633489888857
           5 :   -108.781738222139
           6 :    67.5010980980254
           7 :   -39.7133511216470
           8 :    24.1923697592087
           9 :   -17.4253441018308
          10 :    15.6174254015204
          11 :   -16.0247857306692
          12 :    17.2809544109465
[...]
00030 suncat2042 pw.x -in pw.inp   Done                     12/19/2018 04:27:27
00031 suncat2042 pw.x -in pw.inp   Done                     12/19/2018 04:27:27

[...]

     iteration # 11     ecut=    36.75 Ry     beta=0.10
     Davidson diagonalization with overlap
     c_bands:  1 eigenvalues not converged
     c_bands:  1 eigenvalues not converged
     ethr =  1.76E-05,  avg # of iterations =  3.4

[...]

   This run was terminated on:   4:33: 5  19Dec2018

[...]

     Program PWSCF v.5.1rc2 (svn rev. 11289) starts on 19Dec2018 at  4:44:17

     Current dimensions of program PWSCF are:
     Max number of different atomic species (ntypx) = 10
     Max number of k-points (npk) =  40000
     Max angular momentum in pseudopotentials (lmaxx) =  3
     Presently stress not available with electric field

     IMPORTANT: XC functional enforced from input :
     Exchange-correlation      = BEEF-VDW ( 1  4 27 13 2)
     Any further DFT definition will be discarded
     Please, verify this is what you really want

     Subspace diagonalization in iterative solution of the eigenvalue problem:
     a serial algorithm will be used

     Found symmetry operation: I + (  0.5000  0.5000  0.0000)
     This is a supercell, fractional translations are disabled

     bravais-lattice index     =            0
     lattice parameter (alat)  =       1.8897  a.u.
     unit-cell volume          =    5532.4701 (a.u.)^3
     number of atoms/cell      =           12
     number of atomic types    =            2
     number of electrons       =       162.00
     number of Kohn-Sham states=          111
     kinetic-energy cutoff     =      36.7493  Ry
     charge density cutoff     =     367.4932  Ry
     convergence threshold     =      1.0E-06
     mixing beta               =       0.1000
     number of iterations used =           10  plain     mixing
     Exchange-correlation      = BEEF-VDW ( 1  4 27 13 2)
     nstep                     =           50

     celldm(1)=   1.889726  celldm(2)=   0.000000  celldm(3)=   0.000000
     celldm(4)=   0.000000  celldm(5)=   0.000000  celldm(6)=   0.000000

     crystal axes: (cart. coord. in units of alat)
               a(1) = (   5.916807   0.000000   0.000000 )
               a(2) = (   1.966437   5.580478   0.000000 )
               a(3) = (   0.000000   0.000000  24.829255 )

     reciprocal axes: (cart. coord. in units 2 pi/alat)
               b(1) = (  0.169010 -0.059555  0.000000 )
               b(2) = (  0.000000  0.179196  0.000000 )
               b(3) = (  0.000000  0.000000  0.040275 )

     PseudoPot. # 1 for Ru read from file:
     /afs/slac.stanford.edu/u/if/mamunm/psp/gbrv1.5pbe/Ru.UPF
     MD5 check sum: 7158a806dd851261a58e6920c40ebe78
     Pseudo is Ultrasoft + core correction, Zval = 16.0
     Generated by new atomic code, or converted to UPF format
     Using radial grid of  967 points,  6 beta functions with:
                l(1) =   0
                l(2) =   0
                l(3) =   1
                l(4) =   1
                l(5) =   2
                l(6) =   2
     Q(r) pseudized with  8 coefficients,  rinner =    1.300   1.300   1.300
                                                       1.300   1.300

     PseudoPot. # 2 for Y  read from file:
     /afs/slac.stanford.edu/u/if/mamunm/psp/gbrv1.5pbe/Y.UPF
     MD5 check sum: d034151ed7554c50b6e82763ed42c788
     Pseudo is Ultrasoft + core correction, Zval = 11.0
     Generated by new atomic code, or converted to UPF format
     Using radial grid of  885 points,  6 beta functions with:
                l(1) =   0
                l(2) =   0
                l(3) =   1
                l(4) =   1
                l(5) =   2
                l(6) =   2
     Q(r) pseudized with  8 coefficients,  rinner =    1.200   1.200   1.200
                                                       1.200   1.200

     vdW kernel table read from file vdW_kernel_table
     MD5 check sum: 095c7af220d748ca6e76c0b4c6cfb241

     atomic species   valence    mass     pseudopotential
        Ru1           16.00   101.07000     Ru( 1.00)
        Y1            11.00    88.90584     Y ( 1.00)

     No symmetry found

   Cartesian axes

     site n.     atom                  positions (alat units)
         1           Ru1 tau(   1) = (   0.0000000   0.0000000  10.0000000  )
         2           Ru1 tau(   2) = (   3.9416221   2.7902388  10.0000000  )
         3           Y1  tau(   3) = (   2.9584035   0.0000000  10.0000000  )
         4           Y1  tau(   4) = (   0.9832186   2.7902388  10.0000000  )
         5           Ru1 tau(   5) = (   5.9168071   4.1884545  12.4146275  )
         6           Ru1 tau(   6) = (   1.9751849   1.3982156  12.4146275  )
         7           Y1  tau(   7) = (   2.9584035   4.1884545  12.4146275  )
         8           Y1  tau(   8) = (   4.9335885   1.3982156  12.4146275  )
         9           Ru1 tau(   9) = (   3.9503637   2.7964301  14.6878976  )
        10           Ru1 tau(  10) = (   0.0087642   0.0061940  14.6879352  )
        11           Y1  tau(  11) = (   0.9888587   2.7942262  14.8649064  )
        12           Y1  tau(  12) = (   2.9640451   0.0039946  14.8649150  )

     number of k points=    20  Fermi-Dirac smearing, width (Ry)=  0.0110
                       cart. coord. in units 2pi/alat
        k(    1) = (   0.0000000   0.0000000   0.0000000), wk =   0.0555556
        k(    2) = (   0.0000000   0.0298660   0.0000000), wk =   0.1111111
        k(    3) = (   0.0000000   0.0597320   0.0000000), wk =   0.1111111
        k(    4) = (   0.0000000  -0.0895981   0.0000000), wk =   0.0555556
        k(    5) = (   0.0281683  -0.0099259   0.0000000), wk =   0.1111111
        k(    6) = (   0.0281683   0.0199401   0.0000000), wk =   0.1111111
        k(    7) = (   0.0281683   0.0498061   0.0000000), wk =   0.1111111
        k(    8) = (   0.0281683  -0.0995240   0.0000000), wk =   0.1111111
        k(    9) = (   0.0281683  -0.0696579   0.0000000), wk =   0.1111111
        k(   10) = (   0.0281683  -0.0397919   0.0000000), wk =   0.1111111
        k(   11) = (   0.0563367  -0.0198518   0.0000000), wk =   0.1111111
        k(   12) = (   0.0563367   0.0100142   0.0000000), wk =   0.1111111
        k(   13) = (   0.0563367   0.0398802   0.0000000), wk =   0.1111111
        k(   14) = (   0.0563367  -0.1094499   0.0000000), wk =   0.1111111
        k(   15) = (   0.0563367  -0.0795839   0.0000000), wk =   0.1111111
        k(   16) = (   0.0563367  -0.0497178   0.0000000), wk =   0.1111111
        k(   17) = (  -0.0845050   0.0297777   0.0000000), wk =   0.0555556
        k(   18) = (  -0.0845050   0.0596437   0.0000000), wk =   0.1111111
        k(   19) = (  -0.0845050   0.0895098   0.0000000), wk =   0.1111111
        k(   20) = (  -0.0845050  -0.0598204   0.0000000), wk =   0.0555556

     Largest allocated arrays     est. size (Mb)     dimensions
     Largest temporary arrays     est. size (Mb)     dimensions

     Initial potential from superposition of free atoms
     Check: negative starting charge=   -0.430388

     starting charge  155.97309, renormalised to  162.00000

[...]

     *
     * You are using vdW-DF for exchange-correlation in this calculation.
     * Please cite the following three references that made this development
     * possible:
     *
     *   M. Dion, H. Rydberg, E. Schroder, D. C. Langreth, and
     *   B. I. Lundqvist, Phys. Rev. Lett. 92, 246401 (2004).
     *
     *   T. Thonhauser, V. R. Cooper, S. Li, A. Puzder, P. Hyldgaard, and
     *   D. C. Langreth, Phys. Rev. B 76, 125112 (2007).
     *
     *   G. Roman-Perez and J. M. Soler, Phys. Rev. Lett. 103, 096102 (2009).
     *
     *
     * If you are using vdW-DF2, please also cite:
     *
     *   K. Lee, E. D. Murray, L. Kong, B. I. Lundqvist, and
     *   D. C. Langreth, Phys. Rev. B 82, 081101(R) (2010).
     *
     *
     * If you are calculating the stress with vdW-DF, please also cite:
     *
     *   R. Sabatini, E. Kucukbenli, B. Kolb, T. Thonhauser, and
     *   S. de Gironcoli, J. Phys.: Condens. Matter 24, 424209 (2012).
     *

     Carrying out vdW-DF run using the following parameters:

     Nqs =      20    Nr_points =    1024   r_max =   100.000
     q_mesh =
               0.00001000     0.04494208     0.09755937     0.15916263
               0.23128650     0.31572767     0.41458969     0.53033537
               0.66584808     0.82450364     1.01025438     1.22772762
               1.48234092     1.78043706     2.12944203     2.53805004
               3.01644009     3.57652955     4.23227104     5.00000000

     Gradients computed in reciprocal space

[...]

     Starting wfc are  156 randomized atomic wfcs

     Self-consistent Calculation

[...]

     total energy              =   -1733.05597671 Ry
     Harris-Foulkes estimate   =   -1733.05597810 Ry
     estimated scf accuracy    <       0.00000222 Ry

     iteration # 18     ecut=    36.75 Ry     beta=0.10
     Davidson diagonalization with overlap
     ethr =  1.37E-09,  avg # of iterations =  2.8

[...]

     negative rho (up, down):  4.355E-01 0.000E+00

     Adding external electric field

     Computed dipole along edir(3) :
        Dipole                0.0550 Ry au,          0.1399 Debye
        Dipole field          0.0001 Ry au

        Potential amp.       -0.0114 Ry
        Total length         45.7475 bohr

     End of self-consistent calculation

[...]

          k = 0.0563-0.0497 0.0000 ( 20800 PWs)   bands (ev):

[...]

          k =-0.0845-0.0598 0.0000 ( 20854 PWs)   bands (ev):

   -70.1142 -70.1121 -69.8337 -69.8315 -69.8292 -69.8270 -40.8745 -40.8228
   -40.7925 -40.7397 -40.1952 -40.1414 -40.1245 -40.1129 -40.1108 -40.0749
   -39.9166 -39.8882 -39.8668 -39.8643 -39.8481 -39.8435 -39.8418 -39.8370
   -39.8240 -39.8215 -39.8195 -39.8027 -39.6691 -39.6328 -21.0445 -20.9699
   -20.9280 -20.8673 -20.8331 -20.8049 -20.7805 -20.7341 -20.7225 -20.6556
   -20.5815 -20.5057 -20.0803 -19.8638 -19.8215 -19.8085 -19.7884 -19.5954
    -1.2684  -1.0792  -0.5625  -0.5297  -0.4089  -0.2907  -0.1715  -0.1293
    -0.0888  -0.0699  -0.0516   0.1960   0.2241   0.2883   0.3181   0.4974
     0.5020   0.5126   0.7129   0.7627   0.7710   0.9276   0.9426   0.9520
     1.0573   1.1268   1.1389   1.1964   1.2461   1.3467   1.4973   1.4975
     1.6946   1.6975   1.8271   1.8375   1.8899   2.0260   2.0451   2.0909
     2.7993   2.8581   3.2772   3.4687   3.5352   3.5644   3.6339   3.8231
     3.9637   4.2315   4.2807   4.3690   4.6385   4.8217   4.9173   4.9642
     5.0366   5.2107   5.2362   5.4191   5.4725   6.1175   6.2342

     the Fermi energy is     1.7266 ev

!    total energy              =   -1733.05597368 Ry
     Harris-Foulkes estimate   =   -1733.05597761 Ry
     estimated scf accuracy    <       0.00000052 Ry

     The total energy is the sum of the following terms:

     one-electron contribution =  -11886.98285876 Ry
     hartree contribution      =    5944.95420676 Ry
     xc contribution           =    -331.52077211 Ry
     ewald contribution        =    4540.57795151 Ry
     electric field correction =       0.00000688 Ry
     smearing contrib. (-TS)   =      -0.08450795 Ry

     convergence has been achieved in  18 iterations

 BEEF-vdW xc energy contributions
           1 :   -288.472213525054
           2 :    261.766280927715
           3 :   -215.458231060279
           4 :    160.771838265614
           5 :   -108.870576629204
           6 :    67.5016453656963
           7 :   -39.6339015452258
           8 :    24.0877251712344
           9 :   -17.3607997563877
          10 :    15.6243099670829
          11 :   -16.0823763931640
          12 :    17.3365008881557
          13 :   -18.9257982154655
          14 :    20.5846712969955
          15 :   -21.7762949998844
          16 :    21.7312597356791
          17 :   -19.8305069964210
          18 :    15.9887640882233
          19 :   -10.7831612181890
          20 :    5.27401821470488
          21 :  -0.631818649623369
          22 :   -2.25179410175849
          23 :    3.01474174294515
          24 :   -1.87035720530002
          25 :  -0.522604348362620
          26 :    3.28356806052807
          27 :   -5.55412992228645
          28 :    6.71536031895778
          29 :   -6.53835999145531
          30 :    5.22224194084788
          31 :   -28.6459413909051
          32 :   -20.5712232717958

     Forces acting on atoms (Ry/au):

     negative rho (up, down):  4.355E-01 0.000E+00
     atom    1 type  1   force =    -0.00007154   -0.00005023    0.01885119
     atom    2 type  1   force =    -0.00007248   -0.00005173    0.01885720
     atom    3 type  2   force =     0.00041296    0.00029447   -0.00905950
     atom    4 type  2   force =     0.00041593    0.00029285   -0.00905810
     atom    5 type  1   force =    -0.00003968   -0.00002851    0.00117553
     atom    6 type  1   force =    -0.00004251   -0.00002916    0.00117551
     atom    7 type  2   force =    -0.00021143   -0.00014017   -0.01080078
     atom    8 type  2   force =    -0.00020184   -0.00015271   -0.01080066
     atom    9 type  1   force =    -0.00008553   -0.00005979    0.00025838
     atom   10 type  1   force =    -0.00008393   -0.00006094    0.00026243
     atom   11 type  2   force =    -0.00000766   -0.00000937   -0.00043054
     atom   12 type  2   force =    -0.00001230   -0.00000470   -0.00043066

     Total force =     0.033352     Total SCF correction =     0.001445

     entering subroutine stress ...

     negative rho (up, down):  4.355E-01 0.000E+00
          total   stress  (Ry/bohr**3)                   (kbar)     P=  -10.78
  -0.00011671  -0.00004583  -0.00000067        -17.17     -6.74     -0.10
  -0.00004583  -0.00008442  -0.00000047         -6.74    -12.42     -0.07
  -0.00000067  -0.00000047  -0.00001865         -0.10     -0.07     -2.74

 !ASE

     Writing output data file calc.save

     General routines

     Parallel routines

   This run was terminated on:   4:49:44  19Dec2018

   JOB DONE.
Job  /afs/slac/g/suncat/bin/suncat-tsmpirun -x LD_LIBRARY_PATH -wdir /scratch/qe530542_z8k7n pw.x -in pw.inp

TID   HOST_NAME   COMMAND_LINE            STATUS            TERMINATION_TIME
00000 suncat2063 pw.x -in pw.inp   Done                     12/19/2018 04:49:44
00001 suncat2063 pw.x -in pw.inp   Done                     12/19/2018 04:49:44
00002 suncat2063 pw.x -in pw.inp   Done                     12/19/2018 04:49:44
00003 suncat2063 pw.x -in pw.inp   Done                     12/19/2018 04:49:44
00004 suncat2063 pw.x -in pw.inp   Done                     12/19/2018 04:49:44
00005 suncat2063 pw.x -in pw.inp   Done                     12/19/2018 04:49:44
00006 suncat2063 pw.x -in pw.inp   Done                     12/19/2018 04:49:44
00007 suncat2063 pw.x -in pw.inp   Done                     12/19/2018 04:49:44
00008 suncat2063 pw.x -in pw.inp   Done                     12/19/2018 04:49:44
00009 suncat2063 pw.x -in pw.inp   Done                     12/19/2018 04:49:44
00010 suncat2063 pw.x -in pw.inp   Done                     12/19/2018 04:49:44
00011 suncat2063 pw.x -in pw.inp   Done                     12/19/2018 04:49:44
00012 suncat2063 pw.x -in pw.inp   Done                     12/19/2018 04:49:44
00013 suncat2063 pw.x -in pw.inp   Done                     12/19/2018 04:49:44
00014 suncat2063 pw.x -in pw.inp   Done                     12/19/2018 04:49:44
00015 suncat2063 pw.x -in pw.inp   Done                     12/19/2018 04:49:44
00016 suncat2042 pw.x -in pw.inp   Done                     12/19/2018 04:49:44
00017 suncat2042 pw.x -in pw.inp   Done                     12/19/2018 04:49:44
00018 suncat2042 pw.x -in pw.inp   Done                     12/19/2018 04:49:44
00019 suncat2042 pw.x -in pw.inp   Done                     12/19/2018 04:49:44
00020 suncat2042 pw.x -in pw.inp   Done                     12/19/2018 04:49:44
00021 suncat2042 pw.x -in pw.inp   Done                     12/19/2018 04:49:44
00022 suncat2042 pw.x -in pw.inp   Done                     12/19/2018 04:49:44
00023 suncat2042 pw.x -in pw.inp   Done                     12/19/2018 04:49:44
00024 suncat2042 pw.x -in pw.inp   Done                     12/19/2018 04:49:44
00025 suncat2042 pw.x -in pw.inp   Done                     12/19/2018 04:49:44
00026 suncat2042 pw.x -in pw.inp   Done                     12/19/2018 04:49:44
00027 suncat2042 pw.x -in pw.inp   Done                     12/19/2018 04:49:44
00028 suncat2042 pw.x -in pw.inp   Done                     12/19/2018 04:49:44
00029 suncat2042 pw.x -in pw.inp   Done                     12/19/2018 04:49:44
00030 suncat2042 pw.x -in pw.inp   Done                     12/19/2018 04:49:44
00031 suncat2042 pw.x -in pw.inp   Done                     12/19/2018 04:49:44