     Program PWSCF v.5.1rc2 (svn rev. 11289) starts on 19Dec2018 at 18: 0: 7

     Current dimensions of program PWSCF are:
     Max number of different atomic species (ntypx) = 10
     Max number of k-points (npk) =  40000
     Max angular momentum in pseudopotentials (lmaxx) =  3
     Presently stress not available with electric field

     IMPORTANT: XC functional enforced from input :
     Exchange-correlation      = BEEF-VDW ( 1  4 27 13 2)
     Any further DFT definition will be discarded
     Please, verify this is what you really want

     Subspace diagonalization in iterative solution of the eigenvalue problem:
     a serial algorithm will be used

     bravais-lattice index     =            0
     lattice parameter (alat)  =       1.8897  a.u.
     unit-cell volume          =    4438.5099 (a.u.)^3
     number of atoms/cell      =           12
     number of atomic types    =            2
     number of electrons       =        75.00
     number of Kohn-Sham states=           67
     kinetic-energy cutoff     =      36.7493  Ry
     charge density cutoff     =     367.4932  Ry
     convergence threshold     =      1.0E-06
     mixing beta               =       0.1000
     number of iterations used =           10  plain     mixing
     Exchange-correlation      = BEEF-VDW ( 1  4 27 13 2)
     nstep                     =           50

     celldm(1)=   1.889726  celldm(2)=   0.000000  celldm(3)=   0.000000
     celldm(4)=   0.000000  celldm(5)=   0.000000  celldm(6)=   0.000000

     crystal axes: (cart. coord. in units of alat)
               a(1) = (   5.562876   0.000000   0.000000 )
               a(2) = (  -2.781438   4.817592   0.000000 )
               a(3) = (   0.000000   0.000000  24.542069 )

     reciprocal axes: (cart. coord. in units 2 pi/alat)
               b(1) = (  0.179763  0.103786  0.000000 )
               b(2) = (  0.000000  0.207573  0.000000 )
               b(3) = (  0.000000  0.000000  0.040746 )

     PseudoPot. # 1 for Al read from file:
     /afs/slac.stanford.edu/u/if/mamunm/psp/gbrv1.5pbe/Al.UPF
     MD5 check sum: 0a6289f5291fc8f409219462bc851e1f
     Pseudo is Ultrasoft + core correction, Zval =  3.0
     Generated by new atomic code, or converted to UPF format
     Using radial grid of  893 points,  3 beta functions with:
                l(1) =   0
                l(2) =   1
                l(3) =   2
     Q(r) pseudized with  8 coefficients,  rinner =    0.900   0.900   0.900
                                                       0.900   0.900

     PseudoPot. # 2 for Pt read from file:
     /afs/slac.stanford.edu/u/if/mamunm/psp/gbrv1.5pbe/Pt.UPF
     MD5 check sum: f09d6de1a584b5a045c4fc126da2d0c4
     Pseudo is Ultrasoft + core correction, Zval = 16.0
     Generated by new atomic code, or converted to UPF format
     Using radial grid of  985 points,  6 beta functions with:
                l(1) =   0
                l(2) =   0
                l(3) =   1
                l(4) =   1
                l(5) =   2
                l(6) =   2
     Q(r) pseudized with  8 coefficients,  rinner =    1.300   1.300   1.300
                                                       1.300   1.300

     vdW kernel table read from file vdW_kernel_table
     MD5 check sum: 095c7af220d748ca6e76c0b4c6cfb241

     atomic species   valence    mass     pseudopotential
        Al1            3.00    26.98154     Al( 1.00)
        Pt1           16.00   195.08400     Pt( 1.00)

     No symmetry found

   Cartesian axes

     site n.     atom                  positions (alat units)
         1           Al1 tau(   1) = (   0.0000000   0.0000000  10.0000000  )
         2           Al1 tau(   2) = (  -1.3907190   2.4087960  10.0000000  )
         3           Al1 tau(   3) = (   1.3907190   2.4087960  10.0000000  )
         4           Pt1 tau(   4) = (   2.7814381   0.0000000  10.0000000  )
         5           Al1 tau(   5) = (   2.7814381   1.6058640  12.2710347  )
         6           Al1 tau(   6) = (   1.3907190   4.0146601  12.2710347  )
         7           Al1 tau(   7) = (  -1.3907190   4.0146601  12.2710347  )
         8           Pt1 tau(   8) = (   0.0000000   1.6058640  12.2710347  )
         9           Al1 tau(   9) = (  -0.0000000   3.2117280  14.5420694  )
        10           Al1 tau(  10) = (   1.3907190   0.8029320  14.5420694  )
        11           Al1 tau(  11) = (   4.1721571   0.8029320  14.5420694  )
        12           Pt1 tau(  12) = (   2.7814381   3.2117280  14.5420694  )

     number of k points=    20  Fermi-Dirac smearing, width (Ry)=  0.0110
                       cart. coord. in units 2pi/alat
        k(    1) = (   0.0000000   0.0000000   0.0000000), wk =   0.0555556
        k(    2) = (   0.0000000   0.0345954   0.0000000), wk =   0.1111111
        k(    3) = (   0.0000000   0.0691909   0.0000000), wk =   0.1111111
        k(    4) = (   0.0000000  -0.1037863   0.0000000), wk =   0.0555556
        k(    5) = (   0.0299605   0.0172977   0.0000000), wk =   0.1111111
        k(    6) = (   0.0299605   0.0518931   0.0000000), wk =   0.1111111
        k(    7) = (   0.0299605   0.0864886   0.0000000), wk =   0.1111111
        k(    8) = (   0.0299605  -0.0864886   0.0000000), wk =   0.1111111
        k(    9) = (   0.0299605  -0.0518931   0.0000000), wk =   0.1111111
        k(   10) = (   0.0299605  -0.0172977   0.0000000), wk =   0.1111111
        k(   11) = (   0.0599210   0.0345954   0.0000000), wk =   0.1111111
        k(   12) = (   0.0599210   0.0691909   0.0000000), wk =   0.1111111
        k(   13) = (   0.0599210   0.1037863   0.0000000), wk =   0.1111111
        k(   14) = (   0.0599210  -0.0691909   0.0000000), wk =   0.1111111
        k(   15) = (   0.0599210  -0.0345954   0.0000000), wk =   0.1111111
        k(   16) = (   0.0599210   0.0000000   0.0000000), wk =   0.1111111
        k(   17) = (  -0.0898816  -0.0518931   0.0000000), wk =   0.0555556
        k(   18) = (  -0.0898816  -0.0172977   0.0000000), wk =   0.1111111
        k(   19) = (  -0.0898816   0.0172977   0.0000000), wk =   0.1111111
        k(   20) = (  -0.0898816  -0.1556794   0.0000000), wk =   0.0555556

     Largest allocated arrays     est. size (Mb)     dimensions
     Largest temporary arrays     est. size (Mb)     dimensions

     Initial potential from superposition of free atoms
     Check: negative starting charge=   -0.548388

     starting charge   73.47778, renormalised to   75.00000

     negative rho (up, down):  5.597E-01 0.000E+00

     *
     * You are using vdW-DF for exchange-correlation in this calculation.
     * Please cite the following three references that made this development
     * possible:
     *
     *   M. Dion, H. Rydberg, E. Schroder, D. C. Langreth, and
     *   B. I. Lundqvist, Phys. Rev. Lett. 92, 246401 (2004).
     *
     *   T. Thonhauser, V. R. Cooper, S. Li, A. Puzder, P. Hyldgaard, and
     *   D. C. Langreth, Phys. Rev. B 76, 125112 (2007).
     *
     *   G. Roman-Perez and J. M. Soler, Phys. Rev. Lett. 103, 096102 (2009).
     *
     *
     * If you are using vdW-DF2, please also cite:
     *
     *   K. Lee, E. D. Murray, L. Kong, B. I. Lundqvist, and
     *   D. C. Langreth, Phys. Rev. B 82, 081101(R) (2010).
     *
     *
     * If you are calculating the stress with vdW-DF, please also cite:
     *
     *   R. Sabatini, E. Kucukbenli, B. Kolb, T. Thonhauser, and
     *   S. de Gironcoli, J. Phys.: Condens. Matter 24, 424209 (2012).
     *

     Carrying out vdW-DF run using the following parameters:

     Nqs =      20    Nr_points =    1024   r_max =   100.000
     q_mesh =
               0.00001000     0.04494208     0.09755937     0.15916263
               0.23128650     0.31572767     0.41458969     0.53033537
               0.66584808     0.82450364     1.01025438     1.22772762
               1.48234092     1.78043706     2.12944203     2.53805004
               3.01644009     3.57652955     4.23227104     5.00000000

     Gradients computed in reciprocal space

     Adding external electric field

     Computed dipole along edir(3) :
        Dipole               -0.0000 Ry au,         -0.0000 Debye
        Dipole field         -0.0000 Ry au

        Potential amp.        0.0000 Ry
        Total length         45.2183 bohr

     Starting wfc are   72 randomized atomic wfcs

     Self-consistent Calculation

     iteration #  1     ecut=    36.75 Ry     beta=0.10
     Davidson diagonalization with overlap
     ethr =  1.00E-02,  avg # of iterations =  7.1

[...]

     total energy              =    -699.07856123 Ry
     Harris-Foulkes estimate   =    -700.54683632 Ry
     estimated scf accuracy    <       8.63051103 Ry

[...]

     End of self-consistent calculation

          k = 0.0000 0.0000 0.0000 ( 16703 PWs)   bands (ev):

   -53.5147 -53.5147 -53.4465 -53.0409 -53.0409 -53.0408 -53.0408 -52.8260
   -52.8259 -10.7810  -8.9276  -6.8196  -6.0203  -6.0203  -5.1433  -5.1433
    -5.1140  -5.1140  -4.8896  -4.7037  -3.9058  -3.9058  -3.7021  -3.7021
    -3.4873  -3.0367  -2.9242  -2.9242  -2.5324  -2.4543  -2.2919  -2.2919
    -1.8589  -1.7616  -1.7616  -1.6636  -1.6636  -1.1330   0.6294   0.6294
     0.9780   1.0095   1.3708   1.3708   1.9471   1.9471   2.0581   3.4532
     3.7646   4.2378   4.2536   4.3945   4.3945   4.6876   4.6876   4.9096
     5.0095   6.3110   6.4220   6.4879   6.8640   6.8640   7.7793   7.8152
     7.9436   7.9543   7.9543

[...]

          k =-0.0899-0.0519 0.0000 ( 16692 PWs)   bands (ev):

[...]

     the Fermi energy is     0.1725 ev

!    total energy              =    -699.27230993 Ry
     Harris-Foulkes estimate   =    -699.27231491 Ry
     estimated scf accuracy    <       0.00000055 Ry

     The total energy is the sum of the following terms:

     one-electron contribution =   -3295.99642915 Ry
     hartree contribution      =    1658.63184207 Ry
     xc contribution           =    -215.90898896 Ry
     ewald contribution        =    1154.02394532 Ry
     electric field correction =       0.00000000 Ry
     smearing contrib. (-TS)   =      -0.02267921 Ry

     convergence has been achieved in  14 iterations

 BEEF-vdW xc energy contributions
           1 :   -189.390860602243
           2 :    173.958628560457
           3 :   -147.449770623175
           4 :    116.335401819032
           5 :   -86.4295017155994
           6 :    61.1706941059437
           7 :   -41.5481470348774
           8 :    27.0929337994411
           9 :   -16.9100693860874
          10 :    10.1003282517658
          11 :   -5.69206375082348
          12 :    2.60136219195581
          13 :   7.342914734294936E-002
          14 :   -2.64077285042816
          15 :    4.72736968003110
          16 :   -5.69062041700590
          17 :    5.23151954614229
          18 :   -3.71658902220599
          19 :    1.97109947715524
          20 :  -0.761767939314893
          21 :   0.398651903061364
          22 :  -0.717207827636287
          23 :    1.34725953240340
          24 :   -1.98444485338172
          25 :    2.46939286537216
          26 :   -2.71598462799420
          27 :    2.65376046594940
          28 :   -2.27682457539970
          29 :    1.72641942315647
[...]
     celldm(4)=   0.000000  celldm(5)=   0.000000  celldm(6)=   0.000000

     crystal axes: (cart. coord. in units of alat)
               a(1) = (   5.562876   0.000000   0.000000 )
               a(2) = (  -2.781438   4.817592   0.000000 )
               a(3) = (   0.000000   0.000000  24.542069 )

     reciprocal axes: (cart. coord. in units 2 pi/alat)
               b(1) = (  0.179763  0.103786  0.000000 )
               b(2) = (  0.000000  0.207573  0.000000 )
               b(3) = (  0.000000  0.000000  0.040746 )

     PseudoPot. # 1 for Al read from file:
     /afs/slac.stanford.edu/u/if/mamunm/psp/gbrv1.5pbe/Al.UPF
     MD5 check sum: 0a6289f5291fc8f409219462bc851e1f
     Pseudo is Ultrasoft + core correction, Zval =  3.0
     Generated by new atomic code, or converted to UPF format
     Using radial grid of  893 points,  3 beta functions with:
                l(1) =   0
                l(2) =   1
                l(3) =   2
     Q(r) pseudized with  8 coefficients,  rinner =    0.900   0.900   0.900
                                                       0.900   0.900

     PseudoPot. # 2 for Pt read from file:
     /afs/slac.stanford.edu/u/if/mamunm/psp/gbrv1.5pbe/Pt.UPF
     MD5 check sum: f09d6de1a584b5a045c4fc126da2d0c4
     Pseudo is Ultrasoft + core correction, Zval = 16.0
     Generated by new atomic code, or converted to UPF format
     Using radial grid of  985 points,  6 beta functions with:
                l(1) =   0
                l(2) =   0
                l(3) =   1
                l(4) =   1
                l(5) =   2
                l(6) =   2
     Q(r) pseudized with  8 coefficients,  rinner =    1.300   1.300   1.300
                                                       1.300   1.300

     vdW kernel table read from file vdW_kernel_table
     MD5 check sum: 095c7af220d748ca6e76c0b4c6cfb241

     atomic species   valence    mass     pseudopotential
        Al1            3.00    26.98154     Al( 1.00)
        Pt1           16.00   195.08400     Pt( 1.00)

     No symmetry found

   Cartesian axes

     site n.     atom                  positions (alat units)
         1           Al1 tau(   1) = (   0.0000000   0.0000000  10.0000000  )
         2           Al1 tau(   2) = (  -1.3907190   2.4087960  10.0000000  )
         3           Al1 tau(   3) = (   1.3907190   2.4087960  10.0000000  )
         4           Pt1 tau(   4) = (   2.7814381   0.0000000  10.0000000  )
         5           Al1 tau(   5) = (   2.7814381   1.6058640  12.2710347  )
         6           Al1 tau(   6) = (   1.3907190   4.0146601  12.2710347  )
         7           Al1 tau(   7) = (  -1.3907190   4.0146601  12.2710347  )
         8           Pt1 tau(   8) = (   0.0000000   1.6058640  12.2710347  )
         9           Al1 tau(   9) = (   0.0000003   3.1939699  14.6256214  )
        10           Al1 tau(  10) = (   1.3753403   0.8118105  14.6256218  )
        11           Al1 tau(  11) = (   4.1875360   0.8118105  14.6256213  )
        12           Pt1 tau(  12) = (   2.7814370   3.2117266  14.4305195  )

     number of k points=    20  Fermi-Dirac smearing, width (Ry)=  0.0110
                       cart. coord. in units 2pi/alat
        k(    1) = (   0.0000000   0.0000000   0.0000000), wk =   0.0555556
        k(    2) = (   0.0000000   0.0345954   0.0000000), wk =   0.1111111
        k(    3) = (   0.0000000   0.0691909   0.0000000), wk =   0.1111111
        k(    4) = (   0.0000000  -0.1037863   0.0000000), wk =   0.0555556
        k(    5) = (   0.0299605   0.0172977   0.0000000), wk =   0.1111111
        k(    6) = (   0.0299605   0.0518931   0.0000000), wk =   0.1111111
        k(    7) = (   0.0299605   0.0864886   0.0000000), wk =   0.1111111
        k(    8) = (   0.0299605  -0.0864886   0.0000000), wk =   0.1111111
        k(    9) = (   0.0299605  -0.0518931   0.0000000), wk =   0.1111111
        k(   10) = (   0.0299605  -0.0172977   0.0000000), wk =   0.1111111
        k(   11) = (   0.0599210   0.0345954   0.0000000), wk =   0.1111111
        k(   12) = (   0.0599210   0.0691909   0.0000000), wk =   0.1111111
        k(   13) = (   0.0599210   0.1037863   0.0000000), wk =   0.1111111
        k(   14) = (   0.0599210  -0.0691909   0.0000000), wk =   0.1111111
        k(   15) = (   0.0599210  -0.0345954   0.0000000), wk =   0.1111111
        k(   16) = (   0.0599210   0.0000000   0.0000000), wk =   0.1111111
        k(   17) = (  -0.0898816  -0.0518931   0.0000000), wk =   0.0555556
        k(   18) = (  -0.0898816  -0.0172977   0.0000000), wk =   0.1111111
        k(   19) = (  -0.0898816   0.0172977   0.0000000), wk =   0.1111111
        k(   20) = (  -0.0898816  -0.1556794   0.0000000), wk =   0.0555556

     Largest allocated arrays     est. size (Mb)     dimensions
     Largest temporary arrays     est. size (Mb)     dimensions

     Initial potential from superposition of free atoms
     Check: negative starting charge=   -0.548366

     starting charge   73.47778, renormalised to   75.00000

[...]

     *
     * You are using vdW-DF for exchange-correlation in this calculation.
     * Please cite the following three references that made this development
     * possible:
     *
     *   M. Dion, H. Rydberg, E. Schroder, D. C. Langreth, and
     *   B. I. Lundqvist, Phys. Rev. Lett. 92, 246401 (2004).
     *
     *   T. Thonhauser, V. R. Cooper, S. Li, A. Puzder, P. Hyldgaard, and
     *   D. C. Langreth, Phys. Rev. B 76, 125112 (2007).
     *
     *   G. Roman-Perez and J. M. Soler, Phys. Rev. Lett. 103, 096102 (2009).
     *
     *
     * If you are using vdW-DF2, please also cite:
     *
     *   K. Lee, E. D. Murray, L. Kong, B. I. Lundqvist, and
     *   D. C. Langreth, Phys. Rev. B 82, 081101(R) (2010).
     *
     *
     * If you are calculating the stress with vdW-DF, please also cite:
     *
     *   R. Sabatini, E. Kucukbenli, B. Kolb, T. Thonhauser, and
     *   S. de Gironcoli, J. Phys.: Condens. Matter 24, 424209 (2012).
     *

     Carrying out vdW-DF run using the following parameters:

     Nqs =      20    Nr_points =    1024   r_max =   100.000
     q_mesh =
               0.00001000     0.04494208     0.09755937     0.15916263
               0.23128650     0.31572767     0.41458969     0.53033537
               0.66584808     0.82450364     1.01025438     1.22772762
               1.48234092     1.78043706     2.12944203     2.53805004
               3.01644009     3.57652955     4.23227104     5.00000000

     Gradients computed in reciprocal space

[...]

     Starting wfc are   72 randomized atomic wfcs

     Self-consistent Calculation

[...]

     total energy              =    -699.28344319 Ry
     Harris-Foulkes estimate   =    -699.28344383 Ry
     estimated scf accuracy    <       0.00000344 Ry

     iteration # 14     ecut=    36.75 Ry     beta=0.10
     Davidson diagonalization with overlap
     ethr =  4.58E-09,  avg # of iterations =  2.3

[...]

     negative rho (up, down):  5.242E-01 0.000E+00

     Adding external electric field

     Computed dipole along edir(3) :
        Dipole                0.0471 Ry au,          0.1196 Debye
        Dipole field          0.0001 Ry au

        Potential amp.       -0.0120 Ry
        Total length         45.2183 bohr

     End of self-consistent calculation

[...]

          k = 0.0599 0.0000 0.0000 ( 16646 PWs)   bands (ev):

[...]

          k =-0.0899-0.1557 0.0000 ( 16692 PWs)   bands (ev):

   -53.3819 -53.3818 -53.3108 -53.1007 -53.1007 -52.9716 -52.9715 -52.9257
   -52.7527  -9.0725  -8.9708  -7.5447  -7.1369  -6.5195  -5.8614  -5.2930
    -5.2539  -5.1489  -4.7172  -4.5394  -4.2385  -4.0038  -3.8915  -3.8452
    -3.6756  -3.4231  -3.2368  -3.0668  -2.9306  -2.5634  -2.1724  -2.1187
    -1.9463  -1.6985  -0.6402  -0.3969  -0.3428   0.2953   1.3199   1.7499
     1.8482   2.0124   2.2916   2.3233   2.9543   2.9951   3.2831   3.4069
     3.8795   4.3429   4.6839   4.8794   4.9301   4.9752   5.1699   5.3830
     5.5435   5.6939   5.7084   6.0225   6.1753   6.2323   6.2813   6.3350
     6.4356   6.7268   6.9644

     the Fermi energy is     0.2144 ev

!    total energy              =    -699.28344445 Ry
     Harris-Foulkes estimate   =    -699.28344348 Ry
     estimated scf accuracy    <       0.00000082 Ry

     The total energy is the sum of the following terms:

     one-electron contribution =   -3312.59042157 Ry
     hartree contribution      =    1667.05490915 Ry
     xc contribution           =    -215.88419052 Ry
     ewald contribution        =    1162.15857130 Ry
     electric field correction =       0.00000627 Ry
     smearing contrib. (-TS)   =      -0.02231907 Ry

     convergence has been achieved in  14 iterations

 BEEF-vdW xc energy contributions
           1 :   -189.504564664088
           2 :    174.069071242776
           3 :   -147.553229889749
           4 :    116.426076186704
           5 :   -86.4976838692472
           6 :    61.2039704927772
           7 :   -41.5392205003422
           8 :    27.0494142732228
           9 :   -16.8555160427606
          10 :    10.0615089260934
          11 :   -5.68130566650146
          12 :    2.60874040274695
          13 :   7.102773976936305E-002
          14 :   -2.66173387358049
          15 :    4.77429056705350
          16 :   -5.75416619308976
          17 :    5.30239287585891
          18 :   -3.79241226843098
          19 :    2.05251348668168
          20 :  -0.844560207617519
          21 :   0.472869545721778
          22 :  -0.775942418835939
          23 :    1.39509504668951
          24 :   -2.03515441399463
          25 :    2.53386180432835
          26 :   -2.79232714286502
          27 :    2.72958228758492
          28 :   -2.34082491878564
          29 :    1.77678483271853
          30 :   -1.31410360489792
          31 :   -17.7303705769952
          32 :   -13.0756009953732

     Forces acting on atoms (Ry/au):

     negative rho (up, down):  5.242E-01 0.000E+00
     atom    1 type  1   force =    -0.00000005    0.00800541   -0.01303062
     atom    2 type  1   force =     0.00693287   -0.00400272   -0.01303059
     atom    3 type  1   force =    -0.00693288   -0.00400264   -0.01303058
     atom    4 type  2   force =     0.00000018   -0.00000015    0.02395946
     atom    5 type  1   force =    -0.00000002   -0.00558724    0.00474023
     atom    6 type  1   force =    -0.00483868    0.00279359    0.00474022
     atom    7 type  1   force =     0.00483861    0.00279364    0.00474027
     atom    8 type  2   force =    -0.00000011    0.00000015   -0.00000944
     atom    9 type  1   force =    -0.00000006   -0.00083725    0.00004286
     atom   10 type  1   force =    -0.00072504    0.00041861    0.00004283
     atom   11 type  1   force =     0.00072497    0.00041865    0.00004289
     atom   12 type  2   force =     0.00000021   -0.00000006    0.00079246

     Total force =     0.037941     Total SCF correction =     0.002474

     entering subroutine stress ...

     negative rho (up, down):  5.242E-01 0.000E+00
          total   stress  (Ry/bohr**3)                   (kbar)     P=  -21.67
  -0.00022670   0.00000000   0.00000000        -33.35      0.00      0.00
   0.00000000  -0.00022670   0.00000000          0.00    -33.35      0.00
   0.00000000   0.00000000   0.00001154          0.00      0.00      1.70

 !ASE

     Writing output data file calc.save

     General routines

     Parallel routines

   This run was terminated on:  18:47:21  19Dec2018

   JOB DONE.
Job  /afs/slac/g/suncat/bin/suncat-tsmpirun -x LD_LIBRARY_PATH -wdir /scratch/qe773292_I9bPJ pw.x -in pw.inp

TID   HOST_NAME   COMMAND_LINE            STATUS            TERMINATION_TIME
00000 suncat0137 pw.x -in pw.inp   Done                     12/19/2018 18:47:21
00001 suncat0137 pw.x -in pw.inp   Done                     12/19/2018 18:47:21
00002 suncat0137 pw.x -in pw.inp   Done                     12/19/2018 18:47:21
00003 suncat0137 pw.x -in pw.inp   Done                     12/19/2018 18:47:21
00004 suncat0137 pw.x -in pw.inp   Done                     12/19/2018 18:47:21
00005 suncat0137 pw.x -in pw.inp   Done                     12/19/2018 18:47:21
00006 suncat0137 pw.x -in pw.inp   Done                     12/19/2018 18:47:21
00007 suncat0137 pw.x -in pw.inp   Done                     12/19/2018 18:47:21
00008 suncat0136 pw.x -in pw.inp   Done                     12/19/2018 18:47:21
00009 suncat0136 pw.x -in pw.inp   Done                     12/19/2018 18:47:21
00010 suncat0136 pw.x -in pw.inp   Done                     12/19/2018 18:47:21
00011 suncat0136 pw.x -in pw.inp   Done                     12/19/2018 18:47:21
00012 suncat0136 pw.x -in pw.inp   Done                     12/19/2018 18:47:21
00013 suncat0136 pw.x -in pw.inp   Done                     12/19/2018 18:47:21
00014 suncat0136 pw.x -in pw.inp   Done                     12/19/2018 18:47:21
00015 suncat0136 pw.x -in pw.inp   Done                     12/19/2018 18:47:21
00016 suncat0135 pw.x -in pw.inp   Done                     12/19/2018 18:47:21
00017 suncat0135 pw.x -in pw.inp   Done                     12/19/2018 18:47:21
00018 suncat0135 pw.x -in pw.inp   Done                     12/19/2018 18:47:21
00019 suncat0135 pw.x -in pw.inp   Done                     12/19/2018 18:47:21
00020 suncat0135 pw.x -in pw.inp   Done                     12/19/2018 18:47:21
00021 suncat0135 pw.x -in pw.inp   Done                     12/19/2018 18:47:21
00022 suncat0135 pw.x -in pw.inp   Done                     12/19/2018 18:47:21
00023 suncat0135 pw.x -in pw.inp   Done                     12/19/2018 18:47:21
00024 suncat0134 pw.x -in pw.inp   Done                     12/19/2018 18:47:21
00025 suncat0134 pw.x -in pw.inp   Done                     12/19/2018 18:47:21
00026 suncat0134 pw.x -in pw.inp   Done                     12/19/2018 18:47:21
00027 suncat0134 pw.x -in pw.inp   Done                     12/19/2018 18:47:21
00028 suncat0134 pw.x -in pw.inp   Done                     12/19/2018 18:47:21
00029 suncat0134 pw.x -in pw.inp   Done                     12/19/2018 18:47:21
00030 suncat0134 pw.x -in pw.inp   Done                     12/19/2018 18:47:21
00031 suncat0134 pw.x -in pw.inp   Done                     12/19/2018 18:47:21
00032 suncat0133 pw.x -in pw.inp   Done                     12/19/2018 18:47:21
00033 suncat0133 pw.x -in pw.inp   Done                     12/19/2018 18:47:21
00034 suncat0133 pw.x -in pw.inp   Done                     12/19/2018 18:47:21
00035 suncat0133 pw.x -in pw.inp   Done                     12/19/2018 18:47:21
00036 suncat0133 pw.x -in pw.inp   Done                     12/19/2018 18:47:21
00037 suncat0133 pw.x -in pw.inp   Done                     12/19/2018 18:47:21
00038 suncat0133 pw.x -in pw.inp   Done                     12/19/2018 18:47:21
00039 suncat0133 pw.x -in pw.inp   Done                     12/19/2018 18:47:21
00040 suncat0132 pw.x -in pw.inp   Done                     12/19/2018 18:47:21
00041 suncat0132 pw.x -in pw.inp   Done                     12/19/2018 18:47:21
00042 suncat0132 pw.x -in pw.inp   Done                     12/19/2018 18:47:21
00043 suncat0132 pw.x -in pw.inp   Done                     12/19/2018 18:47:21
00044 suncat0132 pw.x -in pw.inp   Done                     12/19/2018 18:47:21
00045 suncat0132 pw.x -in pw.inp   Done                     12/19/2018 18:47:21
00046 suncat0132 pw.x -in pw.inp   Done                     12/19/2018 18:47:21
00047 suncat0132 pw.x -in pw.inp   Done                     12/19/2018 18:47:21
00048 suncat0131 pw.x -in pw.inp   Done                     12/19/2018 18:47:21
00049 suncat0131 pw.x -in pw.inp   Done                     12/19/2018 18:47:21
00050 suncat0131 pw.x -in pw.inp   Done                     12/19/2018 18:47:21
00051 suncat0131 pw.x -in pw.inp   Done                     12/19/2018 18:47:21
00052 suncat0131 pw.x -in pw.inp   Done                     12/19/2018 18:47:21
00053 suncat0131 pw.x -in pw.inp   Done                     12/19/2018 18:47:21
00054 suncat0131 pw.x -in pw.inp   Done                     12/19/2018 18:47:21
00055 suncat0131 pw.x -in pw.inp   Done                     12/19/2018 18:47:21
00056 suncat0130 pw.x -in pw.inp   Done                     12/19/2018 18:47:21
00057 suncat0130 pw.x -in pw.inp   Done                     12/19/2018 18:47:21
00058 suncat0130 pw.x -in pw.inp   Done                     12/19/2018 18:47:21
00059 suncat0130 pw.x -in pw.inp   Done                     12/19/2018 18:47:21
00060 suncat0130 pw.x -in pw.inp   Done                     12/19/2018 18:47:21
00061 suncat0130 pw.x -in pw.inp   Done                     12/19/2018 18:47:21
00062 suncat0130 pw.x -in pw.inp   Done                     12/19/2018 18:47:21
00063 suncat0130 pw.x -in pw.inp   Done                     12/19/2018 18:47:21