     Program PWSCF v.5.1rc2 (svn rev. 11289) starts on 30Dec2018 at 19:41:51

     Current dimensions of program PWSCF are:
     Max number of different atomic species (ntypx) = 10
     Max number of k-points (npk) =  40000
     Max angular momentum in pseudopotentials (lmaxx) =  3
     Presently stress not available with electric field

     IMPORTANT: XC functional enforced from input :
     Exchange-correlation      = BEEF-VDW ( 1  4 27 13 2)
     Any further DFT definition will be discarded
     Please, verify this is what you really want

     Subspace diagonalization in iterative solution of the eigenvalue problem:
     a serial algorithm will be used

     bravais-lattice index     =            0
     lattice parameter (alat)  =       1.8897  a.u.
     unit-cell volume          =    5051.2825 (a.u.)^3
     number of atoms/cell      =           12
     number of atomic types    =            2
     number of electrons       =       174.00
     number of Kohn-Sham states=          117
     kinetic-energy cutoff     =      36.7493  Ry
     charge density cutoff     =     367.4932  Ry
     convergence threshold     =      1.0E-06
     mixing beta               =       0.1000
     number of iterations used =           10  plain     mixing
     Exchange-correlation      = BEEF-VDW ( 1  4 27 13 2)
     nstep                     =           50

     celldm(1)=   1.889726  celldm(2)=   0.000000  celldm(3)=   0.000000
     celldm(4)=   0.000000  celldm(5)=   0.000000  celldm(6)=   0.000000

     crystal axes: (cart. coord. in units of alat)
               a(1) = (   5.901334   0.000000   0.000000 )
               a(2) = (  -2.950667   5.110705   0.000000 )
               a(3) = (   0.000000   0.000000  24.818419 )

     reciprocal axes: (cart. coord. in units 2 pi/alat)
               b(1) = (  0.169453  0.097834  0.000000 )
               b(2) = (  0.000000  0.195668  0.000000 )
               b(3) = (  0.000000  0.000000  0.040293 )

     PseudoPot. # 1 for Nb read from file:
     /afs/slac.stanford.edu/u/if/mamunm/psp/gbrv1.5pbe/Nb.UPF
     MD5 check sum: 573aab8a2fa660278ed4a62cd769473f
     Pseudo is Ultrasoft + core correction, Zval = 13.0
     Generated by new atomic code, or converted to UPF format
     Using radial grid of  887 points,  6 beta functions with:
                l(1) =   0
                l(2) =   0
                l(3) =   1
                l(4) =   1
                l(5) =   2
                l(6) =   2
     Q(r) pseudized with  6 coefficients,  rinner =    1.000   1.000   1.000
                                                       1.000   1.000

     PseudoPot. # 2 for Ag read from file:
     /afs/slac.stanford.edu/u/if/mamunm/psp/gbrv1.5pbe/Ag.UPF
     MD5 check sum: d66d668201baa78d5eb5b04ef7011058
     Pseudo is Ultrasoft + core correction, Zval = 19.0
     Generated by new atomic code, or converted to UPF format
     Using radial grid of  887 points,  6 beta functions with:
                l(1) =   0
                l(2) =   0
                l(3) =   1
                l(4) =   1
                l(5) =   2
                l(6) =   2
     Q(r) pseudized with  6 coefficients,  rinner =    1.300   1.300   1.300
                                                       1.300   1.300

     vdW kernel table read from file vdW_kernel_table
     MD5 check sum: 095c7af220d748ca6e76c0b4c6cfb241

     atomic species   valence    mass     pseudopotential
        Nb1           13.00    92.90637     Nb( 1.00)
        Ag1           19.00   107.86820     Ag( 1.00)

     No symmetry found

   Cartesian axes

     site n.     atom                  positions (alat units)
         1           Nb1 tau(   1) = (   0.0000000   0.0000000  10.0000000  )
         2           Nb1 tau(   2) = (  -1.4753334   2.5553524  10.0000000  )
         3           Nb1 tau(   3) = (   1.4753334   2.5553524  10.0000000  )
         4           Ag1 tau(   4) = (   2.9506668   0.0000000  10.0000000  )
         5           Nb1 tau(   5) = (   2.9506668   1.7035683  12.4092093  )
         6           Nb1 tau(   6) = (   1.4753334   4.2589206  12.4092093  )
         7           Nb1 tau(   7) = (  -1.4753334   4.2589206  12.4092093  )
         8           Ag1 tau(   8) = (   0.0000000   1.7035683  12.4092093  )
         9           Nb1 tau(   9) = (  -0.0000000   3.4071365  14.8184186  )
        10           Nb1 tau(  10) = (   1.4753334   0.8517841  14.8184186  )
        11           Nb1 tau(  11) = (   4.4260001   0.8517841  14.8184186  )
        12           Ag1 tau(  12) = (   2.9506668   3.4071365  14.8184186  )

     number of k points=    20  Fermi-Dirac smearing, width (Ry)=  0.0110
                       cart. coord. in units 2pi/alat
        k(    1) = (   0.0000000   0.0000000   0.0000000), wk =   0.0555556
        k(    2) = (   0.0000000   0.0326113   0.0000000), wk =   0.1111111
        k(    3) = (   0.0000000   0.0652226   0.0000000), wk =   0.1111111
        k(    4) = (   0.0000000  -0.0978339   0.0000000), wk =   0.0555556
        k(    5) = (   0.0282422   0.0163056   0.0000000), wk =   0.1111111
        k(    6) = (   0.0282422   0.0489169   0.0000000), wk =   0.1111111
        k(    7) = (   0.0282422   0.0815282   0.0000000), wk =   0.1111111
        k(    8) = (   0.0282422  -0.0815282   0.0000000), wk =   0.1111111
        k(    9) = (   0.0282422  -0.0489169   0.0000000), wk =   0.1111111
        k(   10) = (   0.0282422  -0.0163056   0.0000000), wk =   0.1111111
        k(   11) = (   0.0564844   0.0326113   0.0000000), wk =   0.1111111
        k(   12) = (   0.0564844   0.0652226   0.0000000), wk =   0.1111111
        k(   13) = (   0.0564844   0.0978339   0.0000000), wk =   0.1111111
        k(   14) = (   0.0564844  -0.0652226   0.0000000), wk =   0.1111111
        k(   15) = (   0.0564844  -0.0326113   0.0000000), wk =   0.1111111
        k(   16) = (   0.0564844   0.0000000   0.0000000), wk =   0.1111111
        k(   17) = (  -0.0847266  -0.0489169   0.0000000), wk =   0.0555556
        k(   18) = (  -0.0847266  -0.0163056   0.0000000), wk =   0.1111111
        k(   19) = (  -0.0847266   0.0163056   0.0000000), wk =   0.1111111
        k(   20) = (  -0.0847266  -0.1467508   0.0000000), wk =   0.0555556

     Largest allocated arrays     est. size (Mb)     dimensions
     Largest temporary arrays     est. size (Mb)     dimensions

     Initial potential from superposition of free atoms
     Check: negative starting charge=   -0.004856

     starting charge  172.47526, renormalised to  174.00000

     negative rho (up, down):  4.899E-03 0.000E+00

     *
     * You are using vdW-DF for exchange-correlation in this calculation.
     * Please cite the following three references that made this development
     * possible:
     *
     *   M. Dion, H. Rydberg, E. Schroder, D. C. Langreth, and
     *   B. I. Lundqvist, Phys. Rev. Lett. 92, 246401 (2004).
     *
     *   T. Thonhauser, V. R. Cooper, S. Li, A. Puzder, P. Hyldgaard, and
     *   D. C. Langreth, Phys. Rev. B 76, 125112 (2007).
     *
     *   G. Roman-Perez and J. M. Soler, Phys. Rev. Lett. 103, 096102 (2009).
     *
     *
     * If you are using vdW-DF2, please also cite:
     *
     *   K. Lee, E. D. Murray, L. Kong, B. I. Lundqvist, and
     *   D. C. Langreth, Phys. Rev. B 82, 081101(R) (2010).
     *
     *
     * If you are calculating the stress with vdW-DF, please also cite:
     *
     *   R. Sabatini, E. Kucukbenli, B. Kolb, T. Thonhauser, and
     *   S. de Gironcoli, J. Phys.: Condens. Matter 24, 424209 (2012).
     *

     Carrying out vdW-DF run using the following parameters:

     Nqs =      20    Nr_points =    1024   r_max =   100.000
     q_mesh =
               0.00001000     0.04494208     0.09755937     0.15916263
               0.23128650     0.31572767     0.41458969     0.53033537
               0.66584808     0.82450364     1.01025438     1.22772762
               1.48234092     1.78043706     2.12944203     2.53805004
               3.01644009     3.57652955     4.23227104     5.00000000

     Gradients computed in reciprocal space

     Adding external electric field

     Computed dipole along edir(3) :
        Dipole               -0.0000 Ry au,         -0.0000 Debye
        Dipole field         -0.0000 Ry au

        Potential amp.        0.0000 Ry
        Total length         45.7275 bohr

     Starting wfc are  156 randomized atomic wfcs

     Self-consistent Calculation

     iteration #  1     ecut=    36.75 Ry     beta=0.10
     Davidson diagonalization with overlap
     ethr =  1.00E-02,  avg # of iterations =  2.0

[...]

     total energy              =   -1956.48228351 Ry
     Harris-Foulkes estimate   =   -1957.10694413 Ry
     estimated scf accuracy    <       3.97030014 Ry

[...]

     End of self-consistent calculation

          k = 0.0000 0.0000 0.0000 ( 19027 PWs)   bands (ev):

   -90.5802 -90.5312 -90.5311 -54.0472 -54.0472 -54.0393 -54.0187 -54.0187
   -54.0185 -54.0185 -53.9628 -53.9617 -53.2342 -53.2198 -53.1198 -53.1198
   -53.1163 -53.1163 -53.0333 -52.9378 -52.9378 -29.6889 -29.6016 -29.5353
   -29.4676 -29.4539 -29.4539 -29.4123 -29.4123 -29.3674 -29.3674 -29.3212
   -29.2113 -29.2112 -29.0828 -29.0828 -28.9927 -28.9484 -28.8339 -28.8309
   -28.8309 -28.7459 -28.7459 -28.7392 -28.7392 -28.7314 -28.6311 -28.6311
    -4.0538  -3.5338  -3.5338  -3.3991  -3.3701  -3.3701  -3.3177  -3.2620
    -3.2620  -3.2341  -3.2341  -3.1850  -2.8284  -2.8284  -2.7070  -2.7070
    -2.2126  -2.1256  -1.7927  -1.0546  -0.5869   0.0804   0.1042   0.3150
     0.3150   0.5261   0.5261   0.7581   0.7581   1.0352   1.0352   1.4061
     1.4320   1.4320   1.6236   1.6659   1.6659   2.2562   2.2562   2.4098
     2.4329   2.6531   2.8618   2.8618   2.9121   3.7566   3.7566   3.8478
     4.1414   4.1415   4.1417   4.3864   4.3864   4.4389   4.4389   4.6021
     4.6021   4.8752   4.8752   5.1608   5.1608   5.4048   5.4048   5.4924
     5.5852   5.7489   5.8599   6.0293   6.1596

[...]

          k =-0.0847-0.0489 0.0000 ( 19012 PWs)   bands (ev):

[...]

     the Fermi energy is     1.9474 ev

!    total energy              =   -1956.41500341 Ry
     Harris-Foulkes estimate   =   -1956.41500326 Ry
     estimated scf accuracy    <       0.00000075 Ry

     The total energy is the sum of the following terms:

     one-electron contribution =  -14905.61895643 Ry
     hartree contribution      =    7444.86965751 Ry
     xc contribution           =    -261.23496208 Ry
     ewald contribution        =    5765.66395682 Ry
     electric field correction =       0.00000001 Ry
     smearing contrib. (-TS)   =      -0.09469922 Ry

     convergence has been achieved in  16 iterations

 BEEF-vdW xc energy contributions
           1 :   -224.883836143637
           2 :    204.470987771755
           3 :   -169.736652486327
           4 :    130.183186341231
           5 :   -94.9769397929324
           6 :    69.7955453626179
           7 :   -55.5710363971110
           8 :    49.3155254515112
           9 :   -46.3239364115184
          10 :    42.5355272637587
          11 :   -36.0421617230016
          12 :    27.2807726219035
          13 :   -18.1386896539886
          14 :    10.6104232649030
[...]
     /afs/slac.stanford.edu/u/if/mamunm/psp/gbrv1.5pbe/Nb.UPF
     MD5 check sum: 573aab8a2fa660278ed4a62cd769473f
     Pseudo is Ultrasoft + core correction, Zval = 13.0
     Generated by new atomic code, or converted to UPF format
     Using radial grid of  887 points,  6 beta functions with:
                l(1) =   0
                l(2) =   0
                l(3) =   1
                l(4) =   1
                l(5) =   2
                l(6) =   2
     Q(r) pseudized with  6 coefficients,  rinner =    1.000   1.000   1.000
                                                       1.000   1.000

     PseudoPot. # 2 for Ag read from file:
     /afs/slac.stanford.edu/u/if/mamunm/psp/gbrv1.5pbe/Ag.UPF
     MD5 check sum: d66d668201baa78d5eb5b04ef7011058
     Pseudo is Ultrasoft + core correction, Zval = 19.0
     Generated by new atomic code, or converted to UPF format
     Using radial grid of  887 points,  6 beta functions with:
                l(1) =   0
                l(2) =   0
                l(3) =   1
                l(4) =   1
                l(5) =   2
                l(6) =   2
     Q(r) pseudized with  6 coefficients,  rinner =    1.300   1.300   1.300
                                                       1.300   1.300

     vdW kernel table read from file vdW_kernel_table
     MD5 check sum: 095c7af220d748ca6e76c0b4c6cfb241

     atomic species   valence    mass     pseudopotential
        Nb1           13.00    92.90637     Nb( 1.00)
        Ag1           19.00   107.86820     Ag( 1.00)

     No symmetry found

   Cartesian axes

     site n.     atom                  positions (alat units)
         1           Nb1 tau(   1) = (   0.0000000   0.0000000  10.0000000  )
         2           Nb1 tau(   2) = (  -1.4753334   2.5553524  10.0000000  )
         3           Nb1 tau(   3) = (   1.4753334   2.5553524  10.0000000  )
         4           Ag1 tau(   4) = (   2.9506668   0.0000000  10.0000000  )
         5           Nb1 tau(   5) = (   2.9506668   1.7035683  12.4092093  )
         6           Nb1 tau(   6) = (   1.4753334   4.2589206  12.4092093  )
         7           Nb1 tau(   7) = (  -1.4753334   4.2589206  12.4092093  )
         8           Ag1 tau(   8) = (   0.0000000   1.7035683  12.4092093  )
         9           Nb1 tau(   9) = (   0.0000001   3.3972904  14.6802959  )
        10           Nb1 tau(  10) = (   1.4668100   0.8566954  14.6802933  )
        11           Nb1 tau(  11) = (   4.4345244   0.8566965  14.6802935  )
        12           Ag1 tau(  12) = (   2.9506673   3.4071259  14.9463327  )

     number of k points=    20  Fermi-Dirac smearing, width (Ry)=  0.0110
                       cart. coord. in units 2pi/alat
        k(    1) = (   0.0000000   0.0000000   0.0000000), wk =   0.0555556
        k(    2) = (   0.0000000   0.0326113   0.0000000), wk =   0.1111111
        k(    3) = (   0.0000000   0.0652226   0.0000000), wk =   0.1111111
        k(    4) = (   0.0000000  -0.0978339   0.0000000), wk =   0.0555556
        k(    5) = (   0.0282422   0.0163056   0.0000000), wk =   0.1111111
        k(    6) = (   0.0282422   0.0489169   0.0000000), wk =   0.1111111
        k(    7) = (   0.0282422   0.0815282   0.0000000), wk =   0.1111111
        k(    8) = (   0.0282422  -0.0815282   0.0000000), wk =   0.1111111
        k(    9) = (   0.0282422  -0.0489169   0.0000000), wk =   0.1111111
        k(   10) = (   0.0282422  -0.0163056   0.0000000), wk =   0.1111111
        k(   11) = (   0.0564844   0.0326113   0.0000000), wk =   0.1111111
        k(   12) = (   0.0564844   0.0652226   0.0000000), wk =   0.1111111
        k(   13) = (   0.0564844   0.0978339   0.0000000), wk =   0.1111111
        k(   14) = (   0.0564844  -0.0652226   0.0000000), wk =   0.1111111
        k(   15) = (   0.0564844  -0.0326113   0.0000000), wk =   0.1111111
        k(   16) = (   0.0564844   0.0000000   0.0000000), wk =   0.1111111
        k(   17) = (  -0.0847266  -0.0489169   0.0000000), wk =   0.0555556
        k(   18) = (  -0.0847266  -0.0163056   0.0000000), wk =   0.1111111
        k(   19) = (  -0.0847266   0.0163056   0.0000000), wk =   0.1111111
        k(   20) = (  -0.0847266  -0.1467508   0.0000000), wk =   0.0555556

     Largest allocated arrays     est. size (Mb)     dimensions
     Largest temporary arrays     est. size (Mb)     dimensions

     Initial potential from superposition of free atoms
     Check: negative starting charge=   -0.004793

     starting charge  172.47526, renormalised to  174.00000

[...]

     *
     * You are using vdW-DF for exchange-correlation in this calculation.
     * Please cite the following three references that made this development
     * possible:
     *
     *   M. Dion, H. Rydberg, E. Schroder, D. C. Langreth, and
     *   B. I. Lundqvist, Phys. Rev. Lett. 92, 246401 (2004).
     *
     *   T. Thonhauser, V. R. Cooper, S. Li, A. Puzder, P. Hyldgaard, and
     *   D. C. Langreth, Phys. Rev. B 76, 125112 (2007).
     *
     *   G. Roman-Perez and J. M. Soler, Phys. Rev. Lett. 103, 096102 (2009).
     *
     *
     * If you are using vdW-DF2, please also cite:
     *
     *   K. Lee, E. D. Murray, L. Kong, B. I. Lundqvist, and
     *   D. C. Langreth, Phys. Rev. B 82, 081101(R) (2010).
     *
     *
     * If you are calculating the stress with vdW-DF, please also cite:
     *
     *   R. Sabatini, E. Kucukbenli, B. Kolb, T. Thonhauser, and
     *   S. de Gironcoli, J. Phys.: Condens. Matter 24, 424209 (2012).
     *

     Carrying out vdW-DF run using the following parameters:

     Nqs =      20    Nr_points =    1024   r_max =   100.000
     q_mesh =
               0.00001000     0.04494208     0.09755937     0.15916263
               0.23128650     0.31572767     0.41458969     0.53033537
               0.66584808     0.82450364     1.01025438     1.22772762
               1.48234092     1.78043706     2.12944203     2.53805004
               3.01644009     3.57652955     4.23227104     5.00000000

     Gradients computed in reciprocal space

[...]

     Starting wfc are  156 randomized atomic wfcs

     Self-consistent Calculation

[...]

     total energy              =   -1956.42917665 Ry
     Harris-Foulkes estimate   =   -1956.42917499 Ry
     estimated scf accuracy    <       0.00000246 Ry

     iteration # 16     ecut=    36.75 Ry     beta=0.10
     Davidson diagonalization with overlap
     ethr =  1.41E-09,  avg # of iterations =  2.9

[...]

     negative rho (up, down):  4.384E-03 0.000E+00

     Adding external electric field

     Computed dipole along edir(3) :
        Dipole               -0.0070 Ry au,         -0.0178 Debye
        Dipole field         -0.0000 Ry au

        Potential amp.        0.0016 Ry
        Total length         45.7275 bohr

     End of self-consistent calculation

[...]

          k = 0.0565 0.0000 0.0000 ( 19015 PWs)   bands (ev):

[...]

          k =-0.0847-0.1468 0.0000 ( 19012 PWs)   bands (ev):

   -90.7281 -90.5691 -90.4099 -54.2083 -54.1891 -54.1882 -54.0579 -54.0566
   -54.0002 -53.9151 -53.9138 -53.8141 -53.2329 -53.1999 -53.1623 -53.1496
   -53.1150 -53.0735 -52.9770 -52.9516 -52.9199 -29.5680 -29.5542 -29.4839
   -29.4290 -29.3845 -29.3742 -29.3273 -29.3000 -29.2678 -29.2609 -29.2347
   -29.1983 -29.1780 -29.1652 -29.1511 -29.1292 -29.1017 -29.0575 -28.9225
   -28.9065 -28.8981 -28.8189 -28.7508 -28.7485 -28.7351 -28.7080 -28.6256
    -3.4203  -3.3476  -3.2912  -3.2540  -3.1983  -3.1687  -3.0462  -3.0076
    -2.9892  -2.9177  -2.8857  -2.8075  -2.7902  -2.6812  -2.6183  -2.1682
    -2.1429  -1.2479  -1.2093  -0.9565  -0.8237  -0.4491  -0.0386   0.1557
     0.1804   0.5155   0.6002   0.6516   0.7426   0.7459   0.9857   1.0904
     1.1549   1.2092   1.3565   1.3767   1.4937   1.5456   1.6753   1.7099
     1.9852   2.0716   2.3299   2.3740   2.4068   2.5587   2.6352   2.6665
     3.2019   3.5146   3.5669   3.7695   3.9449   3.9539   3.9847   4.0549
     4.1530   4.2226   4.3203   4.4542   4.8240   4.8389   5.3374   5.3681
     5.4453   5.5615   6.0399   6.3440   6.4566

     the Fermi energy is     1.9123 ev

!    total energy              =   -1956.42917708 Ry
     Harris-Foulkes estimate   =   -1956.42917723 Ry
     estimated scf accuracy    <       0.00000089 Ry

     The total energy is the sum of the following terms:

     one-electron contribution =  -15009.35487106 Ry
     hartree contribution      =    7496.67260236 Ry
     xc contribution           =    -261.40333883 Ry
     ewald contribution        =    5817.74784514 Ry
     electric field correction =       0.00000012 Ry
     smearing contrib. (-TS)   =      -0.09141481 Ry

     convergence has been achieved in  16 iterations

 BEEF-vdW xc energy contributions
           1 :   -225.111061302689
           2 :    204.740982120173
           3 :   -170.060926767593
           4 :    130.526734805706
           5 :   -95.2693090927987
           6 :    69.9676024070377
           7 :   -55.5968427151849
           8 :    49.2329354100347
           9 :   -46.2182575271174
          10 :    42.4958418575231
          11 :   -36.1149063390841
          12 :    27.4458434942931
          13 :   -18.3218013922557
          14 :    10.7246279054760
          15 :   -5.72475405895534
          16 :    3.11363931657647
          17 :   -1.77400610691097
          18 :   0.449893310859011
          19 :    1.55135174304598
          20 :   -4.09048568857452
          21 :    6.42618874186735
          22 :   -7.73877160620930
          23 :    7.61096456182321
          24 :   -6.21978887880923
          25 :    4.18477203994576
          26 :   -2.21566043333357
          27 :   0.774174709640306
          28 :   7.676347692006402E-002
          29 :  -0.594375998836369
          30 :    1.12662425424389
          31 :   -24.6966174867769
          32 :   -18.5017022617405

     Forces acting on atoms (Ry/au):

     negative rho (up, down):  4.384E-03 0.000E+00
     atom    1 type  1   force =    -0.00000032    0.00295454    0.02088445
     atom    2 type  1   force =     0.00255768   -0.00147640    0.02088572
     atom    3 type  1   force =    -0.00255872   -0.00147652    0.02088477
     atom    4 type  2   force =    -0.00000030    0.00000052   -0.01992361
     atom    5 type  1   force =     0.00000116    0.00996246   -0.00361166
     atom    6 type  1   force =     0.00862647   -0.00498058   -0.00360946
     atom    7 type  1   force =    -0.00862706   -0.00498256   -0.00361193
     atom    8 type  2   force =     0.00000338   -0.00000261   -0.03200628
     atom    9 type  1   force =    -0.00000044    0.00101186   -0.00053927
     atom   10 type  1   force =     0.00087610   -0.00050589   -0.00053893
     atom   11 type  1   force =    -0.00087701   -0.00050583   -0.00053933
     atom   12 type  2   force =    -0.00000094    0.00000100    0.00172552

     Total force =     0.055676     Total SCF correction =     0.004104

     entering subroutine stress ...

     negative rho (up, down):  4.384E-03 0.000E+00
          total   stress  (Ry/bohr**3)                   (kbar)     P=  -11.57
  -0.00009634   0.00000000   0.00000000        -14.17      0.00      0.00
   0.00000000  -0.00009634  -0.00000000          0.00    -14.17     -0.00
   0.00000000  -0.00000000  -0.00004326          0.00     -0.00     -6.36

 !ASE

     Writing output data file calc.save

     General routines

     Parallel routines

   This run was terminated on:  20:40:18  30Dec2018

   JOB DONE.
Job  /afs/slac/g/suncat/bin/suncat-tsmpirun -x LD_LIBRARY_PATH -wdir /scratch/qe648613_8Gtpz pw.x -in pw.inp

TID   HOST_NAME   COMMAND_LINE            STATUS            TERMINATION_TIME
00000 suncat0056 pw.x -in pw.inp   Done                     12/30/2018 20:40:18
00001 suncat0056 pw.x -in pw.inp   Done                     12/30/2018 20:40:18
00002 suncat0056 pw.x -in pw.inp   Done                     12/30/2018 20:40:18
00003 suncat0056 pw.x -in pw.inp   Done                     12/30/2018 20:40:18
00004 suncat0056 pw.x -in pw.inp   Done                     12/30/2018 20:40:18
00005 suncat0056 pw.x -in pw.inp   Done                     12/30/2018 20:40:18
00006 suncat0056 pw.x -in pw.inp   Done                     12/30/2018 20:40:18
00007 suncat0056 pw.x -in pw.inp   Done                     12/30/2018 20:40:18
00008 suncat0052 pw.x -in pw.inp   Done                     12/30/2018 20:40:18
00009 suncat0052 pw.x -in pw.inp   Done                     12/30/2018 20:40:18
00010 suncat0052 pw.x -in pw.inp   Done                     12/30/2018 20:40:18
00011 suncat0052 pw.x -in pw.inp   Done                     12/30/2018 20:40:18
00012 suncat0052 pw.x -in pw.inp   Done                     12/30/2018 20:40:18
00013 suncat0052 pw.x -in pw.inp   Done                     12/30/2018 20:40:18
00014 suncat0052 pw.x -in pw.inp   Done                     12/30/2018 20:40:18
00015 suncat0052 pw.x -in pw.inp   Done                     12/30/2018 20:40:18
00016 suncat0048 pw.x -in pw.inp   Done                     12/30/2018 20:40:18
00017 suncat0048 pw.x -in pw.inp   Done                     12/30/2018 20:40:18
00018 suncat0048 pw.x -in pw.inp   Done                     12/30/2018 20:40:18
00019 suncat0048 pw.x -in pw.inp   Done                     12/30/2018 20:40:18
00020 suncat0048 pw.x -in pw.inp   Done                     12/30/2018 20:40:18
00021 suncat0048 pw.x -in pw.inp   Done                     12/30/2018 20:40:18
00022 suncat0048 pw.x -in pw.inp   Done                     12/30/2018 20:40:18
00023 suncat0048 pw.x -in pw.inp   Done                     12/30/2018 20:40:18
00024 suncat0047 pw.x -in pw.inp   Done                     12/30/2018 20:40:18
00025 suncat0047 pw.x -in pw.inp   Done                     12/30/2018 20:40:18
00026 suncat0047 pw.x -in pw.inp   Done                     12/30/2018 20:40:18
00027 suncat0047 pw.x -in pw.inp   Done                     12/30/2018 20:40:18
00028 suncat0047 pw.x -in pw.inp   Done                     12/30/2018 20:40:18
00029 suncat0047 pw.x -in pw.inp   Done                     12/30/2018 20:40:18
00030 suncat0047 pw.x -in pw.inp   Done                     12/30/2018 20:40:18
00031 suncat0047 pw.x -in pw.inp   Done                     12/30/2018 20:40:18
00032 suncat0041 pw.x -in pw.inp   Done                     12/30/2018 20:40:18
00033 suncat0041 pw.x -in pw.inp   Done                     12/30/2018 20:40:18
00034 suncat0041 pw.x -in pw.inp   Done                     12/30/2018 20:40:18
00035 suncat0041 pw.x -in pw.inp   Done                     12/30/2018 20:40:18
00036 suncat0041 pw.x -in pw.inp   Done                     12/30/2018 20:40:18
00037 suncat0041 pw.x -in pw.inp   Done                     12/30/2018 20:40:18
00038 suncat0041 pw.x -in pw.inp   Done                     12/30/2018 20:40:18
00039 suncat0041 pw.x -in pw.inp   Done                     12/30/2018 20:40:18
00040 suncat0039 pw.x -in pw.inp   Done                     12/30/2018 20:40:18
00041 suncat0039 pw.x -in pw.inp   Done                     12/30/2018 20:40:18
00042 suncat0039 pw.x -in pw.inp   Done                     12/30/2018 20:40:18
00043 suncat0039 pw.x -in pw.inp   Done                     12/30/2018 20:40:18
00044 suncat0039 pw.x -in pw.inp   Done                     12/30/2018 20:40:18
00045 suncat0039 pw.x -in pw.inp   Done                     12/30/2018 20:40:18
00046 suncat0039 pw.x -in pw.inp   Done                     12/30/2018 20:40:18
00047 suncat0039 pw.x -in pw.inp   Done                     12/30/2018 20:40:18
00048 suncat0207 pw.x -in pw.inp   Done                     12/30/2018 20:40:18
00049 suncat0207 pw.x -in pw.inp   Done                     12/30/2018 20:40:18
00050 suncat0207 pw.x -in pw.inp   Done                     12/30/2018 20:40:18
00051 suncat0207 pw.x -in pw.inp   Done                     12/30/2018 20:40:18
00052 suncat0207 pw.x -in pw.inp   Done                     12/30/2018 20:40:18
00053 suncat0207 pw.x -in pw.inp   Done                     12/30/2018 20:40:18
00054 suncat0207 pw.x -in pw.inp   Done                     12/30/2018 20:40:18
00055 suncat0207 pw.x -in pw.inp   Done                     12/30/2018 20:40:18
00056 suncat0206 pw.x -in pw.inp   Done                     12/30/2018 20:40:18
00057 suncat0206 pw.x -in pw.inp   Done                     12/30/2018 20:40:18
00058 suncat0206 pw.x -in pw.inp   Done                     12/30/2018 20:40:18
00059 suncat0206 pw.x -in pw.inp   Done                     12/30/2018 20:40:18
00060 suncat0206 pw.x -in pw.inp   Done                     12/30/2018 20:40:18
00061 suncat0206 pw.x -in pw.inp   Done                     12/30/2018 20:40:18
00062 suncat0206 pw.x -in pw.inp   Done                     12/30/2018 20:40:18
00063 suncat0206 pw.x -in pw.inp   Done                     12/30/2018 20:40:18