     Program PWSCF v.5.1rc2 (svn rev. 11289) starts on 25Dec2018 at 10:25:46

     Current dimensions of program PWSCF are:
     Max number of different atomic species (ntypx) = 10
     Max number of k-points (npk) =  40000
     Max angular momentum in pseudopotentials (lmaxx) =  3
     Presently stress not available with electric field

     IMPORTANT: XC functional enforced from input :
     Exchange-correlation      = BEEF-VDW ( 1  4 27 13 2)
     Any further DFT definition will be discarded
     Please, verify this is what you really want

     Subspace diagonalization in iterative solution of the eigenvalue problem:
     a serial algorithm will be used

     bravais-lattice index     =            0
     lattice parameter (alat)  =       1.8897  a.u.
     unit-cell volume          =    4174.9097 (a.u.)^3
     number of atoms/cell      =           12
     number of atomic types    =            2
     number of electrons       =       165.00
     number of Kohn-Sham states=          112
     kinetic-energy cutoff     =      36.7493  Ry
     charge density cutoff     =     367.4932  Ry
     convergence threshold     =      1.0E-06
     mixing beta               =       0.1000
     number of iterations used =           10  plain     mixing
     Exchange-correlation      = BEEF-VDW ( 1  4 27 13 2)
     nstep                     =           50

     celldm(1)=   1.889726  celldm(2)=   0.000000  celldm(3)=   0.000000
     celldm(4)=   0.000000  celldm(5)=   0.000000  celldm(6)=   0.000000

     crystal axes: (cart. coord. in units of alat)
               a(1) = (   5.409021   0.000000   0.000000 )
               a(2) = (  -2.704511   4.684350   0.000000 )
               a(3) = (   0.000000   0.000000  24.416447 )

     reciprocal axes: (cart. coord. in units 2 pi/alat)
               b(1) = (  0.184876  0.106738  0.000000 )
               b(2) = (  0.000000  0.213477  0.000000 )
               b(3) = (  0.000000  0.000000  0.040956 )

     PseudoPot. # 1 for Cr read from file:
     /afs/slac.stanford.edu/u/if/mamunm/psp/gbrv1.5pbe/Cr.UPF
     MD5 check sum: 0d52af634a40206e4dee301ad30da4bf
     Pseudo is Ultrasoft + core correction, Zval = 14.0
     Generated by new atomic code, or converted to UPF format
     Using radial grid of  857 points,  6 beta functions with:
                l(1) =   0
                l(2) =   0
                l(3) =   1
                l(4) =   1
                l(5) =   2
                l(6) =   2
     Q(r) pseudized with  8 coefficients,  rinner =    0.950   0.950   0.950
                                                       0.950   0.950

     PseudoPot. # 2 for In read from file:
     /afs/slac.stanford.edu/u/if/mamunm/psp/gbrv1.5pbe/In.UPF
     MD5 check sum: 90777abd96fbb83f2e67db2a40c566b9
     Pseudo is Ultrasoft + core correction, Zval = 13.0
     Generated by new atomic code, or converted to UPF format
     Using radial grid of  889 points,  6 beta functions with:
                l(1) =   0
                l(2) =   0
                l(3) =   1
                l(4) =   1
                l(5) =   2
                l(6) =   2
     Q(r) pseudized with  6 coefficients,  rinner =    1.400   1.400   1.400
                                                       1.400   1.400

     vdW kernel table read from file vdW_kernel_table
     MD5 check sum: 095c7af220d748ca6e76c0b4c6cfb241

     atomic species   valence    mass     pseudopotential
        Cr1           14.00    51.99610     Cr( 1.00)
        In1           13.00   114.81800     In( 1.00)

     No symmetry found

   Cartesian axes

     site n.     atom                  positions (alat units)
         1           Cr1 tau(   1) = (   0.0000000   0.0000000  10.0000000  )
         2           Cr1 tau(   2) = (  -1.3522553   2.3421749  10.0000000  )
         3           Cr1 tau(   3) = (   1.3522553   2.3421749  10.0000000  )
         4           In1 tau(   4) = (   2.7045106   0.0000000  10.0000000  )
         5           Cr1 tau(   5) = (   2.7045106   1.5614499  12.2082237  )
         6           Cr1 tau(   6) = (   1.3522553   3.9036249  12.2082237  )
         7           Cr1 tau(   7) = (  -1.3522553   3.9036249  12.2082237  )
         8           In1 tau(   8) = (   0.0000000   1.5614499  12.2082237  )
         9           Cr1 tau(   9) = (  -0.0000000   3.1228999  14.4164474  )
        10           Cr1 tau(  10) = (   1.3522553   0.7807250  14.4164474  )
        11           Cr1 tau(  11) = (   4.0567660   0.7807250  14.4164474  )
        12           In1 tau(  12) = (   2.7045106   3.1228999  14.4164474  )

     number of k points=    20  Fermi-Dirac smearing, width (Ry)=  0.0110
                       cart. coord. in units 2pi/alat
        k(    1) = (   0.0000000   0.0000000   0.0000000), wk =   0.0555556
        k(    2) = (   0.0000000   0.0355795   0.0000000), wk =   0.1111111
        k(    3) = (   0.0000000   0.0711589   0.0000000), wk =   0.1111111
        k(    4) = (   0.0000000  -0.1067384   0.0000000), wk =   0.0555556
        k(    5) = (   0.0308127   0.0177897   0.0000000), wk =   0.1111111
        k(    6) = (   0.0308127   0.0533692   0.0000000), wk =   0.1111111
        k(    7) = (   0.0308127   0.0889487   0.0000000), wk =   0.1111111
        k(    8) = (   0.0308127  -0.0889487   0.0000000), wk =   0.1111111
        k(    9) = (   0.0308127  -0.0533692   0.0000000), wk =   0.1111111
        k(   10) = (   0.0308127  -0.0177897   0.0000000), wk =   0.1111111
        k(   11) = (   0.0616254   0.0355795   0.0000000), wk =   0.1111111
        k(   12) = (   0.0616254   0.0711589   0.0000000), wk =   0.1111111
        k(   13) = (   0.0616254   0.1067384   0.0000000), wk =   0.1111111
        k(   14) = (   0.0616254  -0.0711589   0.0000000), wk =   0.1111111
        k(   15) = (   0.0616254  -0.0355795   0.0000000), wk =   0.1111111
        k(   16) = (   0.0616254   0.0000000   0.0000000), wk =   0.1111111
        k(   17) = (  -0.0924382  -0.0533692   0.0000000), wk =   0.0555556
        k(   18) = (  -0.0924382  -0.0177897   0.0000000), wk =   0.1111111
        k(   19) = (  -0.0924382   0.0177897   0.0000000), wk =   0.1111111
        k(   20) = (  -0.0924382  -0.1601076   0.0000000), wk =   0.0555556

     Largest allocated arrays     est. size (Mb)     dimensions
     Largest temporary arrays     est. size (Mb)     dimensions

     Check: negative/imaginary core charge=   -0.000003    0.000000

     Initial potential from superposition of free atoms
     Check: negative starting charge=   -0.012304

     starting charge  151.49986, renormalised to  165.00000

     negative rho (up, down):  1.340E-02 0.000E+00

     *
     * You are using vdW-DF for exchange-correlation in this calculation.
     * Please cite the following three references that made this development
     * possible:
     *
     *   M. Dion, H. Rydberg, E. Schroder, D. C. Langreth, and
     *   B. I. Lundqvist, Phys. Rev. Lett. 92, 246401 (2004).
     *
     *   T. Thonhauser, V. R. Cooper, S. Li, A. Puzder, P. Hyldgaard, and
     *   D. C. Langreth, Phys. Rev. B 76, 125112 (2007).
     *
     *   G. Roman-Perez and J. M. Soler, Phys. Rev. Lett. 103, 096102 (2009).
     *
     *
     * If you are using vdW-DF2, please also cite:
     *
     *   K. Lee, E. D. Murray, L. Kong, B. I. Lundqvist, and
     *   D. C. Langreth, Phys. Rev. B 82, 081101(R) (2010).
     *
     *
     * If you are calculating the stress with vdW-DF, please also cite:
     *
     *   R. Sabatini, E. Kucukbenli, B. Kolb, T. Thonhauser, and
     *   S. de Gironcoli, J. Phys.: Condens. Matter 24, 424209 (2012).
     *

     Carrying out vdW-DF run using the following parameters:

     Nqs =      20    Nr_points =    1024   r_max =   100.000
     q_mesh =
               0.00001000     0.04494208     0.09755937     0.15916263
               0.23128650     0.31572767     0.41458969     0.53033537
               0.66584808     0.82450364     1.01025438     1.22772762
               1.48234092     1.78043706     2.12944203     2.53805004
               3.01644009     3.57652955     4.23227104     5.00000000

     Gradients computed in reciprocal space

     Adding external electric field

     Computed dipole along edir(3) :
        Dipole               -0.0000 Ry au,         -0.0000 Debye
        Dipole field         -0.0000 Ry au

        Potential amp.        0.0000 Ry
        Total length         44.9869 bohr

     Starting wfc are  117 randomized atomic wfcs

     Self-consistent Calculation

     iteration #  1     ecut=    36.75 Ry     beta=0.10
     Davidson diagonalization with overlap
     ethr =  1.00E-02,  avg # of iterations =  8.2

[...]

     total energy              =   -1987.79006356 Ry
     Harris-Foulkes estimate   =   -2000.74647906 Ry
     estimated scf accuracy    <      74.50473052 Ry

[...]

     End of self-consistent calculation

          k = 0.0000 0.0000 0.0000 ( 15605 PWs)   bands (ev):

   -70.8082 -70.7619 -70.7618 -70.6386 -70.6359 -70.5946 -70.5945 -70.5939
   -70.5938 -42.2808 -42.2227 -42.2226 -42.1584 -42.1106 -42.1106 -42.0536
   -42.0506 -42.0428 -42.0060 -42.0059 -41.9852 -41.9778 -41.9778 -41.9649
   -41.9648 -41.9257 -41.9257 -41.9028 -41.9028 -41.8938 -41.8464 -41.8382
   -41.7031 -41.7031 -41.7014 -41.7013 -13.5807 -13.5807 -13.5682 -13.5320
   -13.5320 -13.2563 -13.2550 -13.2550 -13.2514 -13.2514 -13.2388 -13.1795
   -13.1795 -13.1793 -13.1793  -7.6498  -5.8480  -4.8590  -2.3965  -2.1438
    -2.0801  -1.4791  -1.4791  -1.2755  -1.2755  -1.0102  -1.0102  -0.9816
    -0.9509  -0.8075  -0.8075  -0.3272  -0.3272  -0.0145   0.0204   0.2557
     0.2557   0.4910   0.4910   0.5095   0.6487   0.6767   0.6767   0.7696
     1.0679   1.1431   1.1431   1.4970   1.4971   1.5933   1.6676   1.6677
     1.8179   1.8179   1.9636   1.9636   1.9676   1.9676   2.1268   2.2040
     2.2040   2.4554   2.5230   2.5230   2.8068   2.8694   3.0374   3.0684
     3.1119   3.3489   3.3489   3.4937   3.4938   4.7910   4.9927   5.5038

[...]

          k =-0.0924-0.0534 0.0000 ( 15740 PWs)   bands (ev):

[...]

     the Fermi energy is     0.9825 ev

!    total energy              =   -1990.20454204 Ry
     Harris-Foulkes estimate   =   -1990.20454412 Ry
     estimated scf accuracy    <       0.00000095 Ry

     The total energy is the sum of the following terms:

     one-electron contribution =  -16555.80063225 Ry
     hartree contribution      =    8291.31631247 Ry
     xc contribution           =    -326.93339925 Ry
     ewald contribution        =    6601.32304901 Ry
     electric field correction =       0.00000004 Ry
     smearing contrib. (-TS)   =      -0.10987206 Ry

     convergence has been achieved in  30 iterations

 BEEF-vdW xc energy contributions
           1 :   -284.341881865029
           2 :    257.594773981944
           3 :   -212.745491901929
           4 :    162.986419672214
           5 :   -120.320743714993
           6 :    91.1488504983304
           7 :   -75.1003690679681
           8 :    67.1221391395587
           9 :   -61.2035799754824
          10 :    53.5677143208726
          11 :   -43.8557819120322
          12 :    34.1706467466294
          13 :   -27.0075175680194
[...]
     /afs/slac.stanford.edu/u/if/mamunm/psp/gbrv1.5pbe/Cr.UPF
     MD5 check sum: 0d52af634a40206e4dee301ad30da4bf
     Pseudo is Ultrasoft + core correction, Zval = 14.0
     Generated by new atomic code, or converted to UPF format
     Using radial grid of  857 points,  6 beta functions with:
                l(1) =   0
                l(2) =   0
                l(3) =   1
                l(4) =   1
                l(5) =   2
                l(6) =   2
     Q(r) pseudized with  8 coefficients,  rinner =    0.950   0.950   0.950
                                                       0.950   0.950

     PseudoPot. # 2 for In read from file:
     /afs/slac.stanford.edu/u/if/mamunm/psp/gbrv1.5pbe/In.UPF
     MD5 check sum: 90777abd96fbb83f2e67db2a40c566b9
     Pseudo is Ultrasoft + core correction, Zval = 13.0
     Generated by new atomic code, or converted to UPF format
     Using radial grid of  889 points,  6 beta functions with:
                l(1) =   0
                l(2) =   0
                l(3) =   1
                l(4) =   1
                l(5) =   2
                l(6) =   2
     Q(r) pseudized with  6 coefficients,  rinner =    1.400   1.400   1.400
                                                       1.400   1.400

     vdW kernel table read from file vdW_kernel_table
     MD5 check sum: 095c7af220d748ca6e76c0b4c6cfb241

     atomic species   valence    mass     pseudopotential
        Cr1           14.00    51.99610     Cr( 1.00)
        In1           13.00   114.81800     In( 1.00)

     No symmetry found

   Cartesian axes

     site n.     atom                  positions (alat units)
         1           Cr1 tau(   1) = (   0.0000000   0.0000000  10.0000000  )
         2           Cr1 tau(   2) = (  -1.3522553   2.3421749  10.0000000  )
         3           Cr1 tau(   3) = (   1.3522553   2.3421749  10.0000000  )
         4           In1 tau(   4) = (   2.7045106   0.0000000  10.0000000  )
         5           Cr1 tau(   5) = (   2.7045106   1.5614499  12.2082237  )
         6           Cr1 tau(   6) = (   1.3522553   3.9036249  12.2082237  )
         7           Cr1 tau(   7) = (  -1.3522553   3.9036249  12.2082237  )
         8           In1 tau(   8) = (   0.0000000   1.5614499  12.2082237  )
         9           Cr1 tau(   9) = (  -0.0000062   3.3973468  14.2455413  )
        10           Cr1 tau(  10) = (   1.5898774   0.6435355  14.2455634  )
        11           Cr1 tau(  11) = (   3.8191214   0.6435316  14.2455640  )
        12           In1 tau(  12) = (   2.7045168   3.1228899  14.8820675  )

     number of k points=    20  Fermi-Dirac smearing, width (Ry)=  0.0110
                       cart. coord. in units 2pi/alat
        k(    1) = (   0.0000000   0.0000000   0.0000000), wk =   0.0555556
        k(    2) = (   0.0000000   0.0355795   0.0000000), wk =   0.1111111
        k(    3) = (   0.0000000   0.0711589   0.0000000), wk =   0.1111111
        k(    4) = (   0.0000000  -0.1067384   0.0000000), wk =   0.0555556
        k(    5) = (   0.0308127   0.0177897   0.0000000), wk =   0.1111111
        k(    6) = (   0.0308127   0.0533692   0.0000000), wk =   0.1111111
        k(    7) = (   0.0308127   0.0889487   0.0000000), wk =   0.1111111
        k(    8) = (   0.0308127  -0.0889487   0.0000000), wk =   0.1111111
        k(    9) = (   0.0308127  -0.0533692   0.0000000), wk =   0.1111111
        k(   10) = (   0.0308127  -0.0177897   0.0000000), wk =   0.1111111
        k(   11) = (   0.0616254   0.0355795   0.0000000), wk =   0.1111111
        k(   12) = (   0.0616254   0.0711589   0.0000000), wk =   0.1111111
        k(   13) = (   0.0616254   0.1067384   0.0000000), wk =   0.1111111
        k(   14) = (   0.0616254  -0.0711589   0.0000000), wk =   0.1111111
        k(   15) = (   0.0616254  -0.0355795   0.0000000), wk =   0.1111111
        k(   16) = (   0.0616254   0.0000000   0.0000000), wk =   0.1111111
        k(   17) = (  -0.0924382  -0.0533692   0.0000000), wk =   0.0555556
        k(   18) = (  -0.0924382  -0.0177897   0.0000000), wk =   0.1111111
        k(   19) = (  -0.0924382   0.0177897   0.0000000), wk =   0.1111111
        k(   20) = (  -0.0924382  -0.1601076   0.0000000), wk =   0.0555556

     Largest allocated arrays     est. size (Mb)     dimensions
     Largest temporary arrays     est. size (Mb)     dimensions

     Check: negative/imaginary core charge=   -0.000003    0.000000

     Initial potential from superposition of free atoms
     Check: negative starting charge=   -0.011491

     starting charge  151.49986, renormalised to  165.00000

[...]

     *
     * You are using vdW-DF for exchange-correlation in this calculation.
     * Please cite the following three references that made this development
     * possible:
     *
     *   M. Dion, H. Rydberg, E. Schroder, D. C. Langreth, and
     *   B. I. Lundqvist, Phys. Rev. Lett. 92, 246401 (2004).
     *
     *   T. Thonhauser, V. R. Cooper, S. Li, A. Puzder, P. Hyldgaard, and
     *   D. C. Langreth, Phys. Rev. B 76, 125112 (2007).
     *
     *   G. Roman-Perez and J. M. Soler, Phys. Rev. Lett. 103, 096102 (2009).
     *
     *
     * If you are using vdW-DF2, please also cite:
     *
     *   K. Lee, E. D. Murray, L. Kong, B. I. Lundqvist, and
     *   D. C. Langreth, Phys. Rev. B 82, 081101(R) (2010).
     *
     *
     * If you are calculating the stress with vdW-DF, please also cite:
     *
     *   R. Sabatini, E. Kucukbenli, B. Kolb, T. Thonhauser, and
     *   S. de Gironcoli, J. Phys.: Condens. Matter 24, 424209 (2012).
     *

     Carrying out vdW-DF run using the following parameters:

     Nqs =      20    Nr_points =    1024   r_max =   100.000
     q_mesh =
               0.00001000     0.04494208     0.09755937     0.15916263
               0.23128650     0.31572767     0.41458969     0.53033537
               0.66584808     0.82450364     1.01025438     1.22772762
               1.48234092     1.78043706     2.12944203     2.53805004
               3.01644009     3.57652955     4.23227104     5.00000000

     Gradients computed in reciprocal space

[...]

     Starting wfc are  117 randomized atomic wfcs

     Self-consistent Calculation

[...]

     total energy              =   -1990.31128933 Ry
     Harris-Foulkes estimate   =   -1990.31129079 Ry
     estimated scf accuracy    <       0.00000132 Ry

     iteration # 28     ecut=    36.75 Ry     beta=0.10
     Davidson diagonalization with overlap
     ethr =  8.01E-10,  avg # of iterations =  1.7

[...]

     negative rho (up, down):  1.059E-02 0.000E+00

     Adding external electric field

     Computed dipole along edir(3) :
        Dipole                0.0302 Ry au,          0.0769 Debye
        Dipole field          0.0001 Ry au

        Potential amp.       -0.0082 Ry
        Total length         44.9869 bohr

     End of self-consistent calculation

[...]

          k = 0.0616 0.0000 0.0000 ( 15690 PWs)   bands (ev):

[...]

          k =-0.0924-0.1601 0.0000 ( 15740 PWs)   bands (ev):

   -70.7324 -70.7065 -70.6877 -70.6350 -70.5639 -70.5495 -70.5353 -70.4600
   -70.4576 -42.4315 -42.2130 -42.1754 -42.1656 -42.1445 -42.0881 -42.0541
   -42.0441 -42.0029 -41.9770 -41.9553 -41.9391 -41.9295 -41.8866 -41.8835
   -41.8792 -41.8491 -41.8396 -41.8255 -41.7973 -41.7828 -41.7711 -41.7449
   -41.6496 -41.5724 -41.4537 -41.4306 -13.5341 -13.5110 -13.4956 -13.4701
   -13.4659 -13.2006 -13.1683 -13.1672 -13.1372 -13.1295 -13.1167 -13.1034
   -13.0899 -13.0818 -13.0756  -6.1149  -5.4496  -4.5085  -3.4309  -2.5454
    -2.4175  -2.3952  -1.9370  -1.3309  -1.1421  -1.0518  -1.0507  -0.9501
    -0.8425  -0.7073  -0.5198  -0.4661  -0.2984  -0.2916  -0.1862  -0.1576
    -0.0832   0.1163   0.1941   0.2360   0.3767   0.4893   0.5633   0.6604
     0.7884   0.8410   0.9147   0.9870   1.3207   1.4079   1.5571   1.5760
     1.6312   1.7194   1.7262   1.7666   1.8949   2.0091   2.0582   2.2126
     2.3696   2.3823   2.5034   2.5828   2.7292   2.8581   3.0381   3.5966
     3.8068   3.9466   4.1272   4.5803   5.1215   5.1698   6.2030   6.3517

     the Fermi energy is     1.0434 ev

!    total energy              =   -1990.31128638 Ry
     Harris-Foulkes estimate   =   -1990.31128971 Ry
     estimated scf accuracy    <       0.00000094 Ry

     The total energy is the sum of the following terms:

     one-electron contribution =  -16609.24765449 Ry
     hartree contribution      =    8318.33547808 Ry
     xc contribution           =    -327.13672545 Ry
     ewald contribution        =    6627.82800375 Ry
     electric field correction =       0.00000275 Ry
     smearing contrib. (-TS)   =      -0.09039103 Ry

     convergence has been achieved in  28 iterations

 BEEF-vdW xc energy contributions
           1 :   -284.555797443785
           2 :    257.841919564634
           3 :   -213.006210870696
           4 :    163.169550632583
           5 :   -120.299033584058
           6 :    90.8309604380684
           7 :   -74.4944423259755
           8 :    66.3508786665164
           9 :   -60.4578067770004
          10 :    53.0157886221535
          11 :   -43.5527967258035
          12 :    34.0204659264598
          13 :   -26.8104790725146
          14 :    23.0444649652372
          15 :   -22.0416592336578
          16 :    22.0040180386716
          17 :   -21.2551847301946
          18 :    19.1762804674719
          19 :   -16.3292691236558
          20 :    13.8392490150525
          21 :   -12.5521615001092
          22 :    12.5308078326098
          23 :   -13.1416285481500
          24 :    13.5623167730449
          25 :   -13.3083101070710
          26 :    12.4439150301406
          27 :   -11.4161988768627
          28 :    10.6966575724663
          29 :   -10.4923830376098
          30 :    10.6822548799896
          31 :   -27.2210390743613
          32 :   -19.6857268105995

     Forces acting on atoms (Ry/au):

     negative rho (up, down):  1.059E-02 0.000E+00
     atom    1 type  1   force =    -0.00000098   -0.02857497    0.03091924
     atom    2 type  1   force =    -0.02474712    0.01429203    0.03092090
     atom    3 type  1   force =     0.02475262    0.01429676    0.03091808
     atom    4 type  2   force =     0.00001308   -0.00002501   -0.08067110
     atom    5 type  1   force =     0.00000015    0.02555337   -0.00563304
     atom    6 type  1   force =     0.02212333   -0.01276954   -0.00562817
     atom    7 type  1   force =    -0.02212522   -0.01277063   -0.00563313
     atom    8 type  2   force =    -0.00003350   -0.00002858    0.00669205
     atom    9 type  1   force =     0.00000228    0.00102071    0.00000995
     atom   10 type  1   force =     0.00089338   -0.00051466    0.00000541
     atom   11 type  1   force =    -0.00087258   -0.00050528    0.00001454
     atom   12 type  2   force =    -0.00000545    0.00002581   -0.00191473

     Total force =     0.118029     Total SCF correction =     0.002301

     entering subroutine stress ...

     negative rho (up, down):  1.059E-02 0.000E+00
          total   stress  (Ry/bohr**3)                   (kbar)     P=  -11.55
  -0.00010656   0.00000005   0.00000001        -15.68      0.01      0.00
   0.00000005  -0.00010660   0.00000002          0.01    -15.68      0.00
   0.00000001   0.00000002  -0.00002238          0.00      0.00     -3.29

 !ASE

     Writing output data file calc.save

     General routines

     Parallel routines

   This run was terminated on:  13:45:30  25Dec2018

   JOB DONE.
Job  /afs/slac/g/suncat/bin/suncat-tsmpirun -x LD_LIBRARY_PATH -wdir /scratch/qe109509_97LRT pw.x -in pw.inp

TID   HOST_NAME   COMMAND_LINE            STATUS            TERMINATION_TIME
00000 suncat0001 pw.x -in pw.inp   Done                     12/25/2018 13:45:30
00001 suncat0001 pw.x -in pw.inp   Done                     12/25/2018 13:45:30
00002 suncat0001 pw.x -in pw.inp   Done                     12/25/2018 13:45:30
00003 suncat0001 pw.x -in pw.inp   Done                     12/25/2018 13:45:30
00004 suncat0001 pw.x -in pw.inp   Done                     12/25/2018 13:45:30
00005 suncat0001 pw.x -in pw.inp   Done                     12/25/2018 13:45:30
00006 suncat0001 pw.x -in pw.inp   Done                     12/25/2018 13:45:30
00007 suncat0001 pw.x -in pw.inp   Done                     12/25/2018 13:45:30
00008 suncat0167 pw.x -in pw.inp   Done                     12/25/2018 13:45:30
00009 suncat0167 pw.x -in pw.inp   Done                     12/25/2018 13:45:30
00010 suncat0167 pw.x -in pw.inp   Done                     12/25/2018 13:45:30
00011 suncat0167 pw.x -in pw.inp   Done                     12/25/2018 13:45:30
00012 suncat0167 pw.x -in pw.inp   Done                     12/25/2018 13:45:30
00013 suncat0167 pw.x -in pw.inp   Done                     12/25/2018 13:45:30
00014 suncat0167 pw.x -in pw.inp   Done                     12/25/2018 13:45:30
00015 suncat0167 pw.x -in pw.inp   Done                     12/25/2018 13:45:30
00016 suncat0166 pw.x -in pw.inp   Done                     12/25/2018 13:45:30
00017 suncat0166 pw.x -in pw.inp   Done                     12/25/2018 13:45:30
00018 suncat0166 pw.x -in pw.inp   Done                     12/25/2018 13:45:30
00019 suncat0166 pw.x -in pw.inp   Done                     12/25/2018 13:45:30
00020 suncat0166 pw.x -in pw.inp   Done                     12/25/2018 13:45:30
00021 suncat0166 pw.x -in pw.inp   Done                     12/25/2018 13:45:30
00022 suncat0166 pw.x -in pw.inp   Done                     12/25/2018 13:45:30
00023 suncat0166 pw.x -in pw.inp   Done                     12/25/2018 13:45:30
00024 suncat0165 pw.x -in pw.inp   Done                     12/25/2018 13:45:30
00025 suncat0165 pw.x -in pw.inp   Done                     12/25/2018 13:45:30
00026 suncat0165 pw.x -in pw.inp   Done                     12/25/2018 13:45:30
00027 suncat0165 pw.x -in pw.inp   Done                     12/25/2018 13:45:30
00028 suncat0165 pw.x -in pw.inp   Done                     12/25/2018 13:45:30
00029 suncat0165 pw.x -in pw.inp   Done                     12/25/2018 13:45:30
00030 suncat0165 pw.x -in pw.inp   Done                     12/25/2018 13:45:30
00031 suncat0165 pw.x -in pw.inp   Done                     12/25/2018 13:45:30
00032 suncat0164 pw.x -in pw.inp   Done                     12/25/2018 13:45:30
00033 suncat0164 pw.x -in pw.inp   Done                     12/25/2018 13:45:30
00034 suncat0164 pw.x -in pw.inp   Done                     12/25/2018 13:45:30
00035 suncat0164 pw.x -in pw.inp   Done                     12/25/2018 13:45:30
00036 suncat0164 pw.x -in pw.inp   Done                     12/25/2018 13:45:30
00037 suncat0164 pw.x -in pw.inp   Done                     12/25/2018 13:45:30
00038 suncat0164 pw.x -in pw.inp   Done                     12/25/2018 13:45:30
00039 suncat0164 pw.x -in pw.inp   Done                     12/25/2018 13:45:30
00040 suncat0149 pw.x -in pw.inp   Done                     12/25/2018 13:45:30
00041 suncat0149 pw.x -in pw.inp   Done                     12/25/2018 13:45:30
00042 suncat0149 pw.x -in pw.inp   Done                     12/25/2018 13:45:30
00043 suncat0149 pw.x -in pw.inp   Done                     12/25/2018 13:45:30
00044 suncat0149 pw.x -in pw.inp   Done                     12/25/2018 13:45:30
00045 suncat0149 pw.x -in pw.inp   Done                     12/25/2018 13:45:30
00046 suncat0149 pw.x -in pw.inp   Done                     12/25/2018 13:45:30
00047 suncat0149 pw.x -in pw.inp   Done                     12/25/2018 13:45:30
00048 suncat0148 pw.x -in pw.inp   Done                     12/25/2018 13:45:30
00049 suncat0148 pw.x -in pw.inp   Done                     12/25/2018 13:45:30
00050 suncat0148 pw.x -in pw.inp   Done                     12/25/2018 13:45:30
00051 suncat0148 pw.x -in pw.inp   Done                     12/25/2018 13:45:30
00052 suncat0148 pw.x -in pw.inp   Done                     12/25/2018 13:45:30
00053 suncat0148 pw.x -in pw.inp   Done                     12/25/2018 13:45:30
00054 suncat0148 pw.x -in pw.inp   Done                     12/25/2018 13:45:30
00055 suncat0148 pw.x -in pw.inp   Done                     12/25/2018 13:45:30
00056 suncat0137 pw.x -in pw.inp   Done                     12/25/2018 13:45:30
00057 suncat0137 pw.x -in pw.inp   Done                     12/25/2018 13:45:30
00058 suncat0137 pw.x -in pw.inp   Done                     12/25/2018 13:45:30
00059 suncat0137 pw.x -in pw.inp   Done                     12/25/2018 13:45:30
00060 suncat0137 pw.x -in pw.inp   Done                     12/25/2018 13:45:30
00061 suncat0137 pw.x -in pw.inp   Done                     12/25/2018 13:45:30
00062 suncat0137 pw.x -in pw.inp   Done                     12/25/2018 13:45:30
00063 suncat0137 pw.x -in pw.inp   Done                     12/25/2018 13:45:30