     Program PWSCF v.5.1rc2 (svn rev. 11289) starts on  2Jan2019 at 19:51:33

     Current dimensions of program PWSCF are:
     Max number of different atomic species (ntypx) = 10
     Max number of k-points (npk) =  40000
     Max angular momentum in pseudopotentials (lmaxx) =  3
     Presently stress not available with electric field

     IMPORTANT: XC functional enforced from input :
     Exchange-correlation      = BEEF-VDW ( 1  4 27 13 2)
     Any further DFT definition will be discarded
     Please, verify this is what you really want

     Subspace diagonalization in iterative solution of the eigenvalue problem:
     a serial algorithm will be used

     bravais-lattice index     =            0
     lattice parameter (alat)  =       1.8897  a.u.
     unit-cell volume          =    5845.9168 (a.u.)^3
     number of atoms/cell      =           12
     number of atomic types    =            2
     number of electrons       =       144.00
     number of Kohn-Sham states=          102
     kinetic-energy cutoff     =      36.7493  Ry
     charge density cutoff     =     367.4932  Ry
     convergence threshold     =      1.0E-06
     mixing beta               =       0.1000
     number of iterations used =           10  plain     mixing
     Exchange-correlation      = BEEF-VDW ( 1  4 27 13 2)
     nstep                     =           50

     celldm(1)=   1.889726  celldm(2)=   0.000000  celldm(3)=   0.000000
     celldm(4)=   0.000000  celldm(5)=   0.000000  celldm(6)=   0.000000

     crystal axes: (cart. coord. in units of alat)
               a(1) = (   6.306657   0.000000   0.000000 )
               a(2) = (  -3.153328   5.461725   0.000000 )
               a(3) = (   0.000000   0.000000  25.149364 )

     reciprocal axes: (cart. coord. in units 2 pi/alat)
               b(1) = (  0.158563  0.091546  0.000000 )
               b(2) = (  0.000000  0.183092  0.000000 )
               b(3) = (  0.000000  0.000000  0.039762 )

     PseudoPot. # 1 for Zr read from file:
     /afs/slac.stanford.edu/u/if/mamunm/psp/gbrv1.5pbe/Zr.UPF
     MD5 check sum: 5db81b1e868ab7776c4564c113de050b
     Pseudo is Ultrasoft + core correction, Zval = 12.0
     Generated by new atomic code, or converted to UPF format
     Using radial grid of  887 points,  6 beta functions with:
                l(1) =   0
                l(2) =   0
                l(3) =   1
                l(4) =   1
                l(5) =   2
                l(6) =   2
     Q(r) pseudized with  6 coefficients,  rinner =    1.200   1.200   1.200
                                                       1.200   1.200

     PseudoPot. # 2 for Hg read from file:
     /afs/slac.stanford.edu/u/if/mamunm/psp/gbrv1.5pbe/Hg.UPF
     MD5 check sum: 8f42caffe07f7fd9c0a564347f8c5498
     Pseudo is Ultrasoft + core correction, Zval = 12.0
     Generated by new atomic code, or converted to UPF format
     Using radial grid of  985 points,  6 beta functions with:
                l(1) =   0
                l(2) =   0
                l(3) =   1
                l(4) =   1
                l(5) =   2
                l(6) =   2
     Q(r) pseudized with  8 coefficients,  rinner =    2.000   2.000   2.000
                                                       2.000   2.000

     vdW kernel table read from file vdW_kernel_table
     MD5 check sum: 095c7af220d748ca6e76c0b4c6cfb241

     atomic species   valence    mass     pseudopotential
        Zr1           12.00    91.22400     Zr( 1.00)
        Hg1           12.00   200.59200     Hg( 1.00)

     No symmetry found

   Cartesian axes

     site n.     atom                  positions (alat units)
         1           Zr1 tau(   1) = (   0.0000000   0.0000000  10.0000000  )
         2           Zr1 tau(   2) = (  -1.5766642   2.7308625  10.0000000  )
         3           Zr1 tau(   3) = (   1.5766642   2.7308625  10.0000000  )
         4           Hg1 tau(   4) = (   3.1533284   0.0000000  10.0000000  )
         5           Zr1 tau(   5) = (   3.1533284   1.8205750  12.5746819  )
         6           Zr1 tau(   6) = (   1.5766642   4.5514375  12.5746819  )
         7           Zr1 tau(   7) = (  -1.5766642   4.5514375  12.5746819  )
         8           Hg1 tau(   8) = (   0.0000000   1.8205750  12.5746819  )
         9           Zr1 tau(   9) = (  -0.0000000   3.6411500  15.1493637  )
        10           Zr1 tau(  10) = (   1.5766642   0.9102875  15.1493637  )
        11           Zr1 tau(  11) = (   4.7299926   0.9102875  15.1493637  )
        12           Hg1 tau(  12) = (   3.1533284   3.6411500  15.1493637  )

     number of k points=    20  Fermi-Dirac smearing, width (Ry)=  0.0110
                       cart. coord. in units 2pi/alat
        k(    1) = (   0.0000000   0.0000000   0.0000000), wk =   0.0555556
        k(    2) = (   0.0000000   0.0305154   0.0000000), wk =   0.1111111
        k(    3) = (   0.0000000   0.0610308   0.0000000), wk =   0.1111111
        k(    4) = (   0.0000000  -0.0915462   0.0000000), wk =   0.0555556
        k(    5) = (   0.0264271   0.0152577   0.0000000), wk =   0.1111111
        k(    6) = (   0.0264271   0.0457731   0.0000000), wk =   0.1111111
        k(    7) = (   0.0264271   0.0762885   0.0000000), wk =   0.1111111
        k(    8) = (   0.0264271  -0.0762885   0.0000000), wk =   0.1111111
        k(    9) = (   0.0264271  -0.0457731   0.0000000), wk =   0.1111111
        k(   10) = (   0.0264271  -0.0152577   0.0000000), wk =   0.1111111
        k(   11) = (   0.0528542   0.0305154   0.0000000), wk =   0.1111111
        k(   12) = (   0.0528542   0.0610308   0.0000000), wk =   0.1111111
        k(   13) = (   0.0528542   0.0915462   0.0000000), wk =   0.1111111
        k(   14) = (   0.0528542  -0.0610308   0.0000000), wk =   0.1111111
        k(   15) = (   0.0528542  -0.0305154   0.0000000), wk =   0.1111111
        k(   16) = (   0.0528542   0.0000000   0.0000000), wk =   0.1111111
        k(   17) = (  -0.0792813  -0.0457731   0.0000000), wk =   0.0555556
        k(   18) = (  -0.0792813  -0.0152577   0.0000000), wk =   0.1111111
        k(   19) = (  -0.0792813   0.0152577   0.0000000), wk =   0.1111111
        k(   20) = (  -0.0792813  -0.1373193   0.0000000), wk =   0.0555556

     Largest allocated arrays     est. size (Mb)     dimensions
     Largest temporary arrays     est. size (Mb)     dimensions

     Initial potential from superposition of free atoms
     Check: negative starting charge=   -0.549320

     starting charge  143.98048, renormalised to  144.00000

     negative rho (up, down):  5.494E-01 0.000E+00

     *
     * You are using vdW-DF for exchange-correlation in this calculation.
     * Please cite the following three references that made this development
     * possible:
     *
     *   M. Dion, H. Rydberg, E. Schroder, D. C. Langreth, and
     *   B. I. Lundqvist, Phys. Rev. Lett. 92, 246401 (2004).
     *
     *   T. Thonhauser, V. R. Cooper, S. Li, A. Puzder, P. Hyldgaard, and
     *   D. C. Langreth, Phys. Rev. B 76, 125112 (2007).
     *
     *   G. Roman-Perez and J. M. Soler, Phys. Rev. Lett. 103, 096102 (2009).
     *
     *
     * If you are using vdW-DF2, please also cite:
     *
     *   K. Lee, E. D. Murray, L. Kong, B. I. Lundqvist, and
     *   D. C. Langreth, Phys. Rev. B 82, 081101(R) (2010).
     *
     *
     * If you are calculating the stress with vdW-DF, please also cite:
     *
     *   R. Sabatini, E. Kucukbenli, B. Kolb, T. Thonhauser, and
     *   S. de Gironcoli, J. Phys.: Condens. Matter 24, 424209 (2012).
     *

     Carrying out vdW-DF run using the following parameters:

     Nqs =      20    Nr_points =    1024   r_max =   100.000
     q_mesh =
               0.00001000     0.04494208     0.09755937     0.15916263
               0.23128650     0.31572767     0.41458969     0.53033537
               0.66584808     0.82450364     1.01025438     1.22772762
               1.48234092     1.78043706     2.12944203     2.53805004
               3.01644009     3.57652955     4.23227104     5.00000000

     Gradients computed in reciprocal space

     Adding external electric field

     Computed dipole along edir(3) :
        Dipole               -0.0000 Ry au,         -0.0000 Debye
        Dipole field         -0.0000 Ry au

        Potential amp.        0.0000 Ry
        Total length         46.3373 bohr

     Starting wfc are  144 randomized atomic wfcs

     Self-consistent Calculation

     iteration #  1     ecut=    36.75 Ry     beta=0.10
     Davidson diagonalization with overlap
     ethr =  1.00E-02,  avg # of iterations =  2.0

[...]

     total energy              =   -1224.64890670 Ry
     Harris-Foulkes estimate   =   -1225.45515374 Ry
     estimated scf accuracy    <       4.58825497 Ry

[...]

     End of self-consistent calculation

          k = 0.0000 0.0000 0.0000 ( 22027 PWs)   bands (ev):

   -47.7869 -47.7831 -47.7040 -47.7040 -47.7032 -47.7031 -47.4166 -47.3379
   -47.3376 -26.0599 -26.0351 -25.9736 -25.9148 -25.9148 -25.8684 -25.8683
   -25.8644 -25.8644 -25.8548 -25.7875 -25.7660 -25.7660 -25.5382 -25.5192
   -25.5037 -25.5037 -25.3161 -25.3161 -25.3084 -25.3083 -25.2642 -25.2623
   -25.2622 -25.1688 -25.0123 -25.0121  -5.8187  -5.8187  -5.7651  -5.7651
    -5.7483  -5.7474  -5.7474  -5.6953  -5.6875  -5.6875  -5.6610  -5.5228
    -5.5228  -5.4727  -5.4727  -5.1674  -3.9989  -3.8104  -1.5028  -1.1888
    -0.7291   0.2132   0.2132   0.2479   0.2925   0.5746   0.5746   0.6546
     0.6546   0.7684   0.7684   1.2317   1.2317   1.3647   1.4090   1.8089
     1.9401   1.9401   2.1448   2.1448   2.2351   2.4095   2.4095   2.6088
     2.6272   2.6272   2.7354   3.2979   3.9919   4.1415   4.1415   4.1889
     4.3693   4.3693   4.4927   4.4927   4.5366   4.5366   4.8356   4.8356
     4.9299   5.0729   5.0890   5.1459   5.1460   5.2091

[...]

          k =-0.0793-0.0458 0.0000 ( 21932 PWs)   bands (ev):

[...]

     the Fermi energy is     1.5821 ev

!    total energy              =   -1224.95202818 Ry
     Harris-Foulkes estimate   =   -1224.95202792 Ry
     estimated scf accuracy    <       0.00000079 Ry

     The total energy is the sum of the following terms:

     one-electron contribution =   -8485.59251727 Ry
     hartree contribution      =    4260.04241161 Ry
     xc contribution           =    -286.81332362 Ry
     ewald contribution        =    3287.51104392 Ry
     electric field correction =       0.00000000 Ry
     smearing contrib. (-TS)   =      -0.09964281 Ry

     convergence has been achieved in  16 iterations

 BEEF-vdW xc energy contributions
           1 :   -248.247883515008
           2 :    226.653112558081
           3 :   -189.609249387276
           4 :    146.651959084354
           5 :   -106.880114194563
           6 :    75.9709885508795
           7 :   -55.1717038967077
           8 :    42.2590354371515
           9 :   -33.5799612472167
          10 :    26.0309454953581
          11 :   -18.1658147570479
          12 :    10.2062313973621
          13 :   -3.26122875389876
          14 :   -1.65816127032724
          15 :    4.27943651482821
          16 :   -5.11734485917322
          17 :    5.05938771674687
          18 :   -4.84993175115329
[...]
               b(2) = (  0.000000  0.183092  0.000000 )
               b(3) = (  0.000000  0.000000  0.039762 )

     PseudoPot. # 1 for Zr read from file:
     /afs/slac.stanford.edu/u/if/mamunm/psp/gbrv1.5pbe/Zr.UPF
     MD5 check sum: 5db81b1e868ab7776c4564c113de050b
     Pseudo is Ultrasoft + core correction, Zval = 12.0
     Generated by new atomic code, or converted to UPF format
     Using radial grid of  887 points,  6 beta functions with:
                l(1) =   0
                l(2) =   0
                l(3) =   1
                l(4) =   1
                l(5) =   2
                l(6) =   2
     Q(r) pseudized with  6 coefficients,  rinner =    1.200   1.200   1.200
                                                       1.200   1.200

     PseudoPot. # 2 for Hg read from file:
     /afs/slac.stanford.edu/u/if/mamunm/psp/gbrv1.5pbe/Hg.UPF
     MD5 check sum: 8f42caffe07f7fd9c0a564347f8c5498
     Pseudo is Ultrasoft + core correction, Zval = 12.0
     Generated by new atomic code, or converted to UPF format
     Using radial grid of  985 points,  6 beta functions with:
                l(1) =   0
                l(2) =   0
                l(3) =   1
                l(4) =   1
                l(5) =   2
                l(6) =   2
     Q(r) pseudized with  8 coefficients,  rinner =    2.000   2.000   2.000
                                                       2.000   2.000

     vdW kernel table read from file vdW_kernel_table
     MD5 check sum: 095c7af220d748ca6e76c0b4c6cfb241

     atomic species   valence    mass     pseudopotential
        Zr1           12.00    91.22400     Zr( 1.00)
        Hg1           12.00   200.59200     Hg( 1.00)

     No symmetry found

   Cartesian axes

     site n.     atom                  positions (alat units)
         1           Zr1 tau(   1) = (   0.0000000   0.0000000  10.0000000  )
         2           Zr1 tau(   2) = (  -1.5766642   2.7308625  10.0000000  )
         3           Zr1 tau(   3) = (   1.5766642   2.7308625  10.0000000  )
         4           Hg1 tau(   4) = (   3.1533284   0.0000000  10.0000000  )
         5           Zr1 tau(   5) = (   3.1533284   1.8205750  12.5746819  )
         6           Zr1 tau(   6) = (   1.5766642   4.5514375  12.5746819  )
         7           Zr1 tau(   7) = (  -1.5766642   4.5514375  12.5746819  )
         8           Hg1 tau(   8) = (   0.0000000   1.8205750  12.5746819  )
         9           Zr1 tau(   9) = (  -0.0000100   3.6137501  15.0944091  )
        10           Zr1 tau(  10) = (   1.5529345   0.9240140  15.0943984  )
        11           Zr1 tau(  11) = (   4.7537213   0.9240204  15.0943991  )
        12           Hg1 tau(  12) = (   3.1533145   3.6411855  15.2060393  )

     number of k points=    20  Fermi-Dirac smearing, width (Ry)=  0.0110
                       cart. coord. in units 2pi/alat
        k(    1) = (   0.0000000   0.0000000   0.0000000), wk =   0.0555556
        k(    2) = (   0.0000000   0.0305154   0.0000000), wk =   0.1111111
        k(    3) = (   0.0000000   0.0610308   0.0000000), wk =   0.1111111
        k(    4) = (   0.0000000  -0.0915462   0.0000000), wk =   0.0555556
        k(    5) = (   0.0264271   0.0152577   0.0000000), wk =   0.1111111
        k(    6) = (   0.0264271   0.0457731   0.0000000), wk =   0.1111111
        k(    7) = (   0.0264271   0.0762885   0.0000000), wk =   0.1111111
        k(    8) = (   0.0264271  -0.0762885   0.0000000), wk =   0.1111111
        k(    9) = (   0.0264271  -0.0457731   0.0000000), wk =   0.1111111
        k(   10) = (   0.0264271  -0.0152577   0.0000000), wk =   0.1111111
        k(   11) = (   0.0528542   0.0305154   0.0000000), wk =   0.1111111
        k(   12) = (   0.0528542   0.0610308   0.0000000), wk =   0.1111111
        k(   13) = (   0.0528542   0.0915462   0.0000000), wk =   0.1111111
        k(   14) = (   0.0528542  -0.0610308   0.0000000), wk =   0.1111111
        k(   15) = (   0.0528542  -0.0305154   0.0000000), wk =   0.1111111
        k(   16) = (   0.0528542   0.0000000   0.0000000), wk =   0.1111111
        k(   17) = (  -0.0792813  -0.0457731   0.0000000), wk =   0.0555556
        k(   18) = (  -0.0792813  -0.0152577   0.0000000), wk =   0.1111111
        k(   19) = (  -0.0792813   0.0152577   0.0000000), wk =   0.1111111
        k(   20) = (  -0.0792813  -0.1373193   0.0000000), wk =   0.0555556

     Largest allocated arrays     est. size (Mb)     dimensions
     Largest temporary arrays     est. size (Mb)     dimensions

     Initial potential from superposition of free atoms
     Check: negative starting charge=   -0.549508

     starting charge  143.98048, renormalised to  144.00000

[...]

     *
     * You are using vdW-DF for exchange-correlation in this calculation.
     * Please cite the following three references that made this development
     * possible:
     *
     *   M. Dion, H. Rydberg, E. Schroder, D. C. Langreth, and
     *   B. I. Lundqvist, Phys. Rev. Lett. 92, 246401 (2004).
     *
     *   T. Thonhauser, V. R. Cooper, S. Li, A. Puzder, P. Hyldgaard, and
     *   D. C. Langreth, Phys. Rev. B 76, 125112 (2007).
     *
     *   G. Roman-Perez and J. M. Soler, Phys. Rev. Lett. 103, 096102 (2009).
     *
     *
     * If you are using vdW-DF2, please also cite:
     *
     *   K. Lee, E. D. Murray, L. Kong, B. I. Lundqvist, and
     *   D. C. Langreth, Phys. Rev. B 82, 081101(R) (2010).
     *
     *
     * If you are calculating the stress with vdW-DF, please also cite:
     *
     *   R. Sabatini, E. Kucukbenli, B. Kolb, T. Thonhauser, and
     *   S. de Gironcoli, J. Phys.: Condens. Matter 24, 424209 (2012).
     *

     Carrying out vdW-DF run using the following parameters:

     Nqs =      20    Nr_points =    1024   r_max =   100.000
     q_mesh =
               0.00001000     0.04494208     0.09755937     0.15916263
               0.23128650     0.31572767     0.41458969     0.53033537
               0.66584808     0.82450364     1.01025438     1.22772762
               1.48234092     1.78043706     2.12944203     2.53805004
               3.01644009     3.57652955     4.23227104     5.00000000

     Gradients computed in reciprocal space

[...]

     Starting wfc are  144 randomized atomic wfcs

     Self-consistent Calculation

[...]

     total energy              =   -1224.95430926 Ry
     Harris-Foulkes estimate   =   -1224.95430862 Ry
     estimated scf accuracy    <       0.00000204 Ry

     iteration # 16     ecut=    36.75 Ry     beta=0.10
     Davidson diagonalization with overlap
     ethr =  1.42E-09,  avg # of iterations =  2.0

[...]

     negative rho (up, down):  5.588E-01 0.000E+00

     Adding external electric field

     Computed dipole along edir(3) :
        Dipole               -0.0093 Ry au,         -0.0236 Debye
        Dipole field         -0.0000 Ry au

        Potential amp.        0.0018 Ry
        Total length         46.3373 bohr

     End of self-consistent calculation

[...]

          k = 0.0529 0.0000 0.0000 ( 22025 PWs)   bands (ev):

[...]

          k =-0.0793-0.1373 0.0000 ( 21932 PWs)   bands (ev):

   -47.7691 -47.7422 -47.7268 -47.7148 -47.6967 -47.6698 -47.3745 -47.3488
   -47.3222 -25.9586 -25.9329 -25.9153 -25.8769 -25.8538 -25.8256 -25.7955
   -25.7907 -25.7454 -25.7392 -25.7092 -25.6986 -25.6808 -25.6413 -25.6412
   -25.6003 -25.5845 -25.4040 -25.3817 -25.3530 -25.3430 -25.3301 -25.2742
   -25.2111 -25.1921 -25.1758 -25.0199  -5.7613  -5.7313  -5.7247  -5.6924
    -5.6833  -5.6625  -5.6510  -5.6311  -5.5763  -5.5744  -5.5559  -5.5550
    -5.5019  -5.4889  -5.4399  -4.0906  -3.8074  -3.3661  -1.6750  -1.1100
    -0.9104  -0.4843  -0.2434   0.2739   0.3549   0.5338   0.5475   0.5629
     0.7502   0.7938   0.8838   1.0768   1.1517   1.2571   1.4336   1.4355
     1.5528   1.5918   1.7246   1.7591   1.9503   2.0710   2.3696   2.4283
     2.4782   2.6217   2.6586   2.7598   3.0614   3.6632   3.7141   3.8190
     3.8496   3.8733   4.0389   4.0913   4.1593   4.2093   4.4004   4.4149
     4.4948   4.7281   4.7364   4.8237   5.3917   5.4382

     the Fermi energy is     1.5705 ev

!    total energy              =   -1224.95431003 Ry
     Harris-Foulkes estimate   =   -1224.95430943 Ry
     estimated scf accuracy    <       0.00000093 Ry

     The total energy is the sum of the following terms:

     one-electron contribution =   -8518.49840405 Ry
     hartree contribution      =    4276.50576399 Ry
     xc contribution           =    -286.86229228 Ry
     ewald contribution        =    3304.00022176 Ry
     electric field correction =       0.00000018 Ry
     smearing contrib. (-TS)   =      -0.09959963 Ry

     convergence has been achieved in  16 iterations

 BEEF-vdW xc energy contributions
           1 :   -248.309891181190
           2 :    226.728995626704
           3 :   -189.700571041933
           4 :    146.743905944453
           5 :   -106.950127102382
           6 :    76.0047181968884
           7 :   -55.1738439093400
           8 :    42.2504556951122
           9 :   -33.5834099590883
          10 :    26.0562960849027
          11 :   -18.2052312612212
          12 :    10.2413803339225
          13 :   -3.27660950036210
          14 :   -1.66499893419899
          15 :    4.29723831043998
          16 :   -5.12945626810381
          17 :    5.05498892037684
          18 :   -4.83081871401174
          19 :    4.78033023320921
          20 :   -4.82848831645526
          21 :    4.74641018694621
          22 :   -4.39522145506794
          23 :    3.82434647024701
          24 :   -3.21165175777128
          25 :    2.73067645606318
          26 :   -2.45063019798636
          27 :    2.32590021161758
          28 :   -2.26094715096247
          29 :    2.18844367846697
          30 :   -2.10229293206402
          31 :   -26.2912052371557
          32 :   -19.5763885222680

     Forces acting on atoms (Ry/au):

     negative rho (up, down):  5.588E-01 0.000E+00
     atom    1 type  1   force =     0.00000007    0.00646074    0.00616180
     atom    2 type  1   force =     0.00559470   -0.00322967    0.00616395
     atom    3 type  1   force =    -0.00559464   -0.00322948    0.00616341
     atom    4 type  2   force =    -0.00000054   -0.00000125   -0.00701426
     atom    5 type  1   force =     0.00000043    0.00392454   -0.00104796
     atom    6 type  1   force =     0.00339594   -0.00196066   -0.00104456
     atom    7 type  1   force =    -0.00339742   -0.00196181   -0.00104580
     atom    8 type  2   force =    -0.00000041    0.00000077   -0.00856263
     atom    9 type  1   force =     0.00000105    0.00051932    0.00025202
     atom   10 type  1   force =     0.00044628   -0.00025928    0.00025462
     atom   11 type  1   force =    -0.00044733   -0.00026087    0.00025394
     atom   12 type  2   force =     0.00000188   -0.00000234   -0.00053453

     Total force =     0.020308     Total SCF correction =     0.001458

     entering subroutine stress ...

     negative rho (up, down):  5.588E-01 0.000E+00
          total   stress  (Ry/bohr**3)                   (kbar)     P=   -7.86
  -0.00007488   0.00000000   0.00000000        -11.02      0.00      0.00
   0.00000000  -0.00007488  -0.00000000          0.00    -11.02     -0.00
   0.00000000  -0.00000000  -0.00001056          0.00     -0.00     -1.55

 !ASE

     Writing output data file calc.save

     General routines

     Parallel routines

   This run was terminated on:  21:10: 2   2Jan2019

   JOB DONE.
Job  /afs/slac/g/suncat/bin/suncat-tsmpirun -x LD_LIBRARY_PATH -wdir /scratch/qe649541_VVhAg pw.x -in pw.inp

TID   HOST_NAME   COMMAND_LINE            STATUS            TERMINATION_TIME
00000 suncat0027 pw.x -in pw.inp   Done                     01/02/2019 21:10:02
00001 suncat0027 pw.x -in pw.inp   Done                     01/02/2019 21:10:02
00002 suncat0027 pw.x -in pw.inp   Done                     01/02/2019 21:10:02
00003 suncat0027 pw.x -in pw.inp   Done                     01/02/2019 21:10:02
00004 suncat0027 pw.x -in pw.inp   Done                     01/02/2019 21:10:02
00005 suncat0027 pw.x -in pw.inp   Done                     01/02/2019 21:10:02
00006 suncat0027 pw.x -in pw.inp   Done                     01/02/2019 21:10:02
00007 suncat0027 pw.x -in pw.inp   Done                     01/02/2019 21:10:02
00008 suncat0026 pw.x -in pw.inp   Done                     01/02/2019 21:10:02
00009 suncat0026 pw.x -in pw.inp   Done                     01/02/2019 21:10:02
00010 suncat0026 pw.x -in pw.inp   Done                     01/02/2019 21:10:02
00011 suncat0026 pw.x -in pw.inp   Done                     01/02/2019 21:10:02
00012 suncat0026 pw.x -in pw.inp   Done                     01/02/2019 21:10:02
00013 suncat0026 pw.x -in pw.inp   Done                     01/02/2019 21:10:02
00014 suncat0026 pw.x -in pw.inp   Done                     01/02/2019 21:10:02
00015 suncat0026 pw.x -in pw.inp   Done                     01/02/2019 21:10:02
00016 suncat0192 pw.x -in pw.inp   Done                     01/02/2019 21:10:02
00017 suncat0192 pw.x -in pw.inp   Done                     01/02/2019 21:10:02
00018 suncat0192 pw.x -in pw.inp   Done                     01/02/2019 21:10:02
00019 suncat0192 pw.x -in pw.inp   Done                     01/02/2019 21:10:02
00020 suncat0192 pw.x -in pw.inp   Done                     01/02/2019 21:10:02
00021 suncat0192 pw.x -in pw.inp   Done                     01/02/2019 21:10:02
00022 suncat0192 pw.x -in pw.inp   Done                     01/02/2019 21:10:02
00023 suncat0192 pw.x -in pw.inp   Done                     01/02/2019 21:10:02
00024 suncat0185 pw.x -in pw.inp   Done                     01/02/2019 21:10:02
00025 suncat0185 pw.x -in pw.inp   Done                     01/02/2019 21:10:02
00026 suncat0185 pw.x -in pw.inp   Done                     01/02/2019 21:10:02
00027 suncat0185 pw.x -in pw.inp   Done                     01/02/2019 21:10:02
00028 suncat0185 pw.x -in pw.inp   Done                     01/02/2019 21:10:02
00029 suncat0185 pw.x -in pw.inp   Done                     01/02/2019 21:10:02
00030 suncat0185 pw.x -in pw.inp   Done                     01/02/2019 21:10:02
00031 suncat0185 pw.x -in pw.inp   Done                     01/02/2019 21:10:02
00032 suncat0184 pw.x -in pw.inp   Done                     01/02/2019 21:10:02
00033 suncat0184 pw.x -in pw.inp   Done                     01/02/2019 21:10:02
00034 suncat0184 pw.x -in pw.inp   Done                     01/02/2019 21:10:02
00035 suncat0184 pw.x -in pw.inp   Done                     01/02/2019 21:10:02
00036 suncat0184 pw.x -in pw.inp   Done                     01/02/2019 21:10:02
00037 suncat0184 pw.x -in pw.inp   Done                     01/02/2019 21:10:02
00038 suncat0184 pw.x -in pw.inp   Done                     01/02/2019 21:10:02
00039 suncat0184 pw.x -in pw.inp   Done                     01/02/2019 21:10:02
00040 suncat0183 pw.x -in pw.inp   Done                     01/02/2019 21:10:02
00041 suncat0183 pw.x -in pw.inp   Done                     01/02/2019 21:10:02
00042 suncat0183 pw.x -in pw.inp   Done                     01/02/2019 21:10:02
00043 suncat0183 pw.x -in pw.inp   Done                     01/02/2019 21:10:02
00044 suncat0183 pw.x -in pw.inp   Done                     01/02/2019 21:10:02
00045 suncat0183 pw.x -in pw.inp   Done                     01/02/2019 21:10:02
00046 suncat0183 pw.x -in pw.inp   Done                     01/02/2019 21:10:02
00047 suncat0183 pw.x -in pw.inp   Done                     01/02/2019 21:10:02
00048 suncat0172 pw.x -in pw.inp   Done                     01/02/2019 21:10:02
00049 suncat0172 pw.x -in pw.inp   Done                     01/02/2019 21:10:02
00050 suncat0172 pw.x -in pw.inp   Done                     01/02/2019 21:10:02
00051 suncat0172 pw.x -in pw.inp   Done                     01/02/2019 21:10:02
00052 suncat0172 pw.x -in pw.inp   Done                     01/02/2019 21:10:02
00053 suncat0172 pw.x -in pw.inp   Done                     01/02/2019 21:10:02
00054 suncat0172 pw.x -in pw.inp   Done                     01/02/2019 21:10:02
00055 suncat0172 pw.x -in pw.inp   Done                     01/02/2019 21:10:02
00056 suncat0171 pw.x -in pw.inp   Done                     01/02/2019 21:10:02
00057 suncat0171 pw.x -in pw.inp   Done                     01/02/2019 21:10:02
00058 suncat0171 pw.x -in pw.inp   Done                     01/02/2019 21:10:02
00059 suncat0171 pw.x -in pw.inp   Done                     01/02/2019 21:10:02
00060 suncat0171 pw.x -in pw.inp   Done                     01/02/2019 21:10:02
00061 suncat0171 pw.x -in pw.inp   Done                     01/02/2019 21:10:02
00062 suncat0171 pw.x -in pw.inp   Done                     01/02/2019 21:10:02
00063 suncat0171 pw.x -in pw.inp   Done                     01/02/2019 21:10:02