     Program PWSCF v.5.1rc2 (svn rev. 11289) starts on 20Dec2018 at  8:41:56

     Current dimensions of program PWSCF are:
     Max number of different atomic species (ntypx) = 10
     Max number of k-points (npk) =  40000
     Max angular momentum in pseudopotentials (lmaxx) =  3
     Presently stress not available with electric field

     IMPORTANT: XC functional enforced from input :
     Exchange-correlation      = BEEF-VDW ( 1  4 27 13 2)
     Any further DFT definition will be discarded
     Please, verify this is what you really want

     Subspace diagonalization in iterative solution of the eigenvalue problem:
     a serial algorithm will be used

     Found symmetry operation: I + (  0.5000 -0.5000  0.0000)
     This is a supercell, fractional translations are disabled

     bravais-lattice index     =            0
     lattice parameter (alat)  =       1.8897  a.u.
     unit-cell volume          =    5173.7505 (a.u.)^3
     number of atoms/cell      =           12
     number of atomic types    =            2
     number of electrons       =       150.00
     number of Kohn-Sham states=          105
     kinetic-energy cutoff     =      36.7493  Ry
     charge density cutoff     =     367.4932  Ry
     convergence threshold     =      1.0E-06
     mixing beta               =       0.1000
     number of iterations used =           10  plain     mixing
     Exchange-correlation      = BEEF-VDW ( 1  4 27 13 2)
     nstep                     =           50

     celldm(1)=   1.889726  celldm(2)=   0.000000  celldm(3)=   0.000000
     celldm(4)=   0.000000  celldm(5)=   0.000000  celldm(6)=   0.000000

     crystal axes: (cart. coord. in units of alat)
               a(1) = (   5.739384   0.000000   0.000000 )
               a(2) = (   1.913103   5.411152   0.000000 )
               a(3) = (   0.000000   0.000000  24.686180 )

     reciprocal axes: (cart. coord. in units 2 pi/alat)
               b(1) = (  0.174235 -0.061600  0.000000 )
               b(2) = (  0.000000  0.184804  0.000000 )
               b(3) = (  0.000000  0.000000  0.040508 )

     PseudoPot. # 1 for V  read from file:
     /afs/slac.stanford.edu/u/if/mamunm/psp/gbrv1.5pbe/V.UPF
     MD5 check sum: 22b79981416ebb76fdaf5b1b8640f6fb
     Pseudo is Ultrasoft + core correction, Zval = 13.0
     Generated by new atomic code, or converted to UPF format
     Using radial grid of  853 points,  6 beta functions with:
                l(1) =   0
                l(2) =   0
                l(3) =   1
                l(4) =   1
                l(5) =   2
                l(6) =   2
     Q(r) pseudized with  8 coefficients,  rinner =    1.100   1.100   1.100
                                                       1.100   1.100

     PseudoPot. # 2 for Zr read from file:
     /afs/slac.stanford.edu/u/if/mamunm/psp/gbrv1.5pbe/Zr.UPF
     MD5 check sum: 5db81b1e868ab7776c4564c113de050b
     Pseudo is Ultrasoft + core correction, Zval = 12.0
     Generated by new atomic code, or converted to UPF format
     Using radial grid of  887 points,  6 beta functions with:
                l(1) =   0
                l(2) =   0
                l(3) =   1
                l(4) =   1
                l(5) =   2
                l(6) =   2
     Q(r) pseudized with  6 coefficients,  rinner =    1.200   1.200   1.200
                                                       1.200   1.200

     vdW kernel table read from file vdW_kernel_table
     MD5 check sum: 095c7af220d748ca6e76c0b4c6cfb241

     atomic species   valence    mass     pseudopotential
        V1            13.00    50.94150     V ( 1.00)
        Zr1           12.00    91.22400     Zr( 1.00)

     No symmetry found

   Cartesian axes

     site n.     atom                  positions (alat units)
         1           V1  tau(   1) = (   0.0000000   0.0000000  10.0000000  )
         2           V1  tau(   2) = (   3.8262437   2.7055759  10.0000000  )
         3           Zr1 tau(   3) = (   2.8696920   0.0000000  10.0000000  )
         4           Zr1 tau(   4) = (   0.9565517   2.7055759  10.0000000  )
         5           V1  tau(   5) = (   5.7393840   4.0583768  12.3430899  )
         6           V1  tau(   6) = (   1.9131402   1.3528009  12.3430899  )
         7           Zr1 tau(   7) = (   2.8696920   4.0583768  12.3430899  )
         8           Zr1 tau(   8) = (   4.7828322   1.3528009  12.3430899  )
         9           V1  tau(   9) = (   3.8262805   2.7056018  14.6861799  )
        10           V1  tau(  10) = (   0.0000367   0.0000260  14.6861799  )
        11           Zr1 tau(  11) = (   0.9565885   2.7056018  14.6861799  )
        12           Zr1 tau(  12) = (   2.8697287   0.0000260  14.6861799  )

     number of k points=    20  Fermi-Dirac smearing, width (Ry)=  0.0110
                       cart. coord. in units 2pi/alat
        k(    1) = (   0.0000000   0.0000000   0.0000000), wk =   0.0555556
        k(    2) = (   0.0000000   0.0308006   0.0000000), wk =   0.1111111
        k(    3) = (   0.0000000   0.0616012   0.0000000), wk =   0.1111111
        k(    4) = (   0.0000000  -0.0924018   0.0000000), wk =   0.0555556
        k(    5) = (   0.0290391  -0.0102667   0.0000000), wk =   0.1111111
        k(    6) = (   0.0290391   0.0205339   0.0000000), wk =   0.1111111
        k(    7) = (   0.0290391   0.0513344   0.0000000), wk =   0.1111111
        k(    8) = (   0.0290391  -0.1026685   0.0000000), wk =   0.1111111
        k(    9) = (   0.0290391  -0.0718679   0.0000000), wk =   0.1111111
        k(   10) = (   0.0290391  -0.0410673   0.0000000), wk =   0.1111111
        k(   11) = (   0.0580782  -0.0205335   0.0000000), wk =   0.1111111
        k(   12) = (   0.0580782   0.0102671   0.0000000), wk =   0.1111111
        k(   13) = (   0.0580782   0.0410677   0.0000000), wk =   0.1111111
        k(   14) = (   0.0580782  -0.1129352   0.0000000), wk =   0.1111111
        k(   15) = (   0.0580782  -0.0821346   0.0000000), wk =   0.1111111
        k(   16) = (   0.0580782  -0.0513341   0.0000000), wk =   0.1111111
        k(   17) = (  -0.0871174   0.0308002   0.0000000), wk =   0.0555556
        k(   18) = (  -0.0871174   0.0616008   0.0000000), wk =   0.1111111
        k(   19) = (  -0.0871174   0.0924014   0.0000000), wk =   0.1111111
        k(   20) = (  -0.0871174  -0.0616016   0.0000000), wk =   0.0555556

     Largest allocated arrays     est. size (Mb)     dimensions
     Largest temporary arrays     est. size (Mb)     dimensions

     Initial potential from superposition of free atoms
     Check: negative starting charge=   -0.369813

     starting charge  149.97974, renormalised to  150.00000

     negative rho (up, down):  3.699E-01 0.000E+00

     *
     * You are using vdW-DF for exchange-correlation in this calculation.
     * Please cite the following three references that made this development
     * possible:
     *
     *   M. Dion, H. Rydberg, E. Schroder, D. C. Langreth, and
     *   B. I. Lundqvist, Phys. Rev. Lett. 92, 246401 (2004).
     *
     *   T. Thonhauser, V. R. Cooper, S. Li, A. Puzder, P. Hyldgaard, and
     *   D. C. Langreth, Phys. Rev. B 76, 125112 (2007).
     *
     *   G. Roman-Perez and J. M. Soler, Phys. Rev. Lett. 103, 096102 (2009).
     *
     *
     * If you are using vdW-DF2, please also cite:
     *
     *   K. Lee, E. D. Murray, L. Kong, B. I. Lundqvist, and
     *   D. C. Langreth, Phys. Rev. B 82, 081101(R) (2010).
     *
     *
     * If you are calculating the stress with vdW-DF, please also cite:
     *
     *   R. Sabatini, E. Kucukbenli, B. Kolb, T. Thonhauser, and
     *   S. de Gironcoli, J. Phys.: Condens. Matter 24, 424209 (2012).
     *

     Carrying out vdW-DF run using the following parameters:

     Nqs =      20    Nr_points =    1024   r_max =   100.000
     q_mesh =
               0.00001000     0.04494208     0.09755937     0.15916263
               0.23128650     0.31572767     0.41458969     0.53033537
               0.66584808     0.82450364     1.01025438     1.22772762
               1.48234092     1.78043706     2.12944203     2.53805004
               3.01644009     3.57652955     4.23227104     5.00000000

     Gradients computed in reciprocal space

     Adding external electric field

     Computed dipole along edir(3) :
        Dipole               -0.0000 Ry au,         -0.0000 Debye
        Dipole field         -0.0000 Ry au

        Potential amp.        0.0000 Ry
        Total length         45.4839 bohr

     Starting wfc are  138 randomized atomic wfcs

     Self-consistent Calculation

     iteration #  1     ecut=    36.75 Ry     beta=0.10
     Davidson diagonalization with overlap
     ethr =  1.00E-02,  avg # of iterations =  2.0

[...]

     total energy              =   -1471.59725543 Ry
     Harris-Foulkes estimate   =   -1473.74031588 Ry
     estimated scf accuracy    <      11.90668576 Ry

[...]

     End of self-consistent calculation

          k = 0.0000 0.0000 0.0000 ( 19431 PWs)   bands (ev):

   -62.9148 -62.9147 -62.9107 -62.9106 -62.8148 -62.8107 -47.5964 -47.5961
   -47.5655 -47.5652 -47.1364 -47.1062 -36.8048 -36.8016 -36.7989 -36.7955
   -36.7583 -36.7558 -36.7067 -36.6992 -36.6987 -36.6924 -36.6909 -36.6845
   -36.6717 -36.6669 -36.6206 -36.6121 -36.6102 -36.5525 -25.7358 -25.7280
   -25.6661 -25.6555 -25.6419 -25.6131 -25.5938 -25.5757 -25.5651 -25.5365
   -25.3749 -25.3736 -25.3161 -25.1377 -25.1306 -25.0950 -25.0837 -24.9479
    -4.0199  -2.7298  -1.8782  -1.6614  -1.6088  -1.2312  -1.1540  -1.0447
    -1.0173  -0.9453  -0.8712  -0.8061  -0.2669   0.0886   0.1928   0.2853
     0.3577   0.3924   0.4074   0.4447   0.4609   0.7961   0.8503   0.9736
     1.0865   1.2767   1.3039   1.4312   1.5833   1.8211   1.8519   1.9263
     2.0002   2.0540   2.1893   2.5561   2.8211   3.0144   3.0146   3.0480
     3.1477   3.2070   3.2094   3.2975   3.3774   3.5537   3.5578   3.5658
     3.8480   3.8567   3.9334   4.1239   4.1313   4.1952   4.2033   4.3336
     4.4499

[...]

          k =-0.0871 0.0308 0.0000 ( 19482 PWs)   bands (ev):

[...]

     the Fermi energy is     1.1673 ev

!    total energy              =   -1472.79025458 Ry
     Harris-Foulkes estimate   =   -1472.79025495 Ry
     estimated scf accuracy    <       0.00000076 Ry

     The total energy is the sum of the following terms:

     one-electron contribution =  -10874.68626245 Ry
     hartree contribution      =    5427.47514506 Ry
     xc contribution           =    -232.54391738 Ry
     ewald contribution        =    4207.10918602 Ry
     electric field correction =       0.00000003 Ry
     smearing contrib. (-TS)   =      -0.14440587 Ry

     convergence has been achieved in  24 iterations

 BEEF-vdW xc energy contributions
           1 :   -199.850395369263
           2 :    180.119050613432
           3 :   -147.207478569998
           4 :    110.980902060791
           5 :   -80.1886700360528
           6 :    59.2082877245276
           7 :   -47.4192131316955
           8 :    41.0158886408449
           9 :   -35.8375623757609
          10 :    29.5399275814206
          11 :   -22.1734152214590
          12 :    15.2929921042965
          13 :   -10.4846094218947
[...]
00026 suncat2015 pw.x -in pw.inp   Done                     12/20/2018 08:59:22
00027 suncat2015 pw.x -in pw.inp   Done                     12/20/2018 08:59:22
00028 suncat2015 pw.x -in pw.inp   Done                     12/20/2018 08:59:22
00029 suncat2015 pw.x -in pw.inp   Done                     12/20/2018 08:59:22
00030 suncat2015 pw.x -in pw.inp   Done                     12/20/2018 08:59:22
00031 suncat2015 pw.x -in pw.inp   Done                     12/20/2018 08:59:22

[...]

     Program PWSCF v.5.1rc2 (svn rev. 11289) starts on 20Dec2018 at  9:36: 1

[...]

     Found symmetry operation: I + (  0.5000 -0.5000  0.0000)
     This is a supercell, fractional translations are disabled

[...]

     Program PWSCF v.5.1rc2 (svn rev. 11289) starts on 20Dec2018 at 10:13:30

     Current dimensions of program PWSCF are:
     Max number of different atomic species (ntypx) = 10
     Max number of k-points (npk) =  40000
     Max angular momentum in pseudopotentials (lmaxx) =  3
     Presently stress not available with electric field

     IMPORTANT: XC functional enforced from input :
     Exchange-correlation      = BEEF-VDW ( 1  4 27 13 2)
     Any further DFT definition will be discarded
     Please, verify this is what you really want

     Subspace diagonalization in iterative solution of the eigenvalue problem:
     a serial algorithm will be used

     bravais-lattice index     =            0
     lattice parameter (alat)  =       1.8897  a.u.
     unit-cell volume          =    5173.7505 (a.u.)^3
     number of atoms/cell      =           12
     number of atomic types    =            2
     number of electrons       =       150.00
     number of Kohn-Sham states=          105
     kinetic-energy cutoff     =      36.7493  Ry
     charge density cutoff     =     367.4932  Ry
     convergence threshold     =      1.0E-06
     mixing beta               =       0.1000
     number of iterations used =           10  plain     mixing
     Exchange-correlation      = BEEF-VDW ( 1  4 27 13 2)
     nstep                     =           50

     celldm(1)=   1.889726  celldm(2)=   0.000000  celldm(3)=   0.000000
     celldm(4)=   0.000000  celldm(5)=   0.000000  celldm(6)=   0.000000

     crystal axes: (cart. coord. in units of alat)
               a(1) = (   5.739384   0.000000   0.000000 )
               a(2) = (   1.913103   5.411152   0.000000 )
               a(3) = (   0.000000   0.000000  24.686180 )

     reciprocal axes: (cart. coord. in units 2 pi/alat)
               b(1) = (  0.174235 -0.061600  0.000000 )
               b(2) = (  0.000000  0.184804  0.000000 )
               b(3) = (  0.000000  0.000000  0.040508 )

     PseudoPot. # 1 for V  read from file:
     /afs/slac.stanford.edu/u/if/mamunm/psp/gbrv1.5pbe/V.UPF
     MD5 check sum: 22b79981416ebb76fdaf5b1b8640f6fb
     Pseudo is Ultrasoft + core correction, Zval = 13.0
     Generated by new atomic code, or converted to UPF format
     Using radial grid of  853 points,  6 beta functions with:
                l(1) =   0
                l(2) =   0
                l(3) =   1
                l(4) =   1
                l(5) =   2
                l(6) =   2
     Q(r) pseudized with  8 coefficients,  rinner =    1.100   1.100   1.100
                                                       1.100   1.100

     PseudoPot. # 2 for Zr read from file:
     /afs/slac.stanford.edu/u/if/mamunm/psp/gbrv1.5pbe/Zr.UPF
     MD5 check sum: 5db81b1e868ab7776c4564c113de050b
     Pseudo is Ultrasoft + core correction, Zval = 12.0
     Generated by new atomic code, or converted to UPF format
     Using radial grid of  887 points,  6 beta functions with:
                l(1) =   0
                l(2) =   0
                l(3) =   1
                l(4) =   1
                l(5) =   2
                l(6) =   2
     Q(r) pseudized with  6 coefficients,  rinner =    1.200   1.200   1.200
                                                       1.200   1.200

     vdW kernel table read from file vdW_kernel_table
     MD5 check sum: 095c7af220d748ca6e76c0b4c6cfb241

     atomic species   valence    mass     pseudopotential
        V1            13.00    50.94150     V ( 1.00)
        Zr1           12.00    91.22400     Zr( 1.00)

     No symmetry found

   Cartesian axes

     site n.     atom                  positions (alat units)
         1           V1  tau(   1) = (   0.0000000   0.0000000  10.0000000  )
         2           V1  tau(   2) = (   3.8262437   2.7055759  10.0000000  )
         3           Zr1 tau(   3) = (   2.8696920   0.0000000  10.0000000  )
         4           Zr1 tau(   4) = (   0.9565517   2.7055759  10.0000000  )
         5           V1  tau(   5) = (   5.7393840   4.0583768  12.3430899  )
         6           V1  tau(   6) = (   1.9131402   1.3528009  12.3430899  )
         7           Zr1 tau(   7) = (   2.8696920   4.0583768  12.3430899  )
         8           Zr1 tau(   8) = (   4.7828322   1.3528009  12.3430899  )
         9           V1  tau(   9) = (   3.8262576   2.7055814  14.4615955  )
        10           V1  tau(  10) = (   0.0000543   0.0000429  14.4616414  )
        11           Zr1 tau(  11) = (   0.9566114   2.7055496  14.6654180  )
        12           Zr1 tau(  12) = (   2.8696854   0.0000636  14.6654174  )

     number of k points=    20  Fermi-Dirac smearing, width (Ry)=  0.0110
                       cart. coord. in units 2pi/alat
        k(    1) = (   0.0000000   0.0000000   0.0000000), wk =   0.0555556
        k(    2) = (   0.0000000   0.0308006   0.0000000), wk =   0.1111111
        k(    3) = (   0.0000000   0.0616012   0.0000000), wk =   0.1111111
        k(    4) = (   0.0000000  -0.0924018   0.0000000), wk =   0.0555556
        k(    5) = (   0.0290391  -0.0102667   0.0000000), wk =   0.1111111
        k(    6) = (   0.0290391   0.0205339   0.0000000), wk =   0.1111111
        k(    7) = (   0.0290391   0.0513344   0.0000000), wk =   0.1111111
        k(    8) = (   0.0290391  -0.1026685   0.0000000), wk =   0.1111111
        k(    9) = (   0.0290391  -0.0718679   0.0000000), wk =   0.1111111
        k(   10) = (   0.0290391  -0.0410673   0.0000000), wk =   0.1111111
        k(   11) = (   0.0580782  -0.0205335   0.0000000), wk =   0.1111111
        k(   12) = (   0.0580782   0.0102671   0.0000000), wk =   0.1111111
        k(   13) = (   0.0580782   0.0410677   0.0000000), wk =   0.1111111
        k(   14) = (   0.0580782  -0.1129352   0.0000000), wk =   0.1111111
        k(   15) = (   0.0580782  -0.0821346   0.0000000), wk =   0.1111111
        k(   16) = (   0.0580782  -0.0513341   0.0000000), wk =   0.1111111
        k(   17) = (  -0.0871174   0.0308002   0.0000000), wk =   0.0555556
        k(   18) = (  -0.0871174   0.0616008   0.0000000), wk =   0.1111111
        k(   19) = (  -0.0871174   0.0924014   0.0000000), wk =   0.1111111
        k(   20) = (  -0.0871174  -0.0616016   0.0000000), wk =   0.0555556

     Largest allocated arrays     est. size (Mb)     dimensions
     Largest temporary arrays     est. size (Mb)     dimensions

     Initial potential from superposition of free atoms
     Check: negative starting charge=   -0.370473

     starting charge  149.97974, renormalised to  150.00000

[...]

     *
     * You are using vdW-DF for exchange-correlation in this calculation.
     * Please cite the following three references that made this development
     * possible:
     *
     *   M. Dion, H. Rydberg, E. Schroder, D. C. Langreth, and
     *   B. I. Lundqvist, Phys. Rev. Lett. 92, 246401 (2004).
     *
     *   T. Thonhauser, V. R. Cooper, S. Li, A. Puzder, P. Hyldgaard, and
     *   D. C. Langreth, Phys. Rev. B 76, 125112 (2007).
     *
     *   G. Roman-Perez and J. M. Soler, Phys. Rev. Lett. 103, 096102 (2009).
     *
     *
     * If you are using vdW-DF2, please also cite:
     *
     *   K. Lee, E. D. Murray, L. Kong, B. I. Lundqvist, and
     *   D. C. Langreth, Phys. Rev. B 82, 081101(R) (2010).
     *
     *
     * If you are calculating the stress with vdW-DF, please also cite:
     *
     *   R. Sabatini, E. Kucukbenli, B. Kolb, T. Thonhauser, and
     *   S. de Gironcoli, J. Phys.: Condens. Matter 24, 424209 (2012).
     *

     Carrying out vdW-DF run using the following parameters:

     Nqs =      20    Nr_points =    1024   r_max =   100.000
     q_mesh =
               0.00001000     0.04494208     0.09755937     0.15916263
               0.23128650     0.31572767     0.41458969     0.53033537
               0.66584808     0.82450364     1.01025438     1.22772762
               1.48234092     1.78043706     2.12944203     2.53805004
               3.01644009     3.57652955     4.23227104     5.00000000

     Gradients computed in reciprocal space

[...]

     Starting wfc are  138 randomized atomic wfcs

     Self-consistent Calculation

[...]

     total energy              =   -1472.80306786 Ry
     Harris-Foulkes estimate   =   -1472.80306805 Ry
     estimated scf accuracy    <       0.00000463 Ry

     iteration # 25     ecut=    36.75 Ry     beta=0.10
     Davidson diagonalization with overlap
     ethr =  3.09E-09,  avg # of iterations =  3.0

[...]

     negative rho (up, down):  3.802E-01 0.000E+00

     Adding external electric field

     Computed dipole along edir(3) :
        Dipole                0.0424 Ry au,          0.1077 Debye
        Dipole field          0.0001 Ry au

        Potential amp.       -0.0094 Ry
        Total length         45.4839 bohr

     End of self-consistent calculation

[...]

          k = 0.0581-0.0513 0.0000 ( 19462 PWs)   bands (ev):

[...]

          k =-0.0871-0.0616 0.0000 ( 19410 PWs)   bands (ev):

   -62.8877 -62.8837 -62.8093 -62.8087 -62.8084 -62.8008 -47.6099 -47.5793
   -47.5744 -47.5436 -46.9612 -46.9277 -36.7796 -36.7745 -36.7269 -36.6962
   -36.6839 -36.6773 -36.6731 -36.6704 -36.6555 -36.6509 -36.6443 -36.6268
   -36.6150 -36.6011 -36.5999 -36.5937 -36.5808 -36.5462 -25.7510 -25.7232
   -25.7021 -25.6507 -25.6359 -25.6348 -25.5987 -25.5802 -25.5761 -25.5305
   -25.3801 -25.3539 -25.1793 -24.9936 -24.9823 -24.9630 -24.9550 -24.7990
    -2.1946  -2.1072  -1.2706  -1.0309  -1.0048  -0.8129  -0.6632  -0.5705
    -0.5426  -0.1132   0.0475   0.1872   0.2732   0.2775   0.2983   0.3273
     0.5391   0.5532   0.5558   0.6406   0.6827   0.7889   0.9079   1.0721
     1.1397   1.1806   1.1923   1.2137   1.2605   1.4377   1.4422   1.4924
     1.5123   1.5918   1.7279   1.8086   1.8183   1.8535   2.1188   2.2639
     2.3215   2.3605   2.6129   2.8246   2.9609   3.0012   3.1806   3.1927
     3.2424   3.4208   3.4378   3.4429   3.5873   3.6609   3.7088   3.8251
     3.9574

     the Fermi energy is     1.1982 ev

!    total energy              =   -1472.80306786 Ry
     Harris-Foulkes estimate   =   -1472.80306816 Ry
     estimated scf accuracy    <       0.00000098 Ry

     The total energy is the sum of the following terms:

     one-electron contribution =  -11065.70272453 Ry
     hartree contribution      =    5523.26702763 Ry
     xc contribution           =    -232.70864019 Ry
     ewald contribution        =    4302.47907160 Ry
     electric field correction =       0.00000436 Ry
     smearing contrib. (-TS)   =      -0.13780674 Ry

     convergence has been achieved in  25 iterations

 BEEF-vdW xc energy contributions
           1 :   -200.055822252045
           2 :    180.389281194542
           3 :   -147.545795558265
           4 :    111.315984181549
           5 :   -80.4195722297471
           6 :    59.2748962222801
           7 :   -47.3468791946131
           8 :    40.9014648396337
           9 :   -35.7872276846758
          10 :    29.6032590942939
          11 :   -22.3178800830806
          12 :    15.4312251788070
          13 :   -10.5315255859582
          14 :    8.19964163939531
          15 :   -7.79707123569185
          16 :    8.04559512306358
          17 :   -7.87933899606477
          18 :    6.99321003744612
          19 :   -5.81309554741583
          20 :    5.01649665412754
          21 :   -4.99445580073362
          22 :    5.60912175491913
          23 :   -6.35080653664713
          24 :    6.71705277706346
          25 :   -6.52607211211776
          26 :    5.96856856626667
          27 :   -5.41152842017780
          28 :    5.12588879814706
          29 :   -5.13208005774871
          30 :    5.24203979792028
          31 :   -21.8133263415912
          32 :   -16.0099220501940

     Forces acting on atoms (Ry/au):

     negative rho (up, down):  3.802E-01 0.000E+00
     atom    1 type  1   force =    -0.00000029    0.00000013    0.02620057
     atom    2 type  1   force =    -0.00000024   -0.00000036    0.02621667
     atom    3 type  2   force =     0.00000526   -0.00000366   -0.00514678
     atom    4 type  2   force =    -0.00000259    0.00000553   -0.00514698
     atom    5 type  1   force =     0.00000219    0.00000176    0.00705827
     atom    6 type  1   force =    -0.00000217   -0.00000146    0.00705324
     atom    7 type  2   force =    -0.00005289    0.00007349   -0.02820224
     atom    8 type  2   force =     0.00005176   -0.00007457   -0.02820287
     atom    9 type  1   force =     0.00000368    0.00000248    0.00003894
     atom   10 type  1   force =    -0.00000494   -0.00000349    0.00005565
     atom   11 type  2   force =    -0.00001214    0.00001648    0.00003773
     atom   12 type  2   force =     0.00001238   -0.00001634    0.00003781

     Total force =     0.055831     Total SCF correction =     0.001995

     entering subroutine stress ...

     negative rho (up, down):  3.802E-01 0.000E+00
          total   stress  (Ry/bohr**3)                   (kbar)     P=  -13.58
  -0.00012931  -0.00002931  -0.00000000        -19.02     -4.31     -0.00
  -0.00002931  -0.00010858  -0.00000000         -4.31    -15.97     -0.00
  -0.00000000  -0.00000000  -0.00003901         -0.00     -0.00     -5.74

 !ASE

     Writing output data file calc.save

     General routines

     Parallel routines

   This run was terminated on:  10:31:48  20Dec2018

   JOB DONE.
Job  /afs/slac/g/suncat/bin/suncat-tsmpirun -x LD_LIBRARY_PATH -wdir /scratch/qe530787_0qH9g pw.x -in pw.inp

TID   HOST_NAME   COMMAND_LINE            STATUS            TERMINATION_TIME
00000 suncat2023 pw.x -in pw.inp   Done                     12/20/2018 10:31:48
00001 suncat2023 pw.x -in pw.inp   Done                     12/20/2018 10:31:48
00002 suncat2023 pw.x -in pw.inp   Done                     12/20/2018 10:31:48
00003 suncat2023 pw.x -in pw.inp   Done                     12/20/2018 10:31:48
00004 suncat2023 pw.x -in pw.inp   Done                     12/20/2018 10:31:48
00005 suncat2023 pw.x -in pw.inp   Done                     12/20/2018 10:31:48
00006 suncat2023 pw.x -in pw.inp   Done                     12/20/2018 10:31:48
00007 suncat2023 pw.x -in pw.inp   Done                     12/20/2018 10:31:48
00008 suncat2023 pw.x -in pw.inp   Done                     12/20/2018 10:31:48
00009 suncat2023 pw.x -in pw.inp   Done                     12/20/2018 10:31:48
00010 suncat2023 pw.x -in pw.inp   Done                     12/20/2018 10:31:48
00011 suncat2023 pw.x -in pw.inp   Done                     12/20/2018 10:31:48
00012 suncat2023 pw.x -in pw.inp   Done                     12/20/2018 10:31:48
00013 suncat2023 pw.x -in pw.inp   Done                     12/20/2018 10:31:48
00014 suncat2023 pw.x -in pw.inp   Done                     12/20/2018 10:31:48
00015 suncat2023 pw.x -in pw.inp   Done                     12/20/2018 10:31:48
00016 suncat2015 pw.x -in pw.inp   Done                     12/20/2018 10:31:48
00017 suncat2015 pw.x -in pw.inp   Done                     12/20/2018 10:31:48
00018 suncat2015 pw.x -in pw.inp   Done                     12/20/2018 10:31:48
00019 suncat2015 pw.x -in pw.inp   Done                     12/20/2018 10:31:48
00020 suncat2015 pw.x -in pw.inp   Done                     12/20/2018 10:31:48
00021 suncat2015 pw.x -in pw.inp   Done                     12/20/2018 10:31:48
00022 suncat2015 pw.x -in pw.inp   Done                     12/20/2018 10:31:48
00023 suncat2015 pw.x -in pw.inp   Done                     12/20/2018 10:31:48
00024 suncat2015 pw.x -in pw.inp   Done                     12/20/2018 10:31:48
00025 suncat2015 pw.x -in pw.inp   Done                     12/20/2018 10:31:48
00026 suncat2015 pw.x -in pw.inp   Done                     12/20/2018 10:31:48
00027 suncat2015 pw.x -in pw.inp   Done                     12/20/2018 10:31:48
00028 suncat2015 pw.x -in pw.inp   Done                     12/20/2018 10:31:48
00029 suncat2015 pw.x -in pw.inp   Done                     12/20/2018 10:31:48
00030 suncat2015 pw.x -in pw.inp   Done                     12/20/2018 10:31:48
00031 suncat2015 pw.x -in pw.inp   Done                     12/20/2018 10:31:48