     Program PWSCF v.5.1rc2 (svn rev. 11289) starts on  2Jan2019 at  1: 4:55

     Current dimensions of program PWSCF are:
     Max number of different atomic species (ntypx) = 10
     Max number of k-points (npk) =  40000
     Max angular momentum in pseudopotentials (lmaxx) =  3
     Presently stress not available with electric field

     IMPORTANT: XC functional enforced from input :
     Exchange-correlation      = BEEF-VDW ( 1  4 27 13 2)
     Any further DFT definition will be discarded
     Please, verify this is what you really want

     Subspace diagonalization in iterative solution of the eigenvalue problem:
     a serial algorithm will be used

     bravais-lattice index     =            0
     lattice parameter (alat)  =       1.8897  a.u.
     unit-cell volume          =    7585.5018 (a.u.)^3
     number of atoms/cell      =           12
     number of atomic types    =            2
     number of electrons       =       156.00
     number of Kohn-Sham states=          108
     kinetic-energy cutoff     =      36.7493  Ry
     charge density cutoff     =     367.4932  Ry
     convergence threshold     =      1.0E-06
     mixing beta               =       0.1000
     number of iterations used =           10  plain     mixing
     Exchange-correlation      = BEEF-VDW ( 1  4 27 13 2)
     nstep                     =           50

     celldm(1)=   1.889726  celldm(2)=   0.000000  celldm(3)=   0.000000
     celldm(4)=   0.000000  celldm(5)=   0.000000  celldm(6)=   0.000000

     crystal axes: (cart. coord. in units of alat)
               a(1) = (   7.093896   0.000000   0.000000 )
               a(2) = (  -3.546948   6.143494   0.000000 )
               a(3) = (   0.000000   0.000000  25.792142 )

     reciprocal axes: (cart. coord. in units 2 pi/alat)
               b(1) = (  0.140966  0.081387  0.000000 )
               b(2) = (  0.000000  0.162774  0.000000 )
               b(3) = (  0.000000  0.000000  0.038771 )

     PseudoPot. # 1 for Tl read from file:
     /afs/slac.stanford.edu/u/if/mamunm/psp/gbrv1.5pbe/Tl.UPF
     MD5 check sum: b76cf1f7e72655a2b2c53cf6385d7059
     Pseudo is Ultrasoft + core correction, Zval = 13.0
     Generated by new atomic code, or converted to UPF format
     Using radial grid of  899 points,  6 beta functions with:
                l(1) =   0
                l(2) =   0
                l(3) =   1
                l(4) =   1
                l(5) =   2
                l(6) =   2
     Q(r) pseudized with  6 coefficients,  rinner =    1.100   1.100   1.100
                                                       1.100   1.100

     PseudoPot. # 2 for In read from file:
     /afs/slac.stanford.edu/u/if/mamunm/psp/gbrv1.5pbe/In.UPF
     MD5 check sum: 90777abd96fbb83f2e67db2a40c566b9
     Pseudo is Ultrasoft + core correction, Zval = 13.0
     Generated by new atomic code, or converted to UPF format
     Using radial grid of  889 points,  6 beta functions with:
                l(1) =   0
                l(2) =   0
                l(3) =   1
                l(4) =   1
                l(5) =   2
                l(6) =   2
     Q(r) pseudized with  6 coefficients,  rinner =    1.400   1.400   1.400
                                                       1.400   1.400

     vdW kernel table read from file vdW_kernel_table
     MD5 check sum: 095c7af220d748ca6e76c0b4c6cfb241

     atomic species   valence    mass     pseudopotential
        Tl1           13.00   204.38000     Tl( 1.00)
        In1           13.00   114.81800     In( 1.00)

     No symmetry found

   Cartesian axes

     site n.     atom                  positions (alat units)
         1           Tl1 tau(   1) = (   0.0000000   0.0000000  10.0000000  )
         2           Tl1 tau(   2) = (  -1.7734741   3.0717472  10.0000000  )
         3           Tl1 tau(   3) = (   1.7734741   3.0717472  10.0000000  )
         4           In1 tau(   4) = (   3.5469482   0.0000000  10.0000000  )
         5           Tl1 tau(   5) = (   3.5469482   2.0478315  12.8960710  )
         6           Tl1 tau(   6) = (   1.7734741   5.1195787  12.8960710  )
         7           Tl1 tau(   7) = (  -1.7734741   5.1195787  12.8960710  )
         8           In1 tau(   8) = (   0.0000000   2.0478315  12.8960710  )
         9           Tl1 tau(   9) = (  -0.0000000   4.0956629  15.7921421  )
        10           Tl1 tau(  10) = (   1.7734741   1.0239157  15.7921421  )
        11           Tl1 tau(  11) = (   5.3204222   1.0239157  15.7921421  )
        12           In1 tau(  12) = (   3.5469482   4.0956629  15.7921421  )

     number of k points=    20  Fermi-Dirac smearing, width (Ry)=  0.0110
                       cart. coord. in units 2pi/alat
        k(    1) = (   0.0000000   0.0000000   0.0000000), wk =   0.0555556
        k(    2) = (   0.0000000   0.0271290   0.0000000), wk =   0.1111111
        k(    3) = (   0.0000000   0.0542579   0.0000000), wk =   0.1111111
        k(    4) = (   0.0000000  -0.0813869   0.0000000), wk =   0.0555556
        k(    5) = (   0.0234944   0.0135645   0.0000000), wk =   0.1111111
        k(    6) = (   0.0234944   0.0406935   0.0000000), wk =   0.1111111
        k(    7) = (   0.0234944   0.0678224   0.0000000), wk =   0.1111111
        k(    8) = (   0.0234944  -0.0678224   0.0000000), wk =   0.1111111
        k(    9) = (   0.0234944  -0.0406935   0.0000000), wk =   0.1111111
        k(   10) = (   0.0234944  -0.0135645   0.0000000), wk =   0.1111111
        k(   11) = (   0.0469888   0.0271290   0.0000000), wk =   0.1111111
        k(   12) = (   0.0469888   0.0542579   0.0000000), wk =   0.1111111
        k(   13) = (   0.0469888   0.0813869   0.0000000), wk =   0.1111111
        k(   14) = (   0.0469888  -0.0542579   0.0000000), wk =   0.1111111
        k(   15) = (   0.0469888  -0.0271290   0.0000000), wk =   0.1111111
        k(   16) = (   0.0469888   0.0000000   0.0000000), wk =   0.1111111
        k(   17) = (  -0.0704831  -0.0406935   0.0000000), wk =   0.0555556
        k(   18) = (  -0.0704831  -0.0135645   0.0000000), wk =   0.1111111
        k(   19) = (  -0.0704831   0.0135645   0.0000000), wk =   0.1111111
        k(   20) = (  -0.0704831  -0.1220804   0.0000000), wk =   0.0555556

     Largest allocated arrays     est. size (Mb)     dimensions
     Largest temporary arrays     est. size (Mb)     dimensions

     Check: negative/imaginary core charge=   -0.000001    0.000000

     Initial potential from superposition of free atoms
     Check: negative starting charge=   -0.458520

     starting charge  151.45621, renormalised to  156.00000

     negative rho (up, down):  4.723E-01 0.000E+00

     *
     * You are using vdW-DF for exchange-correlation in this calculation.
     * Please cite the following three references that made this development
     * possible:
     *
     *   M. Dion, H. Rydberg, E. Schroder, D. C. Langreth, and
     *   B. I. Lundqvist, Phys. Rev. Lett. 92, 246401 (2004).
     *
     *   T. Thonhauser, V. R. Cooper, S. Li, A. Puzder, P. Hyldgaard, and
     *   D. C. Langreth, Phys. Rev. B 76, 125112 (2007).
     *
     *   G. Roman-Perez and J. M. Soler, Phys. Rev. Lett. 103, 096102 (2009).
     *
     *
     * If you are using vdW-DF2, please also cite:
     *
     *   K. Lee, E. D. Murray, L. Kong, B. I. Lundqvist, and
     *   D. C. Langreth, Phys. Rev. B 82, 081101(R) (2010).
     *
     *
     * If you are calculating the stress with vdW-DF, please also cite:
     *
     *   R. Sabatini, E. Kucukbenli, B. Kolb, T. Thonhauser, and
     *   S. de Gironcoli, J. Phys.: Condens. Matter 24, 424209 (2012).
     *

     Carrying out vdW-DF run using the following parameters:

     Nqs =      20    Nr_points =    1024   r_max =   100.000
     q_mesh =
               0.00001000     0.04494208     0.09755937     0.15916263
               0.23128650     0.31572767     0.41458969     0.53033537
               0.66584808     0.82450364     1.01025438     1.22772762
               1.48234092     1.78043706     2.12944203     2.53805004
               3.01644009     3.57652955     4.23227104     5.00000000

     Gradients computed in reciprocal space

     Adding external electric field

     Computed dipole along edir(3) :
        Dipole                0.0000 Ry au,          0.0000 Debye
        Dipole field          0.0000 Ry au

        Potential amp.       -0.0000 Ry
        Total length         47.5216 bohr

     Starting wfc are  108 randomized atomic wfcs

     Self-consistent Calculation

     iteration #  1     ecut=    36.75 Ry     beta=0.10
     Davidson diagonalization with overlap
     ethr =  1.00E-02,  avg # of iterations =  8.3

[...]

     total energy              =   -1725.99399560 Ry
     Harris-Foulkes estimate   =   -1726.37990188 Ry
     estimated scf accuracy    <       2.58990909 Ry

[...]

     End of self-consistent calculation

          k = 0.0000 0.0000 0.0000 ( 28457 PWs)   bands (ev):

   -14.4345 -14.4323 -14.4199 -14.4199 -14.4171 -14.4171 -14.4056 -14.4056
   -14.4051 -14.4051 -14.3042 -14.3042 -14.2976 -14.2923 -14.2923 -11.5170
   -11.5052 -11.4769 -11.4769 -11.4688 -11.4386 -11.4386 -11.4081 -11.3939
   -11.3790 -11.3620 -11.3620 -11.3592 -11.3592 -11.3377 -11.3041 -11.3041
   -11.2990 -11.2888 -11.2888 -11.2081 -11.2081 -11.2056 -11.1940 -11.1940
   -11.1920 -11.1816 -11.1816 -11.1705 -11.1561 -11.1561 -11.1121 -11.1121
   -11.0933 -11.0933 -11.0615 -11.0615 -11.0208 -11.0208 -11.0163 -10.9950
   -10.9832 -10.9518 -10.9518 -10.8912  -8.3394  -7.3002  -5.7665  -4.8835
    -4.8835  -4.5342  -4.5342  -3.8379  -3.8379  -3.7371  -3.5262  -2.7203
    -1.5058  -1.5058  -1.4401  -1.1457  -0.4254  -0.4254  -0.3676  -0.3676
    -0.2978  -0.1776   1.1757   3.0427   3.0483   3.0856   3.0955   3.0955
     3.1380   3.1381   3.5263   4.2217   4.4223   4.6238   4.6238   4.7701
     5.1486   5.1562   5.1562   5.6958   5.6958   5.8750   6.0002   6.0082
     6.2562   6.2564   6.3638   6.8520

[...]

          k =-0.0705-0.0407 0.0000 ( 28534 PWs)   bands (ev):

[...]

     the Fermi energy is     0.4861 ev

!    total energy              =   -1725.52069751 Ry
     Harris-Foulkes estimate   =   -1725.52609569 Ry
     estimated scf accuracy    <       0.00000089 Ry

     The total energy is the sum of the following terms:

     one-electron contribution =   -7680.39783526 Ry
     hartree contribution      =    3919.35783886 Ry
     xc contribution           =    -693.03638726 Ry
     ewald contribution        =    2728.60402694 Ry
     electric field correction =       0.00000000 Ry
     smearing contrib. (-TS)   =      -0.04834078 Ry

     convergence has been achieved in  13 iterations

 BEEF-vdW xc energy contributions
           1 :   -615.568315788125
           2 :    569.594207414576
           3 :   -489.649520130732
           4 :    394.584858055402
           5 :   -302.874445474392
           6 :    226.681103723104
           7 :   -169.547924709083
           8 :    128.001796276130
           9 :   -95.6258411027442
          10 :    67.2169087855640
          11 :   -41.0422872639724
          12 :    18.5006713030232
          13 :   -2.01945507413984
          14 :   -7.20779110615410
[...]
     MD5 check sum: b76cf1f7e72655a2b2c53cf6385d7059
     Pseudo is Ultrasoft + core correction, Zval = 13.0
     Generated by new atomic code, or converted to UPF format
     Using radial grid of  899 points,  6 beta functions with:
                l(1) =   0
                l(2) =   0
                l(3) =   1
                l(4) =   1
                l(5) =   2
                l(6) =   2
     Q(r) pseudized with  6 coefficients,  rinner =    1.100   1.100   1.100
                                                       1.100   1.100

     PseudoPot. # 2 for In read from file:
     /afs/slac.stanford.edu/u/if/mamunm/psp/gbrv1.5pbe/In.UPF
     MD5 check sum: 90777abd96fbb83f2e67db2a40c566b9
     Pseudo is Ultrasoft + core correction, Zval = 13.0
     Generated by new atomic code, or converted to UPF format
     Using radial grid of  889 points,  6 beta functions with:
                l(1) =   0
                l(2) =   0
                l(3) =   1
                l(4) =   1
                l(5) =   2
                l(6) =   2
     Q(r) pseudized with  6 coefficients,  rinner =    1.400   1.400   1.400
                                                       1.400   1.400

     vdW kernel table read from file vdW_kernel_table
     MD5 check sum: 095c7af220d748ca6e76c0b4c6cfb241

     atomic species   valence    mass     pseudopotential
        Tl1           13.00   204.38000     Tl( 1.00)
        In1           13.00   114.81800     In( 1.00)

     No symmetry found

   Cartesian axes

     site n.     atom                  positions (alat units)
         1           Tl1 tau(   1) = (   0.0000000   0.0000000  10.0000000  )
         2           Tl1 tau(   2) = (  -1.7734741   3.0717472  10.0000000  )
         3           Tl1 tau(   3) = (   1.7734741   3.0717472  10.0000000  )
         4           In1 tau(   4) = (   3.5469482   0.0000000  10.0000000  )
         5           Tl1 tau(   5) = (   3.5469482   2.0478315  12.8960710  )
         6           Tl1 tau(   6) = (   1.7734741   5.1195787  12.8960710  )
         7           Tl1 tau(   7) = (  -1.7734741   5.1195787  12.8960710  )
         8           In1 tau(   8) = (   0.0000000   2.0478315  12.8960710  )
         9           Tl1 tau(   9) = (  -0.0001450   4.0842275  15.8444145  )
        10           Tl1 tau(  10) = (   1.7628585   1.0299417  15.8452328  )
        11           Tl1 tau(  11) = (   5.3308738   1.0297072  15.8454455  )
        12           In1 tau(  12) = (   3.5469465   4.0955133  15.7168827  )

     number of k points=    20  Fermi-Dirac smearing, width (Ry)=  0.0110
                       cart. coord. in units 2pi/alat
        k(    1) = (   0.0000000   0.0000000   0.0000000), wk =   0.0555556
        k(    2) = (   0.0000000   0.0271290   0.0000000), wk =   0.1111111
        k(    3) = (   0.0000000   0.0542579   0.0000000), wk =   0.1111111
        k(    4) = (   0.0000000  -0.0813869   0.0000000), wk =   0.0555556
        k(    5) = (   0.0234944   0.0135645   0.0000000), wk =   0.1111111
        k(    6) = (   0.0234944   0.0406935   0.0000000), wk =   0.1111111
        k(    7) = (   0.0234944   0.0678224   0.0000000), wk =   0.1111111
        k(    8) = (   0.0234944  -0.0678224   0.0000000), wk =   0.1111111
        k(    9) = (   0.0234944  -0.0406935   0.0000000), wk =   0.1111111
        k(   10) = (   0.0234944  -0.0135645   0.0000000), wk =   0.1111111
        k(   11) = (   0.0469888   0.0271290   0.0000000), wk =   0.1111111
        k(   12) = (   0.0469888   0.0542579   0.0000000), wk =   0.1111111
        k(   13) = (   0.0469888   0.0813869   0.0000000), wk =   0.1111111
        k(   14) = (   0.0469888  -0.0542579   0.0000000), wk =   0.1111111
        k(   15) = (   0.0469888  -0.0271290   0.0000000), wk =   0.1111111
        k(   16) = (   0.0469888   0.0000000   0.0000000), wk =   0.1111111
        k(   17) = (  -0.0704831  -0.0406935   0.0000000), wk =   0.0555556
        k(   18) = (  -0.0704831  -0.0135645   0.0000000), wk =   0.1111111
        k(   19) = (  -0.0704831   0.0135645   0.0000000), wk =   0.1111111
        k(   20) = (  -0.0704831  -0.1220804   0.0000000), wk =   0.0555556

     Largest allocated arrays     est. size (Mb)     dimensions
     Largest temporary arrays     est. size (Mb)     dimensions

     Check: negative/imaginary core charge=   -0.000001    0.000000

     Initial potential from superposition of free atoms
     Check: negative starting charge=   -0.458807

     starting charge  151.45621, renormalised to  156.00000

[...]

     *
     * You are using vdW-DF for exchange-correlation in this calculation.
     * Please cite the following three references that made this development
     * possible:
     *
     *   M. Dion, H. Rydberg, E. Schroder, D. C. Langreth, and
     *   B. I. Lundqvist, Phys. Rev. Lett. 92, 246401 (2004).
     *
     *   T. Thonhauser, V. R. Cooper, S. Li, A. Puzder, P. Hyldgaard, and
     *   D. C. Langreth, Phys. Rev. B 76, 125112 (2007).
     *
     *   G. Roman-Perez and J. M. Soler, Phys. Rev. Lett. 103, 096102 (2009).
     *
     *
     * If you are using vdW-DF2, please also cite:
     *
     *   K. Lee, E. D. Murray, L. Kong, B. I. Lundqvist, and
     *   D. C. Langreth, Phys. Rev. B 82, 081101(R) (2010).
     *
     *
     * If you are calculating the stress with vdW-DF, please also cite:
     *
     *   R. Sabatini, E. Kucukbenli, B. Kolb, T. Thonhauser, and
     *   S. de Gironcoli, J. Phys.: Condens. Matter 24, 424209 (2012).
     *

     Carrying out vdW-DF run using the following parameters:

     Nqs =      20    Nr_points =    1024   r_max =   100.000
     q_mesh =
               0.00001000     0.04494208     0.09755937     0.15916263
               0.23128650     0.31572767     0.41458969     0.53033537
               0.66584808     0.82450364     1.01025438     1.22772762
               1.48234092     1.78043706     2.12944203     2.53805004
               3.01644009     3.57652955     4.23227104     5.00000000

     Gradients computed in reciprocal space

[...]

     Starting wfc are  108 randomized atomic wfcs

     Self-consistent Calculation

[...]

     total energy              =   -1725.52706608 Ry
     Harris-Foulkes estimate   =   -1725.52705482 Ry
     estimated scf accuracy    <       0.00000151 Ry

     iteration # 17     ecut=    36.75 Ry     beta=0.10
     Davidson diagonalization with overlap
     ethr =  9.68E-10,  avg # of iterations =  2.0

[...]

     negative rho (up, down):  4.755E-01 0.000E+00

     Adding external electric field

     Computed dipole along edir(3) :
        Dipole                0.0066 Ry au,          0.0169 Debye
        Dipole field          0.0000 Ry au

        Potential amp.       -0.0010 Ry
        Total length         47.5216 bohr

     End of self-consistent calculation

[...]

          k = 0.0470 0.0000 0.0000 ( 28515 PWs)   bands (ev):

[...]

          k =-0.0705-0.1221 0.0000 ( 28534 PWs)   bands (ev):

   -14.4260 -14.4131 -14.4128 -14.4088 -14.3975 -14.3973 -14.3969 -14.3946
   -14.3818 -14.3791 -14.2933 -14.2907 -14.2851 -14.2818 -14.2815 -11.4670
   -11.4530 -11.3961 -11.3928 -11.3654 -11.3469 -11.3439 -11.3391 -11.3333
   -11.3298 -11.3250 -11.3065 -11.3032 -11.2985 -11.2833 -11.2736 -11.2716
   -11.2690 -11.2623 -11.2593 -11.2568 -11.2488 -11.2477 -11.2453 -11.2428
   -11.2064 -11.1946 -11.1938 -11.1759 -11.1735 -11.1529 -11.1340 -11.1280
   -11.1256 -11.1206 -11.1075 -11.1037 -11.0971 -11.0922 -11.0889 -11.0610
   -11.0543 -11.0173 -11.0120 -10.9298  -7.3202  -7.1985  -6.3587  -6.1686
    -5.3906  -5.2360  -4.9373  -4.6203  -4.2408  -3.7381  -3.6994  -2.8479
    -0.0294  -0.0144   0.2321   0.2976   0.3141   0.4264   1.0319   1.2040
     1.5412   1.5677   1.7853   1.8968   2.6196   2.6438   2.7123   2.7413
     3.1550   3.1856   3.2911   3.4201   3.5352   3.6154   4.0712   4.0970
     4.1121   4.1643   4.4447   4.5068   4.6803   4.8348   5.2587   5.2627
     5.4167   5.4377   5.7453   5.7902

     the Fermi energy is     0.4941 ev

!    total energy              =   -1725.52708997 Ry
     Harris-Foulkes estimate   =   -1725.52706621 Ry
     estimated scf accuracy    <       0.00000077 Ry

     The total energy is the sum of the following terms:

     one-electron contribution =   -7657.45943828 Ry
     hartree contribution      =    3907.91058394 Ry
     xc contribution           =    -693.03384197 Ry
     ewald contribution        =    2717.10377837 Ry
     electric field correction =       0.00000007 Ry
     smearing contrib. (-TS)   =      -0.04817211 Ry

     convergence has been achieved in  17 iterations

 BEEF-vdW xc energy contributions
           1 :   -615.722946741046
           2 :    569.740152273141
           3 :   -489.787792136723
           4 :    394.726241333931
           5 :   -303.031160446728
           6 :    226.857273186845
           7 :   -169.735390499393
           8 :    128.184280831542
           9 :   -95.7897646517486
          10 :    67.3608310673254
          11 :   -41.1780883849302
          12 :    18.6455974422286
          13 :   -2.18455582276454
          14 :   -7.02521491037794
          15 :    10.0757605392247
          16 :   -9.76961867298928
          17 :    9.09474196616941
          18 :   -9.81458220637126
          19 :    11.9597920777016
          20 :   -14.3505689211771
          21 :    15.6582357524203
          22 :   -15.3095982805642
          23 :    13.7435023743650
          24 :   -11.9987710176882
          25 :    10.9977231354015
          26 :   -11.0104649676738
          27 :    11.5847167334607
          28 :   -11.9101544114615
          29 :    11.3374333429429
          30 :   -9.74157231351114
          31 :   -50.4182696555521
          32 :   -36.6946457743777

     Forces acting on atoms (Ry/au):

     negative rho (up, down):  4.755E-01 0.000E+00
     atom    1 type  1   force =    -0.00001055    0.00315901   -0.00156520
     atom    2 type  1   force =     0.00277700   -0.00156603   -0.00163672
     atom    3 type  1   force =    -0.00278841   -0.00156007   -0.00164094
     atom    4 type  2   force =     0.00000096    0.00000371    0.00296055
     atom    5 type  1   force =     0.00001388   -0.00189084    0.00120603
     atom    6 type  1   force =    -0.00165166    0.00095659    0.00121896
     atom    7 type  1   force =     0.00164166    0.00093396    0.00120321
     atom    8 type  2   force =    -0.00000003   -0.00000080    0.00148169
     atom    9 type  1   force =     0.00000589   -0.00157631   -0.00070785
     atom   10 type  1   force =    -0.00131294    0.00077215   -0.00075235
     atom   11 type  1   force =     0.00132171    0.00077035   -0.00076156
     atom   12 type  2   force =     0.00000248   -0.00000170   -0.00100581

     Total force =     0.008609     Total SCF correction =     0.005632
     SCF correction compared to forces is large: reduce conv_thr to get better values

     entering subroutine stress ...

     negative rho (up, down):  4.755E-01 0.000E+00
          total   stress  (Ry/bohr**3)                   (kbar)     P=   -5.57
  -0.00004444  -0.00000000   0.00000000         -6.54     -0.00      0.00
  -0.00000000  -0.00004443  -0.00000000         -0.00     -6.54     -0.00
   0.00000000  -0.00000000  -0.00002474          0.00     -0.00     -3.64

 !ASE

     Writing output data file calc.save

     General routines

     Parallel routines

   This run was terminated on:   3:19: 1   2Jan2019

   JOB DONE.
Job  /afs/slac/g/suncat/bin/suncat-tsmpirun -x LD_LIBRARY_PATH -wdir /scratch/qe649251_PSinq pw.x -in pw.inp

TID   HOST_NAME   COMMAND_LINE            STATUS            TERMINATION_TIME
00000 suncat0068 pw.x -in pw.inp   Done                     01/02/2019 03:19:01
00001 suncat0068 pw.x -in pw.inp   Done                     01/02/2019 03:19:01
00002 suncat0068 pw.x -in pw.inp   Done                     01/02/2019 03:19:01
00003 suncat0068 pw.x -in pw.inp   Done                     01/02/2019 03:19:01
00004 suncat0068 pw.x -in pw.inp   Done                     01/02/2019 03:19:01
00005 suncat0068 pw.x -in pw.inp   Done                     01/02/2019 03:19:01
00006 suncat0068 pw.x -in pw.inp   Done                     01/02/2019 03:19:01
00007 suncat0068 pw.x -in pw.inp   Done                     01/02/2019 03:19:01
00008 suncat0065 pw.x -in pw.inp   Done                     01/02/2019 03:19:01
00009 suncat0065 pw.x -in pw.inp   Done                     01/02/2019 03:19:01
00010 suncat0065 pw.x -in pw.inp   Done                     01/02/2019 03:19:01
00011 suncat0065 pw.x -in pw.inp   Done                     01/02/2019 03:19:01
00012 suncat0065 pw.x -in pw.inp   Done                     01/02/2019 03:19:01
00013 suncat0065 pw.x -in pw.inp   Done                     01/02/2019 03:19:01
00014 suncat0065 pw.x -in pw.inp   Done                     01/02/2019 03:19:01
00015 suncat0065 pw.x -in pw.inp   Done                     01/02/2019 03:19:01
00016 suncat0064 pw.x -in pw.inp   Done                     01/02/2019 03:19:01
00017 suncat0064 pw.x -in pw.inp   Done                     01/02/2019 03:19:01
00018 suncat0064 pw.x -in pw.inp   Done                     01/02/2019 03:19:01
00019 suncat0064 pw.x -in pw.inp   Done                     01/02/2019 03:19:01
00020 suncat0064 pw.x -in pw.inp   Done                     01/02/2019 03:19:01
00021 suncat0064 pw.x -in pw.inp   Done                     01/02/2019 03:19:01
00022 suncat0064 pw.x -in pw.inp   Done                     01/02/2019 03:19:01
00023 suncat0064 pw.x -in pw.inp   Done                     01/02/2019 03:19:01
00024 suncat0059 pw.x -in pw.inp   Done                     01/02/2019 03:19:01
00025 suncat0059 pw.x -in pw.inp   Done                     01/02/2019 03:19:01
00026 suncat0059 pw.x -in pw.inp   Done                     01/02/2019 03:19:01
00027 suncat0059 pw.x -in pw.inp   Done                     01/02/2019 03:19:01
00028 suncat0059 pw.x -in pw.inp   Done                     01/02/2019 03:19:01
00029 suncat0059 pw.x -in pw.inp   Done                     01/02/2019 03:19:01
00030 suncat0059 pw.x -in pw.inp   Done                     01/02/2019 03:19:01
00031 suncat0059 pw.x -in pw.inp   Done                     01/02/2019 03:19:01
00032 suncat0169 pw.x -in pw.inp   Done                     01/02/2019 03:19:01
00033 suncat0169 pw.x -in pw.inp   Done                     01/02/2019 03:19:01
00034 suncat0169 pw.x -in pw.inp   Done                     01/02/2019 03:19:01
00035 suncat0169 pw.x -in pw.inp   Done                     01/02/2019 03:19:01
00036 suncat0169 pw.x -in pw.inp   Done                     01/02/2019 03:19:01
00037 suncat0169 pw.x -in pw.inp   Done                     01/02/2019 03:19:01
00038 suncat0169 pw.x -in pw.inp   Done                     01/02/2019 03:19:01
00039 suncat0169 pw.x -in pw.inp   Done                     01/02/2019 03:19:01
00040 suncat0168 pw.x -in pw.inp   Done                     01/02/2019 03:19:01
00041 suncat0168 pw.x -in pw.inp   Done                     01/02/2019 03:19:01
00042 suncat0168 pw.x -in pw.inp   Done                     01/02/2019 03:19:01
00043 suncat0168 pw.x -in pw.inp   Done                     01/02/2019 03:19:01
00044 suncat0168 pw.x -in pw.inp   Done                     01/02/2019 03:19:01
00045 suncat0168 pw.x -in pw.inp   Done                     01/02/2019 03:19:01
00046 suncat0168 pw.x -in pw.inp   Done                     01/02/2019 03:19:01
00047 suncat0168 pw.x -in pw.inp   Done                     01/02/2019 03:19:01
00048 suncat0156 pw.x -in pw.inp   Done                     01/02/2019 03:19:01
00049 suncat0156 pw.x -in pw.inp   Done                     01/02/2019 03:19:01
00050 suncat0156 pw.x -in pw.inp   Done                     01/02/2019 03:19:01
00051 suncat0156 pw.x -in pw.inp   Done                     01/02/2019 03:19:01
00052 suncat0156 pw.x -in pw.inp   Done                     01/02/2019 03:19:01
00053 suncat0156 pw.x -in pw.inp   Done                     01/02/2019 03:19:01
00054 suncat0156 pw.x -in pw.inp   Done                     01/02/2019 03:19:01
00055 suncat0156 pw.x -in pw.inp   Done                     01/02/2019 03:19:01
00056 suncat0153 pw.x -in pw.inp   Done                     01/02/2019 03:19:01
00057 suncat0153 pw.x -in pw.inp   Done                     01/02/2019 03:19:01
00058 suncat0153 pw.x -in pw.inp   Done                     01/02/2019 03:19:01
00059 suncat0153 pw.x -in pw.inp   Done                     01/02/2019 03:19:01
00060 suncat0153 pw.x -in pw.inp   Done                     01/02/2019 03:19:01
00061 suncat0153 pw.x -in pw.inp   Done                     01/02/2019 03:19:01
00062 suncat0153 pw.x -in pw.inp   Done                     01/02/2019 03:19:01
00063 suncat0153 pw.x -in pw.inp   Done                     01/02/2019 03:19:01