     Program PWSCF v.5.1rc2 (svn rev. 11289) starts on 31Dec2018 at 17:14:31

     Current dimensions of program PWSCF are:
     Max number of different atomic species (ntypx) = 10
     Max number of k-points (npk) =  40000
     Max angular momentum in pseudopotentials (lmaxx) =  3
     Presently stress not available with electric field

     IMPORTANT: XC functional enforced from input :
     Exchange-correlation      = BEEF-VDW ( 1  4 27 13 2)
     Any further DFT definition will be discarded
     Please, verify this is what you really want

     Subspace diagonalization in iterative solution of the eigenvalue problem:
     a serial algorithm will be used

     bravais-lattice index     =            0
     lattice parameter (alat)  =       1.8897  a.u.
     unit-cell volume          =    4459.7187 (a.u.)^3
     number of atoms/cell      =           12
     number of atomic types    =            2
     number of electrons       =       192.00
     number of Kohn-Sham states=          126
     kinetic-energy cutoff     =      36.7493  Ry
     charge density cutoff     =     367.4932  Ry
     convergence threshold     =      1.0E-06
     mixing beta               =       0.1000
     number of iterations used =           10  plain     mixing
     Exchange-correlation      = BEEF-VDW ( 1  4 27 13 2)
     nstep                     =           50

     celldm(1)=   1.889726  celldm(2)=   0.000000  celldm(3)=   0.000000
     celldm(4)=   0.000000  celldm(5)=   0.000000  celldm(6)=   0.000000

     crystal axes: (cart. coord. in units of alat)
               a(1) = (   5.575024   0.000000   0.000000 )
               a(2) = (  -2.787512   4.828113   0.000000 )
               a(3) = (   0.000000   0.000000  24.551988 )

     reciprocal axes: (cart. coord. in units 2 pi/alat)
               b(1) = (  0.179371  0.103560  0.000000 )
               b(2) = (  0.000000  0.207120  0.000000 )
               b(3) = (  0.000000  0.000000  0.040730 )

     PseudoPot. # 1 for Re read from file:
     /afs/slac.stanford.edu/u/if/mamunm/psp/gbrv1.5pbe/Re.UPF
     MD5 check sum: 85f993410f3e006da9d71c142b4ad953
     Pseudo is Ultrasoft + core correction, Zval = 15.0
     Generated by new atomic code, or converted to UPF format
     Using radial grid of  981 points,  8 beta functions with:
                l(1) =   0
                l(2) =   0
                l(3) =   1
                l(4) =   1
                l(5) =   2
                l(6) =   2
                l(7) =   3
                l(8) =   3
     Q(r) pseudized with  8 coefficients,  rinner =    1.150   1.150   1.150
                                                       1.150   1.150   1.150
                                                       1.150

     PseudoPot. # 2 for Ag read from file:
     /afs/slac.stanford.edu/u/if/mamunm/psp/gbrv1.5pbe/Ag.UPF
     MD5 check sum: d66d668201baa78d5eb5b04ef7011058
     Pseudo is Ultrasoft + core correction, Zval = 19.0
     Generated by new atomic code, or converted to UPF format
     Using radial grid of  887 points,  6 beta functions with:
                l(1) =   0
                l(2) =   0
                l(3) =   1
                l(4) =   1
                l(5) =   2
                l(6) =   2
     Q(r) pseudized with  6 coefficients,  rinner =    1.300   1.300   1.300
                                                       1.300   1.300

     vdW kernel table read from file vdW_kernel_table
     MD5 check sum: 095c7af220d748ca6e76c0b4c6cfb241

     atomic species   valence    mass     pseudopotential
        Re1           15.00   186.20700     Re( 1.00)
        Ag1           19.00   107.86820     Ag( 1.00)

     No symmetry found

   Cartesian axes

     site n.     atom                  positions (alat units)
         1           Re1 tau(   1) = (   0.0000000   0.0000000  10.0000000  )
         2           Re1 tau(   2) = (  -1.3937561   2.4140564  10.0000000  )
         3           Re1 tau(   3) = (   1.3937561   2.4140564  10.0000000  )
         4           Ag1 tau(   4) = (   2.7875122   0.0000000  10.0000000  )
         5           Re1 tau(   5) = (   2.7875122   1.6093709  12.2759942  )
         6           Re1 tau(   6) = (   1.3937561   4.0234274  12.2759942  )
         7           Re1 tau(   7) = (  -1.3937561   4.0234274  12.2759942  )
         8           Ag1 tau(   8) = (   0.0000000   1.6093709  12.2759942  )
         9           Re1 tau(   9) = (  -0.0000000   3.2187419  14.5519884  )
        10           Re1 tau(  10) = (   1.3937561   0.8046855  14.5519884  )
        11           Re1 tau(  11) = (   4.1812684   0.8046855  14.5519884  )
        12           Ag1 tau(  12) = (   2.7875122   3.2187419  14.5519884  )

     number of k points=    20  Fermi-Dirac smearing, width (Ry)=  0.0110
                       cart. coord. in units 2pi/alat
        k(    1) = (   0.0000000   0.0000000   0.0000000), wk =   0.0555556
        k(    2) = (   0.0000000   0.0345200   0.0000000), wk =   0.1111111
        k(    3) = (   0.0000000   0.0690401   0.0000000), wk =   0.1111111
        k(    4) = (   0.0000000  -0.1035601   0.0000000), wk =   0.0555556
        k(    5) = (   0.0298952   0.0172600   0.0000000), wk =   0.1111111
        k(    6) = (   0.0298952   0.0517801   0.0000000), wk =   0.1111111
        k(    7) = (   0.0298952   0.0863001   0.0000000), wk =   0.1111111
        k(    8) = (   0.0298952  -0.0863001   0.0000000), wk =   0.1111111
        k(    9) = (   0.0298952  -0.0517801   0.0000000), wk =   0.1111111
        k(   10) = (   0.0298952  -0.0172600   0.0000000), wk =   0.1111111
        k(   11) = (   0.0597905   0.0345200   0.0000000), wk =   0.1111111
        k(   12) = (   0.0597905   0.0690401   0.0000000), wk =   0.1111111
        k(   13) = (   0.0597905   0.1035601   0.0000000), wk =   0.1111111
        k(   14) = (   0.0597905  -0.0690401   0.0000000), wk =   0.1111111
        k(   15) = (   0.0597905  -0.0345200   0.0000000), wk =   0.1111111
        k(   16) = (   0.0597905   0.0000000   0.0000000), wk =   0.1111111
        k(   17) = (  -0.0896857  -0.0517801   0.0000000), wk =   0.0555556
        k(   18) = (  -0.0896857  -0.0172600   0.0000000), wk =   0.1111111
        k(   19) = (  -0.0896857   0.0172600   0.0000000), wk =   0.1111111
        k(   20) = (  -0.0896857  -0.1553402   0.0000000), wk =   0.0555556

     Largest allocated arrays     est. size (Mb)     dimensions
     Largest temporary arrays     est. size (Mb)     dimensions

     Initial potential from superposition of free atoms
     Check: negative starting charge=   -1.153707

     starting charge  185.99945, renormalised to  192.00000

     negative rho (up, down):  1.191E+00 0.000E+00

     *
     * You are using vdW-DF for exchange-correlation in this calculation.
     * Please cite the following three references that made this development
     * possible:
     *
     *   M. Dion, H. Rydberg, E. Schroder, D. C. Langreth, and
     *   B. I. Lundqvist, Phys. Rev. Lett. 92, 246401 (2004).
     *
     *   T. Thonhauser, V. R. Cooper, S. Li, A. Puzder, P. Hyldgaard, and
     *   D. C. Langreth, Phys. Rev. B 76, 125112 (2007).
     *
     *   G. Roman-Perez and J. M. Soler, Phys. Rev. Lett. 103, 096102 (2009).
     *
     *
     * If you are using vdW-DF2, please also cite:
     *
     *   K. Lee, E. D. Murray, L. Kong, B. I. Lundqvist, and
     *   D. C. Langreth, Phys. Rev. B 82, 081101(R) (2010).
     *
     *
     * If you are calculating the stress with vdW-DF, please also cite:
     *
     *   R. Sabatini, E. Kucukbenli, B. Kolb, T. Thonhauser, and
     *   S. de Gironcoli, J. Phys.: Condens. Matter 24, 424209 (2012).
     *

     Carrying out vdW-DF run using the following parameters:

     Nqs =      20    Nr_points =    1024   r_max =   100.000
     q_mesh =
               0.00001000     0.04494208     0.09755937     0.15916263
               0.23128650     0.31572767     0.41458969     0.53033537
               0.66584808     0.82450364     1.01025438     1.22772762
               1.48234092     1.78043706     2.12944203     2.53805004
               3.01644009     3.57652955     4.23227104     5.00000000

     Gradients computed in reciprocal space

     Adding external electric field

     Computed dipole along edir(3) :
        Dipole                0.0000 Ry au,          0.0000 Debye
        Dipole field          0.0000 Ry au

        Potential amp.       -0.0000 Ry
        Total length         45.2366 bohr

     Starting wfc are  156 randomized atomic wfcs

     Self-consistent Calculation

     iteration #  1     ecut=    36.75 Ry     beta=0.10
     Davidson diagonalization with overlap
     ethr =  1.00E-02,  avg # of iterations =  7.5

[...]

     total energy              =   -2614.13507944 Ry
     Harris-Foulkes estimate   =   -2622.90553033 Ry
     estimated scf accuracy    <      48.97112816 Ry

[...]

     End of self-consistent calculation

          k = 0.0000 0.0000 0.0000 ( 16763 PWs)   bands (ev):

   -90.9566 -90.3889 -90.3888 -78.5938 -78.5464 -78.5464 -78.1414 -78.1403
   -78.0951 -78.0951 -78.0949 -78.0949 -54.4460 -54.4460 -54.4110 -53.8935
   -53.8935 -53.8933 -53.8933 -53.7890 -53.7884 -40.6600 -40.4647 -40.4647
   -40.3995 -40.2810 -40.2810 -40.1468 -40.1258 -40.0994 -39.9598 -39.9598
   -39.9401 -39.9401 -39.8708 -39.8587 -39.8587 -39.7908 -39.7908 -39.7340
   -39.7157 -39.7157 -39.6031 -39.5889 -39.4491 -39.4491 -39.4460 -39.4460
    -6.4789  -4.6699  -4.6362  -4.6362  -4.6231  -4.3698  -4.3698  -3.9687
    -3.8467  -3.8467  -3.7296  -3.7296  -3.5042  -3.3205  -2.9032  -2.9032
    -2.8825  -2.8825  -2.8801  -1.9067  -1.7450  -1.1096  -1.0898  -1.0898
    -1.0088  -0.6197  -0.6197  -0.2484  -0.2484   0.0811   0.0811   0.3929
     0.4557   0.4557   0.5121   0.5121   0.9997   1.1802   1.2159   1.2159
     1.8551   2.1503   2.1503   2.3682   2.7099   3.0034   3.2113   3.2113
     3.5997   3.5997   3.6254   3.6254   3.7185   3.7185   3.7323   4.0238
     4.0238   4.0430   4.0430   4.3198   4.3198   4.8243   4.8243   4.9617
     5.3486   5.6262   5.7637   6.0963   6.0963   6.3006   6.3887   6.9218
     6.9642   6.9642   7.0921   7.6613   8.5445   9.2197

[...]

          k =-0.0897-0.0518 0.0000 ( 16808 PWs)   bands (ev):

[...]

     the Fermi energy is     2.3919 ev

!    total energy              =   -2618.78955495 Ry
     Harris-Foulkes estimate   =   -2618.80193860 Ry
     estimated scf accuracy    <       0.00000018 Ry

     The total energy is the sum of the following terms:

     one-electron contribution =  -20507.49466529 Ry
     hartree contribution      =   10237.04941614 Ry
     xc contribution           =    -576.49266635 Ry
     ewald contribution        =    8228.20813955 Ry
     electric field correction =       0.00000000 Ry
     smearing contrib. (-TS)   =      -0.05977901 Ry

     convergence has been achieved in  17 iterations

 BEEF-vdW xc energy contributions
           1 :   -510.329364855621
           2 :    472.728308664204
           3 :   -405.925277952811
           4 :    323.741835201367
           5 :   -241.008070228591
           6 :    169.437560537634
           7 :   -115.131426468697
           8 :    78.3079202483137
[...]
     Generated by new atomic code, or converted to UPF format
     Using radial grid of  981 points,  8 beta functions with:
                l(1) =   0
                l(2) =   0
                l(3) =   1
                l(4) =   1
                l(5) =   2
                l(6) =   2
                l(7) =   3
                l(8) =   3
     Q(r) pseudized with  8 coefficients,  rinner =    1.150   1.150   1.150
                                                       1.150   1.150   1.150
                                                       1.150

     PseudoPot. # 2 for Ag read from file:
     /afs/slac.stanford.edu/u/if/mamunm/psp/gbrv1.5pbe/Ag.UPF
     MD5 check sum: d66d668201baa78d5eb5b04ef7011058
     Pseudo is Ultrasoft + core correction, Zval = 19.0
     Generated by new atomic code, or converted to UPF format
     Using radial grid of  887 points,  6 beta functions with:
                l(1) =   0
                l(2) =   0
                l(3) =   1
                l(4) =   1
                l(5) =   2
                l(6) =   2
     Q(r) pseudized with  6 coefficients,  rinner =    1.300   1.300   1.300
                                                       1.300   1.300

     vdW kernel table read from file vdW_kernel_table
     MD5 check sum: 095c7af220d748ca6e76c0b4c6cfb241

     atomic species   valence    mass     pseudopotential
        Re1           15.00   186.20700     Re( 1.00)
        Ag1           19.00   107.86820     Ag( 1.00)

     No symmetry found

   Cartesian axes

     site n.     atom                  positions (alat units)
         1           Re1 tau(   1) = (   0.0000000   0.0000000  10.0000000  )
         2           Re1 tau(   2) = (  -1.3937561   2.4140564  10.0000000  )
         3           Re1 tau(   3) = (   1.3937561   2.4140564  10.0000000  )
         4           Ag1 tau(   4) = (   2.7875122   0.0000000  10.0000000  )
         5           Re1 tau(   5) = (   2.7875122   1.6093709  12.2759942  )
         6           Re1 tau(   6) = (   1.3937561   4.0234274  12.2759942  )
         7           Re1 tau(   7) = (  -1.3937561   4.0234274  12.2759942  )
         8           Ag1 tau(   8) = (   0.0000000   1.6093709  12.2759942  )
         9           Re1 tau(   9) = (  -0.0000074   3.3617663  14.4218367  )
        10           Re1 tau(  10) = (   1.5176105   0.7331823  14.4218357  )
        11           Re1 tau(  11) = (   4.0574104   0.7331830  14.4218435  )
        12           Ag1 tau(  12) = (   2.7875039   3.2187462  14.7669960  )

     number of k points=    20  Fermi-Dirac smearing, width (Ry)=  0.0110
                       cart. coord. in units 2pi/alat
        k(    1) = (   0.0000000   0.0000000   0.0000000), wk =   0.0555556
        k(    2) = (   0.0000000   0.0345200   0.0000000), wk =   0.1111111
        k(    3) = (   0.0000000   0.0690401   0.0000000), wk =   0.1111111
        k(    4) = (   0.0000000  -0.1035601   0.0000000), wk =   0.0555556
        k(    5) = (   0.0298952   0.0172600   0.0000000), wk =   0.1111111
        k(    6) = (   0.0298952   0.0517801   0.0000000), wk =   0.1111111
        k(    7) = (   0.0298952   0.0863001   0.0000000), wk =   0.1111111
        k(    8) = (   0.0298952  -0.0863001   0.0000000), wk =   0.1111111
        k(    9) = (   0.0298952  -0.0517801   0.0000000), wk =   0.1111111
        k(   10) = (   0.0298952  -0.0172600   0.0000000), wk =   0.1111111
        k(   11) = (   0.0597905   0.0345200   0.0000000), wk =   0.1111111
        k(   12) = (   0.0597905   0.0690401   0.0000000), wk =   0.1111111
        k(   13) = (   0.0597905   0.1035601   0.0000000), wk =   0.1111111
        k(   14) = (   0.0597905  -0.0690401   0.0000000), wk =   0.1111111
        k(   15) = (   0.0597905  -0.0345200   0.0000000), wk =   0.1111111
        k(   16) = (   0.0597905   0.0000000   0.0000000), wk =   0.1111111
        k(   17) = (  -0.0896857  -0.0517801   0.0000000), wk =   0.0555556
        k(   18) = (  -0.0896857  -0.0172600   0.0000000), wk =   0.1111111
        k(   19) = (  -0.0896857   0.0172600   0.0000000), wk =   0.1111111
        k(   20) = (  -0.0896857  -0.1553402   0.0000000), wk =   0.0555556

     Largest allocated arrays     est. size (Mb)     dimensions
     Largest temporary arrays     est. size (Mb)     dimensions

     Initial potential from superposition of free atoms
     Check: negative starting charge=   -1.151967

     starting charge  185.99945, renormalised to  192.00000

[...]

     *
     * You are using vdW-DF for exchange-correlation in this calculation.
     * Please cite the following three references that made this development
     * possible:
     *
     *   M. Dion, H. Rydberg, E. Schroder, D. C. Langreth, and
     *   B. I. Lundqvist, Phys. Rev. Lett. 92, 246401 (2004).
     *
     *   T. Thonhauser, V. R. Cooper, S. Li, A. Puzder, P. Hyldgaard, and
     *   D. C. Langreth, Phys. Rev. B 76, 125112 (2007).
     *
     *   G. Roman-Perez and J. M. Soler, Phys. Rev. Lett. 103, 096102 (2009).
     *
     *
     * If you are using vdW-DF2, please also cite:
     *
     *   K. Lee, E. D. Murray, L. Kong, B. I. Lundqvist, and
     *   D. C. Langreth, Phys. Rev. B 82, 081101(R) (2010).
     *
     *
     * If you are calculating the stress with vdW-DF, please also cite:
     *
     *   R. Sabatini, E. Kucukbenli, B. Kolb, T. Thonhauser, and
     *   S. de Gironcoli, J. Phys.: Condens. Matter 24, 424209 (2012).
     *

     Carrying out vdW-DF run using the following parameters:

     Nqs =      20    Nr_points =    1024   r_max =   100.000
     q_mesh =
               0.00001000     0.04494208     0.09755937     0.15916263
               0.23128650     0.31572767     0.41458969     0.53033537
               0.66584808     0.82450364     1.01025438     1.22772762
               1.48234092     1.78043706     2.12944203     2.53805004
               3.01644009     3.57652955     4.23227104     5.00000000

     Gradients computed in reciprocal space

[...]

     Starting wfc are  156 randomized atomic wfcs

     Self-consistent Calculation

[...]

     total energy              =   -2618.85888237 Ry
     Harris-Foulkes estimate   =   -2618.85887952 Ry
     estimated scf accuracy    <       0.00000104 Ry

     iteration # 17     ecut=    36.75 Ry     beta=0.10
     Davidson diagonalization with overlap
     ethr =  5.44E-10,  avg # of iterations =  1.2

[...]

     negative rho (up, down):  1.193E+00 0.000E+00

     Adding external electric field

     Computed dipole along edir(3) :
        Dipole                0.0307 Ry au,          0.0781 Debye
        Dipole field          0.0001 Ry au

        Potential amp.       -0.0078 Ry
        Total length         45.2366 bohr

     End of self-consistent calculation

[...]

          k = 0.0598 0.0000 0.0000 ( 16760 PWs)   bands (ev):

[...]

          k =-0.0897-0.1553 0.0000 ( 16808 PWs)   bands (ev):

   -90.9816 -90.3339 -90.0132 -78.5171 -78.5006 -78.4841 -78.1450 -78.0817
   -78.0764 -78.0701 -78.0664 -78.0511 -54.4691 -54.4686 -54.4382 -53.8427
   -53.8422 -53.7287 -53.5361 -53.5357 -53.3873 -40.5478 -40.4340 -40.3810
   -40.3379 -40.2785 -40.2742 -40.2163 -40.2059 -40.1754 -39.9682 -39.9396
   -39.9367 -39.8663 -39.8050 -39.7799 -39.7357 -39.7304 -39.7225 -39.7172
   -39.6995 -39.6696 -39.6298 -39.6135 -39.5918 -39.5036 -39.4205 -39.3895
    -4.8155  -4.7350  -4.0500  -4.0139  -3.8979  -3.7606  -3.5907  -3.4962
    -3.3702  -3.2750  -3.0723  -3.0168  -2.9149  -2.6847  -2.6581  -2.6114
    -2.5050  -2.4589  -2.4010  -2.1106  -1.8723  -1.7436  -1.6075  -1.3193
    -1.1428  -0.9321  -0.8449  -0.7403  -0.5302  -0.3507  -0.3452  -0.1540
     0.0998   0.2548   0.3513   0.4501   0.5548   0.5821   0.8027   0.8697
     1.0438   1.1207   1.2366   1.5168   1.5586   1.7288   1.7388   1.8287
     2.3377   2.3979   2.6390   2.9676   3.0566   3.1174   3.1604   3.3019
     3.4974   3.5213   3.5940   3.7655   4.1682   4.6315   4.6486   4.9697
     5.1342   5.2248   5.8057   6.1250   6.8949   7.5140   7.6539   7.7115
     8.0431   8.4100   8.5055   8.5972   8.9854   9.1596

     the Fermi energy is     2.4472 ev

!    total energy              =   -2618.85888279 Ry
     Harris-Foulkes estimate   =   -2618.85888199 Ry
     estimated scf accuracy    <       0.00000064 Ry

     The total energy is the sum of the following terms:

     one-electron contribution =  -20584.86855480 Ry
     hartree contribution      =   10276.07942689 Ry
     xc contribution           =    -576.82291327 Ry
     ewald contribution        =    8266.80637516 Ry
     electric field correction =       0.00000266 Ry
     smearing contrib. (-TS)   =      -0.05321944 Ry

     convergence has been achieved in  17 iterations

 BEEF-vdW xc energy contributions
           1 :   -511.017364747773
           2 :    473.478314786092
           3 :   -406.768076644103
           4 :    324.650441661793
           5 :   -241.890693344107
           6 :    170.162844328588
           7 :   -115.583721386303
           8 :    78.4489520744020
           9 :   -54.8953319096375
          10 :    39.5198920421889
          11 :   -27.7840750260237
          12 :    17.3361142432235
          13 :   -8.01630350453445
          14 :   0.901475613708726
          15 :    2.93268807303900
          16 :   -3.30499195262098
          17 :    1.15092118698306
          18 :    1.88114232232022
          19 :   -4.15264726865314
          20 :    4.68174260373826
          21 :   -3.42555746769960
          22 :    1.12126633122227
          23 :    1.17441815922416
          24 :   -2.59654192026085
          25 :    2.80050694485544
          26 :   -1.99780293637923
          27 :   0.737516426283605
          28 :   0.414657214458771
          29 :   -1.12878992071057
          30 :    1.38747298277985
          31 :   -43.7062850723446
          32 :   -32.3505087581851

     Forces acting on atoms (Ry/au):

     negative rho (up, down):  1.193E+00 0.000E+00
     atom    1 type  1   force =    -0.00000314   -0.04993675    0.03267874
     atom    2 type  1   force =    -0.04324323    0.02496665    0.03267225
     atom    3 type  1   force =     0.04324724    0.02496836    0.03268313
     atom    4 type  2   force =    -0.00000318    0.00000091   -0.04834139
     atom    5 type  1   force =     0.00000638    0.01279427   -0.01523443
     atom    6 type  1   force =     0.01107642   -0.00639362   -0.01523102
     atom    7 type  1   force =    -0.01108040   -0.00640204   -0.01523920
     atom    8 type  2   force =     0.00000294   -0.00000111   -0.00869849
     atom    9 type  1   force =     0.00000098    0.00076863    0.00099846
     atom   10 type  1   force =     0.00066648   -0.00038359    0.00100203
     atom   11 type  1   force =    -0.00066807   -0.00038369    0.00099889
     atom   12 type  2   force =    -0.00000242    0.00000200    0.00171104

     Total force =     0.119549     Total SCF correction =     0.003854

     entering subroutine stress ...

     negative rho (up, down):  1.193E+00 0.000E+00
          total   stress  (Ry/bohr**3)                   (kbar)     P=  -22.75
  -0.00019532  -0.00000000   0.00000000        -28.73     -0.00      0.00
  -0.00000000  -0.00019532  -0.00000000         -0.00    -28.73     -0.00
   0.00000000  -0.00000000  -0.00007342          0.00     -0.00    -10.80

 !ASE

     Writing output data file calc.save

     General routines

     Parallel routines

   This run was terminated on:  19:21:23  31Dec2018

   JOB DONE.
Job  /afs/slac/g/suncat/bin/suncat-tsmpirun -x LD_LIBRARY_PATH -wdir /scratch/qe648823_bDEWM pw.x -in pw.inp

TID   HOST_NAME   COMMAND_LINE            STATUS            TERMINATION_TIME
00000 suncat0046 pw.x -in pw.inp   Done                     12/31/2018 19:21:23
00001 suncat0046 pw.x -in pw.inp   Done                     12/31/2018 19:21:23
00002 suncat0046 pw.x -in pw.inp   Done                     12/31/2018 19:21:23
00003 suncat0046 pw.x -in pw.inp   Done                     12/31/2018 19:21:23
00004 suncat0046 pw.x -in pw.inp   Done                     12/31/2018 19:21:23
00005 suncat0046 pw.x -in pw.inp   Done                     12/31/2018 19:21:23
00006 suncat0046 pw.x -in pw.inp   Done                     12/31/2018 19:21:23
00007 suncat0046 pw.x -in pw.inp   Done                     12/31/2018 19:21:23
00008 suncat0044 pw.x -in pw.inp   Done                     12/31/2018 19:21:23
00009 suncat0044 pw.x -in pw.inp   Done                     12/31/2018 19:21:23
00010 suncat0044 pw.x -in pw.inp   Done                     12/31/2018 19:21:23
00011 suncat0044 pw.x -in pw.inp   Done                     12/31/2018 19:21:23
00012 suncat0044 pw.x -in pw.inp   Done                     12/31/2018 19:21:23
00013 suncat0044 pw.x -in pw.inp   Done                     12/31/2018 19:21:23
00014 suncat0044 pw.x -in pw.inp   Done                     12/31/2018 19:21:23
00015 suncat0044 pw.x -in pw.inp   Done                     12/31/2018 19:21:23
00016 suncat0043 pw.x -in pw.inp   Done                     12/31/2018 19:21:23
00017 suncat0043 pw.x -in pw.inp   Done                     12/31/2018 19:21:23
00018 suncat0043 pw.x -in pw.inp   Done                     12/31/2018 19:21:23
00019 suncat0043 pw.x -in pw.inp   Done                     12/31/2018 19:21:23
00020 suncat0043 pw.x -in pw.inp   Done                     12/31/2018 19:21:23
00021 suncat0043 pw.x -in pw.inp   Done                     12/31/2018 19:21:23
00022 suncat0043 pw.x -in pw.inp   Done                     12/31/2018 19:21:23
00023 suncat0043 pw.x -in pw.inp   Done                     12/31/2018 19:21:23
00024 suncat0025 pw.x -in pw.inp   Done                     12/31/2018 19:21:23
00025 suncat0025 pw.x -in pw.inp   Done                     12/31/2018 19:21:23
00026 suncat0025 pw.x -in pw.inp   Done                     12/31/2018 19:21:23
00027 suncat0025 pw.x -in pw.inp   Done                     12/31/2018 19:21:23
00028 suncat0025 pw.x -in pw.inp   Done                     12/31/2018 19:21:23
00029 suncat0025 pw.x -in pw.inp   Done                     12/31/2018 19:21:23
00030 suncat0025 pw.x -in pw.inp   Done                     12/31/2018 19:21:23
00031 suncat0025 pw.x -in pw.inp   Done                     12/31/2018 19:21:23
00032 suncat0013 pw.x -in pw.inp   Done                     12/31/2018 19:21:23
00033 suncat0013 pw.x -in pw.inp   Done                     12/31/2018 19:21:23
00034 suncat0013 pw.x -in pw.inp   Done                     12/31/2018 19:21:23
00035 suncat0013 pw.x -in pw.inp   Done                     12/31/2018 19:21:23
00036 suncat0013 pw.x -in pw.inp   Done                     12/31/2018 19:21:23
00037 suncat0013 pw.x -in pw.inp   Done                     12/31/2018 19:21:23
00038 suncat0013 pw.x -in pw.inp   Done                     12/31/2018 19:21:23
00039 suncat0013 pw.x -in pw.inp   Done                     12/31/2018 19:21:23
00040 suncat0008 pw.x -in pw.inp   Done                     12/31/2018 19:21:23
00041 suncat0008 pw.x -in pw.inp   Done                     12/31/2018 19:21:23
00042 suncat0008 pw.x -in pw.inp   Done                     12/31/2018 19:21:23
00043 suncat0008 pw.x -in pw.inp   Done                     12/31/2018 19:21:23
00044 suncat0008 pw.x -in pw.inp   Done                     12/31/2018 19:21:23
00045 suncat0008 pw.x -in pw.inp   Done                     12/31/2018 19:21:23
00046 suncat0008 pw.x -in pw.inp   Done                     12/31/2018 19:21:23
00047 suncat0008 pw.x -in pw.inp   Done                     12/31/2018 19:21:23
00048 suncat0178 pw.x -in pw.inp   Done                     12/31/2018 19:21:23
00049 suncat0178 pw.x -in pw.inp   Done                     12/31/2018 19:21:23
00050 suncat0178 pw.x -in pw.inp   Done                     12/31/2018 19:21:23
00051 suncat0178 pw.x -in pw.inp   Done                     12/31/2018 19:21:23
00052 suncat0178 pw.x -in pw.inp   Done                     12/31/2018 19:21:23
00053 suncat0178 pw.x -in pw.inp   Done                     12/31/2018 19:21:23
00054 suncat0178 pw.x -in pw.inp   Done                     12/31/2018 19:21:23
00055 suncat0178 pw.x -in pw.inp   Done                     12/31/2018 19:21:23
00056 suncat0177 pw.x -in pw.inp   Done                     12/31/2018 19:21:23
00057 suncat0177 pw.x -in pw.inp   Done                     12/31/2018 19:21:23
00058 suncat0177 pw.x -in pw.inp   Done                     12/31/2018 19:21:23
00059 suncat0177 pw.x -in pw.inp   Done                     12/31/2018 19:21:23
00060 suncat0177 pw.x -in pw.inp   Done                     12/31/2018 19:21:23
00061 suncat0177 pw.x -in pw.inp   Done                     12/31/2018 19:21:23
00062 suncat0177 pw.x -in pw.inp   Done                     12/31/2018 19:21:23
00063 suncat0177 pw.x -in pw.inp   Done                     12/31/2018 19:21:23