     Program PWSCF v.5.1rc2 (svn rev. 11289) starts on  1Jan2019 at 16:14: 0

     Current dimensions of program PWSCF are:
     Max number of different atomic species (ntypx) = 10
     Max number of k-points (npk) =  40000
     Max angular momentum in pseudopotentials (lmaxx) =  3
     Presently stress not available with electric field

     IMPORTANT: XC functional enforced from input :
     Exchange-correlation      = BEEF-VDW ( 1  4 27 13 2)
     Any further DFT definition will be discarded
     Please, verify this is what you really want

     Subspace diagonalization in iterative solution of the eigenvalue problem:
     a serial algorithm will be used

     Generating pointlists ...
     new r_m :   0.4125 (alat units)  0.7795 (a.u.) for type    1
     new r_m :   0.4125 (alat units)  0.7795 (a.u.) for type    2

     bravais-lattice index     =            0
     lattice parameter (alat)  =       1.8897  a.u.
     unit-cell volume          =    4799.6855 (a.u.)^3
     number of atoms/cell      =           12
     number of atomic types    =            2
     number of electrons       =       165.00
     number of Kohn-Sham states=          112
     kinetic-energy cutoff     =      36.7493  Ry
     charge density cutoff     =     367.4932  Ry
     convergence threshold     =      1.0E-06
     mixing beta               =       0.1000
     number of iterations used =           10  plain     mixing
     Exchange-correlation      = BEEF-VDW ( 1  4 27 13 2)
     nstep                     =           50

     celldm(1)=   1.889726  celldm(2)=   0.000000  celldm(3)=   0.000000
     celldm(4)=   0.000000  celldm(5)=   0.000000  celldm(6)=   0.000000

     crystal axes: (cart. coord. in units of alat)
               a(1) = (   5.765395   0.000000   0.000000 )
               a(2) = (  -2.882697   4.992978   0.000000 )
               a(3) = (   0.000000   0.000000  24.707425 )

     reciprocal axes: (cart. coord. in units 2 pi/alat)
               b(1) = (  0.173449  0.100141  0.000000 )
               b(2) = (  0.000000  0.200281  0.000000 )
               b(3) = (  0.000000  0.000000  0.040474 )

     PseudoPot. # 1 for Ta read from file:
     /afs/slac.stanford.edu/u/if/mamunm/psp/gbrv1.5pbe/Ta.UPF
     MD5 check sum: f8bbe9446314a3b8ea5d9f3e3836c939
     Pseudo is Ultrasoft + core correction, Zval = 13.0
     Generated by new atomic code, or converted to UPF format
     Using radial grid of  921 points,  7 beta functions with:
                l(1) =   0
                l(2) =   0
                l(3) =   1
                l(4) =   1
                l(5) =   2
                l(6) =   2
                l(7) =   3
     Q(r) pseudized with  6 coefficients,  rinner =    1.300   1.300   1.300
                                                       1.300   1.300   1.300
                                                       1.300

     PseudoPot. # 2 for Fe read from file:
     /afs/slac.stanford.edu/u/if/mamunm/psp/gbrv1.5pbe/Fe.UPF
     MD5 check sum: a130daea23fe5165f5d574ae7f82ed95
     Pseudo is Ultrasoft + core correction, Zval = 16.0
     Generated by new atomic code, or converted to UPF format
     Using radial grid of  861 points,  6 beta functions with:
                l(1) =   0
                l(2) =   0
                l(3) =   1
                l(4) =   1
                l(5) =   2
                l(6) =   2
     Q(r) pseudized with  8 coefficients,  rinner =    1.000   1.000   1.000
                                                       1.000   1.000

     vdW kernel table read from file vdW_kernel_table
     MD5 check sum: 095c7af220d748ca6e76c0b4c6cfb241

     atomic species   valence    mass     pseudopotential
        Ta1           13.00   180.94788     Ta( 1.00)
        Fe1           16.00    55.84500     Fe( 1.00)

     Starting magnetic structure
     atomic species   magnetization
        Ta1          0.154
        Fe1          0.125

     No symmetry found

   Cartesian axes

     site n.     atom                  positions (alat units)
         1           Ta1 tau(   1) = (   0.0000000   0.0000000  10.0000000  )
         2           Ta1 tau(   2) = (  -1.4413486   2.4964891  10.0000000  )
         3           Ta1 tau(   3) = (   1.4413486   2.4964891  10.0000000  )
         4           Fe1 tau(   4) = (   2.8826973   0.0000000  10.0000000  )
         5           Ta1 tau(   5) = (   2.8826973   1.6643260  12.3537125  )
         6           Ta1 tau(   6) = (   1.4413486   4.1608151  12.3537125  )
         7           Ta1 tau(   7) = (  -1.4413486   4.1608151  12.3537125  )
         8           Fe1 tau(   8) = (   0.0000000   1.6643260  12.3537125  )
         9           Ta1 tau(   9) = (  -0.0000000   3.3286521  14.7074249  )
        10           Ta1 tau(  10) = (   1.4413486   0.8321630  14.7074249  )
        11           Ta1 tau(  11) = (   4.3240459   0.8321630  14.7074249  )
        12           Fe1 tau(  12) = (   2.8826973   3.3286521  14.7074249  )

     number of k points=    40  Fermi-Dirac smearing, width (Ry)=  0.0110
                       cart. coord. in units 2pi/alat
        k(    1) = (   0.0000000   0.0000000   0.0000000), wk =   0.0277778
        k(    2) = (   0.0000000   0.0333802   0.0000000), wk =   0.0555556
        k(    3) = (   0.0000000   0.0667604   0.0000000), wk =   0.0555556
        k(    4) = (   0.0000000  -0.1001406   0.0000000), wk =   0.0277778
        k(    5) = (   0.0289081   0.0166901   0.0000000), wk =   0.0555556
        k(    6) = (   0.0289081   0.0500703   0.0000000), wk =   0.0555556
        k(    7) = (   0.0289081   0.0834505   0.0000000), wk =   0.0555556
        k(    8) = (   0.0289081  -0.0834505   0.0000000), wk =   0.0555556
        k(    9) = (   0.0289081  -0.0500703   0.0000000), wk =   0.0555556
        k(   10) = (   0.0289081  -0.0166901   0.0000000), wk =   0.0555556
        k(   11) = (   0.0578162   0.0333802   0.0000000), wk =   0.0555556
        k(   12) = (   0.0578162   0.0667604   0.0000000), wk =   0.0555556
        k(   13) = (   0.0578162   0.1001406   0.0000000), wk =   0.0555556
        k(   14) = (   0.0578162  -0.0667604   0.0000000), wk =   0.0555556
        k(   15) = (   0.0578162  -0.0333802   0.0000000), wk =   0.0555556
        k(   16) = (   0.0578162   0.0000000   0.0000000), wk =   0.0555556
        k(   17) = (  -0.0867243  -0.0500703   0.0000000), wk =   0.0277778
        k(   18) = (  -0.0867243  -0.0166901   0.0000000), wk =   0.0555556
        k(   19) = (  -0.0867243   0.0166901   0.0000000), wk =   0.0555556
        k(   20) = (  -0.0867243  -0.1502110   0.0000000), wk =   0.0277778
        k(   21) = (   0.0000000   0.0000000   0.0000000), wk =   0.0277778
        k(   22) = (   0.0000000   0.0333802   0.0000000), wk =   0.0555556
        k(   23) = (   0.0000000   0.0667604   0.0000000), wk =   0.0555556
        k(   24) = (   0.0000000  -0.1001406   0.0000000), wk =   0.0277778
        k(   25) = (   0.0289081   0.0166901   0.0000000), wk =   0.0555556
        k(   26) = (   0.0289081   0.0500703   0.0000000), wk =   0.0555556
        k(   27) = (   0.0289081   0.0834505   0.0000000), wk =   0.0555556
        k(   28) = (   0.0289081  -0.0834505   0.0000000), wk =   0.0555556
        k(   29) = (   0.0289081  -0.0500703   0.0000000), wk =   0.0555556
        k(   30) = (   0.0289081  -0.0166901   0.0000000), wk =   0.0555556
        k(   31) = (   0.0578162   0.0333802   0.0000000), wk =   0.0555556
        k(   32) = (   0.0578162   0.0667604   0.0000000), wk =   0.0555556
        k(   33) = (   0.0578162   0.1001406   0.0000000), wk =   0.0555556
        k(   34) = (   0.0578162  -0.0667604   0.0000000), wk =   0.0555556
        k(   35) = (   0.0578162  -0.0333802   0.0000000), wk =   0.0555556
        k(   36) = (   0.0578162   0.0000000   0.0000000), wk =   0.0555556
        k(   37) = (  -0.0867243  -0.0500703   0.0000000), wk =   0.0277778
        k(   38) = (  -0.0867243  -0.0166901   0.0000000), wk =   0.0555556
        k(   39) = (  -0.0867243   0.0166901   0.0000000), wk =   0.0555556
        k(   40) = (  -0.0867243  -0.1502110   0.0000000), wk =   0.0277778

     Largest allocated arrays     est. size (Mb)     dimensions
     Largest temporary arrays     est. size (Mb)     dimensions

     Check: negative/imaginary core charge=   -0.000002    0.000000

     Initial potential from superposition of free atoms
     Check: negative starting charge=(component1):   -0.485151
     Check: negative starting charge=(component2):   -0.355760

     starting charge  161.98997, renormalised to  165.00000

     negative rho (up, down):  4.942E-01 3.624E-01

     *
     * You are using vdW-DF for exchange-correlation in this calculation.
     * Please cite the following three references that made this development
     * possible:
     *
     *   M. Dion, H. Rydberg, E. Schroder, D. C. Langreth, and
     *   B. I. Lundqvist, Phys. Rev. Lett. 92, 246401 (2004).
     *
     *   T. Thonhauser, V. R. Cooper, S. Li, A. Puzder, P. Hyldgaard, and
     *   D. C. Langreth, Phys. Rev. B 76, 125112 (2007).
     *
     *   G. Roman-Perez and J. M. Soler, Phys. Rev. Lett. 103, 096102 (2009).
     *
     *
     * If you are using vdW-DF2, please also cite:
     *
     *   K. Lee, E. D. Murray, L. Kong, B. I. Lundqvist, and
     *   D. C. Langreth, Phys. Rev. B 82, 081101(R) (2010).
     *
     *
     * If you are calculating the stress with vdW-DF, please also cite:
     *
     *   R. Sabatini, E. Kucukbenli, B. Kolb, T. Thonhauser, and
     *   S. de Gironcoli, J. Phys.: Condens. Matter 24, 424209 (2012).
     *

     Carrying out vdW-DF run using the following parameters:

     Nqs =      20    Nr_points =    1024   r_max =   100.000
     q_mesh =
               0.00001000     0.04494208     0.09755937     0.15916263
               0.23128650     0.31572767     0.41458969     0.53033537
               0.66584808     0.82450364     1.01025438     1.22772762
               1.48234092     1.78043706     2.12944203     2.53805004
               3.01644009     3.57652955     4.23227104     5.00000000

     Gradients computed in reciprocal space

     Adding external electric field

     Computed dipole along edir(3) :
        Dipole                0.0000 Ry au,          0.0000 Debye
        Dipole field          0.0000 Ry au

        Potential amp.       -0.0000 Ry
        Total length         45.5230 bohr

[...]

     Starting wfc are  156 randomized atomic wfcs

     Self-consistent Calculation

     iteration #  1     ecut=    36.75 Ry     beta=0.10
     Davidson diagonalization with overlap
     ethr =  1.00E-02,  avg # of iterations =  2.0

[...]

     Magnetic moment per site:
     atom:    1    charge:    1.3719    magn:    0.1922    constr:    0.0000
     atom:    2    charge:    1.3719    magn:    0.1922    constr:    0.0000
     atom:    3    charge:    1.3719    magn:    0.1922    constr:    0.0000
     atom:    4    charge:    7.2625    magn:    0.8139    constr:    0.0000
     atom:    5    charge:    1.3695    magn:    0.1917    constr:    0.0000
     atom:    6    charge:    1.3695    magn:    0.1917    constr:    0.0000
[...]
        k(    2) = (   0.0000000   0.0333802   0.0000000), wk =   0.0555556
        k(    3) = (   0.0000000   0.0667604   0.0000000), wk =   0.0555556
        k(    4) = (   0.0000000  -0.1001406   0.0000000), wk =   0.0277778
        k(    5) = (   0.0289081   0.0166901   0.0000000), wk =   0.0555556
        k(    6) = (   0.0289081   0.0500703   0.0000000), wk =   0.0555556
        k(    7) = (   0.0289081   0.0834505   0.0000000), wk =   0.0555556
        k(    8) = (   0.0289081  -0.0834505   0.0000000), wk =   0.0555556
        k(    9) = (   0.0289081  -0.0500703   0.0000000), wk =   0.0555556
        k(   10) = (   0.0289081  -0.0166901   0.0000000), wk =   0.0555556
        k(   11) = (   0.0578162   0.0333802   0.0000000), wk =   0.0555556
        k(   12) = (   0.0578162   0.0667604   0.0000000), wk =   0.0555556
        k(   13) = (   0.0578162   0.1001406   0.0000000), wk =   0.0555556
        k(   14) = (   0.0578162  -0.0667604   0.0000000), wk =   0.0555556
        k(   15) = (   0.0578162  -0.0333802   0.0000000), wk =   0.0555556
        k(   16) = (   0.0578162   0.0000000   0.0000000), wk =   0.0555556
        k(   17) = (  -0.0867243  -0.0500703   0.0000000), wk =   0.0277778
        k(   18) = (  -0.0867243  -0.0166901   0.0000000), wk =   0.0555556
        k(   19) = (  -0.0867243   0.0166901   0.0000000), wk =   0.0555556
        k(   20) = (  -0.0867243  -0.1502110   0.0000000), wk =   0.0277778
        k(   21) = (   0.0000000   0.0000000   0.0000000), wk =   0.0277778
        k(   22) = (   0.0000000   0.0333802   0.0000000), wk =   0.0555556
        k(   23) = (   0.0000000   0.0667604   0.0000000), wk =   0.0555556
        k(   24) = (   0.0000000  -0.1001406   0.0000000), wk =   0.0277778
        k(   25) = (   0.0289081   0.0166901   0.0000000), wk =   0.0555556
        k(   26) = (   0.0289081   0.0500703   0.0000000), wk =   0.0555556
        k(   27) = (   0.0289081   0.0834505   0.0000000), wk =   0.0555556
        k(   28) = (   0.0289081  -0.0834505   0.0000000), wk =   0.0555556
        k(   29) = (   0.0289081  -0.0500703   0.0000000), wk =   0.0555556
        k(   30) = (   0.0289081  -0.0166901   0.0000000), wk =   0.0555556
        k(   31) = (   0.0578162   0.0333802   0.0000000), wk =   0.0555556
        k(   32) = (   0.0578162   0.0667604   0.0000000), wk =   0.0555556
        k(   33) = (   0.0578162   0.1001406   0.0000000), wk =   0.0555556
        k(   34) = (   0.0578162  -0.0667604   0.0000000), wk =   0.0555556
        k(   35) = (   0.0578162  -0.0333802   0.0000000), wk =   0.0555556
        k(   36) = (   0.0578162   0.0000000   0.0000000), wk =   0.0555556
        k(   37) = (  -0.0867243  -0.0500703   0.0000000), wk =   0.0277778
        k(   38) = (  -0.0867243  -0.0166901   0.0000000), wk =   0.0555556
        k(   39) = (  -0.0867243   0.0166901   0.0000000), wk =   0.0555556
        k(   40) = (  -0.0867243  -0.1502110   0.0000000), wk =   0.0277778

     Largest allocated arrays     est. size (Mb)     dimensions
     Largest temporary arrays     est. size (Mb)     dimensions

     Check: negative/imaginary core charge=   -0.000002    0.000000

     Initial potential from superposition of free atoms
     Check: negative starting charge=(component1):   -0.486830
     Check: negative starting charge=(component2):   -0.356991

     starting charge  161.98997, renormalised to  165.00000

[...]

     *
     * You are using vdW-DF for exchange-correlation in this calculation.
     * Please cite the following three references that made this development
     * possible:
     *
     *   M. Dion, H. Rydberg, E. Schroder, D. C. Langreth, and
     *   B. I. Lundqvist, Phys. Rev. Lett. 92, 246401 (2004).
     *
     *   T. Thonhauser, V. R. Cooper, S. Li, A. Puzder, P. Hyldgaard, and
     *   D. C. Langreth, Phys. Rev. B 76, 125112 (2007).
     *
     *   G. Roman-Perez and J. M. Soler, Phys. Rev. Lett. 103, 096102 (2009).
     *
     *
     * If you are using vdW-DF2, please also cite:
     *
     *   K. Lee, E. D. Murray, L. Kong, B. I. Lundqvist, and
     *   D. C. Langreth, Phys. Rev. B 82, 081101(R) (2010).
     *
     *
     * If you are calculating the stress with vdW-DF, please also cite:
     *
     *   R. Sabatini, E. Kucukbenli, B. Kolb, T. Thonhauser, and
     *   S. de Gironcoli, J. Phys.: Condens. Matter 24, 424209 (2012).
     *

     Carrying out vdW-DF run using the following parameters:

     Nqs =      20    Nr_points =    1024   r_max =   100.000
     q_mesh =
               0.00001000     0.04494208     0.09755937     0.15916263
               0.23128650     0.31572767     0.41458969     0.53033537
               0.66584808     0.82450364     1.01025438     1.22772762
               1.48234092     1.78043706     2.12944203     2.53805004
               3.01644009     3.57652955     4.23227104     5.00000000

     Gradients computed in reciprocal space

[...]

     Starting wfc are  156 randomized atomic wfcs

     Self-consistent Calculation

[...]

     total energy              =   -2042.64000975 Ry
     Harris-Foulkes estimate   =   -2042.64000782 Ry
     estimated scf accuracy    <       0.00000152 Ry

[...]

     iteration # 34     ecut=    36.75 Ry     beta=0.10
     Davidson diagonalization with overlap
     ethr =  9.22E-10,  avg # of iterations =  3.1

[...]

     negative rho (up, down):  4.407E-01 4.416E-01

[...]

     Adding external electric field

     Computed dipole along edir(3) :
        Dipole                0.0108 Ry au,          0.0276 Debye
        Dipole field          0.0000 Ry au

        Potential amp.       -0.0026 Ry
        Total length         45.5230 bohr

     Magnetic moment per site:
     atom:    1    charge:    1.3603    magn:   -0.0043    constr:    0.0000
     atom:    2    charge:    1.3603    magn:   -0.0043    constr:    0.0000
     atom:    3    charge:    1.3603    magn:   -0.0043    constr:    0.0000
     atom:    4    charge:    7.0865    magn:    1.1646    constr:    0.0000
     atom:    5    charge:    1.3556    magn:    0.0001    constr:    0.0000
     atom:    6    charge:    1.3556    magn:    0.0001    constr:    0.0000
     atom:    7    charge:    1.3556    magn:    0.0001    constr:    0.0000
     atom:    8    charge:    7.0591    magn:    1.1182    constr:    0.0000
     atom:    9    charge:    1.3610    magn:   -0.0033    constr:    0.0000
     atom:   10    charge:    1.3610    magn:   -0.0033    constr:    0.0000
     atom:   11    charge:    1.3610    magn:   -0.0033    constr:    0.0000
     atom:   12    charge:    7.0769    magn:    1.1155    constr:    0.0000

     End of self-consistent calculation

 ------ SPIN UP ------------

[...]

 ------ SPIN DOWN ----------

[...]

          k = 0.0578 0.0000 0.0000 ( 18079 PWs)   bands (ev):

[...]

          k =-0.0867-0.1502 0.0000 ( 18028 PWs)   bands (ev):

   -83.8943 -83.7354 -83.7137 -66.4562 -66.4517 -66.4342 -66.4247 -66.4118
   -66.4038 -66.2267 -66.2062 -66.1850 -49.9702 -49.9641 -49.9638 -49.8356
   -49.8112 -49.8095 -49.8092 -49.7886 -49.7883 -33.1522 -33.1305 -33.0853
   -33.0249 -33.0006 -32.9609 -32.9237 -32.8945 -32.8829 -32.8418 -32.8266
   -32.8091 -32.7805 -32.7369 -32.7260 -32.7089 -32.6877 -32.6219 -32.5291
   -32.5102 -32.5030 -32.3695 -32.3682 -32.3504 -32.3446 -32.3317 -32.1988
    -3.8967  -3.7038  -2.5087  -2.1685  -1.5214  -1.5082  -1.4411  -1.1697
    -0.9704  -0.7700  -0.5719  -0.1781  -0.0996   0.0719   0.0998   0.1905
     0.2982   0.4129   0.4412   0.4740   0.6629   0.8655   0.9281   1.0449
     1.0798   1.0917   1.1564   1.2849   1.3236   1.4104   1.4335   1.5085
     1.7606   1.8893   1.9115   1.9205   1.9917   2.0740   2.4833   2.5739
     2.6141   2.8529   2.9905   3.0061   3.2539   3.2669   3.3131   3.3848
     3.6206   4.0430   4.0726   4.1739   4.3638   4.3907   4.7412   4.7446
     4.9090   5.0383   5.0390   5.1032   5.3716   5.6300   5.9849   6.0841

     the Fermi energy is     1.8027 ev

!    total energy              =   -2042.64001476 Ry
     Harris-Foulkes estimate   =   -2042.64001196 Ry
     estimated scf accuracy    <       0.00000073 Ry

     The total energy is the sum of the following terms:

     one-electron contribution =  -14263.26667081 Ry
     hartree contribution      =    7118.87698757 Ry
     xc contribution           =    -482.95988406 Ry
     ewald contribution        =    5584.81952435 Ry
     electric field correction =       0.00000031 Ry
     smearing contrib. (-TS)   =      -0.10997212 Ry

     total magnetization       =     6.31 Bohr mag/cell
     absolute magnetization    =     9.16 Bohr mag/cell

     convergence has been achieved in  34 iterations

 BEEF-vdW xc energy contributions
           1 :   -424.856567143307
           2 :    390.863203392867
           3 :   -331.965876400866
           4 :    262.494309656897
           5 :   -196.514398067580
           6 :    143.280428976644
           7 :   -105.455359273375
           8 :    80.3154208576467
           9 :   -62.7615194487377
          10 :    48.3475131969784
          11 :   -34.9582830807113
          12 :    22.7473269791348
          13 :   -12.9141840851747
          14 :    6.31477723132605
          15 :   -2.71983583107880
          16 :   0.957044062505418
          17 :   0.364434901559378
          18 :   -2.11014386729272
          19 :    4.29390180467351
          20 :   -6.28784275992535
          21 :    7.35693063189279
          22 :   -7.17230578390075
          23 :    6.01785299198838
          24 :   -4.62167552055968
          25 :    3.74684259789984
          26 :   -3.79386362580425
          27 :    4.62507091334953
          28 :   -5.68941593358369
          29 :    6.35379391839700
          30 :   -6.25184007476088
          31 :   -37.7867139298392
          32 :   -27.8046601066460

     Forces acting on atoms (Ry/au):

     negative rho (up, down):  4.407E-01 4.416E-01
     atom    1 type  1   force =    -0.00000021    0.01808643    0.00281731
     atom    2 type  1   force =     0.01566322   -0.00904334    0.00281746
     atom    3 type  1   force =    -0.01566330   -0.00904313    0.00281733
     atom    4 type  2   force =    -0.00000001   -0.00000017    0.01109933
     atom    5 type  1   force =     0.00000001   -0.00354051   -0.00520656
     atom    6 type  1   force =    -0.00306584    0.00177017   -0.00520700
     atom    7 type  1   force =     0.00306585    0.00177010   -0.00520702
     atom    8 type  2   force =    -0.00000011    0.00000015   -0.00614363
     atom    9 type  1   force =    -0.00000011   -0.00044927    0.00107538
     atom   10 type  1   force =    -0.00038778    0.00022459    0.00107519
     atom   11 type  1   force =     0.00038820    0.00022500    0.00107489
     atom   12 type  2   force =     0.00000009   -0.00000001   -0.00101267

     Total force =     0.035918     Total SCF correction =     0.000375

     entering subroutine stress ...

     negative rho (up, down):  4.407E-01 4.416E-01
          total   stress  (Ry/bohr**3)                   (kbar)     P=  -23.62
  -0.00021340   0.00000000   0.00000000        -31.39      0.00      0.00
   0.00000000  -0.00021340   0.00000000          0.00    -31.39      0.00
   0.00000000   0.00000000  -0.00005489          0.00      0.00     -8.07

 !ASE

     Writing output data file calc.save

     General routines

     Parallel routines

   This run was terminated on:  21:19:12   1Jan2019

   JOB DONE.
Job  /afs/slac/g/suncat/bin/suncat-tsmpirun -x LD_LIBRARY_PATH -wdir /scratch/qe649095_BbrHQ pw.x -in pw.inp

TID   HOST_NAME   COMMAND_LINE            STATUS            TERMINATION_TIME
00000 suncat0141 pw.x -in pw.inp   Done                     01/01/2019 21:19:12
00001 suncat0141 pw.x -in pw.inp   Done                     01/01/2019 21:19:12
00002 suncat0141 pw.x -in pw.inp   Done                     01/01/2019 21:19:12
00003 suncat0141 pw.x -in pw.inp   Done                     01/01/2019 21:19:12
00004 suncat0141 pw.x -in pw.inp   Done                     01/01/2019 21:19:12
00005 suncat0141 pw.x -in pw.inp   Done                     01/01/2019 21:19:12
00006 suncat0141 pw.x -in pw.inp   Done                     01/01/2019 21:19:12
00007 suncat0141 pw.x -in pw.inp   Done                     01/01/2019 21:19:12
00008 suncat0140 pw.x -in pw.inp   Done                     01/01/2019 21:19:12
00009 suncat0140 pw.x -in pw.inp   Done                     01/01/2019 21:19:12
00010 suncat0140 pw.x -in pw.inp   Done                     01/01/2019 21:19:12
00011 suncat0140 pw.x -in pw.inp   Done                     01/01/2019 21:19:12
00012 suncat0140 pw.x -in pw.inp   Done                     01/01/2019 21:19:12
00013 suncat0140 pw.x -in pw.inp   Done                     01/01/2019 21:19:12
00014 suncat0140 pw.x -in pw.inp   Done                     01/01/2019 21:19:12
00015 suncat0140 pw.x -in pw.inp   Done                     01/01/2019 21:19:12
00016 suncat0135 pw.x -in pw.inp   Done                     01/01/2019 21:19:12
00017 suncat0135 pw.x -in pw.inp   Done                     01/01/2019 21:19:12
00018 suncat0135 pw.x -in pw.inp   Done                     01/01/2019 21:19:12
00019 suncat0135 pw.x -in pw.inp   Done                     01/01/2019 21:19:12
00020 suncat0135 pw.x -in pw.inp   Done                     01/01/2019 21:19:12
00021 suncat0135 pw.x -in pw.inp   Done                     01/01/2019 21:19:12
00022 suncat0135 pw.x -in pw.inp   Done                     01/01/2019 21:19:12
00023 suncat0135 pw.x -in pw.inp   Done                     01/01/2019 21:19:12
00024 suncat0134 pw.x -in pw.inp   Done                     01/01/2019 21:19:12
00025 suncat0134 pw.x -in pw.inp   Done                     01/01/2019 21:19:12
00026 suncat0134 pw.x -in pw.inp   Done                     01/01/2019 21:19:12
00027 suncat0134 pw.x -in pw.inp   Done                     01/01/2019 21:19:12
00028 suncat0134 pw.x -in pw.inp   Done                     01/01/2019 21:19:12
00029 suncat0134 pw.x -in pw.inp   Done                     01/01/2019 21:19:12
00030 suncat0134 pw.x -in pw.inp   Done                     01/01/2019 21:19:12
00031 suncat0134 pw.x -in pw.inp   Done                     01/01/2019 21:19:12
00032 suncat0272 pw.x -in pw.inp   Done                     01/01/2019 21:19:12
00033 suncat0272 pw.x -in pw.inp   Done                     01/01/2019 21:19:12
00034 suncat0272 pw.x -in pw.inp   Done                     01/01/2019 21:19:12
00035 suncat0272 pw.x -in pw.inp   Done                     01/01/2019 21:19:12
00036 suncat0272 pw.x -in pw.inp   Done                     01/01/2019 21:19:12
00037 suncat0272 pw.x -in pw.inp   Done                     01/01/2019 21:19:12
00038 suncat0272 pw.x -in pw.inp   Done                     01/01/2019 21:19:12
00039 suncat0272 pw.x -in pw.inp   Done                     01/01/2019 21:19:12
00040 suncat0262 pw.x -in pw.inp   Done                     01/01/2019 21:19:12
00041 suncat0262 pw.x -in pw.inp   Done                     01/01/2019 21:19:12
00042 suncat0262 pw.x -in pw.inp   Done                     01/01/2019 21:19:12
00043 suncat0262 pw.x -in pw.inp   Done                     01/01/2019 21:19:12
00044 suncat0262 pw.x -in pw.inp   Done                     01/01/2019 21:19:12
00045 suncat0262 pw.x -in pw.inp   Done                     01/01/2019 21:19:12
00046 suncat0262 pw.x -in pw.inp   Done                     01/01/2019 21:19:12
00047 suncat0262 pw.x -in pw.inp   Done                     01/01/2019 21:19:12
00048 suncat0258 pw.x -in pw.inp   Done                     01/01/2019 21:19:12
00049 suncat0258 pw.x -in pw.inp   Done                     01/01/2019 21:19:12
00050 suncat0258 pw.x -in pw.inp   Done                     01/01/2019 21:19:12
00051 suncat0258 pw.x -in pw.inp   Done                     01/01/2019 21:19:12
00052 suncat0258 pw.x -in pw.inp   Done                     01/01/2019 21:19:12
00053 suncat0258 pw.x -in pw.inp   Done                     01/01/2019 21:19:12
00054 suncat0258 pw.x -in pw.inp   Done                     01/01/2019 21:19:12
00055 suncat0258 pw.x -in pw.inp   Done                     01/01/2019 21:19:12
00056 suncat0257 pw.x -in pw.inp   Done                     01/01/2019 21:19:12
00057 suncat0257 pw.x -in pw.inp   Done                     01/01/2019 21:19:12
00058 suncat0257 pw.x -in pw.inp   Done                     01/01/2019 21:19:12
00059 suncat0257 pw.x -in pw.inp   Done                     01/01/2019 21:19:12
00060 suncat0257 pw.x -in pw.inp   Done                     01/01/2019 21:19:12
00061 suncat0257 pw.x -in pw.inp   Done                     01/01/2019 21:19:12
00062 suncat0257 pw.x -in pw.inp   Done                     01/01/2019 21:19:12
00063 suncat0257 pw.x -in pw.inp   Done                     01/01/2019 21:19:12