     Program PWSCF v.5.1rc2 (svn rev. 11289) starts on 24Dec2018 at 19:35:39

     Current dimensions of program PWSCF are:
     Max number of different atomic species (ntypx) = 10
     Max number of k-points (npk) =  40000
     Max angular momentum in pseudopotentials (lmaxx) =  3
     Presently stress not available with electric field

     IMPORTANT: XC functional enforced from input :
     Exchange-correlation      = BEEF-VDW ( 1  4 27 13 2)
     Any further DFT definition will be discarded
     Please, verify this is what you really want

     Subspace diagonalization in iterative solution of the eigenvalue problem:
     a serial algorithm will be used

     Found symmetry operation: I + (  0.5000  0.0000  0.0000)
     This is a supercell, fractional translations are disabled

     bravais-lattice index     =            0
     lattice parameter (alat)  =       1.8897  a.u.
     unit-cell volume          =    4537.4857 (a.u.)^3
     number of atoms/cell      =           12
     number of atomic types    =            2
     number of electrons       =       198.00
     number of Kohn-Sham states=          129
     kinetic-energy cutoff     =      36.7493  Ry
     charge density cutoff     =     367.4932  Ry
     convergence threshold     =      1.0E-06
     mixing beta               =       0.1000
     number of iterations used =           10  plain     mixing
     Exchange-correlation      = BEEF-VDW ( 1  4 27 13 2)
     nstep                     =           50

     celldm(1)=   1.889726  celldm(2)=   0.000000  celldm(3)=   0.000000
     celldm(4)=   0.000000  celldm(5)=   0.000000  celldm(6)=   0.000000

     crystal axes: (cart. coord. in units of alat)
               a(1) = (   5.474568   0.000000   0.000000 )
               a(2) = (  -2.737284   4.996737   0.000000 )
               a(3) = (   0.000000   0.000000  24.580023 )

     reciprocal axes: (cart. coord. in units 2 pi/alat)
               b(1) = (  0.182663  0.100065  0.000000 )
               b(2) = (  0.000000  0.200131  0.000000 )
               b(3) = (  0.000000  0.000000  0.040683 )

     PseudoPot. # 1 for Ga read from file:
     /afs/slac.stanford.edu/u/if/mamunm/psp/gbrv1.5pbe/Ga.UPF
     MD5 check sum: ccd671392a58a050fbb373893b4fcd66
     Pseudo is Ultrasoft + core correction, Zval = 19.0
     Generated by new atomic code, or converted to UPF format
     Using radial grid of  871 points,  6 beta functions with:
                l(1) =   0
                l(2) =   0
                l(3) =   1
                l(4) =   1
                l(5) =   2
                l(6) =   2
     Q(r) pseudized with  8 coefficients,  rinner =    1.250   1.250   1.250
                                                       1.250   1.250

     PseudoPot. # 2 for W  read from file:
     /afs/slac.stanford.edu/u/if/mamunm/psp/gbrv1.5pbe/W.UPF
     MD5 check sum: 9c083fa34c2a2ea0f02f1f893e16e1c8
     Pseudo is Ultrasoft + core correction, Zval = 14.0
     Generated by new atomic code, or converted to UPF format
     Using radial grid of  923 points,  8 beta functions with:
                l(1) =   0
                l(2) =   0
                l(3) =   0
                l(4) =   1
                l(5) =   1
                l(6) =   2
                l(7) =   2
                l(8) =   3
     Q(r) pseudized with  6 coefficients,  rinner =    1.350   1.350   1.350
                                                       1.350   1.350   1.350
                                                       1.350

     vdW kernel table read from file vdW_kernel_table
     MD5 check sum: 095c7af220d748ca6e76c0b4c6cfb241

     atomic species   valence    mass     pseudopotential
        Ga1           19.00    69.72300     Ga( 1.00)
        W1            14.00   183.84000     W ( 1.00)

     No symmetry found

   Cartesian axes

     site n.     atom                  positions (alat units)
         1           Ga1 tau(   1) = (   0.0000000   0.0000000  10.0000000  )
         2           Ga1 tau(   2) = (   2.7372839   0.0000000  10.0000000  )
         3           W1  tau(   3) = (   1.3686420   2.4983687  10.0000000  )
         4           W1  tau(   4) = (  -1.3686420   2.4983687  10.0000000  )
         5           Ga1 tau(   5) = (   2.7372839   1.4995232  12.2900117  )
         6           Ga1 tau(   6) = (  -0.0000000   1.4995232  12.2900117  )
         7           W1  tau(   7) = (  -1.3686420   3.9978919  12.2900117  )
         8           W1  tau(   8) = (   1.3686420   3.9978919  12.2900117  )
         9           Ga1 tau(   9) = (  -0.0000000   2.9990463  14.5800235  )
        10           Ga1 tau(  10) = (   2.7372839   2.9990463  14.5800235  )
        11           W1  tau(  11) = (   4.1059259   0.5006776  14.5800235  )
        12           W1  tau(  12) = (   1.3686420   0.5006776  14.5800235  )

     number of k points=    20  Fermi-Dirac smearing, width (Ry)=  0.0110
                       cart. coord. in units 2pi/alat
        k(    1) = (   0.0000000   0.0000000   0.0000000), wk =   0.0555556
        k(    2) = (   0.0000000   0.0333551   0.0000000), wk =   0.1111111
        k(    3) = (   0.0000000   0.0667102   0.0000000), wk =   0.1111111
        k(    4) = (   0.0000000  -0.1000653   0.0000000), wk =   0.0555556
        k(    5) = (   0.0304438   0.0166775   0.0000000), wk =   0.1111111
        k(    6) = (   0.0304438   0.0500326   0.0000000), wk =   0.1111111
        k(    7) = (   0.0304438   0.0833877   0.0000000), wk =   0.1111111
        k(    8) = (   0.0304438  -0.0833877   0.0000000), wk =   0.1111111
        k(    9) = (   0.0304438  -0.0500326   0.0000000), wk =   0.1111111
        k(   10) = (   0.0304438  -0.0166775   0.0000000), wk =   0.1111111
        k(   11) = (   0.0608876   0.0333551   0.0000000), wk =   0.1111111
        k(   12) = (   0.0608876   0.0667102   0.0000000), wk =   0.1111111
        k(   13) = (   0.0608876   0.1000653   0.0000000), wk =   0.1111111
        k(   14) = (   0.0608876  -0.0667102   0.0000000), wk =   0.1111111
        k(   15) = (   0.0608876  -0.0333551   0.0000000), wk =   0.1111111
        k(   16) = (   0.0608876   0.0000000   0.0000000), wk =   0.1111111
        k(   17) = (  -0.0913314  -0.0500326   0.0000000), wk =   0.0555556
        k(   18) = (  -0.0913314  -0.0166775   0.0000000), wk =   0.1111111
        k(   19) = (  -0.0913314   0.0166775   0.0000000), wk =   0.1111111
        k(   20) = (  -0.0913314  -0.1500979   0.0000000), wk =   0.0555556

     Largest allocated arrays     est. size (Mb)     dimensions
     Largest temporary arrays     est. size (Mb)     dimensions

     Initial potential from superposition of free atoms
     Check: negative starting charge=   -0.382028

     starting charge  191.39795, renormalised to  198.00000

     negative rho (up, down):  3.952E-01 0.000E+00

     *
     * You are using vdW-DF for exchange-correlation in this calculation.
     * Please cite the following three references that made this development
     * possible:
     *
     *   M. Dion, H. Rydberg, E. Schroder, D. C. Langreth, and
     *   B. I. Lundqvist, Phys. Rev. Lett. 92, 246401 (2004).
     *
     *   T. Thonhauser, V. R. Cooper, S. Li, A. Puzder, P. Hyldgaard, and
     *   D. C. Langreth, Phys. Rev. B 76, 125112 (2007).
     *
     *   G. Roman-Perez and J. M. Soler, Phys. Rev. Lett. 103, 096102 (2009).
     *
     *
     * If you are using vdW-DF2, please also cite:
     *
     *   K. Lee, E. D. Murray, L. Kong, B. I. Lundqvist, and
     *   D. C. Langreth, Phys. Rev. B 82, 081101(R) (2010).
     *
     *
     * If you are calculating the stress with vdW-DF, please also cite:
     *
     *   R. Sabatini, E. Kucukbenli, B. Kolb, T. Thonhauser, and
     *   S. de Gironcoli, J. Phys.: Condens. Matter 24, 424209 (2012).
     *

     Carrying out vdW-DF run using the following parameters:

     Nqs =      20    Nr_points =    1024   r_max =   100.000
     q_mesh =
               0.00001000     0.04494208     0.09755937     0.15916263
               0.23128650     0.31572767     0.41458969     0.53033537
               0.66584808     0.82450364     1.01025438     1.22772762
               1.48234092     1.78043706     2.12944203     2.53805004
               3.01644009     3.57652955     4.23227104     5.00000000

     Gradients computed in reciprocal space

     Adding external electric field

     Computed dipole along edir(3) :
        Dipole               -0.0000 Ry au,         -0.0000 Debye
        Dipole field         -0.0000 Ry au

        Potential amp.        0.0000 Ry
        Total length         45.2883 bohr

     Starting wfc are  150 randomized atomic wfcs

     Self-consistent Calculation

     iteration #  1     ecut=    36.75 Ry     beta=0.10
     Davidson diagonalization with overlap
     ethr =  1.00E-02,  avg # of iterations =  7.4

[...]

     total energy              =   -3463.13315365 Ry
     Harris-Foulkes estimate   =   -3466.48416159 Ry
     estimated scf accuracy    <      18.96542081 Ry

[...]

     End of self-consistent calculation

          k = 0.0000 0.0000 0.0000 ( 17031 PWs)   bands (ev):

   -93.2269 -93.2200 -93.2198 -93.2195 -93.1703 -93.1698 -92.8614 -92.8613
   -92.8609 -92.8609 -92.8549 -92.8549 -92.8478 -92.8478 -92.7857 -92.7857
   -92.7853 -92.7852 -73.0049 -72.9474 -72.7969 -72.7949 -72.7403 -72.7384
   -37.4964 -37.3252 -37.2190 -37.2052 -37.1997 -37.1778 -37.0807 -36.9717
   -36.9634 -36.8929 -36.8768 -36.8683 -36.7995 -36.6717 -36.6401 -36.5908
   -36.3637 -36.3609 -13.8272 -13.7317 -13.6926 -13.6231 -13.6187 -13.6029
   -13.5885 -13.5100 -13.4758 -13.4281 -13.4246 -13.4169 -13.3089 -13.3086
   -13.2929 -13.2886 -13.1991 -13.1867 -13.1786 -13.1766 -13.1639 -13.1561
   -13.1529 -13.1208 -13.1188 -13.1171 -13.0839 -13.0838 -13.0166 -13.0041
    -9.1406  -7.2257  -5.7314  -5.1385  -3.6893  -3.6733  -2.8336  -2.5996
    -2.2834  -2.2086  -1.9149  -1.4779  -1.4577  -1.0867  -0.7146  -0.7120
    -0.6140  -0.1888  -0.0126   0.4485   0.4929   0.8581   1.0126   1.0511
     1.5266   1.5754   1.6351   1.8049   1.8685   2.2198   2.3110   2.3856
     2.4104   2.8232   2.9140   3.5410   3.8106   3.9210   3.9578   3.9753
     4.0966   4.1027   4.1773   4.9396   4.9882   5.1744   5.3876   5.5605
     5.7713   5.8248   5.9293   6.5248   6.8395   7.2620   7.9719   8.0159
     8.2015

[...]

          k =-0.0913-0.0500 0.0000 ( 17108 PWs)   bands (ev):

[...]

     the Fermi energy is     1.6560 ev

!    total energy              =   -3461.79924757 Ry
     Harris-Foulkes estimate   =   -3461.79924290 Ry
     estimated scf accuracy    <       0.00000053 Ry

     The total energy is the sum of the following terms:

     one-electron contribution =  -22926.08047219 Ry
     hartree contribution      =   11460.00773637 Ry
     xc contribution           =    -554.07893258 Ry
     ewald contribution        =    8558.40996408 Ry
     electric field correction =       0.00000000 Ry
     smearing contrib. (-TS)   =      -0.05754326 Ry

     convergence has been achieved in  16 iterations

 BEEF-vdW xc energy contributions
           1 :   -491.974701399044
           2 :    451.076330039471
           3 :   -380.915605810365
           4 :    299.572205915336
[...]
     Using radial grid of  871 points,  6 beta functions with:
                l(1) =   0
                l(2) =   0
                l(3) =   1
                l(4) =   1
                l(5) =   2
                l(6) =   2
     Q(r) pseudized with  8 coefficients,  rinner =    1.250   1.250   1.250
                                                       1.250   1.250

     PseudoPot. # 2 for W  read from file:
     /afs/slac.stanford.edu/u/if/mamunm/psp/gbrv1.5pbe/W.UPF
     MD5 check sum: 9c083fa34c2a2ea0f02f1f893e16e1c8
     Pseudo is Ultrasoft + core correction, Zval = 14.0
     Generated by new atomic code, or converted to UPF format
     Using radial grid of  923 points,  8 beta functions with:
                l(1) =   0
                l(2) =   0
                l(3) =   0
                l(4) =   1
                l(5) =   1
                l(6) =   2
                l(7) =   2
                l(8) =   3
     Q(r) pseudized with  6 coefficients,  rinner =    1.350   1.350   1.350
                                                       1.350   1.350   1.350
                                                       1.350

     vdW kernel table read from file vdW_kernel_table
     MD5 check sum: 095c7af220d748ca6e76c0b4c6cfb241

     atomic species   valence    mass     pseudopotential
        Ga1           19.00    69.72300     Ga( 1.00)
        W1            14.00   183.84000     W ( 1.00)

     No symmetry found

   Cartesian axes

     site n.     atom                  positions (alat units)
         1           Ga1 tau(   1) = (   0.0000000   0.0000000  10.0000000  )
         2           Ga1 tau(   2) = (   2.7372839   0.0000000  10.0000000  )
         3           W1  tau(   3) = (   1.3686420   2.4983687  10.0000000  )
         4           W1  tau(   4) = (  -1.3686420   2.4983687  10.0000000  )
         5           Ga1 tau(   5) = (   2.7372839   1.4995232  12.2900117  )
         6           Ga1 tau(   6) = (  -0.0000000   1.4995232  12.2900117  )
         7           W1  tau(   7) = (  -1.3686420   3.9978919  12.2900117  )
         8           W1  tau(   8) = (   1.3686420   3.9978919  12.2900117  )
         9           Ga1 tau(   9) = (  -0.0016685   2.9964462  14.8328035  )
        10           Ga1 tau(  10) = (   2.7356280   2.9964370  14.8327740  )
        11           W1  tau(  11) = (   4.1055529   0.4653583  14.4564426  )
        12           W1  tau(  12) = (   1.3682645   0.4653586  14.4564470  )

     number of k points=    20  Fermi-Dirac smearing, width (Ry)=  0.0110
                       cart. coord. in units 2pi/alat
        k(    1) = (   0.0000000   0.0000000   0.0000000), wk =   0.0555556
        k(    2) = (   0.0000000   0.0333551   0.0000000), wk =   0.1111111
        k(    3) = (   0.0000000   0.0667102   0.0000000), wk =   0.1111111
        k(    4) = (   0.0000000  -0.1000653   0.0000000), wk =   0.0555556
        k(    5) = (   0.0304438   0.0166775   0.0000000), wk =   0.1111111
        k(    6) = (   0.0304438   0.0500326   0.0000000), wk =   0.1111111
        k(    7) = (   0.0304438   0.0833877   0.0000000), wk =   0.1111111
        k(    8) = (   0.0304438  -0.0833877   0.0000000), wk =   0.1111111
        k(    9) = (   0.0304438  -0.0500326   0.0000000), wk =   0.1111111
        k(   10) = (   0.0304438  -0.0166775   0.0000000), wk =   0.1111111
        k(   11) = (   0.0608876   0.0333551   0.0000000), wk =   0.1111111
        k(   12) = (   0.0608876   0.0667102   0.0000000), wk =   0.1111111
        k(   13) = (   0.0608876   0.1000653   0.0000000), wk =   0.1111111
        k(   14) = (   0.0608876  -0.0667102   0.0000000), wk =   0.1111111
        k(   15) = (   0.0608876  -0.0333551   0.0000000), wk =   0.1111111
        k(   16) = (   0.0608876   0.0000000   0.0000000), wk =   0.1111111
        k(   17) = (  -0.0913314  -0.0500326   0.0000000), wk =   0.0555556
        k(   18) = (  -0.0913314  -0.0166775   0.0000000), wk =   0.1111111
        k(   19) = (  -0.0913314   0.0166775   0.0000000), wk =   0.1111111
        k(   20) = (  -0.0913314  -0.1500979   0.0000000), wk =   0.0555556

     Largest allocated arrays     est. size (Mb)     dimensions
     Largest temporary arrays     est. size (Mb)     dimensions

     Initial potential from superposition of free atoms
     Check: negative starting charge=   -0.382003

     starting charge  191.39795, renormalised to  198.00000

[...]

     *
     * You are using vdW-DF for exchange-correlation in this calculation.
     * Please cite the following three references that made this development
     * possible:
     *
     *   M. Dion, H. Rydberg, E. Schroder, D. C. Langreth, and
     *   B. I. Lundqvist, Phys. Rev. Lett. 92, 246401 (2004).
     *
     *   T. Thonhauser, V. R. Cooper, S. Li, A. Puzder, P. Hyldgaard, and
     *   D. C. Langreth, Phys. Rev. B 76, 125112 (2007).
     *
     *   G. Roman-Perez and J. M. Soler, Phys. Rev. Lett. 103, 096102 (2009).
     *
     *
     * If you are using vdW-DF2, please also cite:
     *
     *   K. Lee, E. D. Murray, L. Kong, B. I. Lundqvist, and
     *   D. C. Langreth, Phys. Rev. B 82, 081101(R) (2010).
     *
     *
     * If you are calculating the stress with vdW-DF, please also cite:
     *
     *   R. Sabatini, E. Kucukbenli, B. Kolb, T. Thonhauser, and
     *   S. de Gironcoli, J. Phys.: Condens. Matter 24, 424209 (2012).
     *

     Carrying out vdW-DF run using the following parameters:

     Nqs =      20    Nr_points =    1024   r_max =   100.000
     q_mesh =
               0.00001000     0.04494208     0.09755937     0.15916263
               0.23128650     0.31572767     0.41458969     0.53033537
               0.66584808     0.82450364     1.01025438     1.22772762
               1.48234092     1.78043706     2.12944203     2.53805004
               3.01644009     3.57652955     4.23227104     5.00000000

     Gradients computed in reciprocal space

[...]

     Starting wfc are  150 randomized atomic wfcs

     Self-consistent Calculation

[...]

     total energy              =   -3461.82760719 Ry
     Harris-Foulkes estimate   =   -3461.82760672 Ry
     estimated scf accuracy    <       0.00000247 Ry

     iteration # 16     ecut=    36.75 Ry     beta=0.10
     Davidson diagonalization with overlap
     ethr =  1.25E-09,  avg # of iterations =  2.5

[...]

     negative rho (up, down):  3.967E-01 0.000E+00

     Adding external electric field

     Computed dipole along edir(3) :
        Dipole                0.0404 Ry au,          0.1027 Debye
        Dipole field          0.0001 Ry au

        Potential amp.       -0.0101 Ry
        Total length         45.2883 bohr

     End of self-consistent calculation

[...]

          k = 0.0609 0.0000 0.0000 ( 17084 PWs)   bands (ev):

[...]

          k =-0.0913-0.1501 0.0000 ( 17108 PWs)   bands (ev):

   -93.1417 -93.1417 -93.1376 -93.1376 -93.0888 -93.0888 -92.8881 -92.8881
   -92.8592 -92.8592 -92.8179 -92.8179 -92.8091 -92.8091 -92.7897 -92.7897
   -92.7424 -92.7424 -72.9230 -72.9230 -72.7206 -72.7206 -72.7146 -72.7146
   -37.3114 -37.3114 -37.0744 -37.0744 -37.0317 -37.0317 -36.8784 -36.8784
   -36.8645 -36.8645 -36.8039 -36.8039 -36.7623 -36.7622 -36.7494 -36.7494
   -36.5132 -36.5132 -13.5639 -13.5639 -13.5338 -13.5338 -13.5144 -13.5144
   -13.5041 -13.5041 -13.4851 -13.4850 -13.2371 -13.2371 -13.2199 -13.2199
   -13.1806 -13.1806 -13.1743 -13.1743 -13.1667 -13.1667 -13.1598 -13.1598
   -13.1490 -13.1490 -13.1427 -13.1427 -13.1179 -13.1179 -13.1009 -13.1009
    -7.2643  -7.2643  -5.6656  -5.6656  -4.6177  -4.6177  -2.8389  -2.8389
    -1.8458  -1.8457  -1.0841  -1.0841  -0.7400  -0.7400  -0.4372  -0.4371
    -0.1958  -0.1958  -0.0254  -0.0254   0.6760   0.6760   0.8698   0.8698
     1.1920   1.1920   1.4983   1.4983   1.7029   1.7029   2.2873   2.2873
     2.5925   2.5925   3.2440   3.2440   3.4538   3.4538   3.6788   3.6788
     4.2788   4.2788   4.9866   4.9866   5.6194   5.6194   6.1116   6.1117
     6.3461   6.3461   7.0360   7.0360   7.2010   7.2010   7.4370   7.4371
     7.9518

     the Fermi energy is     1.7076 ev

!    total energy              =   -3461.82761147 Ry
     Harris-Foulkes estimate   =   -3461.82760753 Ry
     estimated scf accuracy    <       0.00000041 Ry

     The total energy is the sum of the following terms:

     one-electron contribution =  -22632.82518059 Ry
     hartree contribution      =   11313.66757419 Ry
     xc contribution           =    -554.06766906 Ry
     ewald contribution        =    8411.45330729 Ry
     electric field correction =       0.00000452 Ry
     smearing contrib. (-TS)   =      -0.05564781 Ry

     convergence has been achieved in  16 iterations

 BEEF-vdW xc energy contributions
           1 :   -491.962916317019
           2 :    451.043666096091
           3 :   -380.854116147028
           4 :    299.488111249390
           5 :   -224.090019564801
           6 :    164.967641800144
           7 :   -123.708098429984
           8 :    95.4990793511145
           9 :   -73.7062577642131
          10 :    53.8904469669505
          11 :   -35.2890367450258
          12 :    19.6159452049129
          13 :   -8.64070234190376
          14 :    2.41968706655052
          15 :   0.782691879492404
          16 :   -3.19968244223514
          17 :    6.09289957540580
          18 :   -9.21045718585663
          19 :    11.4190480118586
          20 :   -11.8702974867919
          21 :    10.7626768138882
          22 :   -9.18652212579821
          23 :    8.28131214280688
          24 :   -8.42398962121263
          25 :    9.06582554515762
          26 :   -9.28292239373582
          27 :    8.55369353232197
          28 :   -7.14927000441139
          29 :    5.87078195920708
          30 :   -5.39083290403119
          31 :   -39.9611885758480
          32 :   -28.6744367027336

     Forces acting on atoms (Ry/au):

     negative rho (up, down):  3.967E-01 0.000E+00
     atom    1 type  1   force =     0.00001400   -0.00080849   -0.03647079
     atom    2 type  1   force =     0.00000968   -0.00080749   -0.03646719
     atom    3 type  2   force =     0.00000368    0.00669996    0.04259745
     atom    4 type  2   force =     0.00000357    0.00669901    0.04259706
     atom    5 type  1   force =     0.00009754    0.01536034   -0.00348663
     atom    6 type  1   force =     0.00008186    0.01536456   -0.00348688
     atom    7 type  2   force =     0.00003983   -0.02106368   -0.00281986
     atom    8 type  2   force =     0.00003904   -0.02106611   -0.00282157
     atom    9 type  1   force =    -0.00007867   -0.00009185   -0.00027794
     atom   10 type  1   force =    -0.00007562   -0.00009199   -0.00027958
     atom   11 type  2   force =    -0.00006779   -0.00009826    0.00045876
     atom   12 type  2   force =    -0.00006713   -0.00009602    0.00045716

     Total force =     0.088207     Total SCF correction =     0.003955

     entering subroutine stress ...

     negative rho (up, down):  3.967E-01 0.000E+00
          total   stress  (Ry/bohr**3)                   (kbar)     P=  -27.27
  -0.00017232  -0.00000003   0.00000003        -25.35     -0.00      0.00
  -0.00000003  -0.00033419  -0.00001475         -0.00    -49.16     -2.17
   0.00000003  -0.00001475  -0.00004953          0.00     -2.17     -7.29

 !ASE

     Writing output data file calc.save

     General routines

     Parallel routines

   This run was terminated on:  21:18: 4  24Dec2018

   JOB DONE.
Job  /afs/slac/g/suncat/bin/suncat-tsmpirun -x LD_LIBRARY_PATH -wdir /scratch/qe108989_jWghB pw.x -in pw.inp

TID   HOST_NAME   COMMAND_LINE            STATUS            TERMINATION_TIME
00000 suncat0082 pw.x -in pw.inp   Done                     12/24/2018 21:18:04
00001 suncat0082 pw.x -in pw.inp   Done                     12/24/2018 21:18:04
00002 suncat0082 pw.x -in pw.inp   Done                     12/24/2018 21:18:04
00003 suncat0082 pw.x -in pw.inp   Done                     12/24/2018 21:18:04
00004 suncat0082 pw.x -in pw.inp   Done                     12/24/2018 21:18:04
00005 suncat0082 pw.x -in pw.inp   Done                     12/24/2018 21:18:04
00006 suncat0082 pw.x -in pw.inp   Done                     12/24/2018 21:18:04
00007 suncat0082 pw.x -in pw.inp   Done                     12/24/2018 21:18:04
00008 suncat0062 pw.x -in pw.inp   Done                     12/24/2018 21:18:04
00009 suncat0062 pw.x -in pw.inp   Done                     12/24/2018 21:18:04
00010 suncat0062 pw.x -in pw.inp   Done                     12/24/2018 21:18:04
00011 suncat0062 pw.x -in pw.inp   Done                     12/24/2018 21:18:04
00012 suncat0062 pw.x -in pw.inp   Done                     12/24/2018 21:18:04
00013 suncat0062 pw.x -in pw.inp   Done                     12/24/2018 21:18:04
00014 suncat0062 pw.x -in pw.inp   Done                     12/24/2018 21:18:04
00015 suncat0062 pw.x -in pw.inp   Done                     12/24/2018 21:18:04
00016 suncat0056 pw.x -in pw.inp   Done                     12/24/2018 21:18:04
00017 suncat0056 pw.x -in pw.inp   Done                     12/24/2018 21:18:04
00018 suncat0056 pw.x -in pw.inp   Done                     12/24/2018 21:18:04
00019 suncat0056 pw.x -in pw.inp   Done                     12/24/2018 21:18:04
00020 suncat0056 pw.x -in pw.inp   Done                     12/24/2018 21:18:04
00021 suncat0056 pw.x -in pw.inp   Done                     12/24/2018 21:18:04
00022 suncat0056 pw.x -in pw.inp   Done                     12/24/2018 21:18:04
00023 suncat0056 pw.x -in pw.inp   Done                     12/24/2018 21:18:04
00024 suncat0055 pw.x -in pw.inp   Done                     12/24/2018 21:18:04
00025 suncat0055 pw.x -in pw.inp   Done                     12/24/2018 21:18:04
00026 suncat0055 pw.x -in pw.inp   Done                     12/24/2018 21:18:04
00027 suncat0055 pw.x -in pw.inp   Done                     12/24/2018 21:18:04
00028 suncat0055 pw.x -in pw.inp   Done                     12/24/2018 21:18:04
00029 suncat0055 pw.x -in pw.inp   Done                     12/24/2018 21:18:04
00030 suncat0055 pw.x -in pw.inp   Done                     12/24/2018 21:18:04
00031 suncat0055 pw.x -in pw.inp   Done                     12/24/2018 21:18:04
00032 suncat0217 pw.x -in pw.inp   Done                     12/24/2018 21:18:04
00033 suncat0217 pw.x -in pw.inp   Done                     12/24/2018 21:18:04
00034 suncat0217 pw.x -in pw.inp   Done                     12/24/2018 21:18:04
00035 suncat0217 pw.x -in pw.inp   Done                     12/24/2018 21:18:04
00036 suncat0217 pw.x -in pw.inp   Done                     12/24/2018 21:18:04
00037 suncat0217 pw.x -in pw.inp   Done                     12/24/2018 21:18:04
00038 suncat0217 pw.x -in pw.inp   Done                     12/24/2018 21:18:04
00039 suncat0217 pw.x -in pw.inp   Done                     12/24/2018 21:18:04
00040 suncat0216 pw.x -in pw.inp   Done                     12/24/2018 21:18:04
00041 suncat0216 pw.x -in pw.inp   Done                     12/24/2018 21:18:04
00042 suncat0216 pw.x -in pw.inp   Done                     12/24/2018 21:18:04
00043 suncat0216 pw.x -in pw.inp   Done                     12/24/2018 21:18:04
00044 suncat0216 pw.x -in pw.inp   Done                     12/24/2018 21:18:04
00045 suncat0216 pw.x -in pw.inp   Done                     12/24/2018 21:18:04
00046 suncat0216 pw.x -in pw.inp   Done                     12/24/2018 21:18:04
00047 suncat0216 pw.x -in pw.inp   Done                     12/24/2018 21:18:04
00048 suncat0215 pw.x -in pw.inp   Done                     12/24/2018 21:18:04
00049 suncat0215 pw.x -in pw.inp   Done                     12/24/2018 21:18:04
00050 suncat0215 pw.x -in pw.inp   Done                     12/24/2018 21:18:04
00051 suncat0215 pw.x -in pw.inp   Done                     12/24/2018 21:18:04
00052 suncat0215 pw.x -in pw.inp   Done                     12/24/2018 21:18:04
00053 suncat0215 pw.x -in pw.inp   Done                     12/24/2018 21:18:04
00054 suncat0215 pw.x -in pw.inp   Done                     12/24/2018 21:18:04
00055 suncat0215 pw.x -in pw.inp   Done                     12/24/2018 21:18:04
00056 suncat0210 pw.x -in pw.inp   Done                     12/24/2018 21:18:04
00057 suncat0210 pw.x -in pw.inp   Done                     12/24/2018 21:18:04
00058 suncat0210 pw.x -in pw.inp   Done                     12/24/2018 21:18:04
00059 suncat0210 pw.x -in pw.inp   Done                     12/24/2018 21:18:04
00060 suncat0210 pw.x -in pw.inp   Done                     12/24/2018 21:18:04
00061 suncat0210 pw.x -in pw.inp   Done                     12/24/2018 21:18:04
00062 suncat0210 pw.x -in pw.inp   Done                     12/24/2018 21:18:04
00063 suncat0210 pw.x -in pw.inp   Done                     12/24/2018 21:18:04