     Program PWSCF v.5.1rc2 (svn rev. 11289) starts on 19Dec2018 at 18:14:41

     Current dimensions of program PWSCF are:
     Max number of different atomic species (ntypx) = 10
     Max number of k-points (npk) =  40000
     Max angular momentum in pseudopotentials (lmaxx) =  3
     Presently stress not available with electric field

     IMPORTANT: XC functional enforced from input :
     Exchange-correlation      = BEEF-VDW ( 1  4 27 13 2)
     Any further DFT definition will be discarded
     Please, verify this is what you really want

     Subspace diagonalization in iterative solution of the eigenvalue problem:
     a serial algorithm will be used

     bravais-lattice index     =            0
     lattice parameter (alat)  =       1.8897  a.u.
     unit-cell volume          =    4290.3594 (a.u.)^3
     number of atoms/cell      =           12
     number of atomic types    =            2
     number of electrons       =        72.00
     number of Kohn-Sham states=           66
     kinetic-energy cutoff     =      36.7493  Ry
     charge density cutoff     =     367.4932  Ry
     convergence threshold     =      1.0E-06
     mixing beta               =       0.1000
     number of iterations used =           10  plain     mixing
     Exchange-correlation      = BEEF-VDW ( 1  4 27 13 2)
     nstep                     =           50

     celldm(1)=   1.889726  celldm(2)=   0.000000  celldm(3)=   0.000000
     celldm(4)=   0.000000  celldm(5)=   0.000000  celldm(6)=   0.000000

     crystal axes: (cart. coord. in units of alat)
               a(1) = (   5.477071   0.000000   0.000000 )
               a(2) = (  -2.738536   4.743283   0.000000 )
               a(3) = (   0.000000   0.000000  24.472010 )

     reciprocal axes: (cart. coord. in units 2 pi/alat)
               b(1) = (  0.182579  0.105412  0.000000 )
               b(2) = (  0.000000  0.210824  0.000000 )
               b(3) = (  0.000000  0.000000  0.040863 )

     PseudoPot. # 1 for Al read from file:
     /afs/slac.stanford.edu/u/if/mamunm/psp/gbrv1.5pbe/Al.UPF
     MD5 check sum: 0a6289f5291fc8f409219462bc851e1f
     Pseudo is Ultrasoft + core correction, Zval =  3.0
     Generated by new atomic code, or converted to UPF format
     Using radial grid of  893 points,  3 beta functions with:
                l(1) =   0
                l(2) =   1
                l(3) =   2
     Q(r) pseudized with  8 coefficients,  rinner =    0.900   0.900   0.900
                                                       0.900   0.900

     PseudoPot. # 2 for Rh read from file:
     /afs/slac.stanford.edu/u/if/mamunm/psp/gbrv1.5pbe/Rh.UPF
     MD5 check sum: 761627e959a2e3a1f56b0b5fe687810e
     Pseudo is Ultrasoft + core correction, Zval = 15.0
     Generated by new atomic code, or converted to UPF format
     Using radial grid of  969 points,  7 beta functions with:
                l(1) =   0
                l(2) =   0
                l(3) =   1
                l(4) =   1
                l(5) =   2
                l(6) =   2
                l(7) =   2
     Q(r) pseudized with  8 coefficients,  rinner =    1.200   1.200   1.200
                                                       1.200   1.200

     vdW kernel table read from file vdW_kernel_table
     MD5 check sum: 095c7af220d748ca6e76c0b4c6cfb241

     atomic species   valence    mass     pseudopotential
        Al1            3.00    26.98154     Al( 1.00)
        Rh1           15.00   102.90550     Rh( 1.00)

     No symmetry found

   Cartesian axes

     site n.     atom                  positions (alat units)
         1           Al1 tau(   1) = (   0.0000000   0.0000000  10.0000000  )
         2           Al1 tau(   2) = (  -1.3692678   2.3716415  10.0000000  )
         3           Al1 tau(   3) = (   1.3692678   2.3716415  10.0000000  )
         4           Rh1 tau(   4) = (   2.7385357   0.0000000  10.0000000  )
         5           Al1 tau(   5) = (   2.7385357   1.5810943  12.2360050  )
         6           Al1 tau(   6) = (   1.3692678   3.9527358  12.2360050  )
         7           Al1 tau(   7) = (  -1.3692678   3.9527358  12.2360050  )
         8           Rh1 tau(   8) = (   0.0000000   1.5810943  12.2360050  )
         9           Al1 tau(   9) = (  -0.0000000   3.1621886  14.4720101  )
        10           Al1 tau(  10) = (   1.3692678   0.7905472  14.4720101  )
        11           Al1 tau(  11) = (   4.1078035   0.7905472  14.4720101  )
        12           Rh1 tau(  12) = (   2.7385357   3.1621886  14.4720101  )

     number of k points=    20  Fermi-Dirac smearing, width (Ry)=  0.0110
                       cart. coord. in units 2pi/alat
        k(    1) = (   0.0000000   0.0000000   0.0000000), wk =   0.0555556
        k(    2) = (   0.0000000   0.0351374   0.0000000), wk =   0.1111111
        k(    3) = (   0.0000000   0.0702748   0.0000000), wk =   0.1111111
        k(    4) = (   0.0000000  -0.1054122   0.0000000), wk =   0.0555556
        k(    5) = (   0.0304299   0.0175687   0.0000000), wk =   0.1111111
        k(    6) = (   0.0304299   0.0527061   0.0000000), wk =   0.1111111
        k(    7) = (   0.0304299   0.0878435   0.0000000), wk =   0.1111111
        k(    8) = (   0.0304299  -0.0878435   0.0000000), wk =   0.1111111
        k(    9) = (   0.0304299  -0.0527061   0.0000000), wk =   0.1111111
        k(   10) = (   0.0304299  -0.0175687   0.0000000), wk =   0.1111111
        k(   11) = (   0.0608598   0.0351374   0.0000000), wk =   0.1111111
        k(   12) = (   0.0608598   0.0702748   0.0000000), wk =   0.1111111
        k(   13) = (   0.0608598   0.1054122   0.0000000), wk =   0.1111111
        k(   14) = (   0.0608598  -0.0702748   0.0000000), wk =   0.1111111
        k(   15) = (   0.0608598  -0.0351374   0.0000000), wk =   0.1111111
        k(   16) = (   0.0608598   0.0000000   0.0000000), wk =   0.1111111
        k(   17) = (  -0.0912897  -0.0527061   0.0000000), wk =   0.0555556
        k(   18) = (  -0.0912897  -0.0175687   0.0000000), wk =   0.1111111
        k(   19) = (  -0.0912897   0.0175687   0.0000000), wk =   0.1111111
        k(   20) = (  -0.0912897  -0.1581183   0.0000000), wk =   0.0555556

     Largest allocated arrays     est. size (Mb)     dimensions
     Largest temporary arrays     est. size (Mb)     dimensions

     Initial potential from superposition of free atoms
     Check: negative starting charge=   -0.163032

     starting charge   70.47752, renormalised to   72.00000

     negative rho (up, down):  1.666E-01 0.000E+00

     *
     * You are using vdW-DF for exchange-correlation in this calculation.
     * Please cite the following three references that made this development
     * possible:
     *
     *   M. Dion, H. Rydberg, E. Schroder, D. C. Langreth, and
     *   B. I. Lundqvist, Phys. Rev. Lett. 92, 246401 (2004).
     *
     *   T. Thonhauser, V. R. Cooper, S. Li, A. Puzder, P. Hyldgaard, and
     *   D. C. Langreth, Phys. Rev. B 76, 125112 (2007).
     *
     *   G. Roman-Perez and J. M. Soler, Phys. Rev. Lett. 103, 096102 (2009).
     *
     *
     * If you are using vdW-DF2, please also cite:
     *
     *   K. Lee, E. D. Murray, L. Kong, B. I. Lundqvist, and
     *   D. C. Langreth, Phys. Rev. B 82, 081101(R) (2010).
     *
     *
     * If you are calculating the stress with vdW-DF, please also cite:
     *
     *   R. Sabatini, E. Kucukbenli, B. Kolb, T. Thonhauser, and
     *   S. de Gironcoli, J. Phys.: Condens. Matter 24, 424209 (2012).
     *

     Carrying out vdW-DF run using the following parameters:

     Nqs =      20    Nr_points =    1024   r_max =   100.000
     q_mesh =
               0.00001000     0.04494208     0.09755937     0.15916263
               0.23128650     0.31572767     0.41458969     0.53033537
               0.66584808     0.82450364     1.01025438     1.22772762
               1.48234092     1.78043706     2.12944203     2.53805004
               3.01644009     3.57652955     4.23227104     5.00000000

     Gradients computed in reciprocal space

     Adding external electric field

     Computed dipole along edir(3) :
        Dipole               -0.0000 Ry au,         -0.0000 Debye
        Dipole field         -0.0000 Ry au

        Potential amp.        0.0000 Ry
        Total length         45.0893 bohr

     Starting wfc are   72 randomized atomic wfcs

     Self-consistent Calculation

     iteration #  1     ecut=    36.75 Ry     beta=0.10
     Davidson diagonalization with overlap
     ethr =  1.00E-02,  avg # of iterations =  6.6

[...]

     total energy              =    -578.84825346 Ry
     Harris-Foulkes estimate   =    -579.17858250 Ry
     estimated scf accuracy    <       2.02091889 Ry

[...]

     End of self-consistent calculation

          k = 0.0000 0.0000 0.0000 ( 16037 PWs)   bands (ev):

   -46.7471 -46.7471 -46.6668 -46.4166 -46.4166 -46.4165 -46.4165 -46.2025
   -46.2023 -10.6646  -8.8459  -6.6276  -5.6126  -5.6126  -4.7836  -4.7836
    -4.7209  -4.4479  -4.4479  -4.1289  -3.3409  -3.3409  -3.2686  -2.7934
    -2.7934  -2.4801  -2.0561  -1.9808  -1.9808  -1.9803  -1.6635  -1.6635
    -1.4269  -1.4269  -1.2329  -1.1484  -1.1484   0.2475   1.0385   1.0385
     1.6179   1.6179   1.7168   1.9048   2.2007   2.2007   2.2648   3.5065
     3.8024   4.4431   4.5600   4.5600   4.5806   4.8338   4.8338   5.1024
     5.2562   6.4975   6.6891   6.7083   7.0613   7.0613   7.9010   7.9444
     7.9779   7.9779

[...]

          k =-0.0913-0.0527 0.0000 ( 16164 PWs)   bands (ev):

[...]

     the Fermi energy is    -0.2602 ev

!    total energy              =    -578.86936506 Ry
     Harris-Foulkes estimate   =    -578.86936314 Ry
     estimated scf accuracy    <       0.00000033 Ry

     The total energy is the sum of the following terms:

     one-electron contribution =   -3156.54441653 Ry
     hartree contribution      =    1591.26437565 Ry
     xc contribution           =    -133.38774256 Ry
     ewald contribution        =    1119.82264450 Ry
     electric field correction =       0.00000000 Ry
     smearing contrib. (-TS)   =      -0.02422612 Ry

     convergence has been achieved in  13 iterations

 BEEF-vdW xc energy contributions
           1 :   -114.224392199904
           2 :    103.022743405592
           3 :   -84.5299562056338
           4 :    64.3941501830005
           5 :   -47.3051213851688
           6 :    35.3825845669099
           7 :   -28.2454211907684
           8 :    24.2338058100377
           9 :   -21.7104489435171
          10 :    19.6688330974659
          11 :   -17.6390709203197
          12 :    15.3887553449247
          13 :   -12.8388066670979
          14 :    10.1772199374306
          15 :   -7.87182214738272
          16 :    6.40197951768394
          17 :   -5.87753927533441
          18 :    5.89167278470249
          19 :   -5.77672165815750
          20 :    5.07193524031545
          21 :   -3.82469897644944
          22 :    2.49498484997646
          23 :   -1.57165549984572
          24 :    1.22656098803400
          25 :   -1.25918863535409
          26 :    1.31737784384904
          27 :   -1.17079834033824
          28 :   0.819564783832902
          29 :  -0.402910742801623
[...]

     crystal axes: (cart. coord. in units of alat)
               a(1) = (   5.477071   0.000000   0.000000 )
               a(2) = (  -2.738536   4.743283   0.000000 )
               a(3) = (   0.000000   0.000000  24.472010 )

     reciprocal axes: (cart. coord. in units 2 pi/alat)
               b(1) = (  0.182579  0.105412  0.000000 )
               b(2) = (  0.000000  0.210824  0.000000 )
               b(3) = (  0.000000  0.000000  0.040863 )

     PseudoPot. # 1 for Al read from file:
     /afs/slac.stanford.edu/u/if/mamunm/psp/gbrv1.5pbe/Al.UPF
     MD5 check sum: 0a6289f5291fc8f409219462bc851e1f
     Pseudo is Ultrasoft + core correction, Zval =  3.0
     Generated by new atomic code, or converted to UPF format
     Using radial grid of  893 points,  3 beta functions with:
                l(1) =   0
                l(2) =   1
                l(3) =   2
     Q(r) pseudized with  8 coefficients,  rinner =    0.900   0.900   0.900
                                                       0.900   0.900

     PseudoPot. # 2 for Rh read from file:
     /afs/slac.stanford.edu/u/if/mamunm/psp/gbrv1.5pbe/Rh.UPF
     MD5 check sum: 761627e959a2e3a1f56b0b5fe687810e
     Pseudo is Ultrasoft + core correction, Zval = 15.0
     Generated by new atomic code, or converted to UPF format
     Using radial grid of  969 points,  7 beta functions with:
                l(1) =   0
                l(2) =   0
                l(3) =   1
                l(4) =   1
                l(5) =   2
                l(6) =   2
                l(7) =   2
     Q(r) pseudized with  8 coefficients,  rinner =    1.200   1.200   1.200
                                                       1.200   1.200

     vdW kernel table read from file vdW_kernel_table
     MD5 check sum: 095c7af220d748ca6e76c0b4c6cfb241

     atomic species   valence    mass     pseudopotential
        Al1            3.00    26.98154     Al( 1.00)
        Rh1           15.00   102.90550     Rh( 1.00)

     No symmetry found

   Cartesian axes

     site n.     atom                  positions (alat units)
         1           Al1 tau(   1) = (   0.0000000   0.0000000  10.0000000  )
         2           Al1 tau(   2) = (  -1.3692678   2.3716415  10.0000000  )
         3           Al1 tau(   3) = (   1.3692678   2.3716415  10.0000000  )
         4           Rh1 tau(   4) = (   2.7385357   0.0000000  10.0000000  )
         5           Al1 tau(   5) = (   2.7385357   1.5810943  12.2360050  )
         6           Al1 tau(   6) = (   1.3692678   3.9527358  12.2360050  )
         7           Al1 tau(   7) = (  -1.3692678   3.9527358  12.2360050  )
         8           Rh1 tau(   8) = (   0.0000000   1.5810943  12.2360050  )
         9           Al1 tau(   9) = (  -0.0000003   3.1489433  14.5913344  )
        10           Al1 tau(  10) = (   1.3577957   0.7971700  14.5913350  )
        11           Al1 tau(  11) = (   4.1192745   0.7971698  14.5913346  )
        12           Rh1 tau(  12) = (   2.7385333   3.1621880  14.3647386  )

     number of k points=    20  Fermi-Dirac smearing, width (Ry)=  0.0110
                       cart. coord. in units 2pi/alat
        k(    1) = (   0.0000000   0.0000000   0.0000000), wk =   0.0555556
        k(    2) = (   0.0000000   0.0351374   0.0000000), wk =   0.1111111
        k(    3) = (   0.0000000   0.0702748   0.0000000), wk =   0.1111111
        k(    4) = (   0.0000000  -0.1054122   0.0000000), wk =   0.0555556
        k(    5) = (   0.0304299   0.0175687   0.0000000), wk =   0.1111111
        k(    6) = (   0.0304299   0.0527061   0.0000000), wk =   0.1111111
        k(    7) = (   0.0304299   0.0878435   0.0000000), wk =   0.1111111
        k(    8) = (   0.0304299  -0.0878435   0.0000000), wk =   0.1111111
        k(    9) = (   0.0304299  -0.0527061   0.0000000), wk =   0.1111111
        k(   10) = (   0.0304299  -0.0175687   0.0000000), wk =   0.1111111
        k(   11) = (   0.0608598   0.0351374   0.0000000), wk =   0.1111111
        k(   12) = (   0.0608598   0.0702748   0.0000000), wk =   0.1111111
        k(   13) = (   0.0608598   0.1054122   0.0000000), wk =   0.1111111
        k(   14) = (   0.0608598  -0.0702748   0.0000000), wk =   0.1111111
        k(   15) = (   0.0608598  -0.0351374   0.0000000), wk =   0.1111111
        k(   16) = (   0.0608598   0.0000000   0.0000000), wk =   0.1111111
        k(   17) = (  -0.0912897  -0.0527061   0.0000000), wk =   0.0555556
        k(   18) = (  -0.0912897  -0.0175687   0.0000000), wk =   0.1111111
        k(   19) = (  -0.0912897   0.0175687   0.0000000), wk =   0.1111111
        k(   20) = (  -0.0912897  -0.1581183   0.0000000), wk =   0.0555556

     Largest allocated arrays     est. size (Mb)     dimensions
     Largest temporary arrays     est. size (Mb)     dimensions

     Initial potential from superposition of free atoms
     Check: negative starting charge=   -0.163492

     starting charge   70.47752, renormalised to   72.00000

[...]

     *
     * You are using vdW-DF for exchange-correlation in this calculation.
     * Please cite the following three references that made this development
     * possible:
     *
     *   M. Dion, H. Rydberg, E. Schroder, D. C. Langreth, and
     *   B. I. Lundqvist, Phys. Rev. Lett. 92, 246401 (2004).
     *
     *   T. Thonhauser, V. R. Cooper, S. Li, A. Puzder, P. Hyldgaard, and
     *   D. C. Langreth, Phys. Rev. B 76, 125112 (2007).
     *
     *   G. Roman-Perez and J. M. Soler, Phys. Rev. Lett. 103, 096102 (2009).
     *
     *
     * If you are using vdW-DF2, please also cite:
     *
     *   K. Lee, E. D. Murray, L. Kong, B. I. Lundqvist, and
     *   D. C. Langreth, Phys. Rev. B 82, 081101(R) (2010).
     *
     *
     * If you are calculating the stress with vdW-DF, please also cite:
     *
     *   R. Sabatini, E. Kucukbenli, B. Kolb, T. Thonhauser, and
     *   S. de Gironcoli, J. Phys.: Condens. Matter 24, 424209 (2012).
     *

     Carrying out vdW-DF run using the following parameters:

     Nqs =      20    Nr_points =    1024   r_max =   100.000
     q_mesh =
               0.00001000     0.04494208     0.09755937     0.15916263
               0.23128650     0.31572767     0.41458969     0.53033537
               0.66584808     0.82450364     1.01025438     1.22772762
               1.48234092     1.78043706     2.12944203     2.53805004
               3.01644009     3.57652955     4.23227104     5.00000000

     Gradients computed in reciprocal space

[...]

     Starting wfc are   72 randomized atomic wfcs

     Self-consistent Calculation

[...]

     total energy              =    -578.87883661 Ry
     Harris-Foulkes estimate   =    -578.87883621 Ry
     estimated scf accuracy    <       0.00000117 Ry

     iteration # 14     ecut=    36.75 Ry     beta=0.10
     Davidson diagonalization with overlap
     ethr =  1.62E-09,  avg # of iterations =  2.0

[...]

     negative rho (up, down):  1.702E-01 0.000E+00

     Adding external electric field

     Computed dipole along edir(3) :
        Dipole                0.0643 Ry au,          0.1634 Debye
        Dipole field          0.0002 Ry au

        Potential amp.       -0.0170 Ry
        Total length         45.0893 bohr

     End of self-consistent calculation

[...]

          k = 0.0609 0.0000 0.0000 ( 16168 PWs)   bands (ev):

[...]

          k =-0.0913-0.1581 0.0000 ( 16164 PWs)   bands (ev):

   -46.5950 -46.5947 -46.4983 -46.4437 -46.4435 -46.3472 -46.3470 -46.2543
   -46.1285  -9.0394  -8.7594  -7.3175  -7.0693  -6.1118  -5.7022  -5.0861
    -4.6380  -4.6347  -4.0658  -3.7031  -3.5882  -3.1778  -3.0631  -3.0489
    -2.9387  -2.5871  -2.5030  -2.1633  -2.0050  -1.5839  -1.4711  -1.3966
    -1.2532  -1.0618  -0.3830  -0.1737   0.0063   0.6378   1.6842   2.0589
     2.2084   2.2634   2.5272   2.5393   3.0818   3.1883   3.3561   3.6812
     4.4195   4.7432   4.7705   4.8182   4.8972   5.1504   5.2935   5.4893
     5.6364   5.8946   6.0618   6.2406   6.3677   6.4091   6.5552   6.6483
     6.7501   7.1494

     the Fermi energy is    -0.1842 ev

!    total energy              =    -578.87883854 Ry
     Harris-Foulkes estimate   =    -578.87883654 Ry
     estimated scf accuracy    <       0.00000015 Ry

     The total energy is the sum of the following terms:

     one-electron contribution =   -3164.20670001 Ry
     hartree contribution      =    1595.23707845 Ry
     xc contribution           =    -133.32997817 Ry
     ewald contribution        =    1123.44514685 Ry
     electric field correction =       0.00001210 Ry
     smearing contrib. (-TS)   =      -0.02439775 Ry

     convergence has been achieved in  14 iterations

 BEEF-vdW xc energy contributions
           1 :   -114.170411109062
           2 :    102.955691969708
           3 :   -84.4440113650576
           4 :    64.2908880501697
           5 :   -47.1865570554837
           6 :    35.2454252829460
           7 :   -28.0844257125128
           8 :    24.0506637960248
           9 :   -21.5163317403655
          10 :    19.4744934204976
          11 :   -17.4416189470853
          12 :    15.1706419485323
          13 :   -12.5829634137744
          14 :    9.88480804078019
          15 :   -7.56407304069772
          16 :    6.10259021618317
          17 :   -5.59183868441279
          18 :    5.60274068154604
          19 :   -5.46252872189829
          20 :    4.72675165858156
          21 :   -3.46434380873201
          22 :    2.14242551498187
          23 :   -1.23851864189204
          24 :   0.907455842718178
          25 :  -0.941435294582718
          26 :   0.994297566369923
          27 :  -0.845360977594922
          28 :   0.497627210704351
          29 :  -8.664584235583561E-002
          30 :  -0.266518331370079
          31 :   -12.9258425398597
          32 :   -9.61353224575677

     Forces acting on atoms (Ry/au):

     negative rho (up, down):  1.702E-01 0.000E+00
     atom    1 type  1   force =     0.00000004    0.00842337   -0.01934889
     atom    2 type  1   force =     0.00729500   -0.00421160   -0.01934885
     atom    3 type  1   force =    -0.00729493   -0.00421164   -0.01934894
     atom    4 type  2   force =     0.00000017   -0.00000037    0.03286605
     atom    5 type  1   force =     0.00000001   -0.00694344    0.00564001
     atom    6 type  1   force =    -0.00601319    0.00347166    0.00564006
     atom    7 type  1   force =     0.00601317    0.00347165    0.00563998
     atom    8 type  2   force =    -0.00000013    0.00000019    0.00805129
     atom    9 type  1   force =    -0.00000001    0.00006865   -0.00008892
     atom   10 type  1   force =     0.00005957   -0.00003438   -0.00008889
     atom   11 type  1   force =    -0.00005952   -0.00003434   -0.00008882
     atom   12 type  2   force =    -0.00000018    0.00000024    0.00047594

     Total force =     0.052166     Total SCF correction =     0.001237

     entering subroutine stress ...

     negative rho (up, down):  1.702E-01 0.000E+00
          total   stress  (Ry/bohr**3)                   (kbar)     P=  -25.37
  -0.00025074  -0.00000000   0.00000000        -36.89     -0.00      0.00
  -0.00000000  -0.00025074   0.00000000         -0.00    -36.89      0.00
   0.00000000   0.00000000  -0.00001598          0.00      0.00     -2.35

 !ASE

     Writing output data file calc.save

     General routines

     Parallel routines

   This run was terminated on:  18:56:52  19Dec2018

   JOB DONE.
Job  /afs/slac/g/suncat/bin/suncat-tsmpirun -x LD_LIBRARY_PATH -wdir /scratch/qe773296_PB1J2 pw.x -in pw.inp

TID   HOST_NAME   COMMAND_LINE            STATUS            TERMINATION_TIME
00000 suncat0226 pw.x -in pw.inp   Done                     12/19/2018 18:56:52
00001 suncat0226 pw.x -in pw.inp   Done                     12/19/2018 18:56:52
00002 suncat0226 pw.x -in pw.inp   Done                     12/19/2018 18:56:52
00003 suncat0226 pw.x -in pw.inp   Done                     12/19/2018 18:56:52
00004 suncat0226 pw.x -in pw.inp   Done                     12/19/2018 18:56:52
00005 suncat0226 pw.x -in pw.inp   Done                     12/19/2018 18:56:52
00006 suncat0226 pw.x -in pw.inp   Done                     12/19/2018 18:56:52
00007 suncat0226 pw.x -in pw.inp   Done                     12/19/2018 18:56:52
00008 suncat0225 pw.x -in pw.inp   Done                     12/19/2018 18:56:52
00009 suncat0225 pw.x -in pw.inp   Done                     12/19/2018 18:56:52
00010 suncat0225 pw.x -in pw.inp   Done                     12/19/2018 18:56:52
00011 suncat0225 pw.x -in pw.inp   Done                     12/19/2018 18:56:52
00012 suncat0225 pw.x -in pw.inp   Done                     12/19/2018 18:56:52
00013 suncat0225 pw.x -in pw.inp   Done                     12/19/2018 18:56:52
00014 suncat0225 pw.x -in pw.inp   Done                     12/19/2018 18:56:52
00015 suncat0225 pw.x -in pw.inp   Done                     12/19/2018 18:56:52
00016 suncat0224 pw.x -in pw.inp   Done                     12/19/2018 18:56:52
00017 suncat0224 pw.x -in pw.inp   Done                     12/19/2018 18:56:52
00018 suncat0224 pw.x -in pw.inp   Done                     12/19/2018 18:56:52
00019 suncat0224 pw.x -in pw.inp   Done                     12/19/2018 18:56:52
00020 suncat0224 pw.x -in pw.inp   Done                     12/19/2018 18:56:52
00021 suncat0224 pw.x -in pw.inp   Done                     12/19/2018 18:56:52
00022 suncat0224 pw.x -in pw.inp   Done                     12/19/2018 18:56:52
00023 suncat0224 pw.x -in pw.inp   Done                     12/19/2018 18:56:52
00024 suncat0223 pw.x -in pw.inp   Done                     12/19/2018 18:56:52
00025 suncat0223 pw.x -in pw.inp   Done                     12/19/2018 18:56:52
00026 suncat0223 pw.x -in pw.inp   Done                     12/19/2018 18:56:52
00027 suncat0223 pw.x -in pw.inp   Done                     12/19/2018 18:56:52
00028 suncat0223 pw.x -in pw.inp   Done                     12/19/2018 18:56:52
00029 suncat0223 pw.x -in pw.inp   Done                     12/19/2018 18:56:52
00030 suncat0223 pw.x -in pw.inp   Done                     12/19/2018 18:56:52
00031 suncat0223 pw.x -in pw.inp   Done                     12/19/2018 18:56:52
00032 suncat0222 pw.x -in pw.inp   Done                     12/19/2018 18:56:52
00033 suncat0222 pw.x -in pw.inp   Done                     12/19/2018 18:56:52
00034 suncat0222 pw.x -in pw.inp   Done                     12/19/2018 18:56:52
00035 suncat0222 pw.x -in pw.inp   Done                     12/19/2018 18:56:52
00036 suncat0222 pw.x -in pw.inp   Done                     12/19/2018 18:56:52
00037 suncat0222 pw.x -in pw.inp   Done                     12/19/2018 18:56:52
00038 suncat0222 pw.x -in pw.inp   Done                     12/19/2018 18:56:52
00039 suncat0222 pw.x -in pw.inp   Done                     12/19/2018 18:56:52
00040 suncat0221 pw.x -in pw.inp   Done                     12/19/2018 18:56:52
00041 suncat0221 pw.x -in pw.inp   Done                     12/19/2018 18:56:52
00042 suncat0221 pw.x -in pw.inp   Done                     12/19/2018 18:56:52
00043 suncat0221 pw.x -in pw.inp   Done                     12/19/2018 18:56:52
00044 suncat0221 pw.x -in pw.inp   Done                     12/19/2018 18:56:52
00045 suncat0221 pw.x -in pw.inp   Done                     12/19/2018 18:56:52
00046 suncat0221 pw.x -in pw.inp   Done                     12/19/2018 18:56:52
00047 suncat0221 pw.x -in pw.inp   Done                     12/19/2018 18:56:52
00048 suncat0220 pw.x -in pw.inp   Done                     12/19/2018 18:56:52
00049 suncat0220 pw.x -in pw.inp   Done                     12/19/2018 18:56:52
00050 suncat0220 pw.x -in pw.inp   Done                     12/19/2018 18:56:52
00051 suncat0220 pw.x -in pw.inp   Done                     12/19/2018 18:56:52
00052 suncat0220 pw.x -in pw.inp   Done                     12/19/2018 18:56:52
00053 suncat0220 pw.x -in pw.inp   Done                     12/19/2018 18:56:52
00054 suncat0220 pw.x -in pw.inp   Done                     12/19/2018 18:56:52
00055 suncat0220 pw.x -in pw.inp   Done                     12/19/2018 18:56:52
00056 suncat0219 pw.x -in pw.inp   Done                     12/19/2018 18:56:52
00057 suncat0219 pw.x -in pw.inp   Done                     12/19/2018 18:56:52
00058 suncat0219 pw.x -in pw.inp   Done                     12/19/2018 18:56:52
00059 suncat0219 pw.x -in pw.inp   Done                     12/19/2018 18:56:52
00060 suncat0219 pw.x -in pw.inp   Done                     12/19/2018 18:56:52
00061 suncat0219 pw.x -in pw.inp   Done                     12/19/2018 18:56:52
00062 suncat0219 pw.x -in pw.inp   Done                     12/19/2018 18:56:52
00063 suncat0219 pw.x -in pw.inp   Done                     12/19/2018 18:56:52