     Program PWSCF v.5.1rc2 (svn rev. 11289) starts on  1Jan2019 at  1:32:50

     Current dimensions of program PWSCF are:
     Max number of different atomic species (ntypx) = 10
     Max number of k-points (npk) =  40000
     Max angular momentum in pseudopotentials (lmaxx) =  3
     Presently stress not available with electric field

     IMPORTANT: XC functional enforced from input :
     Exchange-correlation      = BEEF-VDW ( 1  4 27 13 2)
     Any further DFT definition will be discarded
     Please, verify this is what you really want

     Subspace diagonalization in iterative solution of the eigenvalue problem:
     a serial algorithm will be used

     bravais-lattice index     =            0
     lattice parameter (alat)  =       1.8897  a.u.
     unit-cell volume          =    4200.7416 (a.u.)^3
     number of atoms/cell      =           12
     number of atomic types    =            2
     number of electrons       =       189.00
     number of Kohn-Sham states=          124
     kinetic-energy cutoff     =      36.7493  Ry
     charge density cutoff     =     367.4932  Ry
     convergence threshold     =      1.0E-06
     mixing beta               =       0.1000
     number of iterations used =           10  plain     mixing
     Exchange-correlation      = BEEF-VDW ( 1  4 27 13 2)
     nstep                     =           50

     celldm(1)=   1.889726  celldm(2)=   0.000000  celldm(3)=   0.000000
     celldm(4)=   0.000000  celldm(5)=   0.000000  celldm(6)=   0.000000

     crystal axes: (cart. coord. in units of alat)
               a(1) = (   5.424340   0.000000   0.000000 )
               a(2) = (  -2.712170   4.697616   0.000000 )
               a(3) = (   0.000000   0.000000  24.428955 )

     reciprocal axes: (cart. coord. in units 2 pi/alat)
               b(1) = (  0.184354  0.106437  0.000000 )
               b(2) = (  0.000000  0.212874  0.000000 )
               b(3) = (  0.000000  0.000000  0.040935 )

     PseudoPot. # 1 for Ru read from file:
     /afs/slac.stanford.edu/u/if/mamunm/psp/gbrv1.5pbe/Ru.UPF
     MD5 check sum: 7158a806dd851261a58e6920c40ebe78
     Pseudo is Ultrasoft + core correction, Zval = 16.0
     Generated by new atomic code, or converted to UPF format
     Using radial grid of  967 points,  6 beta functions with:
                l(1) =   0
                l(2) =   0
                l(3) =   1
                l(4) =   1
                l(5) =   2
                l(6) =   2
     Q(r) pseudized with  8 coefficients,  rinner =    1.300   1.300   1.300
                                                       1.300   1.300

     PseudoPot. # 2 for Ir read from file:
     /afs/slac.stanford.edu/u/if/mamunm/psp/gbrv1.5pbe/Ir.UPF
     MD5 check sum: 8836f839c3459d2b385c504ce6d91f2c
     Pseudo is Ultrasoft + core correction, Zval = 15.0
     Generated by new atomic code, or converted to UPF format
     Using radial grid of  983 points,  7 beta functions with:
                l(1) =   0
                l(2) =   0
                l(3) =   1
                l(4) =   1
                l(5) =   1
                l(6) =   2
                l(7) =   2
     Q(r) pseudized with  8 coefficients,  rinner =    1.400   1.400   1.400
                                                       1.400   1.400

     vdW kernel table read from file vdW_kernel_table
     MD5 check sum: 095c7af220d748ca6e76c0b4c6cfb241

     atomic species   valence    mass     pseudopotential
        Ru1           16.00   101.07000     Ru( 1.00)
        Ir1           15.00   192.21700     Ir( 1.00)

     No symmetry found

   Cartesian axes

     site n.     atom                  positions (alat units)
         1           Ru1 tau(   1) = (   0.0000000   0.0000000  10.0000000  )
         2           Ru1 tau(   2) = (  -1.3560851   2.3488082  10.0000000  )
         3           Ru1 tau(   3) = (   1.3560851   2.3488082  10.0000000  )
         4           Ir1 tau(   4) = (   2.7121701   0.0000000  10.0000000  )
         5           Ru1 tau(   5) = (   2.7121701   1.5658721  12.2144776  )
         6           Ru1 tau(   6) = (   1.3560851   3.9146803  12.2144776  )
         7           Ru1 tau(   7) = (  -1.3560851   3.9146803  12.2144776  )
         8           Ir1 tau(   8) = (   0.0000000   1.5658721  12.2144776  )
         9           Ru1 tau(   9) = (  -0.0000000   3.1317443  14.4289552  )
        10           Ru1 tau(  10) = (   1.3560851   0.7829361  14.4289552  )
        11           Ru1 tau(  11) = (   4.0682552   0.7829361  14.4289552  )
        12           Ir1 tau(  12) = (   2.7121701   3.1317443  14.4289552  )

     number of k points=    20  Fermi-Dirac smearing, width (Ry)=  0.0110
                       cart. coord. in units 2pi/alat
        k(    1) = (   0.0000000   0.0000000   0.0000000), wk =   0.0555556
        k(    2) = (   0.0000000   0.0354790   0.0000000), wk =   0.1111111
        k(    3) = (   0.0000000   0.0709580   0.0000000), wk =   0.1111111
        k(    4) = (   0.0000000  -0.1064370   0.0000000), wk =   0.0555556
        k(    5) = (   0.0307257   0.0177395   0.0000000), wk =   0.1111111
        k(    6) = (   0.0307257   0.0532185   0.0000000), wk =   0.1111111
        k(    7) = (   0.0307257   0.0886975   0.0000000), wk =   0.1111111
        k(    8) = (   0.0307257  -0.0886975   0.0000000), wk =   0.1111111
        k(    9) = (   0.0307257  -0.0532185   0.0000000), wk =   0.1111111
        k(   10) = (   0.0307257  -0.0177395   0.0000000), wk =   0.1111111
        k(   11) = (   0.0614514   0.0354790   0.0000000), wk =   0.1111111
        k(   12) = (   0.0614514   0.0709580   0.0000000), wk =   0.1111111
        k(   13) = (   0.0614514   0.1064370   0.0000000), wk =   0.1111111
        k(   14) = (   0.0614514  -0.0709580   0.0000000), wk =   0.1111111
        k(   15) = (   0.0614514  -0.0354790   0.0000000), wk =   0.1111111
        k(   16) = (   0.0614514   0.0000000   0.0000000), wk =   0.1111111
        k(   17) = (  -0.0921771  -0.0532185   0.0000000), wk =   0.0555556
        k(   18) = (  -0.0921771  -0.0177395   0.0000000), wk =   0.1111111
        k(   19) = (  -0.0921771   0.0177395   0.0000000), wk =   0.1111111
        k(   20) = (  -0.0921771  -0.1596554   0.0000000), wk =   0.0555556

     Largest allocated arrays     est. size (Mb)     dimensions
     Largest temporary arrays     est. size (Mb)     dimensions

     Initial potential from superposition of free atoms
     Check: negative starting charge=   -1.747174

     starting charge  178.49976, renormalised to  189.00000

     negative rho (up, down):  1.850E+00 0.000E+00

     *
     * You are using vdW-DF for exchange-correlation in this calculation.
     * Please cite the following three references that made this development
     * possible:
     *
     *   M. Dion, H. Rydberg, E. Schroder, D. C. Langreth, and
     *   B. I. Lundqvist, Phys. Rev. Lett. 92, 246401 (2004).
     *
     *   T. Thonhauser, V. R. Cooper, S. Li, A. Puzder, P. Hyldgaard, and
     *   D. C. Langreth, Phys. Rev. B 76, 125112 (2007).
     *
     *   G. Roman-Perez and J. M. Soler, Phys. Rev. Lett. 103, 096102 (2009).
     *
     *
     * If you are using vdW-DF2, please also cite:
     *
     *   K. Lee, E. D. Murray, L. Kong, B. I. Lundqvist, and
     *   D. C. Langreth, Phys. Rev. B 82, 081101(R) (2010).
     *
     *
     * If you are calculating the stress with vdW-DF, please also cite:
     *
     *   R. Sabatini, E. Kucukbenli, B. Kolb, T. Thonhauser, and
     *   S. de Gironcoli, J. Phys.: Condens. Matter 24, 424209 (2012).
     *

     Carrying out vdW-DF run using the following parameters:

     Nqs =      20    Nr_points =    1024   r_max =   100.000
     q_mesh =
               0.00001000     0.04494208     0.09755937     0.15916263
               0.23128650     0.31572767     0.41458969     0.53033537
               0.66584808     0.82450364     1.01025438     1.22772762
               1.48234092     1.78043706     2.12944203     2.53805004
               3.01644009     3.57652955     4.23227104     5.00000000

     Gradients computed in reciprocal space

     Adding external electric field

     Computed dipole along edir(3) :
        Dipole               -0.0000 Ry au,         -0.0000 Debye
        Dipole field         -0.0000 Ry au

        Potential amp.        0.0000 Ry
        Total length         45.0099 bohr

     Starting wfc are  153 randomized atomic wfcs

     Self-consistent Calculation

     iteration #  1     ecut=    36.75 Ry     beta=0.10
     Davidson diagonalization with overlap
     ethr =  1.00E-02,  avg # of iterations =  8.4

[...]

     total energy              =   -2306.44422682 Ry
     Harris-Foulkes estimate   =   -2311.36053472 Ry
     estimated scf accuracy    <      29.78890118 Ry

[...]

     End of self-consistent calculation

          k = 0.0000 0.0000 0.0000 ( 15785 PWs)   bands (ev):

   -70.9607 -70.8838 -70.8838 -70.4847 -70.4819 -70.4100 -70.4099 -70.4093
   -70.4092 -47.2982 -47.2982 -47.2937 -46.7956 -46.7956 -46.7939 -46.7939
   -46.7391 -46.7326 -41.2330 -41.0217 -41.0217 -41.0118 -40.9077 -40.9077
   -40.7601 -40.7298 -40.7018 -40.5989 -40.5989 -40.5439 -40.5439 -40.4807
   -40.4807 -40.4169 -40.3421 -40.3421 -40.3166 -40.2885 -40.2885 -40.2446
   -40.2322 -40.1262 -40.1262 -40.1233 -40.1232  -5.2618  -3.7789  -3.6895
    -3.6083  -3.6083  -3.3784  -3.2074  -3.2074  -3.1284  -2.9078  -2.8916
    -2.8916  -2.5663  -2.5663  -2.3528  -1.4043  -1.4043  -1.1075  -0.7913
    -0.7913  -0.6793  -0.4530  -0.2761  -0.2683  -0.2683   0.0876   0.0876
     0.1521   0.1522   0.3383   0.4139   0.4139   0.6470   0.9911   0.9911
     1.7828   1.7828   1.8360   1.9720   1.9720   1.9782   1.9917   1.9917
     2.0278   2.6439   2.6439   3.0697   3.2386   3.2386   3.2540   3.2761
     3.2761   3.3479   3.4694   3.4694   3.7892   3.7892   3.8567   4.2533
     4.2533   4.2989   4.3120   4.3121   4.3544   4.3868   4.3868   4.6344
     6.5231   6.5231   6.5886   6.6206   6.6206   6.6997   6.8410   7.0372
     7.5148   8.4216   9.2978   9.7238

[...]

          k =-0.0922-0.0532 0.0000 ( 15828 PWs)   bands (ev):

[...]

     the Fermi energy is     2.3848 ev

!    total energy              =   -2305.88488168 Ry
     Harris-Foulkes estimate   =   -2305.88489265 Ry
     estimated scf accuracy    <       0.00000067 Ry

     The total energy is the sum of the following terms:

     one-electron contribution =  -21022.78004173 Ry
     hartree contribution      =   10518.21005479 Ry
     xc contribution           =    -397.23823210 Ry
     ewald contribution        =    8596.00537634 Ry
     electric field correction =       0.00000000 Ry
     smearing contrib. (-TS)   =      -0.08203898 Ry

     convergence has been achieved in  19 iterations

 BEEF-vdW xc energy contributions
           1 :   -347.482042466364
           2 :    320.796155912742
           3 :   -273.986012188779
           4 :    217.713831009725
           5 :   -163.162947409000
           6 :    118.783541343152
           7 :   -88.3965977688659
           8 :    71.0876261791582
           9 :   -62.6535282427133
          10 :    57.8404586663878
          11 :   -52.4430522513825
[...]
     MD5 check sum: 7158a806dd851261a58e6920c40ebe78
     Pseudo is Ultrasoft + core correction, Zval = 16.0
     Generated by new atomic code, or converted to UPF format
     Using radial grid of  967 points,  6 beta functions with:
                l(1) =   0
                l(2) =   0
                l(3) =   1
                l(4) =   1
                l(5) =   2
                l(6) =   2
     Q(r) pseudized with  8 coefficients,  rinner =    1.300   1.300   1.300
                                                       1.300   1.300

     PseudoPot. # 2 for Ir read from file:
     /afs/slac.stanford.edu/u/if/mamunm/psp/gbrv1.5pbe/Ir.UPF
     MD5 check sum: 8836f839c3459d2b385c504ce6d91f2c
     Pseudo is Ultrasoft + core correction, Zval = 15.0
     Generated by new atomic code, or converted to UPF format
     Using radial grid of  983 points,  7 beta functions with:
                l(1) =   0
                l(2) =   0
                l(3) =   1
                l(4) =   1
                l(5) =   1
                l(6) =   2
                l(7) =   2
     Q(r) pseudized with  8 coefficients,  rinner =    1.400   1.400   1.400
                                                       1.400   1.400

     vdW kernel table read from file vdW_kernel_table
     MD5 check sum: 095c7af220d748ca6e76c0b4c6cfb241

     atomic species   valence    mass     pseudopotential
        Ru1           16.00   101.07000     Ru( 1.00)
        Ir1           15.00   192.21700     Ir( 1.00)

     No symmetry found

   Cartesian axes

     site n.     atom                  positions (alat units)
         1           Ru1 tau(   1) = (   0.0000000   0.0000000  10.0000000  )
         2           Ru1 tau(   2) = (  -1.3560851   2.3488082  10.0000000  )
         3           Ru1 tau(   3) = (   1.3560851   2.3488082  10.0000000  )
         4           Ir1 tau(   4) = (   2.7121701   0.0000000  10.0000000  )
         5           Ru1 tau(   5) = (   2.7121701   1.5658721  12.2144776  )
         6           Ru1 tau(   6) = (   1.3560851   3.9146803  12.2144776  )
         7           Ru1 tau(   7) = (  -1.3560851   3.9146803  12.2144776  )
         8           Ir1 tau(   8) = (   0.0000000   1.5658721  12.2144776  )
         9           Ru1 tau(   9) = (   0.0000046   3.1567982  14.3386139  )
        10           Ru1 tau(  10) = (   1.3777565   0.7704166  14.3386015  )
        11           Ru1 tau(  11) = (   4.0465637   0.7704002  14.3386199  )
        12           Ir1 tau(  12) = (   2.7121627   3.1317406  14.3306351  )

     number of k points=    20  Fermi-Dirac smearing, width (Ry)=  0.0110
                       cart. coord. in units 2pi/alat
        k(    1) = (   0.0000000   0.0000000   0.0000000), wk =   0.0555556
        k(    2) = (   0.0000000   0.0354790   0.0000000), wk =   0.1111111
        k(    3) = (   0.0000000   0.0709580   0.0000000), wk =   0.1111111
        k(    4) = (   0.0000000  -0.1064370   0.0000000), wk =   0.0555556
        k(    5) = (   0.0307257   0.0177395   0.0000000), wk =   0.1111111
        k(    6) = (   0.0307257   0.0532185   0.0000000), wk =   0.1111111
        k(    7) = (   0.0307257   0.0886975   0.0000000), wk =   0.1111111
        k(    8) = (   0.0307257  -0.0886975   0.0000000), wk =   0.1111111
        k(    9) = (   0.0307257  -0.0532185   0.0000000), wk =   0.1111111
        k(   10) = (   0.0307257  -0.0177395   0.0000000), wk =   0.1111111
        k(   11) = (   0.0614514   0.0354790   0.0000000), wk =   0.1111111
        k(   12) = (   0.0614514   0.0709580   0.0000000), wk =   0.1111111
        k(   13) = (   0.0614514   0.1064370   0.0000000), wk =   0.1111111
        k(   14) = (   0.0614514  -0.0709580   0.0000000), wk =   0.1111111
        k(   15) = (   0.0614514  -0.0354790   0.0000000), wk =   0.1111111
        k(   16) = (   0.0614514   0.0000000   0.0000000), wk =   0.1111111
        k(   17) = (  -0.0921771  -0.0532185   0.0000000), wk =   0.0555556
        k(   18) = (  -0.0921771  -0.0177395   0.0000000), wk =   0.1111111
        k(   19) = (  -0.0921771   0.0177395   0.0000000), wk =   0.1111111
        k(   20) = (  -0.0921771  -0.1596554   0.0000000), wk =   0.0555556

     Largest allocated arrays     est. size (Mb)     dimensions
     Largest temporary arrays     est. size (Mb)     dimensions

     Initial potential from superposition of free atoms
     Check: negative starting charge=   -1.745136

     starting charge  178.49976, renormalised to  189.00000

[...]

     *
     * You are using vdW-DF for exchange-correlation in this calculation.
     * Please cite the following three references that made this development
     * possible:
     *
     *   M. Dion, H. Rydberg, E. Schroder, D. C. Langreth, and
     *   B. I. Lundqvist, Phys. Rev. Lett. 92, 246401 (2004).
     *
     *   T. Thonhauser, V. R. Cooper, S. Li, A. Puzder, P. Hyldgaard, and
     *   D. C. Langreth, Phys. Rev. B 76, 125112 (2007).
     *
     *   G. Roman-Perez and J. M. Soler, Phys. Rev. Lett. 103, 096102 (2009).
     *
     *
     * If you are using vdW-DF2, please also cite:
     *
     *   K. Lee, E. D. Murray, L. Kong, B. I. Lundqvist, and
     *   D. C. Langreth, Phys. Rev. B 82, 081101(R) (2010).
     *
     *
     * If you are calculating the stress with vdW-DF, please also cite:
     *
     *   R. Sabatini, E. Kucukbenli, B. Kolb, T. Thonhauser, and
     *   S. de Gironcoli, J. Phys.: Condens. Matter 24, 424209 (2012).
     *

     Carrying out vdW-DF run using the following parameters:

     Nqs =      20    Nr_points =    1024   r_max =   100.000
     q_mesh =
               0.00001000     0.04494208     0.09755937     0.15916263
               0.23128650     0.31572767     0.41458969     0.53033537
               0.66584808     0.82450364     1.01025438     1.22772762
               1.48234092     1.78043706     2.12944203     2.53805004
               3.01644009     3.57652955     4.23227104     5.00000000

     Gradients computed in reciprocal space

[...]

     Starting wfc are  153 randomized atomic wfcs

     Self-consistent Calculation

[...]

     total energy              =   -2305.89602567 Ry
     Harris-Foulkes estimate   =   -2305.89602680 Ry
     estimated scf accuracy    <       0.00000615 Ry

     iteration # 19     ecut=    36.75 Ry     beta=0.10
     Davidson diagonalization with overlap
     ethr =  7.46E-10,  avg # of iterations =  5.0

[...]

     negative rho (up, down):  1.644E+00 0.000E+00

     Adding external electric field

     Computed dipole along edir(3) :
        Dipole                0.0161 Ry au,          0.0410 Debye
        Dipole field          0.0000 Ry au

        Potential amp.       -0.0043 Ry
        Total length         45.0099 bohr

     End of self-consistent calculation

[...]

          k = 0.0615 0.0000 0.0000 ( 15780 PWs)   bands (ev):

[...]

          k =-0.0922-0.1597 0.0000 ( 15828 PWs)   bands (ev):

   -70.9783 -70.9524 -70.9262 -70.5014 -70.4738 -70.4503 -70.4113 -70.3866
   -70.3619 -47.3294 -47.3229 -47.3172 -46.8598 -46.8542 -46.8317 -46.7441
   -46.7384 -46.6826 -41.1645 -41.0493 -41.0343 -40.9812 -40.9515 -40.9164
   -40.9018 -40.8909 -40.6593 -40.6571 -40.5755 -40.4769 -40.4307 -40.4074
   -40.4004 -40.3954 -40.3841 -40.3610 -40.3521 -40.3429 -40.3344 -40.3107
   -40.2954 -40.2585 -40.2579 -40.1858 -40.1053  -3.9220  -3.5356  -2.8167
    -2.8091  -2.7660  -2.6126  -2.5374  -2.4342  -2.3099  -2.2301  -2.1334
    -1.9794  -1.9407  -1.6903  -1.6665  -1.4776  -1.4338  -1.2498  -1.1422
    -1.0093  -0.9104  -0.6753  -0.4140  -0.3260  -0.2314  -0.1655  -0.1226
     0.0481   0.0588   0.1138   0.3034   0.3423   0.3634   0.4477   0.4845
     0.5043   0.5859   0.6544   0.6730   0.6968   1.0548   1.2352   1.3583
     1.4192   1.5571   1.6414   1.7143   1.9099   1.9295   2.0847   2.1620
     2.2371   2.4570   2.5872   2.6097   2.6159   2.6657   2.7278   3.2847
     3.3628   3.6345   3.6540   3.8775   3.9580   5.1500   5.2012   6.2500
     6.3303   6.9396   6.9738   7.3768   7.3853   8.5146   8.5179   8.6375
     8.7435   9.1624   9.1691   9.1958

     the Fermi energy is     2.4095 ev

!    total energy              =   -2305.89601727 Ry
     Harris-Foulkes estimate   =   -2305.89602556 Ry
     estimated scf accuracy    <       0.00000051 Ry

     The total energy is the sum of the following terms:

     one-electron contribution =  -21300.57230542 Ry
     hartree contribution      =   10656.99361169 Ry
     xc contribution           =    -397.44479093 Ry
     ewald contribution        =    8735.20561172 Ry
     electric field correction =       0.00000078 Ry
     smearing contrib. (-TS)   =      -0.07814511 Ry

     convergence has been achieved in  19 iterations

 BEEF-vdW xc energy contributions
           1 :   -347.697116143667
           2 :    321.103798451807
           3 :   -274.420518933756
           4 :    218.224632091716
           5 :   -163.633704553483
           6 :    119.088018452987
           7 :   -88.4632534316398
           8 :    70.9402838102203
           9 :   -62.4062363269579
          10 :    57.6473414092738
          11 :   -52.4269018360092
          12 :    44.7301177768496
          13 :   -34.8956737255702
          14 :    24.8172607577836
          15 :   -16.7103077709355
          16 :    12.0047296237667
          17 :   -10.7772962055519
          18 :    11.8607362964212
          19 :   -13.4809136657161
          20 :    14.0736083689852
          21 :   -12.9024117774772
          22 :    10.2339037930621
          23 :   -7.05318527475742
          24 :    4.50499891838655
          25 :   -3.34258563148484
          26 :    3.62765060916934
          27 :   -4.78559072323776
          28 :    5.94546049380205
          29 :   -6.37259750279253
          30 :    5.78246433541233
          31 :   -33.5236750259247
          32 :   -25.3574953412722

     Forces acting on atoms (Ry/au):

     negative rho (up, down):  1.644E+00 0.000E+00
     atom    1 type  1   force =    -0.00000085   -0.00576640    0.02062264
     atom    2 type  1   force =    -0.00498942    0.00288444    0.02061832
     atom    3 type  1   force =     0.00499130    0.00288624    0.02062141
     atom    4 type  2   force =    -0.00000048    0.00000155    0.02699850
     atom    5 type  1   force =     0.00000325   -0.00093010   -0.02358750
     atom    6 type  1   force =    -0.00081126    0.00046559   -0.02358140
     atom    7 type  1   force =     0.00080939    0.00046090   -0.02358439
     atom    8 type  2   force =    -0.00000150   -0.00000130   -0.02287563
     atom    9 type  1   force =    -0.00000484    0.00013276    0.00163426
     atom   10 type  1   force =     0.00011736   -0.00007032    0.00164282
     atom   11 type  1   force =    -0.00011528   -0.00006342    0.00163150
     atom   12 type  2   force =     0.00000232    0.00000008   -0.00014053

     Total force =     0.065627     Total SCF correction =     0.004241

     entering subroutine stress ...

     negative rho (up, down):  1.644E+00 0.000E+00
          total   stress  (Ry/bohr**3)                   (kbar)     P=  -21.88
  -0.00017286  -0.00000000   0.00000000        -25.43     -0.00      0.00
  -0.00000000  -0.00017285   0.00000000         -0.00    -25.43      0.00
   0.00000000   0.00000000  -0.00010054          0.00      0.00    -14.79

 !ASE

     Writing output data file calc.save

     General routines

     Parallel routines

   This run was terminated on:   2:19:24   1Jan2019

   JOB DONE.
Job  /afs/slac/g/suncat/bin/suncat-tsmpirun -x LD_LIBRARY_PATH -wdir /scratch/qe648919_HZ91V pw.x -in pw.inp

TID   HOST_NAME   COMMAND_LINE            STATUS            TERMINATION_TIME
00000 suncat0146 pw.x -in pw.inp   Done                     01/01/2019 02:19:24
00001 suncat0146 pw.x -in pw.inp   Done                     01/01/2019 02:19:24
00002 suncat0146 pw.x -in pw.inp   Done                     01/01/2019 02:19:24
00003 suncat0146 pw.x -in pw.inp   Done                     01/01/2019 02:19:24
00004 suncat0146 pw.x -in pw.inp   Done                     01/01/2019 02:19:24
00005 suncat0146 pw.x -in pw.inp   Done                     01/01/2019 02:19:24
00006 suncat0146 pw.x -in pw.inp   Done                     01/01/2019 02:19:24
00007 suncat0146 pw.x -in pw.inp   Done                     01/01/2019 02:19:24
00008 suncat0136 pw.x -in pw.inp   Done                     01/01/2019 02:19:24
00009 suncat0136 pw.x -in pw.inp   Done                     01/01/2019 02:19:24
00010 suncat0136 pw.x -in pw.inp   Done                     01/01/2019 02:19:24
00011 suncat0136 pw.x -in pw.inp   Done                     01/01/2019 02:19:24
00012 suncat0136 pw.x -in pw.inp   Done                     01/01/2019 02:19:24
00013 suncat0136 pw.x -in pw.inp   Done                     01/01/2019 02:19:24
00014 suncat0136 pw.x -in pw.inp   Done                     01/01/2019 02:19:24
00015 suncat0136 pw.x -in pw.inp   Done                     01/01/2019 02:19:24
00016 suncat0248 pw.x -in pw.inp   Done                     01/01/2019 02:19:24
00017 suncat0248 pw.x -in pw.inp   Done                     01/01/2019 02:19:24
00018 suncat0248 pw.x -in pw.inp   Done                     01/01/2019 02:19:24
00019 suncat0248 pw.x -in pw.inp   Done                     01/01/2019 02:19:24
00020 suncat0248 pw.x -in pw.inp   Done                     01/01/2019 02:19:24
00021 suncat0248 pw.x -in pw.inp   Done                     01/01/2019 02:19:24
00022 suncat0248 pw.x -in pw.inp   Done                     01/01/2019 02:19:24
00023 suncat0248 pw.x -in pw.inp   Done                     01/01/2019 02:19:24
00024 suncat0247 pw.x -in pw.inp   Done                     01/01/2019 02:19:24
00025 suncat0247 pw.x -in pw.inp   Done                     01/01/2019 02:19:24
00026 suncat0247 pw.x -in pw.inp   Done                     01/01/2019 02:19:24
00027 suncat0247 pw.x -in pw.inp   Done                     01/01/2019 02:19:24
00028 suncat0247 pw.x -in pw.inp   Done                     01/01/2019 02:19:24
00029 suncat0247 pw.x -in pw.inp   Done                     01/01/2019 02:19:24
00030 suncat0247 pw.x -in pw.inp   Done                     01/01/2019 02:19:24
00031 suncat0247 pw.x -in pw.inp   Done                     01/01/2019 02:19:24
00032 suncat0246 pw.x -in pw.inp   Done                     01/01/2019 02:19:24
00033 suncat0246 pw.x -in pw.inp   Done                     01/01/2019 02:19:24
00034 suncat0246 pw.x -in pw.inp   Done                     01/01/2019 02:19:24
00035 suncat0246 pw.x -in pw.inp   Done                     01/01/2019 02:19:24
00036 suncat0246 pw.x -in pw.inp   Done                     01/01/2019 02:19:24
00037 suncat0246 pw.x -in pw.inp   Done                     01/01/2019 02:19:24
00038 suncat0246 pw.x -in pw.inp   Done                     01/01/2019 02:19:24
00039 suncat0246 pw.x -in pw.inp   Done                     01/01/2019 02:19:24
00040 suncat0245 pw.x -in pw.inp   Done                     01/01/2019 02:19:24
00041 suncat0245 pw.x -in pw.inp   Done                     01/01/2019 02:19:24
00042 suncat0245 pw.x -in pw.inp   Done                     01/01/2019 02:19:24
00043 suncat0245 pw.x -in pw.inp   Done                     01/01/2019 02:19:24
00044 suncat0245 pw.x -in pw.inp   Done                     01/01/2019 02:19:24
00045 suncat0245 pw.x -in pw.inp   Done                     01/01/2019 02:19:24
00046 suncat0245 pw.x -in pw.inp   Done                     01/01/2019 02:19:24
00047 suncat0245 pw.x -in pw.inp   Done                     01/01/2019 02:19:24
00048 suncat0214 pw.x -in pw.inp   Done                     01/01/2019 02:19:24
00049 suncat0214 pw.x -in pw.inp   Done                     01/01/2019 02:19:24
00050 suncat0214 pw.x -in pw.inp   Done                     01/01/2019 02:19:24
00051 suncat0214 pw.x -in pw.inp   Done                     01/01/2019 02:19:24
00052 suncat0214 pw.x -in pw.inp   Done                     01/01/2019 02:19:24
00053 suncat0214 pw.x -in pw.inp   Done                     01/01/2019 02:19:24
00054 suncat0214 pw.x -in pw.inp   Done                     01/01/2019 02:19:24
00055 suncat0214 pw.x -in pw.inp   Done                     01/01/2019 02:19:24
00056 suncat0213 pw.x -in pw.inp   Done                     01/01/2019 02:19:24
00057 suncat0213 pw.x -in pw.inp   Done                     01/01/2019 02:19:24
00058 suncat0213 pw.x -in pw.inp   Done                     01/01/2019 02:19:24
00059 suncat0213 pw.x -in pw.inp   Done                     01/01/2019 02:19:24
00060 suncat0213 pw.x -in pw.inp   Done                     01/01/2019 02:19:24
00061 suncat0213 pw.x -in pw.inp   Done                     01/01/2019 02:19:24
00062 suncat0213 pw.x -in pw.inp   Done                     01/01/2019 02:19:24
00063 suncat0213 pw.x -in pw.inp   Done                     01/01/2019 02:19:24