     Program PWSCF v.5.1rc2 (svn rev. 11289) starts on 31Dec2018 at 15:19:11

     Current dimensions of program PWSCF are:
     Max number of different atomic species (ntypx) = 10
     Max number of k-points (npk) =  40000
     Max angular momentum in pseudopotentials (lmaxx) =  3
     Presently stress not available with electric field

     IMPORTANT: XC functional enforced from input :
     Exchange-correlation      = BEEF-VDW ( 1  4 27 13 2)
     Any further DFT definition will be discarded
     Please, verify this is what you really want

     Subspace diagonalization in iterative solution of the eigenvalue problem:
     a serial algorithm will be used

     bravais-lattice index     =            0
     lattice parameter (alat)  =       1.8897  a.u.
     unit-cell volume          =    4827.3200 (a.u.)^3
     number of atoms/cell      =           12
     number of atomic types    =            2
     number of electrons       =       180.00
     number of Kohn-Sham states=          120
     kinetic-energy cutoff     =      36.7493  Ry
     charge density cutoff     =     367.4932  Ry
     convergence threshold     =      1.0E-06
     mixing beta               =       0.1000
     number of iterations used =           10  plain     mixing
     Exchange-correlation      = BEEF-VDW ( 1  4 27 13 2)
     nstep                     =           50

     celldm(1)=   1.889726  celldm(2)=   0.000000  celldm(3)=   0.000000
     celldm(4)=   0.000000  celldm(5)=   0.000000  celldm(6)=   0.000000

     crystal axes: (cart. coord. in units of alat)
               a(1) = (   5.780523   0.000000   0.000000 )
               a(2) = (  -2.890262   5.006080   0.000000 )
               a(3) = (   0.000000   0.000000  24.719777 )

     reciprocal axes: (cart. coord. in units 2 pi/alat)
               b(1) = (  0.172995  0.099879  0.000000 )
               b(2) = (  0.000000  0.199757  0.000000 )
               b(3) = (  0.000000  0.000000  0.040453 )

     PseudoPot. # 1 for Pt read from file:
     /afs/slac.stanford.edu/u/if/mamunm/psp/gbrv1.5pbe/Pt.UPF
     MD5 check sum: f09d6de1a584b5a045c4fc126da2d0c4
     Pseudo is Ultrasoft + core correction, Zval = 16.0
     Generated by new atomic code, or converted to UPF format
     Using radial grid of  985 points,  6 beta functions with:
                l(1) =   0
                l(2) =   0
                l(3) =   1
                l(4) =   1
                l(5) =   2
                l(6) =   2
     Q(r) pseudized with  8 coefficients,  rinner =    1.300   1.300   1.300
                                                       1.300   1.300

     PseudoPot. # 2 for Hg read from file:
     /afs/slac.stanford.edu/u/if/mamunm/psp/gbrv1.5pbe/Hg.UPF
     MD5 check sum: 8f42caffe07f7fd9c0a564347f8c5498
     Pseudo is Ultrasoft + core correction, Zval = 12.0
     Generated by new atomic code, or converted to UPF format
     Using radial grid of  985 points,  6 beta functions with:
                l(1) =   0
                l(2) =   0
                l(3) =   1
                l(4) =   1
                l(5) =   2
                l(6) =   2
     Q(r) pseudized with  8 coefficients,  rinner =    2.000   2.000   2.000
                                                       2.000   2.000

     vdW kernel table read from file vdW_kernel_table
     MD5 check sum: 095c7af220d748ca6e76c0b4c6cfb241

     atomic species   valence    mass     pseudopotential
        Pt1           16.00   195.08400     Pt( 1.00)
        Hg1           12.00   200.59200     Hg( 1.00)

     No symmetry found

   Cartesian axes

     site n.     atom                  positions (alat units)
         1           Pt1 tau(   1) = (   0.0000000   0.0000000  10.0000000  )
         2           Pt1 tau(   2) = (  -1.4451308   2.5030400  10.0000000  )
         3           Pt1 tau(   3) = (   1.4451308   2.5030400  10.0000000  )
         4           Hg1 tau(   4) = (   2.8902616   0.0000000  10.0000000  )
         5           Pt1 tau(   5) = (   2.8902616   1.6686933  12.3598887  )
         6           Pt1 tau(   6) = (   1.4451308   4.1717333  12.3598887  )
         7           Pt1 tau(   7) = (  -1.4451308   4.1717333  12.3598887  )
         8           Hg1 tau(   8) = (   0.0000000   1.6686933  12.3598887  )
         9           Pt1 tau(   9) = (  -0.0000000   3.3373866  14.7197775  )
        10           Pt1 tau(  10) = (   1.4451308   0.8343467  14.7197775  )
        11           Pt1 tau(  11) = (   4.3353924   0.8343467  14.7197775  )
        12           Hg1 tau(  12) = (   2.8902616   3.3373866  14.7197775  )

     number of k points=    20  Fermi-Dirac smearing, width (Ry)=  0.0110
                       cart. coord. in units 2pi/alat
        k(    1) = (   0.0000000   0.0000000   0.0000000), wk =   0.0555556
        k(    2) = (   0.0000000   0.0332928   0.0000000), wk =   0.1111111
        k(    3) = (   0.0000000   0.0665857   0.0000000), wk =   0.1111111
        k(    4) = (   0.0000000  -0.0998785   0.0000000), wk =   0.0555556
        k(    5) = (   0.0288325   0.0166464   0.0000000), wk =   0.1111111
        k(    6) = (   0.0288325   0.0499393   0.0000000), wk =   0.1111111
        k(    7) = (   0.0288325   0.0832321   0.0000000), wk =   0.1111111
        k(    8) = (   0.0288325  -0.0832321   0.0000000), wk =   0.1111111
        k(    9) = (   0.0288325  -0.0499393   0.0000000), wk =   0.1111111
        k(   10) = (   0.0288325  -0.0166464   0.0000000), wk =   0.1111111
        k(   11) = (   0.0576649   0.0332928   0.0000000), wk =   0.1111111
        k(   12) = (   0.0576649   0.0665857   0.0000000), wk =   0.1111111
        k(   13) = (   0.0576649   0.0998785   0.0000000), wk =   0.1111111
        k(   14) = (   0.0576649  -0.0665857   0.0000000), wk =   0.1111111
        k(   15) = (   0.0576649  -0.0332928   0.0000000), wk =   0.1111111
        k(   16) = (   0.0576649  -0.0000000   0.0000000), wk =   0.1111111
        k(   17) = (  -0.0864974  -0.0499393   0.0000000), wk =   0.0555556
        k(   18) = (  -0.0864974  -0.0166464   0.0000000), wk =   0.1111111
        k(   19) = (  -0.0864974   0.0166464   0.0000000), wk =   0.1111111
        k(   20) = (  -0.0864974  -0.1498178   0.0000000), wk =   0.0555556

     Largest allocated arrays     est. size (Mb)     dimensions
     Largest temporary arrays     est. size (Mb)     dimensions

     Initial potential from superposition of free atoms
     Check: negative starting charge=   -1.645829

     starting charge  175.49972, renormalised to  180.00000

     negative rho (up, down):  1.688E+00 0.000E+00

     *
     * You are using vdW-DF for exchange-correlation in this calculation.
     * Please cite the following three references that made this development
     * possible:
     *
     *   M. Dion, H. Rydberg, E. Schroder, D. C. Langreth, and
     *   B. I. Lundqvist, Phys. Rev. Lett. 92, 246401 (2004).
     *
     *   T. Thonhauser, V. R. Cooper, S. Li, A. Puzder, P. Hyldgaard, and
     *   D. C. Langreth, Phys. Rev. B 76, 125112 (2007).
     *
     *   G. Roman-Perez and J. M. Soler, Phys. Rev. Lett. 103, 096102 (2009).
     *
     *
     * If you are using vdW-DF2, please also cite:
     *
     *   K. Lee, E. D. Murray, L. Kong, B. I. Lundqvist, and
     *   D. C. Langreth, Phys. Rev. B 82, 081101(R) (2010).
     *
     *
     * If you are calculating the stress with vdW-DF, please also cite:
     *
     *   R. Sabatini, E. Kucukbenli, B. Kolb, T. Thonhauser, and
     *   S. de Gironcoli, J. Phys.: Condens. Matter 24, 424209 (2012).
     *

     Carrying out vdW-DF run using the following parameters:

     Nqs =      20    Nr_points =    1024   r_max =   100.000
     q_mesh =
               0.00001000     0.04494208     0.09755937     0.15916263
               0.23128650     0.31572767     0.41458969     0.53033537
               0.66584808     0.82450364     1.01025438     1.22772762
               1.48234092     1.78043706     2.12944203     2.53805004
               3.01644009     3.57652955     4.23227104     5.00000000

     Gradients computed in reciprocal space

     Adding external electric field

     Computed dipole along edir(3) :
        Dipole                0.0000 Ry au,          0.0000 Debye
        Dipole field          0.0000 Ry au

        Potential amp.       -0.0000 Ry
        Total length         45.5458 bohr

     Starting wfc are  135 randomized atomic wfcs

     Self-consistent Calculation

     iteration #  1     ecut=    36.75 Ry     beta=0.10
     Davidson diagonalization with overlap
     ethr =  1.00E-02,  avg # of iterations =  7.6

[...]

     total energy              =   -2238.79852832 Ry
     Harris-Foulkes estimate   =   -2240.10766119 Ry
     estimated scf accuracy    <       8.30051792 Ry

[...]

     End of self-consistent calculation

          k = 0.0000 0.0000 0.0000 ( 18151 PWs)   bands (ev):

   -51.1340 -51.0470 -51.0470 -51.0367 -51.0163 -51.0163 -50.9368 -50.9175
   -50.9174 -50.9045 -50.8967 -50.8323 -50.8322 -50.8210 -50.8209 -50.7339
   -50.7310 -50.7060 -50.7060 -50.7047 -50.7047 -50.6057 -50.5938 -50.5833
   -50.5832 -50.5769 -50.5769  -7.3304  -6.3220  -6.3220  -6.2976  -6.2221
    -6.2221  -6.1954  -5.9619  -5.9619  -5.9374  -5.9374  -5.8975  -5.4687
    -5.4687  -5.4325  -5.4325  -4.9582  -4.8654  -4.0186  -3.5576  -3.2398
    -2.6198  -2.6117  -2.6117  -2.3896  -2.3896  -2.1896  -2.1074  -2.1074
    -1.8211  -1.8210  -1.5798  -1.5798  -1.2846  -1.2846  -1.2576  -1.2055
    -0.8446  -0.7725  -0.7725  -0.4268  -0.3214  -0.3214   0.0523   0.1966
     0.1966   0.3803   0.3803   0.4295   0.4295   0.5148   0.5148   0.5164
     0.6273   0.6273   0.8261   0.8261   1.1054   1.2430   1.2430   1.4957
     1.7090   1.7652   1.8247   2.0112   2.0113   2.3862   3.0779   3.2339
     3.4808   3.4808   3.5861   3.5861   4.8999   5.4575   5.7161   6.0855
     6.0855   6.0986   6.2965   6.4693   6.4693   6.6006   7.3345   7.3375
     7.3375   7.9236   9.5675   9.7223   9.8122  10.1261  10.1261  10.2861

[...]

          k =-0.0865-0.0499 0.0000 ( 18156 PWs)   bands (ev):

[...]

     the Fermi energy is     1.2637 ev

!    total energy              =   -2238.33159222 Ry
     Harris-Foulkes estimate   =   -2238.33156301 Ry
     estimated scf accuracy    <       0.00000086 Ry

     The total energy is the sum of the following terms:

     one-electron contribution =  -16378.26392092 Ry
     hartree contribution      =    8240.54185819 Ry
     xc contribution           =    -649.03001592 Ry
     ewald contribution        =    6548.48808970 Ry
     electric field correction =       0.00000000 Ry
     smearing contrib. (-TS)   =      -0.06760327 Ry

     convergence has been achieved in  14 iterations

 BEEF-vdW xc energy contributions
           1 :   -575.863241238346
           2 :    534.852615909576
           3 :   -461.731097588404
           4 :    371.091392082850
           5 :   -278.633492050155
           6 :    196.955238238750
           7 :   -132.997298354741
           8 :    87.6481410983665
           9 :   -57.2989366300836
          10 :    36.4628915513198
          11 :   -20.3222068127507
          12 :    6.25730719088665
          13 :    5.99004817515959
[...]
     /afs/slac.stanford.edu/u/if/mamunm/psp/gbrv1.5pbe/Pt.UPF
     MD5 check sum: f09d6de1a584b5a045c4fc126da2d0c4
     Pseudo is Ultrasoft + core correction, Zval = 16.0
     Generated by new atomic code, or converted to UPF format
     Using radial grid of  985 points,  6 beta functions with:
                l(1) =   0
                l(2) =   0
                l(3) =   1
                l(4) =   1
                l(5) =   2
                l(6) =   2
     Q(r) pseudized with  8 coefficients,  rinner =    1.300   1.300   1.300
                                                       1.300   1.300

     PseudoPot. # 2 for Hg read from file:
     /afs/slac.stanford.edu/u/if/mamunm/psp/gbrv1.5pbe/Hg.UPF
     MD5 check sum: 8f42caffe07f7fd9c0a564347f8c5498
     Pseudo is Ultrasoft + core correction, Zval = 12.0
     Generated by new atomic code, or converted to UPF format
     Using radial grid of  985 points,  6 beta functions with:
                l(1) =   0
                l(2) =   0
                l(3) =   1
                l(4) =   1
                l(5) =   2
                l(6) =   2
     Q(r) pseudized with  8 coefficients,  rinner =    2.000   2.000   2.000
                                                       2.000   2.000

     vdW kernel table read from file vdW_kernel_table
     MD5 check sum: 095c7af220d748ca6e76c0b4c6cfb241

     atomic species   valence    mass     pseudopotential
        Pt1           16.00   195.08400     Pt( 1.00)
        Hg1           12.00   200.59200     Hg( 1.00)

     No symmetry found

   Cartesian axes

     site n.     atom                  positions (alat units)
         1           Pt1 tau(   1) = (   0.0000000   0.0000000  10.0000000  )
         2           Pt1 tau(   2) = (  -1.4451308   2.5030400  10.0000000  )
         3           Pt1 tau(   3) = (   1.4451308   2.5030400  10.0000000  )
         4           Hg1 tau(   4) = (   2.8902616   0.0000000  10.0000000  )
         5           Pt1 tau(   5) = (   2.8902616   1.6686933  12.3598887  )
         6           Pt1 tau(   6) = (   1.4451308   4.1717333  12.3598887  )
         7           Pt1 tau(   7) = (  -1.4451308   4.1717333  12.3598887  )
         8           Hg1 tau(   8) = (   0.0000000   1.6686933  12.3598887  )
         9           Pt1 tau(   9) = (   0.0000035   3.3612211  14.6302112  )
        10           Pt1 tau(  10) = (   1.4657731   0.8224284  14.6302112  )
        11           Pt1 tau(  11) = (   4.3147512   0.8224239  14.6302098  )
        12           Hg1 tau(  12) = (   2.8902656   3.3373792  15.1403109  )

     number of k points=    20  Fermi-Dirac smearing, width (Ry)=  0.0110
                       cart. coord. in units 2pi/alat
        k(    1) = (   0.0000000   0.0000000   0.0000000), wk =   0.0555556
        k(    2) = (   0.0000000   0.0332928   0.0000000), wk =   0.1111111
        k(    3) = (   0.0000000   0.0665857   0.0000000), wk =   0.1111111
        k(    4) = (   0.0000000  -0.0998785   0.0000000), wk =   0.0555556
        k(    5) = (   0.0288325   0.0166464   0.0000000), wk =   0.1111111
        k(    6) = (   0.0288325   0.0499393   0.0000000), wk =   0.1111111
        k(    7) = (   0.0288325   0.0832321   0.0000000), wk =   0.1111111
        k(    8) = (   0.0288325  -0.0832321   0.0000000), wk =   0.1111111
        k(    9) = (   0.0288325  -0.0499393   0.0000000), wk =   0.1111111
        k(   10) = (   0.0288325  -0.0166464   0.0000000), wk =   0.1111111
        k(   11) = (   0.0576649   0.0332928   0.0000000), wk =   0.1111111
        k(   12) = (   0.0576649   0.0665857   0.0000000), wk =   0.1111111
        k(   13) = (   0.0576649   0.0998785   0.0000000), wk =   0.1111111
        k(   14) = (   0.0576649  -0.0665857   0.0000000), wk =   0.1111111
        k(   15) = (   0.0576649  -0.0332928   0.0000000), wk =   0.1111111
        k(   16) = (   0.0576649  -0.0000000   0.0000000), wk =   0.1111111
        k(   17) = (  -0.0864974  -0.0499393   0.0000000), wk =   0.0555556
        k(   18) = (  -0.0864974  -0.0166464   0.0000000), wk =   0.1111111
        k(   19) = (  -0.0864974   0.0166464   0.0000000), wk =   0.1111111
        k(   20) = (  -0.0864974  -0.1498178   0.0000000), wk =   0.0555556

     Largest allocated arrays     est. size (Mb)     dimensions
     Largest temporary arrays     est. size (Mb)     dimensions

     Initial potential from superposition of free atoms
     Check: negative starting charge=   -1.644995

     starting charge  175.49972, renormalised to  180.00000

[...]

     *
     * You are using vdW-DF for exchange-correlation in this calculation.
     * Please cite the following three references that made this development
     * possible:
     *
     *   M. Dion, H. Rydberg, E. Schroder, D. C. Langreth, and
     *   B. I. Lundqvist, Phys. Rev. Lett. 92, 246401 (2004).
     *
     *   T. Thonhauser, V. R. Cooper, S. Li, A. Puzder, P. Hyldgaard, and
     *   D. C. Langreth, Phys. Rev. B 76, 125112 (2007).
     *
     *   G. Roman-Perez and J. M. Soler, Phys. Rev. Lett. 103, 096102 (2009).
     *
     *
     * If you are using vdW-DF2, please also cite:
     *
     *   K. Lee, E. D. Murray, L. Kong, B. I. Lundqvist, and
     *   D. C. Langreth, Phys. Rev. B 82, 081101(R) (2010).
     *
     *
     * If you are calculating the stress with vdW-DF, please also cite:
     *
     *   R. Sabatini, E. Kucukbenli, B. Kolb, T. Thonhauser, and
     *   S. de Gironcoli, J. Phys.: Condens. Matter 24, 424209 (2012).
     *

     Carrying out vdW-DF run using the following parameters:

     Nqs =      20    Nr_points =    1024   r_max =   100.000
     q_mesh =
               0.00001000     0.04494208     0.09755937     0.15916263
               0.23128650     0.31572767     0.41458969     0.53033537
               0.66584808     0.82450364     1.01025438     1.22772762
               1.48234092     1.78043706     2.12944203     2.53805004
               3.01644009     3.57652955     4.23227104     5.00000000

     Gradients computed in reciprocal space

[...]

     Starting wfc are  135 randomized atomic wfcs

     Self-consistent Calculation

[...]

     total energy              =   -2238.36523302 Ry
     Harris-Foulkes estimate   =   -2238.36522748 Ry
     estimated scf accuracy    <       0.00000232 Ry

     iteration # 16     ecut=    36.75 Ry     beta=0.10
     Davidson diagonalization with overlap
     ethr =  1.29E-09,  avg # of iterations =  2.2

[...]

     negative rho (up, down):  1.588E+00 0.000E+00

     Adding external electric field

     Computed dipole along edir(3) :
        Dipole                0.0423 Ry au,          0.1076 Debye
        Dipole field          0.0001 Ry au

        Potential amp.       -0.0100 Ry
        Total length         45.5458 bohr

     End of self-consistent calculation

[...]

          k = 0.0577-0.0000 0.0000 ( 18169 PWs)   bands (ev):

[...]

          k =-0.0865-0.1498 0.0000 ( 18156 PWs)   bands (ev):

   -51.0592 -51.0229 -51.0002 -50.9759 -50.9468 -50.9316 -50.9298 -50.9075
   -50.8506 -50.8502 -50.7944 -50.7852 -50.7578 -50.7569 -50.7437 -50.7245
   -50.7218 -50.7140 -50.7092 -50.6981 -50.6472 -50.6237 -50.6190 -50.6110
   -50.5355 -50.5287 -50.5220  -6.2312  -6.0035  -5.9758  -5.9357  -5.8108
    -5.8107  -5.6278  -5.5582  -5.5379  -5.4499  -5.3865  -5.3381  -5.2308
    -5.1369  -5.0763  -4.9559  -4.8916  -3.9385  -3.6910  -3.5043  -3.3418
    -2.9138  -2.8528  -2.5484  -2.3822  -2.3185  -2.1160  -2.0811  -2.0088
    -1.9959  -1.9002  -1.8517  -1.5032  -1.4416  -1.3534  -1.3299  -1.2288
    -1.1225  -1.0874  -1.0713  -1.0319  -0.9390  -0.8808  -0.7662  -0.6449
    -0.5996  -0.5406  -0.3333  -0.2944  -0.1309  -0.1265   0.0076   0.0397
     0.1026   0.1455   0.2148   0.2587   0.2861   0.5398   0.5797   0.6753
     0.9541   1.2520   1.6069   1.7056   2.0975   2.2261   3.0746   3.1479
     3.7567   4.5393   5.1021   5.2247   5.4036   6.8012   6.9911   7.4553
     7.6145   7.6507   7.6817   7.7264   7.8243   7.9215   8.2473   8.2801
     8.5036   8.8144   8.8854   9.0787   9.1984   9.5375   9.6968   9.7203

     the Fermi energy is     1.3400 ev

!    total energy              =   -2238.36525569 Ry
     Harris-Foulkes estimate   =   -2238.36523327 Ry
     estimated scf accuracy    <       0.00000021 Ry

     The total energy is the sum of the following terms:

     one-electron contribution =  -16336.20057992 Ry
     hartree contribution      =    8219.86500557 Ry
     xc contribution           =    -648.99573512 Ry
     ewald contribution        =    6527.03341638 Ry
     electric field correction =       0.00000467 Ry
     smearing contrib. (-TS)   =      -0.06736727 Ry

     convergence has been achieved in  16 iterations

 BEEF-vdW xc energy contributions
           1 :   -576.267422428336
           2 :    535.222404830367
           3 :   -462.058012133280
           4 :    371.398828657727
           5 :   -278.960454739635
           6 :    197.330877879019
           7 :   -133.422940191511
           8 :    88.0979535044872
           9 :   -57.7380735833769
          10 :    36.8716899370701
          11 :   -20.7106006426576
          12 :    6.65915316379153
          13 :    5.53863970048030
          14 :   -14.7334813495531
          15 :    19.7022254786139
          16 :   -20.1858825235335
          17 :    17.2082293129099
          18 :   -12.6692099845073
          19 :    8.53621237102743
          20 :   -6.09668010615599
          21 :    5.61449409321608
          22 :   -6.48519870937605
          23 :    7.72721471909438
          24 :   -8.52316828085634
          25 :    8.54937927468143
          26 :   -7.98641660426620
          27 :    7.27472891529783
          28 :   -6.79689827692380
          29 :    6.66711249973002
          30 :   -6.72063563352151
          31 :   -48.3356584713475
          32 :   -35.6885183332298

     Forces acting on atoms (Ry/au):

     negative rho (up, down):  1.588E+00 0.000E+00
     atom    1 type  1   force =    -0.00000048   -0.00734550    0.01283429
     atom    2 type  1   force =    -0.00636132    0.00367295    0.01283437
     atom    3 type  1   force =     0.00636108    0.00367296    0.01283379
     atom    4 type  2   force =     0.00000083   -0.00000045   -0.04385268
     atom    5 type  1   force =    -0.00000012    0.01588831    0.00428212
     atom    6 type  1   force =     0.01376005   -0.00794454    0.00428171
     atom    7 type  1   force =    -0.01375972   -0.00794432    0.00428270
     atom    8 type  2   force =     0.00000011    0.00000006   -0.01487433
     atom    9 type  1   force =    -0.00000054    0.00060191    0.00184280
     atom   10 type  1   force =     0.00052099   -0.00030105    0.00184329
     atom   11 type  1   force =    -0.00052091   -0.00030075    0.00184414
     atom   12 type  2   force =     0.00000003    0.00000042    0.00184780

     Total force =     0.060228     Total SCF correction =     0.002435

     entering subroutine stress ...

     negative rho (up, down):  1.588E+00 0.000E+00
          total   stress  (Ry/bohr**3)                   (kbar)     P=  -15.32
  -0.00015662   0.00000000   0.00000000        -23.04      0.00      0.00
   0.00000000  -0.00015662   0.00000000          0.00    -23.04      0.00
   0.00000000   0.00000000   0.00000087          0.00      0.00      0.13

 !ASE

     Writing output data file calc.save

     General routines

     Parallel routines

   This run was terminated on:  16:28:14  31Dec2018

   JOB DONE.
Job  /afs/slac/g/suncat/bin/suncat-tsmpirun -x LD_LIBRARY_PATH -wdir /scratch/qe648803_52lGO pw.x -in pw.inp

TID   HOST_NAME   COMMAND_LINE            STATUS            TERMINATION_TIME
00000 suncat0068 pw.x -in pw.inp   Done                     12/31/2018 16:28:14
00001 suncat0068 pw.x -in pw.inp   Done                     12/31/2018 16:28:14
00002 suncat0068 pw.x -in pw.inp   Done                     12/31/2018 16:28:14
00003 suncat0068 pw.x -in pw.inp   Done                     12/31/2018 16:28:14
00004 suncat0068 pw.x -in pw.inp   Done                     12/31/2018 16:28:14
00005 suncat0068 pw.x -in pw.inp   Done                     12/31/2018 16:28:14
00006 suncat0068 pw.x -in pw.inp   Done                     12/31/2018 16:28:14
00007 suncat0068 pw.x -in pw.inp   Done                     12/31/2018 16:28:14
00008 suncat0059 pw.x -in pw.inp   Done                     12/31/2018 16:28:14
00009 suncat0059 pw.x -in pw.inp   Done                     12/31/2018 16:28:14
00010 suncat0059 pw.x -in pw.inp   Done                     12/31/2018 16:28:14
00011 suncat0059 pw.x -in pw.inp   Done                     12/31/2018 16:28:14
00012 suncat0059 pw.x -in pw.inp   Done                     12/31/2018 16:28:14
00013 suncat0059 pw.x -in pw.inp   Done                     12/31/2018 16:28:14
00014 suncat0059 pw.x -in pw.inp   Done                     12/31/2018 16:28:14
00015 suncat0059 pw.x -in pw.inp   Done                     12/31/2018 16:28:14
00016 suncat0031 pw.x -in pw.inp   Done                     12/31/2018 16:28:14
00017 suncat0031 pw.x -in pw.inp   Done                     12/31/2018 16:28:14
00018 suncat0031 pw.x -in pw.inp   Done                     12/31/2018 16:28:14
00019 suncat0031 pw.x -in pw.inp   Done                     12/31/2018 16:28:14
00020 suncat0031 pw.x -in pw.inp   Done                     12/31/2018 16:28:14
00021 suncat0031 pw.x -in pw.inp   Done                     12/31/2018 16:28:14
00022 suncat0031 pw.x -in pw.inp   Done                     12/31/2018 16:28:14
00023 suncat0031 pw.x -in pw.inp   Done                     12/31/2018 16:28:14
00024 suncat0030 pw.x -in pw.inp   Done                     12/31/2018 16:28:14
00025 suncat0030 pw.x -in pw.inp   Done                     12/31/2018 16:28:14
00026 suncat0030 pw.x -in pw.inp   Done                     12/31/2018 16:28:14
00027 suncat0030 pw.x -in pw.inp   Done                     12/31/2018 16:28:14
00028 suncat0030 pw.x -in pw.inp   Done                     12/31/2018 16:28:14
00029 suncat0030 pw.x -in pw.inp   Done                     12/31/2018 16:28:14
00030 suncat0030 pw.x -in pw.inp   Done                     12/31/2018 16:28:14
00031 suncat0030 pw.x -in pw.inp   Done                     12/31/2018 16:28:14
00032 suncat0280 pw.x -in pw.inp   Done                     12/31/2018 16:28:14
00033 suncat0280 pw.x -in pw.inp   Done                     12/31/2018 16:28:14
00034 suncat0280 pw.x -in pw.inp   Done                     12/31/2018 16:28:14
00035 suncat0280 pw.x -in pw.inp   Done                     12/31/2018 16:28:14
00036 suncat0280 pw.x -in pw.inp   Done                     12/31/2018 16:28:14
00037 suncat0280 pw.x -in pw.inp   Done                     12/31/2018 16:28:14
00038 suncat0280 pw.x -in pw.inp   Done                     12/31/2018 16:28:14
00039 suncat0280 pw.x -in pw.inp   Done                     12/31/2018 16:28:14
00040 suncat0279 pw.x -in pw.inp   Done                     12/31/2018 16:28:14
00041 suncat0279 pw.x -in pw.inp   Done                     12/31/2018 16:28:14
00042 suncat0279 pw.x -in pw.inp   Done                     12/31/2018 16:28:14
00043 suncat0279 pw.x -in pw.inp   Done                     12/31/2018 16:28:14
00044 suncat0279 pw.x -in pw.inp   Done                     12/31/2018 16:28:14
00045 suncat0279 pw.x -in pw.inp   Done                     12/31/2018 16:28:14
00046 suncat0279 pw.x -in pw.inp   Done                     12/31/2018 16:28:14
00047 suncat0279 pw.x -in pw.inp   Done                     12/31/2018 16:28:14
00048 suncat0278 pw.x -in pw.inp   Done                     12/31/2018 16:28:14
00049 suncat0278 pw.x -in pw.inp   Done                     12/31/2018 16:28:14
00050 suncat0278 pw.x -in pw.inp   Done                     12/31/2018 16:28:14
00051 suncat0278 pw.x -in pw.inp   Done                     12/31/2018 16:28:14
00052 suncat0278 pw.x -in pw.inp   Done                     12/31/2018 16:28:14
00053 suncat0278 pw.x -in pw.inp   Done                     12/31/2018 16:28:14
00054 suncat0278 pw.x -in pw.inp   Done                     12/31/2018 16:28:14
00055 suncat0278 pw.x -in pw.inp   Done                     12/31/2018 16:28:14
00056 suncat0099 pw.x -in pw.inp   Done                     12/31/2018 16:28:14
00057 suncat0099 pw.x -in pw.inp   Done                     12/31/2018 16:28:14
00058 suncat0099 pw.x -in pw.inp   Done                     12/31/2018 16:28:14
00059 suncat0099 pw.x -in pw.inp   Done                     12/31/2018 16:28:14
00060 suncat0099 pw.x -in pw.inp   Done                     12/31/2018 16:28:14
00061 suncat0099 pw.x -in pw.inp   Done                     12/31/2018 16:28:14
00062 suncat0099 pw.x -in pw.inp   Done                     12/31/2018 16:28:14
00063 suncat0099 pw.x -in pw.inp   Done                     12/31/2018 16:28:14