     Program PWSCF v.5.1rc2 (svn rev. 11289) starts on 19Dec2018 at 18:54:47

     Current dimensions of program PWSCF are:
     Max number of different atomic species (ntypx) = 10
     Max number of k-points (npk) =  40000
     Max angular momentum in pseudopotentials (lmaxx) =  3
     Presently stress not available with electric field

     IMPORTANT: XC functional enforced from input :
     Exchange-correlation      = BEEF-VDW ( 1  4 27 13 2)
     Any further DFT definition will be discarded
     Please, verify this is what you really want

     Subspace diagonalization in iterative solution of the eigenvalue problem:
     a serial algorithm will be used

     bravais-lattice index     =            0
     lattice parameter (alat)  =       1.8897  a.u.
     unit-cell volume          =    5080.5914 (a.u.)^3
     number of atoms/cell      =           12
     number of atomic types    =            2
     number of electrons       =       156.00
     number of Kohn-Sham states=          108
     kinetic-energy cutoff     =      36.7493  Ry
     charge density cutoff     =     367.4932  Ry
     convergence threshold     =      1.0E-06
     mixing beta               =       0.1000
     number of iterations used =           10  plain     mixing
     Exchange-correlation      = BEEF-VDW ( 1  4 27 13 2)
     nstep                     =           50

     celldm(1)=   1.889726  celldm(2)=   0.000000  celldm(3)=   0.000000
     celldm(4)=   0.000000  celldm(5)=   0.000000  celldm(6)=   0.000000

     crystal axes: (cart. coord. in units of alat)
               a(1) = (   5.916913   0.000000   0.000000 )
               a(2) = (  -2.958457   5.124197   0.000000 )
               a(3) = (   0.000000   0.000000  24.831139 )

     reciprocal axes: (cart. coord. in units 2 pi/alat)
               b(1) = (  0.169007  0.097576  0.000000 )
               b(2) = (  0.000000  0.195153  0.000000 )
               b(3) = (  0.000000  0.000000  0.040272 )

     PseudoPot. # 1 for Au read from file:
     /afs/slac.stanford.edu/u/if/mamunm/psp/gbrv1.5pbe/Au.UPF
     MD5 check sum: 9d7f43293ad2c663164586bc4b293ffc
     Pseudo is Ultrasoft + core correction, Zval = 11.0
     Generated by new atomic code, or converted to UPF format
     Using radial grid of  985 points,  7 beta functions with:
                l(1) =   0
                l(2) =   0
                l(3) =   1
                l(4) =   1
                l(5) =   2
                l(6) =   2
                l(7) =   3
     Q(r) pseudized with  6 coefficients,  rinner =    1.900   1.900   1.900
                                                       1.900   1.900   1.900
                                                       1.900

     PseudoPot. # 2 for Ga read from file:
     /afs/slac.stanford.edu/u/if/mamunm/psp/gbrv1.5pbe/Ga.UPF
     MD5 check sum: ccd671392a58a050fbb373893b4fcd66
     Pseudo is Ultrasoft + core correction, Zval = 19.0
     Generated by new atomic code, or converted to UPF format
     Using radial grid of  871 points,  6 beta functions with:
                l(1) =   0
                l(2) =   0
                l(3) =   1
                l(4) =   1
                l(5) =   2
                l(6) =   2
     Q(r) pseudized with  8 coefficients,  rinner =    1.250   1.250   1.250
                                                       1.250   1.250

     vdW kernel table read from file vdW_kernel_table
     MD5 check sum: 095c7af220d748ca6e76c0b4c6cfb241

     atomic species   valence    mass     pseudopotential
        Au1           11.00   196.96657     Au( 1.00)
        Ga1           19.00    69.72300     Ga( 1.00)

     No symmetry found

   Cartesian axes

     site n.     atom                  positions (alat units)
         1           Au1 tau(   1) = (   0.0000000   0.0000000  10.0000000  )
         2           Au1 tau(   2) = (  -1.4792283   2.5620985  10.0000000  )
         3           Au1 tau(   3) = (   1.4792283   2.5620985  10.0000000  )
         4           Ga1 tau(   4) = (   2.9584566   0.0000000  10.0000000  )
         5           Au1 tau(   5) = (   2.9584566   1.7080657  12.4155697  )
         6           Au1 tau(   6) = (   1.4792283   4.2701642  12.4155697  )
         7           Au1 tau(   7) = (  -1.4792283   4.2701642  12.4155697  )
         8           Ga1 tau(   8) = (   0.0000000   1.7080657  12.4155697  )
         9           Au1 tau(   9) = (  -0.0000000   3.4161314  14.8311393  )
        10           Au1 tau(  10) = (   1.4792283   0.8540328  14.8311393  )
        11           Au1 tau(  11) = (   4.4376848   0.8540328  14.8311393  )
        12           Ga1 tau(  12) = (   2.9584566   3.4161314  14.8311393  )

     number of k points=    20  Fermi-Dirac smearing, width (Ry)=  0.0110
                       cart. coord. in units 2pi/alat
        k(    1) = (   0.0000000   0.0000000   0.0000000), wk =   0.0555556
        k(    2) = (   0.0000000   0.0325254   0.0000000), wk =   0.1111111
        k(    3) = (   0.0000000   0.0650508   0.0000000), wk =   0.1111111
        k(    4) = (   0.0000000  -0.0975763   0.0000000), wk =   0.0555556
        k(    5) = (   0.0281678   0.0162627   0.0000000), wk =   0.1111111
        k(    6) = (   0.0281678   0.0487881   0.0000000), wk =   0.1111111
        k(    7) = (   0.0281678   0.0813136   0.0000000), wk =   0.1111111
        k(    8) = (   0.0281678  -0.0813136   0.0000000), wk =   0.1111111
        k(    9) = (   0.0281678  -0.0487881   0.0000000), wk =   0.1111111
        k(   10) = (   0.0281678  -0.0162627   0.0000000), wk =   0.1111111
        k(   11) = (   0.0563357   0.0325254   0.0000000), wk =   0.1111111
        k(   12) = (   0.0563357   0.0650508   0.0000000), wk =   0.1111111
        k(   13) = (   0.0563357   0.0975763   0.0000000), wk =   0.1111111
        k(   14) = (   0.0563357  -0.0650508   0.0000000), wk =   0.1111111
        k(   15) = (   0.0563357  -0.0325254   0.0000000), wk =   0.1111111
        k(   16) = (   0.0563357   0.0000000   0.0000000), wk =   0.1111111
        k(   17) = (  -0.0845035  -0.0487881   0.0000000), wk =   0.0555556
        k(   18) = (  -0.0845035  -0.0162627   0.0000000), wk =   0.1111111
        k(   19) = (  -0.0845035   0.0162627   0.0000000), wk =   0.1111111
        k(   20) = (  -0.0845035  -0.1463644   0.0000000), wk =   0.0555556

     Largest allocated arrays     est. size (Mb)     dimensions
     Largest temporary arrays     est. size (Mb)     dimensions

     Check: negative/imaginary core charge=   -0.000002    0.000000

     Initial potential from superposition of free atoms
     Check: negative starting charge=   -0.000535

     starting charge  152.99890, renormalised to  156.00000

     negative rho (up, down):  5.457E-04 0.000E+00

     *
     * You are using vdW-DF for exchange-correlation in this calculation.
     * Please cite the following three references that made this development
     * possible:
     *
     *   M. Dion, H. Rydberg, E. Schroder, D. C. Langreth, and
     *   B. I. Lundqvist, Phys. Rev. Lett. 92, 246401 (2004).
     *
     *   T. Thonhauser, V. R. Cooper, S. Li, A. Puzder, P. Hyldgaard, and
     *   D. C. Langreth, Phys. Rev. B 76, 125112 (2007).
     *
     *   G. Roman-Perez and J. M. Soler, Phys. Rev. Lett. 103, 096102 (2009).
     *
     *
     * If you are using vdW-DF2, please also cite:
     *
     *   K. Lee, E. D. Murray, L. Kong, B. I. Lundqvist, and
     *   D. C. Langreth, Phys. Rev. B 82, 081101(R) (2010).
     *
     *
     * If you are calculating the stress with vdW-DF, please also cite:
     *
     *   R. Sabatini, E. Kucukbenli, B. Kolb, T. Thonhauser, and
     *   S. de Gironcoli, J. Phys.: Condens. Matter 24, 424209 (2012).
     *

     Carrying out vdW-DF run using the following parameters:

     Nqs =      20    Nr_points =    1024   r_max =   100.000
     q_mesh =
               0.00001000     0.04494208     0.09755937     0.15916263
               0.23128650     0.31572767     0.41458969     0.53033537
               0.66584808     0.82450364     1.01025438     1.22772762
               1.48234092     1.78043706     2.12944203     2.53805004
               3.01644009     3.57652955     4.23227104     5.00000000

     Gradients computed in reciprocal space

     Adding external electric field

     Computed dipole along edir(3) :
        Dipole               -0.0000 Ry au,         -0.0000 Debye
        Dipole field         -0.0000 Ry au

        Potential amp.        0.0000 Ry
        Total length         45.7510 bohr

     Starting wfc are  117 randomized atomic wfcs

     Self-consistent Calculation

     iteration #  1     ecut=    36.75 Ry     beta=0.10
     Davidson diagonalization with overlap
     ethr =  1.00E-02,  avg # of iterations =  7.8

[...]

     total energy              =   -2300.57371915 Ry
     Harris-Foulkes estimate   =   -2301.15333913 Ry
     estimated scf accuracy    <       3.47476885 Ry

[...]

     End of self-consistent calculation

          k = 0.0000 0.0000 0.0000 ( 19099 PWs)   bands (ev):

   -94.7202 -94.7152 -94.7152 -94.6177 -94.6175 -94.5757 -94.5757 -94.5755
   -94.5755 -15.0597 -15.0584 -15.0584 -15.0490 -15.0490 -14.9423 -14.9385
   -14.9221 -14.9221 -14.9180 -14.9180 -14.8994 -14.8994 -14.8991 -14.8991
    -8.9488  -7.4234  -7.1805  -6.1571  -5.8870  -5.6783  -5.4854  -5.4854
    -5.2219  -5.1784  -5.1784  -5.0389  -5.0388  -4.8045  -4.8045  -4.5388
    -4.2372  -4.2372  -4.0123  -4.0123  -3.9386  -3.8772  -3.7543  -3.5293
    -3.4742  -3.4742  -3.3968  -3.3968  -3.2987  -3.2986  -2.9215  -2.9215
    -2.8839  -2.8839  -2.8588  -2.5987  -2.5987  -2.5646  -2.5645  -2.3819
    -2.3819  -2.1949  -2.0082  -1.9819  -1.9625  -1.9625  -1.6390  -1.6081
    -1.0294  -0.7247  -0.7247  -0.6023  -0.3205   0.1701   0.1701   0.4195
     0.4195   0.6174   0.8019   2.1442   2.4138   2.4138   2.9230   3.3186
     3.3186   3.9901   3.9902   3.9930   4.5865   4.7936   5.6018   5.7895
     6.1791   6.4130   7.4326   7.4326   7.7563   7.7563   7.7679   8.0272
     8.4315   8.4315   9.1929   9.1937

[...]

          k =-0.0845-0.0488 0.0000 ( 19112 PWs)   bands (ev):

[...]

     the Fermi energy is     0.2831 ev

!    total energy              =   -2300.15189070 Ry
     Harris-Foulkes estimate   =   -2300.15188659 Ry
     estimated scf accuracy    <       0.00000056 Ry

     The total energy is the sum of the following terms:

     one-electron contribution =  -12452.51032059 Ry
     hartree contribution      =    6298.62269730 Ry
     xc contribution           =    -725.22036871 Ry
     ewald contribution        =    4578.98967773 Ry
     electric field correction =       0.00000000 Ry
     smearing contrib. (-TS)   =      -0.03357644 Ry

     convergence has been achieved in  14 iterations

 BEEF-vdW xc energy contributions
           1 :   -647.721353678506
           2 :    599.344418785054
           3 :   -514.115235367123
           4 :    410.462004348578
           5 :   -307.195262627512
           6 :    218.006244088350
           7 :   -148.997268448551
           8 :    99.5338549553371
           9 :   -65.2550382880327
          10 :    41.3335098995283
          11 :   -24.4564203246966
          12 :    13.0382800309236
[...]
     MD5 check sum: 9d7f43293ad2c663164586bc4b293ffc
     Pseudo is Ultrasoft + core correction, Zval = 11.0
     Generated by new atomic code, or converted to UPF format
     Using radial grid of  985 points,  7 beta functions with:
                l(1) =   0
                l(2) =   0
                l(3) =   1
                l(4) =   1
                l(5) =   2
                l(6) =   2
                l(7) =   3
     Q(r) pseudized with  6 coefficients,  rinner =    1.900   1.900   1.900
                                                       1.900   1.900   1.900
                                                       1.900

     PseudoPot. # 2 for Ga read from file:
     /afs/slac.stanford.edu/u/if/mamunm/psp/gbrv1.5pbe/Ga.UPF
     MD5 check sum: ccd671392a58a050fbb373893b4fcd66
     Pseudo is Ultrasoft + core correction, Zval = 19.0
     Generated by new atomic code, or converted to UPF format
     Using radial grid of  871 points,  6 beta functions with:
                l(1) =   0
                l(2) =   0
                l(3) =   1
                l(4) =   1
                l(5) =   2
                l(6) =   2
     Q(r) pseudized with  8 coefficients,  rinner =    1.250   1.250   1.250
                                                       1.250   1.250

     vdW kernel table read from file vdW_kernel_table
     MD5 check sum: 095c7af220d748ca6e76c0b4c6cfb241

     atomic species   valence    mass     pseudopotential
        Au1           11.00   196.96657     Au( 1.00)
        Ga1           19.00    69.72300     Ga( 1.00)

     No symmetry found

   Cartesian axes

     site n.     atom                  positions (alat units)
         1           Au1 tau(   1) = (   0.0000000   0.0000000  10.0000000  )
         2           Au1 tau(   2) = (  -1.4792283   2.5620985  10.0000000  )
         3           Au1 tau(   3) = (   1.4792283   2.5620985  10.0000000  )
         4           Ga1 tau(   4) = (   2.9584566   0.0000000  10.0000000  )
         5           Au1 tau(   5) = (   2.9584566   1.7080657  12.4155697  )
         6           Au1 tau(   6) = (   1.4792283   4.2701642  12.4155697  )
         7           Au1 tau(   7) = (  -1.4792283   4.2701642  12.4155697  )
         8           Ga1 tau(   8) = (   0.0000000   1.7080657  12.4155697  )
         9           Au1 tau(   9) = (   0.0000555   3.4013541  15.0010263  )
        10           Au1 tau(  10) = (   1.4663231   0.8613978  15.0009915  )
        11           Au1 tau(  11) = (   4.4504292   0.8614681  15.0010070  )
        12           Ga1 tau(  12) = (   2.9587261   3.4160381  15.0492025  )

     number of k points=    20  Fermi-Dirac smearing, width (Ry)=  0.0110
                       cart. coord. in units 2pi/alat
        k(    1) = (   0.0000000   0.0000000   0.0000000), wk =   0.0555556
        k(    2) = (   0.0000000   0.0325254   0.0000000), wk =   0.1111111
        k(    3) = (   0.0000000   0.0650508   0.0000000), wk =   0.1111111
        k(    4) = (   0.0000000  -0.0975763   0.0000000), wk =   0.0555556
        k(    5) = (   0.0281678   0.0162627   0.0000000), wk =   0.1111111
        k(    6) = (   0.0281678   0.0487881   0.0000000), wk =   0.1111111
        k(    7) = (   0.0281678   0.0813136   0.0000000), wk =   0.1111111
        k(    8) = (   0.0281678  -0.0813136   0.0000000), wk =   0.1111111
        k(    9) = (   0.0281678  -0.0487881   0.0000000), wk =   0.1111111
        k(   10) = (   0.0281678  -0.0162627   0.0000000), wk =   0.1111111
        k(   11) = (   0.0563357   0.0325254   0.0000000), wk =   0.1111111
        k(   12) = (   0.0563357   0.0650508   0.0000000), wk =   0.1111111
        k(   13) = (   0.0563357   0.0975763   0.0000000), wk =   0.1111111
        k(   14) = (   0.0563357  -0.0650508   0.0000000), wk =   0.1111111
        k(   15) = (   0.0563357  -0.0325254   0.0000000), wk =   0.1111111
        k(   16) = (   0.0563357   0.0000000   0.0000000), wk =   0.1111111
        k(   17) = (  -0.0845035  -0.0487881   0.0000000), wk =   0.0555556
        k(   18) = (  -0.0845035  -0.0162627   0.0000000), wk =   0.1111111
        k(   19) = (  -0.0845035   0.0162627   0.0000000), wk =   0.1111111
        k(   20) = (  -0.0845035  -0.1463644   0.0000000), wk =   0.0555556

     Largest allocated arrays     est. size (Mb)     dimensions
     Largest temporary arrays     est. size (Mb)     dimensions

     Check: negative/imaginary core charge=   -0.000002    0.000000

     Initial potential from superposition of free atoms
     Check: negative starting charge=   -0.000513

     starting charge  152.99890, renormalised to  156.00000

[...]

     *
     * You are using vdW-DF for exchange-correlation in this calculation.
     * Please cite the following three references that made this development
     * possible:
     *
     *   M. Dion, H. Rydberg, E. Schroder, D. C. Langreth, and
     *   B. I. Lundqvist, Phys. Rev. Lett. 92, 246401 (2004).
     *
     *   T. Thonhauser, V. R. Cooper, S. Li, A. Puzder, P. Hyldgaard, and
     *   D. C. Langreth, Phys. Rev. B 76, 125112 (2007).
     *
     *   G. Roman-Perez and J. M. Soler, Phys. Rev. Lett. 103, 096102 (2009).
     *
     *
     * If you are using vdW-DF2, please also cite:
     *
     *   K. Lee, E. D. Murray, L. Kong, B. I. Lundqvist, and
     *   D. C. Langreth, Phys. Rev. B 82, 081101(R) (2010).
     *
     *
     * If you are calculating the stress with vdW-DF, please also cite:
     *
     *   R. Sabatini, E. Kucukbenli, B. Kolb, T. Thonhauser, and
     *   S. de Gironcoli, J. Phys.: Condens. Matter 24, 424209 (2012).
     *

     Carrying out vdW-DF run using the following parameters:

     Nqs =      20    Nr_points =    1024   r_max =   100.000
     q_mesh =
               0.00001000     0.04494208     0.09755937     0.15916263
               0.23128650     0.31572767     0.41458969     0.53033537
               0.66584808     0.82450364     1.01025438     1.22772762
               1.48234092     1.78043706     2.12944203     2.53805004
               3.01644009     3.57652955     4.23227104     5.00000000

     Gradients computed in reciprocal space

[...]

     Starting wfc are  117 randomized atomic wfcs

     Self-consistent Calculation

[...]

     total energy              =   -2300.18330769 Ry
     Harris-Foulkes estimate   =   -2300.18330709 Ry
     estimated scf accuracy    <       0.00000470 Ry

     iteration # 14     ecut=    36.75 Ry     beta=0.10
     Davidson diagonalization with overlap
     ethr =  3.01E-09,  avg # of iterations =  2.0

[...]

     negative rho (up, down):  4.933E-04 0.000E+00

     Adding external electric field

     Computed dipole along edir(3) :
        Dipole                0.0042 Ry au,          0.0106 Debye
        Dipole field          0.0000 Ry au

        Potential amp.       -0.0009 Ry
        Total length         45.7510 bohr

     End of self-consistent calculation

[...]

          k = 0.0563 0.0000 0.0000 ( 19111 PWs)   bands (ev):

[...]

          k =-0.0845-0.1464 0.0000 ( 19112 PWs)   bands (ev):

   -94.6863 -94.6728 -94.6727 -94.6081 -94.6072 -94.5692 -94.5692 -94.5554
   -94.5554 -15.0165 -15.0080 -15.0079 -15.0019 -14.9993 -14.9268 -14.9199
   -14.9110 -14.9104 -14.8975 -14.8972 -14.8905 -14.8861 -14.8701 -14.8659
    -7.4402  -7.1759  -6.3639  -5.8744  -5.4803  -5.4445  -5.0726  -5.0194
    -4.9648  -4.7227  -4.6171  -4.5747  -4.5377  -4.4674  -4.4271  -4.3552
    -4.2964  -4.1489  -4.0529  -3.9608  -3.9087  -3.7358  -3.7351  -3.6992
    -3.6798  -3.6529  -3.5758  -3.5432  -3.4432  -3.4353  -3.3086  -3.2836
    -3.2501  -3.2075  -3.1817  -3.1369  -3.1073  -3.0224  -2.9880  -2.9235
    -2.8773  -2.8019  -2.7006  -2.6141  -2.4466  -2.4267  -2.3381  -2.0737
    -1.9670  -1.8525  -1.2036  -1.0655  -0.3267  -0.2294   0.4164   0.6469
     2.0136   2.0995   2.3158   3.9384   4.0442   4.2241   4.4194   4.5710
     4.6352   5.0840   5.6555   5.6914   5.7688   5.8870   5.9725   6.1738
     6.2227   6.5101   6.8454   6.9794   7.0139   7.0451   7.2095   7.2277
     7.4714   7.5673   7.7073   8.3170

     the Fermi energy is     0.2692 ev

!    total energy              =   -2300.18331139 Ry
     Harris-Foulkes estimate   =   -2300.18330838 Ry
     estimated scf accuracy    <       0.00000076 Ry

     The total energy is the sum of the following terms:

     one-electron contribution =  -12144.27982582 Ry
     hartree contribution      =    6144.80978229 Ry
     xc contribution           =    -725.10820680 Ry
     ewald contribution        =    4424.42636144 Ry
     electric field correction =       0.00000004 Ry
     smearing contrib. (-TS)   =      -0.03142255 Ry

     convergence has been achieved in  14 iterations

 BEEF-vdW xc energy contributions
           1 :   -648.319388539077
           2 :    599.818696377164
           3 :   -514.430357675989
           4 :    410.701902942121
           5 :   -307.516361767603
           6 :    218.546240310100
           7 :   -149.791203887077
           8 :    100.487886738790
           9 :   -66.1950632854607
          10 :    42.1022221292532
          11 :   -25.0023168439006
          12 :    13.4454827653419
          13 :   -6.72715453677642
          14 :    3.81336577721243
          15 :   -3.00308682350942
          16 :    2.38085387544515
          17 :  -0.562432330326487
          18 :   -2.85402032497791
          19 :    7.36677306346212
          20 :   -12.0165170856438
          21 :    15.8514332733192
          22 :   -18.1875172615163
          23 :    18.6678129975421
          24 :   -17.2697012343128
          25 :    14.3485849751720
          26 :   -10.6589724497305
          27 :    7.20990517614496
          28 :   -4.91355352944959
          29 :    4.17658522709894
          30 :   -4.70610723295681
          31 :   -50.4236093808711
          32 :   -36.2446043510338

     Forces acting on atoms (Ry/au):

     negative rho (up, down):  4.933E-04 0.000E+00
     atom    1 type  1   force =    -0.00000497    0.00720087   -0.01254523
     atom    2 type  1   force =     0.00623584   -0.00359729   -0.01253955
     atom    3 type  1   force =    -0.00624242   -0.00360319   -0.01254616
     atom    4 type  2   force =     0.00000139   -0.00000570   -0.00999837
     atom    5 type  1   force =    -0.00000484   -0.00268517    0.01301182
     atom    6 type  1   force =    -0.00232778    0.00134705    0.01301422
     atom    7 type  1   force =     0.00232643    0.00134524    0.01301176
     atom    8 type  2   force =     0.00000514    0.00000127    0.00724930
     atom    9 type  1   force =     0.00000485    0.00126637   -0.00013674
     atom   10 type  1   force =     0.00109746   -0.00063530   -0.00014405
     atom   11 type  1   force =    -0.00109696   -0.00063337   -0.00013479
     atom   12 type  2   force =     0.00000586   -0.00000077    0.00175779

     Total force =     0.036301     Total SCF correction =     0.003338

     entering subroutine stress ...

     negative rho (up, down):  4.933E-04 0.000E+00
          total   stress  (Ry/bohr**3)                   (kbar)     P=  -13.65
  -0.00015707   0.00000000  -0.00000000        -23.11      0.00     -0.00
   0.00000000  -0.00015707   0.00000000          0.00    -23.11      0.00
  -0.00000000   0.00000000   0.00003583         -0.00      0.00      5.27

 !ASE

     Writing output data file calc.save

     General routines

     Parallel routines

   This run was terminated on:  20:42: 8  19Dec2018

   JOB DONE.
Job  /afs/slac/g/suncat/bin/suncat-tsmpirun -x LD_LIBRARY_PATH -wdir /scratch/qe773347_86MCU pw.x -in pw.inp

TID   HOST_NAME   COMMAND_LINE            STATUS            TERMINATION_TIME
00000 suncat0254 pw.x -in pw.inp   Done                     12/19/2018 20:42:08
00001 suncat0254 pw.x -in pw.inp   Done                     12/19/2018 20:42:08
00002 suncat0254 pw.x -in pw.inp   Done                     12/19/2018 20:42:08
00003 suncat0254 pw.x -in pw.inp   Done                     12/19/2018 20:42:08
00004 suncat0254 pw.x -in pw.inp   Done                     12/19/2018 20:42:08
00005 suncat0254 pw.x -in pw.inp   Done                     12/19/2018 20:42:08
00006 suncat0254 pw.x -in pw.inp   Done                     12/19/2018 20:42:08
00007 suncat0254 pw.x -in pw.inp   Done                     12/19/2018 20:42:08
00008 suncat0253 pw.x -in pw.inp   Done                     12/19/2018 20:42:08
00009 suncat0253 pw.x -in pw.inp   Done                     12/19/2018 20:42:08
00010 suncat0253 pw.x -in pw.inp   Done                     12/19/2018 20:42:08
00011 suncat0253 pw.x -in pw.inp   Done                     12/19/2018 20:42:08
00012 suncat0253 pw.x -in pw.inp   Done                     12/19/2018 20:42:08
00013 suncat0253 pw.x -in pw.inp   Done                     12/19/2018 20:42:08
00014 suncat0253 pw.x -in pw.inp   Done                     12/19/2018 20:42:08
00015 suncat0253 pw.x -in pw.inp   Done                     12/19/2018 20:42:08
00016 suncat0244 pw.x -in pw.inp   Done                     12/19/2018 20:42:08
00017 suncat0244 pw.x -in pw.inp   Done                     12/19/2018 20:42:08
00018 suncat0244 pw.x -in pw.inp   Done                     12/19/2018 20:42:08
00019 suncat0244 pw.x -in pw.inp   Done                     12/19/2018 20:42:08
00020 suncat0244 pw.x -in pw.inp   Done                     12/19/2018 20:42:08
00021 suncat0244 pw.x -in pw.inp   Done                     12/19/2018 20:42:08
00022 suncat0244 pw.x -in pw.inp   Done                     12/19/2018 20:42:08
00023 suncat0244 pw.x -in pw.inp   Done                     12/19/2018 20:42:08
00024 suncat0243 pw.x -in pw.inp   Done                     12/19/2018 20:42:08
00025 suncat0243 pw.x -in pw.inp   Done                     12/19/2018 20:42:08
00026 suncat0243 pw.x -in pw.inp   Done                     12/19/2018 20:42:08
00027 suncat0243 pw.x -in pw.inp   Done                     12/19/2018 20:42:08
00028 suncat0243 pw.x -in pw.inp   Done                     12/19/2018 20:42:08
00029 suncat0243 pw.x -in pw.inp   Done                     12/19/2018 20:42:08
00030 suncat0243 pw.x -in pw.inp   Done                     12/19/2018 20:42:08
00031 suncat0243 pw.x -in pw.inp   Done                     12/19/2018 20:42:08
00032 suncat0214 pw.x -in pw.inp   Done                     12/19/2018 20:42:08
00033 suncat0214 pw.x -in pw.inp   Done                     12/19/2018 20:42:08
00034 suncat0214 pw.x -in pw.inp   Done                     12/19/2018 20:42:08
00035 suncat0214 pw.x -in pw.inp   Done                     12/19/2018 20:42:08
00036 suncat0214 pw.x -in pw.inp   Done                     12/19/2018 20:42:08
00037 suncat0214 pw.x -in pw.inp   Done                     12/19/2018 20:42:08
00038 suncat0214 pw.x -in pw.inp   Done                     12/19/2018 20:42:08
00039 suncat0214 pw.x -in pw.inp   Done                     12/19/2018 20:42:08
00040 suncat0213 pw.x -in pw.inp   Done                     12/19/2018 20:42:08
00041 suncat0213 pw.x -in pw.inp   Done                     12/19/2018 20:42:08
00042 suncat0213 pw.x -in pw.inp   Done                     12/19/2018 20:42:08
00043 suncat0213 pw.x -in pw.inp   Done                     12/19/2018 20:42:08
00044 suncat0213 pw.x -in pw.inp   Done                     12/19/2018 20:42:08
00045 suncat0213 pw.x -in pw.inp   Done                     12/19/2018 20:42:08
00046 suncat0213 pw.x -in pw.inp   Done                     12/19/2018 20:42:08
00047 suncat0213 pw.x -in pw.inp   Done                     12/19/2018 20:42:08
00048 suncat0209 pw.x -in pw.inp   Done                     12/19/2018 20:42:08
00049 suncat0209 pw.x -in pw.inp   Done                     12/19/2018 20:42:08
00050 suncat0209 pw.x -in pw.inp   Done                     12/19/2018 20:42:08
00051 suncat0209 pw.x -in pw.inp   Done                     12/19/2018 20:42:08
00052 suncat0209 pw.x -in pw.inp   Done                     12/19/2018 20:42:08
00053 suncat0209 pw.x -in pw.inp   Done                     12/19/2018 20:42:08
00054 suncat0209 pw.x -in pw.inp   Done                     12/19/2018 20:42:08
00055 suncat0209 pw.x -in pw.inp   Done                     12/19/2018 20:42:08
00056 suncat0203 pw.x -in pw.inp   Done                     12/19/2018 20:42:08
00057 suncat0203 pw.x -in pw.inp   Done                     12/19/2018 20:42:08
00058 suncat0203 pw.x -in pw.inp   Done                     12/19/2018 20:42:08
00059 suncat0203 pw.x -in pw.inp   Done                     12/19/2018 20:42:08
00060 suncat0203 pw.x -in pw.inp   Done                     12/19/2018 20:42:08
00061 suncat0203 pw.x -in pw.inp   Done                     12/19/2018 20:42:08
00062 suncat0203 pw.x -in pw.inp   Done                     12/19/2018 20:42:08
00063 suncat0203 pw.x -in pw.inp   Done                     12/19/2018 20:42:08