     Program PWSCF v.5.1rc2 (svn rev. 11289) starts on 31Dec2018 at 14:19:12

     Current dimensions of program PWSCF are:
     Max number of different atomic species (ntypx) = 10
     Max number of k-points (npk) =  40000
     Max angular momentum in pseudopotentials (lmaxx) =  3
     Presently stress not available with electric field

     IMPORTANT: XC functional enforced from input :
     Exchange-correlation      = BEEF-VDW ( 1  4 27 13 2)
     Any further DFT definition will be discarded
     Please, verify this is what you really want

     Subspace diagonalization in iterative solution of the eigenvalue problem:
     a serial algorithm will be used

     bravais-lattice index     =            0
     lattice parameter (alat)  =       1.8897  a.u.
     unit-cell volume          =    4685.2450 (a.u.)^3
     number of atoms/cell      =           12
     number of atomic types    =            2
     number of electrons       =       177.00
     number of Kohn-Sham states=          118
     kinetic-energy cutoff     =      36.7493  Ry
     charge density cutoff     =     367.4932  Ry
     convergence threshold     =      1.0E-06
     mixing beta               =       0.1000
     number of iterations used =           10  plain     mixing
     Exchange-correlation      = BEEF-VDW ( 1  4 27 13 2)
     nstep                     =           50

     celldm(1)=   1.889726  celldm(2)=   0.000000  celldm(3)=   0.000000
     celldm(4)=   0.000000  celldm(5)=   0.000000  celldm(6)=   0.000000

     crystal axes: (cart. coord. in units of alat)
               a(1) = (   5.702204   0.000000   0.000000 )
               a(2) = (  -2.851102   4.938253   0.000000 )
               a(3) = (   0.000000   0.000000  24.655830 )

     reciprocal axes: (cart. coord. in units 2 pi/alat)
               b(1) = (  0.175371  0.101250  0.000000 )
               b(2) = (  0.000000  0.202501  0.000000 )
               b(3) = (  0.000000  0.000000  0.040558 )

     PseudoPot. # 1 for Pt read from file:
     /afs/slac.stanford.edu/u/if/mamunm/psp/gbrv1.5pbe/Pt.UPF
     MD5 check sum: f09d6de1a584b5a045c4fc126da2d0c4
     Pseudo is Ultrasoft + core correction, Zval = 16.0
     Generated by new atomic code, or converted to UPF format
     Using radial grid of  985 points,  6 beta functions with:
                l(1) =   0
                l(2) =   0
                l(3) =   1
                l(4) =   1
                l(5) =   2
                l(6) =   2
     Q(r) pseudized with  8 coefficients,  rinner =    1.300   1.300   1.300
                                                       1.300   1.300

     PseudoPot. # 2 for Au read from file:
     /afs/slac.stanford.edu/u/if/mamunm/psp/gbrv1.5pbe/Au.UPF
     MD5 check sum: 9d7f43293ad2c663164586bc4b293ffc
     Pseudo is Ultrasoft + core correction, Zval = 11.0
     Generated by new atomic code, or converted to UPF format
     Using radial grid of  985 points,  7 beta functions with:
                l(1) =   0
                l(2) =   0
                l(3) =   1
                l(4) =   1
                l(5) =   2
                l(6) =   2
                l(7) =   3
     Q(r) pseudized with  6 coefficients,  rinner =    1.900   1.900   1.900
                                                       1.900   1.900   1.900
                                                       1.900

     vdW kernel table read from file vdW_kernel_table
     MD5 check sum: 095c7af220d748ca6e76c0b4c6cfb241

     atomic species   valence    mass     pseudopotential
        Pt1           16.00   195.08400     Pt( 1.00)
        Au1           11.00   196.96657     Au( 1.00)

     No symmetry found

   Cartesian axes

     site n.     atom                  positions (alat units)
         1           Pt1 tau(   1) = (   0.0000000   0.0000000  10.0000000  )
         2           Pt1 tau(   2) = (  -1.4255509   2.4691266  10.0000000  )
         3           Pt1 tau(   3) = (   1.4255509   2.4691266  10.0000000  )
         4           Au1 tau(   4) = (   2.8511018   0.0000000  10.0000000  )
         5           Pt1 tau(   5) = (   2.8511018   1.6460844  12.3279149  )
         6           Pt1 tau(   6) = (   1.4255509   4.1152110  12.3279149  )
         7           Pt1 tau(   7) = (  -1.4255509   4.1152110  12.3279149  )
         8           Au1 tau(   8) = (   0.0000000   1.6460844  12.3279149  )
         9           Pt1 tau(   9) = (  -0.0000000   3.2921688  14.6558298  )
        10           Pt1 tau(  10) = (   1.4255509   0.8230422  14.6558298  )
        11           Pt1 tau(  11) = (   4.2766528   0.8230422  14.6558298  )
        12           Au1 tau(  12) = (   2.8511018   3.2921688  14.6558298  )

     number of k points=    20  Fermi-Dirac smearing, width (Ry)=  0.0110
                       cart. coord. in units 2pi/alat
        k(    1) = (   0.0000000   0.0000000   0.0000000), wk =   0.0555556
        k(    2) = (   0.0000000   0.0337501   0.0000000), wk =   0.1111111
        k(    3) = (   0.0000000   0.0675003   0.0000000), wk =   0.1111111
        k(    4) = (   0.0000000  -0.1012504   0.0000000), wk =   0.0555556
        k(    5) = (   0.0292285   0.0168751   0.0000000), wk =   0.1111111
        k(    6) = (   0.0292285   0.0506252   0.0000000), wk =   0.1111111
        k(    7) = (   0.0292285   0.0843753   0.0000000), wk =   0.1111111
        k(    8) = (   0.0292285  -0.0843753   0.0000000), wk =   0.1111111
        k(    9) = (   0.0292285  -0.0506252   0.0000000), wk =   0.1111111
        k(   10) = (   0.0292285  -0.0168751   0.0000000), wk =   0.1111111
        k(   11) = (   0.0584569   0.0337501   0.0000000), wk =   0.1111111
        k(   12) = (   0.0584569   0.0675003   0.0000000), wk =   0.1111111
        k(   13) = (   0.0584569   0.1012504   0.0000000), wk =   0.1111111
        k(   14) = (   0.0584569  -0.0675003   0.0000000), wk =   0.1111111
        k(   15) = (   0.0584569  -0.0337501   0.0000000), wk =   0.1111111
        k(   16) = (   0.0584569   0.0000000   0.0000000), wk =   0.1111111
        k(   17) = (  -0.0876854  -0.0506252   0.0000000), wk =   0.0555556
        k(   18) = (  -0.0876854  -0.0168751   0.0000000), wk =   0.1111111
        k(   19) = (  -0.0876854   0.0168751   0.0000000), wk =   0.1111111
        k(   20) = (  -0.0876854  -0.1518756   0.0000000), wk =   0.0555556

     Largest allocated arrays     est. size (Mb)     dimensions
     Largest temporary arrays     est. size (Mb)     dimensions

     Check: negative/imaginary core charge=   -0.000001    0.000000

     Initial potential from superposition of free atoms
     Check: negative starting charge=   -1.642143

     starting charge  172.49953, renormalised to  177.00000

     negative rho (up, down):  1.685E+00 0.000E+00

     *
     * You are using vdW-DF for exchange-correlation in this calculation.
     * Please cite the following three references that made this development
     * possible:
     *
     *   M. Dion, H. Rydberg, E. Schroder, D. C. Langreth, and
     *   B. I. Lundqvist, Phys. Rev. Lett. 92, 246401 (2004).
     *
     *   T. Thonhauser, V. R. Cooper, S. Li, A. Puzder, P. Hyldgaard, and
     *   D. C. Langreth, Phys. Rev. B 76, 125112 (2007).
     *
     *   G. Roman-Perez and J. M. Soler, Phys. Rev. Lett. 103, 096102 (2009).
     *
     *
     * If you are using vdW-DF2, please also cite:
     *
     *   K. Lee, E. D. Murray, L. Kong, B. I. Lundqvist, and
     *   D. C. Langreth, Phys. Rev. B 82, 081101(R) (2010).
     *
     *
     * If you are calculating the stress with vdW-DF, please also cite:
     *
     *   R. Sabatini, E. Kucukbenli, B. Kolb, T. Thonhauser, and
     *   S. de Gironcoli, J. Phys.: Condens. Matter 24, 424209 (2012).
     *

     Carrying out vdW-DF run using the following parameters:

     Nqs =      20    Nr_points =    1024   r_max =   100.000
     q_mesh =
               0.00001000     0.04494208     0.09755937     0.15916263
               0.23128650     0.31572767     0.41458969     0.53033537
               0.66584808     0.82450364     1.01025438     1.22772762
               1.48234092     1.78043706     2.12944203     2.53805004
               3.01644009     3.57652955     4.23227104     5.00000000

     Gradients computed in reciprocal space

     Adding external electric field

     Computed dipole along edir(3) :
        Dipole                0.0000 Ry au,          0.0000 Debye
        Dipole field          0.0000 Ry au

        Potential amp.       -0.0000 Ry
        Total length         45.4279 bohr

     Starting wfc are  135 randomized atomic wfcs

     Self-consistent Calculation

     iteration #  1     ecut=    36.75 Ry     beta=0.10
     Davidson diagonalization with overlap
     ethr =  1.00E-02,  avg # of iterations =  7.7

[...]

     total energy              =   -2261.68505296 Ry
     Harris-Foulkes estimate   =   -2263.18851629 Ry
     estimated scf accuracy    <       9.48586715 Ry

[...]

     End of self-consistent calculation

          k = 0.0000 0.0000 0.0000 ( 17705 PWs)   bands (ev):

   -51.4819 -51.3691 -51.3690 -51.3167 -51.3054 -51.3054 -51.2342 -51.2117
   -51.2091 -51.2091 -51.2003 -51.1093 -51.1093 -51.0955 -51.0955 -50.9897
   -50.9865 -50.9746 -50.9746 -50.9731 -50.9731 -50.8461 -50.8318 -50.8205
   -50.8204 -50.8127 -50.8127  -7.1605  -5.5573  -5.1264  -4.8423  -4.8423
    -4.6738  -4.6738  -4.6373  -4.4150  -4.2263  -4.2263  -4.1849  -4.1849
    -4.1159  -3.8448  -3.0351  -3.0351  -2.7801  -2.7800  -2.4986  -2.4975
    -2.2976  -2.2604  -2.1318  -2.1318  -1.9393  -1.9393  -1.8250  -1.8250
    -1.7606  -1.7606  -1.4287  -1.3268  -0.9573  -0.9573  -0.7120  -0.7120
    -0.6391  -0.6391  -0.3562  -0.1312  -0.1311  -0.0809   0.1714   0.3368
     0.3368   0.5716   0.5716   0.5859   0.7177   0.7178   0.8647   0.8647
     0.9284   0.9284   1.0269   1.0427   1.0427   1.2557   1.2557   1.3864
     1.6378   1.6919   2.1392   2.4452   2.4452   2.4898   3.7144   3.8207
     3.8899   3.8899   3.9808   3.9808   5.9042   6.2102   6.2354   6.5014
     6.5440   6.5540   6.5540   6.8605   6.8605   7.4889   7.5867   7.8307
     7.8307   8.1318   9.7731  10.1380  10.4635  10.5817

[...]

          k =-0.0877-0.0506 0.0000 ( 17588 PWs)   bands (ev):

[...]

     the Fermi energy is     1.1046 ev

!    total energy              =   -2261.15218470 Ry
     Harris-Foulkes estimate   =   -2261.15215837 Ry
     estimated scf accuracy    <       0.00000047 Ry

     The total energy is the sum of the following terms:

     one-electron contribution =  -16321.18150811 Ry
     hartree contribution      =    8211.64824752 Ry
     xc contribution           =    -719.46692682 Ry
     ewald contribution        =    6567.93374920 Ry
     electric field correction =       0.00000000 Ry
     smearing contrib. (-TS)   =      -0.08574650 Ry

     convergence has been achieved in  16 iterations

 BEEF-vdW xc energy contributions
           1 :   -640.831246439213
           2 :    596.240181354133
           3 :   -516.292415473021
           4 :    416.253689266526
           5 :   -312.819542207429
           6 :    219.805125772180
           7 :   -145.404857346499
           8 :    91.5608510116386
           9 :   -55.3044387848378
[...]
     Using radial grid of  985 points,  6 beta functions with:
                l(1) =   0
                l(2) =   0
                l(3) =   1
                l(4) =   1
                l(5) =   2
                l(6) =   2
     Q(r) pseudized with  8 coefficients,  rinner =    1.300   1.300   1.300
                                                       1.300   1.300

     PseudoPot. # 2 for Au read from file:
     /afs/slac.stanford.edu/u/if/mamunm/psp/gbrv1.5pbe/Au.UPF
     MD5 check sum: 9d7f43293ad2c663164586bc4b293ffc
     Pseudo is Ultrasoft + core correction, Zval = 11.0
     Generated by new atomic code, or converted to UPF format
     Using radial grid of  985 points,  7 beta functions with:
                l(1) =   0
                l(2) =   0
                l(3) =   1
                l(4) =   1
                l(5) =   2
                l(6) =   2
                l(7) =   3
     Q(r) pseudized with  6 coefficients,  rinner =    1.900   1.900   1.900
                                                       1.900   1.900   1.900
                                                       1.900

     vdW kernel table read from file vdW_kernel_table
     MD5 check sum: 095c7af220d748ca6e76c0b4c6cfb241

     atomic species   valence    mass     pseudopotential
        Pt1           16.00   195.08400     Pt( 1.00)
        Au1           11.00   196.96657     Au( 1.00)

     No symmetry found

   Cartesian axes

     site n.     atom                  positions (alat units)
         1           Pt1 tau(   1) = (   0.0000000   0.0000000  10.0000000  )
         2           Pt1 tau(   2) = (  -1.4255509   2.4691266  10.0000000  )
         3           Pt1 tau(   3) = (   1.4255509   2.4691266  10.0000000  )
         4           Au1 tau(   4) = (   2.8511018   0.0000000  10.0000000  )
         5           Pt1 tau(   5) = (   2.8511018   1.6460844  12.3279149  )
         6           Pt1 tau(   6) = (   1.4255509   4.1152110  12.3279149  )
         7           Pt1 tau(   7) = (  -1.4255509   4.1152110  12.3279149  )
         8           Au1 tau(   8) = (   0.0000000   1.6460844  12.3279149  )
         9           Pt1 tau(   9) = (   0.0000076   3.3050238  14.6360414  )
        10           Pt1 tau(  10) = (   1.4366861   0.8166069  14.6360395  )
        11           Pt1 tau(  11) = (   4.2655186   0.8165999  14.6360363  )
        12           Au1 tau(  12) = (   2.8511034   3.2921577  14.8628648  )

     number of k points=    20  Fermi-Dirac smearing, width (Ry)=  0.0110
                       cart. coord. in units 2pi/alat
        k(    1) = (   0.0000000   0.0000000   0.0000000), wk =   0.0555556
        k(    2) = (   0.0000000   0.0337501   0.0000000), wk =   0.1111111
        k(    3) = (   0.0000000   0.0675003   0.0000000), wk =   0.1111111
        k(    4) = (   0.0000000  -0.1012504   0.0000000), wk =   0.0555556
        k(    5) = (   0.0292285   0.0168751   0.0000000), wk =   0.1111111
        k(    6) = (   0.0292285   0.0506252   0.0000000), wk =   0.1111111
        k(    7) = (   0.0292285   0.0843753   0.0000000), wk =   0.1111111
        k(    8) = (   0.0292285  -0.0843753   0.0000000), wk =   0.1111111
        k(    9) = (   0.0292285  -0.0506252   0.0000000), wk =   0.1111111
        k(   10) = (   0.0292285  -0.0168751   0.0000000), wk =   0.1111111
        k(   11) = (   0.0584569   0.0337501   0.0000000), wk =   0.1111111
        k(   12) = (   0.0584569   0.0675003   0.0000000), wk =   0.1111111
        k(   13) = (   0.0584569   0.1012504   0.0000000), wk =   0.1111111
        k(   14) = (   0.0584569  -0.0675003   0.0000000), wk =   0.1111111
        k(   15) = (   0.0584569  -0.0337501   0.0000000), wk =   0.1111111
        k(   16) = (   0.0584569   0.0000000   0.0000000), wk =   0.1111111
        k(   17) = (  -0.0876854  -0.0506252   0.0000000), wk =   0.0555556
        k(   18) = (  -0.0876854  -0.0168751   0.0000000), wk =   0.1111111
        k(   19) = (  -0.0876854   0.0168751   0.0000000), wk =   0.1111111
        k(   20) = (  -0.0876854  -0.1518756   0.0000000), wk =   0.0555556

     Largest allocated arrays     est. size (Mb)     dimensions
     Largest temporary arrays     est. size (Mb)     dimensions

     Check: negative/imaginary core charge=   -0.000001    0.000000

     Initial potential from superposition of free atoms
     Check: negative starting charge=   -1.641115

     starting charge  172.49953, renormalised to  177.00000

[...]

     *
     * You are using vdW-DF for exchange-correlation in this calculation.
     * Please cite the following three references that made this development
     * possible:
     *
     *   M. Dion, H. Rydberg, E. Schroder, D. C. Langreth, and
     *   B. I. Lundqvist, Phys. Rev. Lett. 92, 246401 (2004).
     *
     *   T. Thonhauser, V. R. Cooper, S. Li, A. Puzder, P. Hyldgaard, and
     *   D. C. Langreth, Phys. Rev. B 76, 125112 (2007).
     *
     *   G. Roman-Perez and J. M. Soler, Phys. Rev. Lett. 103, 096102 (2009).
     *
     *
     * If you are using vdW-DF2, please also cite:
     *
     *   K. Lee, E. D. Murray, L. Kong, B. I. Lundqvist, and
     *   D. C. Langreth, Phys. Rev. B 82, 081101(R) (2010).
     *
     *
     * If you are calculating the stress with vdW-DF, please also cite:
     *
     *   R. Sabatini, E. Kucukbenli, B. Kolb, T. Thonhauser, and
     *   S. de Gironcoli, J. Phys.: Condens. Matter 24, 424209 (2012).
     *

     Carrying out vdW-DF run using the following parameters:

     Nqs =      20    Nr_points =    1024   r_max =   100.000
     q_mesh =
               0.00001000     0.04494208     0.09755937     0.15916263
               0.23128650     0.31572767     0.41458969     0.53033537
               0.66584808     0.82450364     1.01025438     1.22772762
               1.48234092     1.78043706     2.12944203     2.53805004
               3.01644009     3.57652955     4.23227104     5.00000000

     Gradients computed in reciprocal space

[...]

     Starting wfc are  135 randomized atomic wfcs

     Self-consistent Calculation

[...]

     total energy              =   -2261.17785674 Ry
     Harris-Foulkes estimate   =   -2261.17784947 Ry
     estimated scf accuracy    <       0.00000260 Ry

     iteration # 16     ecut=    36.75 Ry     beta=0.10
     Davidson diagonalization with overlap
     ethr =  1.47E-09,  avg # of iterations =  2.1

[...]

     negative rho (up, down):  1.584E+00 0.000E+00

     Adding external electric field

     Computed dipole along edir(3) :
        Dipole               -0.0055 Ry au,         -0.0140 Debye
        Dipole field         -0.0000 Ry au

        Potential amp.        0.0013 Ry
        Total length         45.4279 bohr

     End of self-consistent calculation

[...]

          k = 0.0585 0.0000 0.0000 ( 17629 PWs)   bands (ev):

[...]

          k =-0.0877-0.1519 0.0000 ( 17588 PWs)   bands (ev):

   -51.4290 -51.3706 -51.3367 -51.3183 -51.2927 -51.2701 -51.2695 -51.2520
   -51.1967 -51.1833 -51.1569 -51.1069 -51.0816 -51.0783 -51.0746 -51.0646
   -51.0604 -51.0512 -51.0439 -51.0062 -50.9835 -50.8729 -50.8671 -50.8585
   -50.8375 -50.8292 -50.8224  -5.5221  -5.3758  -4.3290  -4.2045  -4.1290
    -4.0462  -3.8501  -3.7903  -3.7631  -3.6651  -3.6306  -3.4804  -3.2938
    -3.1896  -3.1478  -3.0081  -2.9373  -2.9321  -2.6869  -2.6632  -2.5860
    -2.4692  -2.3717  -2.3383  -2.3128  -2.2277  -2.1606  -1.9664  -1.8912
    -1.7870  -1.5749  -1.5425  -1.5303  -1.4861  -1.4139  -1.3438  -1.3267
    -1.3169  -1.2932  -1.2339  -1.0357  -0.9270  -0.7253  -0.7151  -0.6353
    -0.6318  -0.4198  -0.3621  -0.3580  -0.2356  -0.1374  -0.0601  -0.0561
     0.0274   0.1943   0.2769   0.3287   0.4591   0.6309   0.7091   0.7411
     0.8698   1.0813   1.4247   2.4676   2.5628   2.6635   3.2137   3.5965
     3.9718   5.3866   5.5351   5.6406   5.7713   7.2299   7.2712   7.8759
     7.8984   7.9288   7.9448   8.1360   8.3288   8.6369   8.8330   8.8390
     8.8623   9.0834   9.1258   9.4136   9.4541  10.0896

     the Fermi energy is     1.1023 ev

!    total energy              =   -2261.17788378 Ry
     Harris-Foulkes estimate   =   -2261.17785689 Ry
     estimated scf accuracy    <       0.00000086 Ry

     The total energy is the sum of the following terms:

     one-electron contribution =  -16265.70735786 Ry
     hartree contribution      =    8183.91495821 Ry
     xc contribution           =    -719.43389572 Ry
     ewald contribution        =    6540.13222355 Ry
     electric field correction =       0.00000008 Ry
     smearing contrib. (-TS)   =      -0.08381204 Ry

     convergence has been achieved in  16 iterations

 BEEF-vdW xc energy contributions
           1 :   -641.339822584672
           2 :    596.713942672208
           3 :   -516.720186639159
           4 :    416.656211352674
           5 :   -313.238592204776
           6 :    220.280642136762
           7 :   -145.952761933915
           8 :    92.1637477542033
           9 :   -55.9199937894622
          10 :    31.8428014783683
          11 :   -14.7478855529946
          12 :    1.32551965831703
          13 :    9.47774857705383
          14 :   -17.1840368634861
          15 :    20.9981454783356
          16 :   -20.8364246505957
          17 :    17.7161243746374
          18 :   -13.4453312842377
          19 :    9.88359621106019
          20 :   -8.20833207396277
          21 :    8.54351653013157
          22 :   -10.0931319057116
          23 :    11.6555204720089
          24 :   -12.2378125426696
          25 :    11.4746109155532
          26 :   -9.69198191684814
          27 :    7.63919330243471
          28 :   -6.06774670264940
          29 :    5.37948901176605
          30 :   -5.50304666384295
          31 :   -51.9776049145787
          32 :   -38.2687501902802

     Forces acting on atoms (Ry/au):

     negative rho (up, down):  1.584E+00 0.000E+00
     atom    1 type  1   force =     0.00000045   -0.00477073    0.00380396
     atom    2 type  1   force =    -0.00413363    0.00238423    0.00380495
     atom    3 type  1   force =     0.00413304    0.00238391    0.00380520
     atom    4 type  2   force =    -0.00000186    0.00000383   -0.03686180
     atom    5 type  1   force =     0.00000009    0.01037326    0.00830943
     atom    6 type  1   force =     0.00898363   -0.00518700    0.00830831
     atom    7 type  1   force =    -0.00898412   -0.00518730    0.00830995
     atom    8 type  2   force =     0.00000068    0.00000111   -0.00156861
     atom    9 type  1   force =    -0.00000191    0.00013993    0.00024307
     atom   10 type  1   force =     0.00012507   -0.00007033    0.00024263
     atom   11 type  1   force =    -0.00012346   -0.00006805    0.00024237
     atom   12 type  2   force =     0.00000200   -0.00000288    0.00136055

     Total force =     0.044778     Total SCF correction =     0.005180
     SCF correction compared to forces is large: reduce conv_thr to get better values

     entering subroutine stress ...

     negative rho (up, down):  1.584E+00 0.000E+00
          total   stress  (Ry/bohr**3)                   (kbar)     P=  -18.97
  -0.00019955  -0.00000000   0.00000000        -29.36     -0.00      0.00
  -0.00000000  -0.00019956  -0.00000000         -0.00    -29.36     -0.00
   0.00000000  -0.00000000   0.00001224          0.00     -0.00      1.80

 !ASE

     Writing output data file calc.save

     General routines

     Parallel routines

   This run was terminated on:  15:16:12  31Dec2018

   JOB DONE.
Job  /afs/slac/g/suncat/bin/suncat-tsmpirun -x LD_LIBRARY_PATH -wdir /scratch/qe648789_nR6ZU pw.x -in pw.inp

TID   HOST_NAME   COMMAND_LINE            STATUS            TERMINATION_TIME
00000 suncat0062 pw.x -in pw.inp   Done                     12/31/2018 15:16:12
00001 suncat0062 pw.x -in pw.inp   Done                     12/31/2018 15:16:12
00002 suncat0062 pw.x -in pw.inp   Done                     12/31/2018 15:16:12
00003 suncat0062 pw.x -in pw.inp   Done                     12/31/2018 15:16:12
00004 suncat0062 pw.x -in pw.inp   Done                     12/31/2018 15:16:12
00005 suncat0062 pw.x -in pw.inp   Done                     12/31/2018 15:16:12
00006 suncat0062 pw.x -in pw.inp   Done                     12/31/2018 15:16:12
00007 suncat0062 pw.x -in pw.inp   Done                     12/31/2018 15:16:12
00008 suncat0061 pw.x -in pw.inp   Done                     12/31/2018 15:16:12
00009 suncat0061 pw.x -in pw.inp   Done                     12/31/2018 15:16:12
00010 suncat0061 pw.x -in pw.inp   Done                     12/31/2018 15:16:12
00011 suncat0061 pw.x -in pw.inp   Done                     12/31/2018 15:16:12
00012 suncat0061 pw.x -in pw.inp   Done                     12/31/2018 15:16:12
00013 suncat0061 pw.x -in pw.inp   Done                     12/31/2018 15:16:12
00014 suncat0061 pw.x -in pw.inp   Done                     12/31/2018 15:16:12
00015 suncat0061 pw.x -in pw.inp   Done                     12/31/2018 15:16:12
00016 suncat0060 pw.x -in pw.inp   Done                     12/31/2018 15:16:12
00017 suncat0060 pw.x -in pw.inp   Done                     12/31/2018 15:16:12
00018 suncat0060 pw.x -in pw.inp   Done                     12/31/2018 15:16:12
00019 suncat0060 pw.x -in pw.inp   Done                     12/31/2018 15:16:12
00020 suncat0060 pw.x -in pw.inp   Done                     12/31/2018 15:16:12
00021 suncat0060 pw.x -in pw.inp   Done                     12/31/2018 15:16:12
00022 suncat0060 pw.x -in pw.inp   Done                     12/31/2018 15:16:12
00023 suncat0060 pw.x -in pw.inp   Done                     12/31/2018 15:16:12
00024 suncat0057 pw.x -in pw.inp   Done                     12/31/2018 15:16:12
00025 suncat0057 pw.x -in pw.inp   Done                     12/31/2018 15:16:12
00026 suncat0057 pw.x -in pw.inp   Done                     12/31/2018 15:16:12
00027 suncat0057 pw.x -in pw.inp   Done                     12/31/2018 15:16:12
00028 suncat0057 pw.x -in pw.inp   Done                     12/31/2018 15:16:12
00029 suncat0057 pw.x -in pw.inp   Done                     12/31/2018 15:16:12
00030 suncat0057 pw.x -in pw.inp   Done                     12/31/2018 15:16:12
00031 suncat0057 pw.x -in pw.inp   Done                     12/31/2018 15:16:12
00032 suncat0016 pw.x -in pw.inp   Done                     12/31/2018 15:16:12
00033 suncat0016 pw.x -in pw.inp   Done                     12/31/2018 15:16:12
00034 suncat0016 pw.x -in pw.inp   Done                     12/31/2018 15:16:12
00035 suncat0016 pw.x -in pw.inp   Done                     12/31/2018 15:16:12
00036 suncat0016 pw.x -in pw.inp   Done                     12/31/2018 15:16:12
00037 suncat0016 pw.x -in pw.inp   Done                     12/31/2018 15:16:12
00038 suncat0016 pw.x -in pw.inp   Done                     12/31/2018 15:16:12
00039 suncat0016 pw.x -in pw.inp   Done                     12/31/2018 15:16:12
00040 suncat0198 pw.x -in pw.inp   Done                     12/31/2018 15:16:12
00041 suncat0198 pw.x -in pw.inp   Done                     12/31/2018 15:16:12
00042 suncat0198 pw.x -in pw.inp   Done                     12/31/2018 15:16:12
00043 suncat0198 pw.x -in pw.inp   Done                     12/31/2018 15:16:12
00044 suncat0198 pw.x -in pw.inp   Done                     12/31/2018 15:16:12
00045 suncat0198 pw.x -in pw.inp   Done                     12/31/2018 15:16:12
00046 suncat0198 pw.x -in pw.inp   Done                     12/31/2018 15:16:12
00047 suncat0198 pw.x -in pw.inp   Done                     12/31/2018 15:16:12
00048 suncat0194 pw.x -in pw.inp   Done                     12/31/2018 15:16:12
00049 suncat0194 pw.x -in pw.inp   Done                     12/31/2018 15:16:12
00050 suncat0194 pw.x -in pw.inp   Done                     12/31/2018 15:16:12
00051 suncat0194 pw.x -in pw.inp   Done                     12/31/2018 15:16:12
00052 suncat0194 pw.x -in pw.inp   Done                     12/31/2018 15:16:12
00053 suncat0194 pw.x -in pw.inp   Done                     12/31/2018 15:16:12
00054 suncat0194 pw.x -in pw.inp   Done                     12/31/2018 15:16:12
00055 suncat0194 pw.x -in pw.inp   Done                     12/31/2018 15:16:12
00056 suncat0193 pw.x -in pw.inp   Done                     12/31/2018 15:16:12
00057 suncat0193 pw.x -in pw.inp   Done                     12/31/2018 15:16:12
00058 suncat0193 pw.x -in pw.inp   Done                     12/31/2018 15:16:12
00059 suncat0193 pw.x -in pw.inp   Done                     12/31/2018 15:16:12
00060 suncat0193 pw.x -in pw.inp   Done                     12/31/2018 15:16:12
00061 suncat0193 pw.x -in pw.inp   Done                     12/31/2018 15:16:12
00062 suncat0193 pw.x -in pw.inp   Done                     12/31/2018 15:16:12
00063 suncat0193 pw.x -in pw.inp   Done                     12/31/2018 15:16:12