     Program PWSCF v.5.1rc2 (svn rev. 11289) starts on 27Dec2018 at 15: 4:13

     Current dimensions of program PWSCF are:
     Max number of different atomic species (ntypx) = 10
     Max number of k-points (npk) =  40000
     Max angular momentum in pseudopotentials (lmaxx) =  3
     Presently stress not available with electric field

     IMPORTANT: XC functional enforced from input :
     Exchange-correlation      = BEEF-VDW ( 1  4 27 13 2)
     Any further DFT definition will be discarded
     Please, verify this is what you really want

     Subspace diagonalization in iterative solution of the eigenvalue problem:
     a serial algorithm will be used

     bravais-lattice index     =            0
     lattice parameter (alat)  =       1.8897  a.u.
     unit-cell volume          =    6711.7160 (a.u.)^3
     number of atoms/cell      =           12
     number of atomic types    =            2
     number of electrons       =       174.00
     number of Kohn-Sham states=          117
     kinetic-energy cutoff     =      36.7493  Ry
     charge density cutoff     =     367.4932  Ry
     convergence threshold     =      1.0E-06
     mixing beta               =       0.1000
     number of iterations used =           10  plain     mixing
     Exchange-correlation      = BEEF-VDW ( 1  4 27 13 2)
     nstep                     =           50

     celldm(1)=   1.889726  celldm(2)=   0.000000  celldm(3)=   0.000000
     celldm(4)=   0.000000  celldm(5)=   0.000000  celldm(6)=   0.000000

     crystal axes: (cart. coord. in units of alat)
               a(1) = (   6.713378   0.000000   0.000000 )
               a(2) = (  -3.356689   5.813956   0.000000 )
               a(3) = (   0.000000   0.000000  25.481450 )

     reciprocal axes: (cart. coord. in units 2 pi/alat)
               b(1) = (  0.148956  0.086000  0.000000 )
               b(2) = (  0.000000  0.172000  0.000000 )
               b(3) = (  0.000000  0.000000  0.039244 )

     PseudoPot. # 1 for Pb read from file:
     /afs/slac.stanford.edu/u/if/mamunm/psp/gbrv1.5pbe/Pb.UPF
     MD5 check sum: 3d1c1779aa92214d1e8f3a7db79003e2
     Pseudo is Ultrasoft + core correction, Zval = 14.0
     Generated by new atomic code, or converted to UPF format
     Using radial grid of  899 points,  6 beta functions with:
                l(1) =   0
                l(2) =   0
                l(3) =   1
                l(4) =   1
                l(5) =   2
                l(6) =   2
     Q(r) pseudized with  6 coefficients,  rinner =    1.000   1.000   1.000
                                                       1.000   1.000

     PseudoPot. # 2 for Pt read from file:
     /afs/slac.stanford.edu/u/if/mamunm/psp/gbrv1.5pbe/Pt.UPF
     MD5 check sum: f09d6de1a584b5a045c4fc126da2d0c4
     Pseudo is Ultrasoft + core correction, Zval = 16.0
     Generated by new atomic code, or converted to UPF format
     Using radial grid of  985 points,  6 beta functions with:
                l(1) =   0
                l(2) =   0
                l(3) =   1
                l(4) =   1
                l(5) =   2
                l(6) =   2
     Q(r) pseudized with  8 coefficients,  rinner =    1.300   1.300   1.300
                                                       1.300   1.300

     vdW kernel table read from file vdW_kernel_table
     MD5 check sum: 095c7af220d748ca6e76c0b4c6cfb241

     atomic species   valence    mass     pseudopotential
        Pb1           14.00   207.20000     Pb( 1.00)
        Pt1           16.00   195.08400     Pt( 1.00)

     No symmetry found

   Cartesian axes

     site n.     atom                  positions (alat units)
         1           Pb1 tau(   1) = (   0.0000000   0.0000000  10.0000000  )
         2           Pb1 tau(   2) = (  -1.6783445   2.9069779  10.0000000  )
         3           Pb1 tau(   3) = (   1.6783445   2.9069779  10.0000000  )
         4           Pt1 tau(   4) = (   3.3566890   0.0000000  10.0000000  )
         5           Pb1 tau(   5) = (   3.3566890   1.9379853  12.7407251  )
         6           Pb1 tau(   6) = (   1.6783445   4.8449632  12.7407251  )
         7           Pb1 tau(   7) = (  -1.6783445   4.8449632  12.7407251  )
         8           Pt1 tau(   8) = (   0.0000000   1.9379853  12.7407251  )
         9           Pb1 tau(   9) = (  -0.0000000   3.8759706  15.4814502  )
        10           Pb1 tau(  10) = (   1.6783445   0.9689926  15.4814502  )
        11           Pb1 tau(  11) = (   5.0350335   0.9689926  15.4814502  )
        12           Pt1 tau(  12) = (   3.3566890   3.8759706  15.4814502  )

     number of k points=    20  Fermi-Dirac smearing, width (Ry)=  0.0110
                       cart. coord. in units 2pi/alat
        k(    1) = (   0.0000000   0.0000000   0.0000000), wk =   0.0555556
        k(    2) = (   0.0000000   0.0286667   0.0000000), wk =   0.1111111
        k(    3) = (   0.0000000   0.0573333   0.0000000), wk =   0.1111111
        k(    4) = (   0.0000000  -0.0860000   0.0000000), wk =   0.0555556
        k(    5) = (   0.0248261   0.0143333   0.0000000), wk =   0.1111111
        k(    6) = (   0.0248261   0.0430000   0.0000000), wk =   0.1111111
        k(    7) = (   0.0248261   0.0716666   0.0000000), wk =   0.1111111
        k(    8) = (   0.0248261  -0.0716666   0.0000000), wk =   0.1111111
        k(    9) = (   0.0248261  -0.0430000   0.0000000), wk =   0.1111111
        k(   10) = (   0.0248261  -0.0143333   0.0000000), wk =   0.1111111
        k(   11) = (   0.0496521   0.0286667   0.0000000), wk =   0.1111111
        k(   12) = (   0.0496521   0.0573333   0.0000000), wk =   0.1111111
        k(   13) = (   0.0496521   0.0860000   0.0000000), wk =   0.1111111
        k(   14) = (   0.0496521  -0.0573333   0.0000000), wk =   0.1111111
        k(   15) = (   0.0496521  -0.0286667   0.0000000), wk =   0.1111111
        k(   16) = (   0.0496521   0.0000000   0.0000000), wk =   0.1111111
        k(   17) = (  -0.0744782  -0.0430000   0.0000000), wk =   0.0555556
        k(   18) = (  -0.0744782  -0.0143333   0.0000000), wk =   0.1111111
        k(   19) = (  -0.0744782   0.0143333   0.0000000), wk =   0.1111111
        k(   20) = (  -0.0744782  -0.1289999   0.0000000), wk =   0.0555556

     Largest allocated arrays     est. size (Mb)     dimensions
     Largest temporary arrays     est. size (Mb)     dimensions

     Check: negative/imaginary core charge=   -0.000001    0.000000

     Initial potential from superposition of free atoms
     Check: negative starting charge=   -0.702415

     starting charge  172.47880, renormalised to  174.00000

     negative rho (up, down):  7.086E-01 0.000E+00

     *
     * You are using vdW-DF for exchange-correlation in this calculation.
     * Please cite the following three references that made this development
     * possible:
     *
     *   M. Dion, H. Rydberg, E. Schroder, D. C. Langreth, and
     *   B. I. Lundqvist, Phys. Rev. Lett. 92, 246401 (2004).
     *
     *   T. Thonhauser, V. R. Cooper, S. Li, A. Puzder, P. Hyldgaard, and
     *   D. C. Langreth, Phys. Rev. B 76, 125112 (2007).
     *
     *   G. Roman-Perez and J. M. Soler, Phys. Rev. Lett. 103, 096102 (2009).
     *
     *
     * If you are using vdW-DF2, please also cite:
     *
     *   K. Lee, E. D. Murray, L. Kong, B. I. Lundqvist, and
     *   D. C. Langreth, Phys. Rev. B 82, 081101(R) (2010).
     *
     *
     * If you are calculating the stress with vdW-DF, please also cite:
     *
     *   R. Sabatini, E. Kucukbenli, B. Kolb, T. Thonhauser, and
     *   S. de Gironcoli, J. Phys.: Condens. Matter 24, 424209 (2012).
     *

     Carrying out vdW-DF run using the following parameters:

     Nqs =      20    Nr_points =    1024   r_max =   100.000
     q_mesh =
               0.00001000     0.04494208     0.09755937     0.15916263
               0.23128650     0.31572767     0.41458969     0.53033537
               0.66584808     0.82450364     1.01025438     1.22772762
               1.48234092     1.78043706     2.12944203     2.53805004
               3.01644009     3.57652955     4.23227104     5.00000000

     Gradients computed in reciprocal space

     Adding external electric field

     Computed dipole along edir(3) :
        Dipole                0.0000 Ry au,          0.0000 Debye
        Dipole field          0.0000 Ry au

        Potential amp.       -0.0000 Ry
        Total length         46.9491 bohr

     Starting wfc are  117 randomized atomic wfcs

     Self-consistent Calculation

     iteration #  1     ecut=    36.75 Ry     beta=0.10
     Davidson diagonalization with overlap
     ethr =  1.00E-02,  avg # of iterations =  7.5

     Threshold (ethr) on eigenvalues was too large:
     Diagonalizing with lowered threshold

     Davidson diagonalization with overlap
     ethr =  3.07E-04,  avg # of iterations =  4.8

[...]

     total energy              =   -2131.25598754 Ry
     Harris-Foulkes estimate   =   -2131.33429709 Ry
     estimated scf accuracy    <       0.60399558 Ry

[...]

     End of self-consistent calculation

          k = 0.0000 0.0000 0.0000 ( 25317 PWs)   bands (ev):

   -50.7277 -50.6905 -50.6905 -50.3044 -50.3044 -50.3043 -50.3043 -50.2132
   -50.2132 -16.4248 -16.4025 -16.3894 -16.3894 -16.3656 -16.3408 -16.3408
   -16.3325 -16.2852 -16.2852 -16.2809 -16.2697 -16.2697 -16.2459 -16.2198
   -16.2159 -16.2159 -16.2100 -16.2100 -16.2028 -16.1249 -16.1186 -16.1186
   -16.1157 -16.1116 -16.1116 -16.1044 -16.1044 -16.0936 -16.0739 -16.0739
   -16.0355 -16.0354 -16.0260 -16.0260 -16.0194 -16.0194 -15.9704 -15.9704
   -15.9600 -15.9311 -15.9258 -15.9253 -15.9253 -15.8759  -9.9785  -8.9176
    -7.5594  -6.7580  -6.7580  -6.2086  -6.2086  -5.5082  -5.5082  -2.8806
    -2.5128  -1.9895  -1.5853  -1.5853  -1.3658  -1.0782  -1.0782  -0.6307
    -0.5732  -0.5732  -0.5602  -0.5602  -0.4873  -0.3379  -0.3379  -0.3030
    -0.3030  -0.2296  -0.2296  -0.2042  -0.2042  -0.1044  -0.0442   0.2310
     0.2310   0.9719   1.1032   2.1980   3.2306   3.2306   3.3856   3.3856
     3.9856   4.4687   4.5790   4.6377   5.0263   5.4468   5.4468   5.6520
     5.7907   5.8911   5.9758   5.9758   6.7161   6.8673   6.8673   7.1006
     7.4073   7.4543   7.5689   7.7920   7.7920

[...]

          k =-0.0745-0.0430 0.0000 ( 25258 PWs)   bands (ev):

[...]

     the Fermi energy is     1.1428 ev

!    total energy              =   -2131.15898358 Ry
     Harris-Foulkes estimate   =   -2131.15890206 Ry
     estimated scf accuracy    <       0.00000066 Ry

     The total energy is the sum of the following terms:

     one-electron contribution =  -10862.06654240 Ry
     hartree contribution      =    5493.11142347 Ry
     xc contribution           =    -763.60522648 Ry
     ewald contribution        =    4001.43892615 Ry
     electric field correction =       0.00000000 Ry
     smearing contrib. (-TS)   =      -0.03756432 Ry

     convergence has been achieved in  14 iterations

 BEEF-vdW xc energy contributions
           1 :   -680.534279282707
           2 :    632.129135323192
           3 :   -546.693241376611
           4 :    442.615572597133
           5 :   -338.971555052249
           6 :    249.882998146835
[...]
     Using radial grid of  899 points,  6 beta functions with:
                l(1) =   0
                l(2) =   0
                l(3) =   1
                l(4) =   1
                l(5) =   2
                l(6) =   2
     Q(r) pseudized with  6 coefficients,  rinner =    1.000   1.000   1.000
                                                       1.000   1.000

     PseudoPot. # 2 for Pt read from file:
     /afs/slac.stanford.edu/u/if/mamunm/psp/gbrv1.5pbe/Pt.UPF
     MD5 check sum: f09d6de1a584b5a045c4fc126da2d0c4
     Pseudo is Ultrasoft + core correction, Zval = 16.0
     Generated by new atomic code, or converted to UPF format
     Using radial grid of  985 points,  6 beta functions with:
                l(1) =   0
                l(2) =   0
                l(3) =   1
                l(4) =   1
                l(5) =   2
                l(6) =   2
     Q(r) pseudized with  8 coefficients,  rinner =    1.300   1.300   1.300
                                                       1.300   1.300

     vdW kernel table read from file vdW_kernel_table
     MD5 check sum: 095c7af220d748ca6e76c0b4c6cfb241

     atomic species   valence    mass     pseudopotential
        Pb1           14.00   207.20000     Pb( 1.00)
        Pt1           16.00   195.08400     Pt( 1.00)

     No symmetry found

   Cartesian axes

     site n.     atom                  positions (alat units)
         1           Pb1 tau(   1) = (   0.0000000   0.0000000  10.0000000  )
         2           Pb1 tau(   2) = (  -1.6783445   2.9069779  10.0000000  )
         3           Pb1 tau(   3) = (   1.6783445   2.9069779  10.0000000  )
         4           Pt1 tau(   4) = (   3.3566890   0.0000000  10.0000000  )
         5           Pb1 tau(   5) = (   3.3566890   1.9379853  12.7407251  )
         6           Pb1 tau(   6) = (   1.6783445   4.8449632  12.7407251  )
         7           Pb1 tau(   7) = (  -1.6783445   4.8449632  12.7407251  )
         8           Pt1 tau(   8) = (   0.0000000   1.9379853  12.7407251  )
         9           Pb1 tau(   9) = (  -0.0000359   3.8044894  15.4713951  )
        10           Pb1 tau(  10) = (   1.6164680   1.0046883  15.4714143  )
        11           Pb1 tau(  11) = (   5.0968908   1.0046323  15.4714593  )
        12           Pt1 tau(  12) = (   3.3566709   3.8759988  14.9501646  )

     number of k points=    20  Fermi-Dirac smearing, width (Ry)=  0.0110
                       cart. coord. in units 2pi/alat
        k(    1) = (   0.0000000   0.0000000   0.0000000), wk =   0.0555556
        k(    2) = (   0.0000000   0.0286667   0.0000000), wk =   0.1111111
        k(    3) = (   0.0000000   0.0573333   0.0000000), wk =   0.1111111
        k(    4) = (   0.0000000  -0.0860000   0.0000000), wk =   0.0555556
        k(    5) = (   0.0248261   0.0143333   0.0000000), wk =   0.1111111
        k(    6) = (   0.0248261   0.0430000   0.0000000), wk =   0.1111111
        k(    7) = (   0.0248261   0.0716666   0.0000000), wk =   0.1111111
        k(    8) = (   0.0248261  -0.0716666   0.0000000), wk =   0.1111111
        k(    9) = (   0.0248261  -0.0430000   0.0000000), wk =   0.1111111
        k(   10) = (   0.0248261  -0.0143333   0.0000000), wk =   0.1111111
        k(   11) = (   0.0496521   0.0286667   0.0000000), wk =   0.1111111
        k(   12) = (   0.0496521   0.0573333   0.0000000), wk =   0.1111111
        k(   13) = (   0.0496521   0.0860000   0.0000000), wk =   0.1111111
        k(   14) = (   0.0496521  -0.0573333   0.0000000), wk =   0.1111111
        k(   15) = (   0.0496521  -0.0286667   0.0000000), wk =   0.1111111
        k(   16) = (   0.0496521   0.0000000   0.0000000), wk =   0.1111111
        k(   17) = (  -0.0744782  -0.0430000   0.0000000), wk =   0.0555556
        k(   18) = (  -0.0744782  -0.0143333   0.0000000), wk =   0.1111111
        k(   19) = (  -0.0744782   0.0143333   0.0000000), wk =   0.1111111
        k(   20) = (  -0.0744782  -0.1289999   0.0000000), wk =   0.0555556

     Largest allocated arrays     est. size (Mb)     dimensions
     Largest temporary arrays     est. size (Mb)     dimensions

     Check: negative/imaginary core charge=   -0.000001    0.000000

     Initial potential from superposition of free atoms
     Check: negative starting charge=   -0.702758

     starting charge  172.47880, renormalised to  174.00000

[...]

     *
     * You are using vdW-DF for exchange-correlation in this calculation.
     * Please cite the following three references that made this development
     * possible:
     *
     *   M. Dion, H. Rydberg, E. Schroder, D. C. Langreth, and
     *   B. I. Lundqvist, Phys. Rev. Lett. 92, 246401 (2004).
     *
     *   T. Thonhauser, V. R. Cooper, S. Li, A. Puzder, P. Hyldgaard, and
     *   D. C. Langreth, Phys. Rev. B 76, 125112 (2007).
     *
     *   G. Roman-Perez and J. M. Soler, Phys. Rev. Lett. 103, 096102 (2009).
     *
     *
     * If you are using vdW-DF2, please also cite:
     *
     *   K. Lee, E. D. Murray, L. Kong, B. I. Lundqvist, and
     *   D. C. Langreth, Phys. Rev. B 82, 081101(R) (2010).
     *
     *
     * If you are calculating the stress with vdW-DF, please also cite:
     *
     *   R. Sabatini, E. Kucukbenli, B. Kolb, T. Thonhauser, and
     *   S. de Gironcoli, J. Phys.: Condens. Matter 24, 424209 (2012).
     *

     Carrying out vdW-DF run using the following parameters:

     Nqs =      20    Nr_points =    1024   r_max =   100.000
     q_mesh =
               0.00001000     0.04494208     0.09755937     0.15916263
               0.23128650     0.31572767     0.41458969     0.53033537
               0.66584808     0.82450364     1.01025438     1.22772762
               1.48234092     1.78043706     2.12944203     2.53805004
               3.01644009     3.57652955     4.23227104     5.00000000

     Gradients computed in reciprocal space

[...]

     Starting wfc are  117 randomized atomic wfcs

     Self-consistent Calculation

[...]

     Threshold (ethr) on eigenvalues was too large:
     Diagonalizing with lowered threshold

     Davidson diagonalization with overlap
     ethr =  7.05E-04,  avg # of iterations =  2.6

[...]

     total energy              =   -2131.18524013 Ry
     Harris-Foulkes estimate   =   -2131.18520223 Ry
     estimated scf accuracy    <       0.00000127 Ry

     iteration # 15     ecut=    36.75 Ry     beta=0.10
     Davidson diagonalization with overlap
     ethr =  7.29E-10,  avg # of iterations =  2.9

[...]

     negative rho (up, down):  6.906E-01 0.000E+00

     Adding external electric field

     Computed dipole along edir(3) :
        Dipole                0.1015 Ry au,          0.2580 Debye
        Dipole field          0.0002 Ry au

        Potential amp.       -0.0178 Ry
        Total length         46.9491 bohr

     End of self-consistent calculation

[...]

          k = 0.0497 0.0000 0.0000 ( 25212 PWs)   bands (ev):

[...]

          k =-0.0745-0.1290 0.0000 ( 25258 PWs)   bands (ev):

   -50.6896 -50.6385 -50.6385 -50.6193 -50.6038 -50.6038 -50.1754 -50.1754
   -50.0491 -16.3270 -16.2960 -16.2532 -16.2326 -16.2158 -16.1999 -16.1976
   -16.1885 -16.1848 -16.1736 -16.1627 -16.1456 -16.1439 -16.1411 -16.1325
   -16.1176 -16.1157 -16.1125 -16.1086 -16.1063 -16.1029 -16.0920 -16.0875
   -16.0761 -16.0679 -16.0605 -16.0544 -16.0401 -16.0218 -16.0149 -15.9926
   -15.9840 -15.9830 -15.9702 -15.9562 -15.9523 -15.9461 -15.9381 -15.9355
   -15.9260 -15.9134 -15.9082 -15.8768 -15.8647 -15.8005  -9.0364  -8.7815
    -8.0004  -7.5566  -7.0034  -6.9608  -6.4847  -6.1781  -5.2938  -2.9947
    -2.4637  -1.8425  -1.4957  -1.3405  -1.2970  -1.1424  -1.1245  -1.0456
    -0.9917  -0.7650  -0.7189  -0.5830  -0.4480  -0.2121  -0.1910  -0.0916
    -0.0753   0.1130   0.4099   0.7100   0.9192   0.9243   1.0535   1.8057
     1.8931   1.9671   1.9734   2.4423   2.5430   2.9425   3.4953   3.5514
     3.6339   3.7427   4.4817   4.5352   4.7398   4.7850   4.9133   5.1348
     5.4575   5.5973   5.7234   5.9691   6.0480   6.2390   6.3451   6.3780
     6.4951   6.6479   6.6714   6.8763   7.0240

     the Fermi energy is     1.2122 ev

!    total energy              =   -2131.18528776 Ry
     Harris-Foulkes estimate   =   -2131.18524025 Ry
     estimated scf accuracy    <       0.00000032 Ry

     The total energy is the sum of the following terms:

     one-electron contribution =  -11092.35670658 Ry
     hartree contribution      =    5608.51642683 Ry
     xc contribution           =    -763.72411805 Ry
     ewald contribution        =    4116.41564134 Ry
     electric field correction =       0.00001928 Ry
     smearing contrib. (-TS)   =      -0.03655059 Ry

     convergence has been achieved in  15 iterations

 BEEF-vdW xc energy contributions
           1 :   -680.666331401988
           2 :    632.345717430404
           3 :   -547.010063795519
           4 :    442.957876437697
           5 :   -339.213102104059
           6 :    249.921259436732
           7 :   -181.348582450461
           8 :    132.161521610417
           9 :   -96.3690877612554
          10 :    67.2959430281416
          11 :   -40.7476345578718
          12 :    16.1470832378085
          13 :    4.43328396029005
          14 :   -18.4211114599005
          15 :    24.7376818704290
          16 :   -24.6260620953756
          17 :    21.0649454380296
          18 :   -17.2948106457216
          19 :    15.3605885957764
          20 :   -15.4518088652285
          21 :    16.2919334854145
          22 :   -16.2365234312546
          23 :    14.3872267910406
          24 :   -11.1064051049615
          25 :    7.71624563075147
          26 :   -5.64987580838647
          27 :    5.59689441906551
          28 :   -7.13786322910357
          29 :    9.03877762108664
          30 :   -9.99222914322991
          31 :   -54.6498122511961
          32 :   -40.0696431093013

     Forces acting on atoms (Ry/au):

     negative rho (up, down):  6.906E-01 0.000E+00
     atom    1 type  1   force =     0.00000322    0.01770232   -0.00281981
     atom    2 type  1   force =     0.01532834   -0.00885154   -0.00282925
     atom    3 type  1   force =    -0.01533263   -0.00885054   -0.00282537
     atom    4 type  2   force =     0.00000033    0.00000037    0.02291998
     atom    5 type  1   force =     0.00000129   -0.00902607   -0.00462915
     atom    6 type  1   force =    -0.00781618    0.00451454   -0.00463359
     atom    7 type  1   force =     0.00781371    0.00451267   -0.00463545
     atom    8 type  2   force =     0.00000073    0.00000086    0.00304679
     atom    9 type  1   force =    -0.00000119    0.00024081   -0.00159437
     atom   10 type  1   force =     0.00021228   -0.00012218   -0.00158714
     atom   11 type  1   force =    -0.00021065   -0.00012417   -0.00159049
     atom   12 type  2   force =     0.00000073    0.00000294    0.00117784

     Total force =     0.042621     Total SCF correction =     0.002360

     entering subroutine stress ...

     negative rho (up, down):  6.906E-01 0.000E+00
          total   stress  (Ry/bohr**3)                   (kbar)     P=   -4.29
  -0.00003675  -0.00000000  -0.00000000         -5.41     -0.00     -0.00
  -0.00000000  -0.00003675  -0.00000000         -0.00     -5.41     -0.00
  -0.00000000  -0.00000000  -0.00001396         -0.00     -0.00     -2.05

 !ASE

     Writing output data file calc.save

     General routines

     Parallel routines

   This run was terminated on:  16:59:18  27Dec2018

   JOB DONE.
Job  /afs/slac/g/suncat/bin/suncat-tsmpirun -x LD_LIBRARY_PATH -wdir /scratch/qe110404_lt9Ry pw.x -in pw.inp

TID   HOST_NAME   COMMAND_LINE            STATUS            TERMINATION_TIME
00000 suncat0139 pw.x -in pw.inp   Done                     12/27/2018 16:59:18
00001 suncat0139 pw.x -in pw.inp   Done                     12/27/2018 16:59:18
00002 suncat0139 pw.x -in pw.inp   Done                     12/27/2018 16:59:18
00003 suncat0139 pw.x -in pw.inp   Done                     12/27/2018 16:59:18
00004 suncat0139 pw.x -in pw.inp   Done                     12/27/2018 16:59:18
00005 suncat0139 pw.x -in pw.inp   Done                     12/27/2018 16:59:18
00006 suncat0139 pw.x -in pw.inp   Done                     12/27/2018 16:59:18
00007 suncat0139 pw.x -in pw.inp   Done                     12/27/2018 16:59:18
00008 suncat0124 pw.x -in pw.inp   Done                     12/27/2018 16:59:18
00009 suncat0124 pw.x -in pw.inp   Done                     12/27/2018 16:59:18
00010 suncat0124 pw.x -in pw.inp   Done                     12/27/2018 16:59:18
00011 suncat0124 pw.x -in pw.inp   Done                     12/27/2018 16:59:18
00012 suncat0124 pw.x -in pw.inp   Done                     12/27/2018 16:59:18
00013 suncat0124 pw.x -in pw.inp   Done                     12/27/2018 16:59:18
00014 suncat0124 pw.x -in pw.inp   Done                     12/27/2018 16:59:18
00015 suncat0124 pw.x -in pw.inp   Done                     12/27/2018 16:59:18
00016 suncat0123 pw.x -in pw.inp   Done                     12/27/2018 16:59:18
00017 suncat0123 pw.x -in pw.inp   Done                     12/27/2018 16:59:18
00018 suncat0123 pw.x -in pw.inp   Done                     12/27/2018 16:59:18
00019 suncat0123 pw.x -in pw.inp   Done                     12/27/2018 16:59:18
00020 suncat0123 pw.x -in pw.inp   Done                     12/27/2018 16:59:18
00021 suncat0123 pw.x -in pw.inp   Done                     12/27/2018 16:59:18
00022 suncat0123 pw.x -in pw.inp   Done                     12/27/2018 16:59:18
00023 suncat0123 pw.x -in pw.inp   Done                     12/27/2018 16:59:18
00024 suncat0122 pw.x -in pw.inp   Done                     12/27/2018 16:59:18
00025 suncat0122 pw.x -in pw.inp   Done                     12/27/2018 16:59:18
00026 suncat0122 pw.x -in pw.inp   Done                     12/27/2018 16:59:18
00027 suncat0122 pw.x -in pw.inp   Done                     12/27/2018 16:59:18
00028 suncat0122 pw.x -in pw.inp   Done                     12/27/2018 16:59:18
00029 suncat0122 pw.x -in pw.inp   Done                     12/27/2018 16:59:18
00030 suncat0122 pw.x -in pw.inp   Done                     12/27/2018 16:59:18
00031 suncat0122 pw.x -in pw.inp   Done                     12/27/2018 16:59:18
00032 suncat0241 pw.x -in pw.inp   Done                     12/27/2018 16:59:18
00033 suncat0241 pw.x -in pw.inp   Done                     12/27/2018 16:59:18
00034 suncat0241 pw.x -in pw.inp   Done                     12/27/2018 16:59:18
00035 suncat0241 pw.x -in pw.inp   Done                     12/27/2018 16:59:18
00036 suncat0241 pw.x -in pw.inp   Done                     12/27/2018 16:59:18
00037 suncat0241 pw.x -in pw.inp   Done                     12/27/2018 16:59:18
00038 suncat0241 pw.x -in pw.inp   Done                     12/27/2018 16:59:18
00039 suncat0241 pw.x -in pw.inp   Done                     12/27/2018 16:59:18
00040 suncat0240 pw.x -in pw.inp   Done                     12/27/2018 16:59:18
00041 suncat0240 pw.x -in pw.inp   Done                     12/27/2018 16:59:18
00042 suncat0240 pw.x -in pw.inp   Done                     12/27/2018 16:59:18
00043 suncat0240 pw.x -in pw.inp   Done                     12/27/2018 16:59:18
00044 suncat0240 pw.x -in pw.inp   Done                     12/27/2018 16:59:18
00045 suncat0240 pw.x -in pw.inp   Done                     12/27/2018 16:59:18
00046 suncat0240 pw.x -in pw.inp   Done                     12/27/2018 16:59:18
00047 suncat0240 pw.x -in pw.inp   Done                     12/27/2018 16:59:18
00048 suncat0239 pw.x -in pw.inp   Done                     12/27/2018 16:59:18
00049 suncat0239 pw.x -in pw.inp   Done                     12/27/2018 16:59:18
00050 suncat0239 pw.x -in pw.inp   Done                     12/27/2018 16:59:18
00051 suncat0239 pw.x -in pw.inp   Done                     12/27/2018 16:59:18
00052 suncat0239 pw.x -in pw.inp   Done                     12/27/2018 16:59:18
00053 suncat0239 pw.x -in pw.inp   Done                     12/27/2018 16:59:18
00054 suncat0239 pw.x -in pw.inp   Done                     12/27/2018 16:59:18
00055 suncat0239 pw.x -in pw.inp   Done                     12/27/2018 16:59:18
00056 suncat0098 pw.x -in pw.inp   Done                     12/27/2018 16:59:18
00057 suncat0098 pw.x -in pw.inp   Done                     12/27/2018 16:59:18
00058 suncat0098 pw.x -in pw.inp   Done                     12/27/2018 16:59:18
00059 suncat0098 pw.x -in pw.inp   Done                     12/27/2018 16:59:18
00060 suncat0098 pw.x -in pw.inp   Done                     12/27/2018 16:59:18
00061 suncat0098 pw.x -in pw.inp   Done                     12/27/2018 16:59:18
00062 suncat0098 pw.x -in pw.inp   Done                     12/27/2018 16:59:18
00063 suncat0098 pw.x -in pw.inp   Done                     12/27/2018 16:59:18