     Program PWSCF v.5.1rc2 (svn rev. 11289) starts on 26Dec2018 at 10:13:31

     Current dimensions of program PWSCF are:
     Max number of different atomic species (ntypx) = 10
     Max number of k-points (npk) =  40000
     Max angular momentum in pseudopotentials (lmaxx) =  3
     Presently stress not available with electric field

     IMPORTANT: XC functional enforced from input :
     Exchange-correlation      = BEEF-VDW ( 1  4 27 13 2)
     Any further DFT definition will be discarded
     Please, verify this is what you really want

     Subspace diagonalization in iterative solution of the eigenvalue problem:
     a serial algorithm will be used

     bravais-lattice index     =            0
     lattice parameter (alat)  =       1.8897  a.u.
     unit-cell volume          =    5500.6922 (a.u.)^3
     number of atoms/cell      =           12
     number of atomic types    =            2
     number of electrons       =       153.00
     number of Kohn-Sham states=          106
     kinetic-energy cutoff     =      36.7493  Ry
     charge density cutoff     =     367.4932  Ry
     convergence threshold     =      1.0E-06
     mixing beta               =       0.1000
     number of iterations used =           10  plain     mixing
     Exchange-correlation      = BEEF-VDW ( 1  4 27 13 2)
     nstep                     =           50

     celldm(1)=   1.889726  celldm(2)=   0.000000  celldm(3)=   0.000000
     celldm(4)=   0.000000  celldm(5)=   0.000000  celldm(6)=   0.000000

     crystal axes: (cart. coord. in units of alat)
               a(1) = (   6.134750   0.000000   0.000000 )
               a(2) = (  -3.067375   5.312849   0.000000 )
               a(3) = (   0.000000   0.000000  25.009002 )

     reciprocal axes: (cart. coord. in units 2 pi/alat)
               b(1) = (  0.163006  0.094111  0.000000 )
               b(2) = (  0.000000  0.188223  0.000000 )
               b(3) = (  0.000000  0.000000  0.039986 )

     PseudoPot. # 1 for Hg read from file:
     /afs/slac.stanford.edu/u/if/mamunm/psp/gbrv1.5pbe/Hg.UPF
     MD5 check sum: 8f42caffe07f7fd9c0a564347f8c5498
     Pseudo is Ultrasoft + core correction, Zval = 12.0
     Generated by new atomic code, or converted to UPF format
     Using radial grid of  985 points,  6 beta functions with:
                l(1) =   0
                l(2) =   0
                l(3) =   1
                l(4) =   1
                l(5) =   2
                l(6) =   2
     Q(r) pseudized with  8 coefficients,  rinner =    2.000   2.000   2.000
                                                       2.000   2.000

     PseudoPot. # 2 for Rh read from file:
     /afs/slac.stanford.edu/u/if/mamunm/psp/gbrv1.5pbe/Rh.UPF
     MD5 check sum: 761627e959a2e3a1f56b0b5fe687810e
     Pseudo is Ultrasoft + core correction, Zval = 15.0
     Generated by new atomic code, or converted to UPF format
     Using radial grid of  969 points,  7 beta functions with:
                l(1) =   0
                l(2) =   0
                l(3) =   1
                l(4) =   1
                l(5) =   2
                l(6) =   2
                l(7) =   2
     Q(r) pseudized with  8 coefficients,  rinner =    1.200   1.200   1.200
                                                       1.200   1.200

     vdW kernel table read from file vdW_kernel_table
     MD5 check sum: 095c7af220d748ca6e76c0b4c6cfb241

     atomic species   valence    mass     pseudopotential
        Hg1           12.00   200.59200     Hg( 1.00)
        Rh1           15.00   102.90550     Rh( 1.00)

     No symmetry found

   Cartesian axes

     site n.     atom                  positions (alat units)
         1           Hg1 tau(   1) = (   0.0000000   0.0000000  10.0000000  )
         2           Hg1 tau(   2) = (   4.6010625   2.6564247  10.0000000  )
         3           Hg1 tau(   3) = (   1.5336875   2.6564247  10.0000000  )
         4           Rh1 tau(   4) = (   3.0673750   0.0000000  10.0000000  )
         5           Hg1 tau(   5) = (   3.0673750   1.7709498  12.5045012  )
         6           Hg1 tau(   6) = (   1.5336875   4.4273745  12.5045012  )
         7           Hg1 tau(   7) = (  -1.5336875   4.4273745  12.5045012  )
         8           Rh1 tau(   8) = (   0.0000000   1.7709498  12.5045012  )
         9           Hg1 tau(   9) = (  -0.0000000   3.5418996  15.0090024  )
        10           Hg1 tau(  10) = (   1.5336875   0.8854749  15.0090024  )
        11           Hg1 tau(  11) = (   4.6010625   0.8854749  15.0090024  )
        12           Rh1 tau(  12) = (   3.0673750   3.5418996  15.0090024  )

     number of k points=    20  Fermi-Dirac smearing, width (Ry)=  0.0110
                       cart. coord. in units 2pi/alat
        k(    1) = (   0.0000000   0.0000000   0.0000000), wk =   0.0555556
        k(    2) = (   0.0000000   0.0313705   0.0000000), wk =   0.1111111
        k(    3) = (   0.0000000   0.0627410   0.0000000), wk =   0.1111111
        k(    4) = (   0.0000000  -0.0941115   0.0000000), wk =   0.0555556
        k(    5) = (   0.0271676   0.0156852   0.0000000), wk =   0.1111111
        k(    6) = (   0.0271676   0.0470557   0.0000000), wk =   0.1111111
        k(    7) = (   0.0271676   0.0784262   0.0000000), wk =   0.1111111
        k(    8) = (   0.0271676  -0.0784262   0.0000000), wk =   0.1111111
        k(    9) = (   0.0271676  -0.0470557   0.0000000), wk =   0.1111111
        k(   10) = (   0.0271676  -0.0156852   0.0000000), wk =   0.1111111
        k(   11) = (   0.0543353   0.0313705   0.0000000), wk =   0.1111111
        k(   12) = (   0.0543353   0.0627410   0.0000000), wk =   0.1111111
        k(   13) = (   0.0543353   0.0941115   0.0000000), wk =   0.1111111
        k(   14) = (   0.0543353  -0.0627410   0.0000000), wk =   0.1111111
        k(   15) = (   0.0543353  -0.0313705   0.0000000), wk =   0.1111111
        k(   16) = (   0.0543353   0.0000000   0.0000000), wk =   0.1111111
        k(   17) = (  -0.0815029  -0.0470557   0.0000000), wk =   0.0555556
        k(   18) = (  -0.0815029  -0.0156852   0.0000000), wk =   0.1111111
        k(   19) = (  -0.0815029   0.0156852   0.0000000), wk =   0.1111111
        k(   20) = (  -0.0815029  -0.1411672   0.0000000), wk =   0.0555556

     Largest allocated arrays     est. size (Mb)     dimensions
     Largest temporary arrays     est. size (Mb)     dimensions

     Initial potential from superposition of free atoms
     Check: negative starting charge=   -0.158950

     starting charge  151.49918, renormalised to  153.00000

     negative rho (up, down):  1.605E-01 0.000E+00

     *
     * You are using vdW-DF for exchange-correlation in this calculation.
     * Please cite the following three references that made this development
     * possible:
     *
     *   M. Dion, H. Rydberg, E. Schroder, D. C. Langreth, and
     *   B. I. Lundqvist, Phys. Rev. Lett. 92, 246401 (2004).
     *
     *   T. Thonhauser, V. R. Cooper, S. Li, A. Puzder, P. Hyldgaard, and
     *   D. C. Langreth, Phys. Rev. B 76, 125112 (2007).
     *
     *   G. Roman-Perez and J. M. Soler, Phys. Rev. Lett. 103, 096102 (2009).
     *
     *
     * If you are using vdW-DF2, please also cite:
     *
     *   K. Lee, E. D. Murray, L. Kong, B. I. Lundqvist, and
     *   D. C. Langreth, Phys. Rev. B 82, 081101(R) (2010).
     *
     *
     * If you are calculating the stress with vdW-DF, please also cite:
     *
     *   R. Sabatini, E. Kucukbenli, B. Kolb, T. Thonhauser, and
     *   S. de Gironcoli, J. Phys.: Condens. Matter 24, 424209 (2012).
     *

     Carrying out vdW-DF run using the following parameters:

     Nqs =      20    Nr_points =    1024   r_max =   100.000
     q_mesh =
               0.00001000     0.04494208     0.09755937     0.15916263
               0.23128650     0.31572767     0.41458969     0.53033537
               0.66584808     0.82450364     1.01025438     1.22772762
               1.48234092     1.78043706     2.12944203     2.53805004
               3.01644009     3.57652955     4.23227104     5.00000000

     Gradients computed in reciprocal space

     Adding external electric field

     Computed dipole along edir(3) :
        Dipole               -0.0000 Ry au,         -0.0000 Debye
        Dipole field         -0.0000 Ry au

        Potential amp.        0.0000 Ry
        Total length         46.0787 bohr

     Starting wfc are  117 randomized atomic wfcs

     Self-consistent Calculation

     iteration #  1     ecut=    36.75 Ry     beta=0.10
     Davidson diagonalization with overlap
     ethr =  1.00E-02,  avg # of iterations =  8.2

[...]

     total energy              =   -1498.29104178 Ry
     Harris-Foulkes estimate   =   -1498.95862124 Ry
     estimated scf accuracy    <       3.71409573 Ry

[...]

     iteration #  9     ecut=    36.75 Ry     beta=0.10
     Davidson diagonalization with overlap
     c_bands:  1 eigenvalues not converged
     ethr =  1.20E-05,  avg # of iterations =  6.3

[...]

     iteration # 12     ecut=    36.75 Ry     beta=0.10
     Davidson diagonalization with overlap
     c_bands:  1 eigenvalues not converged
     ethr =  3.28E-06,  avg # of iterations =  3.3

[...]

     End of self-consistent calculation

          k = 0.0000 0.0000 0.0000 ( 20695 PWs)   bands (ev):

   -44.7363 -44.7363 -44.6894 -44.6894 -44.6892 -44.6892 -44.5871 -44.5494
   -44.5492  -8.3468  -7.7706  -7.6488  -7.6488  -7.6376  -7.5171  -7.5059
    -7.3916  -7.3916  -7.3134  -7.2130  -7.2130  -7.0911  -7.0911  -6.8451
    -6.8127  -6.8044  -6.8044  -6.6653  -6.4779  -6.4779  -6.4431  -6.3554
    -6.3554  -6.3477  -6.2831  -6.2831  -6.0334  -6.0334  -5.9448  -5.9447
    -5.8854  -5.8528  -5.8528  -5.8067  -5.8067  -5.7862  -5.7862  -5.6761
    -5.5808  -5.5808  -5.5058  -5.4394  -5.3643  -5.3643  -5.1145  -5.1041
    -3.3178  -1.9845  -1.9845  -1.5968  -1.5968  -1.1421  -1.0509  -1.0509
    -0.7188  -0.4542  -0.4542  -0.1888  -0.1888  -0.0973  -0.0211  -0.0211
     0.1601   0.5534   0.5534   0.6242   0.8731   0.8731   1.1015   1.1015
     1.1779   1.3739   1.8293   1.8293   2.7854   2.7854   3.2816   3.4658
     3.4658   4.3791   4.4704   5.0379   5.1686   5.3718   6.2506   6.4501
     7.0442   7.0442   7.1680   7.1680   7.5489   7.9003   8.2318   8.4417
     8.9474   8.9477

[...]

          k =-0.0815-0.0471 0.0000 ( 20704 PWs)   bands (ev):

[...]

     the Fermi energy is     0.7164 ev

!    total energy              =   -1498.31282371 Ry
     Harris-Foulkes estimate   =   -1498.31282512 Ry
     estimated scf accuracy    <       0.00000088 Ry

     The total energy is the sum of the following terms:

     one-electron contribution =  -10258.59033425 Ry
     hartree contribution      =    5208.43250443 Ry
     xc contribution           =    -457.24173693 Ry
     ewald contribution        =    4009.12992175 Ry
     electric field correction =       0.00000000 Ry
     smearing contrib. (-TS)   =      -0.04317870 Ry

     convergence has been achieved in  17 iterations

 BEEF-vdW xc energy contributions
           1 :   -400.173842800995
           2 :    368.060046177530
           3 :   -312.324085227721
           4 :    246.428664585571
           5 :   -183.861377044843
[...]
               b(3) = (  0.000000  0.000000  0.039986 )

     PseudoPot. # 1 for Hg read from file:
     /afs/slac.stanford.edu/u/if/mamunm/psp/gbrv1.5pbe/Hg.UPF
     MD5 check sum: 8f42caffe07f7fd9c0a564347f8c5498
     Pseudo is Ultrasoft + core correction, Zval = 12.0
     Generated by new atomic code, or converted to UPF format
     Using radial grid of  985 points,  6 beta functions with:
                l(1) =   0
                l(2) =   0
                l(3) =   1
                l(4) =   1
                l(5) =   2
                l(6) =   2
     Q(r) pseudized with  8 coefficients,  rinner =    2.000   2.000   2.000
                                                       2.000   2.000

     PseudoPot. # 2 for Rh read from file:
     /afs/slac.stanford.edu/u/if/mamunm/psp/gbrv1.5pbe/Rh.UPF
     MD5 check sum: 761627e959a2e3a1f56b0b5fe687810e
     Pseudo is Ultrasoft + core correction, Zval = 15.0
     Generated by new atomic code, or converted to UPF format
     Using radial grid of  969 points,  7 beta functions with:
                l(1) =   0
                l(2) =   0
                l(3) =   1
                l(4) =   1
                l(5) =   2
                l(6) =   2
                l(7) =   2
     Q(r) pseudized with  8 coefficients,  rinner =    1.200   1.200   1.200
                                                       1.200   1.200

     vdW kernel table read from file vdW_kernel_table
     MD5 check sum: 095c7af220d748ca6e76c0b4c6cfb241

     atomic species   valence    mass     pseudopotential
        Hg1           12.00   200.59200     Hg( 1.00)
        Rh1           15.00   102.90550     Rh( 1.00)

     No symmetry found

   Cartesian axes

     site n.     atom                  positions (alat units)
         1           Hg1 tau(   1) = (   0.0000000   0.0000000  10.0000000  )
         2           Hg1 tau(   2) = (   4.6010625   2.6564247  10.0000000  )
         3           Hg1 tau(   3) = (   1.5336875   2.6564247  10.0000000  )
         4           Rh1 tau(   4) = (   3.0673750   0.0000000  10.0000000  )
         5           Hg1 tau(   5) = (   3.0673750   1.7709498  12.5045012  )
         6           Hg1 tau(   6) = (   1.5336875   4.4273745  12.5045012  )
         7           Hg1 tau(   7) = (  -1.5336875   4.4273745  12.5045012  )
         8           Rh1 tau(   8) = (   0.0000000   1.7709498  12.5045012  )
         9           Hg1 tau(   9) = (   0.0000197   3.5292711  15.3194619  )
        10           Hg1 tau(  10) = (   1.5227611   0.8917831  15.3194832  )
        11           Hg1 tau(  11) = (   4.6120133   0.8918145  15.3194596  )
        12           Rh1 tau(  12) = (   3.0673803   3.5419042  14.6575218  )

     number of k points=    20  Fermi-Dirac smearing, width (Ry)=  0.0110
                       cart. coord. in units 2pi/alat
        k(    1) = (   0.0000000   0.0000000   0.0000000), wk =   0.0555556
        k(    2) = (   0.0000000   0.0313705   0.0000000), wk =   0.1111111
        k(    3) = (   0.0000000   0.0627410   0.0000000), wk =   0.1111111
        k(    4) = (   0.0000000  -0.0941115   0.0000000), wk =   0.0555556
        k(    5) = (   0.0271676   0.0156852   0.0000000), wk =   0.1111111
        k(    6) = (   0.0271676   0.0470557   0.0000000), wk =   0.1111111
        k(    7) = (   0.0271676   0.0784262   0.0000000), wk =   0.1111111
        k(    8) = (   0.0271676  -0.0784262   0.0000000), wk =   0.1111111
        k(    9) = (   0.0271676  -0.0470557   0.0000000), wk =   0.1111111
        k(   10) = (   0.0271676  -0.0156852   0.0000000), wk =   0.1111111
        k(   11) = (   0.0543353   0.0313705   0.0000000), wk =   0.1111111
        k(   12) = (   0.0543353   0.0627410   0.0000000), wk =   0.1111111
        k(   13) = (   0.0543353   0.0941115   0.0000000), wk =   0.1111111
        k(   14) = (   0.0543353  -0.0627410   0.0000000), wk =   0.1111111
        k(   15) = (   0.0543353  -0.0313705   0.0000000), wk =   0.1111111
        k(   16) = (   0.0543353   0.0000000   0.0000000), wk =   0.1111111
        k(   17) = (  -0.0815029  -0.0470557   0.0000000), wk =   0.0555556
        k(   18) = (  -0.0815029  -0.0156852   0.0000000), wk =   0.1111111
        k(   19) = (  -0.0815029   0.0156852   0.0000000), wk =   0.1111111
        k(   20) = (  -0.0815029  -0.1411672   0.0000000), wk =   0.0555556

     Largest allocated arrays     est. size (Mb)     dimensions
     Largest temporary arrays     est. size (Mb)     dimensions

     Initial potential from superposition of free atoms
     Check: negative starting charge=   -0.158927

     starting charge  151.49918, renormalised to  153.00000

[...]

     *
     * You are using vdW-DF for exchange-correlation in this calculation.
     * Please cite the following three references that made this development
     * possible:
     *
     *   M. Dion, H. Rydberg, E. Schroder, D. C. Langreth, and
     *   B. I. Lundqvist, Phys. Rev. Lett. 92, 246401 (2004).
     *
     *   T. Thonhauser, V. R. Cooper, S. Li, A. Puzder, P. Hyldgaard, and
     *   D. C. Langreth, Phys. Rev. B 76, 125112 (2007).
     *
     *   G. Roman-Perez and J. M. Soler, Phys. Rev. Lett. 103, 096102 (2009).
     *
     *
     * If you are using vdW-DF2, please also cite:
     *
     *   K. Lee, E. D. Murray, L. Kong, B. I. Lundqvist, and
     *   D. C. Langreth, Phys. Rev. B 82, 081101(R) (2010).
     *
     *
     * If you are calculating the stress with vdW-DF, please also cite:
     *
     *   R. Sabatini, E. Kucukbenli, B. Kolb, T. Thonhauser, and
     *   S. de Gironcoli, J. Phys.: Condens. Matter 24, 424209 (2012).
     *

     Carrying out vdW-DF run using the following parameters:

     Nqs =      20    Nr_points =    1024   r_max =   100.000
     q_mesh =
               0.00001000     0.04494208     0.09755937     0.15916263
               0.23128650     0.31572767     0.41458969     0.53033537
               0.66584808     0.82450364     1.01025438     1.22772762
               1.48234092     1.78043706     2.12944203     2.53805004
               3.01644009     3.57652955     4.23227104     5.00000000

     Gradients computed in reciprocal space

[...]

     Starting wfc are  117 randomized atomic wfcs

     Self-consistent Calculation

[...]

     total energy              =   -1498.35850030 Ry
     Harris-Foulkes estimate   =   -1498.35849953 Ry
     estimated scf accuracy    <       0.00000139 Ry

     iteration # 17     ecut=    36.75 Ry     beta=0.10
     Davidson diagonalization with overlap
     ethr =  9.06E-10,  avg # of iterations =  2.0

[...]

     negative rho (up, down):  1.568E-01 0.000E+00

     Adding external electric field

     Computed dipole along edir(3) :
        Dipole                0.0227 Ry au,          0.0576 Debye
        Dipole field          0.0001 Ry au

        Potential amp.       -0.0048 Ry
        Total length         46.0787 bohr

     End of self-consistent calculation

[...]

          k = 0.0543 0.0000 0.0000 ( 20669 PWs)   bands (ev):

[...]

          k =-0.0815-0.1412 0.0000 ( 20704 PWs)   bands (ev):

   -44.7119 -44.7046 -44.7044 -44.6335 -44.6333 -44.5643 -44.5641 -44.5231
   -44.3955  -7.5277  -7.2783  -7.1913  -7.0632  -6.9859  -6.9204  -6.8926
    -6.8573  -6.8510  -6.7910  -6.7334  -6.7098  -6.6775  -6.5511  -6.5343
    -6.4573  -6.4006  -6.3904  -6.3501  -6.2971  -6.2534  -6.2329  -6.1577
    -6.1443  -6.1443  -6.1064  -6.0962  -6.0853  -6.0687  -6.0350  -5.9966
    -5.9744  -5.9743  -5.9355  -5.9096  -5.9041  -5.8792  -5.7848  -5.7681
    -5.6768  -5.6711  -5.6078  -5.5715  -5.5111  -5.4269  -5.3354  -5.2373
    -4.3131  -4.0476  -3.1582  -2.3246  -2.3167  -1.4609  -1.3294  -1.0032
    -0.7567  -0.6719  -0.6422  -0.5333  -0.4795  -0.4233  -0.4085  -0.2213
    -0.0547   0.0303   0.2701   0.4196   0.7027   0.9959   1.4754   1.5570
     2.4900   2.6530   3.0225   4.3968   4.6775   4.7082   4.8555   5.0822
     5.3090   5.4344   5.7803   5.9332   6.0303   6.1651   6.3472   6.5053
     6.5342   7.1517   7.2634   7.3374   7.4187   7.4379   7.4701   7.5104
     7.7689   8.0348

     the Fermi energy is     0.7754 ev

!    total energy              =   -1498.35850200 Ry
     Harris-Foulkes estimate   =   -1498.35850047 Ry
     estimated scf accuracy    <       0.00000037 Ry

     The total energy is the sum of the following terms:

     one-electron contribution =  -10072.27853694 Ry
     hartree contribution      =    5115.96541476 Ry
     xc contribution           =    -457.17492637 Ry
     ewald contribution        =    3915.16906654 Ry
     electric field correction =       0.00000117 Ry
     smearing contrib. (-TS)   =      -0.03952116 Ry

     convergence has been achieved in  17 iterations

 BEEF-vdW xc energy contributions
           1 :   -400.256941595400
           2 :    368.039888622084
           3 :   -312.185719386449
           4 :    246.262169464165
           5 :   -183.798837246829
           6 :    134.094437954764
           7 :   -100.271175456172
           8 :    79.9121544601854
           9 :   -67.5851894927895
          10 :    57.8808076096790
          11 :   -47.5961305201380
          12 :    36.3092670645992
          13 :   -25.4798528438182
          14 :    16.8839230479269
          15 :   -11.3436319354494
          16 :    8.34023157159982
          17 :   -6.50910981142118
          18 :    4.54573986683107
          19 :   -1.92570431752074
          20 :  -0.953788303615511
          21 :    3.21521259291001
          22 :   -4.18744497129921
          23 :    3.88686754034967
          24 :   -3.01554024945960
          25 :    2.51957168311253
          26 :   -3.01378349386971
          27 :    4.42994809469178
          28 :   -6.08693996536198
          29 :    7.11792373231054
          30 :   -6.98615777411720
          31 :   -37.6513111170225
          32 :   -27.7860226516257

     Forces acting on atoms (Ry/au):

     negative rho (up, down):  1.568E-01 0.000E+00
     atom    1 type  1   force =     0.00000038    0.00933910   -0.02430649
     atom    2 type  1   force =     0.00808682   -0.00466937   -0.02430717
     atom    3 type  1   force =    -0.00808745   -0.00467032   -0.02430644
     atom    4 type  2   force =    -0.00000045   -0.00000001    0.04995830
     atom    5 type  1   force =    -0.00000030   -0.01924719    0.00711866
     atom    6 type  1   force =    -0.01666742    0.00962404    0.00711850
     atom    7 type  1   force =     0.01666795    0.00962359    0.00711869
     atom    8 type  2   force =    -0.00000015   -0.00000041    0.00001542
     atom    9 type  1   force =     0.00000168   -0.00094244    0.00003660
     atom   10 type  1   force =    -0.00081695    0.00047175    0.00003580
     atom   11 type  1   force =     0.00081616    0.00047136    0.00003540
     atom   12 type  2   force =    -0.00000029   -0.00000009    0.00148272

     Total force =     0.076145     Total SCF correction =     0.001617

     entering subroutine stress ...

     negative rho (up, down):  1.568E-01 0.000E+00
          total   stress  (Ry/bohr**3)                   (kbar)     P=   -9.33
  -0.00009083   0.00000000  -0.00000000        -13.36      0.00     -0.00
   0.00000000  -0.00009083  -0.00000000          0.00    -13.36     -0.00
  -0.00000000  -0.00000000  -0.00000870         -0.00     -0.00     -1.28

 !ASE

     Writing output data file calc.save

     General routines

     Parallel routines

   This run was terminated on:  12:22: 8  26Dec2018

   JOB DONE.
Job  /afs/slac/g/suncat/bin/suncat-tsmpirun -x LD_LIBRARY_PATH -wdir /scratch/qe109827_iU0HB pw.x -in pw.inp

TID   HOST_NAME   COMMAND_LINE            STATUS            TERMINATION_TIME
00000 suncat0079 pw.x -in pw.inp   Done                     12/26/2018 12:22:08
00001 suncat0079 pw.x -in pw.inp   Done                     12/26/2018 12:22:08
00002 suncat0079 pw.x -in pw.inp   Done                     12/26/2018 12:22:08
00003 suncat0079 pw.x -in pw.inp   Done                     12/26/2018 12:22:08
00004 suncat0079 pw.x -in pw.inp   Done                     12/26/2018 12:22:08
00005 suncat0079 pw.x -in pw.inp   Done                     12/26/2018 12:22:08
00006 suncat0079 pw.x -in pw.inp   Done                     12/26/2018 12:22:08
00007 suncat0079 pw.x -in pw.inp   Done                     12/26/2018 12:22:08
00008 suncat0064 pw.x -in pw.inp   Done                     12/26/2018 12:22:08
00009 suncat0064 pw.x -in pw.inp   Done                     12/26/2018 12:22:08
00010 suncat0064 pw.x -in pw.inp   Done                     12/26/2018 12:22:08
00011 suncat0064 pw.x -in pw.inp   Done                     12/26/2018 12:22:08
00012 suncat0064 pw.x -in pw.inp   Done                     12/26/2018 12:22:08
00013 suncat0064 pw.x -in pw.inp   Done                     12/26/2018 12:22:08
00014 suncat0064 pw.x -in pw.inp   Done                     12/26/2018 12:22:08
00015 suncat0064 pw.x -in pw.inp   Done                     12/26/2018 12:22:08
00016 suncat0063 pw.x -in pw.inp   Done                     12/26/2018 12:22:08
00017 suncat0063 pw.x -in pw.inp   Done                     12/26/2018 12:22:08
00018 suncat0063 pw.x -in pw.inp   Done                     12/26/2018 12:22:08
00019 suncat0063 pw.x -in pw.inp   Done                     12/26/2018 12:22:08
00020 suncat0063 pw.x -in pw.inp   Done                     12/26/2018 12:22:08
00021 suncat0063 pw.x -in pw.inp   Done                     12/26/2018 12:22:08
00022 suncat0063 pw.x -in pw.inp   Done                     12/26/2018 12:22:08
00023 suncat0063 pw.x -in pw.inp   Done                     12/26/2018 12:22:08
00024 suncat0061 pw.x -in pw.inp   Done                     12/26/2018 12:22:08
00025 suncat0061 pw.x -in pw.inp   Done                     12/26/2018 12:22:08
00026 suncat0061 pw.x -in pw.inp   Done                     12/26/2018 12:22:08
00027 suncat0061 pw.x -in pw.inp   Done                     12/26/2018 12:22:08
00028 suncat0061 pw.x -in pw.inp   Done                     12/26/2018 12:22:08
00029 suncat0061 pw.x -in pw.inp   Done                     12/26/2018 12:22:08
00030 suncat0061 pw.x -in pw.inp   Done                     12/26/2018 12:22:08
00031 suncat0061 pw.x -in pw.inp   Done                     12/26/2018 12:22:08
00032 suncat0054 pw.x -in pw.inp   Done                     12/26/2018 12:22:08
00033 suncat0054 pw.x -in pw.inp   Done                     12/26/2018 12:22:08
00034 suncat0054 pw.x -in pw.inp   Done                     12/26/2018 12:22:08
00035 suncat0054 pw.x -in pw.inp   Done                     12/26/2018 12:22:08
00036 suncat0054 pw.x -in pw.inp   Done                     12/26/2018 12:22:08
00037 suncat0054 pw.x -in pw.inp   Done                     12/26/2018 12:22:08
00038 suncat0054 pw.x -in pw.inp   Done                     12/26/2018 12:22:08
00039 suncat0054 pw.x -in pw.inp   Done                     12/26/2018 12:22:08
00040 suncat0053 pw.x -in pw.inp   Done                     12/26/2018 12:22:08
00041 suncat0053 pw.x -in pw.inp   Done                     12/26/2018 12:22:08
00042 suncat0053 pw.x -in pw.inp   Done                     12/26/2018 12:22:08
00043 suncat0053 pw.x -in pw.inp   Done                     12/26/2018 12:22:08
00044 suncat0053 pw.x -in pw.inp   Done                     12/26/2018 12:22:08
00045 suncat0053 pw.x -in pw.inp   Done                     12/26/2018 12:22:08
00046 suncat0053 pw.x -in pw.inp   Done                     12/26/2018 12:22:08
00047 suncat0053 pw.x -in pw.inp   Done                     12/26/2018 12:22:08
00048 suncat0052 pw.x -in pw.inp   Done                     12/26/2018 12:22:08
00049 suncat0052 pw.x -in pw.inp   Done                     12/26/2018 12:22:08
00050 suncat0052 pw.x -in pw.inp   Done                     12/26/2018 12:22:08
00051 suncat0052 pw.x -in pw.inp   Done                     12/26/2018 12:22:08
00052 suncat0052 pw.x -in pw.inp   Done                     12/26/2018 12:22:08
00053 suncat0052 pw.x -in pw.inp   Done                     12/26/2018 12:22:08
00054 suncat0052 pw.x -in pw.inp   Done                     12/26/2018 12:22:08
00055 suncat0052 pw.x -in pw.inp   Done                     12/26/2018 12:22:08
00056 suncat0028 pw.x -in pw.inp   Done                     12/26/2018 12:22:08
00057 suncat0028 pw.x -in pw.inp   Done                     12/26/2018 12:22:08
00058 suncat0028 pw.x -in pw.inp   Done                     12/26/2018 12:22:08
00059 suncat0028 pw.x -in pw.inp   Done                     12/26/2018 12:22:08
00060 suncat0028 pw.x -in pw.inp   Done                     12/26/2018 12:22:08
00061 suncat0028 pw.x -in pw.inp   Done                     12/26/2018 12:22:08
00062 suncat0028 pw.x -in pw.inp   Done                     12/26/2018 12:22:08
00063 suncat0028 pw.x -in pw.inp   Done                     12/26/2018 12:22:08