     Program PWSCF v.5.1rc2 (svn rev. 11289) starts on  1Jan2019 at  8:11: 6

     Current dimensions of program PWSCF are:
     Max number of different atomic species (ntypx) = 10
     Max number of k-points (npk) =  40000
     Max angular momentum in pseudopotentials (lmaxx) =  3
     Presently stress not available with electric field

     IMPORTANT: XC functional enforced from input :
     Exchange-correlation      = BEEF-VDW ( 1  4 27 13 2)
     Any further DFT definition will be discarded
     Please, verify this is what you really want

     Subspace diagonalization in iterative solution of the eigenvalue problem:
     a serial algorithm will be used

     bravais-lattice index     =            0
     lattice parameter (alat)  =       1.8897  a.u.
     unit-cell volume          =    5556.7941 (a.u.)^3
     number of atoms/cell      =           12
     number of atomic types    =            2
     number of electrons       =       141.00
     number of Kohn-Sham states=          100
     kinetic-energy cutoff     =      36.7493  Ry
     charge density cutoff     =     367.4932  Ry
     convergence threshold     =      1.0E-06
     mixing beta               =       0.1000
     number of iterations used =           10  plain     mixing
     Exchange-correlation      = BEEF-VDW ( 1  4 27 13 2)
     nstep                     =           50

     celldm(1)=   1.889726  celldm(2)=   0.000000  celldm(3)=   0.000000
     celldm(4)=   0.000000  celldm(5)=   0.000000  celldm(6)=   0.000000

     crystal axes: (cart. coord. in units of alat)
               a(1) = (   6.163103   0.000000   0.000000 )
               a(2) = (  -3.081552   5.337404   0.000000 )
               a(3) = (   0.000000   0.000000  25.032153 )

     reciprocal axes: (cart. coord. in units 2 pi/alat)
               b(1) = (  0.162256  0.093679  0.000000 )
               b(2) = (  0.000000  0.187357  0.000000 )
               b(3) = (  0.000000  0.000000  0.039949 )

     PseudoPot. # 1 for Sc read from file:
     /afs/slac.stanford.edu/u/if/mamunm/psp/gbrv1.5pbe/Sc.UPF
     MD5 check sum: db30a2753ba66ef00f23801d899b7e7f
     Pseudo is Ultrasoft + core correction, Zval = 11.0
     Generated by new atomic code, or converted to UPF format
     Using radial grid of  849 points,  6 beta functions with:
                l(1) =   0
                l(2) =   0
                l(3) =   1
                l(4) =   1
                l(5) =   2
                l(6) =   2
     Q(r) pseudized with  6 coefficients,  rinner =    1.200   1.200   1.200
                                                       1.200   1.200

     PseudoPot. # 2 for Mo read from file:
     /afs/slac.stanford.edu/u/if/mamunm/psp/gbrv1.5pbe/Mo.UPF
     MD5 check sum: 30c4dcd161f5d35cd49bb5239c51a633
     Pseudo is Ultrasoft + core correction, Zval = 14.0
     Generated by new atomic code, or converted to UPF format
     Using radial grid of  889 points,  6 beta functions with:
                l(1) =   0
                l(2) =   0
                l(3) =   1
                l(4) =   1
                l(5) =   2
                l(6) =   2
     Q(r) pseudized with  6 coefficients,  rinner =    1.000   1.000   1.000
                                                       1.000   1.000

     vdW kernel table read from file vdW_kernel_table
     MD5 check sum: 095c7af220d748ca6e76c0b4c6cfb241

     atomic species   valence    mass     pseudopotential
        Sc1           11.00    44.95591     Sc( 1.00)
        Mo1           14.00    95.95000     Mo( 1.00)

     No symmetry found

   Cartesian axes

     site n.     atom                  positions (alat units)
         1           Sc1 tau(   1) = (   0.0000000   0.0000000  10.0000000  )
         2           Sc1 tau(   2) = (  -1.5407758   2.6687019  10.0000000  )
         3           Sc1 tau(   3) = (   1.5407758   2.6687019  10.0000000  )
         4           Mo1 tau(   4) = (   3.0815516   0.0000000  10.0000000  )
         5           Sc1 tau(   5) = (   3.0815516   1.7791346  12.5160763  )
         6           Sc1 tau(   6) = (   1.5407758   4.4478366  12.5160763  )
         7           Sc1 tau(   7) = (  -1.5407758   4.4478366  12.5160763  )
         8           Mo1 tau(   8) = (   0.0000000   1.7791346  12.5160763  )
         9           Sc1 tau(   9) = (  -0.0000000   3.5582693  15.0321527  )
        10           Sc1 tau(  10) = (   1.5407758   0.8895673  15.0321527  )
        11           Sc1 tau(  11) = (   4.6223274   0.8895673  15.0321527  )
        12           Mo1 tau(  12) = (   3.0815516   3.5582693  15.0321527  )

     number of k points=    20  Fermi-Dirac smearing, width (Ry)=  0.0110
                       cart. coord. in units 2pi/alat
        k(    1) = (   0.0000000   0.0000000   0.0000000), wk =   0.0555556
        k(    2) = (   0.0000000   0.0312262   0.0000000), wk =   0.1111111
        k(    3) = (   0.0000000   0.0624523   0.0000000), wk =   0.1111111
        k(    4) = (   0.0000000  -0.0936785   0.0000000), wk =   0.0555556
        k(    5) = (   0.0270427   0.0156131   0.0000000), wk =   0.1111111
        k(    6) = (   0.0270427   0.0468393   0.0000000), wk =   0.1111111
        k(    7) = (   0.0270427   0.0780654   0.0000000), wk =   0.1111111
        k(    8) = (   0.0270427  -0.0780654   0.0000000), wk =   0.1111111
        k(    9) = (   0.0270427  -0.0468393   0.0000000), wk =   0.1111111
        k(   10) = (   0.0270427  -0.0156131   0.0000000), wk =   0.1111111
        k(   11) = (   0.0540853   0.0312262   0.0000000), wk =   0.1111111
        k(   12) = (   0.0540853   0.0624523   0.0000000), wk =   0.1111111
        k(   13) = (   0.0540853   0.0936785   0.0000000), wk =   0.1111111
        k(   14) = (   0.0540853  -0.0624523   0.0000000), wk =   0.1111111
        k(   15) = (   0.0540853  -0.0312262   0.0000000), wk =   0.1111111
        k(   16) = (   0.0540853   0.0000000   0.0000000), wk =   0.1111111
        k(   17) = (  -0.0811280  -0.0468393   0.0000000), wk =   0.0555556
        k(   18) = (  -0.0811280  -0.0156131   0.0000000), wk =   0.1111111
        k(   19) = (  -0.0811280   0.0156131   0.0000000), wk =   0.1111111
        k(   20) = (  -0.0811280  -0.1405178   0.0000000), wk =   0.0555556

     Largest allocated arrays     est. size (Mb)     dimensions
     Largest temporary arrays     est. size (Mb)     dimensions

     Initial potential from superposition of free atoms
     Check: negative starting charge=   -0.002574

     starting charge  140.97519, renormalised to  141.00000

     negative rho (up, down):  2.575E-03 0.000E+00

     *
     * You are using vdW-DF for exchange-correlation in this calculation.
     * Please cite the following three references that made this development
     * possible:
     *
     *   M. Dion, H. Rydberg, E. Schroder, D. C. Langreth, and
     *   B. I. Lundqvist, Phys. Rev. Lett. 92, 246401 (2004).
     *
     *   T. Thonhauser, V. R. Cooper, S. Li, A. Puzder, P. Hyldgaard, and
     *   D. C. Langreth, Phys. Rev. B 76, 125112 (2007).
     *
     *   G. Roman-Perez and J. M. Soler, Phys. Rev. Lett. 103, 096102 (2009).
     *
     *
     * If you are using vdW-DF2, please also cite:
     *
     *   K. Lee, E. D. Murray, L. Kong, B. I. Lundqvist, and
     *   D. C. Langreth, Phys. Rev. B 82, 081101(R) (2010).
     *
     *
     * If you are calculating the stress with vdW-DF, please also cite:
     *
     *   R. Sabatini, E. Kucukbenli, B. Kolb, T. Thonhauser, and
     *   S. de Gironcoli, J. Phys.: Condens. Matter 24, 424209 (2012).
     *

     Carrying out vdW-DF run using the following parameters:

     Nqs =      20    Nr_points =    1024   r_max =   100.000
     q_mesh =
               0.00001000     0.04494208     0.09755937     0.15916263
               0.23128650     0.31572767     0.41458969     0.53033537
               0.66584808     0.82450364     1.01025438     1.22772762
               1.48234092     1.78043706     2.12944203     2.53805004
               3.01644009     3.57652955     4.23227104     5.00000000

     Gradients computed in reciprocal space

     Adding external electric field

     Computed dipole along edir(3) :
        Dipole               -0.0000 Ry au,         -0.0000 Debye
        Dipole field         -0.0000 Ry au

        Potential amp.        0.0000 Ry
        Total length         46.1213 bohr

     Starting wfc are  156 randomized atomic wfcs

     Self-consistent Calculation

     iteration #  1     ecut=    36.75 Ry     beta=0.10
     Davidson diagonalization with overlap
     ethr =  1.00E-02,  avg # of iterations =  2.0

[...]

     total energy              =   -1272.24628118 Ry
     Harris-Foulkes estimate   =   -1273.74035068 Ry
     estimated scf accuracy    <       8.40252204 Ry

[...]

     iteration # 10     ecut=    36.75 Ry     beta=0.10
     Davidson diagonalization with overlap
     c_bands:  1 eigenvalues not converged
     ethr =  2.18E-06,  avg # of iterations =  8.1

[...]

     End of self-consistent calculation

          k = 0.0000 0.0000 0.0000 ( 20959 PWs)   bands (ev):

   -59.7945 -59.6543 -59.6542 -48.9968 -48.9954 -48.9380 -48.9380 -48.9377
   -48.9376 -48.5082 -48.4513 -48.4512 -33.8341 -33.8205 -33.8205 -33.7056
   -33.7056 -33.7049 -33.7049 -33.6862 -33.6836 -27.8613 -27.8475 -27.6837
   -27.6496 -27.6496 -27.6379 -27.6240 -27.6240 -27.6019 -27.6019 -27.5800
   -27.5800 -27.3903 -27.3846 -27.3721 -27.3721 -27.3684 -27.3683 -27.3376
   -27.1559 -27.1559 -27.0720 -27.0536 -27.0535 -26.9474 -26.8712 -26.8712
    -4.1272  -2.9737  -1.8647  -1.3602  -1.3602  -1.2886  -1.2886  -1.0564
    -0.9550  -0.8904  -0.8904  -0.5941  -0.5941  -0.5453  -0.4026  -0.0366
    -0.0366   0.3190   0.6917   0.7315   0.8124   0.8124   1.3149   1.3843
     1.5165   1.5293   1.6454   1.6454   1.8760   1.8760   1.9656   2.0673
     2.0673   2.1033   2.1033   2.2378   2.2378   2.2964   2.3538   2.3538
     2.6414   2.6414   2.6544   2.8539   2.8539   3.4108   3.4530   3.4531
     3.5307   3.7679   3.7680   3.8450

[...]

          k =-0.0811-0.0468 0.0000 ( 20856 PWs)   bands (ev):

[...]

     the Fermi energy is     0.8334 ev

!    total energy              =   -1272.96038493 Ry
     Harris-Foulkes estimate   =   -1272.96038488 Ry
     estimated scf accuracy    <       0.00000069 Ry

     The total energy is the sum of the following terms:

     one-electron contribution =   -8866.16994561 Ry
     hartree contribution      =    4418.16059721 Ry
     xc contribution           =    -184.82185286 Ry
     ewald contribution        =    3359.97878319 Ry
     electric field correction =       0.00000002 Ry
     smearing contrib. (-TS)   =      -0.10796688 Ry

     convergence has been achieved in  18 iterations

 BEEF-vdW xc energy contributions
           1 :   -157.321484550498
           2 :    140.110011833735
           3 :   -112.484448978920
           4 :    84.1270350377908
           5 :   -62.6344162044797
           6 :    50.5467236274353
           7 :   -45.7309171186369
           8 :    44.0751078907785
           9 :   -42.3250475406709
          10 :    39.3887906926263
          11 :   -35.8765149669709
          12 :    32.7816300533620
          13 :   -30.4793318607539
[...]
               b(2) = (  0.000000  0.187357  0.000000 )
               b(3) = (  0.000000  0.000000  0.039949 )

     PseudoPot. # 1 for Sc read from file:
     /afs/slac.stanford.edu/u/if/mamunm/psp/gbrv1.5pbe/Sc.UPF
     MD5 check sum: db30a2753ba66ef00f23801d899b7e7f
     Pseudo is Ultrasoft + core correction, Zval = 11.0
     Generated by new atomic code, or converted to UPF format
     Using radial grid of  849 points,  6 beta functions with:
                l(1) =   0
                l(2) =   0
                l(3) =   1
                l(4) =   1
                l(5) =   2
                l(6) =   2
     Q(r) pseudized with  6 coefficients,  rinner =    1.200   1.200   1.200
                                                       1.200   1.200

     PseudoPot. # 2 for Mo read from file:
     /afs/slac.stanford.edu/u/if/mamunm/psp/gbrv1.5pbe/Mo.UPF
     MD5 check sum: 30c4dcd161f5d35cd49bb5239c51a633
     Pseudo is Ultrasoft + core correction, Zval = 14.0
     Generated by new atomic code, or converted to UPF format
     Using radial grid of  889 points,  6 beta functions with:
                l(1) =   0
                l(2) =   0
                l(3) =   1
                l(4) =   1
                l(5) =   2
                l(6) =   2
     Q(r) pseudized with  6 coefficients,  rinner =    1.000   1.000   1.000
                                                       1.000   1.000

     vdW kernel table read from file vdW_kernel_table
     MD5 check sum: 095c7af220d748ca6e76c0b4c6cfb241

     atomic species   valence    mass     pseudopotential
        Sc1           11.00    44.95591     Sc( 1.00)
        Mo1           14.00    95.95000     Mo( 1.00)

     No symmetry found

   Cartesian axes

     site n.     atom                  positions (alat units)
         1           Sc1 tau(   1) = (   0.0000000   0.0000000  10.0000000  )
         2           Sc1 tau(   2) = (  -1.5407758   2.6687019  10.0000000  )
         3           Sc1 tau(   3) = (   1.5407758   2.6687019  10.0000000  )
         4           Mo1 tau(   4) = (   3.0815516   0.0000000  10.0000000  )
         5           Sc1 tau(   5) = (   3.0815516   1.7791346  12.5160763  )
         6           Sc1 tau(   6) = (   1.5407758   4.4478366  12.5160763  )
         7           Sc1 tau(   7) = (  -1.5407758   4.4478366  12.5160763  )
         8           Mo1 tau(   8) = (   0.0000000   1.7791346  12.5160763  )
         9           Sc1 tau(   9) = (   0.0000259   3.5298180  15.0194616  )
        10           Sc1 tau(  10) = (   1.5162298   0.9038401  15.0194365  )
        11           Sc1 tau(  11) = (   4.6468974   0.9038264  15.0194119  )
        12           Mo1 tau(  12) = (   3.0815341   3.5582201  14.6907725  )

     number of k points=    20  Fermi-Dirac smearing, width (Ry)=  0.0110
                       cart. coord. in units 2pi/alat
        k(    1) = (   0.0000000   0.0000000   0.0000000), wk =   0.0555556
        k(    2) = (   0.0000000   0.0312262   0.0000000), wk =   0.1111111
        k(    3) = (   0.0000000   0.0624523   0.0000000), wk =   0.1111111
        k(    4) = (   0.0000000  -0.0936785   0.0000000), wk =   0.0555556
        k(    5) = (   0.0270427   0.0156131   0.0000000), wk =   0.1111111
        k(    6) = (   0.0270427   0.0468393   0.0000000), wk =   0.1111111
        k(    7) = (   0.0270427   0.0780654   0.0000000), wk =   0.1111111
        k(    8) = (   0.0270427  -0.0780654   0.0000000), wk =   0.1111111
        k(    9) = (   0.0270427  -0.0468393   0.0000000), wk =   0.1111111
        k(   10) = (   0.0270427  -0.0156131   0.0000000), wk =   0.1111111
        k(   11) = (   0.0540853   0.0312262   0.0000000), wk =   0.1111111
        k(   12) = (   0.0540853   0.0624523   0.0000000), wk =   0.1111111
        k(   13) = (   0.0540853   0.0936785   0.0000000), wk =   0.1111111
        k(   14) = (   0.0540853  -0.0624523   0.0000000), wk =   0.1111111
        k(   15) = (   0.0540853  -0.0312262   0.0000000), wk =   0.1111111
        k(   16) = (   0.0540853   0.0000000   0.0000000), wk =   0.1111111
        k(   17) = (  -0.0811280  -0.0468393   0.0000000), wk =   0.0555556
        k(   18) = (  -0.0811280  -0.0156131   0.0000000), wk =   0.1111111
        k(   19) = (  -0.0811280   0.0156131   0.0000000), wk =   0.1111111
        k(   20) = (  -0.0811280  -0.1405178   0.0000000), wk =   0.0555556

     Largest allocated arrays     est. size (Mb)     dimensions
     Largest temporary arrays     est. size (Mb)     dimensions

     Initial potential from superposition of free atoms
     Check: negative starting charge=   -0.002538

     starting charge  140.97519, renormalised to  141.00000

[...]

     *
     * You are using vdW-DF for exchange-correlation in this calculation.
     * Please cite the following three references that made this development
     * possible:
     *
     *   M. Dion, H. Rydberg, E. Schroder, D. C. Langreth, and
     *   B. I. Lundqvist, Phys. Rev. Lett. 92, 246401 (2004).
     *
     *   T. Thonhauser, V. R. Cooper, S. Li, A. Puzder, P. Hyldgaard, and
     *   D. C. Langreth, Phys. Rev. B 76, 125112 (2007).
     *
     *   G. Roman-Perez and J. M. Soler, Phys. Rev. Lett. 103, 096102 (2009).
     *
     *
     * If you are using vdW-DF2, please also cite:
     *
     *   K. Lee, E. D. Murray, L. Kong, B. I. Lundqvist, and
     *   D. C. Langreth, Phys. Rev. B 82, 081101(R) (2010).
     *
     *
     * If you are calculating the stress with vdW-DF, please also cite:
     *
     *   R. Sabatini, E. Kucukbenli, B. Kolb, T. Thonhauser, and
     *   S. de Gironcoli, J. Phys.: Condens. Matter 24, 424209 (2012).
     *

     Carrying out vdW-DF run using the following parameters:

     Nqs =      20    Nr_points =    1024   r_max =   100.000
     q_mesh =
               0.00001000     0.04494208     0.09755937     0.15916263
               0.23128650     0.31572767     0.41458969     0.53033537
               0.66584808     0.82450364     1.01025438     1.22772762
               1.48234092     1.78043706     2.12944203     2.53805004
               3.01644009     3.57652955     4.23227104     5.00000000

     Gradients computed in reciprocal space

[...]

     Starting wfc are  156 randomized atomic wfcs

     Self-consistent Calculation

[...]

     total energy              =   -1272.98210630 Ry
     Harris-Foulkes estimate   =   -1272.98210610 Ry
     estimated scf accuracy    <       0.00000114 Ry

     iteration # 19     ecut=    36.75 Ry     beta=0.10
     Davidson diagonalization with overlap
     ethr =  8.10E-10,  avg # of iterations =  1.8

[...]

     negative rho (up, down):  2.187E-03 0.000E+00

     Adding external electric field

     Computed dipole along edir(3) :
        Dipole                0.0680 Ry au,          0.1728 Debye
        Dipole field          0.0002 Ry au

        Potential amp.       -0.0142 Ry
        Total length         46.1213 bohr

     End of self-consistent calculation

[...]

          k = 0.0541 0.0000 0.0000 ( 20893 PWs)   bands (ev):

[...]

          k =-0.0811-0.1405 0.0000 ( 20856 PWs)   bands (ev):

   -59.7428 -59.5937 -59.4813 -48.9442 -48.9222 -48.9215 -48.9036 -48.9020
   -48.8826 -48.2985 -48.2791 -48.2597 -33.7819 -33.7696 -33.7670 -33.6438
   -33.6410 -33.6269 -33.5605 -33.5579 -33.5166 -27.7031 -27.6890 -27.6199
   -27.6102 -27.5803 -27.5765 -27.5664 -27.5455 -27.5393 -27.5117 -27.4926
   -27.4846 -27.4835 -27.4601 -27.4511 -27.4417 -27.3329 -27.3194 -27.0663
   -26.9375 -26.9237 -26.8954 -26.8838 -26.8587 -26.8495 -26.8269 -26.7023
    -2.7131  -2.5797  -1.7084  -1.5449  -1.0544  -0.8446  -0.7577  -0.7291
    -0.5963  -0.3529  -0.2691  -0.0965  -0.0577   0.0569   0.1153   0.2664
     0.2806   0.3285   0.4268   0.4793   0.6246   0.6762   0.7279   0.8350
     0.9609   0.9974   1.0507   1.2159   1.3966   1.4390   1.4899   1.5383
     1.6330   1.7536   1.7647   1.9050   2.1908   2.2930   2.4373   2.4807
     2.5368   2.7115   2.8390   2.8782   3.0114   3.0622   3.0958   3.2709
     3.3290   3.4285   3.4560   3.5312

     the Fermi energy is     0.8907 ev

!    total energy              =   -1272.98210660 Ry
     Harris-Foulkes estimate   =   -1272.98210611 Ry
     estimated scf accuracy    <       0.00000053 Ry

     The total energy is the sum of the following terms:

     one-electron contribution =   -9000.72974961 Ry
     hartree contribution      =    4485.91472752 Ry
     xc contribution           =    -184.95668104 Ry
     ewald contribution        =    3426.89288239 Ry
     electric field correction =       0.00001046 Ry
     smearing contrib. (-TS)   =      -0.10329633 Ry

     convergence has been achieved in  19 iterations

 BEEF-vdW xc energy contributions
           1 :   -157.489008957409
           2 :    140.325213098433
           3 :   -112.747525848719
           4 :    84.3781728664284
           5 :   -62.7891584307332
           6 :    50.5593876455447
           7 :   -45.6359536603353
           8 :    43.9659892506313
           9 :   -42.2839048783080
          10 :    39.4280777697464
          11 :   -35.9427700333903
          12 :    32.8117601517359
          13 :   -30.4540319796121
          14 :    28.5786283814658
          15 :   -26.7167176626753
          16 :    24.7612944305561
          17 :   -23.0078575477992
          18 :    21.7415244760559
          19 :   -20.8539861813378
          20 :    19.8847695803259
          21 :   -18.4402202181315
          22 :    16.5762074043033
          23 :   -14.7861030059147
          24 :    13.5992872079956
          25 :   -13.1408009628406
          26 :    13.0222324173594
          27 :   -12.6506366481173
          28 :    11.6899574420666
          29 :   -10.2979451733398
          30 :    8.96171594164929
          31 :   -18.3354876209467
          32 :   -13.4071153354718

     Forces acting on atoms (Ry/au):

     negative rho (up, down):  2.187E-03 0.000E+00
     atom    1 type  1   force =    -0.00000185    0.01303562   -0.00628577
     atom    2 type  1   force =     0.01128738   -0.00651890   -0.00628777
     atom    3 type  1   force =    -0.01128768   -0.00651724   -0.00628796
     atom    4 type  2   force =     0.00000094    0.00000049    0.04861258
     atom    5 type  1   force =    -0.00000160   -0.00846888   -0.01200350
     atom    6 type  1   force =    -0.00733641    0.00423179   -0.01199408
     atom    7 type  1   force =     0.00733572    0.00423423   -0.01198869
     atom    8 type  2   force =     0.00000159    0.00000115    0.00644810
     atom    9 type  1   force =     0.00000089   -0.00091895   -0.00027990
     atom   10 type  1   force =    -0.00081196    0.00046166   -0.00027617
     atom   11 type  1   force =     0.00081333    0.00046126   -0.00027609
     atom   12 type  2   force =    -0.00000035   -0.00000222    0.00061925

     Total force =     0.060689     Total SCF correction =     0.001191

     entering subroutine stress ...

     negative rho (up, down):  2.187E-03 0.000E+00
          total   stress  (Ry/bohr**3)                   (kbar)     P=   -4.65
  -0.00003488  -0.00000000  -0.00000000         -5.13     -0.00     -0.00
  -0.00000000  -0.00003488  -0.00000000         -0.00     -5.13     -0.00
  -0.00000000  -0.00000000  -0.00002500         -0.00     -0.00     -3.68

 !ASE

     Writing output data file calc.save

     General routines

     Parallel routines

   This run was terminated on:   9:43:46   1Jan2019

   JOB DONE.
Job  /afs/slac/g/suncat/bin/suncat-tsmpirun -x LD_LIBRARY_PATH -wdir /scratch/qe648973_KXIiC pw.x -in pw.inp

TID   HOST_NAME   COMMAND_LINE            STATUS            TERMINATION_TIME
00000 suncat0031 pw.x -in pw.inp   Done                     01/01/2019 09:43:46
00001 suncat0031 pw.x -in pw.inp   Done                     01/01/2019 09:43:46
00002 suncat0031 pw.x -in pw.inp   Done                     01/01/2019 09:43:46
00003 suncat0031 pw.x -in pw.inp   Done                     01/01/2019 09:43:46
00004 suncat0031 pw.x -in pw.inp   Done                     01/01/2019 09:43:46
00005 suncat0031 pw.x -in pw.inp   Done                     01/01/2019 09:43:46
00006 suncat0031 pw.x -in pw.inp   Done                     01/01/2019 09:43:46
00007 suncat0031 pw.x -in pw.inp   Done                     01/01/2019 09:43:46
00008 suncat0030 pw.x -in pw.inp   Done                     01/01/2019 09:43:46
00009 suncat0030 pw.x -in pw.inp   Done                     01/01/2019 09:43:46
00010 suncat0030 pw.x -in pw.inp   Done                     01/01/2019 09:43:46
00011 suncat0030 pw.x -in pw.inp   Done                     01/01/2019 09:43:46
00012 suncat0030 pw.x -in pw.inp   Done                     01/01/2019 09:43:46
00013 suncat0030 pw.x -in pw.inp   Done                     01/01/2019 09:43:46
00014 suncat0030 pw.x -in pw.inp   Done                     01/01/2019 09:43:46
00015 suncat0030 pw.x -in pw.inp   Done                     01/01/2019 09:43:46
00016 suncat0132 pw.x -in pw.inp   Done                     01/01/2019 09:43:46
00017 suncat0132 pw.x -in pw.inp   Done                     01/01/2019 09:43:46
00018 suncat0132 pw.x -in pw.inp   Done                     01/01/2019 09:43:46
00019 suncat0132 pw.x -in pw.inp   Done                     01/01/2019 09:43:46
00020 suncat0132 pw.x -in pw.inp   Done                     01/01/2019 09:43:46
00021 suncat0132 pw.x -in pw.inp   Done                     01/01/2019 09:43:46
00022 suncat0132 pw.x -in pw.inp   Done                     01/01/2019 09:43:46
00023 suncat0132 pw.x -in pw.inp   Done                     01/01/2019 09:43:46
00024 suncat0131 pw.x -in pw.inp   Done                     01/01/2019 09:43:46
00025 suncat0131 pw.x -in pw.inp   Done                     01/01/2019 09:43:46
00026 suncat0131 pw.x -in pw.inp   Done                     01/01/2019 09:43:46
00027 suncat0131 pw.x -in pw.inp   Done                     01/01/2019 09:43:46
00028 suncat0131 pw.x -in pw.inp   Done                     01/01/2019 09:43:46
00029 suncat0131 pw.x -in pw.inp   Done                     01/01/2019 09:43:46
00030 suncat0131 pw.x -in pw.inp   Done                     01/01/2019 09:43:46
00031 suncat0131 pw.x -in pw.inp   Done                     01/01/2019 09:43:46
00032 suncat0130 pw.x -in pw.inp   Done                     01/01/2019 09:43:46
00033 suncat0130 pw.x -in pw.inp   Done                     01/01/2019 09:43:46
00034 suncat0130 pw.x -in pw.inp   Done                     01/01/2019 09:43:46
00035 suncat0130 pw.x -in pw.inp   Done                     01/01/2019 09:43:46
00036 suncat0130 pw.x -in pw.inp   Done                     01/01/2019 09:43:46
00037 suncat0130 pw.x -in pw.inp   Done                     01/01/2019 09:43:46
00038 suncat0130 pw.x -in pw.inp   Done                     01/01/2019 09:43:46
00039 suncat0130 pw.x -in pw.inp   Done                     01/01/2019 09:43:46
00040 suncat0124 pw.x -in pw.inp   Done                     01/01/2019 09:43:46
00041 suncat0124 pw.x -in pw.inp   Done                     01/01/2019 09:43:46
00042 suncat0124 pw.x -in pw.inp   Done                     01/01/2019 09:43:46
00043 suncat0124 pw.x -in pw.inp   Done                     01/01/2019 09:43:46
00044 suncat0124 pw.x -in pw.inp   Done                     01/01/2019 09:43:46
00045 suncat0124 pw.x -in pw.inp   Done                     01/01/2019 09:43:46
00046 suncat0124 pw.x -in pw.inp   Done                     01/01/2019 09:43:46
00047 suncat0124 pw.x -in pw.inp   Done                     01/01/2019 09:43:46
00048 suncat0280 pw.x -in pw.inp   Done                     01/01/2019 09:43:46
00049 suncat0280 pw.x -in pw.inp   Done                     01/01/2019 09:43:46
00050 suncat0280 pw.x -in pw.inp   Done                     01/01/2019 09:43:46
00051 suncat0280 pw.x -in pw.inp   Done                     01/01/2019 09:43:46
00052 suncat0280 pw.x -in pw.inp   Done                     01/01/2019 09:43:46
00053 suncat0280 pw.x -in pw.inp   Done                     01/01/2019 09:43:46
00054 suncat0280 pw.x -in pw.inp   Done                     01/01/2019 09:43:46
00055 suncat0280 pw.x -in pw.inp   Done                     01/01/2019 09:43:46
00056 suncat0279 pw.x -in pw.inp   Done                     01/01/2019 09:43:46
00057 suncat0279 pw.x -in pw.inp   Done                     01/01/2019 09:43:46
00058 suncat0279 pw.x -in pw.inp   Done                     01/01/2019 09:43:46
00059 suncat0279 pw.x -in pw.inp   Done                     01/01/2019 09:43:46
00060 suncat0279 pw.x -in pw.inp   Done                     01/01/2019 09:43:46
00061 suncat0279 pw.x -in pw.inp   Done                     01/01/2019 09:43:46
00062 suncat0279 pw.x -in pw.inp   Done                     01/01/2019 09:43:46
00063 suncat0279 pw.x -in pw.inp   Done                     01/01/2019 09:43:46