     Program PWSCF v.5.1rc2 (svn rev. 11289) starts on 19Dec2018 at  9: 2:24

     Current dimensions of program PWSCF are:
     Max number of different atomic species (ntypx) = 10
     Max number of k-points (npk) =  40000
     Max angular momentum in pseudopotentials (lmaxx) =  3
     Presently stress not available with electric field

     IMPORTANT: XC functional enforced from input :
     Exchange-correlation      = BEEF-VDW ( 1  4 27 13 2)
     Any further DFT definition will be discarded
     Please, verify this is what you really want

     Subspace diagonalization in iterative solution of the eigenvalue problem:
     a serial algorithm will be used

     Found symmetry operation: I + ( -0.5000  0.0000  0.0000)
     This is a supercell, fractional translations are disabled

     bravais-lattice index     =            0
     lattice parameter (alat)  =       1.8897  a.u.
     unit-cell volume          =    4198.8203 (a.u.)^3
     number of atoms/cell      =           12
     number of atomic types    =            2
     number of electrons       =       192.00
     number of Kohn-Sham states=          126
     kinetic-energy cutoff     =      36.7493  Ry
     charge density cutoff     =     367.4932  Ry
     convergence threshold     =      1.0E-06
     mixing beta               =       0.1000
     number of iterations used =           10  plain     mixing
     Exchange-correlation      = BEEF-VDW ( 1  4 27 13 2)
     nstep                     =           50

     celldm(1)=   1.889726  celldm(2)=   0.000000  celldm(3)=   0.000000
     celldm(4)=   0.000000  celldm(5)=   0.000000  celldm(6)=   0.000000

     crystal axes: (cart. coord. in units of alat)
               a(1) = (   5.317521   0.000000   0.000000 )
               a(2) = (  -2.658761   4.790860   0.000000 )
               a(3) = (   0.000000   0.000000  24.423505 )

     reciprocal axes: (cart. coord. in units 2 pi/alat)
               b(1) = (  0.188058  0.104365  0.000000 )
               b(2) = (  0.000000  0.208731  0.000000 )
               b(3) = (  0.000000  0.000000  0.040944 )

     PseudoPot. # 1 for V  read from file:
     /afs/slac.stanford.edu/u/if/mamunm/psp/gbrv1.5pbe/V.UPF
     MD5 check sum: 22b79981416ebb76fdaf5b1b8640f6fb
     Pseudo is Ultrasoft + core correction, Zval = 13.0
     Generated by new atomic code, or converted to UPF format
     Using radial grid of  853 points,  6 beta functions with:
                l(1) =   0
                l(2) =   0
                l(3) =   1
                l(4) =   1
                l(5) =   2
                l(6) =   2
     Q(r) pseudized with  8 coefficients,  rinner =    1.100   1.100   1.100
                                                       1.100   1.100

     PseudoPot. # 2 for Ga read from file:
     /afs/slac.stanford.edu/u/if/mamunm/psp/gbrv1.5pbe/Ga.UPF
     MD5 check sum: ccd671392a58a050fbb373893b4fcd66
     Pseudo is Ultrasoft + core correction, Zval = 19.0
     Generated by new atomic code, or converted to UPF format
     Using radial grid of  871 points,  6 beta functions with:
                l(1) =   0
                l(2) =   0
                l(3) =   1
                l(4) =   1
                l(5) =   2
                l(6) =   2
     Q(r) pseudized with  8 coefficients,  rinner =    1.250   1.250   1.250
                                                       1.250   1.250

     vdW kernel table read from file vdW_kernel_table
     MD5 check sum: 095c7af220d748ca6e76c0b4c6cfb241

     atomic species   valence    mass     pseudopotential
        V1            13.00    50.94150     V ( 1.00)
        Ga1           19.00    69.72300     Ga( 1.00)

     No symmetry found

   Cartesian axes

     site n.     atom                  positions (alat units)
         1           V1  tau(   1) = (   0.0000000   0.0000000  10.0000000  )
         2           V1  tau(   2) = (   2.6587606   0.0000000  10.0000000  )
         3           Ga1 tau(   3) = (   1.3293803   2.3954299  10.0000000  )
         4           Ga1 tau(   4) = (  -1.3293803   2.3954299  10.0000000  )
         5           V1  tau(   5) = (   2.6587606   1.4755198  12.2117526  )
         6           V1  tau(   6) = (  -0.0000000   1.4755198  12.2117526  )
         7           Ga1 tau(   7) = (  -1.3293803   3.8709496  12.2117526  )
         8           Ga1 tau(   8) = (   1.3293803   3.8709496  12.2117526  )
         9           V1  tau(   9) = (   0.0000000   2.9510395  14.4235052  )
        10           V1  tau(  10) = (   2.6587606   2.9510395  14.4235052  )
        11           Ga1 tau(  11) = (   3.9881410   0.5556097  14.4235052  )
        12           Ga1 tau(  12) = (   1.3293803   0.5556097  14.4235052  )

     number of k points=    20  Fermi-Dirac smearing, width (Ry)=  0.0110
                       cart. coord. in units 2pi/alat
        k(    1) = (   0.0000000   0.0000000   0.0000000), wk =   0.0555556
        k(    2) = (   0.0000000   0.0347885   0.0000000), wk =   0.1111111
        k(    3) = (   0.0000000   0.0695769   0.0000000), wk =   0.1111111
        k(    4) = (   0.0000000  -0.1043654   0.0000000), wk =   0.0555556
        k(    5) = (   0.0313429   0.0173942   0.0000000), wk =   0.1111111
        k(    6) = (   0.0313429   0.0521827   0.0000000), wk =   0.1111111
        k(    7) = (   0.0313429   0.0869712   0.0000000), wk =   0.1111111
        k(    8) = (   0.0313429  -0.0869712   0.0000000), wk =   0.1111111
        k(    9) = (   0.0313429  -0.0521827   0.0000000), wk =   0.1111111
        k(   10) = (   0.0313429  -0.0173942   0.0000000), wk =   0.1111111
        k(   11) = (   0.0626858   0.0347885   0.0000000), wk =   0.1111111
        k(   12) = (   0.0626858   0.0695769   0.0000000), wk =   0.1111111
        k(   13) = (   0.0626858   0.1043654   0.0000000), wk =   0.1111111
        k(   14) = (   0.0626858  -0.0695769   0.0000000), wk =   0.1111111
        k(   15) = (   0.0626858  -0.0347885   0.0000000), wk =   0.1111111
        k(   16) = (   0.0626858   0.0000000   0.0000000), wk =   0.1111111
        k(   17) = (  -0.0940288  -0.0521827   0.0000000), wk =   0.0555556
        k(   18) = (  -0.0940288  -0.0173942   0.0000000), wk =   0.1111111
        k(   19) = (  -0.0940288   0.0173942   0.0000000), wk =   0.1111111
        k(   20) = (  -0.0940288  -0.1565481   0.0000000), wk =   0.0555556

     Largest allocated arrays     est. size (Mb)     dimensions
     Largest temporary arrays     est. size (Mb)     dimensions

     Initial potential from superposition of free atoms
     Check: negative starting charge=   -0.006059

     starting charge  185.99263, renormalised to  192.00000

     negative rho (up, down):  6.255E-03 0.000E+00

     *
     * You are using vdW-DF for exchange-correlation in this calculation.
     * Please cite the following three references that made this development
     * possible:
     *
     *   M. Dion, H. Rydberg, E. Schroder, D. C. Langreth, and
     *   B. I. Lundqvist, Phys. Rev. Lett. 92, 246401 (2004).
     *
     *   T. Thonhauser, V. R. Cooper, S. Li, A. Puzder, P. Hyldgaard, and
     *   D. C. Langreth, Phys. Rev. B 76, 125112 (2007).
     *
     *   G. Roman-Perez and J. M. Soler, Phys. Rev. Lett. 103, 096102 (2009).
     *
     *
     * If you are using vdW-DF2, please also cite:
     *
     *   K. Lee, E. D. Murray, L. Kong, B. I. Lundqvist, and
     *   D. C. Langreth, Phys. Rev. B 82, 081101(R) (2010).
     *
     *
     * If you are calculating the stress with vdW-DF, please also cite:
     *
     *   R. Sabatini, E. Kucukbenli, B. Kolb, T. Thonhauser, and
     *   S. de Gironcoli, J. Phys.: Condens. Matter 24, 424209 (2012).
     *

     Carrying out vdW-DF run using the following parameters:

     Nqs =      20    Nr_points =    1024   r_max =   100.000
     q_mesh =
               0.00001000     0.04494208     0.09755937     0.15916263
               0.23128650     0.31572767     0.41458969     0.53033537
               0.66584808     0.82450364     1.01025438     1.22772762
               1.48234092     1.78043706     2.12944203     2.53805004
               3.01644009     3.57652955     4.23227104     5.00000000

     Gradients computed in reciprocal space

     Adding external electric field

     Computed dipole along edir(3) :
        Dipole                0.0000 Ry au,          0.0000 Debye
        Dipole field          0.0000 Ry au

        Potential amp.       -0.0000 Ry
        Total length         44.9999 bohr

     Starting wfc are  132 randomized atomic wfcs

     Self-consistent Calculation

     iteration #  1     ecut=    36.75 Ry     beta=0.10
     Davidson diagonalization with overlap
     ethr =  1.00E-02,  avg # of iterations =  7.0

[...]

     total energy              =   -3375.64676060 Ry
     Harris-Foulkes estimate   =   -3378.58084622 Ry
     estimated scf accuracy    <      16.87020043 Ry

[...]

     End of self-consistent calculation

          k = 0.0000 0.0000 0.0000 ( 15713 PWs)   bands (ev):

   -93.6033 -93.5967 -93.5960 -93.5924 -93.5427 -93.5420 -93.2404 -93.2402
   -93.2396 -93.2396 -93.2361 -93.2359 -93.2252 -93.2250 -93.1669 -93.1668
   -93.1662 -93.1662 -63.3435 -63.3369 -63.2813 -63.2754 -63.2594 -63.1971
   -37.3397 -37.2958 -37.2810 -37.2795 -37.2387 -37.2288 -37.2251 -37.2097
   -37.1537 -37.1524 -37.1477 -37.0932 -37.0932 -36.9319 -36.8842 -36.8096
   -36.7652 -36.7598 -14.2596 -14.1363 -14.0819 -14.0178 -13.9979 -13.9945
   -13.9542 -13.8674 -13.8626 -13.8442 -13.8244 -13.7609 -13.7159 -13.6951
   -13.6860 -13.6844 -13.5771 -13.5636 -13.5565 -13.5473 -13.5333 -13.5278
   -13.5219 -13.4814 -13.4758 -13.4730 -13.4403 -13.4401 -13.3588 -13.3394
    -9.2589  -7.4286  -5.5927  -4.6636  -3.3461  -2.7362  -2.5372  -1.8766
    -1.6797  -1.6775  -1.3668  -0.9999  -0.9637  -0.4397  -0.2731  -0.1090
    -0.0658   0.1231   0.1632   0.1838   0.8042   0.8223   0.8324   0.8854
     1.2122   1.4469   1.4530   1.5192   1.5249   1.7848   1.8827   2.0165
     2.1998   2.2336   2.3029   2.4841   2.5627   2.6559   2.7234   2.8118
     3.2158   3.2394   3.3175   3.5288   3.8363   3.9733   4.3434   4.6809
     4.8740   5.2428   5.3172   5.5068   6.2422   6.9798

[...]

          k =-0.0940-0.0522 0.0000 ( 15750 PWs)   bands (ev):

[...]

     the Fermi energy is     1.0537 ev

!    total energy              =   -3374.12982896 Ry
     Harris-Foulkes estimate   =   -3374.12982661 Ry
     estimated scf accuracy    <       0.00000039 Ry

     The total energy is the sum of the following terms:

     one-electron contribution =  -23602.43922024 Ry
     hartree contribution      =   11801.61642893 Ry
     xc contribution           =    -421.27557230 Ry
     ewald contribution        =    8848.04199913 Ry
     electric field correction =       0.00000000 Ry
     smearing contrib. (-TS)   =      -0.07346448 Ry

     convergence has been achieved in  20 iterations

 BEEF-vdW xc energy contributions
           1 :   -372.897485682083
           2 :    338.027132501137
           3 :   -279.677978004431
           4 :    215.030417456391
           5 :   -159.304145173557
           6 :    120.042821159641
           7 :   -96.0508458845316
           8 :    80.7155831798173
[...]

     iteration # 12     ecut=    36.75 Ry     beta=0.10
     Davidson diagonalization with overlap
     c_bands:  1 eigenvalues not converged
     ethr =  1.27E-06,  avg # of iterations =  5.7

[...]

     Program PWSCF v.5.1rc2 (svn rev. 11289) starts on 19Dec2018 at  9:38: 0

[...]

     Program PWSCF v.5.1rc2 (svn rev. 11289) starts on 19Dec2018 at  9:43:59

[...]

     Found symmetry operation: I + ( -0.5000  0.0000  0.0000)
     This is a supercell, fractional translations are disabled

[...]

     Program PWSCF v.5.1rc2 (svn rev. 11289) starts on 19Dec2018 at  9:49:56

     Current dimensions of program PWSCF are:
     Max number of different atomic species (ntypx) = 10
     Max number of k-points (npk) =  40000
     Max angular momentum in pseudopotentials (lmaxx) =  3
     Presently stress not available with electric field

     IMPORTANT: XC functional enforced from input :
     Exchange-correlation      = BEEF-VDW ( 1  4 27 13 2)
     Any further DFT definition will be discarded
     Please, verify this is what you really want

     Subspace diagonalization in iterative solution of the eigenvalue problem:
     a serial algorithm will be used

     bravais-lattice index     =            0
     lattice parameter (alat)  =       1.8897  a.u.
     unit-cell volume          =    4198.8203 (a.u.)^3
     number of atoms/cell      =           12
     number of atomic types    =            2
     number of electrons       =       192.00
     number of Kohn-Sham states=          126
     kinetic-energy cutoff     =      36.7493  Ry
     charge density cutoff     =     367.4932  Ry
     convergence threshold     =      1.0E-06
     mixing beta               =       0.1000
     number of iterations used =           10  plain     mixing
     Exchange-correlation      = BEEF-VDW ( 1  4 27 13 2)
     nstep                     =           50

     celldm(1)=   1.889726  celldm(2)=   0.000000  celldm(3)=   0.000000
     celldm(4)=   0.000000  celldm(5)=   0.000000  celldm(6)=   0.000000

     crystal axes: (cart. coord. in units of alat)
               a(1) = (   5.317521   0.000000   0.000000 )
               a(2) = (  -2.658761   4.790860   0.000000 )
               a(3) = (   0.000000   0.000000  24.423505 )

     reciprocal axes: (cart. coord. in units 2 pi/alat)
               b(1) = (  0.188058  0.104365  0.000000 )
               b(2) = (  0.000000  0.208731  0.000000 )
               b(3) = (  0.000000  0.000000  0.040944 )

     PseudoPot. # 1 for V  read from file:
     /afs/slac.stanford.edu/u/if/mamunm/psp/gbrv1.5pbe/V.UPF
     MD5 check sum: 22b79981416ebb76fdaf5b1b8640f6fb
     Pseudo is Ultrasoft + core correction, Zval = 13.0
     Generated by new atomic code, or converted to UPF format
     Using radial grid of  853 points,  6 beta functions with:
                l(1) =   0
                l(2) =   0
                l(3) =   1
                l(4) =   1
                l(5) =   2
                l(6) =   2
     Q(r) pseudized with  8 coefficients,  rinner =    1.100   1.100   1.100
                                                       1.100   1.100

     PseudoPot. # 2 for Ga read from file:
     /afs/slac.stanford.edu/u/if/mamunm/psp/gbrv1.5pbe/Ga.UPF
     MD5 check sum: ccd671392a58a050fbb373893b4fcd66
     Pseudo is Ultrasoft + core correction, Zval = 19.0
     Generated by new atomic code, or converted to UPF format
     Using radial grid of  871 points,  6 beta functions with:
                l(1) =   0
                l(2) =   0
                l(3) =   1
                l(4) =   1
                l(5) =   2
                l(6) =   2
     Q(r) pseudized with  8 coefficients,  rinner =    1.250   1.250   1.250
                                                       1.250   1.250

     vdW kernel table read from file vdW_kernel_table
     MD5 check sum: 095c7af220d748ca6e76c0b4c6cfb241

     atomic species   valence    mass     pseudopotential
        V1            13.00    50.94150     V ( 1.00)
        Ga1           19.00    69.72300     Ga( 1.00)

     No symmetry found

   Cartesian axes

     site n.     atom                  positions (alat units)
         1           V1  tau(   1) = (   0.0000000   0.0000000  10.0000000  )
         2           V1  tau(   2) = (   2.6587606   0.0000000  10.0000000  )
         3           Ga1 tau(   3) = (   1.3293803   2.3954299  10.0000000  )
         4           Ga1 tau(   4) = (  -1.3293803   2.3954299  10.0000000  )
         5           V1  tau(   5) = (   2.6587606   1.4755198  12.2117526  )
         6           V1  tau(   6) = (  -0.0000000   1.4755198  12.2117526  )
         7           Ga1 tau(   7) = (  -1.3293803   3.8709496  12.2117526  )
         8           Ga1 tau(   8) = (   1.3293803   3.8709496  12.2117526  )
         9           V1  tau(   9) = (  -0.0000194   2.7838190  14.2651790  )
        10           V1  tau(  10) = (   2.6587376   2.7838273  14.2651704  )
        11           Ga1 tau(  11) = (   3.9880156   0.4341125  14.6649256  )
        12           Ga1 tau(  12) = (   1.3294484   0.4341040  14.6649657  )

     number of k points=    20  Fermi-Dirac smearing, width (Ry)=  0.0110
                       cart. coord. in units 2pi/alat
        k(    1) = (   0.0000000   0.0000000   0.0000000), wk =   0.0555556
        k(    2) = (   0.0000000   0.0347885   0.0000000), wk =   0.1111111
        k(    3) = (   0.0000000   0.0695769   0.0000000), wk =   0.1111111
        k(    4) = (   0.0000000  -0.1043654   0.0000000), wk =   0.0555556
        k(    5) = (   0.0313429   0.0173942   0.0000000), wk =   0.1111111
        k(    6) = (   0.0313429   0.0521827   0.0000000), wk =   0.1111111
        k(    7) = (   0.0313429   0.0869712   0.0000000), wk =   0.1111111
        k(    8) = (   0.0313429  -0.0869712   0.0000000), wk =   0.1111111
        k(    9) = (   0.0313429  -0.0521827   0.0000000), wk =   0.1111111
        k(   10) = (   0.0313429  -0.0173942   0.0000000), wk =   0.1111111
        k(   11) = (   0.0626858   0.0347885   0.0000000), wk =   0.1111111
        k(   12) = (   0.0626858   0.0695769   0.0000000), wk =   0.1111111
        k(   13) = (   0.0626858   0.1043654   0.0000000), wk =   0.1111111
        k(   14) = (   0.0626858  -0.0695769   0.0000000), wk =   0.1111111
        k(   15) = (   0.0626858  -0.0347885   0.0000000), wk =   0.1111111
        k(   16) = (   0.0626858   0.0000000   0.0000000), wk =   0.1111111
        k(   17) = (  -0.0940288  -0.0521827   0.0000000), wk =   0.0555556
        k(   18) = (  -0.0940288  -0.0173942   0.0000000), wk =   0.1111111
        k(   19) = (  -0.0940288   0.0173942   0.0000000), wk =   0.1111111
        k(   20) = (  -0.0940288  -0.1565481   0.0000000), wk =   0.0555556

     Largest allocated arrays     est. size (Mb)     dimensions
     Largest temporary arrays     est. size (Mb)     dimensions

     Initial potential from superposition of free atoms
     Check: negative starting charge=   -0.005686

     starting charge  185.99263, renormalised to  192.00000

[...]

     *
     * You are using vdW-DF for exchange-correlation in this calculation.
     * Please cite the following three references that made this development
     * possible:
     *
     *   M. Dion, H. Rydberg, E. Schroder, D. C. Langreth, and
     *   B. I. Lundqvist, Phys. Rev. Lett. 92, 246401 (2004).
     *
     *   T. Thonhauser, V. R. Cooper, S. Li, A. Puzder, P. Hyldgaard, and
     *   D. C. Langreth, Phys. Rev. B 76, 125112 (2007).
     *
     *   G. Roman-Perez and J. M. Soler, Phys. Rev. Lett. 103, 096102 (2009).
     *
     *
     * If you are using vdW-DF2, please also cite:
     *
     *   K. Lee, E. D. Murray, L. Kong, B. I. Lundqvist, and
     *   D. C. Langreth, Phys. Rev. B 82, 081101(R) (2010).
     *
     *
     * If you are calculating the stress with vdW-DF, please also cite:
     *
     *   R. Sabatini, E. Kucukbenli, B. Kolb, T. Thonhauser, and
     *   S. de Gironcoli, J. Phys.: Condens. Matter 24, 424209 (2012).
     *

     Carrying out vdW-DF run using the following parameters:

     Nqs =      20    Nr_points =    1024   r_max =   100.000
     q_mesh =
               0.00001000     0.04494208     0.09755937     0.15916263
               0.23128650     0.31572767     0.41458969     0.53033537
               0.66584808     0.82450364     1.01025438     1.22772762
               1.48234092     1.78043706     2.12944203     2.53805004
               3.01644009     3.57652955     4.23227104     5.00000000

     Gradients computed in reciprocal space

[...]

     Starting wfc are  132 randomized atomic wfcs

     Self-consistent Calculation

[...]

     total energy              =   -3374.16311503 Ry
     Harris-Foulkes estimate   =   -3374.16311358 Ry
     estimated scf accuracy    <       0.00000275 Ry

     iteration # 21     ecut=    36.75 Ry     beta=0.10
     Davidson diagonalization with overlap
     ethr =  1.43E-09,  avg # of iterations =  2.3

[...]

     negative rho (up, down):  6.841E-03 0.000E+00

     Adding external electric field

     Computed dipole along edir(3) :
        Dipole               -0.0280 Ry au,         -0.0711 Debye
        Dipole field         -0.0001 Ry au

        Potential amp.        0.0075 Ry
        Total length         44.9999 bohr

     End of self-consistent calculation

[...]

          k = 0.0627 0.0000 0.0000 ( 15792 PWs)   bands (ev):

[...]

          k =-0.0940-0.1565 0.0000 ( 15750 PWs)   bands (ev):

   -93.5897 -93.5897 -93.5856 -93.5856 -93.5322 -93.5322 -93.2800 -93.2799
   -93.2729 -93.2729 -93.2720 -93.2720 -93.2518 -93.2517 -93.2071 -93.2071
   -93.1824 -93.1824 -63.3731 -63.3729 -63.2839 -63.2838 -63.1974 -63.1974
   -37.3901 -37.3900 -37.2886 -37.2884 -37.1934 -37.1932 -37.1478 -37.1477
   -37.1009 -37.1009 -37.0777 -37.0776 -37.0515 -37.0514 -36.9703 -36.9702
   -36.7825 -36.7824 -14.0392 -14.0392 -13.9874 -13.9874 -13.9553 -13.9553
   -13.9464 -13.9464 -13.9278 -13.9278 -13.6529 -13.6528 -13.6336 -13.6336
   -13.6229 -13.6228 -13.6084 -13.6083 -13.6032 -13.6031 -13.5821 -13.5821
   -13.5662 -13.5661 -13.5613 -13.5613 -13.5455 -13.5455 -13.5325 -13.5325
    -7.5307  -7.5306  -5.9381  -5.9377  -4.5516  -4.5513  -2.2402  -2.2401
    -1.3444  -1.3443  -0.7362  -0.7361  -0.4743  -0.4742  -0.0372  -0.0371
     0.1145   0.1145   0.2050   0.2051   0.7909   0.7909   0.8607   0.8607
     1.1098   1.1099   1.4718   1.4718   1.4973   1.4973   1.8810   1.8810
     2.0445   2.0445   2.4425   2.4425   2.6608   2.6608   2.9081   2.9081
     3.3640   3.3641   3.9131   3.9131   5.2323   5.2324   5.4545   5.4547
     6.0237   6.0238   6.2246   6.2247   6.4771   6.4772

     the Fermi energy is     1.0025 ev

!    total energy              =   -3374.16311744 Ry
     Harris-Foulkes estimate   =   -3374.16311538 Ry
     estimated scf accuracy    <       0.00000049 Ry

     The total energy is the sum of the following terms:

     one-electron contribution =  -23343.81165112 Ry
     hartree contribution      =   11672.21856641 Ry
     xc contribution           =    -421.25702560 Ry
     ewald contribution        =    8718.75257724 Ry
     electric field correction =       0.00000234 Ry
     smearing contrib. (-TS)   =      -0.06558671 Ry

     convergence has been achieved in  21 iterations

 BEEF-vdW xc energy contributions
           1 :   -372.879951760134
           2 :    337.989180733910
           3 :   -279.604492601169
           4 :    214.918015002824
           5 :   -159.165057958075
           6 :    119.898426605538
           7 :   -95.9156030230645
           8 :    80.5887159782155
           9 :   -67.0369187890913
          10 :    51.9879282065662
          11 :   -36.4872137179630
          12 :    23.7550245619634
          13 :   -16.1409797862461
          14 :    13.3152084690732
          15 :   -12.6783244771865
          16 :    11.3382926871682
          17 :   -8.04380077152047
          18 :    3.71397460062616
          19 :  -0.372600641743077
          20 :  -0.559582653864538
          21 :  -0.683950091397946
          22 :    2.49582223506525
          23 :   -3.15887728900225
          24 :    2.07556039145743
          25 :  -7.625212424272831E-002
          26 :   -1.33393111204134
          27 :    1.14932374774958
          28 :   0.425692140178285
          29 :   -2.20621057691244
          30 :    2.95024156710110
          31 :   -30.5678563650536
          32 :   -21.3538212029989

     Forces acting on atoms (Ry/au):

     negative rho (up, down):  6.841E-03 0.000E+00
     atom    1 type  1   force =    -0.00000053    0.01084049    0.03575542
     atom    2 type  1   force =    -0.00000033    0.01083666    0.03575873
     atom    3 type  2   force =    -0.00001077   -0.00129355   -0.03847056
     atom    4 type  2   force =     0.00001673   -0.00129449   -0.03847020
     atom    5 type  1   force =    -0.00000086   -0.01731422    0.00128361
     atom    6 type  1   force =    -0.00000019   -0.01731741    0.00128977
     atom    7 type  2   force =    -0.00002371    0.00721147    0.00157303
     atom    8 type  2   force =     0.00002473    0.00721277    0.00156738
     atom    9 type  1   force =    -0.00000037    0.00068971    0.00080223
     atom   10 type  1   force =    -0.00000073    0.00070518    0.00080886
     atom   11 type  2   force =     0.00005353   -0.00013716   -0.00095158
     atom   12 type  2   force =    -0.00005749   -0.00013943   -0.00094668

     Total force =     0.080445     Total SCF correction =     0.001930

     entering subroutine stress ...

     negative rho (up, down):  6.841E-03 0.000E+00
          total   stress  (Ry/bohr**3)                   (kbar)     P=  -12.07
  -0.00007731  -0.00000000   0.00000000        -11.37     -0.00      0.00
  -0.00000000  -0.00017203  -0.00001927         -0.00    -25.31     -2.84
   0.00000000  -0.00001927   0.00000319          0.00     -2.84      0.47

 !ASE

     Writing output data file calc.save

     General routines

     Parallel routines

   This run was terminated on:   9:55:47  19Dec2018

   JOB DONE.
Job  /afs/slac/g/suncat/bin/suncat-tsmpirun -x LD_LIBRARY_PATH -wdir /scratch/qe530749_7XlFN pw.x -in pw.inp

TID   HOST_NAME   COMMAND_LINE            STATUS            TERMINATION_TIME
00000 suncat2063 pw.x -in pw.inp   Done                     12/19/2018 09:55:47
00001 suncat2063 pw.x -in pw.inp   Done                     12/19/2018 09:55:47
00002 suncat2063 pw.x -in pw.inp   Done                     12/19/2018 09:55:47
00003 suncat2063 pw.x -in pw.inp   Done                     12/19/2018 09:55:47
00004 suncat2063 pw.x -in pw.inp   Done                     12/19/2018 09:55:47
00005 suncat2063 pw.x -in pw.inp   Done                     12/19/2018 09:55:47
00006 suncat2063 pw.x -in pw.inp   Done                     12/19/2018 09:55:47
00007 suncat2063 pw.x -in pw.inp   Done                     12/19/2018 09:55:47
00008 suncat2063 pw.x -in pw.inp   Done                     12/19/2018 09:55:47
00009 suncat2063 pw.x -in pw.inp   Done                     12/19/2018 09:55:47
00010 suncat2063 pw.x -in pw.inp   Done                     12/19/2018 09:55:47
00011 suncat2063 pw.x -in pw.inp   Done                     12/19/2018 09:55:47
00012 suncat2063 pw.x -in pw.inp   Done                     12/19/2018 09:55:47
00013 suncat2063 pw.x -in pw.inp   Done                     12/19/2018 09:55:47
00014 suncat2063 pw.x -in pw.inp   Done                     12/19/2018 09:55:47
00015 suncat2063 pw.x -in pw.inp   Done                     12/19/2018 09:55:47
00016 suncat2042 pw.x -in pw.inp   Done                     12/19/2018 09:55:47
00017 suncat2042 pw.x -in pw.inp   Done                     12/19/2018 09:55:47
00018 suncat2042 pw.x -in pw.inp   Done                     12/19/2018 09:55:47
00019 suncat2042 pw.x -in pw.inp   Done                     12/19/2018 09:55:47
00020 suncat2042 pw.x -in pw.inp   Done                     12/19/2018 09:55:47
00021 suncat2042 pw.x -in pw.inp   Done                     12/19/2018 09:55:47
00022 suncat2042 pw.x -in pw.inp   Done                     12/19/2018 09:55:47
00023 suncat2042 pw.x -in pw.inp   Done                     12/19/2018 09:55:47
00024 suncat2042 pw.x -in pw.inp   Done                     12/19/2018 09:55:47
00025 suncat2042 pw.x -in pw.inp   Done                     12/19/2018 09:55:47
00026 suncat2042 pw.x -in pw.inp   Done                     12/19/2018 09:55:47
00027 suncat2042 pw.x -in pw.inp   Done                     12/19/2018 09:55:47
00028 suncat2042 pw.x -in pw.inp   Done                     12/19/2018 09:55:47
00029 suncat2042 pw.x -in pw.inp   Done                     12/19/2018 09:55:47
00030 suncat2042 pw.x -in pw.inp   Done                     12/19/2018 09:55:47
00031 suncat2042 pw.x -in pw.inp   Done                     12/19/2018 09:55:47