     Program PWSCF v.5.1rc2 (svn rev. 11289) starts on 20Dec2018 at  4:11:41

     Current dimensions of program PWSCF are:
     Max number of different atomic species (ntypx) = 10
     Max number of k-points (npk) =  40000
     Max angular momentum in pseudopotentials (lmaxx) =  3
     Presently stress not available with electric field

     IMPORTANT: XC functional enforced from input :
     Exchange-correlation      = BEEF-VDW ( 1  4 27 13 2)
     Any further DFT definition will be discarded
     Please, verify this is what you really want

     Subspace diagonalization in iterative solution of the eigenvalue problem:
     a serial algorithm will be used

     Generating pointlists ...
     new r_m :   0.4125 (alat units)  0.7795 (a.u.) for type    1
     new r_m :   0.4125 (alat units)  0.7795 (a.u.) for type    2

     bravais-lattice index     =            0
     lattice parameter (alat)  =       1.8897  a.u.
     unit-cell volume          =    3579.5977 (a.u.)^3
     number of atoms/cell      =           12
     number of atomic types    =            2
     number of electrons       =       210.00
     number of Kohn-Sham states=          135
     kinetic-energy cutoff     =      36.7493  Ry
     charge density cutoff     =     367.4932  Ry
     convergence threshold     =      1.0E-06
     mixing beta               =       0.1000
     number of iterations used =           10  plain     mixing
     Exchange-correlation      = BEEF-VDW ( 1  4 27 13 2)
     nstep                     =           50

     celldm(1)=   1.889726  celldm(2)=   0.000000  celldm(3)=   0.000000
     celldm(4)=   0.000000  celldm(5)=   0.000000  celldm(6)=   0.000000

     crystal axes: (cart. coord. in units of alat)
               a(1) = (   5.039765   0.000000   0.000000 )
               a(2) = (  -2.519883   4.364565   0.000000 )
               a(3) = (   0.000000   0.000000  24.114951 )

     reciprocal axes: (cart. coord. in units 2 pi/alat)
               b(1) = (  0.198422  0.114559  0.000000 )
               b(2) = (  0.000000  0.229118  0.000000 )
               b(3) = (  0.000000  0.000000  0.041468 )

     PseudoPot. # 1 for Co read from file:
     /afs/slac.stanford.edu/u/if/mamunm/psp/gbrv1.5pbe/Co.UPF
     MD5 check sum: 5f91765df6ddd3222702df6e7b74a16d
     Pseudo is Ultrasoft + core correction, Zval = 17.0
     Generated by new atomic code, or converted to UPF format
     Using radial grid of  863 points,  6 beta functions with:
                l(1) =   0
                l(2) =   0
                l(3) =   1
                l(4) =   1
                l(5) =   2
                l(6) =   2
     Q(r) pseudized with  8 coefficients,  rinner =    1.200   1.200   1.200
                                                       1.200   1.200

     PseudoPot. # 2 for Ga read from file:
     /afs/slac.stanford.edu/u/if/mamunm/psp/gbrv1.5pbe/Ga.UPF
     MD5 check sum: ccd671392a58a050fbb373893b4fcd66
     Pseudo is Ultrasoft + core correction, Zval = 19.0
     Generated by new atomic code, or converted to UPF format
     Using radial grid of  871 points,  6 beta functions with:
                l(1) =   0
                l(2) =   0
                l(3) =   1
                l(4) =   1
                l(5) =   2
                l(6) =   2
     Q(r) pseudized with  8 coefficients,  rinner =    1.250   1.250   1.250
                                                       1.250   1.250

     vdW kernel table read from file vdW_kernel_table
     MD5 check sum: 095c7af220d748ca6e76c0b4c6cfb241

     atomic species   valence    mass     pseudopotential
        Co1           17.00    58.93319     Co( 1.00)
        Ga1           19.00    69.72300     Ga( 1.00)

     Starting magnetic structure
     atomic species   magnetization
        Co1          0.118
        Ga1          0.105

     No symmetry found

   Cartesian axes

     site n.     atom                  positions (alat units)
         1           Co1 tau(   1) = (   0.0000000   0.0000000  10.0000000  )
         2           Co1 tau(   2) = (  -1.2599413   2.1822824  10.0000000  )
         3           Co1 tau(   3) = (   1.2599413   2.1822824  10.0000000  )
         4           Ga1 tau(   4) = (   2.5198826   0.0000000  10.0000000  )
         5           Co1 tau(   5) = (   2.5198826   1.4548549  12.0574755  )
         6           Co1 tau(   6) = (   1.2599413   3.6371373  12.0574755  )
         7           Co1 tau(   7) = (  -1.2599413   3.6371373  12.0574755  )
         8           Ga1 tau(   8) = (   0.0000000   1.4548549  12.0574755  )
         9           Co1 tau(   9) = (  -0.0000000   2.9097098  14.1149511  )
        10           Co1 tau(  10) = (   1.2599413   0.7274275  14.1149511  )
        11           Co1 tau(  11) = (   3.7798239   0.7274275  14.1149511  )
        12           Ga1 tau(  12) = (   2.5198826   2.9097098  14.1149511  )

     number of k points=    40  Fermi-Dirac smearing, width (Ry)=  0.0110
                       cart. coord. in units 2pi/alat
        k(    1) = (   0.0000000   0.0000000   0.0000000), wk =   0.0277778
        k(    2) = (   0.0000000   0.0381863   0.0000000), wk =   0.0555556
        k(    3) = (   0.0000000   0.0763726   0.0000000), wk =   0.0555556
        k(    4) = (   0.0000000  -0.1145590   0.0000000), wk =   0.0277778
        k(    5) = (   0.0330703   0.0190932   0.0000000), wk =   0.0555556
        k(    6) = (   0.0330703   0.0572795   0.0000000), wk =   0.0555556
        k(    7) = (   0.0330703   0.0954658   0.0000000), wk =   0.0555556
        k(    8) = (   0.0330703  -0.0954658   0.0000000), wk =   0.0555556
        k(    9) = (   0.0330703  -0.0572795   0.0000000), wk =   0.0555556
        k(   10) = (   0.0330703  -0.0190932   0.0000000), wk =   0.0555556
        k(   11) = (   0.0661406   0.0381863   0.0000000), wk =   0.0555556
        k(   12) = (   0.0661406   0.0763726   0.0000000), wk =   0.0555556
        k(   13) = (   0.0661406   0.1145590   0.0000000), wk =   0.0555556
        k(   14) = (   0.0661406  -0.0763726   0.0000000), wk =   0.0555556
        k(   15) = (   0.0661406  -0.0381863   0.0000000), wk =   0.0555556
        k(   16) = (   0.0661406   0.0000000   0.0000000), wk =   0.0555556
        k(   17) = (  -0.0992110  -0.0572795   0.0000000), wk =   0.0277778
        k(   18) = (  -0.0992110  -0.0190932   0.0000000), wk =   0.0555556
        k(   19) = (  -0.0992110   0.0190932   0.0000000), wk =   0.0555556
        k(   20) = (  -0.0992110  -0.1718384   0.0000000), wk =   0.0277778
        k(   21) = (   0.0000000   0.0000000   0.0000000), wk =   0.0277778
        k(   22) = (   0.0000000   0.0381863   0.0000000), wk =   0.0555556
        k(   23) = (   0.0000000   0.0763726   0.0000000), wk =   0.0555556
        k(   24) = (   0.0000000  -0.1145590   0.0000000), wk =   0.0277778
        k(   25) = (   0.0330703   0.0190932   0.0000000), wk =   0.0555556
        k(   26) = (   0.0330703   0.0572795   0.0000000), wk =   0.0555556
        k(   27) = (   0.0330703   0.0954658   0.0000000), wk =   0.0555556
        k(   28) = (   0.0330703  -0.0954658   0.0000000), wk =   0.0555556
        k(   29) = (   0.0330703  -0.0572795   0.0000000), wk =   0.0555556
        k(   30) = (   0.0330703  -0.0190932   0.0000000), wk =   0.0555556
        k(   31) = (   0.0661406   0.0381863   0.0000000), wk =   0.0555556
        k(   32) = (   0.0661406   0.0763726   0.0000000), wk =   0.0555556
        k(   33) = (   0.0661406   0.1145590   0.0000000), wk =   0.0555556
        k(   34) = (   0.0661406  -0.0763726   0.0000000), wk =   0.0555556
        k(   35) = (   0.0661406  -0.0381863   0.0000000), wk =   0.0555556
        k(   36) = (   0.0661406   0.0000000   0.0000000), wk =   0.0555556
        k(   37) = (  -0.0992110  -0.0572795   0.0000000), wk =   0.0277778
        k(   38) = (  -0.0992110  -0.0190932   0.0000000), wk =   0.0555556
        k(   39) = (  -0.0992110   0.0190932   0.0000000), wk =   0.0555556
        k(   40) = (  -0.0992110  -0.1718384   0.0000000), wk =   0.0277778

     Largest allocated arrays     est. size (Mb)     dimensions
     Largest temporary arrays     est. size (Mb)     dimensions

     Check: negative/imaginary core charge=   -0.000006    0.000000

     Initial potential from superposition of free atoms
     Check: negative starting charge=(component1):   -0.000332
     Check: negative starting charge=(component2):   -0.000267

     starting charge  197.99993, renormalised to  210.00000

     negative rho (up, down):  3.521E-04 2.832E-04

     *
     * You are using vdW-DF for exchange-correlation in this calculation.
     * Please cite the following three references that made this development
     * possible:
     *
     *   M. Dion, H. Rydberg, E. Schroder, D. C. Langreth, and
     *   B. I. Lundqvist, Phys. Rev. Lett. 92, 246401 (2004).
     *
     *   T. Thonhauser, V. R. Cooper, S. Li, A. Puzder, P. Hyldgaard, and
     *   D. C. Langreth, Phys. Rev. B 76, 125112 (2007).
     *
     *   G. Roman-Perez and J. M. Soler, Phys. Rev. Lett. 103, 096102 (2009).
     *
     *
     * If you are using vdW-DF2, please also cite:
     *
     *   K. Lee, E. D. Murray, L. Kong, B. I. Lundqvist, and
     *   D. C. Langreth, Phys. Rev. B 82, 081101(R) (2010).
     *
     *
     * If you are calculating the stress with vdW-DF, please also cite:
     *
     *   R. Sabatini, E. Kucukbenli, B. Kolb, T. Thonhauser, and
     *   S. de Gironcoli, J. Phys.: Condens. Matter 24, 424209 (2012).
     *

     Carrying out vdW-DF run using the following parameters:

     Nqs =      20    Nr_points =    1024   r_max =   100.000
     q_mesh =
               0.00001000     0.04494208     0.09755937     0.15916263
               0.23128650     0.31572767     0.41458969     0.53033537
               0.66584808     0.82450364     1.01025438     1.22772762
               1.48234092     1.78043706     2.12944203     2.53805004
               3.01644009     3.57652955     4.23227104     5.00000000

     Gradients computed in reciprocal space

     Adding external electric field

     Computed dipole along edir(3) :
        Dipole                0.0000 Ry au,          0.0000 Debye
        Dipole field          0.0000 Ry au

        Potential amp.       -0.0000 Ry
        Total length         44.4314 bohr

[...]

     Starting wfc are  153 randomized atomic wfcs

     Self-consistent Calculation

     iteration #  1     ecut=    36.75 Ry     beta=0.10
     Davidson diagonalization with overlap
     ethr =  1.00E-02,  avg # of iterations =  7.0

[...]

     Magnetic moment per site:
     atom:    1    charge:    8.4788    magn:    0.9608    constr:    0.0000
     atom:    2    charge:    8.4788    magn:    0.9607    constr:    0.0000
     atom:    3    charge:    8.4788    magn:    0.9607    constr:    0.0000
     atom:    4    charge:   11.3804    magn:    1.1596    constr:    0.0000
     atom:    5    charge:    8.4739    magn:    0.9560    constr:    0.0000
     atom:    6    charge:    8.4739    magn:    0.9560    constr:    0.0000
     atom:    7    charge:    8.4739    magn:    0.9560    constr:    0.0000
     atom:    8    charge:   11.3717    magn:    1.1541    constr:    0.0000
[...]
        k(    5) = (   0.0330703   0.0190932   0.0000000), wk =   0.0555556
        k(    6) = (   0.0330703   0.0572795   0.0000000), wk =   0.0555556
        k(    7) = (   0.0330703   0.0954658   0.0000000), wk =   0.0555556
        k(    8) = (   0.0330703  -0.0954658   0.0000000), wk =   0.0555556
        k(    9) = (   0.0330703  -0.0572795   0.0000000), wk =   0.0555556
        k(   10) = (   0.0330703  -0.0190932   0.0000000), wk =   0.0555556
        k(   11) = (   0.0661406   0.0381863   0.0000000), wk =   0.0555556
        k(   12) = (   0.0661406   0.0763726   0.0000000), wk =   0.0555556
        k(   13) = (   0.0661406   0.1145590   0.0000000), wk =   0.0555556
        k(   14) = (   0.0661406  -0.0763726   0.0000000), wk =   0.0555556
        k(   15) = (   0.0661406  -0.0381863   0.0000000), wk =   0.0555556
        k(   16) = (   0.0661406   0.0000000   0.0000000), wk =   0.0555556
        k(   17) = (  -0.0992110  -0.0572795   0.0000000), wk =   0.0277778
        k(   18) = (  -0.0992110  -0.0190932   0.0000000), wk =   0.0555556
        k(   19) = (  -0.0992110   0.0190932   0.0000000), wk =   0.0555556
        k(   20) = (  -0.0992110  -0.1718384   0.0000000), wk =   0.0277778
        k(   21) = (   0.0000000   0.0000000   0.0000000), wk =   0.0277778
        k(   22) = (   0.0000000   0.0381863   0.0000000), wk =   0.0555556
        k(   23) = (   0.0000000   0.0763726   0.0000000), wk =   0.0555556
        k(   24) = (   0.0000000  -0.1145590   0.0000000), wk =   0.0277778
        k(   25) = (   0.0330703   0.0190932   0.0000000), wk =   0.0555556
        k(   26) = (   0.0330703   0.0572795   0.0000000), wk =   0.0555556
        k(   27) = (   0.0330703   0.0954658   0.0000000), wk =   0.0555556
        k(   28) = (   0.0330703  -0.0954658   0.0000000), wk =   0.0555556
        k(   29) = (   0.0330703  -0.0572795   0.0000000), wk =   0.0555556
        k(   30) = (   0.0330703  -0.0190932   0.0000000), wk =   0.0555556
        k(   31) = (   0.0661406   0.0381863   0.0000000), wk =   0.0555556
        k(   32) = (   0.0661406   0.0763726   0.0000000), wk =   0.0555556
        k(   33) = (   0.0661406   0.1145590   0.0000000), wk =   0.0555556
        k(   34) = (   0.0661406  -0.0763726   0.0000000), wk =   0.0555556
        k(   35) = (   0.0661406  -0.0381863   0.0000000), wk =   0.0555556
        k(   36) = (   0.0661406   0.0000000   0.0000000), wk =   0.0555556
        k(   37) = (  -0.0992110  -0.0572795   0.0000000), wk =   0.0277778
        k(   38) = (  -0.0992110  -0.0190932   0.0000000), wk =   0.0555556
        k(   39) = (  -0.0992110   0.0190932   0.0000000), wk =   0.0555556
        k(   40) = (  -0.0992110  -0.1718384   0.0000000), wk =   0.0277778

     Largest allocated arrays     est. size (Mb)     dimensions
     Largest temporary arrays     est. size (Mb)     dimensions

     Check: negative/imaginary core charge=   -0.000006    0.000000

     Initial potential from superposition of free atoms
     Check: negative starting charge=(component1):   -0.000344
     Check: negative starting charge=(component2):   -0.000277

     starting charge  197.99993, renormalised to  210.00000

[...]

     *
     * You are using vdW-DF for exchange-correlation in this calculation.
     * Please cite the following three references that made this development
     * possible:
     *
     *   M. Dion, H. Rydberg, E. Schroder, D. C. Langreth, and
     *   B. I. Lundqvist, Phys. Rev. Lett. 92, 246401 (2004).
     *
     *   T. Thonhauser, V. R. Cooper, S. Li, A. Puzder, P. Hyldgaard, and
     *   D. C. Langreth, Phys. Rev. B 76, 125112 (2007).
     *
     *   G. Roman-Perez and J. M. Soler, Phys. Rev. Lett. 103, 096102 (2009).
     *
     *
     * If you are using vdW-DF2, please also cite:
     *
     *   K. Lee, E. D. Murray, L. Kong, B. I. Lundqvist, and
     *   D. C. Langreth, Phys. Rev. B 82, 081101(R) (2010).
     *
     *
     * If you are calculating the stress with vdW-DF, please also cite:
     *
     *   R. Sabatini, E. Kucukbenli, B. Kolb, T. Thonhauser, and
     *   S. de Gironcoli, J. Phys.: Condens. Matter 24, 424209 (2012).
     *

     Carrying out vdW-DF run using the following parameters:

     Nqs =      20    Nr_points =    1024   r_max =   100.000
     q_mesh =
               0.00001000     0.04494208     0.09755937     0.15916263
               0.23128650     0.31572767     0.41458969     0.53033537
               0.66584808     0.82450364     1.01025438     1.22772762
               1.48234092     1.78043706     2.12944203     2.53805004
               3.01644009     3.57652955     4.23227104     5.00000000

     Gradients computed in reciprocal space

[...]

     Starting wfc are  153 randomized atomic wfcs

     Self-consistent Calculation

[...]

     total energy              =   -3945.56189160 Ry
     Harris-Foulkes estimate   =   -3945.56189136 Ry
     estimated scf accuracy    <       0.00000179 Ry

[...]

     iteration # 37     ecut=    36.75 Ry     beta=0.10
     Davidson diagonalization with overlap
     ethr =  6.92E-10,  avg # of iterations =  1.0

[...]

     negative rho (up, down):  5.736E-04 3.820E-04

[...]

     Adding external electric field

     Computed dipole along edir(3) :
        Dipole                0.0131 Ry au,          0.0333 Debye
        Dipole field          0.0000 Ry au

        Potential amp.       -0.0041 Ry
        Total length         44.4314 bohr

     Magnetic moment per site:
     atom:    1    charge:    8.2911    magn:    0.8767    constr:    0.0000
     atom:    2    charge:    8.2911    magn:    0.8767    constr:    0.0000
     atom:    3    charge:    8.2913    magn:    0.8766    constr:    0.0000
     atom:    4    charge:   11.0371    magn:   -0.0009    constr:    0.0000
     atom:    5    charge:    8.2835    magn:    0.8218    constr:    0.0000
     atom:    6    charge:    8.2835    magn:    0.8218    constr:    0.0000
     atom:    7    charge:    8.2834    magn:    0.8219    constr:    0.0000
     atom:    8    charge:   11.0353    magn:   -0.0033    constr:    0.0000
     atom:    9    charge:    8.2901    magn:    0.8807    constr:    0.0000
     atom:   10    charge:    8.2899    magn:    0.8808    constr:    0.0000
     atom:   11    charge:    8.2901    magn:    0.8806    constr:    0.0000
     atom:   12    charge:   11.0386    magn:   -0.0011    constr:    0.0000

     End of self-consistent calculation

 ------ SPIN UP ------------

[...]

 ------ SPIN DOWN ----------

[...]

          k = 0.0661 0.0000 0.0000 ( 13447 PWs)   bands (ev):

[...]

          k =-0.0992-0.1718 0.0000 ( 13510 PWs)   bands (ev):

   -93.5276 -93.5274 -93.5246 -93.3675 -93.3345 -93.3097 -93.3095 -93.2973
   -93.2971 -93.1700 -93.1625 -93.1538 -93.0168 -93.0073 -93.0000 -92.9875
   -92.9797 -92.9718 -56.5981 -56.5477 -56.5439 -56.5401 -56.5349 -56.5294
   -56.5249 -56.5066 -56.4524 -56.4335 -56.4277 -56.4031 -56.4017 -56.3869
   -56.3740 -56.3731 -56.3635 -56.3584 -56.3437 -56.3105 -56.3050 -56.3026
   -56.2846 -56.2772 -56.2751 -56.2656 -56.2511 -13.9684 -13.9549 -13.9508
   -13.9361 -13.9347 -13.7238 -13.7207 -13.7006 -13.6993 -13.6942 -13.6903
   -13.6895 -13.6877 -13.6813 -13.6775  -7.5918  -6.9174  -5.8560  -4.6696
    -3.4457  -3.4432  -3.3134  -2.2232  -1.9498  -1.9220  -1.7107  -1.5199
    -1.4168  -1.3644  -1.1773  -0.9654  -0.9485  -0.8907  -0.7644  -0.6700
    -0.6521  -0.4703  -0.3948  -0.3594  -0.3486  -0.2003  -0.1626   0.0102
     0.0425   0.1837   0.1973   0.2426   0.2458   0.6487   0.7068   0.7733
     0.7935   0.8134   0.8748   0.9965   1.0085   1.0999   1.1115   1.1622
     1.2252   1.4400   1.4430   1.5557   1.7555   1.9180   1.9750   2.0169
     2.6517   2.9203   3.1592   3.4048   3.9750   4.4717   4.5647   6.2104
     6.4733   6.9193   7.1035   7.1372   7.4379   7.5144   7.7441   7.7717
     7.9989   8.4114   8.4636   8.5635   8.6877   8.7079   8.8327

     the Fermi energy is     0.9626 ev

!    total energy              =   -3945.56189183 Ry
     Harris-Foulkes estimate   =   -3945.56189191 Ry
     estimated scf accuracy    <       0.00000070 Ry

     The total energy is the sum of the following terms:

     one-electron contribution =  -32516.57762818 Ry
     hartree contribution      =   16267.34184872 Ry
     xc contribution           =    -453.69399797 Ry
     ewald contribution        =   12757.45224647 Ry
     electric field correction =       0.00000060 Ry
     smearing contrib. (-TS)   =      -0.08436148 Ry

     total magnetization       =    13.45 Bohr mag/cell
     absolute magnetization    =    15.38 Bohr mag/cell

     convergence has been achieved in  37 iterations

 BEEF-vdW xc energy contributions
           1 :   -401.737834504043
           2 :    364.773210820138
           3 :   -302.026074080608
           4 :    230.640101794185
           5 :   -166.369635323310
           6 :    117.866508406637
           7 :   -85.1971004486816
           8 :    62.6293249862912
           9 :   -43.5275978219216
          10 :    24.3603623764052
          11 :   -5.84343845547357
          12 :   -8.81717586566651
          13 :    16.9020491413822
          14 :   -18.2976845832892
          15 :    15.5539113518196
          16 :   -12.1903697106902
          17 :    10.6009103103206
          18 :   -10.9727958013191
          19 :    11.7581498338176
          20 :   -11.1745000248702
          21 :    8.59800601570765
          22 :   -4.95236024931012
          23 :    1.96115665748755
          24 :  -0.919891892635462
          25 :    1.86963769674674
          26 :   -3.69298989618892
          27 :    4.95951977198439
          28 :   -4.87888694682681
          29 :    3.71133438232334
          30 :   -2.43670063681077
          31 :   -32.4941578845793
          32 :   -22.4817496237775

     Forces acting on atoms (Ry/au):

     negative rho (up, down):  5.736E-04 3.820E-04
     atom    1 type  1   force =     0.00005122   -0.01131019    0.00298572
     atom    2 type  1   force =    -0.00978152    0.00568189    0.00299000
     atom    3 type  1   force =     0.00980117    0.00563423    0.00295092
     atom    4 type  2   force =    -0.00007625   -0.00001414   -0.04043762
     atom    5 type  1   force =     0.00000735    0.01050551    0.00908148
     atom    6 type  1   force =     0.00913319   -0.00523911    0.00892551
     atom    7 type  1   force =    -0.00911621   -0.00523746    0.00900566
     atom    8 type  2   force =    -0.00000096   -0.00004051    0.00201979
     atom    9 type  1   force =    -0.00038468   -0.00000327    0.00078362
     atom   10 type  1   force =     0.00021631    0.00002103    0.00077692
     atom   11 type  1   force =    -0.00029991    0.00041763    0.00082847
     atom   12 type  2   force =     0.00045029   -0.00041561    0.00008951

     Total force =     0.051257     Total SCF correction =     0.003970

     entering subroutine stress ...

     negative rho (up, down):  5.736E-04 3.820E-04
          total   stress  (Ry/bohr**3)                   (kbar)     P=  -10.27
  -0.00010271   0.00000002   0.00000004        -15.11      0.00      0.01
   0.00000002  -0.00010269  -0.00000006          0.00    -15.11     -0.01
   0.00000004  -0.00000006  -0.00000395          0.01     -0.01     -0.58

 !ASE

     Writing output data file calc.save

     General routines

     Parallel routines

   This run was terminated on:   7: 9:41  20Dec2018

   JOB DONE.
Job  /afs/slac/g/suncat/bin/suncat-tsmpirun -x LD_LIBRARY_PATH -wdir /scratch/qe773506_Ofqpg pw.x -in pw.inp

TID   HOST_NAME   COMMAND_LINE            STATUS            TERMINATION_TIME
00000 suncat0156 pw.x -in pw.inp   Done                     12/20/2018 07:09:41
00001 suncat0156 pw.x -in pw.inp   Done                     12/20/2018 07:09:41
00002 suncat0156 pw.x -in pw.inp   Done                     12/20/2018 07:09:41
00003 suncat0156 pw.x -in pw.inp   Done                     12/20/2018 07:09:41
00004 suncat0156 pw.x -in pw.inp   Done                     12/20/2018 07:09:41
00005 suncat0156 pw.x -in pw.inp   Done                     12/20/2018 07:09:41
00006 suncat0156 pw.x -in pw.inp   Done                     12/20/2018 07:09:41
00007 suncat0156 pw.x -in pw.inp   Done                     12/20/2018 07:09:41
00008 suncat0153 pw.x -in pw.inp   Done                     12/20/2018 07:09:41
00009 suncat0153 pw.x -in pw.inp   Done                     12/20/2018 07:09:41
00010 suncat0153 pw.x -in pw.inp   Done                     12/20/2018 07:09:41
00011 suncat0153 pw.x -in pw.inp   Done                     12/20/2018 07:09:41
00012 suncat0153 pw.x -in pw.inp   Done                     12/20/2018 07:09:41
00013 suncat0153 pw.x -in pw.inp   Done                     12/20/2018 07:09:41
00014 suncat0153 pw.x -in pw.inp   Done                     12/20/2018 07:09:41
00015 suncat0153 pw.x -in pw.inp   Done                     12/20/2018 07:09:41
00016 suncat0152 pw.x -in pw.inp   Done                     12/20/2018 07:09:41
00017 suncat0152 pw.x -in pw.inp   Done                     12/20/2018 07:09:41
00018 suncat0152 pw.x -in pw.inp   Done                     12/20/2018 07:09:41
00019 suncat0152 pw.x -in pw.inp   Done                     12/20/2018 07:09:41
00020 suncat0152 pw.x -in pw.inp   Done                     12/20/2018 07:09:41
00021 suncat0152 pw.x -in pw.inp   Done                     12/20/2018 07:09:41
00022 suncat0152 pw.x -in pw.inp   Done                     12/20/2018 07:09:41
00023 suncat0152 pw.x -in pw.inp   Done                     12/20/2018 07:09:41
00024 suncat0150 pw.x -in pw.inp   Done                     12/20/2018 07:09:41
00025 suncat0150 pw.x -in pw.inp   Done                     12/20/2018 07:09:41
00026 suncat0150 pw.x -in pw.inp   Done                     12/20/2018 07:09:41
00027 suncat0150 pw.x -in pw.inp   Done                     12/20/2018 07:09:41
00028 suncat0150 pw.x -in pw.inp   Done                     12/20/2018 07:09:41
00029 suncat0150 pw.x -in pw.inp   Done                     12/20/2018 07:09:41
00030 suncat0150 pw.x -in pw.inp   Done                     12/20/2018 07:09:41
00031 suncat0150 pw.x -in pw.inp   Done                     12/20/2018 07:09:41
00032 suncat0207 pw.x -in pw.inp   Done                     12/20/2018 07:09:41
00033 suncat0207 pw.x -in pw.inp   Done                     12/20/2018 07:09:41
00034 suncat0207 pw.x -in pw.inp   Done                     12/20/2018 07:09:41
00035 suncat0207 pw.x -in pw.inp   Done                     12/20/2018 07:09:41
00036 suncat0207 pw.x -in pw.inp   Done                     12/20/2018 07:09:41
00037 suncat0207 pw.x -in pw.inp   Done                     12/20/2018 07:09:41
00038 suncat0207 pw.x -in pw.inp   Done                     12/20/2018 07:09:41
00039 suncat0207 pw.x -in pw.inp   Done                     12/20/2018 07:09:41
00040 suncat0206 pw.x -in pw.inp   Done                     12/20/2018 07:09:41
00041 suncat0206 pw.x -in pw.inp   Done                     12/20/2018 07:09:41
00042 suncat0206 pw.x -in pw.inp   Done                     12/20/2018 07:09:41
00043 suncat0206 pw.x -in pw.inp   Done                     12/20/2018 07:09:41
00044 suncat0206 pw.x -in pw.inp   Done                     12/20/2018 07:09:41
00045 suncat0206 pw.x -in pw.inp   Done                     12/20/2018 07:09:41
00046 suncat0206 pw.x -in pw.inp   Done                     12/20/2018 07:09:41
00047 suncat0206 pw.x -in pw.inp   Done                     12/20/2018 07:09:41
00048 suncat0205 pw.x -in pw.inp   Done                     12/20/2018 07:09:41
00049 suncat0205 pw.x -in pw.inp   Done                     12/20/2018 07:09:41
00050 suncat0205 pw.x -in pw.inp   Done                     12/20/2018 07:09:41
00051 suncat0205 pw.x -in pw.inp   Done                     12/20/2018 07:09:41
00052 suncat0205 pw.x -in pw.inp   Done                     12/20/2018 07:09:41
00053 suncat0205 pw.x -in pw.inp   Done                     12/20/2018 07:09:41
00054 suncat0205 pw.x -in pw.inp   Done                     12/20/2018 07:09:41
00055 suncat0205 pw.x -in pw.inp   Done                     12/20/2018 07:09:41
00056 suncat0204 pw.x -in pw.inp   Done                     12/20/2018 07:09:41
00057 suncat0204 pw.x -in pw.inp   Done                     12/20/2018 07:09:41
00058 suncat0204 pw.x -in pw.inp   Done                     12/20/2018 07:09:41
00059 suncat0204 pw.x -in pw.inp   Done                     12/20/2018 07:09:41
00060 suncat0204 pw.x -in pw.inp   Done                     12/20/2018 07:09:41
00061 suncat0204 pw.x -in pw.inp   Done                     12/20/2018 07:09:41
00062 suncat0204 pw.x -in pw.inp   Done                     12/20/2018 07:09:41
00063 suncat0204 pw.x -in pw.inp   Done                     12/20/2018 07:09:41