     Program PWSCF v.5.1rc2 (svn rev. 11289) starts on 27Dec2018 at 20:51: 6

     Current dimensions of program PWSCF are:
     Max number of different atomic species (ntypx) = 10
     Max number of k-points (npk) =  40000
     Max angular momentum in pseudopotentials (lmaxx) =  3
     Presently stress not available with electric field

     IMPORTANT: XC functional enforced from input :
     Exchange-correlation      = BEEF-VDW ( 1  4 27 13 2)
     Any further DFT definition will be discarded
     Please, verify this is what you really want

     Subspace diagonalization in iterative solution of the eigenvalue problem:
     a serial algorithm will be used

     bravais-lattice index     =            0
     lattice parameter (alat)  =       1.8897  a.u.
     unit-cell volume          =    4371.3815 (a.u.)^3
     number of atoms/cell      =           12
     number of atomic types    =            2
     number of electrons       =       174.00
     number of Kohn-Sham states=          117
     kinetic-energy cutoff     =      36.7493  Ry
     charge density cutoff     =     367.4932  Ry
     convergence threshold     =      1.0E-06
     mixing beta               =       0.1000
     number of iterations used =           10  plain     mixing
     Exchange-correlation      = BEEF-VDW ( 1  4 27 13 2)
     nstep                     =           50

     celldm(1)=   1.889726  celldm(2)=   0.000000  celldm(3)=   0.000000
     celldm(4)=   0.000000  celldm(5)=   0.000000  celldm(6)=   0.000000

     crystal axes: (cart. coord. in units of alat)
               a(1) = (   5.524204   0.000000   0.000000 )
               a(2) = (  -2.762102   4.784101   0.000000 )
               a(3) = (   0.000000   0.000000  24.510494 )

     reciprocal axes: (cart. coord. in units 2 pi/alat)
               b(1) = (  0.181022  0.104513  0.000000 )
               b(2) = (  0.000000  0.209026  0.000000 )
               b(3) = (  0.000000  0.000000  0.040799 )

     PseudoPot. # 1 for Rh read from file:
     /afs/slac.stanford.edu/u/if/mamunm/psp/gbrv1.5pbe/Rh.UPF
     MD5 check sum: 761627e959a2e3a1f56b0b5fe687810e
     Pseudo is Ultrasoft + core correction, Zval = 15.0
     Generated by new atomic code, or converted to UPF format
     Using radial grid of  969 points,  7 beta functions with:
                l(1) =   0
                l(2) =   0
                l(3) =   1
                l(4) =   1
                l(5) =   2
                l(6) =   2
                l(7) =   2
     Q(r) pseudized with  8 coefficients,  rinner =    1.200   1.200   1.200
                                                       1.200   1.200

     PseudoPot. # 2 for Ta read from file:
     /afs/slac.stanford.edu/u/if/mamunm/psp/gbrv1.5pbe/Ta.UPF
     MD5 check sum: f8bbe9446314a3b8ea5d9f3e3836c939
     Pseudo is Ultrasoft + core correction, Zval = 13.0
     Generated by new atomic code, or converted to UPF format
     Using radial grid of  921 points,  7 beta functions with:
                l(1) =   0
                l(2) =   0
                l(3) =   1
                l(4) =   1
                l(5) =   2
                l(6) =   2
                l(7) =   3
     Q(r) pseudized with  6 coefficients,  rinner =    1.300   1.300   1.300
                                                       1.300   1.300   1.300
                                                       1.300

     vdW kernel table read from file vdW_kernel_table
     MD5 check sum: 095c7af220d748ca6e76c0b4c6cfb241

     atomic species   valence    mass     pseudopotential
        Rh1           15.00   102.90550     Rh( 1.00)
        Ta1           13.00   180.94788     Ta( 1.00)

     No symmetry found

   Cartesian axes

     site n.     atom                  positions (alat units)
         1           Rh1 tau(   1) = (   0.0000000   0.0000000  10.0000000  )
         2           Rh1 tau(   2) = (  -1.3810510   2.3920505  10.0000000  )
         3           Rh1 tau(   3) = (   1.3810510   2.3920505  10.0000000  )
         4           Ta1 tau(   4) = (   2.7621020   0.0000000  10.0000000  )
         5           Rh1 tau(   5) = (   2.7621020   1.5947003  12.2552468  )
         6           Rh1 tau(   6) = (   1.3810510   3.9867508  12.2552468  )
         7           Rh1 tau(   7) = (  -1.3810510   3.9867508  12.2552468  )
         8           Ta1 tau(   8) = (   0.0000000   1.5947003  12.2552468  )
         9           Rh1 tau(   9) = (  -0.0000000   3.1894007  14.5104937  )
        10           Rh1 tau(  10) = (   1.3810510   0.7973502  14.5104937  )
        11           Rh1 tau(  11) = (   4.1431530   0.7973502  14.5104937  )
        12           Ta1 tau(  12) = (   2.7621020   3.1894007  14.5104937  )

     number of k points=    20  Fermi-Dirac smearing, width (Ry)=  0.0110
                       cart. coord. in units 2pi/alat
        k(    1) = (   0.0000000   0.0000000   0.0000000), wk =   0.0555556
        k(    2) = (   0.0000000   0.0348376   0.0000000), wk =   0.1111111
        k(    3) = (   0.0000000   0.0696752   0.0000000), wk =   0.1111111
        k(    4) = (   0.0000000  -0.1045128   0.0000000), wk =   0.0555556
        k(    5) = (   0.0301703   0.0174188   0.0000000), wk =   0.1111111
        k(    6) = (   0.0301703   0.0522564   0.0000000), wk =   0.1111111
        k(    7) = (   0.0301703   0.0870940   0.0000000), wk =   0.1111111
        k(    8) = (   0.0301703  -0.0870940   0.0000000), wk =   0.1111111
        k(    9) = (   0.0301703  -0.0522564   0.0000000), wk =   0.1111111
        k(   10) = (   0.0301703  -0.0174188   0.0000000), wk =   0.1111111
        k(   11) = (   0.0603405   0.0348376   0.0000000), wk =   0.1111111
        k(   12) = (   0.0603405   0.0696752   0.0000000), wk =   0.1111111
        k(   13) = (   0.0603405   0.1045128   0.0000000), wk =   0.1111111
        k(   14) = (   0.0603405  -0.0696752   0.0000000), wk =   0.1111111
        k(   15) = (   0.0603405  -0.0348376   0.0000000), wk =   0.1111111
        k(   16) = (   0.0603405   0.0000000   0.0000000), wk =   0.1111111
        k(   17) = (  -0.0905108  -0.0522564   0.0000000), wk =   0.0555556
        k(   18) = (  -0.0905108  -0.0174188   0.0000000), wk =   0.1111111
        k(   19) = (  -0.0905108   0.0174188   0.0000000), wk =   0.1111111
        k(   20) = (  -0.0905108  -0.1567693   0.0000000), wk =   0.0555556

     Largest allocated arrays     est. size (Mb)     dimensions
     Largest temporary arrays     est. size (Mb)     dimensions

     Initial potential from superposition of free atoms
     Check: negative starting charge=   -0.778066

     starting charge  169.49578, renormalised to  174.00000

     negative rho (up, down):  7.987E-01 0.000E+00

     *
     * You are using vdW-DF for exchange-correlation in this calculation.
     * Please cite the following three references that made this development
     * possible:
     *
     *   M. Dion, H. Rydberg, E. Schroder, D. C. Langreth, and
     *   B. I. Lundqvist, Phys. Rev. Lett. 92, 246401 (2004).
     *
     *   T. Thonhauser, V. R. Cooper, S. Li, A. Puzder, P. Hyldgaard, and
     *   D. C. Langreth, Phys. Rev. B 76, 125112 (2007).
     *
     *   G. Roman-Perez and J. M. Soler, Phys. Rev. Lett. 103, 096102 (2009).
     *
     *
     * If you are using vdW-DF2, please also cite:
     *
     *   K. Lee, E. D. Murray, L. Kong, B. I. Lundqvist, and
     *   D. C. Langreth, Phys. Rev. B 82, 081101(R) (2010).
     *
     *
     * If you are calculating the stress with vdW-DF, please also cite:
     *
     *   R. Sabatini, E. Kucukbenli, B. Kolb, T. Thonhauser, and
     *   S. de Gironcoli, J. Phys.: Condens. Matter 24, 424209 (2012).
     *

     Carrying out vdW-DF run using the following parameters:

     Nqs =      20    Nr_points =    1024   r_max =   100.000
     q_mesh =
               0.00001000     0.04494208     0.09755937     0.15916263
               0.23128650     0.31572767     0.41458969     0.53033537
               0.66584808     0.82450364     1.01025438     1.22772762
               1.48234092     1.78043706     2.12944203     2.53805004
               3.01644009     3.57652955     4.23227104     5.00000000

     Gradients computed in reciprocal space

     Adding external electric field

     Computed dipole along edir(3) :
        Dipole                0.0000 Ry au,          0.0000 Debye
        Dipole field          0.0000 Ry au

        Potential amp.       -0.0000 Ry
        Total length         45.1602 bohr

     Starting wfc are  147 randomized atomic wfcs

     Self-consistent Calculation

     iteration #  1     ecut=    36.75 Ry     beta=0.10
     Davidson diagonalization with overlap
     ethr =  1.00E-02,  avg # of iterations =  7.0

[...]

     total energy              =   -1980.27330549 Ry
     Harris-Foulkes estimate   =   -1980.68819220 Ry
     estimated scf accuracy    <       2.85788532 Ry

[...]

     End of self-consistent calculation

          k = 0.0000 0.0000 0.0000 ( 16391 PWs)   bands (ev):

   -67.2232 -67.2231 -67.0889 -44.9003 -44.7896 -44.7896 -44.7478 -44.7035
   -44.7035 -44.5887 -44.5130 -44.5130 -44.4325 -44.4261 -44.4033 -44.4033
   -44.3714 -44.3714 -44.2227 -44.2172 -44.1811 -44.1448 -44.1387 -44.1387
   -44.1196 -44.1196 -44.0677 -44.0677 -44.0664 -44.0664 -33.6231 -33.6096
   -33.4171 -33.4171 -33.4158 -33.4158 -33.3970 -33.3970 -33.2996  -5.1928
    -3.6674  -3.5426  -3.3619  -3.3619  -3.2527  -3.0039  -2.9397  -2.9397
    -2.7435  -2.7435  -2.6226  -2.4155  -2.4155  -2.3773  -1.3171  -1.3171
    -1.2590  -0.9101  -0.9101  -0.7075  -0.4899  -0.3734  -0.3369  -0.3369
    -0.3076  -0.1023  -0.1023   0.1711   0.1711   0.2577   0.2577   0.4420
     0.4420   0.9963   1.3635   1.3635   1.3975   1.3975   1.4492   1.4643
     1.4643   1.4752   2.0584   2.2321   2.2321   2.4592   2.6170   2.8318
     2.8407   2.8731   3.4271   3.4271   3.9558   3.9558   4.0596   4.0596
     4.1696   4.2975   4.3897   4.3897   4.5783   4.5783   4.7635   4.7635
     5.2888   5.2888   6.2625   6.3060   6.3060   6.3581   6.5910   6.6725
     6.6725   7.0827   7.2552   8.0518   9.0001

[...]

          k =-0.0905-0.0523 0.0000 ( 16456 PWs)   bands (ev):

[...]

     the Fermi energy is     1.9376 ev

!    total energy              =   -1979.81579448 Ry
     Harris-Foulkes estimate   =   -1979.81579447 Ry
     estimated scf accuracy    <       0.00000055 Ry

     The total energy is the sum of the following terms:

     one-electron contribution =  -17060.83500024 Ry
     hartree contribution      =    8557.24563289 Ry
     xc contribution           =    -409.92130903 Ry
     ewald contribution        =    6933.76913120 Ry
     electric field correction =       0.00000000 Ry
     smearing contrib. (-TS)   =      -0.07424930 Ry

     convergence has been achieved in  16 iterations

 BEEF-vdW xc energy contributions
           1 :   -358.388245935450
           2 :    329.894173501184
           3 :   -280.350120895939
           4 :    221.681784186120
           5 :   -165.998952691424
           6 :    121.837915033669
           7 :   -92.2652169037361
           8 :    75.2674533607386
           9 :   -65.8731190022743
          10 :    58.8468368032401
[...]
     Pseudo is Ultrasoft + core correction, Zval = 15.0
     Generated by new atomic code, or converted to UPF format
     Using radial grid of  969 points,  7 beta functions with:
                l(1) =   0
                l(2) =   0
                l(3) =   1
                l(4) =   1
                l(5) =   2
                l(6) =   2
                l(7) =   2
     Q(r) pseudized with  8 coefficients,  rinner =    1.200   1.200   1.200
                                                       1.200   1.200

     PseudoPot. # 2 for Ta read from file:
     /afs/slac.stanford.edu/u/if/mamunm/psp/gbrv1.5pbe/Ta.UPF
     MD5 check sum: f8bbe9446314a3b8ea5d9f3e3836c939
     Pseudo is Ultrasoft + core correction, Zval = 13.0
     Generated by new atomic code, or converted to UPF format
     Using radial grid of  921 points,  7 beta functions with:
                l(1) =   0
                l(2) =   0
                l(3) =   1
                l(4) =   1
                l(5) =   2
                l(6) =   2
                l(7) =   3
     Q(r) pseudized with  6 coefficients,  rinner =    1.300   1.300   1.300
                                                       1.300   1.300   1.300
                                                       1.300

     vdW kernel table read from file vdW_kernel_table
     MD5 check sum: 095c7af220d748ca6e76c0b4c6cfb241

     atomic species   valence    mass     pseudopotential
        Rh1           15.00   102.90550     Rh( 1.00)
        Ta1           13.00   180.94788     Ta( 1.00)

     No symmetry found

   Cartesian axes

     site n.     atom                  positions (alat units)
         1           Rh1 tau(   1) = (   0.0000000   0.0000000  10.0000000  )
         2           Rh1 tau(   2) = (  -1.3810510   2.3920505  10.0000000  )
         3           Rh1 tau(   3) = (   1.3810510   2.3920505  10.0000000  )
         4           Ta1 tau(   4) = (   2.7621020   0.0000000  10.0000000  )
         5           Rh1 tau(   5) = (   2.7621020   1.5947003  12.2552468  )
         6           Rh1 tau(   6) = (   1.3810510   3.9867508  12.2552468  )
         7           Rh1 tau(   7) = (  -1.3810510   3.9867508  12.2552468  )
         8           Ta1 tau(   8) = (   0.0000000   1.5947003  12.2552468  )
         9           Rh1 tau(   9) = (   0.0000001   3.1648522  14.4625198  )
        10           Rh1 tau(  10) = (   1.3597914   0.8096247  14.4625219  )
        11           Rh1 tau(  11) = (   4.1644119   0.8096242  14.4625220  )
        12           Ta1 tau(  12) = (   2.7621052   3.1893993  14.3644199  )

     number of k points=    20  Fermi-Dirac smearing, width (Ry)=  0.0110
                       cart. coord. in units 2pi/alat
        k(    1) = (   0.0000000   0.0000000   0.0000000), wk =   0.0555556
        k(    2) = (   0.0000000   0.0348376   0.0000000), wk =   0.1111111
        k(    3) = (   0.0000000   0.0696752   0.0000000), wk =   0.1111111
        k(    4) = (   0.0000000  -0.1045128   0.0000000), wk =   0.0555556
        k(    5) = (   0.0301703   0.0174188   0.0000000), wk =   0.1111111
        k(    6) = (   0.0301703   0.0522564   0.0000000), wk =   0.1111111
        k(    7) = (   0.0301703   0.0870940   0.0000000), wk =   0.1111111
        k(    8) = (   0.0301703  -0.0870940   0.0000000), wk =   0.1111111
        k(    9) = (   0.0301703  -0.0522564   0.0000000), wk =   0.1111111
        k(   10) = (   0.0301703  -0.0174188   0.0000000), wk =   0.1111111
        k(   11) = (   0.0603405   0.0348376   0.0000000), wk =   0.1111111
        k(   12) = (   0.0603405   0.0696752   0.0000000), wk =   0.1111111
        k(   13) = (   0.0603405   0.1045128   0.0000000), wk =   0.1111111
        k(   14) = (   0.0603405  -0.0696752   0.0000000), wk =   0.1111111
        k(   15) = (   0.0603405  -0.0348376   0.0000000), wk =   0.1111111
        k(   16) = (   0.0603405   0.0000000   0.0000000), wk =   0.1111111
        k(   17) = (  -0.0905108  -0.0522564   0.0000000), wk =   0.0555556
        k(   18) = (  -0.0905108  -0.0174188   0.0000000), wk =   0.1111111
        k(   19) = (  -0.0905108   0.0174188   0.0000000), wk =   0.1111111
        k(   20) = (  -0.0905108  -0.1567693   0.0000000), wk =   0.0555556

     Largest allocated arrays     est. size (Mb)     dimensions
     Largest temporary arrays     est. size (Mb)     dimensions

     Initial potential from superposition of free atoms
     Check: negative starting charge=   -0.775202

     starting charge  169.49578, renormalised to  174.00000

[...]

     *
     * You are using vdW-DF for exchange-correlation in this calculation.
     * Please cite the following three references that made this development
     * possible:
     *
     *   M. Dion, H. Rydberg, E. Schroder, D. C. Langreth, and
     *   B. I. Lundqvist, Phys. Rev. Lett. 92, 246401 (2004).
     *
     *   T. Thonhauser, V. R. Cooper, S. Li, A. Puzder, P. Hyldgaard, and
     *   D. C. Langreth, Phys. Rev. B 76, 125112 (2007).
     *
     *   G. Roman-Perez and J. M. Soler, Phys. Rev. Lett. 103, 096102 (2009).
     *
     *
     * If you are using vdW-DF2, please also cite:
     *
     *   K. Lee, E. D. Murray, L. Kong, B. I. Lundqvist, and
     *   D. C. Langreth, Phys. Rev. B 82, 081101(R) (2010).
     *
     *
     * If you are calculating the stress with vdW-DF, please also cite:
     *
     *   R. Sabatini, E. Kucukbenli, B. Kolb, T. Thonhauser, and
     *   S. de Gironcoli, J. Phys.: Condens. Matter 24, 424209 (2012).
     *

     Carrying out vdW-DF run using the following parameters:

     Nqs =      20    Nr_points =    1024   r_max =   100.000
     q_mesh =
               0.00001000     0.04494208     0.09755937     0.15916263
               0.23128650     0.31572767     0.41458969     0.53033537
               0.66584808     0.82450364     1.01025438     1.22772762
               1.48234092     1.78043706     2.12944203     2.53805004
               3.01644009     3.57652955     4.23227104     5.00000000

     Gradients computed in reciprocal space

[...]

     Starting wfc are  147 randomized atomic wfcs

     Self-consistent Calculation

[...]

     total energy              =   -1979.82529084 Ry
     Harris-Foulkes estimate   =   -1979.82529075 Ry
     estimated scf accuracy    <       0.00000184 Ry

     iteration # 17     ecut=    36.75 Ry     beta=0.10
     Davidson diagonalization with overlap
     ethr =  1.06E-09,  avg # of iterations =  1.4

[...]

     negative rho (up, down):  8.143E-01 0.000E+00

     Adding external electric field

     Computed dipole along edir(3) :
        Dipole                0.0011 Ry au,          0.0028 Debye
        Dipole field          0.0000 Ry au

        Potential amp.       -0.0003 Ry
        Total length         45.1602 bohr

     End of self-consistent calculation

[...]

          k = 0.0603 0.0000 0.0000 ( 16456 PWs)   bands (ev):

[...]

          k =-0.0905-0.1568 0.0000 ( 16456 PWs)   bands (ev):

   -67.2622 -67.1218 -67.0702 -44.9234 -44.8417 -44.8239 -44.8112 -44.7623
   -44.7580 -44.7377 -44.7341 -44.6006 -44.4317 -44.4061 -44.3455 -44.3341
   -44.3281 -44.3017 -44.2934 -44.2919 -44.2521 -44.2200 -44.2014 -44.1855
   -44.1763 -44.1599 -44.1415 -44.1364 -44.1260 -44.0898 -33.6621 -33.5259
   -33.4719 -33.4588 -33.4145 -33.4015 -33.3688 -33.3534 -33.2857  -3.7268
    -3.5521  -2.7634  -2.5692  -2.5331  -2.5222  -2.4601  -2.3316  -2.2622
    -2.1168  -2.0548  -1.8713  -1.7383  -1.6919  -1.5883  -1.5288  -1.3531
    -1.2539  -1.2347  -1.0627  -0.8013  -0.7639  -0.6265  -0.3941  -0.3501
    -0.2971  -0.2392  -0.2319  -0.0878  -0.0711  -0.0359   0.0001   0.0397
     0.0704   0.0742   0.1725   0.3422   0.4465   0.4982   0.6474   0.6496
     0.7136   0.8956   1.0495   1.1136   1.1510   1.5505   1.6374   1.7304
     1.8473   2.1019   2.4877   2.5387   2.8301   3.0589   3.1522   3.3067
     3.3579   3.6927   3.7084   3.9131   4.1345   4.2630   4.6554   5.0342
     5.0469   5.3777   6.2814   6.8266   6.9872   7.4181   7.4837   7.9083
     8.0185   8.3779   8.4425   8.6379   8.7553

     the Fermi energy is     1.9252 ev

!    total energy              =   -1979.82529086 Ry
     Harris-Foulkes estimate   =   -1979.82529097 Ry
     estimated scf accuracy    <       0.00000050 Ry

     The total energy is the sum of the following terms:

     one-electron contribution =  -17230.87546121 Ry
     hartree contribution      =    8642.06555765 Ry
     xc contribution           =    -410.08971723 Ry
     ewald contribution        =    7019.14707330 Ry
     electric field correction =       0.00000000 Ry
     smearing contrib. (-TS)   =      -0.07274338 Ry

     convergence has been achieved in  17 iterations

 BEEF-vdW xc energy contributions
           1 :   -358.560716201921
           2 :    330.129763964277
           3 :   -280.668645647826
           4 :    222.040597392048
           5 :   -166.310554239046
           6 :    122.016135715972
           7 :   -92.2738361233394
           8 :    75.1428404625929
           9 :   -65.7077426584322
          10 :    58.7430443877892
          11 :   -50.7912529045072
          12 :    40.9573590881074
          13 :   -30.4094442444971
          14 :    21.1245881280706
          15 :   -14.6145864347153
          16 :    11.2002669644053
          17 :   -10.0322759310319
          18 :    9.68019494491671
          19 :   -8.89166557587862
          20 :    7.12539900801733
          21 :   -4.63892731716146
          22 :    2.16460618907615
          23 :  -0.413753988706162
          24 :  -0.304965383485978
          25 :   0.184954917599384
          26 :   0.252039467275949
          27 :  -0.463740366319144
          28 :   0.154023858816515
          29 :   0.624389733431371
          30 :   -1.55452630615105
          31 :   -34.2756795372587
          32 :   -25.6749907360177

     Forces acting on atoms (Ry/au):

     negative rho (up, down):  8.143E-01 0.000E+00
     atom    1 type  1   force =    -0.00000002    0.01507988    0.00778352
     atom    2 type  1   force =     0.01305984   -0.00753976    0.00778502
     atom    3 type  1   force =    -0.01306120   -0.00754048    0.00778769
     atom    4 type  2   force =    -0.00000019   -0.00000008    0.03734056
     atom    5 type  1   force =    -0.00000006   -0.00264760   -0.01626309
     atom    6 type  1   force =    -0.00229327    0.00132394   -0.01626279
     atom    7 type  1   force =     0.00229375    0.00132432   -0.01626310
     atom    8 type  2   force =    -0.00000040   -0.00000087   -0.01081043
     atom    9 type  1   force =     0.00000023   -0.00025075   -0.00033039
     atom   10 type  1   force =    -0.00021639    0.00012516   -0.00032909
     atom   11 type  1   force =     0.00021743    0.00012551   -0.00033046
     atom   12 type  2   force =     0.00000030    0.00000072   -0.00010743

     Total force =     0.056483     Total SCF correction =     0.003580

     entering subroutine stress ...

     negative rho (up, down):  8.143E-01 0.000E+00
          total   stress  (Ry/bohr**3)                   (kbar)     P=  -32.74
  -0.00023869   0.00000000  -0.00000000        -35.11      0.00     -0.00
   0.00000000  -0.00023869   0.00000000          0.00    -35.11      0.00
  -0.00000000   0.00000000  -0.00019027         -0.00      0.00    -27.99

 !ASE

     Writing output data file calc.save

     General routines

     Parallel routines

   This run was terminated on:  21:40:53  27Dec2018

   JOB DONE.
Job  /afs/slac/g/suncat/bin/suncat-tsmpirun -x LD_LIBRARY_PATH -wdir /scratch/qe110727_TBG8p pw.x -in pw.inp

TID   HOST_NAME   COMMAND_LINE            STATUS            TERMINATION_TIME
00000 suncat0080 pw.x -in pw.inp   Done                     12/27/2018 21:40:53
00001 suncat0080 pw.x -in pw.inp   Done                     12/27/2018 21:40:53
00002 suncat0080 pw.x -in pw.inp   Done                     12/27/2018 21:40:53
00003 suncat0080 pw.x -in pw.inp   Done                     12/27/2018 21:40:53
00004 suncat0080 pw.x -in pw.inp   Done                     12/27/2018 21:40:53
00005 suncat0080 pw.x -in pw.inp   Done                     12/27/2018 21:40:53
00006 suncat0080 pw.x -in pw.inp   Done                     12/27/2018 21:40:53
00007 suncat0080 pw.x -in pw.inp   Done                     12/27/2018 21:40:53
00008 suncat0078 pw.x -in pw.inp   Done                     12/27/2018 21:40:53
00009 suncat0078 pw.x -in pw.inp   Done                     12/27/2018 21:40:53
00010 suncat0078 pw.x -in pw.inp   Done                     12/27/2018 21:40:53
00011 suncat0078 pw.x -in pw.inp   Done                     12/27/2018 21:40:53
00012 suncat0078 pw.x -in pw.inp   Done                     12/27/2018 21:40:53
00013 suncat0078 pw.x -in pw.inp   Done                     12/27/2018 21:40:53
00014 suncat0078 pw.x -in pw.inp   Done                     12/27/2018 21:40:53
00015 suncat0078 pw.x -in pw.inp   Done                     12/27/2018 21:40:53
00016 suncat0165 pw.x -in pw.inp   Done                     12/27/2018 21:40:53
00017 suncat0165 pw.x -in pw.inp   Done                     12/27/2018 21:40:53
00018 suncat0165 pw.x -in pw.inp   Done                     12/27/2018 21:40:53
00019 suncat0165 pw.x -in pw.inp   Done                     12/27/2018 21:40:53
00020 suncat0165 pw.x -in pw.inp   Done                     12/27/2018 21:40:53
00021 suncat0165 pw.x -in pw.inp   Done                     12/27/2018 21:40:53
00022 suncat0165 pw.x -in pw.inp   Done                     12/27/2018 21:40:53
00023 suncat0165 pw.x -in pw.inp   Done                     12/27/2018 21:40:53
00024 suncat0164 pw.x -in pw.inp   Done                     12/27/2018 21:40:53
00025 suncat0164 pw.x -in pw.inp   Done                     12/27/2018 21:40:53
00026 suncat0164 pw.x -in pw.inp   Done                     12/27/2018 21:40:53
00027 suncat0164 pw.x -in pw.inp   Done                     12/27/2018 21:40:53
00028 suncat0164 pw.x -in pw.inp   Done                     12/27/2018 21:40:53
00029 suncat0164 pw.x -in pw.inp   Done                     12/27/2018 21:40:53
00030 suncat0164 pw.x -in pw.inp   Done                     12/27/2018 21:40:53
00031 suncat0164 pw.x -in pw.inp   Done                     12/27/2018 21:40:53
00032 suncat0143 pw.x -in pw.inp   Done                     12/27/2018 21:40:53
00033 suncat0143 pw.x -in pw.inp   Done                     12/27/2018 21:40:53
00034 suncat0143 pw.x -in pw.inp   Done                     12/27/2018 21:40:53
00035 suncat0143 pw.x -in pw.inp   Done                     12/27/2018 21:40:53
00036 suncat0143 pw.x -in pw.inp   Done                     12/27/2018 21:40:53
00037 suncat0143 pw.x -in pw.inp   Done                     12/27/2018 21:40:53
00038 suncat0143 pw.x -in pw.inp   Done                     12/27/2018 21:40:53
00039 suncat0143 pw.x -in pw.inp   Done                     12/27/2018 21:40:53
00040 suncat0135 pw.x -in pw.inp   Done                     12/27/2018 21:40:53
00041 suncat0135 pw.x -in pw.inp   Done                     12/27/2018 21:40:53
00042 suncat0135 pw.x -in pw.inp   Done                     12/27/2018 21:40:53
00043 suncat0135 pw.x -in pw.inp   Done                     12/27/2018 21:40:53
00044 suncat0135 pw.x -in pw.inp   Done                     12/27/2018 21:40:53
00045 suncat0135 pw.x -in pw.inp   Done                     12/27/2018 21:40:53
00046 suncat0135 pw.x -in pw.inp   Done                     12/27/2018 21:40:53
00047 suncat0135 pw.x -in pw.inp   Done                     12/27/2018 21:40:53
00048 suncat0134 pw.x -in pw.inp   Done                     12/27/2018 21:40:53
00049 suncat0134 pw.x -in pw.inp   Done                     12/27/2018 21:40:53
00050 suncat0134 pw.x -in pw.inp   Done                     12/27/2018 21:40:53
00051 suncat0134 pw.x -in pw.inp   Done                     12/27/2018 21:40:53
00052 suncat0134 pw.x -in pw.inp   Done                     12/27/2018 21:40:53
00053 suncat0134 pw.x -in pw.inp   Done                     12/27/2018 21:40:53
00054 suncat0134 pw.x -in pw.inp   Done                     12/27/2018 21:40:53
00055 suncat0134 pw.x -in pw.inp   Done                     12/27/2018 21:40:53
00056 suncat0272 pw.x -in pw.inp   Done                     12/27/2018 21:40:53
00057 suncat0272 pw.x -in pw.inp   Done                     12/27/2018 21:40:53
00058 suncat0272 pw.x -in pw.inp   Done                     12/27/2018 21:40:53
00059 suncat0272 pw.x -in pw.inp   Done                     12/27/2018 21:40:53
00060 suncat0272 pw.x -in pw.inp   Done                     12/27/2018 21:40:53
00061 suncat0272 pw.x -in pw.inp   Done                     12/27/2018 21:40:53
00062 suncat0272 pw.x -in pw.inp   Done                     12/27/2018 21:40:53
00063 suncat0272 pw.x -in pw.inp   Done                     12/27/2018 21:40:53