     Program PWSCF v.5.1rc2 (svn rev. 11289) starts on 28Dec2018 at  0:12:54

     Current dimensions of program PWSCF are:
     Max number of different atomic species (ntypx) = 10
     Max number of k-points (npk) =  40000
     Max angular momentum in pseudopotentials (lmaxx) =  3
     Presently stress not available with electric field

     IMPORTANT: XC functional enforced from input :
     Exchange-correlation      = BEEF-VDW ( 1  4 27 13 2)
     Any further DFT definition will be discarded
     Please, verify this is what you really want

     Subspace diagonalization in iterative solution of the eigenvalue problem:
     a serial algorithm will be used

     bravais-lattice index     =            0
     lattice parameter (alat)  =       1.8897  a.u.
     unit-cell volume          =    6590.6728 (a.u.)^3
     number of atoms/cell      =           12
     number of atomic types    =            2
     number of electrons       =       186.00
     number of Kohn-Sham states=          123
     kinetic-energy cutoff     =      36.7493  Ry
     charge density cutoff     =     367.4932  Ry
     convergence threshold     =      1.0E-06
     mixing beta               =       0.1000
     number of iterations used =           10  plain     mixing
     Exchange-correlation      = BEEF-VDW ( 1  4 27 13 2)
     nstep                     =           50

     celldm(1)=   1.889726  celldm(2)=   0.000000  celldm(3)=   0.000000
     celldm(4)=   0.000000  celldm(5)=   0.000000  celldm(6)=   0.000000

     crystal axes: (cart. coord. in units of alat)
               a(1) = (   6.658430   0.000000   0.000000 )
               a(2) = (  -3.329215   5.766370   0.000000 )
               a(3) = (   0.000000   0.000000  25.436586 )

     reciprocal axes: (cart. coord. in units 2 pi/alat)
               b(1) = (  0.150186  0.086710  0.000000 )
               b(2) = (  0.000000  0.173419  0.000000 )
               b(3) = (  0.000000  0.000000  0.039313 )

     PseudoPot. # 1 for Sn read from file:
     /afs/slac.stanford.edu/u/if/mamunm/psp/gbrv1.5pbe/Sn.UPF
     MD5 check sum: 469debedee59599fedebd795477fea03
     Pseudo is Ultrasoft + core correction, Zval = 14.0
     Generated by new atomic code, or converted to UPF format
     Using radial grid of  891 points,  6 beta functions with:
                l(1) =   0
                l(2) =   0
                l(3) =   1
                l(4) =   1
                l(5) =   2
                l(6) =   2
     Q(r) pseudized with  8 coefficients,  rinner =    1.350   1.350   1.350
                                                       1.350   1.350

     PseudoPot. # 2 for Zn read from file:
     /afs/slac.stanford.edu/u/if/mamunm/psp/gbrv1.5pbe/Zn.UPF
     MD5 check sum: df62231357ef9e81f77b2b3087fa5675
     Pseudo is Ultrasoft, Zval = 20.0
     Generated by new atomic code, or converted to UPF format
     Using radial grid of  943 points,  6 beta functions with:
                l(1) =   0
                l(2) =   0
                l(3) =   1
                l(4) =   1
                l(5) =   2
                l(6) =   2
     Q(r) pseudized with  8 coefficients,  rinner =    1.100   1.100   1.100
                                                       1.100   1.100

     vdW kernel table read from file vdW_kernel_table
     MD5 check sum: 095c7af220d748ca6e76c0b4c6cfb241

     atomic species   valence    mass     pseudopotential
        Sn1           14.00   118.71000     Sn( 1.00)
        Zn1           20.00    65.38000     Zn( 1.00)

     No symmetry found

   Cartesian axes

     site n.     atom                  positions (alat units)
         1           Sn1 tau(   1) = (   0.0000000   0.0000000  10.0000000  )
         2           Sn1 tau(   2) = (  -1.6646076   2.8831849  10.0000000  )
         3           Sn1 tau(   3) = (   1.6646076   2.8831849  10.0000000  )
         4           Zn1 tau(   4) = (   3.3292151   0.0000000  10.0000000  )
         5           Sn1 tau(   5) = (   3.3292151   1.9221232  12.7182928  )
         6           Sn1 tau(   6) = (   1.6646076   4.8053081  12.7182928  )
         7           Sn1 tau(   7) = (  -1.6646076   4.8053081  12.7182928  )
         8           Zn1 tau(   8) = (   0.0000000   1.9221232  12.7182928  )
         9           Sn1 tau(   9) = (  -0.0000000   3.8442465  15.4365855  )
        10           Sn1 tau(  10) = (   1.6646076   0.9610616  15.4365855  )
        11           Sn1 tau(  11) = (   4.9938227   0.9610616  15.4365855  )
        12           Zn1 tau(  12) = (   3.3292151   3.8442465  15.4365855  )

     number of k points=    20  Fermi-Dirac smearing, width (Ry)=  0.0110
                       cart. coord. in units 2pi/alat
        k(    1) = (   0.0000000   0.0000000   0.0000000), wk =   0.0555556
        k(    2) = (   0.0000000   0.0289032   0.0000000), wk =   0.1111111
        k(    3) = (   0.0000000   0.0578064   0.0000000), wk =   0.1111111
        k(    4) = (   0.0000000  -0.0867097   0.0000000), wk =   0.0555556
        k(    5) = (   0.0250309   0.0144516   0.0000000), wk =   0.1111111
        k(    6) = (   0.0250309   0.0433548   0.0000000), wk =   0.1111111
        k(    7) = (   0.0250309   0.0722581   0.0000000), wk =   0.1111111
        k(    8) = (   0.0250309  -0.0722581   0.0000000), wk =   0.1111111
        k(    9) = (   0.0250309  -0.0433548   0.0000000), wk =   0.1111111
        k(   10) = (   0.0250309  -0.0144516   0.0000000), wk =   0.1111111
        k(   11) = (   0.0500618   0.0289032   0.0000000), wk =   0.1111111
        k(   12) = (   0.0500618   0.0578064   0.0000000), wk =   0.1111111
        k(   13) = (   0.0500618   0.0867097   0.0000000), wk =   0.1111111
        k(   14) = (   0.0500618  -0.0578064   0.0000000), wk =   0.1111111
        k(   15) = (   0.0500618  -0.0289032   0.0000000), wk =   0.1111111
        k(   16) = (   0.0500618   0.0000000   0.0000000), wk =   0.1111111
        k(   17) = (  -0.0750928  -0.0433548   0.0000000), wk =   0.0555556
        k(   18) = (  -0.0750928  -0.0144516   0.0000000), wk =   0.1111111
        k(   19) = (  -0.0750928   0.0144516   0.0000000), wk =   0.1111111
        k(   20) = (  -0.0750928  -0.1300645   0.0000000), wk =   0.0555556

     Largest allocated arrays     est. size (Mb)     dimensions
     Largest temporary arrays     est. size (Mb)     dimensions

     Initial potential from superposition of free atoms
     Check: negative starting charge=   -0.001454

     starting charge  176.99917, renormalised to  186.00000

     negative rho (up, down):  1.528E-03 0.000E+00

     *
     * You are using vdW-DF for exchange-correlation in this calculation.
     * Please cite the following three references that made this development
     * possible:
     *
     *   M. Dion, H. Rydberg, E. Schroder, D. C. Langreth, and
     *   B. I. Lundqvist, Phys. Rev. Lett. 92, 246401 (2004).
     *
     *   T. Thonhauser, V. R. Cooper, S. Li, A. Puzder, P. Hyldgaard, and
     *   D. C. Langreth, Phys. Rev. B 76, 125112 (2007).
     *
     *   G. Roman-Perez and J. M. Soler, Phys. Rev. Lett. 103, 096102 (2009).
     *
     *
     * If you are using vdW-DF2, please also cite:
     *
     *   K. Lee, E. D. Murray, L. Kong, B. I. Lundqvist, and
     *   D. C. Langreth, Phys. Rev. B 82, 081101(R) (2010).
     *
     *
     * If you are calculating the stress with vdW-DF, please also cite:
     *
     *   R. Sabatini, E. Kucukbenli, B. Kolb, T. Thonhauser, and
     *   S. de Gironcoli, J. Phys.: Condens. Matter 24, 424209 (2012).
     *

     Carrying out vdW-DF run using the following parameters:

     Nqs =      20    Nr_points =    1024   r_max =   100.000
     q_mesh =
               0.00001000     0.04494208     0.09755937     0.15916263
               0.23128650     0.31572767     0.41458969     0.53033537
               0.66584808     0.82450364     1.01025438     1.22772762
               1.48234092     1.78043706     2.12944203     2.53805004
               3.01644009     3.57652955     4.23227104     5.00000000

     Gradients computed in reciprocal space

     Adding external electric field

     Computed dipole along edir(3) :
        Dipole               -0.0000 Ry au,         -0.0000 Debye
        Dipole field         -0.0000 Ry au

        Potential amp.        0.0000 Ry
        Total length         46.8665 bohr

     Starting wfc are  120 randomized atomic wfcs +    3 random wfc

     Self-consistent Calculation

     iteration #  1     ecut=    36.75 Ry     beta=0.10
     Davidson diagonalization with overlap
     ethr =  1.00E-02,  avg # of iterations =  9.7

[...]

     total energy              =   -2797.33045529 Ry
     Harris-Foulkes estimate   =   -2862.61674204 Ry
     estimated scf accuracy    <     357.41722650 Ry

[...]

     End of self-consistent calculation

          k = 0.0000 0.0000 0.0000 ( 24741 PWs)   bands (ev):

  -125.9618-125.6667-125.6667 -80.1477 -80.1477 -80.1377 -79.8588 -79.8586
   -79.8451 -79.8451 -79.8449 -79.8449 -21.5991 -21.5931 -21.5868 -21.5868
   -21.5769 -21.5769 -21.5608 -21.5435 -21.5434 -21.5434 -21.5360 -21.5261
   -21.5248 -21.5248 -21.5196 -21.5170 -21.5170 -21.5084 -21.4932 -21.4894
   -21.4894 -21.4879 -21.4879 -21.4860 -21.4860 -21.4775 -21.4775 -21.4499
   -21.4499 -21.4378 -21.4361 -21.4361 -21.4210 -21.4069 -21.4069 -21.4014
   -21.3972 -21.3909 -21.3909 -21.3728 -21.3728 -21.3713 -21.3367 -21.3366
   -21.3266  -9.7261  -8.5891  -7.2818  -7.0069  -7.0069  -6.8773  -6.8773
    -6.7364  -6.6524  -6.6524  -6.6424  -6.6424  -6.5713  -6.5713  -6.5621
    -6.5621  -6.5516  -6.3374  -5.7527  -5.7527  -5.3764  -5.3764  -4.4879
    -4.4879  -3.8403  -3.6026  -2.9950  -2.6434  -2.6434  -2.3799  -2.1396
    -1.5451  -1.5451  -1.2020  -1.2019  -0.8058  -0.6925   0.5371   1.7867
     1.7867   1.9177   1.9177   2.6363   3.2405   3.2788   3.4667   3.9021
     4.1456   4.1456   4.4469   4.4469   4.4745   4.6913   4.7060   5.3268
     5.3268   5.3867   6.1312   6.2073   6.2171   6.2659   6.3735   6.3735
     6.4736   6.4737   7.3448

[...]

          k =-0.0751-0.0434 0.0000 ( 24846 PWs)   bands (ev):

[...]

     the Fermi energy is     0.4557 ev

!    total energy              =   -2834.49445005 Ry
     Harris-Foulkes estimate   =   -2834.49444888 Ry
     estimated scf accuracy    <       0.00000056 Ry

     The total energy is the sum of the following terms:

     one-electron contribution =  -14025.68797175 Ry
     hartree contribution      =    7054.35048244 Ry
     xc contribution           =    -530.28876574 Ry
     ewald contribution        =    4667.16941758 Ry
     electric field correction =       0.00000000 Ry
     smearing contrib. (-TS)   =      -0.03761258 Ry

     convergence has been achieved in  16 iterations

 BEEF-vdW xc energy contributions
           1 :   -467.272929750505
           2 :    426.490556739037
           3 :   -357.621107302760
           4 :    280.198367540938
           5 :   -212.335120435992
           6 :    164.174367742232
           7 :   -135.853028171760
           8 :    120.259721314730
           9 :   -108.494572749411
          10 :    94.8256792901950
          11 :   -78.6992350247251
          12 :    63.3492442885229
[...]
     Pseudo is Ultrasoft + core correction, Zval = 14.0
     Generated by new atomic code, or converted to UPF format
     Using radial grid of  891 points,  6 beta functions with:
                l(1) =   0
                l(2) =   0
                l(3) =   1
                l(4) =   1
                l(5) =   2
                l(6) =   2
     Q(r) pseudized with  8 coefficients,  rinner =    1.350   1.350   1.350
                                                       1.350   1.350

     PseudoPot. # 2 for Zn read from file:
     /afs/slac.stanford.edu/u/if/mamunm/psp/gbrv1.5pbe/Zn.UPF
     MD5 check sum: df62231357ef9e81f77b2b3087fa5675
     Pseudo is Ultrasoft, Zval = 20.0
     Generated by new atomic code, or converted to UPF format
     Using radial grid of  943 points,  6 beta functions with:
                l(1) =   0
                l(2) =   0
                l(3) =   1
                l(4) =   1
                l(5) =   2
                l(6) =   2
     Q(r) pseudized with  8 coefficients,  rinner =    1.100   1.100   1.100
                                                       1.100   1.100

     vdW kernel table read from file vdW_kernel_table
     MD5 check sum: 095c7af220d748ca6e76c0b4c6cfb241

     atomic species   valence    mass     pseudopotential
        Sn1           14.00   118.71000     Sn( 1.00)
        Zn1           20.00    65.38000     Zn( 1.00)

     No symmetry found

   Cartesian axes

     site n.     atom                  positions (alat units)
         1           Sn1 tau(   1) = (   0.0000000   0.0000000  10.0000000  )
         2           Sn1 tau(   2) = (  -1.6646076   2.8831849  10.0000000  )
         3           Sn1 tau(   3) = (   1.6646076   2.8831849  10.0000000  )
         4           Zn1 tau(   4) = (   3.3292151   0.0000000  10.0000000  )
         5           Sn1 tau(   5) = (   3.3292151   1.9221232  12.7182928  )
         6           Sn1 tau(   6) = (   1.6646076   4.8053081  12.7182928  )
         7           Sn1 tau(   7) = (  -1.6646076   4.8053081  12.7182928  )
         8           Zn1 tau(   8) = (   0.0000000   1.9221232  12.7182928  )
         9           Sn1 tau(   9) = (   0.0000034   3.8073999  15.3292743  )
        10           Sn1 tau(  10) = (   1.6327111   0.9794758  15.3292841  )
        11           Sn1 tau(  11) = (   5.0257193   0.9794626  15.3292554  )
        12           Zn1 tau(  12) = (   3.3292124   3.8442354  15.4125411  )

     number of k points=    20  Fermi-Dirac smearing, width (Ry)=  0.0110
                       cart. coord. in units 2pi/alat
        k(    1) = (   0.0000000   0.0000000   0.0000000), wk =   0.0555556
        k(    2) = (   0.0000000   0.0289032   0.0000000), wk =   0.1111111
        k(    3) = (   0.0000000   0.0578064   0.0000000), wk =   0.1111111
        k(    4) = (   0.0000000  -0.0867097   0.0000000), wk =   0.0555556
        k(    5) = (   0.0250309   0.0144516   0.0000000), wk =   0.1111111
        k(    6) = (   0.0250309   0.0433548   0.0000000), wk =   0.1111111
        k(    7) = (   0.0250309   0.0722581   0.0000000), wk =   0.1111111
        k(    8) = (   0.0250309  -0.0722581   0.0000000), wk =   0.1111111
        k(    9) = (   0.0250309  -0.0433548   0.0000000), wk =   0.1111111
        k(   10) = (   0.0250309  -0.0144516   0.0000000), wk =   0.1111111
        k(   11) = (   0.0500618   0.0289032   0.0000000), wk =   0.1111111
        k(   12) = (   0.0500618   0.0578064   0.0000000), wk =   0.1111111
        k(   13) = (   0.0500618   0.0867097   0.0000000), wk =   0.1111111
        k(   14) = (   0.0500618  -0.0578064   0.0000000), wk =   0.1111111
        k(   15) = (   0.0500618  -0.0289032   0.0000000), wk =   0.1111111
        k(   16) = (   0.0500618   0.0000000   0.0000000), wk =   0.1111111
        k(   17) = (  -0.0750928  -0.0433548   0.0000000), wk =   0.0555556
        k(   18) = (  -0.0750928  -0.0144516   0.0000000), wk =   0.1111111
        k(   19) = (  -0.0750928   0.0144516   0.0000000), wk =   0.1111111
        k(   20) = (  -0.0750928  -0.1300645   0.0000000), wk =   0.0555556

     Largest allocated arrays     est. size (Mb)     dimensions
     Largest temporary arrays     est. size (Mb)     dimensions

     Initial potential from superposition of free atoms
     Check: negative starting charge=   -0.001404

     starting charge  176.99917, renormalised to  186.00000

[...]

     *
     * You are using vdW-DF for exchange-correlation in this calculation.
     * Please cite the following three references that made this development
     * possible:
     *
     *   M. Dion, H. Rydberg, E. Schroder, D. C. Langreth, and
     *   B. I. Lundqvist, Phys. Rev. Lett. 92, 246401 (2004).
     *
     *   T. Thonhauser, V. R. Cooper, S. Li, A. Puzder, P. Hyldgaard, and
     *   D. C. Langreth, Phys. Rev. B 76, 125112 (2007).
     *
     *   G. Roman-Perez and J. M. Soler, Phys. Rev. Lett. 103, 096102 (2009).
     *
     *
     * If you are using vdW-DF2, please also cite:
     *
     *   K. Lee, E. D. Murray, L. Kong, B. I. Lundqvist, and
     *   D. C. Langreth, Phys. Rev. B 82, 081101(R) (2010).
     *
     *
     * If you are calculating the stress with vdW-DF, please also cite:
     *
     *   R. Sabatini, E. Kucukbenli, B. Kolb, T. Thonhauser, and
     *   S. de Gironcoli, J. Phys.: Condens. Matter 24, 424209 (2012).
     *

     Carrying out vdW-DF run using the following parameters:

     Nqs =      20    Nr_points =    1024   r_max =   100.000
     q_mesh =
               0.00001000     0.04494208     0.09755937     0.15916263
               0.23128650     0.31572767     0.41458969     0.53033537
               0.66584808     0.82450364     1.01025438     1.22772762
               1.48234092     1.78043706     2.12944203     2.53805004
               3.01644009     3.57652955     4.23227104     5.00000000

     Gradients computed in reciprocal space

[...]

     Starting wfc are  120 randomized atomic wfcs +    3 random wfc

     Self-consistent Calculation

[...]

     total energy              =   -2834.49648983 Ry
     Harris-Foulkes estimate   =   -2834.49649157 Ry
     estimated scf accuracy    <       0.00000584 Ry

     iteration # 16     ecut=    36.75 Ry     beta=0.10
     Davidson diagonalization with overlap
     ethr =  3.14E-09,  avg # of iterations =  2.0

[...]

     negative rho (up, down):  6.869E-04 0.000E+00

     Adding external electric field

     Computed dipole along edir(3) :
        Dipole               -0.0114 Ry au,         -0.0289 Debye
        Dipole field         -0.0000 Ry au

        Potential amp.        0.0020 Ry
        Total length         46.8665 bohr

     End of self-consistent calculation

[...]

          k = 0.0501 0.0000 0.0000 ( 24788 PWs)   bands (ev):

[...]

          k =-0.0751-0.1301 0.0000 ( 24846 PWs)   bands (ev):

  -126.0032-125.6751-125.6651 -80.1892 -80.1892 -80.1780 -79.8665 -79.8573
   -79.8539 -79.8539 -79.8435 -79.8434 -21.5918 -21.5752 -21.5548 -21.5496
   -21.5424 -21.5368 -21.5351 -21.5328 -21.5296 -21.5265 -21.5218 -21.5199
   -21.5171 -21.5141 -21.5105 -21.5083 -21.5066 -21.5060 -21.5043 -21.5003
   -21.4991 -21.4956 -21.4937 -21.4908 -21.4849 -21.4771 -21.4767 -21.4724
   -21.4568 -21.4559 -21.4400 -21.4371 -21.4367 -21.4269 -21.4230 -21.4163
   -21.4133 -21.4096 -21.4043 -21.3979 -21.3918 -21.3886 -21.3798 -21.3714
   -21.3400  -8.8601  -8.6474  -7.6620  -7.4509  -7.0527  -6.9712  -6.9094
    -6.9076  -6.8327  -6.8204  -6.6627  -6.5923  -6.5828  -6.5803  -6.5734
    -6.5726  -6.5625  -6.5605  -6.5063  -6.4204  -6.0779  -5.7244  -5.5136
    -4.2248  -4.1821  -3.5418  -2.3153  -1.2499  -1.1974  -1.0030  -0.8269
    -0.6863  -0.6678  -0.1422   0.1916   0.4604   0.6827   1.2405   1.2793
     1.3333   1.3363   1.5865   2.0290   2.2095   2.2307   2.5466   2.7637
     3.3395   3.3436   3.6523   3.9549   4.1586   4.1840   4.4030   4.8377
     4.8718   4.9009   5.0338   5.0387   5.2119   5.5272   5.5744   5.7937
     5.8196   6.0273   6.0643

     the Fermi energy is     0.4486 ev

!    total energy              =   -2834.49649208 Ry
     Harris-Foulkes estimate   =   -2834.49649070 Ry
     estimated scf accuracy    <       0.00000072 Ry

     The total energy is the sum of the following terms:

     one-electron contribution =  -14171.66118799 Ry
     hartree contribution      =    7127.30662299 Ry
     xc contribution           =    -530.35555637 Ry
     ewald contribution        =    4740.25163937 Ry
     electric field correction =       0.00000025 Ry
     smearing contrib. (-TS)   =      -0.03801033 Ry

     convergence has been achieved in  16 iterations

 BEEF-vdW xc energy contributions
           1 :   -467.342680098342
           2 :    426.598344180812
           3 :   -357.776821382150
           4 :    280.372820458025
           5 :   -212.476464059934
           6 :    164.242204044288
           7 :   -135.844265565158
           8 :    120.209307923979
           9 :   -108.452018869944
          10 :    94.8239726661539
          11 :   -78.7360246602309
          12 :    63.3923775020517
          13 :   -52.5483249950446
          14 :    47.6803027854693
          15 :   -47.1877325460135
          16 :    47.7151412248270
          17 :   -46.3857436690521
          18 :    42.3959498805335
          19 :   -37.0890184373917
          20 :    32.7059471776282
          21 :   -30.7994194201724
          22 :    31.3376418311917
          23 :   -32.9347289086331
          24 :    33.8757947029740
          25 :   -33.1791702857676
          26 :    31.0467333659229
          27 :   -28.5419121925900
          28 :    26.8194047846277
          29 :   -26.4359305098917
          30 :    27.1228039020961
          31 :   -39.6254160333988
          32 :   -28.3711595459398

     Forces acting on atoms (Ry/au):

     negative rho (up, down):  6.869E-04 0.000E+00
     atom    1 type  1   force =     0.00000072    0.00202210    0.00603514
     atom    2 type  1   force =     0.00175015   -0.00101075    0.00603417
     atom    3 type  1   force =    -0.00175043   -0.00101200    0.00603561
     atom    4 type  2   force =    -0.00000050    0.00000134    0.00144478
     atom    5 type  1   force =     0.00000129    0.00105769   -0.00522374
     atom    6 type  1   force =     0.00091679   -0.00052890   -0.00522291
     atom    7 type  1   force =    -0.00091649   -0.00052795   -0.00522101
     atom    8 type  2   force =    -0.00000031    0.00000025   -0.00310878
     atom    9 type  1   force =    -0.00000037    0.00161351    0.00020446
     atom   10 type  1   force =     0.00139736   -0.00080836    0.00020283
     atom   11 type  1   force =    -0.00139794   -0.00080795    0.00020617
     atom   12 type  2   force =    -0.00000026    0.00000103   -0.00138671

     Total force =     0.015110     Total SCF correction =     0.002554
     SCF correction compared to forces is large: reduce conv_thr to get better values

     entering subroutine stress ...

     negative rho (up, down):  6.869E-04 0.000E+00
          total   stress  (Ry/bohr**3)                   (kbar)     P=   -6.58
  -0.00004677  -0.00000000   0.00000000         -6.88     -0.00      0.00
  -0.00000000  -0.00004677   0.00000000         -0.00     -6.88      0.00
   0.00000000   0.00000000  -0.00004068          0.00      0.00     -5.98

 !ASE

     Writing output data file calc.save

     General routines

     Parallel routines

   This run was terminated on:   2:27:56  28Dec2018

   JOB DONE.
Job  /afs/slac/g/suncat/bin/suncat-tsmpirun -x LD_LIBRARY_PATH -wdir /scratch/qe110966_OqiKN pw.x -in pw.inp

TID   HOST_NAME   COMMAND_LINE            STATUS            TERMINATION_TIME
00000 suncat0041 pw.x -in pw.inp   Done                     12/28/2018 02:27:56
00001 suncat0041 pw.x -in pw.inp   Done                     12/28/2018 02:27:56
00002 suncat0041 pw.x -in pw.inp   Done                     12/28/2018 02:27:56
00003 suncat0041 pw.x -in pw.inp   Done                     12/28/2018 02:27:56
00004 suncat0041 pw.x -in pw.inp   Done                     12/28/2018 02:27:56
00005 suncat0041 pw.x -in pw.inp   Done                     12/28/2018 02:27:56
00006 suncat0041 pw.x -in pw.inp   Done                     12/28/2018 02:27:56
00007 suncat0041 pw.x -in pw.inp   Done                     12/28/2018 02:27:56
00008 suncat0039 pw.x -in pw.inp   Done                     12/28/2018 02:27:56
00009 suncat0039 pw.x -in pw.inp   Done                     12/28/2018 02:27:56
00010 suncat0039 pw.x -in pw.inp   Done                     12/28/2018 02:27:56
00011 suncat0039 pw.x -in pw.inp   Done                     12/28/2018 02:27:56
00012 suncat0039 pw.x -in pw.inp   Done                     12/28/2018 02:27:56
00013 suncat0039 pw.x -in pw.inp   Done                     12/28/2018 02:27:56
00014 suncat0039 pw.x -in pw.inp   Done                     12/28/2018 02:27:56
00015 suncat0039 pw.x -in pw.inp   Done                     12/28/2018 02:27:56
00016 suncat0169 pw.x -in pw.inp   Done                     12/28/2018 02:27:56
00017 suncat0169 pw.x -in pw.inp   Done                     12/28/2018 02:27:56
00018 suncat0169 pw.x -in pw.inp   Done                     12/28/2018 02:27:56
00019 suncat0169 pw.x -in pw.inp   Done                     12/28/2018 02:27:56
00020 suncat0169 pw.x -in pw.inp   Done                     12/28/2018 02:27:56
00021 suncat0169 pw.x -in pw.inp   Done                     12/28/2018 02:27:56
00022 suncat0169 pw.x -in pw.inp   Done                     12/28/2018 02:27:56
00023 suncat0169 pw.x -in pw.inp   Done                     12/28/2018 02:27:56
00024 suncat0168 pw.x -in pw.inp   Done                     12/28/2018 02:27:56
00025 suncat0168 pw.x -in pw.inp   Done                     12/28/2018 02:27:56
00026 suncat0168 pw.x -in pw.inp   Done                     12/28/2018 02:27:56
00027 suncat0168 pw.x -in pw.inp   Done                     12/28/2018 02:27:56
00028 suncat0168 pw.x -in pw.inp   Done                     12/28/2018 02:27:56
00029 suncat0168 pw.x -in pw.inp   Done                     12/28/2018 02:27:56
00030 suncat0168 pw.x -in pw.inp   Done                     12/28/2018 02:27:56
00031 suncat0168 pw.x -in pw.inp   Done                     12/28/2018 02:27:56
00032 suncat0161 pw.x -in pw.inp   Done                     12/28/2018 02:27:56
00033 suncat0161 pw.x -in pw.inp   Done                     12/28/2018 02:27:56
00034 suncat0161 pw.x -in pw.inp   Done                     12/28/2018 02:27:56
00035 suncat0161 pw.x -in pw.inp   Done                     12/28/2018 02:27:56
00036 suncat0161 pw.x -in pw.inp   Done                     12/28/2018 02:27:56
00037 suncat0161 pw.x -in pw.inp   Done                     12/28/2018 02:27:56
00038 suncat0161 pw.x -in pw.inp   Done                     12/28/2018 02:27:56
00039 suncat0161 pw.x -in pw.inp   Done                     12/28/2018 02:27:56
00040 suncat0250 pw.x -in pw.inp   Done                     12/28/2018 02:27:56
00041 suncat0250 pw.x -in pw.inp   Done                     12/28/2018 02:27:56
00042 suncat0250 pw.x -in pw.inp   Done                     12/28/2018 02:27:56
00043 suncat0250 pw.x -in pw.inp   Done                     12/28/2018 02:27:56
00044 suncat0250 pw.x -in pw.inp   Done                     12/28/2018 02:27:56
00045 suncat0250 pw.x -in pw.inp   Done                     12/28/2018 02:27:56
00046 suncat0250 pw.x -in pw.inp   Done                     12/28/2018 02:27:56
00047 suncat0250 pw.x -in pw.inp   Done                     12/28/2018 02:27:56
00048 suncat0249 pw.x -in pw.inp   Done                     12/28/2018 02:27:56
00049 suncat0249 pw.x -in pw.inp   Done                     12/28/2018 02:27:56
00050 suncat0249 pw.x -in pw.inp   Done                     12/28/2018 02:27:56
00051 suncat0249 pw.x -in pw.inp   Done                     12/28/2018 02:27:56
00052 suncat0249 pw.x -in pw.inp   Done                     12/28/2018 02:27:56
00053 suncat0249 pw.x -in pw.inp   Done                     12/28/2018 02:27:56
00054 suncat0249 pw.x -in pw.inp   Done                     12/28/2018 02:27:56
00055 suncat0249 pw.x -in pw.inp   Done                     12/28/2018 02:27:56
00056 suncat0231 pw.x -in pw.inp   Done                     12/28/2018 02:27:56
00057 suncat0231 pw.x -in pw.inp   Done                     12/28/2018 02:27:56
00058 suncat0231 pw.x -in pw.inp   Done                     12/28/2018 02:27:56
00059 suncat0231 pw.x -in pw.inp   Done                     12/28/2018 02:27:56
00060 suncat0231 pw.x -in pw.inp   Done                     12/28/2018 02:27:56
00061 suncat0231 pw.x -in pw.inp   Done                     12/28/2018 02:27:56
00062 suncat0231 pw.x -in pw.inp   Done                     12/28/2018 02:27:56
00063 suncat0231 pw.x -in pw.inp   Done                     12/28/2018 02:27:56