     Program PWSCF v.5.1rc2 (svn rev. 11289) starts on 31Dec2018 at 14: 5:47

     Current dimensions of program PWSCF are:
     Max number of different atomic species (ntypx) = 10
     Max number of k-points (npk) =  40000
     Max angular momentum in pseudopotentials (lmaxx) =  3
     Presently stress not available with electric field

     IMPORTANT: XC functional enforced from input :
     Exchange-correlation      = BEEF-VDW ( 1  4 27 13 2)
     Any further DFT definition will be discarded
     Please, verify this is what you really want

     Subspace diagonalization in iterative solution of the eigenvalue problem:
     a serial algorithm will be used

     bravais-lattice index     =            0
     lattice parameter (alat)  =       1.8897  a.u.
     unit-cell volume          =    4437.0371 (a.u.)^3
     number of atoms/cell      =           12
     number of atomic types    =            2
     number of electrons       =       153.00
     number of Kohn-Sham states=          106
     kinetic-energy cutoff     =      36.7493  Ry
     charge density cutoff     =     367.4932  Ry
     convergence threshold     =      1.0E-06
     mixing beta               =       0.1000
     number of iterations used =           10  plain     mixing
     Exchange-correlation      = BEEF-VDW ( 1  4 27 13 2)
     nstep                     =           50

     celldm(1)=   1.889726  celldm(2)=   0.000000  celldm(3)=   0.000000
     celldm(4)=   0.000000  celldm(5)=   0.000000  celldm(6)=   0.000000

     crystal axes: (cart. coord. in units of alat)
               a(1) = (   5.562031   0.000000   0.000000 )
               a(2) = (  -2.781016   4.816860   0.000000 )
               a(3) = (   0.000000   0.000000  24.541380 )

     reciprocal axes: (cart. coord. in units 2 pi/alat)
               b(1) = (  0.179790  0.103802  0.000000 )
               b(2) = (  0.000000  0.207604  0.000000 )
               b(3) = (  0.000000  0.000000  0.040748 )

     PseudoPot. # 1 for Pt read from file:
     /afs/slac.stanford.edu/u/if/mamunm/psp/gbrv1.5pbe/Pt.UPF
     MD5 check sum: f09d6de1a584b5a045c4fc126da2d0c4
     Pseudo is Ultrasoft + core correction, Zval = 16.0
     Generated by new atomic code, or converted to UPF format
     Using radial grid of  985 points,  6 beta functions with:
                l(1) =   0
                l(2) =   0
                l(3) =   1
                l(4) =   1
                l(5) =   2
                l(6) =   2
     Q(r) pseudized with  8 coefficients,  rinner =    1.300   1.300   1.300
                                                       1.300   1.300

     PseudoPot. # 2 for Al read from file:
     /afs/slac.stanford.edu/u/if/mamunm/psp/gbrv1.5pbe/Al.UPF
     MD5 check sum: 0a6289f5291fc8f409219462bc851e1f
     Pseudo is Ultrasoft + core correction, Zval =  3.0
     Generated by new atomic code, or converted to UPF format
     Using radial grid of  893 points,  3 beta functions with:
                l(1) =   0
                l(2) =   1
                l(3) =   2
     Q(r) pseudized with  8 coefficients,  rinner =    0.900   0.900   0.900
                                                       0.900   0.900

     vdW kernel table read from file vdW_kernel_table
     MD5 check sum: 095c7af220d748ca6e76c0b4c6cfb241

     atomic species   valence    mass     pseudopotential
        Pt1           16.00   195.08400     Pt( 1.00)
        Al1            3.00    26.98154     Al( 1.00)

     No symmetry found

   Cartesian axes

     site n.     atom                  positions (alat units)
         1           Pt1 tau(   1) = (   0.0000000   0.0000000  10.0000000  )
         2           Pt1 tau(   2) = (  -1.3905078   2.4084302  10.0000000  )
         3           Pt1 tau(   3) = (   1.3905078   2.4084302  10.0000000  )
         4           Al1 tau(   4) = (   2.7810156   0.0000000  10.0000000  )
         5           Pt1 tau(   5) = (   2.7810156   1.6056201  12.2706898  )
         6           Pt1 tau(   6) = (   1.3905078   4.0140503  12.2706898  )
         7           Pt1 tau(   7) = (  -1.3905078   4.0140503  12.2706898  )
         8           Al1 tau(   8) = (   0.0000000   1.6056201  12.2706898  )
         9           Pt1 tau(   9) = (  -0.0000000   3.2112403  14.5413795  )
        10           Pt1 tau(  10) = (   1.3905078   0.8028101  14.5413795  )
        11           Pt1 tau(  11) = (   4.1715235   0.8028101  14.5413795  )
        12           Al1 tau(  12) = (   2.7810156   3.2112403  14.5413795  )

     number of k points=    20  Fermi-Dirac smearing, width (Ry)=  0.0110
                       cart. coord. in units 2pi/alat
        k(    1) = (   0.0000000   0.0000000   0.0000000), wk =   0.0555556
        k(    2) = (   0.0000000   0.0346007   0.0000000), wk =   0.1111111
        k(    3) = (   0.0000000   0.0692014   0.0000000), wk =   0.1111111
        k(    4) = (   0.0000000  -0.1038021   0.0000000), wk =   0.0555556
        k(    5) = (   0.0299651   0.0173003   0.0000000), wk =   0.1111111
        k(    6) = (   0.0299651   0.0519010   0.0000000), wk =   0.1111111
        k(    7) = (   0.0299651   0.0865017   0.0000000), wk =   0.1111111
        k(    8) = (   0.0299651  -0.0865017   0.0000000), wk =   0.1111111
        k(    9) = (   0.0299651  -0.0519010   0.0000000), wk =   0.1111111
        k(   10) = (   0.0299651  -0.0173003   0.0000000), wk =   0.1111111
        k(   11) = (   0.0599301   0.0346007   0.0000000), wk =   0.1111111
        k(   12) = (   0.0599301   0.0692014   0.0000000), wk =   0.1111111
        k(   13) = (   0.0599301   0.1038021   0.0000000), wk =   0.1111111
        k(   14) = (   0.0599301  -0.0692014   0.0000000), wk =   0.1111111
        k(   15) = (   0.0599301  -0.0346007   0.0000000), wk =   0.1111111
        k(   16) = (   0.0599301   0.0000000   0.0000000), wk =   0.1111111
        k(   17) = (  -0.0898952  -0.0519010   0.0000000), wk =   0.0555556
        k(   18) = (  -0.0898952  -0.0173003   0.0000000), wk =   0.1111111
        k(   19) = (  -0.0898952   0.0173003   0.0000000), wk =   0.1111111
        k(   20) = (  -0.0898952  -0.1557031   0.0000000), wk =   0.0555556

     Largest allocated arrays     est. size (Mb)     dimensions
     Largest temporary arrays     est. size (Mb)     dimensions

     Initial potential from superposition of free atoms
     Check: negative starting charge=   -1.651111

     starting charge  148.49250, renormalised to  153.00000

     negative rho (up, down):  1.701E+00 0.000E+00

     *
     * You are using vdW-DF for exchange-correlation in this calculation.
     * Please cite the following three references that made this development
     * possible:
     *
     *   M. Dion, H. Rydberg, E. Schroder, D. C. Langreth, and
     *   B. I. Lundqvist, Phys. Rev. Lett. 92, 246401 (2004).
     *
     *   T. Thonhauser, V. R. Cooper, S. Li, A. Puzder, P. Hyldgaard, and
     *   D. C. Langreth, Phys. Rev. B 76, 125112 (2007).
     *
     *   G. Roman-Perez and J. M. Soler, Phys. Rev. Lett. 103, 096102 (2009).
     *
     *
     * If you are using vdW-DF2, please also cite:
     *
     *   K. Lee, E. D. Murray, L. Kong, B. I. Lundqvist, and
     *   D. C. Langreth, Phys. Rev. B 82, 081101(R) (2010).
     *
     *
     * If you are calculating the stress with vdW-DF, please also cite:
     *
     *   R. Sabatini, E. Kucukbenli, B. Kolb, T. Thonhauser, and
     *   S. de Gironcoli, J. Phys.: Condens. Matter 24, 424209 (2012).
     *

     Carrying out vdW-DF run using the following parameters:

     Nqs =      20    Nr_points =    1024   r_max =   100.000
     q_mesh =
               0.00001000     0.04494208     0.09755937     0.15916263
               0.23128650     0.31572767     0.41458969     0.53033537
               0.66584808     0.82450364     1.01025438     1.22772762
               1.48234092     1.78043706     2.12944203     2.53805004
               3.01644009     3.57652955     4.23227104     5.00000000

     Gradients computed in reciprocal space

     Adding external electric field

     Computed dipole along edir(3) :
        Dipole                0.0000 Ry au,          0.0000 Debye
        Dipole field          0.0000 Ry au

        Potential amp.       -0.0000 Ry
        Total length         45.2171 bohr

     Starting wfc are  120 randomized atomic wfcs

     Self-consistent Calculation

     iteration #  1     ecut=    36.75 Ry     beta=0.10
     Davidson diagonalization with overlap
     ethr =  1.00E-02,  avg # of iterations =  7.4

[...]

     total energy              =   -1932.86592795 Ry
     Harris-Foulkes estimate   =   -1935.16968200 Ry
     estimated scf accuracy    <      14.32282224 Ry

[...]

     iteration #  9     ecut=    36.75 Ry     beta=0.10
     Davidson diagonalization with overlap
     c_bands:  1 eigenvalues not converged
     ethr =  2.11E-06,  avg # of iterations =  7.8

[...]

     End of self-consistent calculation

          k = 0.0000 0.0000 0.0000 ( 16703 PWs)   bands (ev):

   -51.7507 -51.6050 -51.6049 -51.6048 -51.5643 -51.5639 -51.4330 -51.4231
   -51.4229 -51.3591 -51.3498 -51.2427 -51.2426 -51.2268 -51.2268 -51.0888
   -51.0848 -51.0502 -51.0502 -51.0483 -51.0483 -51.0335 -51.0108 -50.9990
   -50.9989 -50.9870 -50.9869  -8.1685  -6.3190  -5.8552  -5.1003  -4.8599
    -4.4258  -4.2879  -4.2878  -3.8820  -3.8801  -3.8800  -3.7011  -3.7011
    -3.3938  -3.3937  -3.0633  -2.3736  -2.3736  -2.2477  -2.2477  -1.9388
    -1.9190  -1.7186  -1.4050  -1.4050  -1.3414  -1.1186  -1.1184  -0.8593
    -0.8590  -0.3738  -0.3737  -0.3414  -0.3414  -0.1834   0.0475   0.2149
     0.2150   0.2815   0.2816   0.4480   0.4481   0.6486   0.8451   0.8451
     1.0660   1.1627   1.1627   1.5010   1.7460   1.8584   1.9146   2.4023
     2.5644   2.7945   2.7945   2.8196   2.8197   4.6465   4.9809   5.4118
     5.8334   6.0016   6.0016   6.0061   6.3609   6.4576   6.4576   7.0577
     7.1708   7.1708   7.6854   8.7459   9.0325   9.3786   9.6600   9.6600
     9.8506  10.0304

[...]

          k =-0.0899-0.0519 0.0000 ( 16676 PWs)   bands (ev):

[...]

     the Fermi energy is     1.2617 ev

!    total energy              =   -1932.18587840 Ry
     Harris-Foulkes estimate   =   -1932.18587452 Ry
     estimated scf accuracy    <       0.00000066 Ry

     The total energy is the sum of the following terms:

     one-electron contribution =  -13144.98914164 Ry
     hartree contribution      =    6599.70294598 Ry
     xc contribution           =    -541.13514755 Ry
     ewald contribution        =    5154.28879555 Ry
     electric field correction =       0.00000000 Ry
     smearing contrib. (-TS)   =      -0.05333075 Ry

     convergence has been achieved in  14 iterations

 BEEF-vdW xc energy contributions
           1 :   -480.657484980584
           2 :    446.697108190988
           3 :   -386.106495431282
           4 :    310.779656258430
           5 :   -233.354834685782
           6 :    163.934735875586
           7 :   -108.319278313619
           8 :    67.8555350765259
           9 :   -40.4922843438175
          10 :    22.4034343791345
          11 :   -9.63646933880750
          12 :  -0.638882838947666
          13 :    9.54945381146115
[...]
               b(3) = (  0.000000  0.000000  0.040748 )

     PseudoPot. # 1 for Pt read from file:
     /afs/slac.stanford.edu/u/if/mamunm/psp/gbrv1.5pbe/Pt.UPF
     MD5 check sum: f09d6de1a584b5a045c4fc126da2d0c4
     Pseudo is Ultrasoft + core correction, Zval = 16.0
     Generated by new atomic code, or converted to UPF format
     Using radial grid of  985 points,  6 beta functions with:
                l(1) =   0
                l(2) =   0
                l(3) =   1
                l(4) =   1
                l(5) =   2
                l(6) =   2
     Q(r) pseudized with  8 coefficients,  rinner =    1.300   1.300   1.300
                                                       1.300   1.300

     PseudoPot. # 2 for Al read from file:
     /afs/slac.stanford.edu/u/if/mamunm/psp/gbrv1.5pbe/Al.UPF
     MD5 check sum: 0a6289f5291fc8f409219462bc851e1f
     Pseudo is Ultrasoft + core correction, Zval =  3.0
     Generated by new atomic code, or converted to UPF format
     Using radial grid of  893 points,  3 beta functions with:
                l(1) =   0
                l(2) =   1
                l(3) =   2
     Q(r) pseudized with  8 coefficients,  rinner =    0.900   0.900   0.900
                                                       0.900   0.900

     vdW kernel table read from file vdW_kernel_table
     MD5 check sum: 095c7af220d748ca6e76c0b4c6cfb241

     atomic species   valence    mass     pseudopotential
        Pt1           16.00   195.08400     Pt( 1.00)
        Al1            3.00    26.98154     Al( 1.00)

     No symmetry found

   Cartesian axes

     site n.     atom                  positions (alat units)
         1           Pt1 tau(   1) = (   0.0000000   0.0000000  10.0000000  )
         2           Pt1 tau(   2) = (  -1.3905078   2.4084302  10.0000000  )
         3           Pt1 tau(   3) = (   1.3905078   2.4084302  10.0000000  )
         4           Al1 tau(   4) = (   2.7810156   0.0000000  10.0000000  )
         5           Pt1 tau(   5) = (   2.7810156   1.6056201  12.2706898  )
         6           Pt1 tau(   6) = (   1.3905078   4.0140503  12.2706898  )
         7           Pt1 tau(   7) = (  -1.3905078   4.0140503  12.2706898  )
         8           Al1 tau(   8) = (   0.0000000   1.6056201  12.2706898  )
         9           Pt1 tau(   9) = (   0.0000027   3.1851304  14.5200568  )
        10           Pt1 tau(  10) = (   1.3678928   0.8158652  14.5200595  )
        11           Pt1 tau(  11) = (   4.1941348   0.8158621  14.5200576  )
        12           Al1 tau(  12) = (   2.7810150   3.2112412  14.4571339  )

     number of k points=    20  Fermi-Dirac smearing, width (Ry)=  0.0110
                       cart. coord. in units 2pi/alat
        k(    1) = (   0.0000000   0.0000000   0.0000000), wk =   0.0555556
        k(    2) = (   0.0000000   0.0346007   0.0000000), wk =   0.1111111
        k(    3) = (   0.0000000   0.0692014   0.0000000), wk =   0.1111111
        k(    4) = (   0.0000000  -0.1038021   0.0000000), wk =   0.0555556
        k(    5) = (   0.0299651   0.0173003   0.0000000), wk =   0.1111111
        k(    6) = (   0.0299651   0.0519010   0.0000000), wk =   0.1111111
        k(    7) = (   0.0299651   0.0865017   0.0000000), wk =   0.1111111
        k(    8) = (   0.0299651  -0.0865017   0.0000000), wk =   0.1111111
        k(    9) = (   0.0299651  -0.0519010   0.0000000), wk =   0.1111111
        k(   10) = (   0.0299651  -0.0173003   0.0000000), wk =   0.1111111
        k(   11) = (   0.0599301   0.0346007   0.0000000), wk =   0.1111111
        k(   12) = (   0.0599301   0.0692014   0.0000000), wk =   0.1111111
        k(   13) = (   0.0599301   0.1038021   0.0000000), wk =   0.1111111
        k(   14) = (   0.0599301  -0.0692014   0.0000000), wk =   0.1111111
        k(   15) = (   0.0599301  -0.0346007   0.0000000), wk =   0.1111111
        k(   16) = (   0.0599301   0.0000000   0.0000000), wk =   0.1111111
        k(   17) = (  -0.0898952  -0.0519010   0.0000000), wk =   0.0555556
        k(   18) = (  -0.0898952  -0.0173003   0.0000000), wk =   0.1111111
        k(   19) = (  -0.0898952   0.0173003   0.0000000), wk =   0.1111111
        k(   20) = (  -0.0898952  -0.1557031   0.0000000), wk =   0.0555556

     Largest allocated arrays     est. size (Mb)     dimensions
     Largest temporary arrays     est. size (Mb)     dimensions

     Initial potential from superposition of free atoms
     Check: negative starting charge=   -1.646657

     starting charge  148.49250, renormalised to  153.00000

[...]

     *
     * You are using vdW-DF for exchange-correlation in this calculation.
     * Please cite the following three references that made this development
     * possible:
     *
     *   M. Dion, H. Rydberg, E. Schroder, D. C. Langreth, and
     *   B. I. Lundqvist, Phys. Rev. Lett. 92, 246401 (2004).
     *
     *   T. Thonhauser, V. R. Cooper, S. Li, A. Puzder, P. Hyldgaard, and
     *   D. C. Langreth, Phys. Rev. B 76, 125112 (2007).
     *
     *   G. Roman-Perez and J. M. Soler, Phys. Rev. Lett. 103, 096102 (2009).
     *
     *
     * If you are using vdW-DF2, please also cite:
     *
     *   K. Lee, E. D. Murray, L. Kong, B. I. Lundqvist, and
     *   D. C. Langreth, Phys. Rev. B 82, 081101(R) (2010).
     *
     *
     * If you are calculating the stress with vdW-DF, please also cite:
     *
     *   R. Sabatini, E. Kucukbenli, B. Kolb, T. Thonhauser, and
     *   S. de Gironcoli, J. Phys.: Condens. Matter 24, 424209 (2012).
     *

     Carrying out vdW-DF run using the following parameters:

     Nqs =      20    Nr_points =    1024   r_max =   100.000
     q_mesh =
               0.00001000     0.04494208     0.09755937     0.15916263
               0.23128650     0.31572767     0.41458969     0.53033537
               0.66584808     0.82450364     1.01025438     1.22772762
               1.48234092     1.78043706     2.12944203     2.53805004
               3.01644009     3.57652955     4.23227104     5.00000000

     Gradients computed in reciprocal space

[...]

     Starting wfc are  120 randomized atomic wfcs

     Self-consistent Calculation

[...]

     total energy              =   -1932.20122045 Ry
     Harris-Foulkes estimate   =   -1932.20122008 Ry
     estimated scf accuracy    <       0.00000189 Ry

     iteration # 15     ecut=    36.75 Ry     beta=0.10
     Davidson diagonalization with overlap
     ethr =  1.24E-09,  avg # of iterations =  3.1

[...]

     negative rho (up, down):  1.583E+00 0.000E+00

     Adding external electric field

     Computed dipole along edir(3) :
        Dipole               -0.0086 Ry au,         -0.0218 Debye
        Dipole field         -0.0000 Ry au

        Potential amp.        0.0022 Ry
        Total length         45.2171 bohr

     End of self-consistent calculation

[...]

          k = 0.0599 0.0000 0.0000 ( 16642 PWs)   bands (ev):

[...]

          k =-0.0899-0.1557 0.0000 ( 16676 PWs)   bands (ev):

   -51.7143 -51.6309 -51.6251 -51.6051 -51.6020 -51.5675 -51.5563 -51.5445
   -51.4618 -51.3163 -51.2945 -51.2197 -51.1939 -51.1875 -51.1840 -51.1747
   -51.1698 -51.1648 -51.1561 -51.0799 -51.0661 -51.0398 -51.0295 -51.0210
   -51.0168 -51.0081 -51.0014  -6.5450  -6.4844  -4.9914  -4.9724  -4.5386
    -4.4933  -4.2182  -4.0008  -3.6883  -3.3656  -3.3475  -3.2727  -3.1760
    -3.1613  -3.0794  -2.8974  -2.7413  -2.6877  -2.4266  -2.2882  -2.1581
    -1.9425  -1.9191  -1.9062  -1.7626  -1.7255  -1.5765  -1.5136  -1.4981
    -1.3351  -1.2790  -1.2464  -1.1736  -0.9382  -0.7968  -0.7221  -0.6535
    -0.5732  -0.5460  -0.5159  -0.2581  -0.1656  -0.0568  -0.0234   0.1602
     0.4204   0.6177   0.6404   1.0778   1.5035   1.5335   1.6862   2.4925
     3.0022   3.4448   3.8515   4.2767   4.5270   4.8660   6.4530   6.6545
     6.7962   7.1197   7.4053   7.4179   7.4349   7.4608   7.5612   7.6242
     7.6694   7.7794   8.2955   8.6434   8.6679   8.8550   8.9524   9.0375
     9.1547   9.2619

     the Fermi energy is     1.2543 ev

!    total energy              =   -1932.20122782 Ry
     Harris-Foulkes estimate   =   -1932.20122074 Ry
     estimated scf accuracy    <       0.00000053 Ry

     The total energy is the sum of the following terms:

     one-electron contribution =  -13189.87423737 Ry
     hartree contribution      =    6622.00367485 Ry
     xc contribution           =    -541.20350435 Ry
     ewald contribution        =    5176.92588929 Ry
     electric field correction =       0.00000021 Ry
     smearing contrib. (-TS)   =      -0.05305045 Ry

     convergence has been achieved in  15 iterations

 BEEF-vdW xc energy contributions
           1 :   -481.096966529935
           2 :    447.157935987552
           3 :   -386.596178521153
           4 :    311.286181440209
           5 :   -233.852343862228
           6 :    164.396701318267
           7 :   -108.730744925631
           8 :    68.2189994280065
           9 :   -40.8268291008474
          10 :    22.7388038549404
          11 :   -10.0028431322215
          12 :  -0.223501940140181
          13 :    9.08964085545983
          14 :   -16.2384948427905
          15 :    20.6022215375210
          16 :   -21.4017044298502
          17 :    18.8361196743455
          18 :   -14.1488404379414
          19 :    9.11612741309978
          20 :   -5.31563821785664
          21 :    3.57543852988806
          22 :   -3.82551837513040
          23 :    5.31808446842359
          24 :   -7.04058505564342
          25 :    8.12579551065016
          26 :   -8.13372257233323
          27 :    7.14407544914479
          28 :   -5.65143833154605
          29 :    4.30522899663561
          30 :   -3.60134084895014
          31 :   -40.1091167805663
          32 :   -29.6652891070717

     Forces acting on atoms (Ry/au):

     negative rho (up, down):  1.583E+00 0.000E+00
     atom    1 type  1   force =    -0.00000061    0.01827434    0.00135079
     atom    2 type  1   force =     0.01582649   -0.00913739    0.00135006
     atom    3 type  1   force =    -0.01582628   -0.00913666    0.00135082
     atom    4 type  2   force =    -0.00000005    0.00000001    0.01123634
     atom    5 type  1   force =    -0.00000039   -0.00154382   -0.00486898
     atom    6 type  1   force =    -0.00133646    0.00077204   -0.00487040
     atom    7 type  1   force =     0.00133643    0.00077213   -0.00486940
     atom    8 type  2   force =     0.00000003    0.00000001   -0.00354268
     atom    9 type  1   force =    -0.00000067    0.00057430    0.00123368
     atom   10 type  1   force =     0.00049884   -0.00028809    0.00123322
     atom   11 type  1   force =    -0.00049778   -0.00028649    0.00123373
     atom   12 type  2   force =     0.00000045   -0.00000037   -0.00083718

     Total force =     0.035081     Total SCF correction =     0.003530
     SCF correction compared to forces is large: reduce conv_thr to get better values

     entering subroutine stress ...

     negative rho (up, down):  1.583E+00 0.000E+00
          total   stress  (Ry/bohr**3)                   (kbar)     P=  -15.98
  -0.00015059  -0.00000000  -0.00000000        -22.15     -0.00     -0.00
  -0.00000000  -0.00015059   0.00000000         -0.00    -22.15      0.00
  -0.00000000   0.00000000  -0.00002477         -0.00      0.00     -3.64

 !ASE

     Writing output data file calc.save

     General routines

     Parallel routines

   This run was terminated on:  15:18:13  31Dec2018

   JOB DONE.
Job  /afs/slac/g/suncat/bin/suncat-tsmpirun -x LD_LIBRARY_PATH -wdir /scratch/qe648787_idS4b pw.x -in pw.inp

TID   HOST_NAME   COMMAND_LINE            STATUS            TERMINATION_TIME
00000 suncat0086 pw.x -in pw.inp   Done                     12/31/2018 15:18:13
00001 suncat0086 pw.x -in pw.inp   Done                     12/31/2018 15:18:13
00002 suncat0086 pw.x -in pw.inp   Done                     12/31/2018 15:18:13
00003 suncat0086 pw.x -in pw.inp   Done                     12/31/2018 15:18:13
00004 suncat0086 pw.x -in pw.inp   Done                     12/31/2018 15:18:13
00005 suncat0086 pw.x -in pw.inp   Done                     12/31/2018 15:18:13
00006 suncat0086 pw.x -in pw.inp   Done                     12/31/2018 15:18:13
00007 suncat0086 pw.x -in pw.inp   Done                     12/31/2018 15:18:13
00008 suncat0085 pw.x -in pw.inp   Done                     12/31/2018 15:18:13
00009 suncat0085 pw.x -in pw.inp   Done                     12/31/2018 15:18:13
00010 suncat0085 pw.x -in pw.inp   Done                     12/31/2018 15:18:13
00011 suncat0085 pw.x -in pw.inp   Done                     12/31/2018 15:18:13
00012 suncat0085 pw.x -in pw.inp   Done                     12/31/2018 15:18:13
00013 suncat0085 pw.x -in pw.inp   Done                     12/31/2018 15:18:13
00014 suncat0085 pw.x -in pw.inp   Done                     12/31/2018 15:18:13
00015 suncat0085 pw.x -in pw.inp   Done                     12/31/2018 15:18:13
00016 suncat0084 pw.x -in pw.inp   Done                     12/31/2018 15:18:13
00017 suncat0084 pw.x -in pw.inp   Done                     12/31/2018 15:18:13
00018 suncat0084 pw.x -in pw.inp   Done                     12/31/2018 15:18:13
00019 suncat0084 pw.x -in pw.inp   Done                     12/31/2018 15:18:13
00020 suncat0084 pw.x -in pw.inp   Done                     12/31/2018 15:18:13
00021 suncat0084 pw.x -in pw.inp   Done                     12/31/2018 15:18:13
00022 suncat0084 pw.x -in pw.inp   Done                     12/31/2018 15:18:13
00023 suncat0084 pw.x -in pw.inp   Done                     12/31/2018 15:18:13
00024 suncat0083 pw.x -in pw.inp   Done                     12/31/2018 15:18:13
00025 suncat0083 pw.x -in pw.inp   Done                     12/31/2018 15:18:13
00026 suncat0083 pw.x -in pw.inp   Done                     12/31/2018 15:18:13
00027 suncat0083 pw.x -in pw.inp   Done                     12/31/2018 15:18:13
00028 suncat0083 pw.x -in pw.inp   Done                     12/31/2018 15:18:13
00029 suncat0083 pw.x -in pw.inp   Done                     12/31/2018 15:18:13
00030 suncat0083 pw.x -in pw.inp   Done                     12/31/2018 15:18:13
00031 suncat0083 pw.x -in pw.inp   Done                     12/31/2018 15:18:13
00032 suncat0234 pw.x -in pw.inp   Done                     12/31/2018 15:18:13
00033 suncat0234 pw.x -in pw.inp   Done                     12/31/2018 15:18:13
00034 suncat0234 pw.x -in pw.inp   Done                     12/31/2018 15:18:13
00035 suncat0234 pw.x -in pw.inp   Done                     12/31/2018 15:18:13
00036 suncat0234 pw.x -in pw.inp   Done                     12/31/2018 15:18:13
00037 suncat0234 pw.x -in pw.inp   Done                     12/31/2018 15:18:13
00038 suncat0234 pw.x -in pw.inp   Done                     12/31/2018 15:18:13
00039 suncat0234 pw.x -in pw.inp   Done                     12/31/2018 15:18:13
00040 suncat0233 pw.x -in pw.inp   Done                     12/31/2018 15:18:13
00041 suncat0233 pw.x -in pw.inp   Done                     12/31/2018 15:18:13
00042 suncat0233 pw.x -in pw.inp   Done                     12/31/2018 15:18:13
00043 suncat0233 pw.x -in pw.inp   Done                     12/31/2018 15:18:13
00044 suncat0233 pw.x -in pw.inp   Done                     12/31/2018 15:18:13
00045 suncat0233 pw.x -in pw.inp   Done                     12/31/2018 15:18:13
00046 suncat0233 pw.x -in pw.inp   Done                     12/31/2018 15:18:13
00047 suncat0233 pw.x -in pw.inp   Done                     12/31/2018 15:18:13
00048 suncat0222 pw.x -in pw.inp   Done                     12/31/2018 15:18:13
00049 suncat0222 pw.x -in pw.inp   Done                     12/31/2018 15:18:13
00050 suncat0222 pw.x -in pw.inp   Done                     12/31/2018 15:18:13
00051 suncat0222 pw.x -in pw.inp   Done                     12/31/2018 15:18:13
00052 suncat0222 pw.x -in pw.inp   Done                     12/31/2018 15:18:13
00053 suncat0222 pw.x -in pw.inp   Done                     12/31/2018 15:18:13
00054 suncat0222 pw.x -in pw.inp   Done                     12/31/2018 15:18:13
00055 suncat0222 pw.x -in pw.inp   Done                     12/31/2018 15:18:13
00056 suncat0221 pw.x -in pw.inp   Done                     12/31/2018 15:18:13
00057 suncat0221 pw.x -in pw.inp   Done                     12/31/2018 15:18:13
00058 suncat0221 pw.x -in pw.inp   Done                     12/31/2018 15:18:13
00059 suncat0221 pw.x -in pw.inp   Done                     12/31/2018 15:18:13
00060 suncat0221 pw.x -in pw.inp   Done                     12/31/2018 15:18:13
00061 suncat0221 pw.x -in pw.inp   Done                     12/31/2018 15:18:13
00062 suncat0221 pw.x -in pw.inp   Done                     12/31/2018 15:18:13
00063 suncat0221 pw.x -in pw.inp   Done                     12/31/2018 15:18:13