     Program PWSCF v.5.1rc2 (svn rev. 11289) starts on 31Dec2018 at  9:42:48

     Current dimensions of program PWSCF are:
     Max number of different atomic species (ntypx) = 10
     Max number of k-points (npk) =  40000
     Max angular momentum in pseudopotentials (lmaxx) =  3
     Presently stress not available with electric field

     IMPORTANT: XC functional enforced from input :
     Exchange-correlation      = BEEF-VDW ( 1  4 27 13 2)
     Any further DFT definition will be discarded
     Please, verify this is what you really want

     Subspace diagonalization in iterative solution of the eigenvalue problem:
     a serial algorithm will be used

     Generating pointlists ...
     new r_m :   0.4125 (alat units)  0.7795 (a.u.) for type    1
     new r_m :   0.4125 (alat units)  0.7795 (a.u.) for type    2

     bravais-lattice index     =            0
     lattice parameter (alat)  =       1.8897  a.u.
     unit-cell volume          =    7100.2760 (a.u.)^3
     number of atoms/cell      =           12
     number of atomic types    =            2
     number of electrons       =       171.00
     number of Kohn-Sham states=          115
     kinetic-energy cutoff     =      36.7493  Ry
     charge density cutoff     =     367.4932  Ry
     convergence threshold     =      1.0E-06
     mixing beta               =       0.1000
     number of iterations used =           10  plain     mixing
     Exchange-correlation      = BEEF-VDW ( 1  4 27 13 2)
     nstep                     =           50

     celldm(1)=   1.889726  celldm(2)=   0.000000  celldm(3)=   0.000000
     celldm(4)=   0.000000  celldm(5)=   0.000000  celldm(6)=   0.000000

     crystal axes: (cart. coord. in units of alat)
               a(1) = (   6.885959   0.000000   0.000000 )
               a(2) = (  -3.442979   5.963415   0.000000 )
               a(3) = (   0.000000   0.000000  25.622362 )

     reciprocal axes: (cart. coord. in units 2 pi/alat)
               b(1) = (  0.145223  0.083845  0.000000 )
               b(2) = (  0.000000  0.167689  0.000000 )
               b(3) = (  0.000000  0.000000  0.039028 )

     PseudoPot. # 1 for Pb read from file:
     /afs/slac.stanford.edu/u/if/mamunm/psp/gbrv1.5pbe/Pb.UPF
     MD5 check sum: 3d1c1779aa92214d1e8f3a7db79003e2
     Pseudo is Ultrasoft + core correction, Zval = 14.0
     Generated by new atomic code, or converted to UPF format
     Using radial grid of  899 points,  6 beta functions with:
                l(1) =   0
                l(2) =   0
                l(3) =   1
                l(4) =   1
                l(5) =   2
                l(6) =   2
     Q(r) pseudized with  6 coefficients,  rinner =    1.000   1.000   1.000
                                                       1.000   1.000

     PseudoPot. # 2 for Mn read from file:
     /afs/slac.stanford.edu/u/if/mamunm/psp/gbrv1.5pbe/Mn.UPF
     MD5 check sum: 82ef2b46521d7a7d9e736dc3972e4928
     Pseudo is Ultrasoft + core correction, Zval = 15.0
     Generated by new atomic code, or converted to UPF format
     Using radial grid of  859 points,  6 beta functions with:
                l(1) =   0
                l(2) =   0
                l(3) =   1
                l(4) =   1
                l(5) =   2
                l(6) =   2
     Q(r) pseudized with  8 coefficients,  rinner =    0.950   0.950   0.950
                                                       0.950   0.950

     vdW kernel table read from file vdW_kernel_table
     MD5 check sum: 095c7af220d748ca6e76c0b4c6cfb241

     atomic species   valence    mass     pseudopotential
        Pb1           14.00   207.20000     Pb( 1.00)
        Mn1           15.00    54.93804     Mn( 1.00)

     Starting magnetic structure
     atomic species   magnetization
        Pb1          0.143
        Mn1          0.133

     No symmetry found

   Cartesian axes

     site n.     atom                  positions (alat units)
         1           Pb1 tau(   1) = (   0.0000000   0.0000000  10.0000000  )
         2           Pb1 tau(   2) = (  -1.7214897   2.9817076  10.0000000  )
         3           Pb1 tau(   3) = (   1.7214897   2.9817076  10.0000000  )
         4           Mn1 tau(   4) = (   3.4429794   0.0000000  10.0000000  )
         5           Pb1 tau(   5) = (   3.4429794   1.9878051  12.8111809  )
         6           Pb1 tau(   6) = (   1.7214897   4.9695127  12.8111809  )
         7           Pb1 tau(   7) = (  -1.7214897   4.9695127  12.8111809  )
         8           Mn1 tau(   8) = (   0.0000000   1.9878051  12.8111809  )
         9           Pb1 tau(   9) = (  -0.0000000   3.9756102  15.6223618  )
        10           Pb1 tau(  10) = (   1.7214897   0.9939025  15.6223618  )
        11           Pb1 tau(  11) = (   5.1644691   0.9939025  15.6223618  )
        12           Mn1 tau(  12) = (   3.4429794   3.9756102  15.6223618  )

     number of k points=    40  Fermi-Dirac smearing, width (Ry)=  0.0110
                       cart. coord. in units 2pi/alat
        k(    1) = (   0.0000000   0.0000000   0.0000000), wk =   0.0277778
        k(    2) = (   0.0000000   0.0279482   0.0000000), wk =   0.0555556
        k(    3) = (   0.0000000   0.0558964   0.0000000), wk =   0.0555556
        k(    4) = (   0.0000000  -0.0838446   0.0000000), wk =   0.0277778
        k(    5) = (   0.0242038   0.0139741   0.0000000), wk =   0.0555556
        k(    6) = (   0.0242038   0.0419223   0.0000000), wk =   0.0555556
        k(    7) = (   0.0242038   0.0698705   0.0000000), wk =   0.0555556
        k(    8) = (   0.0242038  -0.0698705   0.0000000), wk =   0.0555556
        k(    9) = (   0.0242038  -0.0419223   0.0000000), wk =   0.0555556
        k(   10) = (   0.0242038  -0.0139741   0.0000000), wk =   0.0555556
        k(   11) = (   0.0484077   0.0279482   0.0000000), wk =   0.0555556
        k(   12) = (   0.0484077   0.0558964   0.0000000), wk =   0.0555556
        k(   13) = (   0.0484077   0.0838446   0.0000000), wk =   0.0555556
        k(   14) = (   0.0484077  -0.0558964   0.0000000), wk =   0.0555556
        k(   15) = (   0.0484077  -0.0279482   0.0000000), wk =   0.0555556
        k(   16) = (   0.0484077   0.0000000   0.0000000), wk =   0.0555556
        k(   17) = (  -0.0726115  -0.0419223   0.0000000), wk =   0.0277778
        k(   18) = (  -0.0726115  -0.0139741   0.0000000), wk =   0.0555556
        k(   19) = (  -0.0726115   0.0139741   0.0000000), wk =   0.0555556
        k(   20) = (  -0.0726115  -0.1257669   0.0000000), wk =   0.0277778
        k(   21) = (   0.0000000   0.0000000   0.0000000), wk =   0.0277778
        k(   22) = (   0.0000000   0.0279482   0.0000000), wk =   0.0555556
        k(   23) = (   0.0000000   0.0558964   0.0000000), wk =   0.0555556
        k(   24) = (   0.0000000  -0.0838446   0.0000000), wk =   0.0277778
        k(   25) = (   0.0242038   0.0139741   0.0000000), wk =   0.0555556
        k(   26) = (   0.0242038   0.0419223   0.0000000), wk =   0.0555556
        k(   27) = (   0.0242038   0.0698705   0.0000000), wk =   0.0555556
        k(   28) = (   0.0242038  -0.0698705   0.0000000), wk =   0.0555556
        k(   29) = (   0.0242038  -0.0419223   0.0000000), wk =   0.0555556
        k(   30) = (   0.0242038  -0.0139741   0.0000000), wk =   0.0555556
        k(   31) = (   0.0484077   0.0279482   0.0000000), wk =   0.0555556
        k(   32) = (   0.0484077   0.0558964   0.0000000), wk =   0.0555556
        k(   33) = (   0.0484077   0.0838446   0.0000000), wk =   0.0555556
        k(   34) = (   0.0484077  -0.0558964   0.0000000), wk =   0.0555556
        k(   35) = (   0.0484077  -0.0279482   0.0000000), wk =   0.0555556
        k(   36) = (   0.0484077   0.0000000   0.0000000), wk =   0.0555556
        k(   37) = (  -0.0726115  -0.0419223   0.0000000), wk =   0.0277778
        k(   38) = (  -0.0726115  -0.0139741   0.0000000), wk =   0.0555556
        k(   39) = (  -0.0726115   0.0139741   0.0000000), wk =   0.0555556
        k(   40) = (  -0.0726115  -0.1257669   0.0000000), wk =   0.0277778

     Largest allocated arrays     est. size (Mb)     dimensions
     Largest temporary arrays     est. size (Mb)     dimensions

     Check: negative/imaginary core charge=   -0.000003    0.000000

     Initial potential from superposition of free atoms
     Check: negative starting charge=(component1):   -0.086322
     Check: negative starting charge=(component2):   -0.064743

     starting charge  169.47858, renormalised to  171.00000

     negative rho (up, down):  8.710E-02 6.532E-02

     *
     * You are using vdW-DF for exchange-correlation in this calculation.
     * Please cite the following three references that made this development
     * possible:
     *
     *   M. Dion, H. Rydberg, E. Schroder, D. C. Langreth, and
     *   B. I. Lundqvist, Phys. Rev. Lett. 92, 246401 (2004).
     *
     *   T. Thonhauser, V. R. Cooper, S. Li, A. Puzder, P. Hyldgaard, and
     *   D. C. Langreth, Phys. Rev. B 76, 125112 (2007).
     *
     *   G. Roman-Perez and J. M. Soler, Phys. Rev. Lett. 103, 096102 (2009).
     *
     *
     * If you are using vdW-DF2, please also cite:
     *
     *   K. Lee, E. D. Murray, L. Kong, B. I. Lundqvist, and
     *   D. C. Langreth, Phys. Rev. B 82, 081101(R) (2010).
     *
     *
     * If you are calculating the stress with vdW-DF, please also cite:
     *
     *   R. Sabatini, E. Kucukbenli, B. Kolb, T. Thonhauser, and
     *   S. de Gironcoli, J. Phys.: Condens. Matter 24, 424209 (2012).
     *

     Carrying out vdW-DF run using the following parameters:

     Nqs =      20    Nr_points =    1024   r_max =   100.000
     q_mesh =
               0.00001000     0.04494208     0.09755937     0.15916263
               0.23128650     0.31572767     0.41458969     0.53033537
               0.66584808     0.82450364     1.01025438     1.22772762
               1.48234092     1.78043706     2.12944203     2.53805004
               3.01644009     3.57652955     4.23227104     5.00000000

     Gradients computed in reciprocal space

     Adding external electric field

     Computed dipole along edir(3) :
        Dipole               -0.0000 Ry au,         -0.0000 Debye
        Dipole field         -0.0000 Ry au

        Potential amp.        0.0000 Ry
        Total length         47.2088 bohr

[...]

     Starting wfc are  120 randomized atomic wfcs

     Self-consistent Calculation

     iteration #  1     ecut=    36.75 Ry     beta=0.10
     Davidson diagonalization with overlap
     ethr =  1.00E-02,  avg # of iterations =  4.9

[...]

     Magnetic moment per site:
     atom:    1    charge:    1.7585    magn:    0.2275    constr:    0.0000
     atom:    2    charge:    1.7585    magn:    0.2275    constr:    0.0000
     atom:    3    charge:    1.7585    magn:    0.2275    constr:    0.0000
     atom:    4    charge:    6.1298    magn:    0.7845    constr:    0.0000
     atom:    5    charge:    1.7477    magn:    0.2260    constr:    0.0000
     atom:    6    charge:    1.7477    magn:    0.2260    constr:    0.0000
     atom:    7    charge:    1.7477    magn:    0.2260    constr:    0.0000
     atom:    8    charge:    6.1089    magn:    0.7777    constr:    0.0000
[...]
        k(    2) = (   0.0000000   0.0279482   0.0000000), wk =   0.0555556
        k(    3) = (   0.0000000   0.0558964   0.0000000), wk =   0.0555556
        k(    4) = (   0.0000000  -0.0838446   0.0000000), wk =   0.0277778
        k(    5) = (   0.0242038   0.0139741   0.0000000), wk =   0.0555556
        k(    6) = (   0.0242038   0.0419223   0.0000000), wk =   0.0555556
        k(    7) = (   0.0242038   0.0698705   0.0000000), wk =   0.0555556
        k(    8) = (   0.0242038  -0.0698705   0.0000000), wk =   0.0555556
        k(    9) = (   0.0242038  -0.0419223   0.0000000), wk =   0.0555556
        k(   10) = (   0.0242038  -0.0139741   0.0000000), wk =   0.0555556
        k(   11) = (   0.0484077   0.0279482   0.0000000), wk =   0.0555556
        k(   12) = (   0.0484077   0.0558964   0.0000000), wk =   0.0555556
        k(   13) = (   0.0484077   0.0838446   0.0000000), wk =   0.0555556
        k(   14) = (   0.0484077  -0.0558964   0.0000000), wk =   0.0555556
        k(   15) = (   0.0484077  -0.0279482   0.0000000), wk =   0.0555556
        k(   16) = (   0.0484077   0.0000000   0.0000000), wk =   0.0555556
        k(   17) = (  -0.0726115  -0.0419223   0.0000000), wk =   0.0277778
        k(   18) = (  -0.0726115  -0.0139741   0.0000000), wk =   0.0555556
        k(   19) = (  -0.0726115   0.0139741   0.0000000), wk =   0.0555556
        k(   20) = (  -0.0726115  -0.1257669   0.0000000), wk =   0.0277778
        k(   21) = (   0.0000000   0.0000000   0.0000000), wk =   0.0277778
        k(   22) = (   0.0000000   0.0279482   0.0000000), wk =   0.0555556
        k(   23) = (   0.0000000   0.0558964   0.0000000), wk =   0.0555556
        k(   24) = (   0.0000000  -0.0838446   0.0000000), wk =   0.0277778
        k(   25) = (   0.0242038   0.0139741   0.0000000), wk =   0.0555556
        k(   26) = (   0.0242038   0.0419223   0.0000000), wk =   0.0555556
        k(   27) = (   0.0242038   0.0698705   0.0000000), wk =   0.0555556
        k(   28) = (   0.0242038  -0.0698705   0.0000000), wk =   0.0555556
        k(   29) = (   0.0242038  -0.0419223   0.0000000), wk =   0.0555556
        k(   30) = (   0.0242038  -0.0139741   0.0000000), wk =   0.0555556
        k(   31) = (   0.0484077   0.0279482   0.0000000), wk =   0.0555556
        k(   32) = (   0.0484077   0.0558964   0.0000000), wk =   0.0555556
        k(   33) = (   0.0484077   0.0838446   0.0000000), wk =   0.0555556
        k(   34) = (   0.0484077  -0.0558964   0.0000000), wk =   0.0555556
        k(   35) = (   0.0484077  -0.0279482   0.0000000), wk =   0.0555556
        k(   36) = (   0.0484077   0.0000000   0.0000000), wk =   0.0555556
        k(   37) = (  -0.0726115  -0.0419223   0.0000000), wk =   0.0277778
        k(   38) = (  -0.0726115  -0.0139741   0.0000000), wk =   0.0555556
        k(   39) = (  -0.0726115   0.0139741   0.0000000), wk =   0.0555556
        k(   40) = (  -0.0726115  -0.1257669   0.0000000), wk =   0.0277778

     Largest allocated arrays     est. size (Mb)     dimensions
     Largest temporary arrays     est. size (Mb)     dimensions

     Check: negative/imaginary core charge=   -0.000003    0.000000

     Initial potential from superposition of free atoms
     Check: negative starting charge=(component1):   -0.086295
     Check: negative starting charge=(component2):   -0.064723

     starting charge  169.47858, renormalised to  171.00000

[...]

     *
     * You are using vdW-DF for exchange-correlation in this calculation.
     * Please cite the following three references that made this development
     * possible:
     *
     *   M. Dion, H. Rydberg, E. Schroder, D. C. Langreth, and
     *   B. I. Lundqvist, Phys. Rev. Lett. 92, 246401 (2004).
     *
     *   T. Thonhauser, V. R. Cooper, S. Li, A. Puzder, P. Hyldgaard, and
     *   D. C. Langreth, Phys. Rev. B 76, 125112 (2007).
     *
     *   G. Roman-Perez and J. M. Soler, Phys. Rev. Lett. 103, 096102 (2009).
     *
     *
     * If you are using vdW-DF2, please also cite:
     *
     *   K. Lee, E. D. Murray, L. Kong, B. I. Lundqvist, and
     *   D. C. Langreth, Phys. Rev. B 82, 081101(R) (2010).
     *
     *
     * If you are calculating the stress with vdW-DF, please also cite:
     *
     *   R. Sabatini, E. Kucukbenli, B. Kolb, T. Thonhauser, and
     *   S. de Gironcoli, J. Phys.: Condens. Matter 24, 424209 (2012).
     *

     Carrying out vdW-DF run using the following parameters:

     Nqs =      20    Nr_points =    1024   r_max =   100.000
     q_mesh =
               0.00001000     0.04494208     0.09755937     0.15916263
               0.23128650     0.31572767     0.41458969     0.53033537
               0.66584808     0.82450364     1.01025438     1.22772762
               1.48234092     1.78043706     2.12944203     2.53805004
               3.01644009     3.57652955     4.23227104     5.00000000

     Gradients computed in reciprocal space

[...]

     Starting wfc are  120 randomized atomic wfcs

     Self-consistent Calculation

[...]

     total energy              =   -2130.33087640 Ry
     Harris-Foulkes estimate   =   -2130.33086840 Ry
     estimated scf accuracy    <       0.00000157 Ry

[...]

     iteration # 21     ecut=    36.75 Ry     beta=0.10
     Davidson diagonalization with overlap
     ethr =  9.16E-10,  avg # of iterations =  3.8

[...]

     negative rho (up, down):  8.043E-02 8.227E-02

[...]

     Adding external electric field

     Computed dipole along edir(3) :
        Dipole               -0.0007 Ry au,         -0.0019 Debye
        Dipole field         -0.0000 Ry au

        Potential amp.        0.0001 Ry
        Total length         47.2088 bohr

     Magnetic moment per site:
     atom:    1    charge:    1.7529    magn:   -0.0016    constr:    0.0000
     atom:    2    charge:    1.7529    magn:   -0.0016    constr:    0.0000
     atom:    3    charge:    1.7529    magn:   -0.0016    constr:    0.0000
     atom:    4    charge:    6.0342    magn:    1.6777    constr:    0.0000
     atom:    5    charge:    1.7422    magn:   -0.0005    constr:    0.0000
     atom:    6    charge:    1.7422    magn:   -0.0005    constr:    0.0000
     atom:    7    charge:    1.7422    magn:   -0.0005    constr:    0.0000
     atom:    8    charge:    6.0116    magn:    1.6220    constr:    0.0000
     atom:    9    charge:    1.7444    magn:   -0.0016    constr:    0.0000
     atom:   10    charge:    1.7444    magn:   -0.0016    constr:    0.0000
     atom:   11    charge:    1.7444    magn:   -0.0016    constr:    0.0000
     atom:   12    charge:    6.0280    magn:    1.6241    constr:    0.0000

     End of self-consistent calculation

 ------ SPIN UP ------------

[...]

 ------ SPIN DOWN ----------

[...]

          k = 0.0484 0.0000 0.0000 ( 26741 PWs)   bands (ev):

[...]

          k =-0.0726-0.1258 0.0000 ( 26650 PWs)   bands (ev):

   -76.8377 -76.7227 -76.6823 -45.6642 -45.6193 -45.6193 -45.5376 -45.5144
   -45.5144 -45.4849 -45.4849 -45.4557 -16.6395 -16.6208 -16.5824 -16.5712
   -16.5614 -16.5419 -16.5413 -16.5356 -16.5313 -16.5233 -16.5192 -16.5037
   -16.4928 -16.4924 -16.4898 -16.4861 -16.4803 -16.4746 -16.4741 -16.4717
   -16.4646 -16.4579 -16.4521 -16.4500 -16.4438 -16.4328 -16.4296 -16.4289
   -16.4097 -16.3984 -16.3974 -16.3940 -16.3876 -16.3845 -16.3648 -16.3585
   -16.3585 -16.3486 -16.3456 -16.3437 -16.3378 -16.3259 -16.2908 -16.2862
   -16.2377  -9.2192  -8.9689  -8.2859  -7.8274  -7.4276  -7.2952  -6.9317
    -6.6652  -5.8769  -2.7824  -2.2981  -1.5558  -0.7807  -0.6479  -0.4943
    -0.3319  -0.3167  -0.1760   0.1911   0.3492   0.5442   0.6899   0.9276
     1.0371   1.1914   1.1923   1.3511   1.4601   1.5362   1.5980   1.6172
     1.6264   1.6997   1.7370   1.7949   1.9450   2.0261   2.2601   2.3407
     2.4693   2.9917   3.0553   3.1574   3.1601   3.6726   3.8474   4.0938
     4.2985   4.3674   4.5761   4.8131   4.8976   5.1063   5.3394   5.3699
     5.3899   5.5740   5.5900

     the Fermi energy is     0.8063 ev

!    total energy              =   -2130.33084901 Ry
     Harris-Foulkes estimate   =   -2130.33087669 Ry
     estimated scf accuracy    <       0.00000070 Ry

     The total energy is the sum of the following terms:

     one-electron contribution =  -10359.03919514 Ry
     hartree contribution      =    5227.69639628 Ry
     xc contribution           =    -670.60391689 Ry
     ewald contribution        =    3671.66244642 Ry
     electric field correction =       0.00000000 Ry
     smearing contrib. (-TS)   =      -0.04657969 Ry

     total magnetization       =    12.84 Bohr mag/cell
     absolute magnetization    =    14.50 Bohr mag/cell

     convergence has been achieved in  21 iterations

 BEEF-vdW xc energy contributions
           1 :   -596.335524744848
           2 :    551.682857017727
           3 :   -474.205304838294
           4 :    382.171883802169
           5 :   -293.152477201895
           6 :    218.813841930339
           7 :   -163.179352804951
           8 :    123.838028811015
           9 :   -94.8644166387020
          10 :    70.2181026577622
          11 :   -46.4303809582560
          12 :    23.5431018144807
          13 :   -4.03776914870605
          14 :   -9.40366159431130
          15 :    15.8448478534511
          16 :   -16.6775625570353
          17 :    14.7668429829960
          18 :   -12.9264272753732
          19 :    12.6710420267741
          20 :   -13.8337457670858
          21 :    15.0908846786747
          22 :   -15.0053298478441
          23 :    12.9793613237424
          24 :   -9.60335327131668
          25 :    6.25880631279608
          26 :   -4.28977259582791
          27 :    4.26923859645012
          28 :   -5.75820117921342
          29 :    7.62085743854743
          30 :   -8.67248170061623
          31 :   -48.2350845255163
          32 :   -35.0940957374763

     Forces acting on atoms (Ry/au):

     negative rho (up, down):  8.043E-02 8.227E-02
     atom    1 type  1   force =    -0.00000075    0.00821505   -0.00107889
     atom    2 type  1   force =     0.00711463   -0.00410617   -0.00108238
     atom    3 type  1   force =    -0.00711279   -0.00410837   -0.00108375
     atom    4 type  2   force =    -0.00000031   -0.00000033    0.01947568
     atom    5 type  1   force =     0.00000081   -0.00472532   -0.00366469
     atom    6 type  1   force =    -0.00409321    0.00236129   -0.00366280
     atom    7 type  1   force =     0.00409291    0.00236361   -0.00366322
     atom    8 type  2   force =     0.00000005   -0.00000050   -0.00095519
     atom    9 type  1   force =     0.00000058   -0.00060611   -0.00105050
     atom   10 type  1   force =    -0.00052410    0.00030389   -0.00105452
     atom   11 type  1   force =     0.00052290    0.00030194   -0.00104678
     atom   12 type  2   force =    -0.00000073    0.00000102   -0.00113296

     Total force =     0.026441     Total SCF correction =     0.002321

     entering subroutine stress ...

     negative rho (up, down):  8.043E-02 8.227E-02
          total   stress  (Ry/bohr**3)                   (kbar)     P=   -5.75
  -0.00004963  -0.00000000   0.00000000         -7.30     -0.00      0.00
  -0.00000000  -0.00004963  -0.00000000         -0.00     -7.30     -0.00
   0.00000000  -0.00000000  -0.00001802          0.00     -0.00     -2.65

 !ASE

     Writing output data file calc.save

     General routines

     Parallel routines

   This run was terminated on:  13:44: 2  31Dec2018

   JOB DONE.
Job  /afs/slac/g/suncat/bin/suncat-tsmpirun -x LD_LIBRARY_PATH -wdir /scratch/qe648736_SA4OD pw.x -in pw.inp

TID   HOST_NAME   COMMAND_LINE            STATUS            TERMINATION_TIME
00000 suncat0077 pw.x -in pw.inp   Done                     12/31/2018 13:44:02
00001 suncat0077 pw.x -in pw.inp   Done                     12/31/2018 13:44:02
00002 suncat0077 pw.x -in pw.inp   Done                     12/31/2018 13:44:02
00003 suncat0077 pw.x -in pw.inp   Done                     12/31/2018 13:44:02
00004 suncat0077 pw.x -in pw.inp   Done                     12/31/2018 13:44:02
00005 suncat0077 pw.x -in pw.inp   Done                     12/31/2018 13:44:02
00006 suncat0077 pw.x -in pw.inp   Done                     12/31/2018 13:44:02
00007 suncat0077 pw.x -in pw.inp   Done                     12/31/2018 13:44:02
00008 suncat0069 pw.x -in pw.inp   Done                     12/31/2018 13:44:02
00009 suncat0069 pw.x -in pw.inp   Done                     12/31/2018 13:44:02
00010 suncat0069 pw.x -in pw.inp   Done                     12/31/2018 13:44:02
00011 suncat0069 pw.x -in pw.inp   Done                     12/31/2018 13:44:02
00012 suncat0069 pw.x -in pw.inp   Done                     12/31/2018 13:44:02
00013 suncat0069 pw.x -in pw.inp   Done                     12/31/2018 13:44:02
00014 suncat0069 pw.x -in pw.inp   Done                     12/31/2018 13:44:02
00015 suncat0069 pw.x -in pw.inp   Done                     12/31/2018 13:44:02
00016 suncat0066 pw.x -in pw.inp   Done                     12/31/2018 13:44:02
00017 suncat0066 pw.x -in pw.inp   Done                     12/31/2018 13:44:02
00018 suncat0066 pw.x -in pw.inp   Done                     12/31/2018 13:44:02
00019 suncat0066 pw.x -in pw.inp   Done                     12/31/2018 13:44:02
00020 suncat0066 pw.x -in pw.inp   Done                     12/31/2018 13:44:02
00021 suncat0066 pw.x -in pw.inp   Done                     12/31/2018 13:44:02
00022 suncat0066 pw.x -in pw.inp   Done                     12/31/2018 13:44:02
00023 suncat0066 pw.x -in pw.inp   Done                     12/31/2018 13:44:02
00024 suncat0053 pw.x -in pw.inp   Done                     12/31/2018 13:44:02
00025 suncat0053 pw.x -in pw.inp   Done                     12/31/2018 13:44:02
00026 suncat0053 pw.x -in pw.inp   Done                     12/31/2018 13:44:02
00027 suncat0053 pw.x -in pw.inp   Done                     12/31/2018 13:44:02
00028 suncat0053 pw.x -in pw.inp   Done                     12/31/2018 13:44:02
00029 suncat0053 pw.x -in pw.inp   Done                     12/31/2018 13:44:02
00030 suncat0053 pw.x -in pw.inp   Done                     12/31/2018 13:44:02
00031 suncat0053 pw.x -in pw.inp   Done                     12/31/2018 13:44:02
00032 suncat0163 pw.x -in pw.inp   Done                     12/31/2018 13:44:02
00033 suncat0163 pw.x -in pw.inp   Done                     12/31/2018 13:44:02
00034 suncat0163 pw.x -in pw.inp   Done                     12/31/2018 13:44:02
00035 suncat0163 pw.x -in pw.inp   Done                     12/31/2018 13:44:02
00036 suncat0163 pw.x -in pw.inp   Done                     12/31/2018 13:44:02
00037 suncat0163 pw.x -in pw.inp   Done                     12/31/2018 13:44:02
00038 suncat0163 pw.x -in pw.inp   Done                     12/31/2018 13:44:02
00039 suncat0163 pw.x -in pw.inp   Done                     12/31/2018 13:44:02
00040 suncat0162 pw.x -in pw.inp   Done                     12/31/2018 13:44:02
00041 suncat0162 pw.x -in pw.inp   Done                     12/31/2018 13:44:02
00042 suncat0162 pw.x -in pw.inp   Done                     12/31/2018 13:44:02
00043 suncat0162 pw.x -in pw.inp   Done                     12/31/2018 13:44:02
00044 suncat0162 pw.x -in pw.inp   Done                     12/31/2018 13:44:02
00045 suncat0162 pw.x -in pw.inp   Done                     12/31/2018 13:44:02
00046 suncat0162 pw.x -in pw.inp   Done                     12/31/2018 13:44:02
00047 suncat0162 pw.x -in pw.inp   Done                     12/31/2018 13:44:02
00048 suncat0147 pw.x -in pw.inp   Done                     12/31/2018 13:44:02
00049 suncat0147 pw.x -in pw.inp   Done                     12/31/2018 13:44:02
00050 suncat0147 pw.x -in pw.inp   Done                     12/31/2018 13:44:02
00051 suncat0147 pw.x -in pw.inp   Done                     12/31/2018 13:44:02
00052 suncat0147 pw.x -in pw.inp   Done                     12/31/2018 13:44:02
00053 suncat0147 pw.x -in pw.inp   Done                     12/31/2018 13:44:02
00054 suncat0147 pw.x -in pw.inp   Done                     12/31/2018 13:44:02
00055 suncat0147 pw.x -in pw.inp   Done                     12/31/2018 13:44:02
00056 suncat0138 pw.x -in pw.inp   Done                     12/31/2018 13:44:02
00057 suncat0138 pw.x -in pw.inp   Done                     12/31/2018 13:44:02
00058 suncat0138 pw.x -in pw.inp   Done                     12/31/2018 13:44:02
00059 suncat0138 pw.x -in pw.inp   Done                     12/31/2018 13:44:02
00060 suncat0138 pw.x -in pw.inp   Done                     12/31/2018 13:44:02
00061 suncat0138 pw.x -in pw.inp   Done                     12/31/2018 13:44:02
00062 suncat0138 pw.x -in pw.inp   Done                     12/31/2018 13:44:02
00063 suncat0138 pw.x -in pw.inp   Done                     12/31/2018 13:44:02