     Program PWSCF v.5.1rc2 (svn rev. 11289) starts on  1Jan2019 at 17:26:40

     Current dimensions of program PWSCF are:
     Max number of different atomic species (ntypx) = 10
     Max number of k-points (npk) =  40000
     Max angular momentum in pseudopotentials (lmaxx) =  3
     Presently stress not available with electric field

     IMPORTANT: XC functional enforced from input :
     Exchange-correlation      = BEEF-VDW ( 1  4 27 13 2)
     Any further DFT definition will be discarded
     Please, verify this is what you really want

     Subspace diagonalization in iterative solution of the eigenvalue problem:
     a serial algorithm will be used

     bravais-lattice index     =            0
     lattice parameter (alat)  =       1.8897  a.u.
     unit-cell volume          =    4921.2760 (a.u.)^3
     number of atoms/cell      =           12
     number of atomic types    =            2
     number of electrons       =       165.00
     number of Kohn-Sham states=          112
     kinetic-energy cutoff     =      36.7493  Ry
     charge density cutoff     =     367.4932  Ry
     convergence threshold     =      1.0E-06
     mixing beta               =       0.1000
     number of iterations used =           10  plain     mixing
     Exchange-correlation      = BEEF-VDW ( 1  4 27 13 2)
     nstep                     =           50

     celldm(1)=   1.889726  celldm(2)=   0.000000  celldm(3)=   0.000000
     celldm(4)=   0.000000  celldm(5)=   0.000000  celldm(6)=   0.000000

     crystal axes: (cart. coord. in units of alat)
               a(1) = (   5.831590   0.000000   0.000000 )
               a(2) = (  -2.915795   5.050305   0.000000 )
               a(3) = (   0.000000   0.000000  24.761474 )

     reciprocal axes: (cart. coord. in units 2 pi/alat)
               b(1) = (  0.171480  0.099004  0.000000 )
               b(2) = (  0.000000  0.198008  0.000000 )
               b(3) = (  0.000000  0.000000  0.040385 )

     PseudoPot. # 1 for Ta read from file:
     /afs/slac.stanford.edu/u/if/mamunm/psp/gbrv1.5pbe/Ta.UPF
     MD5 check sum: f8bbe9446314a3b8ea5d9f3e3836c939
     Pseudo is Ultrasoft + core correction, Zval = 13.0
     Generated by new atomic code, or converted to UPF format
     Using radial grid of  921 points,  7 beta functions with:
                l(1) =   0
                l(2) =   0
                l(3) =   1
                l(4) =   1
                l(5) =   2
                l(6) =   2
                l(7) =   3
     Q(r) pseudized with  6 coefficients,  rinner =    1.300   1.300   1.300
                                                       1.300   1.300   1.300
                                                       1.300

     PseudoPot. # 2 for Os read from file:
     /afs/slac.stanford.edu/u/if/mamunm/psp/gbrv1.5pbe/Os.UPF
     MD5 check sum: a3fb40a04f0c37c25c34bbc47164c9a8
     Pseudo is Ultrasoft + core correction, Zval = 16.0
     Generated by new atomic code, or converted to UPF format
     Using radial grid of  983 points,  8 beta functions with:
                l(1) =   0
                l(2) =   0
                l(3) =   1
                l(4) =   1
                l(5) =   2
                l(6) =   2
                l(7) =   3
                l(8) =   3
     Q(r) pseudized with  8 coefficients,  rinner =    1.150   1.150   1.150
                                                       1.150   1.150   1.150
                                                       1.150

     vdW kernel table read from file vdW_kernel_table
     MD5 check sum: 095c7af220d748ca6e76c0b4c6cfb241

     atomic species   valence    mass     pseudopotential
        Ta1           13.00   180.94788     Ta( 1.00)
        Os1           16.00   190.23000     Os( 1.00)

     No symmetry found

   Cartesian axes

     site n.     atom                  positions (alat units)
         1           Ta1 tau(   1) = (   0.0000000   0.0000000  10.0000000  )
         2           Ta1 tau(   2) = (  -1.4578976   2.5251527  10.0000000  )
         3           Ta1 tau(   3) = (   1.4578976   2.5251527  10.0000000  )
         4           Os1 tau(   4) = (   2.9157951   0.0000000  10.0000000  )
         5           Ta1 tau(   5) = (   2.9157951   1.6834351  12.3807368  )
         6           Ta1 tau(   6) = (   1.4578976   4.2085878  12.3807368  )
         7           Ta1 tau(   7) = (  -1.4578976   4.2085878  12.3807368  )
         8           Os1 tau(   8) = (   0.0000000   1.6834351  12.3807368  )
         9           Ta1 tau(   9) = (  -0.0000000   3.3668702  14.7614735  )
        10           Ta1 tau(  10) = (   1.4578976   0.8417176  14.7614735  )
        11           Ta1 tau(  11) = (   4.3736927   0.8417176  14.7614735  )
        12           Os1 tau(  12) = (   2.9157951   3.3668702  14.7614735  )

     number of k points=    20  Fermi-Dirac smearing, width (Ry)=  0.0110
                       cart. coord. in units 2pi/alat
        k(    1) = (   0.0000000   0.0000000   0.0000000), wk =   0.0555556
        k(    2) = (   0.0000000   0.0330013   0.0000000), wk =   0.1111111
        k(    3) = (   0.0000000   0.0660026   0.0000000), wk =   0.1111111
        k(    4) = (   0.0000000  -0.0990039   0.0000000), wk =   0.0555556
        k(    5) = (   0.0285800   0.0165007   0.0000000), wk =   0.1111111
        k(    6) = (   0.0285800   0.0495020   0.0000000), wk =   0.1111111
        k(    7) = (   0.0285800   0.0825033   0.0000000), wk =   0.1111111
        k(    8) = (   0.0285800  -0.0825033   0.0000000), wk =   0.1111111
        k(    9) = (   0.0285800  -0.0495020   0.0000000), wk =   0.1111111
        k(   10) = (   0.0285800  -0.0165007   0.0000000), wk =   0.1111111
        k(   11) = (   0.0571599   0.0330013   0.0000000), wk =   0.1111111
        k(   12) = (   0.0571599   0.0660026   0.0000000), wk =   0.1111111
        k(   13) = (   0.0571599   0.0990039   0.0000000), wk =   0.1111111
        k(   14) = (   0.0571599  -0.0660026   0.0000000), wk =   0.1111111
        k(   15) = (   0.0571599  -0.0330013   0.0000000), wk =   0.1111111
        k(   16) = (   0.0571599   0.0000000   0.0000000), wk =   0.1111111
        k(   17) = (  -0.0857399  -0.0495020   0.0000000), wk =   0.0555556
        k(   18) = (  -0.0857399  -0.0165007   0.0000000), wk =   0.1111111
        k(   19) = (  -0.0857399   0.0165007   0.0000000), wk =   0.1111111
        k(   20) = (  -0.0857399  -0.1485059   0.0000000), wk =   0.0555556

     Largest allocated arrays     est. size (Mb)     dimensions
     Largest temporary arrays     est. size (Mb)     dimensions

     Initial potential from superposition of free atoms
     Check: negative starting charge=   -1.211141

     starting charge  163.48988, renormalised to  165.00000

     negative rho (up, down):  1.222E+00 0.000E+00

     *
     * You are using vdW-DF for exchange-correlation in this calculation.
     * Please cite the following three references that made this development
     * possible:
     *
     *   M. Dion, H. Rydberg, E. Schroder, D. C. Langreth, and
     *   B. I. Lundqvist, Phys. Rev. Lett. 92, 246401 (2004).
     *
     *   T. Thonhauser, V. R. Cooper, S. Li, A. Puzder, P. Hyldgaard, and
     *   D. C. Langreth, Phys. Rev. B 76, 125112 (2007).
     *
     *   G. Roman-Perez and J. M. Soler, Phys. Rev. Lett. 103, 096102 (2009).
     *
     *
     * If you are using vdW-DF2, please also cite:
     *
     *   K. Lee, E. D. Murray, L. Kong, B. I. Lundqvist, and
     *   D. C. Langreth, Phys. Rev. B 82, 081101(R) (2010).
     *
     *
     * If you are calculating the stress with vdW-DF, please also cite:
     *
     *   R. Sabatini, E. Kucukbenli, B. Kolb, T. Thonhauser, and
     *   S. de Gironcoli, J. Phys.: Condens. Matter 24, 424209 (2012).
     *

     Carrying out vdW-DF run using the following parameters:

     Nqs =      20    Nr_points =    1024   r_max =   100.000
     q_mesh =
               0.00001000     0.04494208     0.09755937     0.15916263
               0.23128650     0.31572767     0.41458969     0.53033537
               0.66584808     0.82450364     1.01025438     1.22772762
               1.48234092     1.78043706     2.12944203     2.53805004
               3.01644009     3.57652955     4.23227104     5.00000000

     Gradients computed in reciprocal space

     Adding external electric field

     Computed dipole along edir(3) :
        Dipole               -0.0000 Ry au,         -0.0000 Debye
        Dipole field         -0.0000 Ry au

        Potential amp.        0.0000 Ry
        Total length         45.6226 bohr

     Starting wfc are  156 randomized atomic wfcs

     Self-consistent Calculation

     iteration #  1     ecut=    36.75 Ry     beta=0.10
     Davidson diagonalization with overlap
     ethr =  1.00E-02,  avg # of iterations =  2.0

[...]

     total energy              =   -1887.74918120 Ry
     Harris-Foulkes estimate   =   -1888.77160698 Ry
     estimated scf accuracy    <       5.89522886 Ry

[...]

     End of self-consistent calculation

          k = 0.0000 0.0000 0.0000 ( 18535 PWs)   bands (ev):

   -83.9894 -83.6606 -83.6605 -66.1308 -66.1251 -66.0706 -66.0706 -66.0692
   -66.0692 -66.0037 -65.9513 -65.9512 -43.2502 -43.2431 -43.2431 -42.9518
   -42.9498 -42.9103 -42.9103 -42.9098 -42.9098 -32.9494 -32.8288 -32.7861
   -32.7274 -32.7178 -32.7178 -32.6552 -32.6552 -32.5972 -32.5658 -32.5657
   -32.4944 -32.4944 -32.3776 -32.3776 -32.2460 -32.1672 -32.1519 -32.1403
   -32.1403 -32.0502 -32.0020 -32.0020 -31.9974 -31.9973 -31.9629 -31.9629
    -5.6097  -3.9154  -3.0355  -2.4363  -2.4277  -2.4277  -2.2319  -2.2319
    -2.1458  -1.5157  -1.5157  -1.4461  -1.4461  -1.4132  -1.3898  -0.2217
    -0.2217   0.1631   0.6248   0.6248   0.6805   0.9466   1.4114   1.7428
     1.8717   1.8717   1.8736   2.0087   2.0087   2.1342   2.1342   2.2186
     2.2187   2.4364   2.4364   2.7142   2.9547   2.9599   3.1437   3.1437
     3.4808   3.4808   4.0252   4.0252   4.0488   4.1307   4.1308   4.4829
     4.7635   5.3961   5.3961   5.5672   5.5672   6.2091   6.3076   6.3569
     6.3570   6.4719   6.5089   6.5089   6.5342   6.5342   6.9418   6.9419

[...]

          k =-0.0857-0.0495 0.0000 ( 18496 PWs)   bands (ev):

[...]

     the Fermi energy is     2.2173 ev

!    total energy              =   -1888.11932219 Ry
     Harris-Foulkes estimate   =   -1888.12041071 Ry
     estimated scf accuracy    <       0.00000077 Ry

     The total energy is the sum of the following terms:

     one-electron contribution =  -13471.78411165 Ry
     hartree contribution      =    6718.60919308 Ry
     xc contribution           =    -508.11842506 Ry
     ewald contribution        =    5373.27314938 Ry
     electric field correction =       0.00000000 Ry
     smearing contrib. (-TS)   =      -0.09912794 Ry

     convergence has been achieved in  15 iterations

 BEEF-vdW xc energy contributions
           1 :   -446.726217655603
           2 :    412.782779567148
           3 :   -353.286192792889
           4 :    281.747784892476
           5 :   -212.027576463751
           6 :    154.139063355075
           7 :   -112.161611029229
           8 :    84.6843616764779
           9 :   -67.0976081985032
[...]
     Using radial grid of  921 points,  7 beta functions with:
                l(1) =   0
                l(2) =   0
                l(3) =   1
                l(4) =   1
                l(5) =   2
                l(6) =   2
                l(7) =   3
     Q(r) pseudized with  6 coefficients,  rinner =    1.300   1.300   1.300
                                                       1.300   1.300   1.300
                                                       1.300

     PseudoPot. # 2 for Os read from file:
     /afs/slac.stanford.edu/u/if/mamunm/psp/gbrv1.5pbe/Os.UPF
     MD5 check sum: a3fb40a04f0c37c25c34bbc47164c9a8
     Pseudo is Ultrasoft + core correction, Zval = 16.0
     Generated by new atomic code, or converted to UPF format
     Using radial grid of  983 points,  8 beta functions with:
                l(1) =   0
                l(2) =   0
                l(3) =   1
                l(4) =   1
                l(5) =   2
                l(6) =   2
                l(7) =   3
                l(8) =   3
     Q(r) pseudized with  8 coefficients,  rinner =    1.150   1.150   1.150
                                                       1.150   1.150   1.150
                                                       1.150

     vdW kernel table read from file vdW_kernel_table
     MD5 check sum: 095c7af220d748ca6e76c0b4c6cfb241

     atomic species   valence    mass     pseudopotential
        Ta1           13.00   180.94788     Ta( 1.00)
        Os1           16.00   190.23000     Os( 1.00)

     No symmetry found

   Cartesian axes

     site n.     atom                  positions (alat units)
         1           Ta1 tau(   1) = (   0.0000000   0.0000000  10.0000000  )
         2           Ta1 tau(   2) = (  -1.4578976   2.5251527  10.0000000  )
         3           Ta1 tau(   3) = (   1.4578976   2.5251527  10.0000000  )
         4           Os1 tau(   4) = (   2.9157951   0.0000000  10.0000000  )
         5           Ta1 tau(   5) = (   2.9157951   1.6834351  12.3807368  )
         6           Ta1 tau(   6) = (   1.4578976   4.2085878  12.3807368  )
         7           Ta1 tau(   7) = (  -1.4578976   4.2085878  12.3807368  )
         8           Os1 tau(   8) = (   0.0000000   1.6834351  12.3807368  )
         9           Ta1 tau(   9) = (   0.0000108   3.3297555  14.7902517  )
        10           Ta1 tau(  10) = (   1.4257408   0.8602826  14.7902519  )
        11           Ta1 tau(  11) = (   4.4058334   0.8602620  14.7902621  )
        12           Os1 tau(  12) = (   2.9158228   3.3668787  14.6339308  )

     number of k points=    20  Fermi-Dirac smearing, width (Ry)=  0.0110
                       cart. coord. in units 2pi/alat
        k(    1) = (   0.0000000   0.0000000   0.0000000), wk =   0.0555556
        k(    2) = (   0.0000000   0.0330013   0.0000000), wk =   0.1111111
        k(    3) = (   0.0000000   0.0660026   0.0000000), wk =   0.1111111
        k(    4) = (   0.0000000  -0.0990039   0.0000000), wk =   0.0555556
        k(    5) = (   0.0285800   0.0165007   0.0000000), wk =   0.1111111
        k(    6) = (   0.0285800   0.0495020   0.0000000), wk =   0.1111111
        k(    7) = (   0.0285800   0.0825033   0.0000000), wk =   0.1111111
        k(    8) = (   0.0285800  -0.0825033   0.0000000), wk =   0.1111111
        k(    9) = (   0.0285800  -0.0495020   0.0000000), wk =   0.1111111
        k(   10) = (   0.0285800  -0.0165007   0.0000000), wk =   0.1111111
        k(   11) = (   0.0571599   0.0330013   0.0000000), wk =   0.1111111
        k(   12) = (   0.0571599   0.0660026   0.0000000), wk =   0.1111111
        k(   13) = (   0.0571599   0.0990039   0.0000000), wk =   0.1111111
        k(   14) = (   0.0571599  -0.0660026   0.0000000), wk =   0.1111111
        k(   15) = (   0.0571599  -0.0330013   0.0000000), wk =   0.1111111
        k(   16) = (   0.0571599   0.0000000   0.0000000), wk =   0.1111111
        k(   17) = (  -0.0857399  -0.0495020   0.0000000), wk =   0.0555556
        k(   18) = (  -0.0857399  -0.0165007   0.0000000), wk =   0.1111111
        k(   19) = (  -0.0857399   0.0165007   0.0000000), wk =   0.1111111
        k(   20) = (  -0.0857399  -0.1485059   0.0000000), wk =   0.0555556

     Largest allocated arrays     est. size (Mb)     dimensions
     Largest temporary arrays     est. size (Mb)     dimensions

     Initial potential from superposition of free atoms
     Check: negative starting charge=   -1.217203

     starting charge  163.48988, renormalised to  165.00000

[...]

     *
     * You are using vdW-DF for exchange-correlation in this calculation.
     * Please cite the following three references that made this development
     * possible:
     *
     *   M. Dion, H. Rydberg, E. Schroder, D. C. Langreth, and
     *   B. I. Lundqvist, Phys. Rev. Lett. 92, 246401 (2004).
     *
     *   T. Thonhauser, V. R. Cooper, S. Li, A. Puzder, P. Hyldgaard, and
     *   D. C. Langreth, Phys. Rev. B 76, 125112 (2007).
     *
     *   G. Roman-Perez and J. M. Soler, Phys. Rev. Lett. 103, 096102 (2009).
     *
     *
     * If you are using vdW-DF2, please also cite:
     *
     *   K. Lee, E. D. Murray, L. Kong, B. I. Lundqvist, and
     *   D. C. Langreth, Phys. Rev. B 82, 081101(R) (2010).
     *
     *
     * If you are calculating the stress with vdW-DF, please also cite:
     *
     *   R. Sabatini, E. Kucukbenli, B. Kolb, T. Thonhauser, and
     *   S. de Gironcoli, J. Phys.: Condens. Matter 24, 424209 (2012).
     *

     Carrying out vdW-DF run using the following parameters:

     Nqs =      20    Nr_points =    1024   r_max =   100.000
     q_mesh =
               0.00001000     0.04494208     0.09755937     0.15916263
               0.23128650     0.31572767     0.41458969     0.53033537
               0.66584808     0.82450364     1.01025438     1.22772762
               1.48234092     1.78043706     2.12944203     2.53805004
               3.01644009     3.57652955     4.23227104     5.00000000

     Gradients computed in reciprocal space

[...]

     Starting wfc are  156 randomized atomic wfcs

     Self-consistent Calculation

[...]

     total energy              =   -1888.13359546 Ry
     Harris-Foulkes estimate   =   -1888.13359498 Ry
     estimated scf accuracy    <       0.00000122 Ry

     iteration # 17     ecut=    36.75 Ry     beta=0.10
     Davidson diagonalization with overlap
     ethr =  7.37E-10,  avg # of iterations =  2.0

[...]

     negative rho (up, down):  1.260E+00 0.000E+00

     Adding external electric field

     Computed dipole along edir(3) :
        Dipole                0.0219 Ry au,          0.0556 Debye
        Dipole field          0.0001 Ry au

        Potential amp.       -0.0051 Ry
        Total length         45.6226 bohr

     End of self-consistent calculation

[...]

          k = 0.0572 0.0000 0.0000 ( 18535 PWs)   bands (ev):

[...]

          k =-0.0857-0.1485 0.0000 ( 18496 PWs)   bands (ev):

   -83.9483 -83.6452 -83.6307 -66.0808 -66.0675 -66.0573 -66.0480 -66.0390
   -66.0286 -65.9512 -65.9344 -65.9163 -43.2073 -43.2013 -43.1994 -42.9454
   -42.9254 -42.9040 -42.9021 -42.8766 -42.8746 -32.7443 -32.7167 -32.6617
   -32.6222 -32.5875 -32.5725 -32.5408 -32.5350 -32.4938 -32.4397 -32.4266
   -32.4033 -32.3701 -32.3315 -32.3272 -32.3111 -32.3043 -32.2752 -32.2473
   -32.2160 -32.2098 -32.1014 -32.0741 -32.0665 -32.0005 -31.9784 -31.9437
    -3.7690  -3.6759  -2.2988  -2.2017  -1.5910  -1.4728  -1.4521  -1.4010
    -1.3166  -1.1028  -0.7159  -0.5531  -0.4046  -0.2966  -0.2810  -0.0960
     0.0674   0.2021   0.2213   0.3315   0.4124   0.6196   0.7054   0.8560
     0.8641   0.9931   1.3593   1.4422   1.4846   1.5030   1.6855   1.7302
     1.7846   1.7856   1.8699   2.1062   2.2109   2.2613   2.7712   2.8850
     2.9275   3.2484   3.3445   3.4268   3.6748   3.7735   3.9324   3.9702
     4.1928   4.4458   4.5005   4.6338   4.7018   4.7732   5.1655   5.3343
     5.4308   5.4468   5.5660   6.0129   6.0597   6.4096   6.4716   6.8244

     the Fermi energy is     2.2582 ev

!    total energy              =   -1888.13359640 Ry
     Harris-Foulkes estimate   =   -1888.13359593 Ry
     estimated scf accuracy    <       0.00000052 Ry

     The total energy is the sum of the following terms:

     one-electron contribution =  -13503.26350712 Ry
     hartree contribution      =    6734.50639633 Ry
     xc contribution           =    -508.14608707 Ry
     ewald contribution        =    5388.86724810 Ry
     electric field correction =       0.00000122 Ry
     smearing contrib. (-TS)   =      -0.09764786 Ry

     convergence has been achieved in  17 iterations

 BEEF-vdW xc energy contributions
           1 :   -446.992775772080
           2 :    413.059498914071
           3 :   -353.577408899992
           4 :    282.048913777329
           5 :   -212.324809625727
           6 :    154.412786025505
           7 :   -112.395033602958
           8 :    84.8742173114777
           9 :   -67.2593659067439
          10 :    54.5464083525512
          11 :   -43.3378706457795
          12 :    32.4800627910805
          13 :   -22.4816648651883
          14 :    14.3745271204795
          15 :   -8.74256629777597
          16 :    5.34339321037072
          17 :   -3.33873788864400
          18 :    1.83351973332867
          19 :  -0.339960220801572
          20 :   -1.09325040262650
          21 :    2.10471994744393
          22 :   -2.40518129602100
          23 :    2.05384771530993
          24 :   -1.45942988550803
          25 :    1.13141115061558
          26 :   -1.36906220085223
          27 :    2.09590404719836
          28 :   -2.93583069243755
          29 :    3.46268617522270
          30 :   -3.45505888382741
          31 :   -40.3947371858417
          32 :   -30.1717240422420

     Forces acting on atoms (Ry/au):

     negative rho (up, down):  1.260E+00 0.000E+00
     atom    1 type  1   force =    -0.00000283    0.02166988   -0.00930751
     atom    2 type  1   force =     0.01876577   -0.01083688   -0.00930775
     atom    3 type  1   force =    -0.01876592   -0.01083358   -0.00930749
     atom    4 type  2   force =     0.00000468    0.00000127    0.02665990
     atom    5 type  1   force =     0.00000065   -0.00773303   -0.00011395
     atom    6 type  1   force =    -0.00669691    0.00386620   -0.00011658
     atom    7 type  1   force =     0.00669678    0.00386536   -0.00011532
     atom    8 type  2   force =     0.00000164    0.00000175    0.00073131
     atom    9 type  1   force =    -0.00000086    0.00005014    0.00005808
     atom   10 type  1   force =     0.00004777   -0.00002535    0.00005717
     atom   11 type  1   force =    -0.00004578   -0.00002324    0.00005663
     atom   12 type  2   force =    -0.00000500   -0.00000253    0.00070551

     Total force =     0.050595     Total SCF correction =     0.005605
     SCF correction compared to forces is large: reduce conv_thr to get better values

     entering subroutine stress ...

     negative rho (up, down):  1.260E+00 0.000E+00
          total   stress  (Ry/bohr**3)                   (kbar)     P=  -36.75
  -0.00035434  -0.00000000   0.00000000        -52.13     -0.00      0.00
  -0.00000000  -0.00035434   0.00000000         -0.00    -52.13      0.00
   0.00000000   0.00000000  -0.00004081          0.00      0.00     -6.00

 !ASE

     Writing output data file calc.save

     General routines

     Parallel routines

   This run was terminated on:  18:39:22   1Jan2019

   JOB DONE.
Job  /afs/slac/g/suncat/bin/suncat-tsmpirun -x LD_LIBRARY_PATH -wdir /scratch/qe649117_JdtVf pw.x -in pw.inp

TID   HOST_NAME   COMMAND_LINE            STATUS            TERMINATION_TIME
00000 suncat0238 pw.x -in pw.inp   Done                     01/01/2019 18:39:22
00001 suncat0238 pw.x -in pw.inp   Done                     01/01/2019 18:39:22
00002 suncat0238 pw.x -in pw.inp   Done                     01/01/2019 18:39:22
00003 suncat0238 pw.x -in pw.inp   Done                     01/01/2019 18:39:22
00004 suncat0238 pw.x -in pw.inp   Done                     01/01/2019 18:39:22
00005 suncat0238 pw.x -in pw.inp   Done                     01/01/2019 18:39:22
00006 suncat0238 pw.x -in pw.inp   Done                     01/01/2019 18:39:22
00007 suncat0238 pw.x -in pw.inp   Done                     01/01/2019 18:39:22
00008 suncat0237 pw.x -in pw.inp   Done                     01/01/2019 18:39:22
00009 suncat0237 pw.x -in pw.inp   Done                     01/01/2019 18:39:22
00010 suncat0237 pw.x -in pw.inp   Done                     01/01/2019 18:39:22
00011 suncat0237 pw.x -in pw.inp   Done                     01/01/2019 18:39:22
00012 suncat0237 pw.x -in pw.inp   Done                     01/01/2019 18:39:22
00013 suncat0237 pw.x -in pw.inp   Done                     01/01/2019 18:39:22
00014 suncat0237 pw.x -in pw.inp   Done                     01/01/2019 18:39:22
00015 suncat0237 pw.x -in pw.inp   Done                     01/01/2019 18:39:22
00016 suncat0236 pw.x -in pw.inp   Done                     01/01/2019 18:39:22
00017 suncat0236 pw.x -in pw.inp   Done                     01/01/2019 18:39:22
00018 suncat0236 pw.x -in pw.inp   Done                     01/01/2019 18:39:22
00019 suncat0236 pw.x -in pw.inp   Done                     01/01/2019 18:39:22
00020 suncat0236 pw.x -in pw.inp   Done                     01/01/2019 18:39:22
00021 suncat0236 pw.x -in pw.inp   Done                     01/01/2019 18:39:22
00022 suncat0236 pw.x -in pw.inp   Done                     01/01/2019 18:39:22
00023 suncat0236 pw.x -in pw.inp   Done                     01/01/2019 18:39:22
00024 suncat0235 pw.x -in pw.inp   Done                     01/01/2019 18:39:22
00025 suncat0235 pw.x -in pw.inp   Done                     01/01/2019 18:39:22
00026 suncat0235 pw.x -in pw.inp   Done                     01/01/2019 18:39:22
00027 suncat0235 pw.x -in pw.inp   Done                     01/01/2019 18:39:22
00028 suncat0235 pw.x -in pw.inp   Done                     01/01/2019 18:39:22
00029 suncat0235 pw.x -in pw.inp   Done                     01/01/2019 18:39:22
00030 suncat0235 pw.x -in pw.inp   Done                     01/01/2019 18:39:22
00031 suncat0235 pw.x -in pw.inp   Done                     01/01/2019 18:39:22
00032 suncat0218 pw.x -in pw.inp   Done                     01/01/2019 18:39:22
00033 suncat0218 pw.x -in pw.inp   Done                     01/01/2019 18:39:22
00034 suncat0218 pw.x -in pw.inp   Done                     01/01/2019 18:39:22
00035 suncat0218 pw.x -in pw.inp   Done                     01/01/2019 18:39:22
00036 suncat0218 pw.x -in pw.inp   Done                     01/01/2019 18:39:22
00037 suncat0218 pw.x -in pw.inp   Done                     01/01/2019 18:39:22
00038 suncat0218 pw.x -in pw.inp   Done                     01/01/2019 18:39:22
00039 suncat0218 pw.x -in pw.inp   Done                     01/01/2019 18:39:22
00040 suncat0212 pw.x -in pw.inp   Done                     01/01/2019 18:39:22
00041 suncat0212 pw.x -in pw.inp   Done                     01/01/2019 18:39:22
00042 suncat0212 pw.x -in pw.inp   Done                     01/01/2019 18:39:22
00043 suncat0212 pw.x -in pw.inp   Done                     01/01/2019 18:39:22
00044 suncat0212 pw.x -in pw.inp   Done                     01/01/2019 18:39:22
00045 suncat0212 pw.x -in pw.inp   Done                     01/01/2019 18:39:22
00046 suncat0212 pw.x -in pw.inp   Done                     01/01/2019 18:39:22
00047 suncat0212 pw.x -in pw.inp   Done                     01/01/2019 18:39:22
00048 suncat0211 pw.x -in pw.inp   Done                     01/01/2019 18:39:22
00049 suncat0211 pw.x -in pw.inp   Done                     01/01/2019 18:39:22
00050 suncat0211 pw.x -in pw.inp   Done                     01/01/2019 18:39:22
00051 suncat0211 pw.x -in pw.inp   Done                     01/01/2019 18:39:22
00052 suncat0211 pw.x -in pw.inp   Done                     01/01/2019 18:39:22
00053 suncat0211 pw.x -in pw.inp   Done                     01/01/2019 18:39:22
00054 suncat0211 pw.x -in pw.inp   Done                     01/01/2019 18:39:22
00055 suncat0211 pw.x -in pw.inp   Done                     01/01/2019 18:39:22
00056 suncat0208 pw.x -in pw.inp   Done                     01/01/2019 18:39:22
00057 suncat0208 pw.x -in pw.inp   Done                     01/01/2019 18:39:22
00058 suncat0208 pw.x -in pw.inp   Done                     01/01/2019 18:39:22
00059 suncat0208 pw.x -in pw.inp   Done                     01/01/2019 18:39:22
00060 suncat0208 pw.x -in pw.inp   Done                     01/01/2019 18:39:22
00061 suncat0208 pw.x -in pw.inp   Done                     01/01/2019 18:39:22
00062 suncat0208 pw.x -in pw.inp   Done                     01/01/2019 18:39:22
00063 suncat0208 pw.x -in pw.inp   Done                     01/01/2019 18:39:22