     Program PWSCF v.5.1rc2 (svn rev. 11289) starts on  1Jan2019 at 23:34:48

     Current dimensions of program PWSCF are:
     Max number of different atomic species (ntypx) = 10
     Max number of k-points (npk) =  40000
     Max angular momentum in pseudopotentials (lmaxx) =  3
     Presently stress not available with electric field

     IMPORTANT: XC functional enforced from input :
     Exchange-correlation      = BEEF-VDW ( 1  4 27 13 2)
     Any further DFT definition will be discarded
     Please, verify this is what you really want

     Subspace diagonalization in iterative solution of the eigenvalue problem:
     a serial algorithm will be used

     bravais-lattice index     =            0
     lattice parameter (alat)  =       1.8897  a.u.
     unit-cell volume          =    4656.8719 (a.u.)^3
     number of atoms/cell      =           12
     number of atomic types    =            2
     number of electrons       =       153.00
     number of Kohn-Sham states=          106
     kinetic-energy cutoff     =      36.7493  Ry
     charge density cutoff     =     367.4932  Ry
     convergence threshold     =      1.0E-06
     mixing beta               =       0.1000
     number of iterations used =           10  plain     mixing
     Exchange-correlation      = BEEF-VDW ( 1  4 27 13 2)
     nstep                     =           50

     celldm(1)=   1.889726  celldm(2)=   0.000000  celldm(3)=   0.000000
     celldm(4)=   0.000000  celldm(5)=   0.000000  celldm(6)=   0.000000

     crystal axes: (cart. coord. in units of alat)
               a(1) = (   5.686400   0.000000   0.000000 )
               a(2) = (  -2.843200   4.924567   0.000000 )
               a(3) = (   0.000000   0.000000  24.642926 )

     reciprocal axes: (cart. coord. in units 2 pi/alat)
               b(1) = (  0.175858  0.101532  0.000000 )
               b(2) = (  0.000000  0.203064  0.000000 )
               b(3) = (  0.000000  0.000000  0.040580 )

     PseudoPot. # 1 for Ti read from file:
     /afs/slac.stanford.edu/u/if/mamunm/psp/gbrv1.5pbe/Ti.UPF
     MD5 check sum: 88a00a6731bd790ddea75d31a80cb452
     Pseudo is Ultrasoft + core correction, Zval = 12.0
     Generated by new atomic code, or converted to UPF format
     Using radial grid of  851 points,  6 beta functions with:
                l(1) =   0
                l(2) =   0
                l(3) =   1
                l(4) =   1
                l(5) =   2
                l(6) =   2
     Q(r) pseudized with  6 coefficients,  rinner =    1.000   1.000   1.000
                                                       1.000   1.000

     PseudoPot. # 2 for Rh read from file:
     /afs/slac.stanford.edu/u/if/mamunm/psp/gbrv1.5pbe/Rh.UPF
     MD5 check sum: 761627e959a2e3a1f56b0b5fe687810e
     Pseudo is Ultrasoft + core correction, Zval = 15.0
     Generated by new atomic code, or converted to UPF format
     Using radial grid of  969 points,  7 beta functions with:
                l(1) =   0
                l(2) =   0
                l(3) =   1
                l(4) =   1
                l(5) =   2
                l(6) =   2
                l(7) =   2
     Q(r) pseudized with  8 coefficients,  rinner =    1.200   1.200   1.200
                                                       1.200   1.200

     vdW kernel table read from file vdW_kernel_table
     MD5 check sum: 095c7af220d748ca6e76c0b4c6cfb241

     atomic species   valence    mass     pseudopotential
        Ti1           12.00    47.86700     Ti( 1.00)
        Rh1           15.00   102.90550     Rh( 1.00)

     No symmetry found

   Cartesian axes

     site n.     atom                  positions (alat units)
         1           Ti1 tau(   1) = (   0.0000000   0.0000000  10.0000000  )
         2           Ti1 tau(   2) = (  -1.4216000   2.4622834  10.0000000  )
         3           Ti1 tau(   3) = (   1.4216000   2.4622834  10.0000000  )
         4           Rh1 tau(   4) = (   2.8431999   0.0000000  10.0000000  )
         5           Ti1 tau(   5) = (   2.8431999   1.6415222  12.3214630  )
         6           Ti1 tau(   6) = (   1.4216000   4.1038056  12.3214630  )
         7           Ti1 tau(   7) = (  -1.4216000   4.1038056  12.3214630  )
         8           Rh1 tau(   8) = (   0.0000000   1.6415222  12.3214630  )
         9           Ti1 tau(   9) = (  -0.0000000   3.2830445  14.6429260  )
        10           Ti1 tau(  10) = (   1.4216000   0.8207611  14.6429260  )
        11           Ti1 tau(  11) = (   4.2647999   0.8207611  14.6429260  )
        12           Rh1 tau(  12) = (   2.8431999   3.2830445  14.6429260  )

     number of k points=    20  Fermi-Dirac smearing, width (Ry)=  0.0110
                       cart. coord. in units 2pi/alat
        k(    1) = (   0.0000000   0.0000000   0.0000000), wk =   0.0555556
        k(    2) = (   0.0000000   0.0338439   0.0000000), wk =   0.1111111
        k(    3) = (   0.0000000   0.0676879   0.0000000), wk =   0.1111111
        k(    4) = (   0.0000000  -0.1015318   0.0000000), wk =   0.0555556
        k(    5) = (   0.0293097   0.0169220   0.0000000), wk =   0.1111111
        k(    6) = (   0.0293097   0.0507659   0.0000000), wk =   0.1111111
        k(    7) = (   0.0293097   0.0846098   0.0000000), wk =   0.1111111
        k(    8) = (   0.0293097  -0.0846098   0.0000000), wk =   0.1111111
        k(    9) = (   0.0293097  -0.0507659   0.0000000), wk =   0.1111111
        k(   10) = (   0.0293097  -0.0169220   0.0000000), wk =   0.1111111
        k(   11) = (   0.0586194   0.0338439   0.0000000), wk =   0.1111111
        k(   12) = (   0.0586194   0.0676879   0.0000000), wk =   0.1111111
        k(   13) = (   0.0586194   0.1015318   0.0000000), wk =   0.1111111
        k(   14) = (   0.0586194  -0.0676879   0.0000000), wk =   0.1111111
        k(   15) = (   0.0586194  -0.0338439   0.0000000), wk =   0.1111111
        k(   16) = (   0.0586194   0.0000000   0.0000000), wk =   0.1111111
        k(   17) = (  -0.0879291  -0.0507659   0.0000000), wk =   0.0555556
        k(   18) = (  -0.0879291  -0.0169220   0.0000000), wk =   0.1111111
        k(   19) = (  -0.0879291   0.0169220   0.0000000), wk =   0.1111111
        k(   20) = (  -0.0879291  -0.1522977   0.0000000), wk =   0.0555556

     Largest allocated arrays     est. size (Mb)     dimensions
     Largest temporary arrays     est. size (Mb)     dimensions

     Check: negative/imaginary core charge=   -0.000005    0.000000

     Initial potential from superposition of free atoms
     Check: negative starting charge=   -0.173089

     starting charge  142.49931, renormalised to  153.00000

     negative rho (up, down):  1.858E-01 0.000E+00

     *
     * You are using vdW-DF for exchange-correlation in this calculation.
     * Please cite the following three references that made this development
     * possible:
     *
     *   M. Dion, H. Rydberg, E. Schroder, D. C. Langreth, and
     *   B. I. Lundqvist, Phys. Rev. Lett. 92, 246401 (2004).
     *
     *   T. Thonhauser, V. R. Cooper, S. Li, A. Puzder, P. Hyldgaard, and
     *   D. C. Langreth, Phys. Rev. B 76, 125112 (2007).
     *
     *   G. Roman-Perez and J. M. Soler, Phys. Rev. Lett. 103, 096102 (2009).
     *
     *
     * If you are using vdW-DF2, please also cite:
     *
     *   K. Lee, E. D. Murray, L. Kong, B. I. Lundqvist, and
     *   D. C. Langreth, Phys. Rev. B 82, 081101(R) (2010).
     *
     *
     * If you are calculating the stress with vdW-DF, please also cite:
     *
     *   R. Sabatini, E. Kucukbenli, B. Kolb, T. Thonhauser, and
     *   S. de Gironcoli, J. Phys.: Condens. Matter 24, 424209 (2012).
     *

     Carrying out vdW-DF run using the following parameters:

     Nqs =      20    Nr_points =    1024   r_max =   100.000
     q_mesh =
               0.00001000     0.04494208     0.09755937     0.15916263
               0.23128650     0.31572767     0.41458969     0.53033537
               0.66584808     0.82450364     1.01025438     1.22772762
               1.48234092     1.78043706     2.12944203     2.53805004
               3.01644009     3.57652955     4.23227104     5.00000000

     Gradients computed in reciprocal space

     Adding external electric field

     Computed dipole along edir(3) :
        Dipole                0.0000 Ry au,          0.0000 Debye
        Dipole field          0.0000 Ry au

        Potential amp.       -0.0000 Ry
        Total length         45.4042 bohr

     Starting wfc are  126 randomized atomic wfcs

     Self-consistent Calculation

     iteration #  1     ecut=    36.75 Ry     beta=0.10
     Davidson diagonalization with overlap
     ethr =  1.00E-02,  avg # of iterations =  3.2

[...]

     total energy              =   -1591.96874570 Ry
     Harris-Foulkes estimate   =   -1602.53837182 Ry
     estimated scf accuracy    <      59.38369368 Ry

[...]

     End of self-consistent calculation

          k = 0.0000 0.0000 0.0000 ( 17603 PWs)   bands (ev):

   -56.0086 -55.9998 -55.9256 -55.9255 -55.9235 -55.9234 -55.8538 -55.7838
   -55.7838 -45.3478 -45.3366 -45.3366 -45.0108 -45.0108 -45.0105 -45.0105
   -44.9355 -44.9341 -32.4585 -32.4119 -32.3969 -32.3490 -32.3490 -32.3384
   -32.3384 -32.3367 -32.3077 -32.2961 -32.2960 -32.2430 -32.2429 -32.1194
   -32.1194 -32.0666 -32.0409 -31.9531 -31.9531 -31.9408 -31.8949 -31.8689
   -31.8688 -31.8633 -31.8632 -31.7706 -31.7705  -4.6312  -3.2670  -2.5602
    -2.5072  -2.5071  -2.2879  -2.2879  -1.8880  -1.8880  -1.8280  -1.8280
    -1.7945  -1.6553  -1.3866  -1.1678  -1.1678  -1.0369  -0.7499  -0.7499
    -0.5715   0.1031   0.1521   0.7112   1.0166   1.0166   1.1335   1.1690
     1.1834   1.1834   1.2414   1.2415   1.4989   1.4989   1.5607   1.5607
     1.6881   1.8017   1.9944   1.9944   2.0322   2.0322   2.0457   2.4152
     2.4153   2.8427   2.8512   2.9694   3.0614   3.0614   3.3657   3.3658
     3.4302   3.4303   3.7879   3.7880   3.8427   3.8427   3.9596   3.9596
     4.0009   4.0009

[...]

          k =-0.0879-0.0508 0.0000 ( 17472 PWs)   bands (ev):

[...]

     the Fermi energy is     1.1524 ev

!    total energy              =   -1595.75278313 Ry
     Harris-Foulkes estimate   =   -1595.75278269 Ry
     estimated scf accuracy    <       0.00000092 Ry

     The total energy is the sum of the following terms:

     one-electron contribution =  -12569.18709090 Ry
     hartree contribution      =    6283.92068533 Ry
     xc contribution           =    -261.59031517 Ry
     ewald contribution        =    4951.23917564 Ry
     electric field correction =       0.00000004 Ry
     smearing contrib. (-TS)   =      -0.13523806 Ry

     convergence has been achieved in  19 iterations

 BEEF-vdW xc energy contributions
           1 :   -225.866232881402
           2 :    203.804211017844
           3 :   -167.001196849579
           4 :    126.358280743133
           5 :   -91.3701831960583
           6 :    66.6470308524592
           7 :   -51.4840858950149
           8 :    41.9881510624855
           9 :   -34.0393368903157
          10 :    25.3498649212273
          11 :   -15.8654135479649
          12 :    6.82622020001151
          13 :   0.552790932549044
          14 :   -5.89767823298234
[...]
     MD5 check sum: 88a00a6731bd790ddea75d31a80cb452
     Pseudo is Ultrasoft + core correction, Zval = 12.0
     Generated by new atomic code, or converted to UPF format
     Using radial grid of  851 points,  6 beta functions with:
                l(1) =   0
                l(2) =   0
                l(3) =   1
                l(4) =   1
                l(5) =   2
                l(6) =   2
     Q(r) pseudized with  6 coefficients,  rinner =    1.000   1.000   1.000
                                                       1.000   1.000

     PseudoPot. # 2 for Rh read from file:
     /afs/slac.stanford.edu/u/if/mamunm/psp/gbrv1.5pbe/Rh.UPF
     MD5 check sum: 761627e959a2e3a1f56b0b5fe687810e
     Pseudo is Ultrasoft + core correction, Zval = 15.0
     Generated by new atomic code, or converted to UPF format
     Using radial grid of  969 points,  7 beta functions with:
                l(1) =   0
                l(2) =   0
                l(3) =   1
                l(4) =   1
                l(5) =   2
                l(6) =   2
                l(7) =   2
     Q(r) pseudized with  8 coefficients,  rinner =    1.200   1.200   1.200
                                                       1.200   1.200

     vdW kernel table read from file vdW_kernel_table
     MD5 check sum: 095c7af220d748ca6e76c0b4c6cfb241

     atomic species   valence    mass     pseudopotential
        Ti1           12.00    47.86700     Ti( 1.00)
        Rh1           15.00   102.90550     Rh( 1.00)

     No symmetry found

   Cartesian axes

     site n.     atom                  positions (alat units)
         1           Ti1 tau(   1) = (   0.0000000   0.0000000  10.0000000  )
         2           Ti1 tau(   2) = (  -1.4216000   2.4622834  10.0000000  )
         3           Ti1 tau(   3) = (   1.4216000   2.4622834  10.0000000  )
         4           Rh1 tau(   4) = (   2.8431999   0.0000000  10.0000000  )
         5           Ti1 tau(   5) = (   2.8431999   1.6415222  12.3214630  )
         6           Ti1 tau(   6) = (   1.4216000   4.1038056  12.3214630  )
         7           Ti1 tau(   7) = (  -1.4216000   4.1038056  12.3214630  )
         8           Rh1 tau(   8) = (   0.0000000   1.6415222  12.3214630  )
         9           Ti1 tau(   9) = (  -0.0000085   3.2469518  14.6304352  )
        10           Ti1 tau(  10) = (   1.3903465   0.8387880  14.6304463  )
        11           Ti1 tau(  11) = (   4.2960483   0.8387964  14.6304688  )
        12           Rh1 tau(  12) = (   2.8432005   3.2830316  14.4887828  )

     number of k points=    20  Fermi-Dirac smearing, width (Ry)=  0.0110
                       cart. coord. in units 2pi/alat
        k(    1) = (   0.0000000   0.0000000   0.0000000), wk =   0.0555556
        k(    2) = (   0.0000000   0.0338439   0.0000000), wk =   0.1111111
        k(    3) = (   0.0000000   0.0676879   0.0000000), wk =   0.1111111
        k(    4) = (   0.0000000  -0.1015318   0.0000000), wk =   0.0555556
        k(    5) = (   0.0293097   0.0169220   0.0000000), wk =   0.1111111
        k(    6) = (   0.0293097   0.0507659   0.0000000), wk =   0.1111111
        k(    7) = (   0.0293097   0.0846098   0.0000000), wk =   0.1111111
        k(    8) = (   0.0293097  -0.0846098   0.0000000), wk =   0.1111111
        k(    9) = (   0.0293097  -0.0507659   0.0000000), wk =   0.1111111
        k(   10) = (   0.0293097  -0.0169220   0.0000000), wk =   0.1111111
        k(   11) = (   0.0586194   0.0338439   0.0000000), wk =   0.1111111
        k(   12) = (   0.0586194   0.0676879   0.0000000), wk =   0.1111111
        k(   13) = (   0.0586194   0.1015318   0.0000000), wk =   0.1111111
        k(   14) = (   0.0586194  -0.0676879   0.0000000), wk =   0.1111111
        k(   15) = (   0.0586194  -0.0338439   0.0000000), wk =   0.1111111
        k(   16) = (   0.0586194   0.0000000   0.0000000), wk =   0.1111111
        k(   17) = (  -0.0879291  -0.0507659   0.0000000), wk =   0.0555556
        k(   18) = (  -0.0879291  -0.0169220   0.0000000), wk =   0.1111111
        k(   19) = (  -0.0879291   0.0169220   0.0000000), wk =   0.1111111
        k(   20) = (  -0.0879291  -0.1522977   0.0000000), wk =   0.0555556

     Largest allocated arrays     est. size (Mb)     dimensions
     Largest temporary arrays     est. size (Mb)     dimensions

     Check: negative/imaginary core charge=   -0.000005    0.000000

     Initial potential from superposition of free atoms
     Check: negative starting charge=   -0.175449

     starting charge  142.49931, renormalised to  153.00000

[...]

     *
     * You are using vdW-DF for exchange-correlation in this calculation.
     * Please cite the following three references that made this development
     * possible:
     *
     *   M. Dion, H. Rydberg, E. Schroder, D. C. Langreth, and
     *   B. I. Lundqvist, Phys. Rev. Lett. 92, 246401 (2004).
     *
     *   T. Thonhauser, V. R. Cooper, S. Li, A. Puzder, P. Hyldgaard, and
     *   D. C. Langreth, Phys. Rev. B 76, 125112 (2007).
     *
     *   G. Roman-Perez and J. M. Soler, Phys. Rev. Lett. 103, 096102 (2009).
     *
     *
     * If you are using vdW-DF2, please also cite:
     *
     *   K. Lee, E. D. Murray, L. Kong, B. I. Lundqvist, and
     *   D. C. Langreth, Phys. Rev. B 82, 081101(R) (2010).
     *
     *
     * If you are calculating the stress with vdW-DF, please also cite:
     *
     *   R. Sabatini, E. Kucukbenli, B. Kolb, T. Thonhauser, and
     *   S. de Gironcoli, J. Phys.: Condens. Matter 24, 424209 (2012).
     *

     Carrying out vdW-DF run using the following parameters:

     Nqs =      20    Nr_points =    1024   r_max =   100.000
     q_mesh =
               0.00001000     0.04494208     0.09755937     0.15916263
               0.23128650     0.31572767     0.41458969     0.53033537
               0.66584808     0.82450364     1.01025438     1.22772762
               1.48234092     1.78043706     2.12944203     2.53805004
               3.01644009     3.57652955     4.23227104     5.00000000

     Gradients computed in reciprocal space

[...]

     Starting wfc are  126 randomized atomic wfcs

     Self-consistent Calculation

[...]

     total energy              =   -1595.76056470 Ry
     Harris-Foulkes estimate   =   -1595.76056443 Ry
     estimated scf accuracy    <       0.00000129 Ry

     iteration # 24     ecut=    36.75 Ry     beta=0.10
     Davidson diagonalization with overlap
     ethr =  8.42E-10,  avg # of iterations =  1.5

[...]

     negative rho (up, down):  1.793E-01 0.000E+00

     Adding external electric field

     Computed dipole along edir(3) :
        Dipole                0.0270 Ry au,          0.0686 Debye
        Dipole field          0.0001 Ry au

        Potential amp.       -0.0066 Ry
        Total length         45.4042 bohr

     End of self-consistent calculation

[...]

          k = 0.0586 0.0000 0.0000 ( 17543 PWs)   bands (ev):

[...]

          k =-0.0879-0.1523 0.0000 ( 17472 PWs)   bands (ev):

   -55.9352 -55.9257 -55.9094 -55.8946 -55.8818 -55.8687 -55.7936 -55.7724
   -55.7483 -45.3202 -45.3036 -45.3024 -45.0556 -45.0544 -45.0169 -44.9749
   -44.9737 -44.9052 -32.3393 -32.3330 -32.3250 -32.2817 -32.2606 -32.2543
   -32.2399 -32.2237 -32.2017 -32.1803 -32.1432 -32.1416 -32.1339 -32.1166
   -32.0926 -32.0622 -32.0411 -32.0172 -31.9881 -31.9811 -31.9741 -31.8950
   -31.8630 -31.8524 -31.8444 -31.8202 -31.7497  -3.1749  -2.9839  -2.2365
    -2.0679  -2.0164  -1.9573  -1.6721  -1.6008  -1.5615  -1.4106  -1.3915
    -1.2963  -1.2183  -1.0798  -1.0481  -0.9743  -0.8783  -0.8018  -0.5821
    -0.5742  -0.3108   0.0059   0.0123   0.3281   0.4582   0.6552   0.8151
     0.8723   0.9176   0.9580   0.9770   1.0770   1.0941   1.1802   1.2069
     1.3763   1.4273   1.4912   1.6991   1.8397   1.8417   2.1110   2.2012
     2.2180   2.3427   2.3882   2.5095   2.5490   2.5948   2.8863   2.9590
     3.0462   3.1387   3.2156   3.2332   3.3268   3.4069   3.4267   3.5034
     3.6837   3.6895

     the Fermi energy is     1.1942 ev

!    total energy              =   -1595.76056391 Ry
     Harris-Foulkes estimate   =   -1595.76056517 Ry
     estimated scf accuracy    <       0.00000048 Ry

     The total energy is the sum of the following terms:

     one-electron contribution =  -12664.22483689 Ry
     hartree contribution      =    6331.60075214 Ry
     xc contribution           =    -261.65867029 Ry
     ewald contribution        =    4998.65735130 Ry
     electric field correction =       0.00000196 Ry
     smearing contrib. (-TS)   =      -0.13516214 Ry

     convergence has been achieved in  24 iterations

 BEEF-vdW xc energy contributions
           1 :   -226.042265922940
           2 :    204.012038459047
           3 :   -167.244708010431
           4 :    126.604948938799
           5 :   -91.5685022999249
           6 :    66.7599836101444
           7 :   -51.5159143530893
           8 :    41.9838190444235
           9 :   -34.0553457672951
          10 :    25.4184262126597
          11 :   -15.9793848407277
          12 :    6.95364176122172
          13 :   0.440683478851497
          14 :   -5.80942997211702
          15 :    9.56149612994835
          16 :   -12.3174304285739
          17 :    14.3421375524782
          18 :   -15.4506486588592
          19 :    15.3606050030313
          20 :   -14.1053485909879
          21 :    12.1237561028508
          22 :   -9.97827168032961
          23 :    7.96757153709694
          24 :   -5.96707171059285
          25 :    3.61407958631696
          26 :  -0.682402913977683
          27 :   -2.64958718177394
          28 :    5.83786735392425
          29 :   -8.29058459857873
          30 :    9.72760481961791
          31 :   -23.3614419767055
          32 :   -16.9225069322503

     Forces acting on atoms (Ry/au):

     negative rho (up, down):  1.793E-01 0.000E+00
     atom    1 type  1   force =     0.00000003    0.01044929    0.00108733
     atom    2 type  1   force =     0.00904951   -0.00522475    0.00109027
     atom    3 type  1   force =    -0.00904931   -0.00522474    0.00108926
     atom    4 type  2   force =    -0.00000002    0.00000044    0.02027946
     atom    5 type  1   force =     0.00000070   -0.00379281   -0.00522784
     atom    6 type  1   force =    -0.00328523    0.00189721   -0.00522790
     atom    7 type  1   force =     0.00328504    0.00189649   -0.00523013
     atom    8 type  2   force =    -0.00000031   -0.00000071   -0.00655477
     atom    9 type  1   force =     0.00000162   -0.00083013   -0.00034549
     atom   10 type  1   force =    -0.00071853    0.00041542   -0.00034533
     atom   11 type  1   force =     0.00071746    0.00041353   -0.00034735
     atom   12 type  2   force =    -0.00000097    0.00000077   -0.00026751

     Total force =     0.030216     Total SCF correction =     0.003040
     SCF correction compared to forces is large: reduce conv_thr to get better values

     entering subroutine stress ...

     negative rho (up, down):  1.793E-01 0.000E+00
          total   stress  (Ry/bohr**3)                   (kbar)     P=  -19.08
  -0.00016420   0.00000000  -0.00000000        -24.16      0.00     -0.00
   0.00000000  -0.00016421  -0.00000000          0.00    -24.16     -0.00
  -0.00000000  -0.00000000  -0.00006070         -0.00     -0.00     -8.93

 !ASE

     Writing output data file calc.save

     General routines

     Parallel routines

   This run was terminated on:   1:12:25   2Jan2019

   JOB DONE.
Job  /afs/slac/g/suncat/bin/suncat-tsmpirun -x LD_LIBRARY_PATH -wdir /scratch/qe649221_M1MdD pw.x -in pw.inp

TID   HOST_NAME   COMMAND_LINE            STATUS            TERMINATION_TIME
00000 suncat0024 pw.x -in pw.inp   Done                     01/02/2019 01:12:25
00001 suncat0024 pw.x -in pw.inp   Done                     01/02/2019 01:12:25
00002 suncat0024 pw.x -in pw.inp   Done                     01/02/2019 01:12:25
00003 suncat0024 pw.x -in pw.inp   Done                     01/02/2019 01:12:25
00004 suncat0024 pw.x -in pw.inp   Done                     01/02/2019 01:12:25
00005 suncat0024 pw.x -in pw.inp   Done                     01/02/2019 01:12:25
00006 suncat0024 pw.x -in pw.inp   Done                     01/02/2019 01:12:25
00007 suncat0024 pw.x -in pw.inp   Done                     01/02/2019 01:12:25
00008 suncat0023 pw.x -in pw.inp   Done                     01/02/2019 01:12:25
00009 suncat0023 pw.x -in pw.inp   Done                     01/02/2019 01:12:25
00010 suncat0023 pw.x -in pw.inp   Done                     01/02/2019 01:12:25
00011 suncat0023 pw.x -in pw.inp   Done                     01/02/2019 01:12:25
00012 suncat0023 pw.x -in pw.inp   Done                     01/02/2019 01:12:25
00013 suncat0023 pw.x -in pw.inp   Done                     01/02/2019 01:12:25
00014 suncat0023 pw.x -in pw.inp   Done                     01/02/2019 01:12:25
00015 suncat0023 pw.x -in pw.inp   Done                     01/02/2019 01:12:25
00016 suncat0190 pw.x -in pw.inp   Done                     01/02/2019 01:12:25
00017 suncat0190 pw.x -in pw.inp   Done                     01/02/2019 01:12:25
00018 suncat0190 pw.x -in pw.inp   Done                     01/02/2019 01:12:25
00019 suncat0190 pw.x -in pw.inp   Done                     01/02/2019 01:12:25
00020 suncat0190 pw.x -in pw.inp   Done                     01/02/2019 01:12:25
00021 suncat0190 pw.x -in pw.inp   Done                     01/02/2019 01:12:25
00022 suncat0190 pw.x -in pw.inp   Done                     01/02/2019 01:12:25
00023 suncat0190 pw.x -in pw.inp   Done                     01/02/2019 01:12:25
00024 suncat0009 pw.x -in pw.inp   Done                     01/02/2019 01:12:25
00025 suncat0009 pw.x -in pw.inp   Done                     01/02/2019 01:12:25
00026 suncat0009 pw.x -in pw.inp   Done                     01/02/2019 01:12:25
00027 suncat0009 pw.x -in pw.inp   Done                     01/02/2019 01:12:25
00028 suncat0009 pw.x -in pw.inp   Done                     01/02/2019 01:12:25
00029 suncat0009 pw.x -in pw.inp   Done                     01/02/2019 01:12:25
00030 suncat0009 pw.x -in pw.inp   Done                     01/02/2019 01:12:25
00031 suncat0009 pw.x -in pw.inp   Done                     01/02/2019 01:12:25
00032 suncat0166 pw.x -in pw.inp   Done                     01/02/2019 01:12:25
00033 suncat0166 pw.x -in pw.inp   Done                     01/02/2019 01:12:25
00034 suncat0166 pw.x -in pw.inp   Done                     01/02/2019 01:12:25
00035 suncat0166 pw.x -in pw.inp   Done                     01/02/2019 01:12:25
00036 suncat0166 pw.x -in pw.inp   Done                     01/02/2019 01:12:25
00037 suncat0166 pw.x -in pw.inp   Done                     01/02/2019 01:12:25
00038 suncat0166 pw.x -in pw.inp   Done                     01/02/2019 01:12:25
00039 suncat0166 pw.x -in pw.inp   Done                     01/02/2019 01:12:25
00040 suncat0149 pw.x -in pw.inp   Done                     01/02/2019 01:12:25
00041 suncat0149 pw.x -in pw.inp   Done                     01/02/2019 01:12:25
00042 suncat0149 pw.x -in pw.inp   Done                     01/02/2019 01:12:25
00043 suncat0149 pw.x -in pw.inp   Done                     01/02/2019 01:12:25
00044 suncat0149 pw.x -in pw.inp   Done                     01/02/2019 01:12:25
00045 suncat0149 pw.x -in pw.inp   Done                     01/02/2019 01:12:25
00046 suncat0149 pw.x -in pw.inp   Done                     01/02/2019 01:12:25
00047 suncat0149 pw.x -in pw.inp   Done                     01/02/2019 01:12:25
00048 suncat0148 pw.x -in pw.inp   Done                     01/02/2019 01:12:25
00049 suncat0148 pw.x -in pw.inp   Done                     01/02/2019 01:12:25
00050 suncat0148 pw.x -in pw.inp   Done                     01/02/2019 01:12:25
00051 suncat0148 pw.x -in pw.inp   Done                     01/02/2019 01:12:25
00052 suncat0148 pw.x -in pw.inp   Done                     01/02/2019 01:12:25
00053 suncat0148 pw.x -in pw.inp   Done                     01/02/2019 01:12:25
00054 suncat0148 pw.x -in pw.inp   Done                     01/02/2019 01:12:25
00055 suncat0148 pw.x -in pw.inp   Done                     01/02/2019 01:12:25
00056 suncat0142 pw.x -in pw.inp   Done                     01/02/2019 01:12:25
00057 suncat0142 pw.x -in pw.inp   Done                     01/02/2019 01:12:25
00058 suncat0142 pw.x -in pw.inp   Done                     01/02/2019 01:12:25
00059 suncat0142 pw.x -in pw.inp   Done                     01/02/2019 01:12:25
00060 suncat0142 pw.x -in pw.inp   Done                     01/02/2019 01:12:25
00061 suncat0142 pw.x -in pw.inp   Done                     01/02/2019 01:12:25
00062 suncat0142 pw.x -in pw.inp   Done                     01/02/2019 01:12:25
00063 suncat0142 pw.x -in pw.inp   Done                     01/02/2019 01:12:25