     Program PWSCF v.5.1rc2 (svn rev. 11289) starts on 27Dec2018 at 23:24:37

     Current dimensions of program PWSCF are:
     Max number of different atomic species (ntypx) = 10
     Max number of k-points (npk) =  40000
     Max angular momentum in pseudopotentials (lmaxx) =  3
     Presently stress not available with electric field

     IMPORTANT: XC functional enforced from input :
     Exchange-correlation      = BEEF-VDW ( 1  4 27 13 2)
     Any further DFT definition will be discarded
     Please, verify this is what you really want

     Subspace diagonalization in iterative solution of the eigenvalue problem:
     a serial algorithm will be used

     bravais-lattice index     =            0
     lattice parameter (alat)  =       1.8897  a.u.
     unit-cell volume          =    6108.6593 (a.u.)^3
     number of atoms/cell      =           12
     number of atomic types    =            2
     number of electrons       =       165.00
     number of Kohn-Sham states=          112
     kinetic-energy cutoff     =      36.7493  Ry
     charge density cutoff     =     367.4932  Ry
     convergence threshold     =      1.0E-06
     mixing beta               =       0.1000
     number of iterations used =           10  plain     mixing
     Exchange-correlation      = BEEF-VDW ( 1  4 27 13 2)
     nstep                     =           50

     celldm(1)=   1.889726  celldm(2)=   0.000000  celldm(3)=   0.000000
     celldm(4)=   0.000000  celldm(5)=   0.000000  celldm(6)=   0.000000

     crystal axes: (cart. coord. in units of alat)
               a(1) = (   6.433582   0.000000   0.000000 )
               a(2) = (  -3.216791   5.571646   0.000000 )
               a(3) = (   0.000000   0.000000  25.252998 )

     reciprocal axes: (cart. coord. in units 2 pi/alat)
               b(1) = (  0.155434  0.089740  0.000000 )
               b(2) = (  0.000000  0.179480  0.000000 )
               b(3) = (  0.000000  0.000000  0.039599 )

     PseudoPot. # 1 for Sn read from file:
     /afs/slac.stanford.edu/u/if/mamunm/psp/gbrv1.5pbe/Sn.UPF
     MD5 check sum: 469debedee59599fedebd795477fea03
     Pseudo is Ultrasoft + core correction, Zval = 14.0
     Generated by new atomic code, or converted to UPF format
     Using radial grid of  891 points,  6 beta functions with:
                l(1) =   0
                l(2) =   0
                l(3) =   1
                l(4) =   1
                l(5) =   2
                l(6) =   2
     Q(r) pseudized with  8 coefficients,  rinner =    1.350   1.350   1.350
                                                       1.350   1.350

     PseudoPot. # 2 for Ta read from file:
     /afs/slac.stanford.edu/u/if/mamunm/psp/gbrv1.5pbe/Ta.UPF
     MD5 check sum: f8bbe9446314a3b8ea5d9f3e3836c939
     Pseudo is Ultrasoft + core correction, Zval = 13.0
     Generated by new atomic code, or converted to UPF format
     Using radial grid of  921 points,  7 beta functions with:
                l(1) =   0
                l(2) =   0
                l(3) =   1
                l(4) =   1
                l(5) =   2
                l(6) =   2
                l(7) =   3
     Q(r) pseudized with  6 coefficients,  rinner =    1.300   1.300   1.300
                                                       1.300   1.300   1.300
                                                       1.300

     vdW kernel table read from file vdW_kernel_table
     MD5 check sum: 095c7af220d748ca6e76c0b4c6cfb241

     atomic species   valence    mass     pseudopotential
        Sn1           14.00   118.71000     Sn( 1.00)
        Ta1           13.00   180.94788     Ta( 1.00)

     No symmetry found

   Cartesian axes

     site n.     atom                  positions (alat units)
         1           Sn1 tau(   1) = (   0.0000000   0.0000000  10.0000000  )
         2           Sn1 tau(   2) = (  -1.6083956   2.7858229  10.0000000  )
         3           Sn1 tau(   3) = (   1.6083956   2.7858229  10.0000000  )
         4           Ta1 tau(   4) = (   3.2167912   0.0000000  10.0000000  )
         5           Sn1 tau(   5) = (   3.2167912   1.8572152  12.6264990  )
         6           Sn1 tau(   6) = (   1.6083956   4.6430381  12.6264990  )
         7           Sn1 tau(   7) = (  -1.6083956   4.6430381  12.6264990  )
         8           Ta1 tau(   8) = (   0.0000000   1.8572152  12.6264990  )
         9           Sn1 tau(   9) = (  -0.0000000   3.7144305  15.2529980  )
        10           Sn1 tau(  10) = (   1.6083956   0.9286076  15.2529980  )
        11           Sn1 tau(  11) = (   4.8251867   0.9286076  15.2529980  )
        12           Ta1 tau(  12) = (   3.2167912   3.7144305  15.2529980  )

     number of k points=    20  Fermi-Dirac smearing, width (Ry)=  0.0110
                       cart. coord. in units 2pi/alat
        k(    1) = (   0.0000000   0.0000000   0.0000000), wk =   0.0555556
        k(    2) = (   0.0000000   0.0299134   0.0000000), wk =   0.1111111
        k(    3) = (   0.0000000   0.0598267   0.0000000), wk =   0.1111111
        k(    4) = (   0.0000000  -0.0897401   0.0000000), wk =   0.0555556
        k(    5) = (   0.0259057   0.0149567   0.0000000), wk =   0.1111111
        k(    6) = (   0.0259057   0.0448700   0.0000000), wk =   0.1111111
        k(    7) = (   0.0259057   0.0747834   0.0000000), wk =   0.1111111
        k(    8) = (   0.0259057  -0.0747834   0.0000000), wk =   0.1111111
        k(    9) = (   0.0259057  -0.0448700   0.0000000), wk =   0.1111111
        k(   10) = (   0.0259057  -0.0149567   0.0000000), wk =   0.1111111
        k(   11) = (   0.0518115   0.0299134   0.0000000), wk =   0.1111111
        k(   12) = (   0.0518115   0.0598267   0.0000000), wk =   0.1111111
        k(   13) = (   0.0518115   0.0897401   0.0000000), wk =   0.1111111
        k(   14) = (   0.0518115  -0.0598267   0.0000000), wk =   0.1111111
        k(   15) = (   0.0518115  -0.0299134   0.0000000), wk =   0.1111111
        k(   16) = (   0.0518115   0.0000000   0.0000000), wk =   0.1111111
        k(   17) = (  -0.0777172  -0.0448700   0.0000000), wk =   0.0555556
        k(   18) = (  -0.0777172  -0.0149567   0.0000000), wk =   0.1111111
        k(   19) = (  -0.0777172   0.0149567   0.0000000), wk =   0.1111111
        k(   20) = (  -0.0777172  -0.1346101   0.0000000), wk =   0.0555556

     Largest allocated arrays     est. size (Mb)     dimensions
     Largest temporary arrays     est. size (Mb)     dimensions

     Initial potential from superposition of free atoms
     Check: negative starting charge=   -0.287974

     starting charge  155.99626, renormalised to  165.00000

     negative rho (up, down):  3.046E-01 0.000E+00

     *
     * You are using vdW-DF for exchange-correlation in this calculation.
     * Please cite the following three references that made this development
     * possible:
     *
     *   M. Dion, H. Rydberg, E. Schroder, D. C. Langreth, and
     *   B. I. Lundqvist, Phys. Rev. Lett. 92, 246401 (2004).
     *
     *   T. Thonhauser, V. R. Cooper, S. Li, A. Puzder, P. Hyldgaard, and
     *   D. C. Langreth, Phys. Rev. B 76, 125112 (2007).
     *
     *   G. Roman-Perez and J. M. Soler, Phys. Rev. Lett. 103, 096102 (2009).
     *
     *
     * If you are using vdW-DF2, please also cite:
     *
     *   K. Lee, E. D. Murray, L. Kong, B. I. Lundqvist, and
     *   D. C. Langreth, Phys. Rev. B 82, 081101(R) (2010).
     *
     *
     * If you are calculating the stress with vdW-DF, please also cite:
     *
     *   R. Sabatini, E. Kucukbenli, B. Kolb, T. Thonhauser, and
     *   S. de Gironcoli, J. Phys.: Condens. Matter 24, 424209 (2012).
     *

     Carrying out vdW-DF run using the following parameters:

     Nqs =      20    Nr_points =    1024   r_max =   100.000
     q_mesh =
               0.00001000     0.04494208     0.09755937     0.15916263
               0.23128650     0.31572767     0.41458969     0.53033537
               0.66584808     0.82450364     1.01025438     1.22772762
               1.48234092     1.78043706     2.12944203     2.53805004
               3.01644009     3.57652955     4.23227104     5.00000000

     Gradients computed in reciprocal space

     Adding external electric field

     Computed dipole along edir(3) :
        Dipole               -0.0000 Ry au,         -0.0000 Debye
        Dipole field         -0.0000 Ry au

        Potential amp.        0.0000 Ry
        Total length         46.5282 bohr

     Starting wfc are  120 randomized atomic wfcs

     Self-consistent Calculation

     iteration #  1     ecut=    36.75 Ry     beta=0.10
     Davidson diagonalization with overlap
     ethr =  1.00E-02,  avg # of iterations =  8.3

[...]

     total energy              =   -1877.04127776 Ry
     Harris-Foulkes estimate   =   -1878.43155931 Ry
     estimated scf accuracy    <       8.40454000 Ry

[...]

     End of self-consistent calculation

          k = 0.0000 0.0000 0.0000 ( 23007 PWs)   bands (ev):

   -68.1859 -68.1859 -67.8956 -34.4761 -34.4756 -34.4459 -34.4459 -34.4458
   -34.4458 -34.2331 -34.2331 -34.0863 -20.9355 -20.8999 -20.8999 -20.8854
   -20.8082 -20.8082 -20.7722 -20.7713 -20.7606 -20.7606 -20.7536 -20.7467
   -20.7294 -20.7294 -20.7131 -20.7131 -20.6959 -20.6892 -20.6892 -20.6780
   -20.6780 -20.6698 -20.6264 -20.6264 -20.6098 -20.6059 -20.6059 -20.6016
   -20.5938 -20.5707 -20.5707 -20.5485 -20.5457 -20.5457 -20.5457 -20.5457
   -20.5398 -20.5398 -20.5376 -20.5376 -20.5200 -20.5200 -20.5130 -20.4503
   -20.4501  -9.7765  -8.3855  -6.7070  -5.8083  -5.8083  -5.0317  -5.0316
    -4.1287  -4.1287  -3.6789  -3.0231  -2.5490  -2.3279  -2.3279  -1.8804
    -0.9260  -0.9260  -0.7915  -0.7915  -0.7014   0.6334   0.6334   0.6520
     0.6520   1.1293   1.3151   1.3601   1.5589   1.7219   1.7219   1.8923
     1.9907   1.9907   2.1025   2.1025   2.6110   2.6110   3.5420   3.7899
     3.7899   4.1394   4.2710   4.2710   4.3545   4.4384   4.5391   5.1263
     5.5828   5.6032   5.6032   5.7374   5.9166   6.4687   6.4687   6.7855

[...]

          k =-0.0777-0.0449 0.0000 ( 22988 PWs)   bands (ev):

[...]

     the Fermi energy is     1.2987 ev

!    total energy              =   -1875.50462819 Ry
     Harris-Foulkes estimate   =   -1875.50612993 Ry
     estimated scf accuracy    <       0.00000020 Ry

     The total energy is the sum of the following terms:

     one-electron contribution =  -10925.81319702 Ry
     hartree contribution      =    5505.84729415 Ry
     xc contribution           =    -531.06057207 Ry
     ewald contribution        =    4075.58528262 Ry
     electric field correction =       0.00000000 Ry
     smearing contrib. (-TS)   =      -0.06343588 Ry

     convergence has been achieved in  17 iterations

 BEEF-vdW xc energy contributions
           1 :   -466.953755294186
           2 :    428.584882348059
           3 :   -362.996802379764
           4 :    287.648473067696
           5 :   -219.354905945166
           6 :    168.482493497302
           7 :   -136.665573175134
           8 :    118.556506244880
           9 :   -106.212032169074
          10 :    93.5969462840487
          11 :   -78.9845447508824
          12 :    64.4484797894072
[...]
     MD5 check sum: 469debedee59599fedebd795477fea03
     Pseudo is Ultrasoft + core correction, Zval = 14.0
     Generated by new atomic code, or converted to UPF format
     Using radial grid of  891 points,  6 beta functions with:
                l(1) =   0
                l(2) =   0
                l(3) =   1
                l(4) =   1
                l(5) =   2
                l(6) =   2
     Q(r) pseudized with  8 coefficients,  rinner =    1.350   1.350   1.350
                                                       1.350   1.350

     PseudoPot. # 2 for Ta read from file:
     /afs/slac.stanford.edu/u/if/mamunm/psp/gbrv1.5pbe/Ta.UPF
     MD5 check sum: f8bbe9446314a3b8ea5d9f3e3836c939
     Pseudo is Ultrasoft + core correction, Zval = 13.0
     Generated by new atomic code, or converted to UPF format
     Using radial grid of  921 points,  7 beta functions with:
                l(1) =   0
                l(2) =   0
                l(3) =   1
                l(4) =   1
                l(5) =   2
                l(6) =   2
                l(7) =   3
     Q(r) pseudized with  6 coefficients,  rinner =    1.300   1.300   1.300
                                                       1.300   1.300   1.300
                                                       1.300

     vdW kernel table read from file vdW_kernel_table
     MD5 check sum: 095c7af220d748ca6e76c0b4c6cfb241

     atomic species   valence    mass     pseudopotential
        Sn1           14.00   118.71000     Sn( 1.00)
        Ta1           13.00   180.94788     Ta( 1.00)

     No symmetry found

   Cartesian axes

     site n.     atom                  positions (alat units)
         1           Sn1 tau(   1) = (   0.0000000   0.0000000  10.0000000  )
         2           Sn1 tau(   2) = (  -1.6083956   2.7858229  10.0000000  )
         3           Sn1 tau(   3) = (   1.6083956   2.7858229  10.0000000  )
         4           Ta1 tau(   4) = (   3.2167912   0.0000000  10.0000000  )
         5           Sn1 tau(   5) = (   3.2167912   1.8572152  12.6264990  )
         6           Sn1 tau(   6) = (   1.6083956   4.6430381  12.6264990  )
         7           Sn1 tau(   7) = (  -1.6083956   4.6430381  12.6264990  )
         8           Ta1 tau(   8) = (   0.0000000   1.8572152  12.6264990  )
         9           Sn1 tau(   9) = (   0.0000448   3.6331199  15.4006114  )
        10           Sn1 tau(  10) = (   1.5380037   0.9692962  15.4006620  )
        11           Sn1 tau(  11) = (   4.8956127   0.9692413  15.4005829  )
        12           Ta1 tau(  12) = (   3.2167701   3.7144696  14.7760006  )

     number of k points=    20  Fermi-Dirac smearing, width (Ry)=  0.0110
                       cart. coord. in units 2pi/alat
        k(    1) = (   0.0000000   0.0000000   0.0000000), wk =   0.0555556
        k(    2) = (   0.0000000   0.0299134   0.0000000), wk =   0.1111111
        k(    3) = (   0.0000000   0.0598267   0.0000000), wk =   0.1111111
        k(    4) = (   0.0000000  -0.0897401   0.0000000), wk =   0.0555556
        k(    5) = (   0.0259057   0.0149567   0.0000000), wk =   0.1111111
        k(    6) = (   0.0259057   0.0448700   0.0000000), wk =   0.1111111
        k(    7) = (   0.0259057   0.0747834   0.0000000), wk =   0.1111111
        k(    8) = (   0.0259057  -0.0747834   0.0000000), wk =   0.1111111
        k(    9) = (   0.0259057  -0.0448700   0.0000000), wk =   0.1111111
        k(   10) = (   0.0259057  -0.0149567   0.0000000), wk =   0.1111111
        k(   11) = (   0.0518115   0.0299134   0.0000000), wk =   0.1111111
        k(   12) = (   0.0518115   0.0598267   0.0000000), wk =   0.1111111
        k(   13) = (   0.0518115   0.0897401   0.0000000), wk =   0.1111111
        k(   14) = (   0.0518115  -0.0598267   0.0000000), wk =   0.1111111
        k(   15) = (   0.0518115  -0.0299134   0.0000000), wk =   0.1111111
        k(   16) = (   0.0518115   0.0000000   0.0000000), wk =   0.1111111
        k(   17) = (  -0.0777172  -0.0448700   0.0000000), wk =   0.0555556
        k(   18) = (  -0.0777172  -0.0149567   0.0000000), wk =   0.1111111
        k(   19) = (  -0.0777172   0.0149567   0.0000000), wk =   0.1111111
        k(   20) = (  -0.0777172  -0.1346101   0.0000000), wk =   0.0555556

     Largest allocated arrays     est. size (Mb)     dimensions
     Largest temporary arrays     est. size (Mb)     dimensions

     Initial potential from superposition of free atoms
     Check: negative starting charge=   -0.287292

     starting charge  155.99626, renormalised to  165.00000

[...]

     *
     * You are using vdW-DF for exchange-correlation in this calculation.
     * Please cite the following three references that made this development
     * possible:
     *
     *   M. Dion, H. Rydberg, E. Schroder, D. C. Langreth, and
     *   B. I. Lundqvist, Phys. Rev. Lett. 92, 246401 (2004).
     *
     *   T. Thonhauser, V. R. Cooper, S. Li, A. Puzder, P. Hyldgaard, and
     *   D. C. Langreth, Phys. Rev. B 76, 125112 (2007).
     *
     *   G. Roman-Perez and J. M. Soler, Phys. Rev. Lett. 103, 096102 (2009).
     *
     *
     * If you are using vdW-DF2, please also cite:
     *
     *   K. Lee, E. D. Murray, L. Kong, B. I. Lundqvist, and
     *   D. C. Langreth, Phys. Rev. B 82, 081101(R) (2010).
     *
     *
     * If you are calculating the stress with vdW-DF, please also cite:
     *
     *   R. Sabatini, E. Kucukbenli, B. Kolb, T. Thonhauser, and
     *   S. de Gironcoli, J. Phys.: Condens. Matter 24, 424209 (2012).
     *

     Carrying out vdW-DF run using the following parameters:

     Nqs =      20    Nr_points =    1024   r_max =   100.000
     q_mesh =
               0.00001000     0.04494208     0.09755937     0.15916263
               0.23128650     0.31572767     0.41458969     0.53033537
               0.66584808     0.82450364     1.01025438     1.22772762
               1.48234092     1.78043706     2.12944203     2.53805004
               3.01644009     3.57652955     4.23227104     5.00000000

     Gradients computed in reciprocal space

[...]

     Starting wfc are  120 randomized atomic wfcs

     Self-consistent Calculation

[...]

     total energy              =   -1875.55290799 Ry
     Harris-Foulkes estimate   =   -1875.55290806 Ry
     estimated scf accuracy    <       0.00000133 Ry

     iteration # 19     ecut=    36.75 Ry     beta=0.10
     Davidson diagonalization with overlap
     ethr =  8.08E-10,  avg # of iterations =  2.0

[...]

     negative rho (up, down):  2.951E-01 0.000E+00

     Adding external electric field

     Computed dipole along edir(3) :
        Dipole                0.0244 Ry au,          0.0619 Debye
        Dipole field          0.0001 Ry au

        Potential amp.       -0.0047 Ry
        Total length         46.5282 bohr

     End of self-consistent calculation

[...]

          k = 0.0518 0.0000 0.0000 ( 22974 PWs)   bands (ev):

[...]

          k =-0.0777-0.1346 0.0000 ( 22988 PWs)   bands (ev):

   -68.2623 -67.9763 -67.9303 -34.5544 -34.5141 -34.5136 -34.3029 -34.3028
   -34.2699 -34.2539 -34.2537 -34.1360 -20.9010 -20.8527 -20.8277 -20.8266
   -20.8110 -20.7971 -20.7959 -20.7856 -20.7455 -20.7329 -20.7275 -20.7248
   -20.7042 -20.7024 -20.6956 -20.6854 -20.6548 -20.6524 -20.6464 -20.6397
   -20.6360 -20.6297 -20.6198 -20.6092 -20.6034 -20.5939 -20.5910 -20.5879
   -20.5699 -20.5687 -20.5663 -20.5597 -20.5553 -20.5479 -20.5465 -20.5383
   -20.5345 -20.5338 -20.5235 -20.5219 -20.5178 -20.5093 -20.5018 -20.4921
   -20.4530  -8.6627  -8.2875  -7.2786  -6.8995  -6.2716  -6.1589  -5.4913
    -4.9229  -3.6965  -3.6959  -3.0345  -2.0976  -1.3661  -1.2759  -1.0724
    -0.9513  -0.8584  -0.2256  -0.2183   0.0423   0.0813   0.7092   0.7720
     1.0986   1.3137   1.3636   1.4085   1.4541   1.6872   1.8855   1.9881
     1.9985   2.0385   2.1632   2.4742   2.5817   3.0368   3.3813   3.4023
     3.4985   3.7476   3.9388   4.2374   4.5899   4.8655   5.2438   5.2658
     5.5196   5.8422   5.8857   5.9790   6.1059   6.2003   6.4084   6.5828

     the Fermi energy is     1.2658 ev

!    total energy              =   -1875.55290764 Ry
     Harris-Foulkes estimate   =   -1875.55290848 Ry
     estimated scf accuracy    <       0.00000035 Ry

     The total energy is the sum of the following terms:

     one-electron contribution =  -10914.76941807 Ry
     hartree contribution      =    5500.40953499 Ry
     xc contribution           =    -531.13941784 Ry
     ewald contribution        =    4070.00650436 Ry
     electric field correction =       0.00000122 Ry
     smearing contrib. (-TS)   =      -0.06011231 Ry

     convergence has been achieved in  19 iterations

 BEEF-vdW xc energy contributions
           1 :   -467.075163397429
           2 :    428.714841795374
           3 :   -363.134463331361
           4 :    287.774507200555
           5 :   -219.435592280694
           6 :    168.490267469650
           7 :   -136.600908692615
           8 :    118.454133746784
           9 :   -106.125014964952
          10 :    93.5671895693927
          11 :   -79.0176550633175
          12 :    64.5101256548932
          13 :   -53.3728990664707
          14 :    47.5305738644382
          15 :   -46.2275438639684
          16 :    46.6810253321883
          17 :   -45.9509275544063
          18 :    42.6876601040340
          19 :   -37.6887682376990
          20 :    33.0613052042370
          21 :   -30.6776202741255
          22 :    30.9673557109173
          23 :   -32.7637220780989
          24 :    34.1795196620978
          25 :   -33.8484478234128
          26 :    31.7074058993616
          27 :   -28.8771124765817
          28 :    26.8120617769526
          29 :   -26.3367730581573
          30 :    27.1900491145582
          31 :   -40.9932028431133
          32 :   -30.0458422956829

     Forces acting on atoms (Ry/au):

     negative rho (up, down):  2.951E-01 0.000E+00
     atom    1 type  1   force =    -0.00000008    0.01483078   -0.01186822
     atom    2 type  1   force =     0.01284027   -0.00741688   -0.01186591
     atom    3 type  1   force =    -0.01284156   -0.00741480   -0.01186512
     atom    4 type  2   force =    -0.00000066   -0.00000057    0.07369754
     atom    5 type  1   force =    -0.00000128   -0.02306859   -0.01347874
     atom    6 type  1   force =    -0.01998429    0.01153840   -0.01348613
     atom    7 type  1   force =     0.01998370    0.01153682   -0.01347903
     atom    8 type  2   force =    -0.00000038   -0.00000047    0.00299026
     atom    9 type  1   force =    -0.00000483   -0.00021277   -0.00011525
     atom   10 type  1   force =    -0.00017567    0.00010088   -0.00012874
     atom   11 type  1   force =     0.00018359    0.00010963   -0.00012101
     atom   12 type  2   force =     0.00000118   -0.00000243   -0.00027963

     Total force =     0.093086     Total SCF correction =     0.003017

     entering subroutine stress ...

     negative rho (up, down):  2.951E-01 0.000E+00
          total   stress  (Ry/bohr**3)                   (kbar)     P=  -13.75
  -0.00011511  -0.00000000  -0.00000000        -16.93     -0.00     -0.00
  -0.00000000  -0.00011511  -0.00000000         -0.00    -16.93     -0.00
  -0.00000000  -0.00000000  -0.00005028         -0.00     -0.00     -7.40

 !ASE

     Writing output data file calc.save

     General routines

     Parallel routines

   This run was terminated on:   1:48:26  28Dec2018

   JOB DONE.
Job  /afs/slac/g/suncat/bin/suncat-tsmpirun -x LD_LIBRARY_PATH -wdir /scratch/qe110950_foii6 pw.x -in pw.inp

TID   HOST_NAME   COMMAND_LINE            STATUS            TERMINATION_TIME
00000 suncat0046 pw.x -in pw.inp   Done                     12/28/2018 01:48:26
00001 suncat0046 pw.x -in pw.inp   Done                     12/28/2018 01:48:26
00002 suncat0046 pw.x -in pw.inp   Done                     12/28/2018 01:48:26
00003 suncat0046 pw.x -in pw.inp   Done                     12/28/2018 01:48:26
00004 suncat0046 pw.x -in pw.inp   Done                     12/28/2018 01:48:26
00005 suncat0046 pw.x -in pw.inp   Done                     12/28/2018 01:48:26
00006 suncat0046 pw.x -in pw.inp   Done                     12/28/2018 01:48:26
00007 suncat0046 pw.x -in pw.inp   Done                     12/28/2018 01:48:26
00008 suncat0014 pw.x -in pw.inp   Done                     12/28/2018 01:48:26
00009 suncat0014 pw.x -in pw.inp   Done                     12/28/2018 01:48:26
00010 suncat0014 pw.x -in pw.inp   Done                     12/28/2018 01:48:26
00011 suncat0014 pw.x -in pw.inp   Done                     12/28/2018 01:48:26
00012 suncat0014 pw.x -in pw.inp   Done                     12/28/2018 01:48:26
00013 suncat0014 pw.x -in pw.inp   Done                     12/28/2018 01:48:26
00014 suncat0014 pw.x -in pw.inp   Done                     12/28/2018 01:48:26
00015 suncat0014 pw.x -in pw.inp   Done                     12/28/2018 01:48:26
00016 suncat0198 pw.x -in pw.inp   Done                     12/28/2018 01:48:26
00017 suncat0198 pw.x -in pw.inp   Done                     12/28/2018 01:48:26
00018 suncat0198 pw.x -in pw.inp   Done                     12/28/2018 01:48:26
00019 suncat0198 pw.x -in pw.inp   Done                     12/28/2018 01:48:26
00020 suncat0198 pw.x -in pw.inp   Done                     12/28/2018 01:48:26
00021 suncat0198 pw.x -in pw.inp   Done                     12/28/2018 01:48:26
00022 suncat0198 pw.x -in pw.inp   Done                     12/28/2018 01:48:26
00023 suncat0198 pw.x -in pw.inp   Done                     12/28/2018 01:48:26
00024 suncat0194 pw.x -in pw.inp   Done                     12/28/2018 01:48:26
00025 suncat0194 pw.x -in pw.inp   Done                     12/28/2018 01:48:26
00026 suncat0194 pw.x -in pw.inp   Done                     12/28/2018 01:48:26
00027 suncat0194 pw.x -in pw.inp   Done                     12/28/2018 01:48:26
00028 suncat0194 pw.x -in pw.inp   Done                     12/28/2018 01:48:26
00029 suncat0194 pw.x -in pw.inp   Done                     12/28/2018 01:48:26
00030 suncat0194 pw.x -in pw.inp   Done                     12/28/2018 01:48:26
00031 suncat0194 pw.x -in pw.inp   Done                     12/28/2018 01:48:26
00032 suncat0188 pw.x -in pw.inp   Done                     12/28/2018 01:48:26
00033 suncat0188 pw.x -in pw.inp   Done                     12/28/2018 01:48:26
00034 suncat0188 pw.x -in pw.inp   Done                     12/28/2018 01:48:26
00035 suncat0188 pw.x -in pw.inp   Done                     12/28/2018 01:48:26
00036 suncat0188 pw.x -in pw.inp   Done                     12/28/2018 01:48:26
00037 suncat0188 pw.x -in pw.inp   Done                     12/28/2018 01:48:26
00038 suncat0188 pw.x -in pw.inp   Done                     12/28/2018 01:48:26
00039 suncat0188 pw.x -in pw.inp   Done                     12/28/2018 01:48:26
00040 suncat0129 pw.x -in pw.inp   Done                     12/28/2018 01:48:26
00041 suncat0129 pw.x -in pw.inp   Done                     12/28/2018 01:48:26
00042 suncat0129 pw.x -in pw.inp   Done                     12/28/2018 01:48:26
00043 suncat0129 pw.x -in pw.inp   Done                     12/28/2018 01:48:26
00044 suncat0129 pw.x -in pw.inp   Done                     12/28/2018 01:48:26
00045 suncat0129 pw.x -in pw.inp   Done                     12/28/2018 01:48:26
00046 suncat0129 pw.x -in pw.inp   Done                     12/28/2018 01:48:26
00047 suncat0129 pw.x -in pw.inp   Done                     12/28/2018 01:48:26
00048 suncat0254 pw.x -in pw.inp   Done                     12/28/2018 01:48:26
00049 suncat0254 pw.x -in pw.inp   Done                     12/28/2018 01:48:26
00050 suncat0254 pw.x -in pw.inp   Done                     12/28/2018 01:48:26
00051 suncat0254 pw.x -in pw.inp   Done                     12/28/2018 01:48:26
00052 suncat0254 pw.x -in pw.inp   Done                     12/28/2018 01:48:26
00053 suncat0254 pw.x -in pw.inp   Done                     12/28/2018 01:48:26
00054 suncat0254 pw.x -in pw.inp   Done                     12/28/2018 01:48:26
00055 suncat0254 pw.x -in pw.inp   Done                     12/28/2018 01:48:26
00056 suncat0253 pw.x -in pw.inp   Done                     12/28/2018 01:48:26
00057 suncat0253 pw.x -in pw.inp   Done                     12/28/2018 01:48:26
00058 suncat0253 pw.x -in pw.inp   Done                     12/28/2018 01:48:26
00059 suncat0253 pw.x -in pw.inp   Done                     12/28/2018 01:48:26
00060 suncat0253 pw.x -in pw.inp   Done                     12/28/2018 01:48:26
00061 suncat0253 pw.x -in pw.inp   Done                     12/28/2018 01:48:26
00062 suncat0253 pw.x -in pw.inp   Done                     12/28/2018 01:48:26
00063 suncat0253 pw.x -in pw.inp   Done                     12/28/2018 01:48:26