     Program PWSCF v.5.1rc2 (svn rev. 11289) starts on  1Jan2019 at  7: 4: 6

     Current dimensions of program PWSCF are:
     Max number of different atomic species (ntypx) = 10
     Max number of k-points (npk) =  40000
     Max angular momentum in pseudopotentials (lmaxx) =  3
     Presently stress not available with electric field

     IMPORTANT: XC functional enforced from input :
     Exchange-correlation      = BEEF-VDW ( 1  4 27 13 2)
     Any further DFT definition will be discarded
     Please, verify this is what you really want

     Subspace diagonalization in iterative solution of the eigenvalue problem:
     a serial algorithm will be used

     bravais-lattice index     =            0
     lattice parameter (alat)  =       1.8897  a.u.
     unit-cell volume          =    5929.5625 (a.u.)^3
     number of atoms/cell      =           12
     number of atomic types    =            2
     number of electrons       =       135.00
     number of Kohn-Sham states=           97
     kinetic-energy cutoff     =      36.7493  Ry
     charge density cutoff     =     367.4932  Ry
     convergence threshold     =      1.0E-06
     mixing beta               =       0.1000
     number of iterations used =           10  plain     mixing
     Exchange-correlation      = BEEF-VDW ( 1  4 27 13 2)
     nstep                     =           50

     celldm(1)=   1.889726  celldm(2)=   0.000000  celldm(3)=   0.000000
     celldm(4)=   0.000000  celldm(5)=   0.000000  celldm(6)=   0.000000

     crystal axes: (cart. coord. in units of alat)
               a(1) = (   6.347417   0.000000   0.000000 )
               a(2) = (  -3.173709   5.497025   0.000000 )
               a(3) = (   0.000000   0.000000  25.182644 )

     reciprocal axes: (cart. coord. in units 2 pi/alat)
               b(1) = (  0.157544  0.090958  0.000000 )
               b(2) = (  0.000000  0.181917  0.000000 )
               b(3) = (  0.000000  0.000000  0.039710 )

     PseudoPot. # 1 for Sc read from file:
     /afs/slac.stanford.edu/u/if/mamunm/psp/gbrv1.5pbe/Sc.UPF
     MD5 check sum: db30a2753ba66ef00f23801d899b7e7f
     Pseudo is Ultrasoft + core correction, Zval = 11.0
     Generated by new atomic code, or converted to UPF format
     Using radial grid of  849 points,  6 beta functions with:
                l(1) =   0
                l(2) =   0
                l(3) =   1
                l(4) =   1
                l(5) =   2
                l(6) =   2
     Q(r) pseudized with  6 coefficients,  rinner =    1.200   1.200   1.200
                                                       1.200   1.200

     PseudoPot. # 2 for Hg read from file:
     /afs/slac.stanford.edu/u/if/mamunm/psp/gbrv1.5pbe/Hg.UPF
     MD5 check sum: 8f42caffe07f7fd9c0a564347f8c5498
     Pseudo is Ultrasoft + core correction, Zval = 12.0
     Generated by new atomic code, or converted to UPF format
     Using radial grid of  985 points,  6 beta functions with:
                l(1) =   0
                l(2) =   0
                l(3) =   1
                l(4) =   1
                l(5) =   2
                l(6) =   2
     Q(r) pseudized with  8 coefficients,  rinner =    2.000   2.000   2.000
                                                       2.000   2.000

     vdW kernel table read from file vdW_kernel_table
     MD5 check sum: 095c7af220d748ca6e76c0b4c6cfb241

     atomic species   valence    mass     pseudopotential
        Sc1           11.00    44.95591     Sc( 1.00)
        Hg1           12.00   200.59200     Hg( 1.00)

     No symmetry found

   Cartesian axes

     site n.     atom                  positions (alat units)
         1           Sc1 tau(   1) = (   0.0000000   0.0000000  10.0000000  )
         2           Sc1 tau(   2) = (  -1.5868543   2.7485123  10.0000000  )
         3           Sc1 tau(   3) = (   1.5868543   2.7485123  10.0000000  )
         4           Hg1 tau(   4) = (   3.1737086   0.0000000  10.0000000  )
         5           Sc1 tau(   5) = (   3.1737086   1.8323415  12.5913222  )
         6           Sc1 tau(   6) = (   1.5868543   4.5808538  12.5913222  )
         7           Sc1 tau(   7) = (  -1.5868543   4.5808538  12.5913222  )
         8           Hg1 tau(   8) = (   0.0000000   1.8323415  12.5913222  )
         9           Sc1 tau(   9) = (  -0.0000000   3.6646830  15.1826444  )
        10           Sc1 tau(  10) = (   1.5868543   0.9161708  15.1826444  )
        11           Sc1 tau(  11) = (   4.7605629   0.9161708  15.1826444  )
        12           Hg1 tau(  12) = (   3.1737086   3.6646830  15.1826444  )

     number of k points=    20  Fermi-Dirac smearing, width (Ry)=  0.0110
                       cart. coord. in units 2pi/alat
        k(    1) = (   0.0000000   0.0000000   0.0000000), wk =   0.0555556
        k(    2) = (   0.0000000   0.0303194   0.0000000), wk =   0.1111111
        k(    3) = (   0.0000000   0.0606389   0.0000000), wk =   0.1111111
        k(    4) = (   0.0000000  -0.0909583   0.0000000), wk =   0.0555556
        k(    5) = (   0.0262574   0.0151597   0.0000000), wk =   0.1111111
        k(    6) = (   0.0262574   0.0454791   0.0000000), wk =   0.1111111
        k(    7) = (   0.0262574   0.0757986   0.0000000), wk =   0.1111111
        k(    8) = (   0.0262574  -0.0757986   0.0000000), wk =   0.1111111
        k(    9) = (   0.0262574  -0.0454791   0.0000000), wk =   0.1111111
        k(   10) = (   0.0262574  -0.0151597   0.0000000), wk =   0.1111111
        k(   11) = (   0.0525148   0.0303194   0.0000000), wk =   0.1111111
        k(   12) = (   0.0525148   0.0606389   0.0000000), wk =   0.1111111
        k(   13) = (   0.0525148   0.0909583   0.0000000), wk =   0.1111111
        k(   14) = (   0.0525148  -0.0606389   0.0000000), wk =   0.1111111
        k(   15) = (   0.0525148  -0.0303194   0.0000000), wk =   0.1111111
        k(   16) = (   0.0525148  -0.0000000   0.0000000), wk =   0.1111111
        k(   17) = (  -0.0787722  -0.0454791   0.0000000), wk =   0.0555556
        k(   18) = (  -0.0787722  -0.0151597   0.0000000), wk =   0.1111111
        k(   19) = (  -0.0787722   0.0151597   0.0000000), wk =   0.1111111
        k(   20) = (  -0.0787722  -0.1364374   0.0000000), wk =   0.0555556

     Largest allocated arrays     est. size (Mb)     dimensions
     Largest temporary arrays     est. size (Mb)     dimensions

     Initial potential from superposition of free atoms
     Check: negative starting charge=   -0.000250

     starting charge  134.97820, renormalised to  135.00000

     negative rho (up, down):  2.500E-04 0.000E+00

     *
     * You are using vdW-DF for exchange-correlation in this calculation.
     * Please cite the following three references that made this development
     * possible:
     *
     *   M. Dion, H. Rydberg, E. Schroder, D. C. Langreth, and
     *   B. I. Lundqvist, Phys. Rev. Lett. 92, 246401 (2004).
     *
     *   T. Thonhauser, V. R. Cooper, S. Li, A. Puzder, P. Hyldgaard, and
     *   D. C. Langreth, Phys. Rev. B 76, 125112 (2007).
     *
     *   G. Roman-Perez and J. M. Soler, Phys. Rev. Lett. 103, 096102 (2009).
     *
     *
     * If you are using vdW-DF2, please also cite:
     *
     *   K. Lee, E. D. Murray, L. Kong, B. I. Lundqvist, and
     *   D. C. Langreth, Phys. Rev. B 82, 081101(R) (2010).
     *
     *
     * If you are calculating the stress with vdW-DF, please also cite:
     *
     *   R. Sabatini, E. Kucukbenli, B. Kolb, T. Thonhauser, and
     *   S. de Gironcoli, J. Phys.: Condens. Matter 24, 424209 (2012).
     *

     Carrying out vdW-DF run using the following parameters:

     Nqs =      20    Nr_points =    1024   r_max =   100.000
     q_mesh =
               0.00001000     0.04494208     0.09755937     0.15916263
               0.23128650     0.31572767     0.41458969     0.53033537
               0.66584808     0.82450364     1.01025438     1.22772762
               1.48234092     1.78043706     2.12944203     2.53805004
               3.01644009     3.57652955     4.23227104     5.00000000

     Gradients computed in reciprocal space

     Adding external electric field

     Computed dipole along edir(3) :
        Dipole                0.0000 Ry au,          0.0000 Debye
        Dipole field          0.0000 Ry au

        Potential amp.       -0.0000 Ry
        Total length         46.3986 bohr

     Starting wfc are  144 randomized atomic wfcs

     Self-consistent Calculation

     iteration #  1     ecut=    36.75 Ry     beta=0.10
     Davidson diagonalization with overlap
     ethr =  1.00E-02,  avg # of iterations =  2.0

[...]

     total energy              =   -1180.21290960 Ry
     Harris-Foulkes estimate   =   -1181.01588065 Ry
     estimated scf accuracy    <       4.54521494 Ry

[...]

     End of self-consistent calculation

          k = 0.0000 0.0000 0.0000 ( 22369 PWs)   bands (ev):

   -49.4485 -49.4474 -49.4078 -49.4078 -49.4076 -49.4076 -49.1255 -49.0858
   -49.0856 -28.1625 -28.1355 -28.1350 -28.1189 -28.1054 -28.1054 -28.0924
   -28.0924 -28.0816 -28.0816 -28.0780 -28.0780 -27.9263 -27.9217 -27.9075
   -27.8086 -27.8086 -27.7994 -27.7994 -27.7598 -27.7597 -27.6847 -27.6722
   -27.6721 -27.6022 -27.5431 -27.5430  -6.5638  -6.5638  -6.5449  -6.5449
    -6.5268  -6.5056  -6.5056  -6.4533  -6.4533  -6.4360  -6.4300  -6.3415
    -6.3415  -6.2912  -6.2912  -5.8525  -4.7349  -4.1040  -1.5277  -1.4815
    -1.1026  -0.1715  -0.1714  -0.1089  -0.1089   0.0400   0.3424   0.4268
     0.4268   0.6123   0.7133   0.7133   0.7812   0.7812   0.8734   0.9930
     1.2665   1.4607   1.4607   1.4752   1.4752   1.5960   1.6022   1.6022
     1.8003   1.8004   1.9658   2.1540   2.8172   2.8614   2.9457   2.9457
     3.0774   3.0774   3.1106   3.1106   3.1575   3.1575   3.4114   3.4114
     3.5047

[...]

          k =-0.0788-0.0455 0.0000 ( 22268 PWs)   bands (ev):

[...]

     the Fermi energy is     0.6804 ev

!    total energy              =   -1180.63587791 Ry
     Harris-Foulkes estimate   =   -1180.63587944 Ry
     estimated scf accuracy    <       0.00000014 Ry

     The total energy is the sum of the following terms:

     one-electron contribution =   -7559.63407633 Ry
     hartree contribution      =    3789.21184353 Ry
     xc contribution           =    -246.11737574 Ry
     ewald contribution        =    2836.02459797 Ry
     electric field correction =       0.00000000 Ry
     smearing contrib. (-TS)   =      -0.12086734 Ry

     convergence has been achieved in  18 iterations

 BEEF-vdW xc energy contributions
           1 :   -212.219344683727
           2 :    191.226463385535
           3 :   -156.901531213278
           4 :    120.188164477260
           5 :   -89.8162747774941
           6 :    69.1845860255761
           7 :   -56.8641844919784
           8 :    49.3542790204767
           9 :   -43.7393099880999
          10 :    38.7499211034072
          11 :   -34.2809872779197
          12 :    30.3987959835483
          13 :   -26.8368510040418
          14 :    23.2392619571829
          15 :   -19.6650080925084
          16 :    16.6904101249853
          17 :   -14.9316340552126
          18 :    14.4333946176654
          19 :   -14.5241988998031
[...]
               b(3) = (  0.000000  0.000000  0.039710 )

     PseudoPot. # 1 for Sc read from file:
     /afs/slac.stanford.edu/u/if/mamunm/psp/gbrv1.5pbe/Sc.UPF
     MD5 check sum: db30a2753ba66ef00f23801d899b7e7f
     Pseudo is Ultrasoft + core correction, Zval = 11.0
     Generated by new atomic code, or converted to UPF format
     Using radial grid of  849 points,  6 beta functions with:
                l(1) =   0
                l(2) =   0
                l(3) =   1
                l(4) =   1
                l(5) =   2
                l(6) =   2
     Q(r) pseudized with  6 coefficients,  rinner =    1.200   1.200   1.200
                                                       1.200   1.200

     PseudoPot. # 2 for Hg read from file:
     /afs/slac.stanford.edu/u/if/mamunm/psp/gbrv1.5pbe/Hg.UPF
     MD5 check sum: 8f42caffe07f7fd9c0a564347f8c5498
     Pseudo is Ultrasoft + core correction, Zval = 12.0
     Generated by new atomic code, or converted to UPF format
     Using radial grid of  985 points,  6 beta functions with:
                l(1) =   0
                l(2) =   0
                l(3) =   1
                l(4) =   1
                l(5) =   2
                l(6) =   2
     Q(r) pseudized with  8 coefficients,  rinner =    2.000   2.000   2.000
                                                       2.000   2.000

     vdW kernel table read from file vdW_kernel_table
     MD5 check sum: 095c7af220d748ca6e76c0b4c6cfb241

     atomic species   valence    mass     pseudopotential
        Sc1           11.00    44.95591     Sc( 1.00)
        Hg1           12.00   200.59200     Hg( 1.00)

     No symmetry found

   Cartesian axes

     site n.     atom                  positions (alat units)
         1           Sc1 tau(   1) = (   0.0000000   0.0000000  10.0000000  )
         2           Sc1 tau(   2) = (  -1.5868543   2.7485123  10.0000000  )
         3           Sc1 tau(   3) = (   1.5868543   2.7485123  10.0000000  )
         4           Hg1 tau(   4) = (   3.1737086   0.0000000  10.0000000  )
         5           Sc1 tau(   5) = (   3.1737086   1.8323415  12.5913222  )
         6           Sc1 tau(   6) = (   1.5868543   4.5808538  12.5913222  )
         7           Sc1 tau(   7) = (  -1.5868543   4.5808538  12.5913222  )
         8           Hg1 tau(   8) = (   0.0000000   1.8323415  12.5913222  )
         9           Sc1 tau(   9) = (   0.0000047   3.6470222  15.2164761  )
        10           Sc1 tau(  10) = (   1.5715756   0.9248357  15.2164662  )
        11           Sc1 tau(  11) = (   4.7758465   0.9248303  15.2164618  )
        12           Hg1 tau(  12) = (   3.1736957   3.6648072  15.0966120  )

     number of k points=    20  Fermi-Dirac smearing, width (Ry)=  0.0110
                       cart. coord. in units 2pi/alat
        k(    1) = (   0.0000000   0.0000000   0.0000000), wk =   0.0555556
        k(    2) = (   0.0000000   0.0303194   0.0000000), wk =   0.1111111
        k(    3) = (   0.0000000   0.0606389   0.0000000), wk =   0.1111111
        k(    4) = (   0.0000000  -0.0909583   0.0000000), wk =   0.0555556
        k(    5) = (   0.0262574   0.0151597   0.0000000), wk =   0.1111111
        k(    6) = (   0.0262574   0.0454791   0.0000000), wk =   0.1111111
        k(    7) = (   0.0262574   0.0757986   0.0000000), wk =   0.1111111
        k(    8) = (   0.0262574  -0.0757986   0.0000000), wk =   0.1111111
        k(    9) = (   0.0262574  -0.0454791   0.0000000), wk =   0.1111111
        k(   10) = (   0.0262574  -0.0151597   0.0000000), wk =   0.1111111
        k(   11) = (   0.0525148   0.0303194   0.0000000), wk =   0.1111111
        k(   12) = (   0.0525148   0.0606389   0.0000000), wk =   0.1111111
        k(   13) = (   0.0525148   0.0909583   0.0000000), wk =   0.1111111
        k(   14) = (   0.0525148  -0.0606389   0.0000000), wk =   0.1111111
        k(   15) = (   0.0525148  -0.0303194   0.0000000), wk =   0.1111111
        k(   16) = (   0.0525148  -0.0000000   0.0000000), wk =   0.1111111
        k(   17) = (  -0.0787722  -0.0454791   0.0000000), wk =   0.0555556
        k(   18) = (  -0.0787722  -0.0151597   0.0000000), wk =   0.1111111
        k(   19) = (  -0.0787722   0.0151597   0.0000000), wk =   0.1111111
        k(   20) = (  -0.0787722  -0.1364374   0.0000000), wk =   0.0555556

     Largest allocated arrays     est. size (Mb)     dimensions
     Largest temporary arrays     est. size (Mb)     dimensions

     Initial potential from superposition of free atoms
     Check: negative starting charge=   -0.000249

     starting charge  134.97820, renormalised to  135.00000

[...]

     *
     * You are using vdW-DF for exchange-correlation in this calculation.
     * Please cite the following three references that made this development
     * possible:
     *
     *   M. Dion, H. Rydberg, E. Schroder, D. C. Langreth, and
     *   B. I. Lundqvist, Phys. Rev. Lett. 92, 246401 (2004).
     *
     *   T. Thonhauser, V. R. Cooper, S. Li, A. Puzder, P. Hyldgaard, and
     *   D. C. Langreth, Phys. Rev. B 76, 125112 (2007).
     *
     *   G. Roman-Perez and J. M. Soler, Phys. Rev. Lett. 103, 096102 (2009).
     *
     *
     * If you are using vdW-DF2, please also cite:
     *
     *   K. Lee, E. D. Murray, L. Kong, B. I. Lundqvist, and
     *   D. C. Langreth, Phys. Rev. B 82, 081101(R) (2010).
     *
     *
     * If you are calculating the stress with vdW-DF, please also cite:
     *
     *   R. Sabatini, E. Kucukbenli, B. Kolb, T. Thonhauser, and
     *   S. de Gironcoli, J. Phys.: Condens. Matter 24, 424209 (2012).
     *

     Carrying out vdW-DF run using the following parameters:

     Nqs =      20    Nr_points =    1024   r_max =   100.000
     q_mesh =
               0.00001000     0.04494208     0.09755937     0.15916263
               0.23128650     0.31572767     0.41458969     0.53033537
               0.66584808     0.82450364     1.01025438     1.22772762
               1.48234092     1.78043706     2.12944203     2.53805004
               3.01644009     3.57652955     4.23227104     5.00000000

     Gradients computed in reciprocal space

[...]

     Starting wfc are  144 randomized atomic wfcs

     Self-consistent Calculation

[...]

     total energy              =   -1180.63754876 Ry
     Harris-Foulkes estimate   =   -1180.63754910 Ry
     estimated scf accuracy    <       0.00000129 Ry

     iteration # 18     ecut=    36.75 Ry     beta=0.10
     Davidson diagonalization with overlap
     ethr =  9.57E-10,  avg # of iterations =  3.6

[...]

     negative rho (up, down):  9.440E-05 0.000E+00

     Adding external electric field

     Computed dipole along edir(3) :
        Dipole                0.0227 Ry au,          0.0576 Debye
        Dipole field          0.0000 Ry au

        Potential amp.       -0.0045 Ry
        Total length         46.3986 bohr

     End of self-consistent calculation

[...]

          k = 0.0525-0.0000 0.0000 ( 22339 PWs)   bands (ev):

[...]

          k =-0.0788-0.1364 0.0000 ( 22268 PWs)   bands (ev):

   -49.4410 -49.4270 -49.4162 -49.4138 -49.4028 -49.3893 -49.1079 -49.0946
   -49.0813 -28.1291 -28.1201 -28.1106 -28.0957 -28.0953 -28.0838 -28.0786
   -28.0723 -28.0214 -28.0000 -27.9974 -27.9887 -27.9783 -27.9676 -27.9319
   -27.9163 -27.8269 -27.8136 -27.7966 -27.7269 -27.7042 -27.6929 -27.6774
   -27.6591 -27.6476 -27.6404 -27.5494  -6.5301  -6.4967  -6.4872  -6.4595
    -6.4542  -6.4334  -6.4322  -6.4249  -6.4156  -6.4072  -6.3898  -6.3772
    -6.3527  -6.3341  -6.2629  -4.8440  -4.6193  -4.1155  -2.3987  -1.6758
    -1.3643  -1.2157  -0.3903  -0.2919  -0.1577   0.0444   0.2444   0.3715
     0.3993   0.5229   0.5607   0.6453   0.7432   0.8581   0.8992   1.1810
     1.2311   1.2621   1.3103   1.4163   1.4435   1.6099   1.7026   1.8386
     1.8920   1.9344   2.0240   2.0730   2.2254   2.7034   2.7427   2.7639
     2.7881   2.8250   2.9270   2.9376   2.9734   2.9991   3.1203   3.1522
     3.1773

     the Fermi energy is     0.6971 ev

!    total energy              =   -1180.63754735 Ry
     Harris-Foulkes estimate   =   -1180.63754867 Ry
     estimated scf accuracy    <       0.00000059 Ry

     The total energy is the sum of the following terms:

     one-electron contribution =   -7557.36752361 Ry
     hartree contribution      =    3788.09588622 Ry
     xc contribution           =    -246.10325839 Ry
     ewald contribution        =    2834.85715478 Ry
     electric field correction =       0.00000109 Ry
     smearing contrib. (-TS)   =      -0.11980744 Ry

     convergence has been achieved in  18 iterations

 BEEF-vdW xc energy contributions
           1 :   -212.213727575299
           2 :    191.222572450521
           3 :   -156.901546507195
           4 :    120.191628967432
           5 :   -89.8158975014623
           6 :    69.1677352007229
           7 :   -56.8221030709244
           8 :    49.2915266503294
           9 :   -43.6741665821565
          10 :    38.7041216350266
          11 :   -34.2659460127759
          12 :    30.4078304413468
          13 :   -26.8490060536059
          14 :    23.2328250005785
          15 :   -19.6317340102056
          16 :    16.6401728201845
          17 :   -14.8841795737582
          18 :    14.4042053421697
          19 :   -14.5155801409466
          20 :    14.2928442811751
          21 :   -13.2501573888543
          22 :    11.6415120175648
          23 :   -10.1726598949839
          24 :    9.41211925594149
          25 :   -9.39079913847621
          26 :    9.66523422153614
          27 :   -9.72119523459691
          28 :    9.34920595949927
          29 :   -8.71300001295731
          30 :    8.13006419276405
          31 :   -22.3458681429662
          32 :   -16.2384921378003

     Forces acting on atoms (Ry/au):

     negative rho (up, down):  9.440E-05 0.000E+00
     atom    1 type  1   force =    -0.00000133    0.00513198   -0.00447427
     atom    2 type  1   force =     0.00443760   -0.00256610   -0.00446570
     atom    3 type  1   force =    -0.00443667   -0.00256326   -0.00446531
     atom    4 type  2   force =     0.00000210    0.00000982    0.00955282
     atom    5 type  1   force =     0.00000148   -0.00127479    0.00116983
     atom    6 type  1   force =    -0.00111630    0.00065167    0.00115846
     atom    7 type  1   force =     0.00111635    0.00065010    0.00115798
     atom    8 type  2   force =    -0.00000136    0.00000930    0.00078893
     atom    9 type  1   force =     0.00000182    0.00014013   -0.00008110
     atom   10 type  1   force =     0.00016260   -0.00008562   -0.00006871
     atom   11 type  1   force =    -0.00016370   -0.00008915   -0.00007071
     atom   12 type  2   force =    -0.00000259   -0.00001408   -0.00020222

     Total force =     0.015486     Total SCF correction =     0.002993
     SCF correction compared to forces is large: reduce conv_thr to get better values

     entering subroutine stress ...

     negative rho (up, down):  9.440E-05 0.000E+00
          total   stress  (Ry/bohr**3)                   (kbar)     P=   -4.41
  -0.00004388   0.00000000   0.00000000         -6.46      0.00      0.00
   0.00000000  -0.00004389   0.00000000          0.00     -6.46      0.00
   0.00000000   0.00000000  -0.00000216          0.00      0.00     -0.32

 !ASE

     Writing output data file calc.save

     General routines

     Parallel routines

   This run was terminated on:   8:10:46   1Jan2019

   JOB DONE.
Job  /afs/slac/g/suncat/bin/suncat-tsmpirun -x LD_LIBRARY_PATH -wdir /scratch/qe648967_qrf8v pw.x -in pw.inp

TID   HOST_NAME   COMMAND_LINE            STATUS            TERMINATION_TIME
00000 suncat0031 pw.x -in pw.inp   Done                     01/01/2019 08:10:46
00001 suncat0031 pw.x -in pw.inp   Done                     01/01/2019 08:10:46
00002 suncat0031 pw.x -in pw.inp   Done                     01/01/2019 08:10:46
00003 suncat0031 pw.x -in pw.inp   Done                     01/01/2019 08:10:46
00004 suncat0031 pw.x -in pw.inp   Done                     01/01/2019 08:10:46
00005 suncat0031 pw.x -in pw.inp   Done                     01/01/2019 08:10:46
00006 suncat0031 pw.x -in pw.inp   Done                     01/01/2019 08:10:46
00007 suncat0031 pw.x -in pw.inp   Done                     01/01/2019 08:10:46
00008 suncat0030 pw.x -in pw.inp   Done                     01/01/2019 08:10:46
00009 suncat0030 pw.x -in pw.inp   Done                     01/01/2019 08:10:46
00010 suncat0030 pw.x -in pw.inp   Done                     01/01/2019 08:10:46
00011 suncat0030 pw.x -in pw.inp   Done                     01/01/2019 08:10:46
00012 suncat0030 pw.x -in pw.inp   Done                     01/01/2019 08:10:46
00013 suncat0030 pw.x -in pw.inp   Done                     01/01/2019 08:10:46
00014 suncat0030 pw.x -in pw.inp   Done                     01/01/2019 08:10:46
00015 suncat0030 pw.x -in pw.inp   Done                     01/01/2019 08:10:46
00016 suncat0132 pw.x -in pw.inp   Done                     01/01/2019 08:10:46
00017 suncat0132 pw.x -in pw.inp   Done                     01/01/2019 08:10:46
00018 suncat0132 pw.x -in pw.inp   Done                     01/01/2019 08:10:46
00019 suncat0132 pw.x -in pw.inp   Done                     01/01/2019 08:10:46
00020 suncat0132 pw.x -in pw.inp   Done                     01/01/2019 08:10:46
00021 suncat0132 pw.x -in pw.inp   Done                     01/01/2019 08:10:46
00022 suncat0132 pw.x -in pw.inp   Done                     01/01/2019 08:10:46
00023 suncat0132 pw.x -in pw.inp   Done                     01/01/2019 08:10:46
00024 suncat0131 pw.x -in pw.inp   Done                     01/01/2019 08:10:46
00025 suncat0131 pw.x -in pw.inp   Done                     01/01/2019 08:10:46
00026 suncat0131 pw.x -in pw.inp   Done                     01/01/2019 08:10:46
00027 suncat0131 pw.x -in pw.inp   Done                     01/01/2019 08:10:46
00028 suncat0131 pw.x -in pw.inp   Done                     01/01/2019 08:10:46
00029 suncat0131 pw.x -in pw.inp   Done                     01/01/2019 08:10:46
00030 suncat0131 pw.x -in pw.inp   Done                     01/01/2019 08:10:46
00031 suncat0131 pw.x -in pw.inp   Done                     01/01/2019 08:10:46
00032 suncat0130 pw.x -in pw.inp   Done                     01/01/2019 08:10:46
00033 suncat0130 pw.x -in pw.inp   Done                     01/01/2019 08:10:46
00034 suncat0130 pw.x -in pw.inp   Done                     01/01/2019 08:10:46
00035 suncat0130 pw.x -in pw.inp   Done                     01/01/2019 08:10:46
00036 suncat0130 pw.x -in pw.inp   Done                     01/01/2019 08:10:46
00037 suncat0130 pw.x -in pw.inp   Done                     01/01/2019 08:10:46
00038 suncat0130 pw.x -in pw.inp   Done                     01/01/2019 08:10:46
00039 suncat0130 pw.x -in pw.inp   Done                     01/01/2019 08:10:46
00040 suncat0124 pw.x -in pw.inp   Done                     01/01/2019 08:10:46
00041 suncat0124 pw.x -in pw.inp   Done                     01/01/2019 08:10:46
00042 suncat0124 pw.x -in pw.inp   Done                     01/01/2019 08:10:46
00043 suncat0124 pw.x -in pw.inp   Done                     01/01/2019 08:10:46
00044 suncat0124 pw.x -in pw.inp   Done                     01/01/2019 08:10:46
00045 suncat0124 pw.x -in pw.inp   Done                     01/01/2019 08:10:46
00046 suncat0124 pw.x -in pw.inp   Done                     01/01/2019 08:10:46
00047 suncat0124 pw.x -in pw.inp   Done                     01/01/2019 08:10:46
00048 suncat0280 pw.x -in pw.inp   Done                     01/01/2019 08:10:46
00049 suncat0280 pw.x -in pw.inp   Done                     01/01/2019 08:10:46
00050 suncat0280 pw.x -in pw.inp   Done                     01/01/2019 08:10:46
00051 suncat0280 pw.x -in pw.inp   Done                     01/01/2019 08:10:46
00052 suncat0280 pw.x -in pw.inp   Done                     01/01/2019 08:10:46
00053 suncat0280 pw.x -in pw.inp   Done                     01/01/2019 08:10:46
00054 suncat0280 pw.x -in pw.inp   Done                     01/01/2019 08:10:46
00055 suncat0280 pw.x -in pw.inp   Done                     01/01/2019 08:10:46
00056 suncat0279 pw.x -in pw.inp   Done                     01/01/2019 08:10:46
00057 suncat0279 pw.x -in pw.inp   Done                     01/01/2019 08:10:46
00058 suncat0279 pw.x -in pw.inp   Done                     01/01/2019 08:10:46
00059 suncat0279 pw.x -in pw.inp   Done                     01/01/2019 08:10:46
00060 suncat0279 pw.x -in pw.inp   Done                     01/01/2019 08:10:46
00061 suncat0279 pw.x -in pw.inp   Done                     01/01/2019 08:10:46
00062 suncat0279 pw.x -in pw.inp   Done                     01/01/2019 08:10:46
00063 suncat0279 pw.x -in pw.inp   Done                     01/01/2019 08:10:46