     Program PWSCF v.5.1rc2 (svn rev. 11289) starts on 26Dec2018 at 16: 0:16

     Current dimensions of program PWSCF are:
     Max number of different atomic species (ntypx) = 10
     Max number of k-points (npk) =  40000
     Max angular momentum in pseudopotentials (lmaxx) =  3
     Presently stress not available with electric field

     IMPORTANT: XC functional enforced from input :
     Exchange-correlation      = BEEF-VDW ( 1  4 27 13 2)
     Any further DFT definition will be discarded
     Please, verify this is what you really want

     Subspace diagonalization in iterative solution of the eigenvalue problem:
     a serial algorithm will be used

     bravais-lattice index     =            0
     lattice parameter (alat)  =       1.8897  a.u.
     unit-cell volume          =    4266.9969 (a.u.)^3
     number of atoms/cell      =           12
     number of atomic types    =            2
     number of electrons       =       183.00
     number of Kohn-Sham states=          121
     kinetic-energy cutoff     =      36.7493  Ry
     charge density cutoff     =     367.4932  Ry
     convergence threshold     =      1.0E-06
     mixing beta               =       0.1000
     number of iterations used =           10  plain     mixing
     Exchange-correlation      = BEEF-VDW ( 1  4 27 13 2)
     nstep                     =           50

     celldm(1)=   1.889726  celldm(2)=   0.000000  celldm(3)=   0.000000
     celldm(4)=   0.000000  celldm(5)=   0.000000  celldm(6)=   0.000000

     crystal axes: (cart. coord. in units of alat)
               a(1) = (   5.463386   0.000000   0.000000 )
               a(2) = (  -2.731693   4.731431   0.000000 )
               a(3) = (   0.000000   0.000000  24.460836 )

     reciprocal axes: (cart. coord. in units 2 pi/alat)
               b(1) = (  0.183037  0.105676  0.000000 )
               b(2) = (  0.000000  0.211353  0.000000 )
               b(3) = (  0.000000  0.000000  0.040882 )

     PseudoPot. # 1 for Ir read from file:
     /afs/slac.stanford.edu/u/if/mamunm/psp/gbrv1.5pbe/Ir.UPF
     MD5 check sum: 8836f839c3459d2b385c504ce6d91f2c
     Pseudo is Ultrasoft + core correction, Zval = 15.0
     Generated by new atomic code, or converted to UPF format
     Using radial grid of  983 points,  7 beta functions with:
                l(1) =   0
                l(2) =   0
                l(3) =   1
                l(4) =   1
                l(5) =   1
                l(6) =   2
                l(7) =   2
     Q(r) pseudized with  8 coefficients,  rinner =    1.400   1.400   1.400
                                                       1.400   1.400

     PseudoPot. # 2 for Ru read from file:
     /afs/slac.stanford.edu/u/if/mamunm/psp/gbrv1.5pbe/Ru.UPF
     MD5 check sum: 7158a806dd851261a58e6920c40ebe78
     Pseudo is Ultrasoft + core correction, Zval = 16.0
     Generated by new atomic code, or converted to UPF format
     Using radial grid of  967 points,  6 beta functions with:
                l(1) =   0
                l(2) =   0
                l(3) =   1
                l(4) =   1
                l(5) =   2
                l(6) =   2
     Q(r) pseudized with  8 coefficients,  rinner =    1.300   1.300   1.300
                                                       1.300   1.300

     vdW kernel table read from file vdW_kernel_table
     MD5 check sum: 095c7af220d748ca6e76c0b4c6cfb241

     atomic species   valence    mass     pseudopotential
        Ir1           15.00   192.21700     Ir( 1.00)
        Ru1           16.00   101.07000     Ru( 1.00)

     No symmetry found

   Cartesian axes

     site n.     atom                  positions (alat units)
         1           Ir1 tau(   1) = (   0.0000000   0.0000000  10.0000000  )
         2           Ir1 tau(   2) = (  -1.3658465   2.3657156  10.0000000  )
         3           Ir1 tau(   3) = (   1.3658465   2.3657156  10.0000000  )
         4           Ru1 tau(   4) = (   2.7316931   0.0000000  10.0000000  )
         5           Ir1 tau(   5) = (   2.7316931   1.5771437  12.2304181  )
         6           Ir1 tau(   6) = (   1.3658465   3.9428593  12.2304181  )
         7           Ir1 tau(   7) = (  -1.3658465   3.9428593  12.2304181  )
         8           Ru1 tau(   8) = (   0.0000000   1.5771437  12.2304181  )
         9           Ir1 tau(   9) = (  -0.0000000   3.1542875  14.4608361  )
        10           Ir1 tau(  10) = (   1.3658465   0.7885719  14.4608361  )
        11           Ir1 tau(  11) = (   4.0975396   0.7885719  14.4608361  )
        12           Ru1 tau(  12) = (   2.7316931   3.1542875  14.4608361  )

     number of k points=    20  Fermi-Dirac smearing, width (Ry)=  0.0110
                       cart. coord. in units 2pi/alat
        k(    1) = (   0.0000000   0.0000000   0.0000000), wk =   0.0555556
        k(    2) = (   0.0000000   0.0352254   0.0000000), wk =   0.1111111
        k(    3) = (   0.0000000   0.0704508   0.0000000), wk =   0.1111111
        k(    4) = (   0.0000000  -0.1056763   0.0000000), wk =   0.0555556
        k(    5) = (   0.0305061   0.0176127   0.0000000), wk =   0.1111111
        k(    6) = (   0.0305061   0.0528381   0.0000000), wk =   0.1111111
        k(    7) = (   0.0305061   0.0880636   0.0000000), wk =   0.1111111
        k(    8) = (   0.0305061  -0.0880636   0.0000000), wk =   0.1111111
        k(    9) = (   0.0305061  -0.0528381   0.0000000), wk =   0.1111111
        k(   10) = (   0.0305061  -0.0176127   0.0000000), wk =   0.1111111
        k(   11) = (   0.0610122   0.0352254   0.0000000), wk =   0.1111111
        k(   12) = (   0.0610122   0.0704508   0.0000000), wk =   0.1111111
        k(   13) = (   0.0610122   0.1056763   0.0000000), wk =   0.1111111
        k(   14) = (   0.0610122  -0.0704508   0.0000000), wk =   0.1111111
        k(   15) = (   0.0610122  -0.0352254   0.0000000), wk =   0.1111111
        k(   16) = (   0.0610122   0.0000000   0.0000000), wk =   0.1111111
        k(   17) = (  -0.0915183  -0.0528381   0.0000000), wk =   0.0555556
        k(   18) = (  -0.0915183  -0.0176127   0.0000000), wk =   0.1111111
        k(   19) = (  -0.0915183   0.0176127   0.0000000), wk =   0.1111111
        k(   20) = (  -0.0915183  -0.1585144   0.0000000), wk =   0.0555556

     Largest allocated arrays     est. size (Mb)     dimensions
     Largest temporary arrays     est. size (Mb)     dimensions

     Initial potential from superposition of free atoms
     Check: negative starting charge=   -3.492112

     starting charge  175.49967, renormalised to  183.00000

     negative rho (up, down):  3.641E+00 0.000E+00

     *
     * You are using vdW-DF for exchange-correlation in this calculation.
     * Please cite the following three references that made this development
     * possible:
     *
     *   M. Dion, H. Rydberg, E. Schroder, D. C. Langreth, and
     *   B. I. Lundqvist, Phys. Rev. Lett. 92, 246401 (2004).
     *
     *   T. Thonhauser, V. R. Cooper, S. Li, A. Puzder, P. Hyldgaard, and
     *   D. C. Langreth, Phys. Rev. B 76, 125112 (2007).
     *
     *   G. Roman-Perez and J. M. Soler, Phys. Rev. Lett. 103, 096102 (2009).
     *
     *
     * If you are using vdW-DF2, please also cite:
     *
     *   K. Lee, E. D. Murray, L. Kong, B. I. Lundqvist, and
     *   D. C. Langreth, Phys. Rev. B 82, 081101(R) (2010).
     *
     *
     * If you are calculating the stress with vdW-DF, please also cite:
     *
     *   R. Sabatini, E. Kucukbenli, B. Kolb, T. Thonhauser, and
     *   S. de Gironcoli, J. Phys.: Condens. Matter 24, 424209 (2012).
     *

     Carrying out vdW-DF run using the following parameters:

     Nqs =      20    Nr_points =    1024   r_max =   100.000
     q_mesh =
               0.00001000     0.04494208     0.09755937     0.15916263
               0.23128650     0.31572767     0.41458969     0.53033537
               0.66584808     0.82450364     1.01025438     1.22772762
               1.48234092     1.78043706     2.12944203     2.53805004
               3.01644009     3.57652955     4.23227104     5.00000000

     Gradients computed in reciprocal space

     Adding external electric field

     Computed dipole along edir(3) :
        Dipole                0.0000 Ry au,          0.0000 Debye
        Dipole field          0.0000 Ry au

        Potential amp.       -0.0000 Ry
        Total length         45.0687 bohr

     Starting wfc are  147 randomized atomic wfcs

     Self-consistent Calculation

     iteration #  1     ecut=    36.75 Ry     beta=0.10
     Davidson diagonalization with overlap
     ethr =  1.00E-02,  avg # of iterations =  8.2

[...]

     total energy              =   -2235.15733820 Ry
     Harris-Foulkes estimate   =   -2239.67455517 Ry
     estimated scf accuracy    <      27.43082921 Ry

[...]

     End of self-consistent calculation

          k = 0.0000 0.0000 0.0000 ( 15989 PWs)   bands (ev):

   -70.9602 -70.5285 -70.5283 -47.6633 -47.4823 -47.4823 -47.4574 -47.3857
   -47.3857 -47.2130 -47.1705 -47.1559 -47.1523 -47.1523 -47.0068 -47.0068
   -46.9702 -46.9702 -46.8126 -46.7621 -46.7585 -46.7585 -46.7568 -46.7490
   -46.7289 -46.7289 -46.6761 -46.6761 -46.6748 -46.6748 -40.9369 -40.8814
   -40.8814 -40.4909 -40.4909 -40.4885 -40.4885 -40.4306 -40.4211  -6.5558
    -4.7645  -4.5448  -4.2102  -4.2102  -4.1647  -3.9167  -3.9167  -3.7601
    -3.4625  -3.4625  -3.4487  -3.1509  -3.1509  -3.0860  -1.9151  -1.6737
    -1.6737  -1.2399  -1.2399  -1.1569  -0.9444  -0.7572  -0.7572  -0.7154
    -0.4992  -0.3641  -0.3641  -0.1747  -0.1747  -0.0624  -0.0624   0.1246
     0.1246   0.6507   1.3402   1.4907   1.5282   1.5282   1.5425   1.5425
     1.5919   1.5919   1.7051   2.3167   2.3167   2.8010   2.8010   2.9105
     2.9825   3.0315   3.0315   3.0317   3.1787   3.1787   3.4630   3.5636
     3.5636   3.7696   3.9394   3.9837   3.9837   4.0053   4.0053   4.0059
     4.0670   4.0670   5.8976   5.9801   5.9801   6.0913   6.1761   6.1761
     6.9429   7.1765   7.5883   8.4993   9.2478   9.2478   9.2657   9.2657
     9.3623

[...]

          k =-0.0915-0.0528 0.0000 ( 16072 PWs)   bands (ev):

[...]

     the Fermi energy is     2.4123 ev

!    total energy              =   -2235.14219677 Ry
     Harris-Foulkes estimate   =   -2235.14220885 Ry
     estimated scf accuracy    <       0.00000033 Ry

     The total energy is the sum of the following terms:

     one-electron contribution =  -19226.90513372 Ry
     hartree contribution      =    9635.22156348 Ry
     xc contribution           =    -548.09666962 Ry
     ewald contribution        =    7904.73150560 Ry
     electric field correction =       0.00000000 Ry
     smearing contrib. (-TS)   =      -0.09346250 Ry

     convergence has been achieved in  19 iterations

 BEEF-vdW xc energy contributions
           1 :   -484.088426466156
           2 :    449.594771346509
           3 :   -388.173624339476
           4 :    312.346755247595
           5 :   -235.745584576525
           6 :    169.455679520996
           7 :   -119.622813469885
           8 :    86.8718986872756
           9 :   -67.4760019550705
          10 :    55.6287463390584
          11 :   -45.8846403502711
          12 :    34.9075154657395
[...]
     MD5 check sum: 8836f839c3459d2b385c504ce6d91f2c
     Pseudo is Ultrasoft + core correction, Zval = 15.0
     Generated by new atomic code, or converted to UPF format
     Using radial grid of  983 points,  7 beta functions with:
                l(1) =   0
                l(2) =   0
                l(3) =   1
                l(4) =   1
                l(5) =   1
                l(6) =   2
                l(7) =   2
     Q(r) pseudized with  8 coefficients,  rinner =    1.400   1.400   1.400
                                                       1.400   1.400

     PseudoPot. # 2 for Ru read from file:
     /afs/slac.stanford.edu/u/if/mamunm/psp/gbrv1.5pbe/Ru.UPF
     MD5 check sum: 7158a806dd851261a58e6920c40ebe78
     Pseudo is Ultrasoft + core correction, Zval = 16.0
     Generated by new atomic code, or converted to UPF format
     Using radial grid of  967 points,  6 beta functions with:
                l(1) =   0
                l(2) =   0
                l(3) =   1
                l(4) =   1
                l(5) =   2
                l(6) =   2
     Q(r) pseudized with  8 coefficients,  rinner =    1.300   1.300   1.300
                                                       1.300   1.300

     vdW kernel table read from file vdW_kernel_table
     MD5 check sum: 095c7af220d748ca6e76c0b4c6cfb241

     atomic species   valence    mass     pseudopotential
        Ir1           15.00   192.21700     Ir( 1.00)
        Ru1           16.00   101.07000     Ru( 1.00)

     No symmetry found

   Cartesian axes

     site n.     atom                  positions (alat units)
         1           Ir1 tau(   1) = (   0.0000000   0.0000000  10.0000000  )
         2           Ir1 tau(   2) = (  -1.3658465   2.3657156  10.0000000  )
         3           Ir1 tau(   3) = (   1.3658465   2.3657156  10.0000000  )
         4           Ru1 tau(   4) = (   2.7316931   0.0000000  10.0000000  )
         5           Ir1 tau(   5) = (   2.7316931   1.5771437  12.2304181  )
         6           Ir1 tau(   6) = (   1.3658465   3.9428593  12.2304181  )
         7           Ir1 tau(   7) = (  -1.3658465   3.9428593  12.2304181  )
         8           Ru1 tau(   8) = (   0.0000000   1.5771437  12.2304181  )
         9           Ir1 tau(   9) = (   0.0000003   3.1387130  14.3871419  )
        10           Ir1 tau(  10) = (   1.3523578   0.7963598  14.3871436  )
        11           Ir1 tau(  11) = (   4.1110271   0.7963587  14.3871441  )
        12           Ru1 tau(  12) = (   2.7316928   3.1542866  14.4092745  )

     number of k points=    20  Fermi-Dirac smearing, width (Ry)=  0.0110
                       cart. coord. in units 2pi/alat
        k(    1) = (   0.0000000   0.0000000   0.0000000), wk =   0.0555556
        k(    2) = (   0.0000000   0.0352254   0.0000000), wk =   0.1111111
        k(    3) = (   0.0000000   0.0704508   0.0000000), wk =   0.1111111
        k(    4) = (   0.0000000  -0.1056763   0.0000000), wk =   0.0555556
        k(    5) = (   0.0305061   0.0176127   0.0000000), wk =   0.1111111
        k(    6) = (   0.0305061   0.0528381   0.0000000), wk =   0.1111111
        k(    7) = (   0.0305061   0.0880636   0.0000000), wk =   0.1111111
        k(    8) = (   0.0305061  -0.0880636   0.0000000), wk =   0.1111111
        k(    9) = (   0.0305061  -0.0528381   0.0000000), wk =   0.1111111
        k(   10) = (   0.0305061  -0.0176127   0.0000000), wk =   0.1111111
        k(   11) = (   0.0610122   0.0352254   0.0000000), wk =   0.1111111
        k(   12) = (   0.0610122   0.0704508   0.0000000), wk =   0.1111111
        k(   13) = (   0.0610122   0.1056763   0.0000000), wk =   0.1111111
        k(   14) = (   0.0610122  -0.0704508   0.0000000), wk =   0.1111111
        k(   15) = (   0.0610122  -0.0352254   0.0000000), wk =   0.1111111
        k(   16) = (   0.0610122   0.0000000   0.0000000), wk =   0.1111111
        k(   17) = (  -0.0915183  -0.0528381   0.0000000), wk =   0.0555556
        k(   18) = (  -0.0915183  -0.0176127   0.0000000), wk =   0.1111111
        k(   19) = (  -0.0915183   0.0176127   0.0000000), wk =   0.1111111
        k(   20) = (  -0.0915183  -0.1585144   0.0000000), wk =   0.0555556

     Largest allocated arrays     est. size (Mb)     dimensions
     Largest temporary arrays     est. size (Mb)     dimensions

     Initial potential from superposition of free atoms
     Check: negative starting charge=   -3.489778

     starting charge  175.49967, renormalised to  183.00000

[...]

     *
     * You are using vdW-DF for exchange-correlation in this calculation.
     * Please cite the following three references that made this development
     * possible:
     *
     *   M. Dion, H. Rydberg, E. Schroder, D. C. Langreth, and
     *   B. I. Lundqvist, Phys. Rev. Lett. 92, 246401 (2004).
     *
     *   T. Thonhauser, V. R. Cooper, S. Li, A. Puzder, P. Hyldgaard, and
     *   D. C. Langreth, Phys. Rev. B 76, 125112 (2007).
     *
     *   G. Roman-Perez and J. M. Soler, Phys. Rev. Lett. 103, 096102 (2009).
     *
     *
     * If you are using vdW-DF2, please also cite:
     *
     *   K. Lee, E. D. Murray, L. Kong, B. I. Lundqvist, and
     *   D. C. Langreth, Phys. Rev. B 82, 081101(R) (2010).
     *
     *
     * If you are calculating the stress with vdW-DF, please also cite:
     *
     *   R. Sabatini, E. Kucukbenli, B. Kolb, T. Thonhauser, and
     *   S. de Gironcoli, J. Phys.: Condens. Matter 24, 424209 (2012).
     *

     Carrying out vdW-DF run using the following parameters:

     Nqs =      20    Nr_points =    1024   r_max =   100.000
     q_mesh =
               0.00001000     0.04494208     0.09755937     0.15916263
               0.23128650     0.31572767     0.41458969     0.53033537
               0.66584808     0.82450364     1.01025438     1.22772762
               1.48234092     1.78043706     2.12944203     2.53805004
               3.01644009     3.57652955     4.23227104     5.00000000

     Gradients computed in reciprocal space

[...]

     Starting wfc are  147 randomized atomic wfcs

     Self-consistent Calculation

[...]

     total energy              =   -2235.14871205 Ry
     Harris-Foulkes estimate   =   -2235.14870627 Ry
     estimated scf accuracy    <       0.00000569 Ry

     iteration # 18     ecut=    36.75 Ry     beta=0.10
     Davidson diagonalization with overlap
     ethr =  3.11E-09,  avg # of iterations =  2.9

[...]

     negative rho (up, down):  3.125E+00 0.000E+00

     Adding external electric field

     Computed dipole along edir(3) :
        Dipole                0.0026 Ry au,          0.0067 Debye
        Dipole field          0.0000 Ry au

        Potential amp.       -0.0007 Ry
        Total length         45.0687 bohr

     End of self-consistent calculation

[...]

          k = 0.0610 0.0000 0.0000 ( 16074 PWs)   bands (ev):

[...]

          k =-0.0915-0.1585 0.0000 ( 16072 PWs)   bands (ev):

   -71.0040 -70.5414 -70.4875 -47.5893 -47.4800 -47.4727 -47.4357 -47.4048
   -47.3870 -47.3867 -47.3624 -47.1941 -47.1110 -47.0165 -46.9579 -46.9289
   -46.9133 -46.8916 -46.8591 -46.8449 -46.8391 -46.8315 -46.8247 -46.8171
   -46.7995 -46.7434 -46.7267 -46.7068 -46.6954 -46.6477 -41.0047 -40.9339
   -40.9241 -40.5162 -40.5065 -40.4660 -40.4557 -40.4531 -40.3839  -5.0093
    -4.6800  -3.4998  -3.4873  -3.3100  -3.2405  -3.2327  -3.1470  -3.0859
    -2.7995  -2.7306  -2.5406  -2.4642  -2.1906  -2.1038  -2.0576  -1.9662
    -1.8582  -1.7153  -1.5228  -1.4710  -1.2265  -0.8829  -0.8455  -0.6449
    -0.6039  -0.5718  -0.4327  -0.3984  -0.3743  -0.2873  -0.2663  -0.1741
    -0.1433  -0.0441  -0.0026   0.0635   0.0803   0.2648   0.3888   0.6099
     0.7811   0.8987   1.1219   1.1334   1.2367   1.2554   1.5051   1.5371
     1.6557   1.7936   1.8686   2.0889   2.1914   2.2291   2.2430   2.3079
     2.3871   2.9322   3.0402   3.3154   3.3252   3.5550   3.6684   4.7624
     4.7817   5.6852   5.8273   6.4178   6.4981   7.2467   7.2659   8.1575
     8.3451   8.5400   8.5472   9.1496   9.1521   9.1980   9.2133  10.3522
    10.3563

     the Fermi energy is     2.4369 ev

!    total energy              =   -2235.14871071 Ry
     Harris-Foulkes estimate   =   -2235.14871247 Ry
     estimated scf accuracy    <       0.00000100 Ry

     The total energy is the sum of the following terms:

     one-electron contribution =  -19414.98233940 Ry
     hartree contribution      =    9729.15536492 Ry
     xc contribution           =    -548.25382553 Ry
     ewald contribution        =    7999.02293888 Ry
     electric field correction =       0.00000002 Ry
     smearing contrib. (-TS)   =      -0.09084959 Ry

     convergence has been achieved in  18 iterations

 BEEF-vdW xc energy contributions
           1 :   -484.251846405791
           2 :    449.830056556806
           3 :   -388.509769761783
           4 :    312.749586016389
           5 :   -236.129849676754
           6 :    169.723657172111
           7 :   -119.711701318273
           8 :    86.7874943106311
           9 :   -67.2948732226509
          10 :    55.4665461704542
          11 :   -45.8447911748910
          12 :    35.0334390226111
          13 :   -22.3154224694131
          14 :    9.15075297733881
          15 :    2.03390853474832
          16 :   -9.18398118114271
          17 :    11.5567517250176
          18 :   -9.96860795146847
          19 :    6.35793914020519
          20 :   -2.94031272657253
          21 :    1.34893604052411
          22 :   -2.10472071907395
          23 :    4.58611604213888
          24 :   -7.45664351228129
          25 :    9.32790052167047
          26 :   -9.36441455790532
          27 :    7.58694665834048
          28 :   -4.78131105384625
          29 :    2.09263182598522
          30 :  -0.509446491134440
          31 :   -42.6819224597131
          32 :   -32.0886073729466

     Forces acting on atoms (Ry/au):

     negative rho (up, down):  3.125E+00 0.000E+00
     atom    1 type  1   force =    -0.00000037    0.00842017    0.02031243
     atom    2 type  1   force =     0.00729160   -0.00421008    0.02031207
     atom    3 type  1   force =    -0.00729182   -0.00420952    0.02031316
     atom    4 type  2   force =     0.00000056    0.00000013    0.01319006
     atom    5 type  1   force =    -0.00000054    0.00105968   -0.01867241
     atom    6 type  1   force =     0.00091767   -0.00053031   -0.01867270
     atom    7 type  1   force =    -0.00091734   -0.00052915   -0.01867227
     atom    8 type  2   force =     0.00000005   -0.00000030   -0.02120426
     atom    9 type  1   force =     0.00000039   -0.00159637    0.00109772
     atom   10 type  1   force =    -0.00138276    0.00079806    0.00109759
     atom   11 type  1   force =     0.00138285    0.00079761    0.00109734
     atom   12 type  2   force =    -0.00000028    0.00000007   -0.00019873

     Total force =     0.055989     Total SCF correction =     0.003093

     entering subroutine stress ...

     negative rho (up, down):  3.125E+00 0.000E+00
          total   stress  (Ry/bohr**3)                   (kbar)     P=  -27.13
  -0.00022248  -0.00000000   0.00000000        -32.73     -0.00      0.00
  -0.00000000  -0.00022248   0.00000000         -0.00    -32.73      0.00
   0.00000000   0.00000000  -0.00010827          0.00      0.00    -15.93

 !ASE

     Writing output data file calc.save

     General routines

     Parallel routines

   This run was terminated on:  16:53:31  26Dec2018

   JOB DONE.
Job  /afs/slac/g/suncat/bin/suncat-tsmpirun -x LD_LIBRARY_PATH -wdir /scratch/qe109961_4eORj pw.x -in pw.inp

TID   HOST_NAME   COMMAND_LINE            STATUS            TERMINATION_TIME
00000 suncat0082 pw.x -in pw.inp   Done                     12/26/2018 16:53:31
00001 suncat0082 pw.x -in pw.inp   Done                     12/26/2018 16:53:31
00002 suncat0082 pw.x -in pw.inp   Done                     12/26/2018 16:53:31
00003 suncat0082 pw.x -in pw.inp   Done                     12/26/2018 16:53:31
00004 suncat0082 pw.x -in pw.inp   Done                     12/26/2018 16:53:31
00005 suncat0082 pw.x -in pw.inp   Done                     12/26/2018 16:53:31
00006 suncat0082 pw.x -in pw.inp   Done                     12/26/2018 16:53:31
00007 suncat0082 pw.x -in pw.inp   Done                     12/26/2018 16:53:31
00008 suncat0077 pw.x -in pw.inp   Done                     12/26/2018 16:53:31
00009 suncat0077 pw.x -in pw.inp   Done                     12/26/2018 16:53:31
00010 suncat0077 pw.x -in pw.inp   Done                     12/26/2018 16:53:31
00011 suncat0077 pw.x -in pw.inp   Done                     12/26/2018 16:53:31
00012 suncat0077 pw.x -in pw.inp   Done                     12/26/2018 16:53:31
00013 suncat0077 pw.x -in pw.inp   Done                     12/26/2018 16:53:31
00014 suncat0077 pw.x -in pw.inp   Done                     12/26/2018 16:53:31
00015 suncat0077 pw.x -in pw.inp   Done                     12/26/2018 16:53:31
00016 suncat0069 pw.x -in pw.inp   Done                     12/26/2018 16:53:31
00017 suncat0069 pw.x -in pw.inp   Done                     12/26/2018 16:53:31
00018 suncat0069 pw.x -in pw.inp   Done                     12/26/2018 16:53:31
00019 suncat0069 pw.x -in pw.inp   Done                     12/26/2018 16:53:31
00020 suncat0069 pw.x -in pw.inp   Done                     12/26/2018 16:53:31
00021 suncat0069 pw.x -in pw.inp   Done                     12/26/2018 16:53:31
00022 suncat0069 pw.x -in pw.inp   Done                     12/26/2018 16:53:31
00023 suncat0069 pw.x -in pw.inp   Done                     12/26/2018 16:53:31
00024 suncat0065 pw.x -in pw.inp   Done                     12/26/2018 16:53:31
00025 suncat0065 pw.x -in pw.inp   Done                     12/26/2018 16:53:31
00026 suncat0065 pw.x -in pw.inp   Done                     12/26/2018 16:53:31
00027 suncat0065 pw.x -in pw.inp   Done                     12/26/2018 16:53:31
00028 suncat0065 pw.x -in pw.inp   Done                     12/26/2018 16:53:31
00029 suncat0065 pw.x -in pw.inp   Done                     12/26/2018 16:53:31
00030 suncat0065 pw.x -in pw.inp   Done                     12/26/2018 16:53:31
00031 suncat0065 pw.x -in pw.inp   Done                     12/26/2018 16:53:31
00032 suncat0062 pw.x -in pw.inp   Done                     12/26/2018 16:53:31
00033 suncat0062 pw.x -in pw.inp   Done                     12/26/2018 16:53:31
00034 suncat0062 pw.x -in pw.inp   Done                     12/26/2018 16:53:31
00035 suncat0062 pw.x -in pw.inp   Done                     12/26/2018 16:53:31
00036 suncat0062 pw.x -in pw.inp   Done                     12/26/2018 16:53:31
00037 suncat0062 pw.x -in pw.inp   Done                     12/26/2018 16:53:31
00038 suncat0062 pw.x -in pw.inp   Done                     12/26/2018 16:53:31
00039 suncat0062 pw.x -in pw.inp   Done                     12/26/2018 16:53:31
00040 suncat0250 pw.x -in pw.inp   Done                     12/26/2018 16:53:31
00041 suncat0250 pw.x -in pw.inp   Done                     12/26/2018 16:53:31
00042 suncat0250 pw.x -in pw.inp   Done                     12/26/2018 16:53:31
00043 suncat0250 pw.x -in pw.inp   Done                     12/26/2018 16:53:31
00044 suncat0250 pw.x -in pw.inp   Done                     12/26/2018 16:53:31
00045 suncat0250 pw.x -in pw.inp   Done                     12/26/2018 16:53:31
00046 suncat0250 pw.x -in pw.inp   Done                     12/26/2018 16:53:31
00047 suncat0250 pw.x -in pw.inp   Done                     12/26/2018 16:53:31
00048 suncat0249 pw.x -in pw.inp   Done                     12/26/2018 16:53:31
00049 suncat0249 pw.x -in pw.inp   Done                     12/26/2018 16:53:31
00050 suncat0249 pw.x -in pw.inp   Done                     12/26/2018 16:53:31
00051 suncat0249 pw.x -in pw.inp   Done                     12/26/2018 16:53:31
00052 suncat0249 pw.x -in pw.inp   Done                     12/26/2018 16:53:31
00053 suncat0249 pw.x -in pw.inp   Done                     12/26/2018 16:53:31
00054 suncat0249 pw.x -in pw.inp   Done                     12/26/2018 16:53:31
00055 suncat0249 pw.x -in pw.inp   Done                     12/26/2018 16:53:31
00056 suncat0231 pw.x -in pw.inp   Done                     12/26/2018 16:53:31
00057 suncat0231 pw.x -in pw.inp   Done                     12/26/2018 16:53:31
00058 suncat0231 pw.x -in pw.inp   Done                     12/26/2018 16:53:31
00059 suncat0231 pw.x -in pw.inp   Done                     12/26/2018 16:53:31
00060 suncat0231 pw.x -in pw.inp   Done                     12/26/2018 16:53:31
00061 suncat0231 pw.x -in pw.inp   Done                     12/26/2018 16:53:31
00062 suncat0231 pw.x -in pw.inp   Done                     12/26/2018 16:53:31
00063 suncat0231 pw.x -in pw.inp   Done                     12/26/2018 16:53:31