     Program PWSCF v.5.1rc2 (svn rev. 11289) starts on 26Dec2018 at 10:56:58

     Current dimensions of program PWSCF are:
     Max number of different atomic species (ntypx) = 10
     Max number of k-points (npk) =  40000
     Max angular momentum in pseudopotentials (lmaxx) =  3
     Presently stress not available with electric field

     IMPORTANT: XC functional enforced from input :
     Exchange-correlation      = BEEF-VDW ( 1  4 27 13 2)
     Any further DFT definition will be discarded
     Please, verify this is what you really want

     Subspace diagonalization in iterative solution of the eigenvalue problem:
     a serial algorithm will be used

     bravais-lattice index     =            0
     lattice parameter (alat)  =       1.8897  a.u.
     unit-cell volume          =    5719.9394 (a.u.)^3
     number of atoms/cell      =           12
     number of atomic types    =            2
     number of electrons       =       144.00
     number of Kohn-Sham states=          102
     kinetic-energy cutoff     =      36.7493  Ry
     charge density cutoff     =     367.4932  Ry
     convergence threshold     =      1.0E-06
     mixing beta               =       0.1000
     number of iterations used =           10  plain     mixing
     Exchange-correlation      = BEEF-VDW ( 1  4 27 13 2)
     nstep                     =           50

     celldm(1)=   1.889726  celldm(2)=   0.000000  celldm(3)=   0.000000
     celldm(4)=   0.000000  celldm(5)=   0.000000  celldm(6)=   0.000000

     crystal axes: (cart. coord. in units of alat)
               a(1) = (   6.244625   0.000000   0.000000 )
               a(2) = (  -3.122312   5.408004   0.000000 )
               a(3) = (   0.000000   0.000000  25.098715 )

     reciprocal axes: (cart. coord. in units 2 pi/alat)
               b(1) = (  0.160138  0.092456  0.000000 )
               b(2) = (  0.000000  0.184911  0.000000 )
               b(3) = (  0.000000  0.000000  0.039843 )

     PseudoPot. # 1 for Hg read from file:
     /afs/slac.stanford.edu/u/if/mamunm/psp/gbrv1.5pbe/Hg.UPF
     MD5 check sum: 8f42caffe07f7fd9c0a564347f8c5498
     Pseudo is Ultrasoft + core correction, Zval = 12.0
     Generated by new atomic code, or converted to UPF format
     Using radial grid of  985 points,  6 beta functions with:
                l(1) =   0
                l(2) =   0
                l(3) =   1
                l(4) =   1
                l(5) =   2
                l(6) =   2
     Q(r) pseudized with  8 coefficients,  rinner =    2.000   2.000   2.000
                                                       2.000   2.000

     PseudoPot. # 2 for Ti read from file:
     /afs/slac.stanford.edu/u/if/mamunm/psp/gbrv1.5pbe/Ti.UPF
     MD5 check sum: 88a00a6731bd790ddea75d31a80cb452
     Pseudo is Ultrasoft + core correction, Zval = 12.0
     Generated by new atomic code, or converted to UPF format
     Using radial grid of  851 points,  6 beta functions with:
                l(1) =   0
                l(2) =   0
                l(3) =   1
                l(4) =   1
                l(5) =   2
                l(6) =   2
     Q(r) pseudized with  6 coefficients,  rinner =    1.000   1.000   1.000
                                                       1.000   1.000

     vdW kernel table read from file vdW_kernel_table
     MD5 check sum: 095c7af220d748ca6e76c0b4c6cfb241

     atomic species   valence    mass     pseudopotential
        Hg1           12.00   200.59200     Hg( 1.00)
        Ti1           12.00    47.86700     Ti( 1.00)

     No symmetry found

   Cartesian axes

     site n.     atom                  positions (alat units)
         1           Hg1 tau(   1) = (   0.0000000   0.0000000  10.0000000  )
         2           Hg1 tau(   2) = (  -1.5611562   2.7040019  10.0000000  )
         3           Hg1 tau(   3) = (   1.5611562   2.7040019  10.0000000  )
         4           Ti1 tau(   4) = (   3.1223124   0.0000000  10.0000000  )
         5           Hg1 tau(   5) = (   3.1223124   1.8026679  12.5493574  )
         6           Hg1 tau(   6) = (   1.5611562   4.5066698  12.5493574  )
         7           Hg1 tau(   7) = (  -1.5611562   4.5066698  12.5493574  )
         8           Ti1 tau(   8) = (   0.0000000   1.8026679  12.5493574  )
         9           Hg1 tau(   9) = (  -0.0000000   3.6053359  15.0987149  )
        10           Hg1 tau(  10) = (   1.5611562   0.9013340  15.0987149  )
        11           Hg1 tau(  11) = (   4.6834687   0.9013340  15.0987149  )
        12           Ti1 tau(  12) = (   3.1223124   3.6053359  15.0987149  )

     number of k points=    20  Fermi-Dirac smearing, width (Ry)=  0.0110
                       cart. coord. in units 2pi/alat
        k(    1) = (   0.0000000   0.0000000   0.0000000), wk =   0.0555556
        k(    2) = (   0.0000000   0.0308185   0.0000000), wk =   0.1111111
        k(    3) = (   0.0000000   0.0616370   0.0000000), wk =   0.1111111
        k(    4) = (   0.0000000  -0.0924556   0.0000000), wk =   0.0555556
        k(    5) = (   0.0266896   0.0154093   0.0000000), wk =   0.1111111
        k(    6) = (   0.0266896   0.0462278   0.0000000), wk =   0.1111111
        k(    7) = (   0.0266896   0.0770463   0.0000000), wk =   0.1111111
        k(    8) = (   0.0266896  -0.0770463   0.0000000), wk =   0.1111111
        k(    9) = (   0.0266896  -0.0462278   0.0000000), wk =   0.1111111
        k(   10) = (   0.0266896  -0.0154093   0.0000000), wk =   0.1111111
        k(   11) = (   0.0533792   0.0308185   0.0000000), wk =   0.1111111
        k(   12) = (   0.0533792   0.0616370   0.0000000), wk =   0.1111111
        k(   13) = (   0.0533792   0.0924556   0.0000000), wk =   0.1111111
        k(   14) = (   0.0533792  -0.0616370   0.0000000), wk =   0.1111111
        k(   15) = (   0.0533792  -0.0308185   0.0000000), wk =   0.1111111
        k(   16) = (   0.0533792   0.0000000   0.0000000), wk =   0.1111111
        k(   17) = (  -0.0800689  -0.0462278   0.0000000), wk =   0.0555556
        k(   18) = (  -0.0800689  -0.0154093   0.0000000), wk =   0.1111111
        k(   19) = (  -0.0800689   0.0154093   0.0000000), wk =   0.1111111
        k(   20) = (  -0.0800689  -0.1386833   0.0000000), wk =   0.0555556

     Largest allocated arrays     est. size (Mb)     dimensions
     Largest temporary arrays     est. size (Mb)     dimensions

     Check: negative/imaginary core charge=   -0.000002    0.000000

     Initial potential from superposition of free atoms
     Check: negative starting charge=   -0.004877

     starting charge  140.99934, renormalised to  144.00000

     negative rho (up, down):  4.981E-03 0.000E+00

     *
     * You are using vdW-DF for exchange-correlation in this calculation.
     * Please cite the following three references that made this development
     * possible:
     *
     *   M. Dion, H. Rydberg, E. Schroder, D. C. Langreth, and
     *   B. I. Lundqvist, Phys. Rev. Lett. 92, 246401 (2004).
     *
     *   T. Thonhauser, V. R. Cooper, S. Li, A. Puzder, P. Hyldgaard, and
     *   D. C. Langreth, Phys. Rev. B 76, 125112 (2007).
     *
     *   G. Roman-Perez and J. M. Soler, Phys. Rev. Lett. 103, 096102 (2009).
     *
     *
     * If you are using vdW-DF2, please also cite:
     *
     *   K. Lee, E. D. Murray, L. Kong, B. I. Lundqvist, and
     *   D. C. Langreth, Phys. Rev. B 82, 081101(R) (2010).
     *
     *
     * If you are calculating the stress with vdW-DF, please also cite:
     *
     *   R. Sabatini, E. Kucukbenli, B. Kolb, T. Thonhauser, and
     *   S. de Gironcoli, J. Phys.: Condens. Matter 24, 424209 (2012).
     *

     Carrying out vdW-DF run using the following parameters:

     Nqs =      20    Nr_points =    1024   r_max =   100.000
     q_mesh =
               0.00001000     0.04494208     0.09755937     0.15916263
               0.23128650     0.31572767     0.41458969     0.53033537
               0.66584808     0.82450364     1.01025438     1.22772762
               1.48234092     1.78043706     2.12944203     2.53805004
               3.01644009     3.57652955     4.23227104     5.00000000

     Gradients computed in reciprocal space

     Adding external electric field

     Computed dipole along edir(3) :
        Dipole               -0.0000 Ry au,         -0.0000 Debye
        Dipole field         -0.0000 Ry au

        Potential amp.        0.0000 Ry
        Total length         46.2440 bohr

     Starting wfc are  111 randomized atomic wfcs

     Self-consistent Calculation

     iteration #  1     ecut=    36.75 Ry     beta=0.10
     Davidson diagonalization with overlap
     ethr =  1.00E-02,  avg # of iterations =  9.3

[...]

     total energy              =   -1336.11328100 Ry
     Harris-Foulkes estimate   =   -1344.66187719 Ry
     estimated scf accuracy    <      47.25122538 Ry

[...]

     End of self-consistent calculation

          k = 0.0000 0.0000 0.0000 ( 21571 PWs)   bands (ev):

   -56.8711 -56.8417 -56.8416 -33.1768 -33.1759 -33.1748 -33.0575 -33.0575
   -33.0098 -33.0098 -33.0097 -33.0097  -7.8758  -7.3909  -7.3395  -7.2781
    -7.2691  -7.2688  -7.2309  -7.1467  -7.1258  -7.1258  -6.9781  -6.9780
    -6.9222  -6.9222  -6.7661  -6.6685  -6.6294  -6.6294  -6.4665  -6.3998
    -6.3998  -6.2714  -6.2456  -6.1620  -6.1618  -6.0780  -6.0778  -6.0061
    -6.0061  -5.9297  -5.9296  -5.8689  -5.7889  -5.7889  -5.7419  -5.7419
    -5.7030  -5.7030  -5.6030  -5.5033  -5.5033  -5.4495  -5.3021  -5.3010
    -5.3010  -5.1414  -5.1215  -3.2633  -1.7056  -1.7056  -1.4514  -1.4514
    -0.6784  -0.4830  -0.4830  -0.1437   0.1488   0.2379   0.2379   0.5951
     1.2319   1.2319   1.3061   1.3062   1.3184   1.4850   1.4850   1.8915
     1.8915   2.0272   2.0358   2.0476   2.0477   2.6803   2.6804   2.8468
     2.8468   3.3442   3.4021   3.4022   4.0632   4.2560   4.7055   4.7859
     5.0753   5.7363   6.0395   6.6177   6.6178   6.7476

[...]

          k =-0.0801-0.0462 0.0000 ( 21496 PWs)   bands (ev):

[...]

     the Fermi energy is     0.9018 ev

!    total energy              =   -1341.36596239 Ry
     Harris-Foulkes estimate   =   -1341.36596213 Ry
     estimated scf accuracy    <       0.00000043 Ry

     The total energy is the sum of the following terms:

     one-electron contribution =   -8734.95750669 Ry
     hartree contribution      =    4432.24390261 Ry
     xc contribution           =    -420.09701569 Ry
     ewald contribution        =    3381.53536796 Ry
     electric field correction =       0.00000001 Ry
     smearing contrib. (-TS)   =      -0.09071060 Ry

     convergence has been achieved in  20 iterations

 BEEF-vdW xc energy contributions
           1 :   -367.357452925688
           2 :    336.875546289110
           3 :   -284.377351766418
           4 :    222.959872980454
           5 :   -165.172371528456
           6 :    119.099210460868
           7 :   -87.0803323380975
           8 :    66.8470129013293
           9 :   -53.9298350876495
          10 :    44.0274382659964
          11 :   -34.4622256620701
          12 :    24.4774933135103
          13 :   -14.6910195089104
          14 :    6.23182410760234
          15 :   1.892925474976437E-003
          16 :   -3.76652683170914
[...]
               b(3) = (  0.000000  0.000000  0.039843 )

     PseudoPot. # 1 for Hg read from file:
     /afs/slac.stanford.edu/u/if/mamunm/psp/gbrv1.5pbe/Hg.UPF
     MD5 check sum: 8f42caffe07f7fd9c0a564347f8c5498
     Pseudo is Ultrasoft + core correction, Zval = 12.0
     Generated by new atomic code, or converted to UPF format
     Using radial grid of  985 points,  6 beta functions with:
                l(1) =   0
                l(2) =   0
                l(3) =   1
                l(4) =   1
                l(5) =   2
                l(6) =   2
     Q(r) pseudized with  8 coefficients,  rinner =    2.000   2.000   2.000
                                                       2.000   2.000

     PseudoPot. # 2 for Ti read from file:
     /afs/slac.stanford.edu/u/if/mamunm/psp/gbrv1.5pbe/Ti.UPF
     MD5 check sum: 88a00a6731bd790ddea75d31a80cb452
     Pseudo is Ultrasoft + core correction, Zval = 12.0
     Generated by new atomic code, or converted to UPF format
     Using radial grid of  851 points,  6 beta functions with:
                l(1) =   0
                l(2) =   0
                l(3) =   1
                l(4) =   1
                l(5) =   2
                l(6) =   2
     Q(r) pseudized with  6 coefficients,  rinner =    1.000   1.000   1.000
                                                       1.000   1.000

     vdW kernel table read from file vdW_kernel_table
     MD5 check sum: 095c7af220d748ca6e76c0b4c6cfb241

     atomic species   valence    mass     pseudopotential
        Hg1           12.00   200.59200     Hg( 1.00)
        Ti1           12.00    47.86700     Ti( 1.00)

     No symmetry found

   Cartesian axes

     site n.     atom                  positions (alat units)
         1           Hg1 tau(   1) = (   0.0000000   0.0000000  10.0000000  )
         2           Hg1 tau(   2) = (  -1.5611562   2.7040019  10.0000000  )
         3           Hg1 tau(   3) = (   1.5611562   2.7040019  10.0000000  )
         4           Ti1 tau(   4) = (   3.1223124   0.0000000  10.0000000  )
         5           Hg1 tau(   5) = (   3.1223124   1.8026679  12.5493574  )
         6           Hg1 tau(   6) = (   1.5611562   4.5066698  12.5493574  )
         7           Hg1 tau(   7) = (  -1.5611562   4.5066698  12.5493574  )
         8           Ti1 tau(   8) = (   0.0000000   1.8026679  12.5493574  )
         9           Hg1 tau(   9) = (  -0.0000131   3.6107889  15.3875815  )
        10           Hg1 tau(  10) = (   1.5658160   0.8986808  15.3875409  )
        11           Hg1 tau(  11) = (   4.6788104   0.8986883  15.3875444  )
        12           Ti1 tau(  12) = (   3.1223122   3.6052946  14.7961690  )

     number of k points=    20  Fermi-Dirac smearing, width (Ry)=  0.0110
                       cart. coord. in units 2pi/alat
        k(    1) = (   0.0000000   0.0000000   0.0000000), wk =   0.0555556
        k(    2) = (   0.0000000   0.0308185   0.0000000), wk =   0.1111111
        k(    3) = (   0.0000000   0.0616370   0.0000000), wk =   0.1111111
        k(    4) = (   0.0000000  -0.0924556   0.0000000), wk =   0.0555556
        k(    5) = (   0.0266896   0.0154093   0.0000000), wk =   0.1111111
        k(    6) = (   0.0266896   0.0462278   0.0000000), wk =   0.1111111
        k(    7) = (   0.0266896   0.0770463   0.0000000), wk =   0.1111111
        k(    8) = (   0.0266896  -0.0770463   0.0000000), wk =   0.1111111
        k(    9) = (   0.0266896  -0.0462278   0.0000000), wk =   0.1111111
        k(   10) = (   0.0266896  -0.0154093   0.0000000), wk =   0.1111111
        k(   11) = (   0.0533792   0.0308185   0.0000000), wk =   0.1111111
        k(   12) = (   0.0533792   0.0616370   0.0000000), wk =   0.1111111
        k(   13) = (   0.0533792   0.0924556   0.0000000), wk =   0.1111111
        k(   14) = (   0.0533792  -0.0616370   0.0000000), wk =   0.1111111
        k(   15) = (   0.0533792  -0.0308185   0.0000000), wk =   0.1111111
        k(   16) = (   0.0533792   0.0000000   0.0000000), wk =   0.1111111
        k(   17) = (  -0.0800689  -0.0462278   0.0000000), wk =   0.0555556
        k(   18) = (  -0.0800689  -0.0154093   0.0000000), wk =   0.1111111
        k(   19) = (  -0.0800689   0.0154093   0.0000000), wk =   0.1111111
        k(   20) = (  -0.0800689  -0.1386833   0.0000000), wk =   0.0555556

     Largest allocated arrays     est. size (Mb)     dimensions
     Largest temporary arrays     est. size (Mb)     dimensions

     Check: negative/imaginary core charge=   -0.000002    0.000000

     Initial potential from superposition of free atoms
     Check: negative starting charge=   -0.004801

     starting charge  140.99934, renormalised to  144.00000

[...]

     *
     * You are using vdW-DF for exchange-correlation in this calculation.
     * Please cite the following three references that made this development
     * possible:
     *
     *   M. Dion, H. Rydberg, E. Schroder, D. C. Langreth, and
     *   B. I. Lundqvist, Phys. Rev. Lett. 92, 246401 (2004).
     *
     *   T. Thonhauser, V. R. Cooper, S. Li, A. Puzder, P. Hyldgaard, and
     *   D. C. Langreth, Phys. Rev. B 76, 125112 (2007).
     *
     *   G. Roman-Perez and J. M. Soler, Phys. Rev. Lett. 103, 096102 (2009).
     *
     *
     * If you are using vdW-DF2, please also cite:
     *
     *   K. Lee, E. D. Murray, L. Kong, B. I. Lundqvist, and
     *   D. C. Langreth, Phys. Rev. B 82, 081101(R) (2010).
     *
     *
     * If you are calculating the stress with vdW-DF, please also cite:
     *
     *   R. Sabatini, E. Kucukbenli, B. Kolb, T. Thonhauser, and
     *   S. de Gironcoli, J. Phys.: Condens. Matter 24, 424209 (2012).
     *

     Carrying out vdW-DF run using the following parameters:

     Nqs =      20    Nr_points =    1024   r_max =   100.000
     q_mesh =
               0.00001000     0.04494208     0.09755937     0.15916263
               0.23128650     0.31572767     0.41458969     0.53033537
               0.66584808     0.82450364     1.01025438     1.22772762
               1.48234092     1.78043706     2.12944203     2.53805004
               3.01644009     3.57652955     4.23227104     5.00000000

     Gradients computed in reciprocal space

[...]

     Starting wfc are  111 randomized atomic wfcs

     Self-consistent Calculation

[...]

     total energy              =   -1341.39228870 Ry
     Harris-Foulkes estimate   =   -1341.39228941 Ry
     estimated scf accuracy    <       0.00001196 Ry

     iteration # 22     ecut=    36.75 Ry     beta=0.10
     Davidson diagonalization with overlap
     ethr =  4.80E-09,  avg # of iterations =  1.0

[...]

     negative rho (up, down):  2.215E-03 0.000E+00

     Adding external electric field

     Computed dipole along edir(3) :
        Dipole               -0.0927 Ry au,         -0.2357 Debye
        Dipole field         -0.0002 Ry au

        Potential amp.        0.0188 Ry
        Total length         46.2440 bohr

     End of self-consistent calculation

[...]

          k = 0.0534 0.0000 0.0000 ( 21541 PWs)   bands (ev):

[...]

          k =-0.0801-0.1387 0.0000 ( 21496 PWs)   bands (ev):

   -56.9977 -56.8992 -56.8652 -33.3038 -33.2262 -33.1765 -33.1761 -33.1621
   -33.0733 -33.0729 -33.0498 -33.0495  -7.3167  -7.1531  -7.0782  -6.9587
    -6.9283  -6.9011  -6.8514  -6.8128  -6.8064  -6.7736  -6.6969  -6.6962
    -6.6732  -6.5617  -6.5226  -6.4993  -6.4348  -6.4317  -6.3564  -6.3293
    -6.2971  -6.2880  -6.1982  -6.1856  -6.1774  -6.1616  -6.1573  -6.1327
    -6.1154  -6.1010  -6.0711  -6.0643  -6.0382  -6.0200  -6.0163  -5.9730
    -5.9651  -5.8953  -5.8742  -5.7843  -5.7386  -5.7383  -5.6674  -5.6134
    -5.5251  -5.4499  -5.3323  -4.3654  -4.1788  -3.1503  -2.5243  -2.4116
    -1.4599  -1.0919  -0.4055  -0.2548   0.3104   0.6366   0.6710   0.7808
     0.8283   0.9624   1.0731   1.1336   1.4468   1.4756   1.6334   1.6900
     2.1500   2.1765   2.2682   2.6095   2.8098   2.9406   3.8823   4.2996
     4.3195   4.4107   4.8581   5.0487   5.1066   5.2564   5.4602   5.5093
     5.5424   5.8473   5.9444   6.0440   6.6903   6.7292

     the Fermi energy is     0.8156 ev

!    total energy              =   -1341.39228739 Ry
     Harris-Foulkes estimate   =   -1341.39228822 Ry
     estimated scf accuracy    <       0.00000031 Ry

     The total energy is the sum of the following terms:

     one-electron contribution =   -8549.21475086 Ry
     hartree contribution      =    4339.20179022 Ry
     xc contribution           =    -420.02280354 Ry
     ewald contribution        =    3288.73733044 Ry
     electric field correction =       0.00001889 Ry
     smearing contrib. (-TS)   =      -0.09387254 Ry

     convergence has been achieved in  22 iterations

 BEEF-vdW xc energy contributions
           1 :   -367.311942276845
           2 :    336.731695695031
           3 :   -284.126156408624
           4 :    222.693347599064
           5 :   -165.016340404296
           6 :    119.123138598683
           7 :   -87.2447167911328
           8 :    67.0266154424588
           9 :   -53.9974203148876
          10 :    43.9350575252118
          11 :   -34.2646730387689
          12 :    24.2931158994601
          13 :   -14.6339939247041
          14 :    6.35403533583894
          15 :  -0.263076883618169
          16 :   -3.46859978283533
          17 :    5.33373679156369
          18 :   -6.20941366192710
          19 :    6.90574796569831
          20 :   -7.77300505979247
          21 :    8.59728466494960
          22 :   -8.85963434630293
          23 :    8.18352204093560
          24 :   -6.66537335545718
          25 :    4.86378207820781
          26 :   -3.46669208978614
          27 :    2.86856005450738
          28 :   -2.94299938311508
          29 :    3.15128875055905
          30 :   -2.90424104619933
          31 :   -34.7650318842580
          32 :   -25.4603634209237

     Forces acting on atoms (Ry/au):

     negative rho (up, down):  2.215E-03 0.000E+00
     atom    1 type  1   force =     0.00000002    0.00181591   -0.01638744
     atom    2 type  1   force =     0.00157346   -0.00090835   -0.01638625
     atom    3 type  1   force =    -0.00157293   -0.00090856   -0.01638931
     atom    4 type  2   force =    -0.00000013    0.00000270    0.02809665
     atom    5 type  1   force =     0.00000209   -0.01325800    0.00606393
     atom    6 type  1   force =    -0.01148239    0.00663231    0.00606796
     atom    7 type  1   force =     0.01148212    0.00662998    0.00606663
     atom    8 type  2   force =    -0.00000064   -0.00000408    0.00298869
     atom    9 type  1   force =    -0.00000006   -0.00130272   -0.00022520
     atom   10 type  1   force =    -0.00112807    0.00064919   -0.00022392
     atom   11 type  1   force =     0.00112703    0.00064775   -0.00022598
     atom   12 type  2   force =    -0.00000051    0.00000386    0.00055425

     Total force =     0.047511     Total SCF correction =     0.000808

     entering subroutine stress ...

     negative rho (up, down):  2.215E-03 0.000E+00
          total   stress  (Ry/bohr**3)                   (kbar)     P=   -2.91
  -0.00003806  -0.00000000  -0.00000000         -5.60     -0.00     -0.00
  -0.00000000  -0.00003805   0.00000000         -0.00     -5.60      0.00
  -0.00000000   0.00000000   0.00001673         -0.00      0.00      2.46

 !ASE

     Writing output data file calc.save

     General routines

     Parallel routines

   This run was terminated on:  14:47:57  26Dec2018

   JOB DONE.
Job  /afs/slac/g/suncat/bin/suncat-tsmpirun -x LD_LIBRARY_PATH -wdir /scratch/qe109839_It6Vf pw.x -in pw.inp

TID   HOST_NAME   COMMAND_LINE            STATUS            TERMINATION_TIME
00000 suncat0040 pw.x -in pw.inp   Done                     12/26/2018 14:47:57
00001 suncat0040 pw.x -in pw.inp   Done                     12/26/2018 14:47:57
00002 suncat0040 pw.x -in pw.inp   Done                     12/26/2018 14:47:57
00003 suncat0040 pw.x -in pw.inp   Done                     12/26/2018 14:47:57
00004 suncat0040 pw.x -in pw.inp   Done                     12/26/2018 14:47:57
00005 suncat0040 pw.x -in pw.inp   Done                     12/26/2018 14:47:57
00006 suncat0040 pw.x -in pw.inp   Done                     12/26/2018 14:47:57
00007 suncat0040 pw.x -in pw.inp   Done                     12/26/2018 14:47:57
00008 suncat0179 pw.x -in pw.inp   Done                     12/26/2018 14:47:57
00009 suncat0179 pw.x -in pw.inp   Done                     12/26/2018 14:47:57
00010 suncat0179 pw.x -in pw.inp   Done                     12/26/2018 14:47:57
00011 suncat0179 pw.x -in pw.inp   Done                     12/26/2018 14:47:57
00012 suncat0179 pw.x -in pw.inp   Done                     12/26/2018 14:47:57
00013 suncat0179 pw.x -in pw.inp   Done                     12/26/2018 14:47:57
00014 suncat0179 pw.x -in pw.inp   Done                     12/26/2018 14:47:57
00015 suncat0179 pw.x -in pw.inp   Done                     12/26/2018 14:47:57
00016 suncat0147 pw.x -in pw.inp   Done                     12/26/2018 14:47:57
00017 suncat0147 pw.x -in pw.inp   Done                     12/26/2018 14:47:57
00018 suncat0147 pw.x -in pw.inp   Done                     12/26/2018 14:47:57
00019 suncat0147 pw.x -in pw.inp   Done                     12/26/2018 14:47:57
00020 suncat0147 pw.x -in pw.inp   Done                     12/26/2018 14:47:57
00021 suncat0147 pw.x -in pw.inp   Done                     12/26/2018 14:47:57
00022 suncat0147 pw.x -in pw.inp   Done                     12/26/2018 14:47:57
00023 suncat0147 pw.x -in pw.inp   Done                     12/26/2018 14:47:57
00024 suncat0146 pw.x -in pw.inp   Done                     12/26/2018 14:47:57
00025 suncat0146 pw.x -in pw.inp   Done                     12/26/2018 14:47:57
00026 suncat0146 pw.x -in pw.inp   Done                     12/26/2018 14:47:57
00027 suncat0146 pw.x -in pw.inp   Done                     12/26/2018 14:47:57
00028 suncat0146 pw.x -in pw.inp   Done                     12/26/2018 14:47:57
00029 suncat0146 pw.x -in pw.inp   Done                     12/26/2018 14:47:57
00030 suncat0146 pw.x -in pw.inp   Done                     12/26/2018 14:47:57
00031 suncat0146 pw.x -in pw.inp   Done                     12/26/2018 14:47:57
00032 suncat0272 pw.x -in pw.inp   Done                     12/26/2018 14:47:57
00033 suncat0272 pw.x -in pw.inp   Done                     12/26/2018 14:47:57
00034 suncat0272 pw.x -in pw.inp   Done                     12/26/2018 14:47:57
00035 suncat0272 pw.x -in pw.inp   Done                     12/26/2018 14:47:57
00036 suncat0272 pw.x -in pw.inp   Done                     12/26/2018 14:47:57
00037 suncat0272 pw.x -in pw.inp   Done                     12/26/2018 14:47:57
00038 suncat0272 pw.x -in pw.inp   Done                     12/26/2018 14:47:57
00039 suncat0272 pw.x -in pw.inp   Done                     12/26/2018 14:47:57
00040 suncat0271 pw.x -in pw.inp   Done                     12/26/2018 14:47:57
00041 suncat0271 pw.x -in pw.inp   Done                     12/26/2018 14:47:57
00042 suncat0271 pw.x -in pw.inp   Done                     12/26/2018 14:47:57
00043 suncat0271 pw.x -in pw.inp   Done                     12/26/2018 14:47:57
00044 suncat0271 pw.x -in pw.inp   Done                     12/26/2018 14:47:57
00045 suncat0271 pw.x -in pw.inp   Done                     12/26/2018 14:47:57
00046 suncat0271 pw.x -in pw.inp   Done                     12/26/2018 14:47:57
00047 suncat0271 pw.x -in pw.inp   Done                     12/26/2018 14:47:57
00048 suncat0260 pw.x -in pw.inp   Done                     12/26/2018 14:47:57
00049 suncat0260 pw.x -in pw.inp   Done                     12/26/2018 14:47:57
00050 suncat0260 pw.x -in pw.inp   Done                     12/26/2018 14:47:57
00051 suncat0260 pw.x -in pw.inp   Done                     12/26/2018 14:47:57
00052 suncat0260 pw.x -in pw.inp   Done                     12/26/2018 14:47:57
00053 suncat0260 pw.x -in pw.inp   Done                     12/26/2018 14:47:57
00054 suncat0260 pw.x -in pw.inp   Done                     12/26/2018 14:47:57
00055 suncat0260 pw.x -in pw.inp   Done                     12/26/2018 14:47:57
00056 suncat0259 pw.x -in pw.inp   Done                     12/26/2018 14:47:57
00057 suncat0259 pw.x -in pw.inp   Done                     12/26/2018 14:47:57
00058 suncat0259 pw.x -in pw.inp   Done                     12/26/2018 14:47:57
00059 suncat0259 pw.x -in pw.inp   Done                     12/26/2018 14:47:57
00060 suncat0259 pw.x -in pw.inp   Done                     12/26/2018 14:47:57
00061 suncat0259 pw.x -in pw.inp   Done                     12/26/2018 14:47:57
00062 suncat0259 pw.x -in pw.inp   Done                     12/26/2018 14:47:57
00063 suncat0259 pw.x -in pw.inp   Done                     12/26/2018 14:47:57