     Program PWSCF v.5.1rc2 (svn rev. 11289) starts on 30Dec2018 at  8:51:18

     Current dimensions of program PWSCF are:
     Max number of different atomic species (ntypx) = 10
     Max number of k-points (npk) =  40000
     Max angular momentum in pseudopotentials (lmaxx) =  3
     Presently stress not available with electric field

     IMPORTANT: XC functional enforced from input :
     Exchange-correlation      = BEEF-VDW ( 1  4 27 13 2)
     Any further DFT definition will be discarded
     Please, verify this is what you really want

     Subspace diagonalization in iterative solution of the eigenvalue problem:
     a serial algorithm will be used

     bravais-lattice index     =            0
     lattice parameter (alat)  =       1.8897  a.u.
     unit-cell volume          =    6851.0395 (a.u.)^3
     number of atoms/cell      =           12
     number of atomic types    =            2
     number of electrons       =       153.00
     number of Kohn-Sham states=          106
     kinetic-energy cutoff     =      36.7493  Ry
     charge density cutoff     =     367.4932  Ry
     convergence threshold     =      1.0E-06
     mixing beta               =       0.1000
     number of iterations used =           10  plain     mixing
     Exchange-correlation      = BEEF-VDW ( 1  4 27 13 2)
     nstep                     =           50

     celldm(1)=   1.889726  celldm(2)=   0.000000  celldm(3)=   0.000000
     celldm(4)=   0.000000  celldm(5)=   0.000000  celldm(6)=   0.000000

     crystal axes: (cart. coord. in units of alat)
               a(1) = (   6.775914   0.000000   0.000000 )
               a(2) = (  -3.387957   5.868113   0.000000 )
               a(3) = (   0.000000   0.000000  25.532510 )

     reciprocal axes: (cart. coord. in units 2 pi/alat)
               b(1) = (  0.147582  0.085206  0.000000 )
               b(2) = (  0.000000  0.170413  0.000000 )
               b(3) = (  0.000000  0.000000  0.039166 )

     PseudoPot. # 1 for In read from file:
     /afs/slac.stanford.edu/u/if/mamunm/psp/gbrv1.5pbe/In.UPF
     MD5 check sum: 90777abd96fbb83f2e67db2a40c566b9
     Pseudo is Ultrasoft + core correction, Zval = 13.0
     Generated by new atomic code, or converted to UPF format
     Using radial grid of  889 points,  6 beta functions with:
                l(1) =   0
                l(2) =   0
                l(3) =   1
                l(4) =   1
                l(5) =   2
                l(6) =   2
     Q(r) pseudized with  6 coefficients,  rinner =    1.400   1.400   1.400
                                                       1.400   1.400

     PseudoPot. # 2 for Cd read from file:
     /afs/slac.stanford.edu/u/if/mamunm/psp/gbrv1.5pbe/Cd.UPF
     MD5 check sum: 17164a7926edb8e0dc231208abae86a6
     Pseudo is Ultrasoft + core correction, Zval = 12.0
     Generated by new atomic code, or converted to UPF format
     Using radial grid of  889 points,  6 beta functions with:
                l(1) =   0
                l(2) =   0
                l(3) =   1
                l(4) =   1
                l(5) =   2
                l(6) =   2
     Q(r) pseudized with  6 coefficients,  rinner =    1.000   1.000   1.000
                                                       1.000   1.000

     vdW kernel table read from file vdW_kernel_table
     MD5 check sum: 095c7af220d748ca6e76c0b4c6cfb241

     atomic species   valence    mass     pseudopotential
        In1           13.00   114.81800     In( 1.00)
        Cd1           12.00   112.41400     Cd( 1.00)

     No symmetry found

   Cartesian axes

     site n.     atom                  positions (alat units)
         1           In1 tau(   1) = (   0.0000000   0.0000000  10.0000000  )
         2           In1 tau(   2) = (  -1.6939784   2.9340567  10.0000000  )
         3           In1 tau(   3) = (   1.6939784   2.9340567  10.0000000  )
         4           Cd1 tau(   4) = (   3.3879568   0.0000000  10.0000000  )
         5           In1 tau(   5) = (   3.3879568   1.9560378  12.7662552  )
         6           In1 tau(   6) = (   1.6939784   4.8900945  12.7662552  )
         7           In1 tau(   7) = (  -1.6939784   4.8900945  12.7662552  )
         8           Cd1 tau(   8) = (   0.0000000   1.9560378  12.7662552  )
         9           In1 tau(   9) = (  -0.0000000   3.9120756  15.5325103  )
        10           In1 tau(  10) = (   1.6939784   0.9780189  15.5325103  )
        11           In1 tau(  11) = (   5.0819352   0.9780189  15.5325103  )
        12           Cd1 tau(  12) = (   3.3879568   3.9120756  15.5325103  )

     number of k points=    20  Fermi-Dirac smearing, width (Ry)=  0.0110
                       cart. coord. in units 2pi/alat
        k(    1) = (   0.0000000   0.0000000   0.0000000), wk =   0.0555556
        k(    2) = (   0.0000000   0.0284021   0.0000000), wk =   0.1111111
        k(    3) = (   0.0000000   0.0568042   0.0000000), wk =   0.1111111
        k(    4) = (   0.0000000  -0.0852063   0.0000000), wk =   0.0555556
        k(    5) = (   0.0245969   0.0142010   0.0000000), wk =   0.1111111
        k(    6) = (   0.0245969   0.0426031   0.0000000), wk =   0.1111111
        k(    7) = (   0.0245969   0.0710052   0.0000000), wk =   0.1111111
        k(    8) = (   0.0245969  -0.0710052   0.0000000), wk =   0.1111111
        k(    9) = (   0.0245969  -0.0426031   0.0000000), wk =   0.1111111
        k(   10) = (   0.0245969  -0.0142010   0.0000000), wk =   0.1111111
        k(   11) = (   0.0491939   0.0284021   0.0000000), wk =   0.1111111
        k(   12) = (   0.0491939   0.0568042   0.0000000), wk =   0.1111111
        k(   13) = (   0.0491939   0.0852063   0.0000000), wk =   0.1111111
        k(   14) = (   0.0491939  -0.0568042   0.0000000), wk =   0.1111111
        k(   15) = (   0.0491939  -0.0284021   0.0000000), wk =   0.1111111
        k(   16) = (   0.0491939   0.0000000   0.0000000), wk =   0.1111111
        k(   17) = (  -0.0737908  -0.0426031   0.0000000), wk =   0.0555556
        k(   18) = (  -0.0737908  -0.0142010   0.0000000), wk =   0.1111111
        k(   19) = (  -0.0737908   0.0142010   0.0000000), wk =   0.1111111
        k(   20) = (  -0.0737908  -0.1278094   0.0000000), wk =   0.0555556

     Largest allocated arrays     est. size (Mb)     dimensions
     Largest temporary arrays     est. size (Mb)     dimensions

     Initial potential from superposition of free atoms
     Check: negative starting charge=   -0.064783

     starting charge  137.99987, renormalised to  153.00000

     negative rho (up, down):  7.183E-02 0.000E+00

     *
     * You are using vdW-DF for exchange-correlation in this calculation.
     * Please cite the following three references that made this development
     * possible:
     *
     *   M. Dion, H. Rydberg, E. Schroder, D. C. Langreth, and
     *   B. I. Lundqvist, Phys. Rev. Lett. 92, 246401 (2004).
     *
     *   T. Thonhauser, V. R. Cooper, S. Li, A. Puzder, P. Hyldgaard, and
     *   D. C. Langreth, Phys. Rev. B 76, 125112 (2007).
     *
     *   G. Roman-Perez and J. M. Soler, Phys. Rev. Lett. 103, 096102 (2009).
     *
     *
     * If you are using vdW-DF2, please also cite:
     *
     *   K. Lee, E. D. Murray, L. Kong, B. I. Lundqvist, and
     *   D. C. Langreth, Phys. Rev. B 82, 081101(R) (2010).
     *
     *
     * If you are calculating the stress with vdW-DF, please also cite:
     *
     *   R. Sabatini, E. Kucukbenli, B. Kolb, T. Thonhauser, and
     *   S. de Gironcoli, J. Phys.: Condens. Matter 24, 424209 (2012).
     *

     Carrying out vdW-DF run using the following parameters:

     Nqs =      20    Nr_points =    1024   r_max =   100.000
     q_mesh =
               0.00001000     0.04494208     0.09755937     0.15916263
               0.23128650     0.31572767     0.41458969     0.53033537
               0.66584808     0.82450364     1.01025438     1.22772762
               1.48234092     1.78043706     2.12944203     2.53805004
               3.01644009     3.57652955     4.23227104     5.00000000

     Gradients computed in reciprocal space

     Adding external electric field

     Computed dipole along edir(3) :
        Dipole               -0.0000 Ry au,         -0.0000 Debye
        Dipole field         -0.0000 Ry au

        Potential amp.        0.0000 Ry
        Total length         47.0432 bohr

     Starting wfc are  108 randomized atomic wfcs

     Self-consistent Calculation

     iteration #  1     ecut=    36.75 Ry     beta=0.10
     Davidson diagonalization with overlap
     ethr =  1.00E-02,  avg # of iterations =  8.0

[...]

     total energy              =   -1564.95551334 Ry
     Harris-Foulkes estimate   =   -1571.18153799 Ry
     estimated scf accuracy    <      37.07917600 Ry

[...]

     End of self-consistent calculation

          k = 0.0000 0.0000 0.0000 ( 25893 PWs)   bands (ev):

   -14.8289 -14.8108 -14.8108 -14.7895 -14.7785 -14.7596 -14.7433 -14.7433
   -14.7396 -14.7347 -14.7347 -14.7140 -14.7140 -14.7020 -14.7020 -14.6930
   -14.6894 -14.6674 -14.6507 -14.6507 -14.6302 -14.6112 -14.6112 -14.6076
   -14.5882 -14.5882 -14.5856 -14.5786 -14.5786 -14.5700 -14.5700 -14.5642
   -14.5642 -14.5458 -14.5458 -14.5113 -14.5113 -14.5033 -14.5005 -14.5005
   -14.4630 -14.4608 -14.4608 -14.4376 -14.4324  -8.6384  -8.6239  -8.6239
    -8.5930  -8.5930  -8.5081  -8.4837  -8.4837  -8.4832  -8.4727  -8.4727
    -8.4566  -8.4566  -8.4464  -8.4464  -8.1402  -6.8583  -4.9739  -3.8532
    -3.8532  -3.5023  -3.5023  -2.8021  -2.7018  -2.4333  -2.4333  -1.8469
    -1.6888  -1.6888  -1.4158  -1.3321  -0.3301  -0.3301  -0.0789  -0.0789
     0.1535   0.2929   1.3386   3.0206   3.0206   3.0420   3.0420   3.0762
     3.5706   3.5994   3.8910   4.4332   4.7445   4.7693   5.1848   5.1848
     5.4696   5.4696   5.8187   6.0154   6.2749   6.3279   6.4539   6.4544
     6.4836   6.5728

[...]

          k =-0.0738-0.0426 0.0000 ( 25774 PWs)   bands (ev):

[...]

     the Fermi energy is     0.2559 ev

!    total energy              =   -1561.23211396 Ry
     Harris-Foulkes estimate   =   -1561.23209864 Ry
     estimated scf accuracy    <       0.00000036 Ry

     The total energy is the sum of the following terms:

     one-electron contribution =   -8358.75323242 Ry
     hartree contribution      =    4260.41324448 Ry
     xc contribution           =    -474.16825973 Ry
     ewald contribution        =    3011.31561101 Ry
     electric field correction =       0.00000000 Ry
     smearing contrib. (-TS)   =      -0.03947731 Ry

     convergence has been achieved in  15 iterations

 BEEF-vdW xc energy contributions
           1 :   -415.406002841823
           2 :    379.501345546379
           3 :   -319.021547527559
           4 :    251.245256296253
           5 :   -191.886317927998
           6 :    149.308442447355
           7 :   -122.983649221869
           8 :    106.298161851786
           9 :   -91.6052924687771
          10 :    74.5324386004779
          11 :   -55.4229912096533
          12 :    37.7291070201213
          13 :   -24.9405730282762
          14 :    18.1800597393542
          15 :   -15.7855540008727
          16 :    14.7268603820070
          17 :   -12.6032637237620
[...]

     PseudoPot. # 1 for In read from file:
     /afs/slac.stanford.edu/u/if/mamunm/psp/gbrv1.5pbe/In.UPF
     MD5 check sum: 90777abd96fbb83f2e67db2a40c566b9
     Pseudo is Ultrasoft + core correction, Zval = 13.0
     Generated by new atomic code, or converted to UPF format
     Using radial grid of  889 points,  6 beta functions with:
                l(1) =   0
                l(2) =   0
                l(3) =   1
                l(4) =   1
                l(5) =   2
                l(6) =   2
     Q(r) pseudized with  6 coefficients,  rinner =    1.400   1.400   1.400
                                                       1.400   1.400

     PseudoPot. # 2 for Cd read from file:
     /afs/slac.stanford.edu/u/if/mamunm/psp/gbrv1.5pbe/Cd.UPF
     MD5 check sum: 17164a7926edb8e0dc231208abae86a6
     Pseudo is Ultrasoft + core correction, Zval = 12.0
     Generated by new atomic code, or converted to UPF format
     Using radial grid of  889 points,  6 beta functions with:
                l(1) =   0
                l(2) =   0
                l(3) =   1
                l(4) =   1
                l(5) =   2
                l(6) =   2
     Q(r) pseudized with  6 coefficients,  rinner =    1.000   1.000   1.000
                                                       1.000   1.000

     vdW kernel table read from file vdW_kernel_table
     MD5 check sum: 095c7af220d748ca6e76c0b4c6cfb241

     atomic species   valence    mass     pseudopotential
        In1           13.00   114.81800     In( 1.00)
        Cd1           12.00   112.41400     Cd( 1.00)

     No symmetry found

   Cartesian axes

     site n.     atom                  positions (alat units)
         1           In1 tau(   1) = (   0.0000000   0.0000000  10.0000000  )
         2           In1 tau(   2) = (  -1.6939784   2.9340567  10.0000000  )
         3           In1 tau(   3) = (   1.6939784   2.9340567  10.0000000  )
         4           Cd1 tau(   4) = (   3.3879568   0.0000000  10.0000000  )
         5           In1 tau(   5) = (   3.3879568   1.9560378  12.7662552  )
         6           In1 tau(   6) = (   1.6939784   4.8900945  12.7662552  )
         7           In1 tau(   7) = (  -1.6939784   4.8900945  12.7662552  )
         8           Cd1 tau(   8) = (   0.0000000   1.9560378  12.7662552  )
         9           In1 tau(   9) = (  -0.0000150   3.9059527  15.5723280  )
        10           In1 tau(  10) = (   1.6886731   0.9810889  15.5723196  )
        11           In1 tau(  11) = (   5.0872460   0.9810872  15.5723160  )
        12           Cd1 tau(  12) = (   3.3879387   3.9120488  15.5660100  )

     number of k points=    20  Fermi-Dirac smearing, width (Ry)=  0.0110
                       cart. coord. in units 2pi/alat
        k(    1) = (   0.0000000   0.0000000   0.0000000), wk =   0.0555556
        k(    2) = (   0.0000000   0.0284021   0.0000000), wk =   0.1111111
        k(    3) = (   0.0000000   0.0568042   0.0000000), wk =   0.1111111
        k(    4) = (   0.0000000  -0.0852063   0.0000000), wk =   0.0555556
        k(    5) = (   0.0245969   0.0142010   0.0000000), wk =   0.1111111
        k(    6) = (   0.0245969   0.0426031   0.0000000), wk =   0.1111111
        k(    7) = (   0.0245969   0.0710052   0.0000000), wk =   0.1111111
        k(    8) = (   0.0245969  -0.0710052   0.0000000), wk =   0.1111111
        k(    9) = (   0.0245969  -0.0426031   0.0000000), wk =   0.1111111
        k(   10) = (   0.0245969  -0.0142010   0.0000000), wk =   0.1111111
        k(   11) = (   0.0491939   0.0284021   0.0000000), wk =   0.1111111
        k(   12) = (   0.0491939   0.0568042   0.0000000), wk =   0.1111111
        k(   13) = (   0.0491939   0.0852063   0.0000000), wk =   0.1111111
        k(   14) = (   0.0491939  -0.0568042   0.0000000), wk =   0.1111111
        k(   15) = (   0.0491939  -0.0284021   0.0000000), wk =   0.1111111
        k(   16) = (   0.0491939   0.0000000   0.0000000), wk =   0.1111111
        k(   17) = (  -0.0737908  -0.0426031   0.0000000), wk =   0.0555556
        k(   18) = (  -0.0737908  -0.0142010   0.0000000), wk =   0.1111111
        k(   19) = (  -0.0737908   0.0142010   0.0000000), wk =   0.1111111
        k(   20) = (  -0.0737908  -0.1278094   0.0000000), wk =   0.0555556

     Largest allocated arrays     est. size (Mb)     dimensions
     Largest temporary arrays     est. size (Mb)     dimensions

     Initial potential from superposition of free atoms
     Check: negative starting charge=   -0.064832

     starting charge  137.99987, renormalised to  153.00000

[...]

     *
     * You are using vdW-DF for exchange-correlation in this calculation.
     * Please cite the following three references that made this development
     * possible:
     *
     *   M. Dion, H. Rydberg, E. Schroder, D. C. Langreth, and
     *   B. I. Lundqvist, Phys. Rev. Lett. 92, 246401 (2004).
     *
     *   T. Thonhauser, V. R. Cooper, S. Li, A. Puzder, P. Hyldgaard, and
     *   D. C. Langreth, Phys. Rev. B 76, 125112 (2007).
     *
     *   G. Roman-Perez and J. M. Soler, Phys. Rev. Lett. 103, 096102 (2009).
     *
     *
     * If you are using vdW-DF2, please also cite:
     *
     *   K. Lee, E. D. Murray, L. Kong, B. I. Lundqvist, and
     *   D. C. Langreth, Phys. Rev. B 82, 081101(R) (2010).
     *
     *
     * If you are calculating the stress with vdW-DF, please also cite:
     *
     *   R. Sabatini, E. Kucukbenli, B. Kolb, T. Thonhauser, and
     *   S. de Gironcoli, J. Phys.: Condens. Matter 24, 424209 (2012).
     *

     Carrying out vdW-DF run using the following parameters:

     Nqs =      20    Nr_points =    1024   r_max =   100.000
     q_mesh =
               0.00001000     0.04494208     0.09755937     0.15916263
               0.23128650     0.31572767     0.41458969     0.53033537
               0.66584808     0.82450364     1.01025438     1.22772762
               1.48234092     1.78043706     2.12944203     2.53805004
               3.01644009     3.57652955     4.23227104     5.00000000

     Gradients computed in reciprocal space

[...]

     Starting wfc are  108 randomized atomic wfcs

     Self-consistent Calculation

[...]

     total energy              =   -1561.23265511 Ry
     Harris-Foulkes estimate   =   -1561.23265047 Ry
     estimated scf accuracy    <       0.00000260 Ry

     iteration # 15     ecut=    36.75 Ry     beta=0.10
     Davidson diagonalization with overlap
     ethr =  1.70E-09,  avg # of iterations =  2.0

[...]

     negative rho (up, down):  6.684E-02 0.000E+00

     Adding external electric field

     Computed dipole along edir(3) :
        Dipole                0.0057 Ry au,          0.0146 Debye
        Dipole field          0.0000 Ry au

        Potential amp.       -0.0010 Ry
        Total length         47.0432 bohr

     End of self-consistent calculation

[...]

          k = 0.0492 0.0000 0.0000 ( 25767 PWs)   bands (ev):

[...]

          k =-0.0738-0.1278 0.0000 ( 25774 PWs)   bands (ev):

   -14.7899 -14.7486 -14.7433 -14.7343 -14.7272 -14.7107 -14.7075 -14.7048
   -14.6937 -14.6824 -14.6769 -14.6744 -14.6584 -14.6548 -14.6468 -14.6425
   -14.6333 -14.6323 -14.6254 -14.6139 -14.6138 -14.6125 -14.6086 -14.6066
   -14.6065 -14.6059 -14.6042 -14.5931 -14.5904 -14.5873 -14.5845 -14.5816
   -14.5790 -14.5585 -14.5555 -14.5530 -14.5515 -14.5501 -14.5423 -14.5373
   -14.5228 -14.5192 -14.4922 -14.4691 -14.4449  -8.6307  -8.5987  -8.5928
    -8.5784  -8.5727  -8.4874  -8.4756  -8.4717  -8.4703  -8.4628  -8.4604
    -8.4561  -8.4482  -8.4424  -8.4334  -7.0145  -6.8354  -5.8052  -5.5573
    -4.7433  -4.4354  -4.0008  -3.5889  -3.3586  -2.6996  -2.1326  -1.2065
    -0.2221  -0.1720   0.2898   0.3651   0.6155   0.6677   1.3065   1.5999
     1.6469   1.7704   2.2505   2.3046   2.5162   2.5921   2.8686   3.0517
     3.3406   3.5545   3.6872   3.8062   4.0588   4.1714   4.2130   4.2297
     4.4566   4.6305   4.8098   4.8425   5.4658   5.4832   5.5585   5.8197
     5.8722   5.8963

     the Fermi energy is     0.2646 ev

!    total energy              =   -1561.23267182 Ry
     Harris-Foulkes estimate   =   -1561.23265574 Ry
     estimated scf accuracy    <       0.00000034 Ry

     The total energy is the sum of the following terms:

     one-electron contribution =   -8314.22512070 Ry
     hartree contribution      =    4238.19672928 Ry
     xc contribution           =    -474.14914745 Ry
     ewald contribution        =    2988.98432749 Ry
     electric field correction =       0.00000006 Ry
     smearing contrib. (-TS)   =      -0.03946050 Ry

     convergence has been achieved in  15 iterations

 BEEF-vdW xc energy contributions
           1 :   -415.385023950336
           2 :    379.464981050394
           3 :   -318.967533806770
           4 :    251.187519554076
           5 :   -191.845557196512
           6 :    149.297367438922
           7 :   -122.997843875164
           8 :    106.318990229307
           9 :   -91.6126688378087
          10 :    74.5180745977365
          11 :   -55.3946854106690
          12 :    37.7037677197299
          13 :   -24.9316072382974
          14 :    18.1882717665317
          15 :   -15.8002522498283
          16 :    14.7353321463462
          17 :   -12.6001846044916
          18 :    8.84057235153728
          19 :   -4.55638613793985
          20 :    1.33760541027198
          21 :  -6.966357438818704E-002
          22 :   0.477391081651831
          23 :   -1.53631675543960
          24 :    2.27534885515189
          25 :   -2.33975210538620
          26 :    1.99246961856682
          27 :   -1.70417684999040
          28 :    1.73820198342082
          29 :   -2.03822429913976
          30 :    2.41401531918279
          31 :   -37.5552124590344
          32 :   -27.2142157523618

     Forces acting on atoms (Ry/au):

     negative rho (up, down):  6.684E-02 0.000E+00
     atom    1 type  1   force =     0.00000051    0.00074217   -0.00305529
     atom    2 type  1   force =     0.00064168   -0.00037043   -0.00305480
     atom    3 type  1   force =    -0.00064203   -0.00037095   -0.00305510
     atom    4 type  2   force =    -0.00000074   -0.00000100   -0.00242240
     atom    5 type  1   force =    -0.00000053   -0.00027291    0.00183445
     atom    6 type  1   force =    -0.00023709    0.00013676    0.00183635
     atom    7 type  1   force =     0.00023706    0.00013637    0.00183540
     atom    8 type  2   force =     0.00000117    0.00000053    0.00131025
     atom    9 type  1   force =    -0.00000091    0.00034480    0.00114627
     atom   10 type  1   force =     0.00029775   -0.00017346    0.00114745
     atom   11 type  1   force =    -0.00029739   -0.00017174    0.00114701
     atom   12 type  2   force =     0.00000053   -0.00000016    0.00133042

     Total force =     0.007324     Total SCF correction =     0.001185
     SCF correction compared to forces is large: reduce conv_thr to get better values

     entering subroutine stress ...

     negative rho (up, down):  6.684E-02 0.000E+00
          total   stress  (Ry/bohr**3)                   (kbar)     P=   -3.30
  -0.00003470  -0.00000000   0.00000000         -5.10     -0.00      0.00
  -0.00000000  -0.00003470  -0.00000000         -0.00     -5.10     -0.00
   0.00000000  -0.00000000   0.00000207          0.00     -0.00      0.31

 !ASE

     Writing output data file calc.save

     General routines

     Parallel routines

   This run was terminated on:   9:43:28  30Dec2018

   JOB DONE.
Job  /afs/slac/g/suncat/bin/suncat-tsmpirun -x LD_LIBRARY_PATH -wdir /scratch/qe648496_8PbBC pw.x -in pw.inp

TID   HOST_NAME   COMMAND_LINE            STATUS            TERMINATION_TIME
00000 suncat0058 pw.x -in pw.inp   Done                     12/30/2018 09:43:28
00001 suncat0058 pw.x -in pw.inp   Done                     12/30/2018 09:43:28
00002 suncat0058 pw.x -in pw.inp   Done                     12/30/2018 09:43:28
00003 suncat0058 pw.x -in pw.inp   Done                     12/30/2018 09:43:28
00004 suncat0058 pw.x -in pw.inp   Done                     12/30/2018 09:43:28
00005 suncat0058 pw.x -in pw.inp   Done                     12/30/2018 09:43:28
00006 suncat0058 pw.x -in pw.inp   Done                     12/30/2018 09:43:28
00007 suncat0058 pw.x -in pw.inp   Done                     12/30/2018 09:43:28
00008 suncat0054 pw.x -in pw.inp   Done                     12/30/2018 09:43:28
00009 suncat0054 pw.x -in pw.inp   Done                     12/30/2018 09:43:28
00010 suncat0054 pw.x -in pw.inp   Done                     12/30/2018 09:43:28
00011 suncat0054 pw.x -in pw.inp   Done                     12/30/2018 09:43:28
00012 suncat0054 pw.x -in pw.inp   Done                     12/30/2018 09:43:28
00013 suncat0054 pw.x -in pw.inp   Done                     12/30/2018 09:43:28
00014 suncat0054 pw.x -in pw.inp   Done                     12/30/2018 09:43:28
00015 suncat0054 pw.x -in pw.inp   Done                     12/30/2018 09:43:28
00016 suncat0180 pw.x -in pw.inp   Done                     12/30/2018 09:43:28
00017 suncat0180 pw.x -in pw.inp   Done                     12/30/2018 09:43:28
00018 suncat0180 pw.x -in pw.inp   Done                     12/30/2018 09:43:28
00019 suncat0180 pw.x -in pw.inp   Done                     12/30/2018 09:43:28
00020 suncat0180 pw.x -in pw.inp   Done                     12/30/2018 09:43:28
00021 suncat0180 pw.x -in pw.inp   Done                     12/30/2018 09:43:28
00022 suncat0180 pw.x -in pw.inp   Done                     12/30/2018 09:43:28
00023 suncat0180 pw.x -in pw.inp   Done                     12/30/2018 09:43:28
00024 suncat0167 pw.x -in pw.inp   Done                     12/30/2018 09:43:28
00025 suncat0167 pw.x -in pw.inp   Done                     12/30/2018 09:43:28
00026 suncat0167 pw.x -in pw.inp   Done                     12/30/2018 09:43:28
00027 suncat0167 pw.x -in pw.inp   Done                     12/30/2018 09:43:28
00028 suncat0167 pw.x -in pw.inp   Done                     12/30/2018 09:43:28
00029 suncat0167 pw.x -in pw.inp   Done                     12/30/2018 09:43:28
00030 suncat0167 pw.x -in pw.inp   Done                     12/30/2018 09:43:28
00031 suncat0167 pw.x -in pw.inp   Done                     12/30/2018 09:43:28
00032 suncat0166 pw.x -in pw.inp   Done                     12/30/2018 09:43:28
00033 suncat0166 pw.x -in pw.inp   Done                     12/30/2018 09:43:28
00034 suncat0166 pw.x -in pw.inp   Done                     12/30/2018 09:43:28
00035 suncat0166 pw.x -in pw.inp   Done                     12/30/2018 09:43:28
00036 suncat0166 pw.x -in pw.inp   Done                     12/30/2018 09:43:28
00037 suncat0166 pw.x -in pw.inp   Done                     12/30/2018 09:43:28
00038 suncat0166 pw.x -in pw.inp   Done                     12/30/2018 09:43:28
00039 suncat0166 pw.x -in pw.inp   Done                     12/30/2018 09:43:28
00040 suncat0149 pw.x -in pw.inp   Done                     12/30/2018 09:43:28
00041 suncat0149 pw.x -in pw.inp   Done                     12/30/2018 09:43:28
00042 suncat0149 pw.x -in pw.inp   Done                     12/30/2018 09:43:28
00043 suncat0149 pw.x -in pw.inp   Done                     12/30/2018 09:43:28
00044 suncat0149 pw.x -in pw.inp   Done                     12/30/2018 09:43:28
00045 suncat0149 pw.x -in pw.inp   Done                     12/30/2018 09:43:28
00046 suncat0149 pw.x -in pw.inp   Done                     12/30/2018 09:43:28
00047 suncat0149 pw.x -in pw.inp   Done                     12/30/2018 09:43:28
00048 suncat0148 pw.x -in pw.inp   Done                     12/30/2018 09:43:28
00049 suncat0148 pw.x -in pw.inp   Done                     12/30/2018 09:43:28
00050 suncat0148 pw.x -in pw.inp   Done                     12/30/2018 09:43:28
00051 suncat0148 pw.x -in pw.inp   Done                     12/30/2018 09:43:28
00052 suncat0148 pw.x -in pw.inp   Done                     12/30/2018 09:43:28
00053 suncat0148 pw.x -in pw.inp   Done                     12/30/2018 09:43:28
00054 suncat0148 pw.x -in pw.inp   Done                     12/30/2018 09:43:28
00055 suncat0148 pw.x -in pw.inp   Done                     12/30/2018 09:43:28
00056 suncat0142 pw.x -in pw.inp   Done                     12/30/2018 09:43:28
00057 suncat0142 pw.x -in pw.inp   Done                     12/30/2018 09:43:28
00058 suncat0142 pw.x -in pw.inp   Done                     12/30/2018 09:43:28
00059 suncat0142 pw.x -in pw.inp   Done                     12/30/2018 09:43:28
00060 suncat0142 pw.x -in pw.inp   Done                     12/30/2018 09:43:28
00061 suncat0142 pw.x -in pw.inp   Done                     12/30/2018 09:43:28
00062 suncat0142 pw.x -in pw.inp   Done                     12/30/2018 09:43:28
00063 suncat0142 pw.x -in pw.inp   Done                     12/30/2018 09:43:28