     Program PWSCF v.5.1rc2 (svn rev. 11289) starts on 31Dec2018 at 10:20:29

     Current dimensions of program PWSCF are:
     Max number of different atomic species (ntypx) = 10
     Max number of k-points (npk) =  40000
     Max angular momentum in pseudopotentials (lmaxx) =  3
     Presently stress not available with electric field

     IMPORTANT: XC functional enforced from input :
     Exchange-correlation      = BEEF-VDW ( 1  4 27 13 2)
     Any further DFT definition will be discarded
     Please, verify this is what you really want

     Subspace diagonalization in iterative solution of the eigenvalue problem:
     a serial algorithm will be used

     bravais-lattice index     =            0
     lattice parameter (alat)  =       1.8897  a.u.
     unit-cell volume          =    6753.3166 (a.u.)^3
     number of atoms/cell      =           12
     number of atomic types    =            2
     number of electrons       =       165.00
     number of Kohn-Sham states=          112
     kinetic-energy cutoff     =      36.7493  Ry
     charge density cutoff     =     367.4932  Ry
     convergence threshold     =      1.0E-06
     mixing beta               =       0.1000
     number of iterations used =           10  plain     mixing
     Exchange-correlation      = BEEF-VDW ( 1  4 27 13 2)
     nstep                     =           50

     celldm(1)=   1.889726  celldm(2)=   0.000000  celldm(3)=   0.000000
     celldm(4)=   0.000000  celldm(5)=   0.000000  celldm(6)=   0.000000

     crystal axes: (cart. coord. in units of alat)
               a(1) = (   6.732129   0.000000   0.000000 )
               a(2) = (  -3.366065   5.830195   0.000000 )
               a(3) = (   0.000000   0.000000  25.496760 )

     reciprocal axes: (cart. coord. in units 2 pi/alat)
               b(1) = (  0.148541  0.085760  0.000000 )
               b(2) = (  0.000000  0.171521  0.000000 )
               b(3) = (  0.000000  0.000000  0.039221 )

     PseudoPot. # 1 for Pb read from file:
     /afs/slac.stanford.edu/u/if/mamunm/psp/gbrv1.5pbe/Pb.UPF
     MD5 check sum: 3d1c1779aa92214d1e8f3a7db79003e2
     Pseudo is Ultrasoft + core correction, Zval = 14.0
     Generated by new atomic code, or converted to UPF format
     Using radial grid of  899 points,  6 beta functions with:
                l(1) =   0
                l(2) =   0
                l(3) =   1
                l(4) =   1
                l(5) =   2
                l(6) =   2
     Q(r) pseudized with  6 coefficients,  rinner =    1.000   1.000   1.000
                                                       1.000   1.000

     PseudoPot. # 2 for Nb read from file:
     /afs/slac.stanford.edu/u/if/mamunm/psp/gbrv1.5pbe/Nb.UPF
     MD5 check sum: 573aab8a2fa660278ed4a62cd769473f
     Pseudo is Ultrasoft + core correction, Zval = 13.0
     Generated by new atomic code, or converted to UPF format
     Using radial grid of  887 points,  6 beta functions with:
                l(1) =   0
                l(2) =   0
                l(3) =   1
                l(4) =   1
                l(5) =   2
                l(6) =   2
     Q(r) pseudized with  6 coefficients,  rinner =    1.000   1.000   1.000
                                                       1.000   1.000

     vdW kernel table read from file vdW_kernel_table
     MD5 check sum: 095c7af220d748ca6e76c0b4c6cfb241

     atomic species   valence    mass     pseudopotential
        Pb1           14.00   207.20000     Pb( 1.00)
        Nb1           13.00    92.90637     Nb( 1.00)

     No symmetry found

   Cartesian axes

     site n.     atom                  positions (alat units)
         1           Pb1 tau(   1) = (   0.0000000   0.0000000  10.0000000  )
         2           Pb1 tau(   2) = (  -1.6830323   2.9150974  10.0000000  )
         3           Pb1 tau(   3) = (   1.6830323   2.9150974  10.0000000  )
         4           Nb1 tau(   4) = (   3.3660646   0.0000000  10.0000000  )
         5           Pb1 tau(   5) = (   3.3660646   1.9433983  12.7483802  )
         6           Pb1 tau(   6) = (   1.6830323   4.8584957  12.7483802  )
         7           Pb1 tau(   7) = (  -1.6830323   4.8584957  12.7483802  )
         8           Nb1 tau(   8) = (   0.0000000   1.9433983  12.7483802  )
         9           Pb1 tau(   9) = (  -0.0000000   3.8867966  15.4967604  )
        10           Pb1 tau(  10) = (   1.6830323   0.9716991  15.4967604  )
        11           Pb1 tau(  11) = (   5.0490969   0.9716991  15.4967604  )
        12           Nb1 tau(  12) = (   3.3660646   3.8867966  15.4967604  )

     number of k points=    20  Fermi-Dirac smearing, width (Ry)=  0.0110
                       cart. coord. in units 2pi/alat
        k(    1) = (   0.0000000   0.0000000   0.0000000), wk =   0.0555556
        k(    2) = (   0.0000000   0.0285868   0.0000000), wk =   0.1111111
        k(    3) = (   0.0000000   0.0571736   0.0000000), wk =   0.1111111
        k(    4) = (   0.0000000  -0.0857604   0.0000000), wk =   0.0555556
        k(    5) = (   0.0247569   0.0142934   0.0000000), wk =   0.1111111
        k(    6) = (   0.0247569   0.0428802   0.0000000), wk =   0.1111111
        k(    7) = (   0.0247569   0.0714670   0.0000000), wk =   0.1111111
        k(    8) = (   0.0247569  -0.0714670   0.0000000), wk =   0.1111111
        k(    9) = (   0.0247569  -0.0428802   0.0000000), wk =   0.1111111
        k(   10) = (   0.0247569  -0.0142934   0.0000000), wk =   0.1111111
        k(   11) = (   0.0495138   0.0285868   0.0000000), wk =   0.1111111
        k(   12) = (   0.0495138   0.0571736   0.0000000), wk =   0.1111111
        k(   13) = (   0.0495138   0.0857604   0.0000000), wk =   0.1111111
        k(   14) = (   0.0495138  -0.0571736   0.0000000), wk =   0.1111111
        k(   15) = (   0.0495138  -0.0285868   0.0000000), wk =   0.1111111
        k(   16) = (   0.0495138   0.0000000   0.0000000), wk =   0.1111111
        k(   17) = (  -0.0742707  -0.0428802   0.0000000), wk =   0.0555556
        k(   18) = (  -0.0742707  -0.0142934   0.0000000), wk =   0.1111111
        k(   19) = (  -0.0742707   0.0142934   0.0000000), wk =   0.1111111
        k(   20) = (  -0.0742707  -0.1286406   0.0000000), wk =   0.0555556

     Largest allocated arrays     est. size (Mb)     dimensions
     Largest temporary arrays     est. size (Mb)     dimensions

     Check: negative/imaginary core charge=   -0.000001    0.000000

     Initial potential from superposition of free atoms
     Check: negative starting charge=   -0.149862

     starting charge  164.97064, renormalised to  165.00000

     negative rho (up, down):  1.499E-01 0.000E+00

     *
     * You are using vdW-DF for exchange-correlation in this calculation.
     * Please cite the following three references that made this development
     * possible:
     *
     *   M. Dion, H. Rydberg, E. Schroder, D. C. Langreth, and
     *   B. I. Lundqvist, Phys. Rev. Lett. 92, 246401 (2004).
     *
     *   T. Thonhauser, V. R. Cooper, S. Li, A. Puzder, P. Hyldgaard, and
     *   D. C. Langreth, Phys. Rev. B 76, 125112 (2007).
     *
     *   G. Roman-Perez and J. M. Soler, Phys. Rev. Lett. 103, 096102 (2009).
     *
     *
     * If you are using vdW-DF2, please also cite:
     *
     *   K. Lee, E. D. Murray, L. Kong, B. I. Lundqvist, and
     *   D. C. Langreth, Phys. Rev. B 82, 081101(R) (2010).
     *
     *
     * If you are calculating the stress with vdW-DF, please also cite:
     *
     *   R. Sabatini, E. Kucukbenli, B. Kolb, T. Thonhauser, and
     *   S. de Gironcoli, J. Phys.: Condens. Matter 24, 424209 (2012).
     *

     Carrying out vdW-DF run using the following parameters:

     Nqs =      20    Nr_points =    1024   r_max =   100.000
     q_mesh =
               0.00001000     0.04494208     0.09755937     0.15916263
               0.23128650     0.31572767     0.41458969     0.53033537
               0.66584808     0.82450364     1.01025438     1.22772762
               1.48234092     1.78043706     2.12944203     2.53805004
               3.01644009     3.57652955     4.23227104     5.00000000

     Gradients computed in reciprocal space

     Adding external electric field

     Computed dipole along edir(3) :
        Dipole               -0.0000 Ry au,         -0.0000 Debye
        Dipole field         -0.0000 Ry au

        Potential amp.        0.0000 Ry
        Total length         46.9773 bohr

     Starting wfc are  120 randomized atomic wfcs

     Self-consistent Calculation

     iteration #  1     ecut=    36.75 Ry     beta=0.10
     Davidson diagonalization with overlap
     ethr =  1.00E-02,  avg # of iterations =  4.2

     Threshold (ethr) on eigenvalues was too large:
     Diagonalizing with lowered threshold

     Davidson diagonalization with overlap
     ethr =  9.53E-04,  avg # of iterations =  2.9

[...]

     total energy              =   -1849.18165509 Ry
     Harris-Foulkes estimate   =   -1849.44971812 Ry
     estimated scf accuracy    <       1.59612588 Ry

[...]

     End of self-consistent calculation

          k = 0.0000 0.0000 0.0000 ( 25425 PWs)   bands (ev):

   -54.5133 -54.5132 -54.3812 -30.5314 -30.5310 -30.5073 -30.5073 -30.5072
   -30.5071 -30.4237 -30.4237 -30.2973 -16.2022 -16.1625 -16.1625 -16.1549
   -16.1246 -16.1091 -16.0521 -16.0521 -16.0475 -16.0475 -16.0201 -16.0201
   -16.0015 -16.0013 -15.9634 -15.9588 -15.9588 -15.9068 -15.9041 -15.9041
   -15.9023 -15.8778 -15.8778 -15.8627 -15.8499 -15.8499 -15.8257 -15.8257
   -15.8254 -15.8254 -15.8048 -15.8015 -15.8015 -15.7925 -15.7925 -15.7620
   -15.7620 -15.7228 -15.7228 -15.7007 -15.7007 -15.6992 -15.6916 -15.6351
   -15.6338  -9.8850  -8.7684  -7.4716  -6.7180  -6.7180  -6.0972  -6.0972
    -5.4352  -5.4352  -2.7792  -2.1286  -1.8397  -1.6064  -1.6064  -1.2834
    -0.5734  -0.5734  -0.3980  -0.3980   0.0271   0.8604   0.8604   0.8969
     0.8969   1.4649   1.5358   1.5377   1.5377   1.6839   1.6839   1.7051
     1.7051   1.9551   1.9551   1.9845   2.1086   2.4568   3.4300   3.7051
     3.7051   3.9329   3.9329   4.3126   4.4253   4.6315   4.7229   5.1037
     5.5795   5.5795   5.6366   5.8003   5.8115   6.1794   6.1794   7.1546

[...]

          k =-0.0743-0.0429 0.0000 ( 25394 PWs)   bands (ev):

[...]

     the Fermi energy is     1.3416 ev

!    total energy              =   -1849.29659448 Ry
     Harris-Foulkes estimate   =   -1849.29658599 Ry
     estimated scf accuracy    <       0.00000071 Ry

     The total energy is the sum of the following terms:

     one-electron contribution =   -9648.77966797 Ry
     hartree contribution      =    4874.13324307 Ry
     xc contribution           =    -644.65972600 Ry
     ewald contribution        =    3570.10330835 Ry
     electric field correction =       0.00000000 Ry
     smearing contrib. (-TS)   =      -0.09375193 Ry

     convergence has been achieved in  17 iterations

 BEEF-vdW xc energy contributions
           1 :   -572.820696246074
           2 :    531.150930529292
           3 :   -458.009776334523
           4 :    369.793564344896
           5 :   -283.287049648583
           6 :    210.513096128253
           7 :   -156.136500918909
           8 :    118.004647804925
[...]
     Using radial grid of  899 points,  6 beta functions with:
                l(1) =   0
                l(2) =   0
                l(3) =   1
                l(4) =   1
                l(5) =   2
                l(6) =   2
     Q(r) pseudized with  6 coefficients,  rinner =    1.000   1.000   1.000
                                                       1.000   1.000

     PseudoPot. # 2 for Nb read from file:
     /afs/slac.stanford.edu/u/if/mamunm/psp/gbrv1.5pbe/Nb.UPF
     MD5 check sum: 573aab8a2fa660278ed4a62cd769473f
     Pseudo is Ultrasoft + core correction, Zval = 13.0
     Generated by new atomic code, or converted to UPF format
     Using radial grid of  887 points,  6 beta functions with:
                l(1) =   0
                l(2) =   0
                l(3) =   1
                l(4) =   1
                l(5) =   2
                l(6) =   2
     Q(r) pseudized with  6 coefficients,  rinner =    1.000   1.000   1.000
                                                       1.000   1.000

     vdW kernel table read from file vdW_kernel_table
     MD5 check sum: 095c7af220d748ca6e76c0b4c6cfb241

     atomic species   valence    mass     pseudopotential
        Pb1           14.00   207.20000     Pb( 1.00)
        Nb1           13.00    92.90637     Nb( 1.00)

     No symmetry found

   Cartesian axes

     site n.     atom                  positions (alat units)
         1           Pb1 tau(   1) = (   0.0000000   0.0000000  10.0000000  )
         2           Pb1 tau(   2) = (  -1.6830323   2.9150974  10.0000000  )
         3           Pb1 tau(   3) = (   1.6830323   2.9150974  10.0000000  )
         4           Nb1 tau(   4) = (   3.3660646   0.0000000  10.0000000  )
         5           Pb1 tau(   5) = (   3.3660646   1.9433983  12.7483802  )
         6           Pb1 tau(   6) = (   1.6830323   4.8584957  12.7483802  )
         7           Pb1 tau(   7) = (  -1.6830323   4.8584957  12.7483802  )
         8           Nb1 tau(   8) = (   0.0000000   1.9433983  12.7483802  )
         9           Pb1 tau(   9) = (  -0.0000223   3.8211193  15.6483399  )
        10           Pb1 tau(  10) = (   1.6260932   1.0045539  15.6483965  )
        11           Pb1 tau(  11) = (   5.1059386   1.0045597  15.6483320  )
        12           Nb1 tau(  12) = (   3.3660714   3.8867915  14.9195925  )

     number of k points=    20  Fermi-Dirac smearing, width (Ry)=  0.0110
                       cart. coord. in units 2pi/alat
        k(    1) = (   0.0000000   0.0000000   0.0000000), wk =   0.0555556
        k(    2) = (   0.0000000   0.0285868   0.0000000), wk =   0.1111111
        k(    3) = (   0.0000000   0.0571736   0.0000000), wk =   0.1111111
        k(    4) = (   0.0000000  -0.0857604   0.0000000), wk =   0.0555556
        k(    5) = (   0.0247569   0.0142934   0.0000000), wk =   0.1111111
        k(    6) = (   0.0247569   0.0428802   0.0000000), wk =   0.1111111
        k(    7) = (   0.0247569   0.0714670   0.0000000), wk =   0.1111111
        k(    8) = (   0.0247569  -0.0714670   0.0000000), wk =   0.1111111
        k(    9) = (   0.0247569  -0.0428802   0.0000000), wk =   0.1111111
        k(   10) = (   0.0247569  -0.0142934   0.0000000), wk =   0.1111111
        k(   11) = (   0.0495138   0.0285868   0.0000000), wk =   0.1111111
        k(   12) = (   0.0495138   0.0571736   0.0000000), wk =   0.1111111
        k(   13) = (   0.0495138   0.0857604   0.0000000), wk =   0.1111111
        k(   14) = (   0.0495138  -0.0571736   0.0000000), wk =   0.1111111
        k(   15) = (   0.0495138  -0.0285868   0.0000000), wk =   0.1111111
        k(   16) = (   0.0495138   0.0000000   0.0000000), wk =   0.1111111
        k(   17) = (  -0.0742707  -0.0428802   0.0000000), wk =   0.0555556
        k(   18) = (  -0.0742707  -0.0142934   0.0000000), wk =   0.1111111
        k(   19) = (  -0.0742707   0.0142934   0.0000000), wk =   0.1111111
        k(   20) = (  -0.0742707  -0.1286406   0.0000000), wk =   0.0555556

     Largest allocated arrays     est. size (Mb)     dimensions
     Largest temporary arrays     est. size (Mb)     dimensions

     Check: negative/imaginary core charge=   -0.000001    0.000000

     Initial potential from superposition of free atoms
     Check: negative starting charge=   -0.148971

     starting charge  164.97064, renormalised to  165.00000

[...]

     *
     * You are using vdW-DF for exchange-correlation in this calculation.
     * Please cite the following three references that made this development
     * possible:
     *
     *   M. Dion, H. Rydberg, E. Schroder, D. C. Langreth, and
     *   B. I. Lundqvist, Phys. Rev. Lett. 92, 246401 (2004).
     *
     *   T. Thonhauser, V. R. Cooper, S. Li, A. Puzder, P. Hyldgaard, and
     *   D. C. Langreth, Phys. Rev. B 76, 125112 (2007).
     *
     *   G. Roman-Perez and J. M. Soler, Phys. Rev. Lett. 103, 096102 (2009).
     *
     *
     * If you are using vdW-DF2, please also cite:
     *
     *   K. Lee, E. D. Murray, L. Kong, B. I. Lundqvist, and
     *   D. C. Langreth, Phys. Rev. B 82, 081101(R) (2010).
     *
     *
     * If you are calculating the stress with vdW-DF, please also cite:
     *
     *   R. Sabatini, E. Kucukbenli, B. Kolb, T. Thonhauser, and
     *   S. de Gironcoli, J. Phys.: Condens. Matter 24, 424209 (2012).
     *

     Carrying out vdW-DF run using the following parameters:

     Nqs =      20    Nr_points =    1024   r_max =   100.000
     q_mesh =
               0.00001000     0.04494208     0.09755937     0.15916263
               0.23128650     0.31572767     0.41458969     0.53033537
               0.66584808     0.82450364     1.01025438     1.22772762
               1.48234092     1.78043706     2.12944203     2.53805004
               3.01644009     3.57652955     4.23227104     5.00000000

     Gradients computed in reciprocal space

[...]

     Starting wfc are  120 randomized atomic wfcs

     Self-consistent Calculation

[...]

     Threshold (ethr) on eigenvalues was too large:
     Diagonalizing with lowered threshold

     Davidson diagonalization with overlap
     ethr =  9.41E-04,  avg # of iterations =  2.9

[...]

     total energy              =   -1849.34797620 Ry
     Harris-Foulkes estimate   =   -1849.34794807 Ry
     estimated scf accuracy    <       0.00000200 Ry

     iteration # 16     ecut=    36.75 Ry     beta=0.10
     Davidson diagonalization with overlap
     ethr =  1.21E-09,  avg # of iterations =  3.0

[...]

     negative rho (up, down):  1.637E-01 0.000E+00

     Adding external electric field

     Computed dipole along edir(3) :
        Dipole                0.0499 Ry au,          0.1269 Debye
        Dipole field          0.0001 Ry au

        Potential amp.       -0.0087 Ry
        Total length         46.9773 bohr

     End of self-consistent calculation

[...]

          k = 0.0495 0.0000 0.0000 ( 25418 PWs)   bands (ev):

[...]

          k =-0.0743-0.1286 0.0000 ( 25394 PWs)   bands (ev):

   -54.6081 -54.4094 -54.4023 -30.6469 -30.5850 -30.5846 -30.4427 -30.4423
   -30.4380 -30.4368 -30.4185 -30.3364 -16.1747 -16.1001 -16.0788 -16.0728
   -16.0606 -16.0418 -16.0384 -16.0173 -16.0168 -16.0121 -15.9743 -15.9644
   -15.9541 -15.9454 -15.9348 -15.9328 -15.9281 -15.9159 -15.9071 -15.8928
   -15.8901 -15.8832 -15.8740 -15.8645 -15.8527 -15.8505 -15.8479 -15.8437
   -15.8370 -15.8266 -15.8206 -15.8199 -15.8182 -15.8159 -15.8094 -15.8089
   -15.8054 -15.7832 -15.7745 -15.7705 -15.7645 -15.7408 -15.7266 -15.6841
   -15.6748  -8.9637  -8.6056  -7.8743  -7.4155  -6.9872  -6.9551  -6.5324
    -6.0485  -5.3409  -2.6381  -2.0751  -1.4671  -0.7433  -0.6794  -0.4775
    -0.4596  -0.3524   0.1447   0.1789   0.2525   0.5189   0.9029   0.9402
     1.2143   1.2187   1.3804   1.4408   1.5714   1.6507   1.7414   1.8873
     1.8984   2.0092   2.2481   2.2583   2.5528   2.6552   3.1454   3.1489
     3.4291   3.6340   4.0191   4.2374   4.2579   4.8018   4.8102   5.1526
     5.4922   5.5054   5.6960   5.7522   6.0736   6.2118   6.3162   6.3309

     the Fermi energy is     1.3206 ev

!    total energy              =   -1849.34799963 Ry
     Harris-Foulkes estimate   =   -1849.34797598 Ry
     estimated scf accuracy    <       0.00000035 Ry

     The total energy is the sum of the following terms:

     one-electron contribution =   -9663.51849802 Ry
     hartree contribution      =    4881.46226404 Ry
     xc contribution           =    -644.71602517 Ry
     ewald contribution        =    3577.50565549 Ry
     electric field correction =       0.00000464 Ry
     smearing contrib. (-TS)   =      -0.08140059 Ry

     convergence has been achieved in  16 iterations

 BEEF-vdW xc energy contributions
           1 :   -572.878365875617
           2 :    531.227273935974
           3 :   -458.118674002555
           4 :    369.930982188915
           5 :   -283.421501210192
           6 :    210.597201097125
           7 :   -156.133554151610
           8 :    117.912592008166
           9 :   -89.9678313402850
          10 :    66.1961751487319
          11 :   -43.1262824148081
          12 :    20.7176480605727
          13 :   -1.27106485942181
          14 :   -12.6094970220703
          15 :    19.7842251657319
          16 :   -21.2405022375996
          17 :    19.5140068492415
          18 :   -17.3815189310361
          19 :    16.6053395954914
          20 :   -17.3665705888775
          21 :    18.5745823473231
          22 :   -18.7751924815886
          23 :    17.1022373796839
          24 :   -13.7718452249915
          25 :    9.91473389561315
          26 :   -6.91788060743806
          27 :    5.67832037837627
          28 :   -6.17622156015591
          29 :    7.56164117061371
          30 :   -8.66728859055104
          31 :   -47.4607162535879
          32 :   -34.9175603387358

     Forces acting on atoms (Ry/au):

     negative rho (up, down):  1.637E-01 0.000E+00
     atom    1 type  1   force =     0.00000145    0.01553124   -0.01558181
     atom    2 type  1   force =     0.01345104   -0.00776576   -0.01557714
     atom    3 type  1   force =    -0.01345198   -0.00776732   -0.01558223
     atom    4 type  2   force =     0.00000012   -0.00000015    0.07527418
     atom    5 type  1   force =    -0.00000105   -0.01883880   -0.01190333
     atom    6 type  1   force =    -0.01631098    0.00941703   -0.01190594
     atom    7 type  1   force =     0.01631251    0.00942162   -0.01190325
     atom    8 type  2   force =     0.00000015    0.00000003    0.00739993
     atom    9 type  1   force =    -0.00000043   -0.00000984    0.00014601
     atom   10 type  1   force =    -0.00000654    0.00000501    0.00014219
     atom   11 type  1   force =     0.00000636    0.00000640    0.00015027
     atom   12 type  2   force =    -0.00000064    0.00000054   -0.00065889

     Total force =     0.093076     Total SCF correction =     0.002734

     entering subroutine stress ...

     negative rho (up, down):  1.637E-01 0.000E+00
          total   stress  (Ry/bohr**3)                   (kbar)     P=   -8.13
  -0.00007225  -0.00000000   0.00000000        -10.63     -0.00      0.00
  -0.00000000  -0.00007225  -0.00000000         -0.00    -10.63     -0.00
   0.00000000  -0.00000000  -0.00002138          0.00     -0.00     -3.15

 !ASE

     Writing output data file calc.save

     General routines

     Parallel routines

   This run was terminated on:  12:29:26  31Dec2018

   JOB DONE.
Job  /afs/slac/g/suncat/bin/suncat-tsmpirun -x LD_LIBRARY_PATH -wdir /scratch/qe648740_OeO88 pw.x -in pw.inp

TID   HOST_NAME   COMMAND_LINE            STATUS            TERMINATION_TIME
00000 suncat0139 pw.x -in pw.inp   Done                     12/31/2018 12:29:26
00001 suncat0139 pw.x -in pw.inp   Done                     12/31/2018 12:29:26
00002 suncat0139 pw.x -in pw.inp   Done                     12/31/2018 12:29:26
00003 suncat0139 pw.x -in pw.inp   Done                     12/31/2018 12:29:26
00004 suncat0139 pw.x -in pw.inp   Done                     12/31/2018 12:29:26
00005 suncat0139 pw.x -in pw.inp   Done                     12/31/2018 12:29:26
00006 suncat0139 pw.x -in pw.inp   Done                     12/31/2018 12:29:26
00007 suncat0139 pw.x -in pw.inp   Done                     12/31/2018 12:29:26
00008 suncat0133 pw.x -in pw.inp   Done                     12/31/2018 12:29:26
00009 suncat0133 pw.x -in pw.inp   Done                     12/31/2018 12:29:26
00010 suncat0133 pw.x -in pw.inp   Done                     12/31/2018 12:29:26
00011 suncat0133 pw.x -in pw.inp   Done                     12/31/2018 12:29:26
00012 suncat0133 pw.x -in pw.inp   Done                     12/31/2018 12:29:26
00013 suncat0133 pw.x -in pw.inp   Done                     12/31/2018 12:29:26
00014 suncat0133 pw.x -in pw.inp   Done                     12/31/2018 12:29:26
00015 suncat0133 pw.x -in pw.inp   Done                     12/31/2018 12:29:26
00016 suncat0132 pw.x -in pw.inp   Done                     12/31/2018 12:29:26
00017 suncat0132 pw.x -in pw.inp   Done                     12/31/2018 12:29:26
00018 suncat0132 pw.x -in pw.inp   Done                     12/31/2018 12:29:26
00019 suncat0132 pw.x -in pw.inp   Done                     12/31/2018 12:29:26
00020 suncat0132 pw.x -in pw.inp   Done                     12/31/2018 12:29:26
00021 suncat0132 pw.x -in pw.inp   Done                     12/31/2018 12:29:26
00022 suncat0132 pw.x -in pw.inp   Done                     12/31/2018 12:29:26
00023 suncat0132 pw.x -in pw.inp   Done                     12/31/2018 12:29:26
00024 suncat0131 pw.x -in pw.inp   Done                     12/31/2018 12:29:26
00025 suncat0131 pw.x -in pw.inp   Done                     12/31/2018 12:29:26
00026 suncat0131 pw.x -in pw.inp   Done                     12/31/2018 12:29:26
00027 suncat0131 pw.x -in pw.inp   Done                     12/31/2018 12:29:26
00028 suncat0131 pw.x -in pw.inp   Done                     12/31/2018 12:29:26
00029 suncat0131 pw.x -in pw.inp   Done                     12/31/2018 12:29:26
00030 suncat0131 pw.x -in pw.inp   Done                     12/31/2018 12:29:26
00031 suncat0131 pw.x -in pw.inp   Done                     12/31/2018 12:29:26
00032 suncat0130 pw.x -in pw.inp   Done                     12/31/2018 12:29:26
00033 suncat0130 pw.x -in pw.inp   Done                     12/31/2018 12:29:26
00034 suncat0130 pw.x -in pw.inp   Done                     12/31/2018 12:29:26
00035 suncat0130 pw.x -in pw.inp   Done                     12/31/2018 12:29:26
00036 suncat0130 pw.x -in pw.inp   Done                     12/31/2018 12:29:26
00037 suncat0130 pw.x -in pw.inp   Done                     12/31/2018 12:29:26
00038 suncat0130 pw.x -in pw.inp   Done                     12/31/2018 12:29:26
00039 suncat0130 pw.x -in pw.inp   Done                     12/31/2018 12:29:26
00040 suncat0124 pw.x -in pw.inp   Done                     12/31/2018 12:29:26
00041 suncat0124 pw.x -in pw.inp   Done                     12/31/2018 12:29:26
00042 suncat0124 pw.x -in pw.inp   Done                     12/31/2018 12:29:26
00043 suncat0124 pw.x -in pw.inp   Done                     12/31/2018 12:29:26
00044 suncat0124 pw.x -in pw.inp   Done                     12/31/2018 12:29:26
00045 suncat0124 pw.x -in pw.inp   Done                     12/31/2018 12:29:26
00046 suncat0124 pw.x -in pw.inp   Done                     12/31/2018 12:29:26
00047 suncat0124 pw.x -in pw.inp   Done                     12/31/2018 12:29:26
00048 suncat0123 pw.x -in pw.inp   Done                     12/31/2018 12:29:26
00049 suncat0123 pw.x -in pw.inp   Done                     12/31/2018 12:29:26
00050 suncat0123 pw.x -in pw.inp   Done                     12/31/2018 12:29:26
00051 suncat0123 pw.x -in pw.inp   Done                     12/31/2018 12:29:26
00052 suncat0123 pw.x -in pw.inp   Done                     12/31/2018 12:29:26
00053 suncat0123 pw.x -in pw.inp   Done                     12/31/2018 12:29:26
00054 suncat0123 pw.x -in pw.inp   Done                     12/31/2018 12:29:26
00055 suncat0123 pw.x -in pw.inp   Done                     12/31/2018 12:29:26
00056 suncat0122 pw.x -in pw.inp   Done                     12/31/2018 12:29:26
00057 suncat0122 pw.x -in pw.inp   Done                     12/31/2018 12:29:26
00058 suncat0122 pw.x -in pw.inp   Done                     12/31/2018 12:29:26
00059 suncat0122 pw.x -in pw.inp   Done                     12/31/2018 12:29:26
00060 suncat0122 pw.x -in pw.inp   Done                     12/31/2018 12:29:26
00061 suncat0122 pw.x -in pw.inp   Done                     12/31/2018 12:29:26
00062 suncat0122 pw.x -in pw.inp   Done                     12/31/2018 12:29:26
00063 suncat0122 pw.x -in pw.inp   Done                     12/31/2018 12:29:26