     Program PWSCF v.5.1rc2 (svn rev. 11289) starts on 20Dec2018 at  4:24:58

     Current dimensions of program PWSCF are:
     Max number of different atomic species (ntypx) = 10
     Max number of k-points (npk) =  40000
     Max angular momentum in pseudopotentials (lmaxx) =  3
     Presently stress not available with electric field

     IMPORTANT: XC functional enforced from input :
     Exchange-correlation      = BEEF-VDW ( 1  4 27 13 2)
     Any further DFT definition will be discarded
     Please, verify this is what you really want

     Subspace diagonalization in iterative solution of the eigenvalue problem:
     a serial algorithm will be used

     Generating pointlists ...
     new r_m :   0.4125 (alat units)  0.7795 (a.u.) for type    1
     new r_m :   0.4125 (alat units)  0.7795 (a.u.) for type    2

     bravais-lattice index     =            0
     lattice parameter (alat)  =       1.8897  a.u.
     unit-cell volume          =    3971.5901 (a.u.)^3
     number of atoms/cell      =           12
     number of atomic types    =            2
     number of electrons       =       189.00
     number of Kohn-Sham states=          124
     kinetic-energy cutoff     =      36.7493  Ry
     charge density cutoff     =     367.4932  Ry
     convergence threshold     =      1.0E-06
     mixing beta               =       0.1000
     number of iterations used =           10  plain     mixing
     Exchange-correlation      = BEEF-VDW ( 1  4 27 13 2)
     nstep                     =           50

     celldm(1)=   1.889726  celldm(2)=   0.000000  celldm(3)=   0.000000
     celldm(4)=   0.000000  celldm(5)=   0.000000  celldm(6)=   0.000000

     crystal axes: (cart. coord. in units of alat)
               a(1) = (   5.286507   0.000000   0.000000 )
               a(2) = (  -2.643254   4.578249   0.000000 )
               a(3) = (   0.000000   0.000000  24.316415 )

     reciprocal axes: (cart. coord. in units 2 pi/alat)
               b(1) = (  0.189161  0.109212  0.000000 )
               b(2) = (  0.000000  0.218424  0.000000 )
               b(3) = (  0.000000  0.000000  0.041124 )

     PseudoPot. # 1 for Co read from file:
     /afs/slac.stanford.edu/u/if/mamunm/psp/gbrv1.5pbe/Co.UPF
     MD5 check sum: 5f91765df6ddd3222702df6e7b74a16d
     Pseudo is Ultrasoft + core correction, Zval = 17.0
     Generated by new atomic code, or converted to UPF format
     Using radial grid of  863 points,  6 beta functions with:
                l(1) =   0
                l(2) =   0
                l(3) =   1
                l(4) =   1
                l(5) =   2
                l(6) =   2
     Q(r) pseudized with  8 coefficients,  rinner =    1.200   1.200   1.200
                                                       1.200   1.200

     PseudoPot. # 2 for Hg read from file:
     /afs/slac.stanford.edu/u/if/mamunm/psp/gbrv1.5pbe/Hg.UPF
     MD5 check sum: 8f42caffe07f7fd9c0a564347f8c5498
     Pseudo is Ultrasoft + core correction, Zval = 12.0
     Generated by new atomic code, or converted to UPF format
     Using radial grid of  985 points,  6 beta functions with:
                l(1) =   0
                l(2) =   0
                l(3) =   1
                l(4) =   1
                l(5) =   2
                l(6) =   2
     Q(r) pseudized with  8 coefficients,  rinner =    2.000   2.000   2.000
                                                       2.000   2.000

     vdW kernel table read from file vdW_kernel_table
     MD5 check sum: 095c7af220d748ca6e76c0b4c6cfb241

     atomic species   valence    mass     pseudopotential
        Co1           17.00    58.93319     Co( 1.00)
        Hg1           12.00   200.59200     Hg( 1.00)

     Starting magnetic structure
     atomic species   magnetization
        Co1          0.118
        Hg1          0.167

     No symmetry found

   Cartesian axes

     site n.     atom                  positions (alat units)
         1           Co1 tau(   1) = (   0.0000000   0.0000000  10.0000000  )
         2           Co1 tau(   2) = (  -1.3216268   2.2891247  10.0000000  )
         3           Co1 tau(   3) = (   1.3216268   2.2891247  10.0000000  )
         4           Hg1 tau(   4) = (   2.6432535   0.0000000  10.0000000  )
         5           Co1 tau(   5) = (   2.6432535   1.5260831  12.1582075  )
         6           Co1 tau(   6) = (   1.3216268   3.8152079  12.1582075  )
         7           Co1 tau(   7) = (  -1.3216268   3.8152079  12.1582075  )
         8           Hg1 tau(   8) = (   0.0000000   1.5260831  12.1582075  )
         9           Co1 tau(   9) = (  -0.0000000   3.0521663  14.3164150  )
        10           Co1 tau(  10) = (   1.3216268   0.7630416  14.3164150  )
        11           Co1 tau(  11) = (   3.9648803   0.7630416  14.3164150  )
        12           Hg1 tau(  12) = (   2.6432535   3.0521663  14.3164150  )

     number of k points=    40  Fermi-Dirac smearing, width (Ry)=  0.0110
                       cart. coord. in units 2pi/alat
        k(    1) = (   0.0000000   0.0000000   0.0000000), wk =   0.0277778
        k(    2) = (   0.0000000   0.0364040   0.0000000), wk =   0.0555556
        k(    3) = (   0.0000000   0.0728080   0.0000000), wk =   0.0555556
        k(    4) = (   0.0000000  -0.1092120   0.0000000), wk =   0.0277778
        k(    5) = (   0.0315268   0.0182020   0.0000000), wk =   0.0555556
        k(    6) = (   0.0315268   0.0546060   0.0000000), wk =   0.0555556
        k(    7) = (   0.0315268   0.0910100   0.0000000), wk =   0.0555556
        k(    8) = (   0.0315268  -0.0910100   0.0000000), wk =   0.0555556
        k(    9) = (   0.0315268  -0.0546060   0.0000000), wk =   0.0555556
        k(   10) = (   0.0315268  -0.0182020   0.0000000), wk =   0.0555556
        k(   11) = (   0.0630536   0.0364040   0.0000000), wk =   0.0555556
        k(   12) = (   0.0630536   0.0728080   0.0000000), wk =   0.0555556
        k(   13) = (   0.0630536   0.1092120   0.0000000), wk =   0.0555556
        k(   14) = (   0.0630536  -0.0728080   0.0000000), wk =   0.0555556
        k(   15) = (   0.0630536  -0.0364040   0.0000000), wk =   0.0555556
        k(   16) = (   0.0630536   0.0000000   0.0000000), wk =   0.0555556
        k(   17) = (  -0.0945804  -0.0546060   0.0000000), wk =   0.0277778
        k(   18) = (  -0.0945804  -0.0182020   0.0000000), wk =   0.0555556
        k(   19) = (  -0.0945804   0.0182020   0.0000000), wk =   0.0555556
        k(   20) = (  -0.0945804  -0.1638181   0.0000000), wk =   0.0277778
        k(   21) = (   0.0000000   0.0000000   0.0000000), wk =   0.0277778
        k(   22) = (   0.0000000   0.0364040   0.0000000), wk =   0.0555556
        k(   23) = (   0.0000000   0.0728080   0.0000000), wk =   0.0555556
        k(   24) = (   0.0000000  -0.1092120   0.0000000), wk =   0.0277778
        k(   25) = (   0.0315268   0.0182020   0.0000000), wk =   0.0555556
        k(   26) = (   0.0315268   0.0546060   0.0000000), wk =   0.0555556
        k(   27) = (   0.0315268   0.0910100   0.0000000), wk =   0.0555556
        k(   28) = (   0.0315268  -0.0910100   0.0000000), wk =   0.0555556
        k(   29) = (   0.0315268  -0.0546060   0.0000000), wk =   0.0555556
        k(   30) = (   0.0315268  -0.0182020   0.0000000), wk =   0.0555556
        k(   31) = (   0.0630536   0.0364040   0.0000000), wk =   0.0555556
        k(   32) = (   0.0630536   0.0728080   0.0000000), wk =   0.0555556
        k(   33) = (   0.0630536   0.1092120   0.0000000), wk =   0.0555556
        k(   34) = (   0.0630536  -0.0728080   0.0000000), wk =   0.0555556
        k(   35) = (   0.0630536  -0.0364040   0.0000000), wk =   0.0555556
        k(   36) = (   0.0630536   0.0000000   0.0000000), wk =   0.0555556
        k(   37) = (  -0.0945804  -0.0546060   0.0000000), wk =   0.0277778
        k(   38) = (  -0.0945804  -0.0182020   0.0000000), wk =   0.0555556
        k(   39) = (  -0.0945804   0.0182020   0.0000000), wk =   0.0555556
        k(   40) = (  -0.0945804  -0.1638181   0.0000000), wk =   0.0277778

     Largest allocated arrays     est. size (Mb)     dimensions
     Largest temporary arrays     est. size (Mb)     dimensions

     Check: negative/imaginary core charge=   -0.000005    0.000000

     Initial potential from superposition of free atoms
     Check: negative starting charge=(component1):   -0.000182
     Check: negative starting charge=(component2):   -0.000144

     starting charge  179.99976, renormalised to  189.00000

     negative rho (up, down):  1.915E-04 1.516E-04

     *
     * You are using vdW-DF for exchange-correlation in this calculation.
     * Please cite the following three references that made this development
     * possible:
     *
     *   M. Dion, H. Rydberg, E. Schroder, D. C. Langreth, and
     *   B. I. Lundqvist, Phys. Rev. Lett. 92, 246401 (2004).
     *
     *   T. Thonhauser, V. R. Cooper, S. Li, A. Puzder, P. Hyldgaard, and
     *   D. C. Langreth, Phys. Rev. B 76, 125112 (2007).
     *
     *   G. Roman-Perez and J. M. Soler, Phys. Rev. Lett. 103, 096102 (2009).
     *
     *
     * If you are using vdW-DF2, please also cite:
     *
     *   K. Lee, E. D. Murray, L. Kong, B. I. Lundqvist, and
     *   D. C. Langreth, Phys. Rev. B 82, 081101(R) (2010).
     *
     *
     * If you are calculating the stress with vdW-DF, please also cite:
     *
     *   R. Sabatini, E. Kucukbenli, B. Kolb, T. Thonhauser, and
     *   S. de Gironcoli, J. Phys.: Condens. Matter 24, 424209 (2012).
     *

     Carrying out vdW-DF run using the following parameters:

     Nqs =      20    Nr_points =    1024   r_max =   100.000
     q_mesh =
               0.00001000     0.04494208     0.09755937     0.15916263
               0.23128650     0.31572767     0.41458969     0.53033537
               0.66584808     0.82450364     1.01025438     1.22772762
               1.48234092     1.78043706     2.12944203     2.53805004
               3.01644009     3.57652955     4.23227104     5.00000000

     Gradients computed in reciprocal space

     Adding external electric field

     Computed dipole along edir(3) :
        Dipole                0.0000 Ry au,          0.0000 Debye
        Dipole field          0.0000 Ry au

        Potential amp.       -0.0000 Ry
        Total length         44.8026 bohr

[...]

     Starting wfc are  144 randomized atomic wfcs

     Self-consistent Calculation

     iteration #  1     ecut=    36.75 Ry     beta=0.10
     Davidson diagonalization with overlap
     ethr =  1.00E-02,  avg # of iterations =  7.4

[...]

     Magnetic moment per site:
     atom:    1    charge:    8.4452    magn:    0.9747    constr:    0.0000
     atom:    2    charge:    8.4452    magn:    0.9747    constr:    0.0000
     atom:    3    charge:    8.4452    magn:    0.9747    constr:    0.0000
     atom:    4    charge:    2.0254    magn:    0.3091    constr:    0.0000
     atom:    5    charge:    8.4378    magn:    0.9681    constr:    0.0000
     atom:    6    charge:    8.4378    magn:    0.9682    constr:    0.0000
     atom:    7    charge:    8.4378    magn:    0.9682    constr:    0.0000
     atom:    8    charge:    2.0264    magn:    0.3094    constr:    0.0000
[...]
        k(    3) = (   0.0000000   0.0728080   0.0000000), wk =   0.0555556
        k(    4) = (   0.0000000  -0.1092120   0.0000000), wk =   0.0277778
        k(    5) = (   0.0315268   0.0182020   0.0000000), wk =   0.0555556
        k(    6) = (   0.0315268   0.0546060   0.0000000), wk =   0.0555556
        k(    7) = (   0.0315268   0.0910100   0.0000000), wk =   0.0555556
        k(    8) = (   0.0315268  -0.0910100   0.0000000), wk =   0.0555556
        k(    9) = (   0.0315268  -0.0546060   0.0000000), wk =   0.0555556
        k(   10) = (   0.0315268  -0.0182020   0.0000000), wk =   0.0555556
        k(   11) = (   0.0630536   0.0364040   0.0000000), wk =   0.0555556
        k(   12) = (   0.0630536   0.0728080   0.0000000), wk =   0.0555556
        k(   13) = (   0.0630536   0.1092120   0.0000000), wk =   0.0555556
        k(   14) = (   0.0630536  -0.0728080   0.0000000), wk =   0.0555556
        k(   15) = (   0.0630536  -0.0364040   0.0000000), wk =   0.0555556
        k(   16) = (   0.0630536   0.0000000   0.0000000), wk =   0.0555556
        k(   17) = (  -0.0945804  -0.0546060   0.0000000), wk =   0.0277778
        k(   18) = (  -0.0945804  -0.0182020   0.0000000), wk =   0.0555556
        k(   19) = (  -0.0945804   0.0182020   0.0000000), wk =   0.0555556
        k(   20) = (  -0.0945804  -0.1638181   0.0000000), wk =   0.0277778
        k(   21) = (   0.0000000   0.0000000   0.0000000), wk =   0.0277778
        k(   22) = (   0.0000000   0.0364040   0.0000000), wk =   0.0555556
        k(   23) = (   0.0000000   0.0728080   0.0000000), wk =   0.0555556
        k(   24) = (   0.0000000  -0.1092120   0.0000000), wk =   0.0277778
        k(   25) = (   0.0315268   0.0182020   0.0000000), wk =   0.0555556
        k(   26) = (   0.0315268   0.0546060   0.0000000), wk =   0.0555556
        k(   27) = (   0.0315268   0.0910100   0.0000000), wk =   0.0555556
        k(   28) = (   0.0315268  -0.0910100   0.0000000), wk =   0.0555556
        k(   29) = (   0.0315268  -0.0546060   0.0000000), wk =   0.0555556
        k(   30) = (   0.0315268  -0.0182020   0.0000000), wk =   0.0555556
        k(   31) = (   0.0630536   0.0364040   0.0000000), wk =   0.0555556
        k(   32) = (   0.0630536   0.0728080   0.0000000), wk =   0.0555556
        k(   33) = (   0.0630536   0.1092120   0.0000000), wk =   0.0555556
        k(   34) = (   0.0630536  -0.0728080   0.0000000), wk =   0.0555556
        k(   35) = (   0.0630536  -0.0364040   0.0000000), wk =   0.0555556
        k(   36) = (   0.0630536   0.0000000   0.0000000), wk =   0.0555556
        k(   37) = (  -0.0945804  -0.0546060   0.0000000), wk =   0.0277778
        k(   38) = (  -0.0945804  -0.0182020   0.0000000), wk =   0.0555556
        k(   39) = (  -0.0945804   0.0182020   0.0000000), wk =   0.0555556
        k(   40) = (  -0.0945804  -0.1638181   0.0000000), wk =   0.0277778

     Largest allocated arrays     est. size (Mb)     dimensions
     Largest temporary arrays     est. size (Mb)     dimensions

     Check: negative/imaginary core charge=   -0.000005    0.000000

     Initial potential from superposition of free atoms
     Check: negative starting charge=(component1):   -0.000169
     Check: negative starting charge=(component2):   -0.000134

     starting charge  179.99976, renormalised to  189.00000

[...]

     *
     * You are using vdW-DF for exchange-correlation in this calculation.
     * Please cite the following three references that made this development
     * possible:
     *
     *   M. Dion, H. Rydberg, E. Schroder, D. C. Langreth, and
     *   B. I. Lundqvist, Phys. Rev. Lett. 92, 246401 (2004).
     *
     *   T. Thonhauser, V. R. Cooper, S. Li, A. Puzder, P. Hyldgaard, and
     *   D. C. Langreth, Phys. Rev. B 76, 125112 (2007).
     *
     *   G. Roman-Perez and J. M. Soler, Phys. Rev. Lett. 103, 096102 (2009).
     *
     *
     * If you are using vdW-DF2, please also cite:
     *
     *   K. Lee, E. D. Murray, L. Kong, B. I. Lundqvist, and
     *   D. C. Langreth, Phys. Rev. B 82, 081101(R) (2010).
     *
     *
     * If you are calculating the stress with vdW-DF, please also cite:
     *
     *   R. Sabatini, E. Kucukbenli, B. Kolb, T. Thonhauser, and
     *   S. de Gironcoli, J. Phys.: Condens. Matter 24, 424209 (2012).
     *

     Carrying out vdW-DF run using the following parameters:

     Nqs =      20    Nr_points =    1024   r_max =   100.000
     q_mesh =
               0.00001000     0.04494208     0.09755937     0.15916263
               0.23128650     0.31572767     0.41458969     0.53033537
               0.66584808     0.82450364     1.01025438     1.22772762
               1.48234092     1.78043706     2.12944203     2.53805004
               3.01644009     3.57652955     4.23227104     5.00000000

     Gradients computed in reciprocal space

[...]

     Starting wfc are  144 randomized atomic wfcs

     Self-consistent Calculation

[...]

     total energy              =   -3022.71749779 Ry
     Harris-Foulkes estimate   =   -3022.71749705 Ry
     estimated scf accuracy    <       0.00000118 Ry

[...]

     iteration # 33     ecut=    36.75 Ry     beta=0.10
     Davidson diagonalization with overlap
     ethr =  6.25E-10,  avg # of iterations =  1.1

[...]

     negative rho (up, down):  5.445E-04 3.312E-04

[...]

     Adding external electric field

     Computed dipole along edir(3) :
        Dipole               -0.0036 Ry au,         -0.0093 Debye
        Dipole field         -0.0000 Ry au

        Potential amp.        0.0010 Ry
        Total length         44.8026 bohr

     Magnetic moment per site:
     atom:    1    charge:    8.3008    magn:    0.9676    constr:    0.0000
     atom:    2    charge:    8.3008    magn:    0.9676    constr:    0.0000
     atom:    3    charge:    8.3009    magn:    0.9676    constr:    0.0000
     atom:    4    charge:    2.0013    magn:    0.0058    constr:    0.0000
     atom:    5    charge:    8.2950    magn:    0.9692    constr:    0.0000
     atom:    6    charge:    8.2950    magn:    0.9692    constr:    0.0000
     atom:    7    charge:    8.2951    magn:    0.9692    constr:    0.0000
     atom:    8    charge:    2.0094    magn:    0.0089    constr:    0.0000
     atom:    9    charge:    8.2980    magn:    0.9891    constr:    0.0000
     atom:   10    charge:    8.2978    magn:    0.9892    constr:    0.0000
     atom:   11    charge:    8.2980    magn:    0.9892    constr:    0.0000
     atom:   12    charge:    1.9893    magn:   -0.0000    constr:    0.0000

     End of self-consistent calculation

 ------ SPIN UP ------------

[...]

 ------ SPIN DOWN ----------

[...]

          k = 0.0631 0.0000 0.0000 ( 14965 PWs)   bands (ev):

[...]

          k =-0.0946-0.1638 0.0000 ( 14930 PWs)   bands (ev):

   -93.0824 -93.0779 -93.0734 -92.9801 -92.9589 -92.9575 -92.8791 -92.8748
   -92.8706 -56.5039 -56.4777 -56.4754 -56.4667 -56.4652 -56.4515 -56.4325
   -56.4240 -56.4098 -56.3728 -56.3682 -56.3598 -56.3071 -56.3019 -56.2989
   -56.2966 -56.2896 -56.2690 -56.2580 -56.2558 -56.2527 -56.2503 -56.2417
   -56.2180 -56.2157 -56.2079 -56.1847  -7.5229  -7.3191  -7.3008  -7.2421
    -7.2089  -7.0251  -6.8077  -6.7193  -6.6511  -6.5019  -6.3189  -6.2682
    -6.1063  -5.9792  -5.9313  -5.7935  -5.6975  -4.3615  -3.7645  -2.7842
    -2.4837  -2.4696  -1.6957  -1.2861  -1.1384  -0.9814  -0.9655  -0.9127
    -0.9040  -0.7693  -0.6531  -0.5537  -0.4853  -0.4842  -0.3297  -0.3202
    -0.2975  -0.2067  -0.0830  -0.0480  -0.0464   0.0659   0.2166   0.2802
     0.3906   0.4112   0.4979   0.5311   0.7447   0.7653   0.8030   0.9464
     0.9754   0.9812   1.1126   1.1224   1.1398   1.1807   1.2596   1.3235
     1.3747   1.4650   1.6056   1.7724   1.9039   2.0210   2.2820   2.7533
     2.9632   3.2206   3.7602   4.1602   4.7907   4.9678   6.1333   6.4356
     6.9209   6.9994   7.1696   7.3119   7.4801   7.8940   8.0489   8.1160
     8.2736   8.3412   8.4255   8.6184

     the Fermi energy is     0.9146 ev

!    total energy              =   -3022.71749876 Ry
     Harris-Foulkes estimate   =   -3022.71749782 Ry
     estimated scf accuracy    <       0.00000058 Ry

     The total energy is the sum of the following terms:

     one-electron contribution =  -23550.32536789 Ry
     hartree contribution      =   11803.37156497 Ry
     xc contribution           =    -425.51371884 Ry
     ewald contribution        =    9149.84223195 Ry
     electric field correction =       0.00000004 Ry
     smearing contrib. (-TS)   =      -0.09220899 Ry

     total magnetization       =    15.43 Bohr mag/cell
     absolute magnetization    =    17.59 Bohr mag/cell

     convergence has been achieved in  33 iterations

 BEEF-vdW xc energy contributions
           1 :   -374.396503992807
           2 :    341.017134438174
           3 :   -283.897323331877
           4 :    217.898260766376
           5 :   -156.960069906772
           6 :    109.323954259772
           7 :   -76.1526525653240
           8 :    53.5320914559633
           9 :   -36.1887509875966
          10 :    20.6576086346909
          11 :   -6.42257302988969
          12 :   -5.04460887829049
          13 :    12.1949645509486
          14 :   -14.8519692830180
          15 :    14.3800608445426
          16 :   -12.7597134723498
          17 :    11.4014405630799
          18 :   -10.5557881930852
          19 :    9.60149915242653
          20 :   -7.87105226914025
          21 :    5.34512799119773
          22 :   -2.75052449669266
          23 :    1.05600177522490
          24 :  -0.797726968915072
          25 :    1.72416238296398
          26 :   -2.99250086023363
          27 :    3.73279801964372
          28 :   -3.57921291465448
          29 :    2.81905890084317
          30 :   -2.11073316648833
          31 :   -32.5023171147633
          32 :   -22.9919793051571

     Forces acting on atoms (Ry/au):

     negative rho (up, down):  5.445E-04 3.312E-04
     atom    1 type  1   force =    -0.00003242   -0.02440470    0.00894706
     atom    2 type  1   force =    -0.02114391    0.01217548    0.00893616
     atom    3 type  1   force =     0.02114274    0.01221161    0.00897197
     atom    4 type  2   force =     0.00002024    0.00000248   -0.07223498
     atom    5 type  1   force =     0.00002437    0.02045195    0.01111608
     atom    6 type  1   force =     0.01774501   -0.01020531    0.01107560
     atom    7 type  1   force =    -0.01774701   -0.01023403    0.01108415
     atom    8 type  2   force =    -0.00000817   -0.00003233    0.00707026
     atom    9 type  1   force =    -0.00010381    0.00090614    0.00169064
     atom   10 type  1   force =     0.00079071   -0.00047167    0.00162661
     atom   11 type  1   force =    -0.00083085   -0.00037476    0.00165288
     atom   12 type  2   force =     0.00014310   -0.00002486    0.00006358

     Total force =     0.094510     Total SCF correction =     0.003224

     entering subroutine stress ...

     negative rho (up, down):  5.445E-04 3.312E-04
          total   stress  (Ry/bohr**3)                   (kbar)     P=   -4.00
  -0.00005145   0.00000004   0.00000004         -7.57      0.01      0.01
   0.00000004  -0.00005141   0.00000001          0.01     -7.56      0.00
   0.00000004   0.00000001   0.00002130          0.01      0.00      3.13

 !ASE

     Writing output data file calc.save

     General routines

     Parallel routines

   This run was terminated on:   9: 2:54  20Dec2018

   JOB DONE.
Job  /afs/slac/g/suncat/bin/suncat-tsmpirun -x LD_LIBRARY_PATH -wdir /scratch/qe773509_ePJ5R pw.x -in pw.inp

TID   HOST_NAME   COMMAND_LINE            STATUS            TERMINATION_TIME
00000 suncat0007 pw.x -in pw.inp   Done                     12/20/2018 09:02:54
00001 suncat0007 pw.x -in pw.inp   Done                     12/20/2018 09:02:54
00002 suncat0007 pw.x -in pw.inp   Done                     12/20/2018 09:02:54
00003 suncat0007 pw.x -in pw.inp   Done                     12/20/2018 09:02:54
00004 suncat0007 pw.x -in pw.inp   Done                     12/20/2018 09:02:54
00005 suncat0007 pw.x -in pw.inp   Done                     12/20/2018 09:02:54
00006 suncat0007 pw.x -in pw.inp   Done                     12/20/2018 09:02:54
00007 suncat0007 pw.x -in pw.inp   Done                     12/20/2018 09:02:54
00008 suncat0006 pw.x -in pw.inp   Done                     12/20/2018 09:02:54
00009 suncat0006 pw.x -in pw.inp   Done                     12/20/2018 09:02:54
00010 suncat0006 pw.x -in pw.inp   Done                     12/20/2018 09:02:54
00011 suncat0006 pw.x -in pw.inp   Done                     12/20/2018 09:02:54
00012 suncat0006 pw.x -in pw.inp   Done                     12/20/2018 09:02:54
00013 suncat0006 pw.x -in pw.inp   Done                     12/20/2018 09:02:54
00014 suncat0006 pw.x -in pw.inp   Done                     12/20/2018 09:02:54
00015 suncat0006 pw.x -in pw.inp   Done                     12/20/2018 09:02:54
00016 suncat0005 pw.x -in pw.inp   Done                     12/20/2018 09:02:54
00017 suncat0005 pw.x -in pw.inp   Done                     12/20/2018 09:02:54
00018 suncat0005 pw.x -in pw.inp   Done                     12/20/2018 09:02:54
00019 suncat0005 pw.x -in pw.inp   Done                     12/20/2018 09:02:54
00020 suncat0005 pw.x -in pw.inp   Done                     12/20/2018 09:02:54
00021 suncat0005 pw.x -in pw.inp   Done                     12/20/2018 09:02:54
00022 suncat0005 pw.x -in pw.inp   Done                     12/20/2018 09:02:54
00023 suncat0005 pw.x -in pw.inp   Done                     12/20/2018 09:02:54
00024 suncat0179 pw.x -in pw.inp   Done                     12/20/2018 09:02:54
00025 suncat0179 pw.x -in pw.inp   Done                     12/20/2018 09:02:54
00026 suncat0179 pw.x -in pw.inp   Done                     12/20/2018 09:02:54
00027 suncat0179 pw.x -in pw.inp   Done                     12/20/2018 09:02:54
00028 suncat0179 pw.x -in pw.inp   Done                     12/20/2018 09:02:54
00029 suncat0179 pw.x -in pw.inp   Done                     12/20/2018 09:02:54
00030 suncat0179 pw.x -in pw.inp   Done                     12/20/2018 09:02:54
00031 suncat0179 pw.x -in pw.inp   Done                     12/20/2018 09:02:54
00032 suncat0277 pw.x -in pw.inp   Done                     12/20/2018 09:02:54
00033 suncat0277 pw.x -in pw.inp   Done                     12/20/2018 09:02:54
00034 suncat0277 pw.x -in pw.inp   Done                     12/20/2018 09:02:54
00035 suncat0277 pw.x -in pw.inp   Done                     12/20/2018 09:02:54
00036 suncat0277 pw.x -in pw.inp   Done                     12/20/2018 09:02:54
00037 suncat0277 pw.x -in pw.inp   Done                     12/20/2018 09:02:54
00038 suncat0277 pw.x -in pw.inp   Done                     12/20/2018 09:02:54
00039 suncat0277 pw.x -in pw.inp   Done                     12/20/2018 09:02:54
00040 suncat0276 pw.x -in pw.inp   Done                     12/20/2018 09:02:54
00041 suncat0276 pw.x -in pw.inp   Done                     12/20/2018 09:02:54
00042 suncat0276 pw.x -in pw.inp   Done                     12/20/2018 09:02:54
00043 suncat0276 pw.x -in pw.inp   Done                     12/20/2018 09:02:54
00044 suncat0276 pw.x -in pw.inp   Done                     12/20/2018 09:02:54
00045 suncat0276 pw.x -in pw.inp   Done                     12/20/2018 09:02:54
00046 suncat0276 pw.x -in pw.inp   Done                     12/20/2018 09:02:54
00047 suncat0276 pw.x -in pw.inp   Done                     12/20/2018 09:02:54
00048 suncat0274 pw.x -in pw.inp   Done                     12/20/2018 09:02:54
00049 suncat0274 pw.x -in pw.inp   Done                     12/20/2018 09:02:54
00050 suncat0274 pw.x -in pw.inp   Done                     12/20/2018 09:02:54
00051 suncat0274 pw.x -in pw.inp   Done                     12/20/2018 09:02:54
00052 suncat0274 pw.x -in pw.inp   Done                     12/20/2018 09:02:54
00053 suncat0274 pw.x -in pw.inp   Done                     12/20/2018 09:02:54
00054 suncat0274 pw.x -in pw.inp   Done                     12/20/2018 09:02:54
00055 suncat0274 pw.x -in pw.inp   Done                     12/20/2018 09:02:54
00056 suncat0273 pw.x -in pw.inp   Done                     12/20/2018 09:02:54
00057 suncat0273 pw.x -in pw.inp   Done                     12/20/2018 09:02:54
00058 suncat0273 pw.x -in pw.inp   Done                     12/20/2018 09:02:54
00059 suncat0273 pw.x -in pw.inp   Done                     12/20/2018 09:02:54
00060 suncat0273 pw.x -in pw.inp   Done                     12/20/2018 09:02:54
00061 suncat0273 pw.x -in pw.inp   Done                     12/20/2018 09:02:54
00062 suncat0273 pw.x -in pw.inp   Done                     12/20/2018 09:02:54
00063 suncat0273 pw.x -in pw.inp   Done                     12/20/2018 09:02:54