     Program PWSCF v.5.1rc2 (svn rev. 11289) starts on 27Dec2018 at 13:54:42

     Current dimensions of program PWSCF are:
     Max number of different atomic species (ntypx) = 10
     Max number of k-points (npk) =  40000
     Max angular momentum in pseudopotentials (lmaxx) =  3
     Presently stress not available with electric field

     IMPORTANT: XC functional enforced from input :
     Exchange-correlation      = BEEF-VDW ( 1  4 27 13 2)
     Any further DFT definition will be discarded
     Please, verify this is what you really want

     Subspace diagonalization in iterative solution of the eigenvalue problem:
     a serial algorithm will be used

     bravais-lattice index     =            0
     lattice parameter (alat)  =       1.8897  a.u.
     unit-cell volume          =    4489.7529 (a.u.)^3
     number of atoms/cell      =           12
     number of atomic types    =            2
     number of electrons       =       177.00
     number of Kohn-Sham states=          118
     kinetic-energy cutoff     =      36.7493  Ry
     charge density cutoff     =     367.4932  Ry
     convergence threshold     =      1.0E-06
     mixing beta               =       0.1000
     number of iterations used =           10  plain     mixing
     Exchange-correlation      = BEEF-VDW ( 1  4 27 13 2)
     nstep                     =           50

     celldm(1)=   1.889726  celldm(2)=   0.000000  celldm(3)=   0.000000
     celldm(4)=   0.000000  celldm(5)=   0.000000  celldm(6)=   0.000000

     crystal axes: (cart. coord. in units of alat)
               a(1) = (   5.592171   0.000000   0.000000 )
               a(2) = (  -2.796086   4.842963   0.000000 )
               a(3) = (   0.000000   0.000000  24.565989 )

     reciprocal axes: (cart. coord. in units 2 pi/alat)
               b(1) = (  0.178821  0.103243  0.000000 )
               b(2) = (  0.000000  0.206485  0.000000 )
               b(3) = (  0.000000  0.000000  0.040707 )

     PseudoPot. # 1 for Os read from file:
     /afs/slac.stanford.edu/u/if/mamunm/psp/gbrv1.5pbe/Os.UPF
     MD5 check sum: a3fb40a04f0c37c25c34bbc47164c9a8
     Pseudo is Ultrasoft + core correction, Zval = 16.0
     Generated by new atomic code, or converted to UPF format
     Using radial grid of  983 points,  8 beta functions with:
                l(1) =   0
                l(2) =   0
                l(3) =   1
                l(4) =   1
                l(5) =   2
                l(6) =   2
                l(7) =   3
                l(8) =   3
     Q(r) pseudized with  8 coefficients,  rinner =    1.150   1.150   1.150
                                                       1.150   1.150   1.150
                                                       1.150

     PseudoPot. # 2 for Sc read from file:
     /afs/slac.stanford.edu/u/if/mamunm/psp/gbrv1.5pbe/Sc.UPF
     MD5 check sum: db30a2753ba66ef00f23801d899b7e7f
     Pseudo is Ultrasoft + core correction, Zval = 11.0
     Generated by new atomic code, or converted to UPF format
     Using radial grid of  849 points,  6 beta functions with:
                l(1) =   0
                l(2) =   0
                l(3) =   1
                l(4) =   1
                l(5) =   2
                l(6) =   2
     Q(r) pseudized with  6 coefficients,  rinner =    1.200   1.200   1.200
                                                       1.200   1.200

     vdW kernel table read from file vdW_kernel_table
     MD5 check sum: 095c7af220d748ca6e76c0b4c6cfb241

     atomic species   valence    mass     pseudopotential
        Os1           16.00   190.23000     Os( 1.00)
        Sc1           11.00    44.95591     Sc( 1.00)

     No symmetry found

   Cartesian axes

     site n.     atom                  positions (alat units)
         1           Os1 tau(   1) = (   0.0000000   0.0000000  10.0000000  )
         2           Os1 tau(   2) = (  -1.3980429   2.4214813  10.0000000  )
         3           Os1 tau(   3) = (   1.3980429   2.4214813  10.0000000  )
         4           Sc1 tau(   4) = (   2.7960857   0.0000000  10.0000000  )
         5           Os1 tau(   5) = (   2.7960857   1.6143209  12.2829944  )
         6           Os1 tau(   6) = (   1.3980429   4.0358021  12.2829944  )
         7           Os1 tau(   7) = (  -1.3980429   4.0358021  12.2829944  )
         8           Sc1 tau(   8) = (   0.0000000   1.6143209  12.2829944  )
         9           Os1 tau(   9) = (  -0.0000000   3.2286417  14.5659889  )
        10           Os1 tau(  10) = (   1.3980429   0.8071604  14.5659889  )
        11           Os1 tau(  11) = (   4.1941286   0.8071604  14.5659889  )
        12           Sc1 tau(  12) = (   2.7960857   3.2286417  14.5659889  )

     number of k points=    20  Fermi-Dirac smearing, width (Ry)=  0.0110
                       cart. coord. in units 2pi/alat
        k(    1) = (   0.0000000   0.0000000   0.0000000), wk =   0.0555556
        k(    2) = (   0.0000000   0.0344142   0.0000000), wk =   0.1111111
        k(    3) = (   0.0000000   0.0688284   0.0000000), wk =   0.1111111
        k(    4) = (   0.0000000  -0.1032426   0.0000000), wk =   0.0555556
        k(    5) = (   0.0298036   0.0172071   0.0000000), wk =   0.1111111
        k(    6) = (   0.0298036   0.0516213   0.0000000), wk =   0.1111111
        k(    7) = (   0.0298036   0.0860355   0.0000000), wk =   0.1111111
        k(    8) = (   0.0298036  -0.0860355   0.0000000), wk =   0.1111111
        k(    9) = (   0.0298036  -0.0516213   0.0000000), wk =   0.1111111
        k(   10) = (   0.0298036  -0.0172071   0.0000000), wk =   0.1111111
        k(   11) = (   0.0596071   0.0344142   0.0000000), wk =   0.1111111
        k(   12) = (   0.0596071   0.0688284   0.0000000), wk =   0.1111111
        k(   13) = (   0.0596071   0.1032426   0.0000000), wk =   0.1111111
        k(   14) = (   0.0596071  -0.0688284   0.0000000), wk =   0.1111111
        k(   15) = (   0.0596071  -0.0344142   0.0000000), wk =   0.1111111
        k(   16) = (   0.0596071   0.0000000   0.0000000), wk =   0.1111111
        k(   17) = (  -0.0894107  -0.0516213   0.0000000), wk =   0.0555556
        k(   18) = (  -0.0894107  -0.0172071   0.0000000), wk =   0.1111111
        k(   19) = (  -0.0894107   0.0172071   0.0000000), wk =   0.1111111
        k(   20) = (  -0.0894107  -0.1548639   0.0000000), wk =   0.0555556

     Largest allocated arrays     est. size (Mb)     dimensions
     Largest temporary arrays     est. size (Mb)     dimensions

     Initial potential from superposition of free atoms
     Check: negative starting charge=   -1.110412

     starting charge  172.49246, renormalised to  177.00000

     negative rho (up, down):  1.139E+00 0.000E+00

     *
     * You are using vdW-DF for exchange-correlation in this calculation.
     * Please cite the following three references that made this development
     * possible:
     *
     *   M. Dion, H. Rydberg, E. Schroder, D. C. Langreth, and
     *   B. I. Lundqvist, Phys. Rev. Lett. 92, 246401 (2004).
     *
     *   T. Thonhauser, V. R. Cooper, S. Li, A. Puzder, P. Hyldgaard, and
     *   D. C. Langreth, Phys. Rev. B 76, 125112 (2007).
     *
     *   G. Roman-Perez and J. M. Soler, Phys. Rev. Lett. 103, 096102 (2009).
     *
     *
     * If you are using vdW-DF2, please also cite:
     *
     *   K. Lee, E. D. Murray, L. Kong, B. I. Lundqvist, and
     *   D. C. Langreth, Phys. Rev. B 82, 081101(R) (2010).
     *
     *
     * If you are calculating the stress with vdW-DF, please also cite:
     *
     *   R. Sabatini, E. Kucukbenli, B. Kolb, T. Thonhauser, and
     *   S. de Gironcoli, J. Phys.: Condens. Matter 24, 424209 (2012).
     *

     Carrying out vdW-DF run using the following parameters:

     Nqs =      20    Nr_points =    1024   r_max =   100.000
     q_mesh =
               0.00001000     0.04494208     0.09755937     0.15916263
               0.23128650     0.31572767     0.41458969     0.53033537
               0.66584808     0.82450364     1.01025438     1.22772762
               1.48234092     1.78043706     2.12944203     2.53805004
               3.01644009     3.57652955     4.23227104     5.00000000

     Gradients computed in reciprocal space

     Adding external electric field

     Computed dipole along edir(3) :
        Dipole                0.0000 Ry au,          0.0000 Debye
        Dipole field          0.0000 Ry au

        Potential amp.       -0.0000 Ry
        Total length         45.2624 bohr

     Starting wfc are  156 randomized atomic wfcs

     Self-consistent Calculation

     iteration #  1     ecut=    36.75 Ry     beta=0.10
     Davidson diagonalization with overlap
     ethr =  1.00E-02,  avg # of iterations =  2.1

[...]

     total energy              =   -2082.60294918 Ry
     Harris-Foulkes estimate   =   -2082.93528191 Ry
     estimated scf accuracy    <       2.12995117 Ry

[...]

     End of self-consistent calculation

          k = 0.0000 0.0000 0.0000 ( 16811 PWs)   bands (ev):

   -83.9438 -83.9123 -83.9123 -83.6863 -83.6854 -83.6554 -83.6554 -83.6552
   -83.6552 -46.6593 -46.6553 -46.0034 -43.5845 -43.3812 -43.3812 -43.3420
   -43.3227 -43.2625 -43.2625 -43.2411 -43.0584 -43.0340 -43.0340 -42.9924
   -42.9811 -42.9811 -42.9623 -42.9623 -42.9416 -42.9416 -42.9112 -42.8847
   -42.8847 -42.7479 -42.7479 -42.7398 -42.7398 -42.7163 -42.7051 -25.3839
   -25.3660 -25.2435 -25.2435 -25.2388 -25.2388 -24.6795 -24.6759 -24.6759
    -5.6146  -3.9972  -3.4140  -2.9105  -2.8133  -2.8133  -2.4785  -2.4785
    -2.2401  -2.1038  -1.9990  -1.9990  -1.8356  -1.8356  -1.8173  -1.0115
    -0.3700  -0.3700  -0.0231  -0.0231   0.2443   0.3225   0.6808   0.7670
     1.0147   1.0147   1.2178   1.2178   1.3987   1.3987   1.6859   1.7194
     1.7194   1.9261   1.9261   2.4026   2.7686   2.7686   2.8109   2.8568
     2.8568   3.1154   3.1856   3.1856   3.6689   3.8298   3.8298   4.1622
     4.3414   4.3779   4.3779   4.9241   5.2295   5.3159   5.5254   5.5254
     5.7879   5.9424   5.9424   6.3965   6.3965   6.4448   6.4448   6.4836
     6.5418   6.6090   6.6090   6.9785   6.9800   6.9800

[...]

          k =-0.0894-0.0516 0.0000 ( 16912 PWs)   bands (ev):

[...]

     the Fermi energy is     2.3661 ev

!    total energy              =   -2082.44237346 Ry
     Harris-Foulkes estimate   =   -2082.44236920 Ry
     estimated scf accuracy    <       0.00000018 Ry

     The total energy is the sum of the following terms:

     one-electron contribution =  -17208.97977239 Ry
     hartree contribution      =    8589.48310398 Ry
     xc contribution           =    -390.05746564 Ry
     ewald contribution        =    6927.19469604 Ry
     electric field correction =       0.00000000 Ry
     smearing contrib. (-TS)   =      -0.08293545 Ry

     convergence has been achieved in  16 iterations

 BEEF-vdW xc energy contributions
           1 :   -340.524700885444
           2 :    313.778084950015
           3 :   -267.245139402958
           4 :    212.013083514854
           5 :   -159.338071853763
           6 :    117.323110434341
           7 :   -89.3169199473355
           8 :    74.1620691763232
           9 :   -67.7822087913373
          10 :    65.2673483773879
[...]
     Pseudo is Ultrasoft + core correction, Zval = 16.0
     Generated by new atomic code, or converted to UPF format
     Using radial grid of  983 points,  8 beta functions with:
                l(1) =   0
                l(2) =   0
                l(3) =   1
                l(4) =   1
                l(5) =   2
                l(6) =   2
                l(7) =   3
                l(8) =   3
     Q(r) pseudized with  8 coefficients,  rinner =    1.150   1.150   1.150
                                                       1.150   1.150   1.150
                                                       1.150

     PseudoPot. # 2 for Sc read from file:
     /afs/slac.stanford.edu/u/if/mamunm/psp/gbrv1.5pbe/Sc.UPF
     MD5 check sum: db30a2753ba66ef00f23801d899b7e7f
     Pseudo is Ultrasoft + core correction, Zval = 11.0
     Generated by new atomic code, or converted to UPF format
     Using radial grid of  849 points,  6 beta functions with:
                l(1) =   0
                l(2) =   0
                l(3) =   1
                l(4) =   1
                l(5) =   2
                l(6) =   2
     Q(r) pseudized with  6 coefficients,  rinner =    1.200   1.200   1.200
                                                       1.200   1.200

     vdW kernel table read from file vdW_kernel_table
     MD5 check sum: 095c7af220d748ca6e76c0b4c6cfb241

     atomic species   valence    mass     pseudopotential
        Os1           16.00   190.23000     Os( 1.00)
        Sc1           11.00    44.95591     Sc( 1.00)

     No symmetry found

   Cartesian axes

     site n.     atom                  positions (alat units)
         1           Os1 tau(   1) = (   0.0000000   0.0000000  10.0000000  )
         2           Os1 tau(   2) = (  -1.3980429   2.4214813  10.0000000  )
         3           Os1 tau(   3) = (   1.3980429   2.4214813  10.0000000  )
         4           Sc1 tau(   4) = (   2.7960857   0.0000000  10.0000000  )
         5           Os1 tau(   5) = (   2.7960857   1.6143209  12.2829944  )
         6           Os1 tau(   6) = (   1.3980429   4.0358021  12.2829944  )
         7           Os1 tau(   7) = (  -1.3980429   4.0358021  12.2829944  )
         8           Sc1 tau(   8) = (   0.0000000   1.6143209  12.2829944  )
         9           Os1 tau(   9) = (   0.0000106   3.2662578  14.4310140  )
        10           Os1 tau(  10) = (   1.4306150   0.7883549  14.4310201  )
        11           Os1 tau(  11) = (   4.1615598   0.7883500  14.4310196  )
        12           Sc1 tau(  12) = (   2.7960953   3.2286436  14.7198227  )

     number of k points=    20  Fermi-Dirac smearing, width (Ry)=  0.0110
                       cart. coord. in units 2pi/alat
        k(    1) = (   0.0000000   0.0000000   0.0000000), wk =   0.0555556
        k(    2) = (   0.0000000   0.0344142   0.0000000), wk =   0.1111111
        k(    3) = (   0.0000000   0.0688284   0.0000000), wk =   0.1111111
        k(    4) = (   0.0000000  -0.1032426   0.0000000), wk =   0.0555556
        k(    5) = (   0.0298036   0.0172071   0.0000000), wk =   0.1111111
        k(    6) = (   0.0298036   0.0516213   0.0000000), wk =   0.1111111
        k(    7) = (   0.0298036   0.0860355   0.0000000), wk =   0.1111111
        k(    8) = (   0.0298036  -0.0860355   0.0000000), wk =   0.1111111
        k(    9) = (   0.0298036  -0.0516213   0.0000000), wk =   0.1111111
        k(   10) = (   0.0298036  -0.0172071   0.0000000), wk =   0.1111111
        k(   11) = (   0.0596071   0.0344142   0.0000000), wk =   0.1111111
        k(   12) = (   0.0596071   0.0688284   0.0000000), wk =   0.1111111
        k(   13) = (   0.0596071   0.1032426   0.0000000), wk =   0.1111111
        k(   14) = (   0.0596071  -0.0688284   0.0000000), wk =   0.1111111
        k(   15) = (   0.0596071  -0.0344142   0.0000000), wk =   0.1111111
        k(   16) = (   0.0596071   0.0000000   0.0000000), wk =   0.1111111
        k(   17) = (  -0.0894107  -0.0516213   0.0000000), wk =   0.0555556
        k(   18) = (  -0.0894107  -0.0172071   0.0000000), wk =   0.1111111
        k(   19) = (  -0.0894107   0.0172071   0.0000000), wk =   0.1111111
        k(   20) = (  -0.0894107  -0.1548639   0.0000000), wk =   0.0555556

     Largest allocated arrays     est. size (Mb)     dimensions
     Largest temporary arrays     est. size (Mb)     dimensions

     Initial potential from superposition of free atoms
     Check: negative starting charge=   -1.115885

     starting charge  172.49246, renormalised to  177.00000

[...]

     *
     * You are using vdW-DF for exchange-correlation in this calculation.
     * Please cite the following three references that made this development
     * possible:
     *
     *   M. Dion, H. Rydberg, E. Schroder, D. C. Langreth, and
     *   B. I. Lundqvist, Phys. Rev. Lett. 92, 246401 (2004).
     *
     *   T. Thonhauser, V. R. Cooper, S. Li, A. Puzder, P. Hyldgaard, and
     *   D. C. Langreth, Phys. Rev. B 76, 125112 (2007).
     *
     *   G. Roman-Perez and J. M. Soler, Phys. Rev. Lett. 103, 096102 (2009).
     *
     *
     * If you are using vdW-DF2, please also cite:
     *
     *   K. Lee, E. D. Murray, L. Kong, B. I. Lundqvist, and
     *   D. C. Langreth, Phys. Rev. B 82, 081101(R) (2010).
     *
     *
     * If you are calculating the stress with vdW-DF, please also cite:
     *
     *   R. Sabatini, E. Kucukbenli, B. Kolb, T. Thonhauser, and
     *   S. de Gironcoli, J. Phys.: Condens. Matter 24, 424209 (2012).
     *

     Carrying out vdW-DF run using the following parameters:

     Nqs =      20    Nr_points =    1024   r_max =   100.000
     q_mesh =
               0.00001000     0.04494208     0.09755937     0.15916263
               0.23128650     0.31572767     0.41458969     0.53033537
               0.66584808     0.82450364     1.01025438     1.22772762
               1.48234092     1.78043706     2.12944203     2.53805004
               3.01644009     3.57652955     4.23227104     5.00000000

     Gradients computed in reciprocal space

[...]

     Starting wfc are  156 randomized atomic wfcs

     Self-consistent Calculation

[...]

     total energy              =   -2082.46376441 Ry
     Harris-Foulkes estimate   =   -2082.46376414 Ry
     estimated scf accuracy    <       0.00000168 Ry

     iteration # 16     ecut=    36.75 Ry     beta=0.10
     Davidson diagonalization with overlap
     ethr =  9.47E-10,  avg # of iterations =  2.2

[...]

     negative rho (up, down):  1.108E+00 0.000E+00

     Adding external electric field

     Computed dipole along edir(3) :
        Dipole                0.1068 Ry au,          0.2714 Debye
        Dipole field          0.0003 Ry au

        Potential amp.       -0.0271 Ry
        Total length         45.2624 bohr

     End of self-consistent calculation

[...]

          k = 0.0596 0.0000 0.0000 ( 16880 PWs)   bands (ev):

[...]

          k =-0.0894-0.1549 0.0000 ( 16912 PWs)   bands (ev):

   -83.8856 -83.8749 -83.8642 -83.5822 -83.5684 -83.5594 -83.5202 -83.5099
   -83.4997 -46.8259 -46.5151 -45.7753 -43.4735 -43.3813 -43.3040 -43.2486
   -43.1776 -43.1574 -43.1193 -43.0952 -43.0658 -43.0239 -42.9331 -42.9236
   -42.8743 -42.8390 -42.8368 -42.8172 -42.7970 -42.7940 -42.7741 -42.7684
   -42.7500 -42.7363 -42.7298 -42.7093 -42.6797 -42.6417 -42.5767 -25.5601
   -25.3962 -25.3811 -25.2298 -25.1211 -25.1037 -24.4862 -24.4670 -24.4572
    -4.1223  -3.6411  -2.4924  -2.1411  -2.0889  -2.0295  -1.8559  -1.6551
    -1.5049  -1.4878  -1.3040  -1.1454  -0.9045  -0.8960  -0.6738  -0.6283
    -0.5973  -0.3250  -0.2257  -0.1204   0.1719   0.2605   0.3278   0.4231
     0.5345   0.5928   0.6553   0.7721   0.7860   0.8123   0.8563   0.9348
     1.0955   1.3942   1.7273   1.7278   1.8587   2.0392   2.0725   2.1106
     2.2259   2.5635   2.6046   2.7679   2.8184   2.8766   3.0183   3.3284
     3.3529   3.5973   4.0121   4.2068   4.4339   4.8731   5.1253   5.1255
     5.3686   5.4175   5.5483   5.9691   5.9710   6.0463   6.1292   6.2970
     6.6567   6.8777   7.0729   7.3789   7.4249   7.6259

     the Fermi energy is     2.5098 ev

!    total energy              =   -2082.46377050 Ry
     Harris-Foulkes estimate   =   -2082.46376428 Ry
     estimated scf accuracy    <       0.00000046 Ry

     The total energy is the sum of the following terms:

     one-electron contribution =  -17405.40705230 Ry
     hartree contribution      =    8688.25337555 Ry
     xc contribution           =    -390.22118530 Ry
     ewald contribution        =    7024.99405384 Ry
     electric field correction =       0.00003192 Ry
     smearing contrib. (-TS)   =      -0.08299420 Ry

     convergence has been achieved in  16 iterations

 BEEF-vdW xc energy contributions
           1 :   -340.786849883399
           2 :    314.117750201391
           3 :   -267.698151947761
           4 :    212.545381122613
           5 :   -159.850107977154
           6 :    117.697294656340
           7 :   -89.4860428640461
           8 :    74.1491334821141
           9 :   -67.6844391445478
          10 :    65.2016145626129
          11 :   -62.6953081491264
          12 :    58.0061547931540
          13 :   -50.8882947327122
          14 :    42.4493485638961
          15 :   -34.3470879807878
          16 :    28.0346221870499
          17 :   -24.2415554931257
          18 :    22.7869397384436
          19 :   -22.7460016294605
          20 :    22.8842211439211
          21 :   -22.1854338939384
          22 :    20.2513100782672
          23 :   -17.3982995010257
          24 :    14.4123817136522
          25 :   -12.1006476705023
          26 :    10.8789902748579
          27 :   -10.6065908482801
          28 :    10.7266987695739
          29 :   -10.6081513438269
          30 :    9.88267809590195
          31 :   -33.0581605689936
          32 :   -24.9690887602191

     Forces acting on atoms (Ry/au):

     negative rho (up, down):  1.108E+00 0.000E+00
     atom    1 type  1   force =     0.00000231   -0.01299665    0.02451247
     atom    2 type  1   force =    -0.01125543    0.00650065    0.02451138
     atom    3 type  1   force =     0.01125637    0.00649913    0.02451146
     atom    4 type  2   force =     0.00000080    0.00000140   -0.02971373
     atom    5 type  1   force =     0.00000041    0.01904953   -0.00384167
     atom    6 type  1   force =     0.01650175   -0.00952323   -0.00384515
     atom    7 type  1   force =    -0.01650150   -0.00952570   -0.00384811
     atom    8 type  2   force =     0.00000104    0.00000165   -0.03277046
     atom    9 type  1   force =    -0.00000245   -0.00004684   -0.00019860
     atom   10 type  1   force =    -0.00004171    0.00002174   -0.00020011
     atom   11 type  1   force =     0.00003917    0.00002213   -0.00019777
     atom   12 type  2   force =    -0.00000077   -0.00000382    0.00108029

     Total force =     0.073489     Total SCF correction =     0.001209

     entering subroutine stress ...

     negative rho (up, down):  1.108E+00 0.000E+00
          total   stress  (Ry/bohr**3)                   (kbar)     P=  -22.36
  -0.00020192   0.00000000  -0.00000000        -29.70      0.00     -0.00
   0.00000000  -0.00020192  -0.00000000          0.00    -29.70     -0.00
  -0.00000000  -0.00000000  -0.00005222         -0.00     -0.00     -7.68

 !ASE

     Writing output data file calc.save

     General routines

     Parallel routines

   This run was terminated on:  15: 3:55  27Dec2018

   JOB DONE.
Job  /afs/slac/g/suncat/bin/suncat-tsmpirun -x LD_LIBRARY_PATH -wdir /scratch/qe110349_zzxfM pw.x -in pw.inp

TID   HOST_NAME   COMMAND_LINE            STATUS            TERMINATION_TIME
00000 suncat0139 pw.x -in pw.inp   Done                     12/27/2018 15:03:55
00001 suncat0139 pw.x -in pw.inp   Done                     12/27/2018 15:03:55
00002 suncat0139 pw.x -in pw.inp   Done                     12/27/2018 15:03:55
00003 suncat0139 pw.x -in pw.inp   Done                     12/27/2018 15:03:55
00004 suncat0139 pw.x -in pw.inp   Done                     12/27/2018 15:03:55
00005 suncat0139 pw.x -in pw.inp   Done                     12/27/2018 15:03:55
00006 suncat0139 pw.x -in pw.inp   Done                     12/27/2018 15:03:55
00007 suncat0139 pw.x -in pw.inp   Done                     12/27/2018 15:03:55
00008 suncat0124 pw.x -in pw.inp   Done                     12/27/2018 15:03:55
00009 suncat0124 pw.x -in pw.inp   Done                     12/27/2018 15:03:55
00010 suncat0124 pw.x -in pw.inp   Done                     12/27/2018 15:03:55
00011 suncat0124 pw.x -in pw.inp   Done                     12/27/2018 15:03:55
00012 suncat0124 pw.x -in pw.inp   Done                     12/27/2018 15:03:55
00013 suncat0124 pw.x -in pw.inp   Done                     12/27/2018 15:03:55
00014 suncat0124 pw.x -in pw.inp   Done                     12/27/2018 15:03:55
00015 suncat0124 pw.x -in pw.inp   Done                     12/27/2018 15:03:55
00016 suncat0123 pw.x -in pw.inp   Done                     12/27/2018 15:03:55
00017 suncat0123 pw.x -in pw.inp   Done                     12/27/2018 15:03:55
00018 suncat0123 pw.x -in pw.inp   Done                     12/27/2018 15:03:55
00019 suncat0123 pw.x -in pw.inp   Done                     12/27/2018 15:03:55
00020 suncat0123 pw.x -in pw.inp   Done                     12/27/2018 15:03:55
00021 suncat0123 pw.x -in pw.inp   Done                     12/27/2018 15:03:55
00022 suncat0123 pw.x -in pw.inp   Done                     12/27/2018 15:03:55
00023 suncat0123 pw.x -in pw.inp   Done                     12/27/2018 15:03:55
00024 suncat0122 pw.x -in pw.inp   Done                     12/27/2018 15:03:55
00025 suncat0122 pw.x -in pw.inp   Done                     12/27/2018 15:03:55
00026 suncat0122 pw.x -in pw.inp   Done                     12/27/2018 15:03:55
00027 suncat0122 pw.x -in pw.inp   Done                     12/27/2018 15:03:55
00028 suncat0122 pw.x -in pw.inp   Done                     12/27/2018 15:03:55
00029 suncat0122 pw.x -in pw.inp   Done                     12/27/2018 15:03:55
00030 suncat0122 pw.x -in pw.inp   Done                     12/27/2018 15:03:55
00031 suncat0122 pw.x -in pw.inp   Done                     12/27/2018 15:03:55
00032 suncat0241 pw.x -in pw.inp   Done                     12/27/2018 15:03:55
00033 suncat0241 pw.x -in pw.inp   Done                     12/27/2018 15:03:55
00034 suncat0241 pw.x -in pw.inp   Done                     12/27/2018 15:03:55
00035 suncat0241 pw.x -in pw.inp   Done                     12/27/2018 15:03:55
00036 suncat0241 pw.x -in pw.inp   Done                     12/27/2018 15:03:55
00037 suncat0241 pw.x -in pw.inp   Done                     12/27/2018 15:03:55
00038 suncat0241 pw.x -in pw.inp   Done                     12/27/2018 15:03:55
00039 suncat0241 pw.x -in pw.inp   Done                     12/27/2018 15:03:55
00040 suncat0240 pw.x -in pw.inp   Done                     12/27/2018 15:03:55
00041 suncat0240 pw.x -in pw.inp   Done                     12/27/2018 15:03:55
00042 suncat0240 pw.x -in pw.inp   Done                     12/27/2018 15:03:55
00043 suncat0240 pw.x -in pw.inp   Done                     12/27/2018 15:03:55
00044 suncat0240 pw.x -in pw.inp   Done                     12/27/2018 15:03:55
00045 suncat0240 pw.x -in pw.inp   Done                     12/27/2018 15:03:55
00046 suncat0240 pw.x -in pw.inp   Done                     12/27/2018 15:03:55
00047 suncat0240 pw.x -in pw.inp   Done                     12/27/2018 15:03:55
00048 suncat0239 pw.x -in pw.inp   Done                     12/27/2018 15:03:55
00049 suncat0239 pw.x -in pw.inp   Done                     12/27/2018 15:03:55
00050 suncat0239 pw.x -in pw.inp   Done                     12/27/2018 15:03:55
00051 suncat0239 pw.x -in pw.inp   Done                     12/27/2018 15:03:55
00052 suncat0239 pw.x -in pw.inp   Done                     12/27/2018 15:03:55
00053 suncat0239 pw.x -in pw.inp   Done                     12/27/2018 15:03:55
00054 suncat0239 pw.x -in pw.inp   Done                     12/27/2018 15:03:55
00055 suncat0239 pw.x -in pw.inp   Done                     12/27/2018 15:03:55
00056 suncat0098 pw.x -in pw.inp   Done                     12/27/2018 15:03:55
00057 suncat0098 pw.x -in pw.inp   Done                     12/27/2018 15:03:55
00058 suncat0098 pw.x -in pw.inp   Done                     12/27/2018 15:03:55
00059 suncat0098 pw.x -in pw.inp   Done                     12/27/2018 15:03:55
00060 suncat0098 pw.x -in pw.inp   Done                     12/27/2018 15:03:55
00061 suncat0098 pw.x -in pw.inp   Done                     12/27/2018 15:03:55
00062 suncat0098 pw.x -in pw.inp   Done                     12/27/2018 15:03:55
00063 suncat0098 pw.x -in pw.inp   Done                     12/27/2018 15:03:55