     Program PWSCF v.5.1rc2 (svn rev. 11289) starts on 25Dec2018 at 23:41:16

     Current dimensions of program PWSCF are:
     Max number of different atomic species (ntypx) = 10
     Max number of k-points (npk) =  40000
     Max angular momentum in pseudopotentials (lmaxx) =  3
     Presently stress not available with electric field

     IMPORTANT: XC functional enforced from input :
     Exchange-correlation      = BEEF-VDW ( 1  4 27 13 2)
     Any further DFT definition will be discarded
     Please, verify this is what you really want

     Subspace diagonalization in iterative solution of the eigenvalue problem:
     a serial algorithm will be used

     bravais-lattice index     =            0
     lattice parameter (alat)  =       1.8897  a.u.
     unit-cell volume          =    5772.9128 (a.u.)^3
     number of atoms/cell      =           12
     number of atomic types    =            2
     number of electrons       =       207.00
     number of Kohn-Sham states=          133
     kinetic-energy cutoff     =      36.7493  Ry
     charge density cutoff     =     367.4932  Ry
     convergence threshold     =      1.0E-06
     mixing beta               =       0.1000
     number of iterations used =           10  plain     mixing
     Exchange-correlation      = BEEF-VDW ( 1  4 27 13 2)
     nstep                     =           50

     celldm(1)=   1.889726  celldm(2)=   0.000000  celldm(3)=   0.000000
     celldm(4)=   0.000000  celldm(5)=   0.000000  celldm(6)=   0.000000

     crystal axes: (cart. coord. in units of alat)
               a(1) = (   6.270805   0.000000   0.000000 )
               a(2) = (  -3.135402   5.430676   0.000000 )
               a(3) = (   0.000000   0.000000  25.120091 )

     reciprocal axes: (cart. coord. in units 2 pi/alat)
               b(1) = (  0.159469  0.092070  0.000000 )
               b(2) = (  0.000000  0.184139  0.000000 )
               b(3) = (  0.000000  0.000000  0.039809 )

     PseudoPot. # 1 for Ga read from file:
     /afs/slac.stanford.edu/u/if/mamunm/psp/gbrv1.5pbe/Ga.UPF
     MD5 check sum: ccd671392a58a050fbb373893b4fcd66
     Pseudo is Ultrasoft + core correction, Zval = 19.0
     Generated by new atomic code, or converted to UPF format
     Using radial grid of  871 points,  6 beta functions with:
                l(1) =   0
                l(2) =   0
                l(3) =   1
                l(4) =   1
                l(5) =   2
                l(6) =   2
     Q(r) pseudized with  8 coefficients,  rinner =    1.250   1.250   1.250
                                                       1.250   1.250

     PseudoPot. # 2 for Hg read from file:
     /afs/slac.stanford.edu/u/if/mamunm/psp/gbrv1.5pbe/Hg.UPF
     MD5 check sum: 8f42caffe07f7fd9c0a564347f8c5498
     Pseudo is Ultrasoft + core correction, Zval = 12.0
     Generated by new atomic code, or converted to UPF format
     Using radial grid of  985 points,  6 beta functions with:
                l(1) =   0
                l(2) =   0
                l(3) =   1
                l(4) =   1
                l(5) =   2
                l(6) =   2
     Q(r) pseudized with  8 coefficients,  rinner =    2.000   2.000   2.000
                                                       2.000   2.000

     vdW kernel table read from file vdW_kernel_table
     MD5 check sum: 095c7af220d748ca6e76c0b4c6cfb241

     atomic species   valence    mass     pseudopotential
        Ga1           19.00    69.72300     Ga( 1.00)
        Hg1           12.00   200.59200     Hg( 1.00)

     No symmetry found

   Cartesian axes

     site n.     atom                  positions (alat units)
         1           Ga1 tau(   1) = (   0.0000000   0.0000000  10.0000000  )
         2           Ga1 tau(   2) = (  -1.5677012   2.7153381  10.0000000  )
         3           Ga1 tau(   3) = (   1.5677012   2.7153381  10.0000000  )
         4           Hg1 tau(   4) = (   3.1354024   0.0000000  10.0000000  )
         5           Ga1 tau(   5) = (   3.1354024   1.8102254  12.5600453  )
         6           Ga1 tau(   6) = (   1.5677012   4.5255635  12.5600453  )
         7           Ga1 tau(   7) = (  -1.5677012   4.5255635  12.5600453  )
         8           Hg1 tau(   8) = (   0.0000000   1.8102254  12.5600453  )
         9           Ga1 tau(   9) = (  -0.0000000   3.6204508  15.1200907  )
        10           Ga1 tau(  10) = (   1.5677012   0.9051127  15.1200907  )
        11           Ga1 tau(  11) = (   4.7031036   0.9051127  15.1200907  )
        12           Hg1 tau(  12) = (   3.1354024   3.6204508  15.1200907  )

     number of k points=    20  Fermi-Dirac smearing, width (Ry)=  0.0110
                       cart. coord. in units 2pi/alat
        k(    1) = (   0.0000000   0.0000000   0.0000000), wk =   0.0555556
        k(    2) = (   0.0000000   0.0306899   0.0000000), wk =   0.1111111
        k(    3) = (   0.0000000   0.0613797   0.0000000), wk =   0.1111111
        k(    4) = (   0.0000000  -0.0920696   0.0000000), wk =   0.0555556
        k(    5) = (   0.0265782   0.0153449   0.0000000), wk =   0.1111111
        k(    6) = (   0.0265782   0.0460348   0.0000000), wk =   0.1111111
        k(    7) = (   0.0265782   0.0767246   0.0000000), wk =   0.1111111
        k(    8) = (   0.0265782  -0.0767246   0.0000000), wk =   0.1111111
        k(    9) = (   0.0265782  -0.0460348   0.0000000), wk =   0.1111111
        k(   10) = (   0.0265782  -0.0153449   0.0000000), wk =   0.1111111
        k(   11) = (   0.0531564   0.0306899   0.0000000), wk =   0.1111111
        k(   12) = (   0.0531564   0.0613797   0.0000000), wk =   0.1111111
        k(   13) = (   0.0531564   0.0920696   0.0000000), wk =   0.1111111
        k(   14) = (   0.0531564  -0.0613797   0.0000000), wk =   0.1111111
        k(   15) = (   0.0531564  -0.0306899   0.0000000), wk =   0.1111111
        k(   16) = (   0.0531564   0.0000000   0.0000000), wk =   0.1111111
        k(   17) = (  -0.0797346  -0.0460348   0.0000000), wk =   0.0555556
        k(   18) = (  -0.0797346  -0.0153449   0.0000000), wk =   0.1111111
        k(   19) = (  -0.0797346   0.0153449   0.0000000), wk =   0.1111111
        k(   20) = (  -0.0797346  -0.1381043   0.0000000), wk =   0.0555556

     Largest allocated arrays     est. size (Mb)     dimensions
     Largest temporary arrays     est. size (Mb)     dimensions

     Initial potential from superposition of free atoms
     Check: negative starting charge=   -0.001122

     starting charge  197.99982, renormalised to  207.00000

     negative rho (up, down):  1.173E-03 0.000E+00

     *
     * You are using vdW-DF for exchange-correlation in this calculation.
     * Please cite the following three references that made this development
     * possible:
     *
     *   M. Dion, H. Rydberg, E. Schroder, D. C. Langreth, and
     *   B. I. Lundqvist, Phys. Rev. Lett. 92, 246401 (2004).
     *
     *   T. Thonhauser, V. R. Cooper, S. Li, A. Puzder, P. Hyldgaard, and
     *   D. C. Langreth, Phys. Rev. B 76, 125112 (2007).
     *
     *   G. Roman-Perez and J. M. Soler, Phys. Rev. Lett. 103, 096102 (2009).
     *
     *
     * If you are using vdW-DF2, please also cite:
     *
     *   K. Lee, E. D. Murray, L. Kong, B. I. Lundqvist, and
     *   D. C. Langreth, Phys. Rev. B 82, 081101(R) (2010).
     *
     *
     * If you are calculating the stress with vdW-DF, please also cite:
     *
     *   R. Sabatini, E. Kucukbenli, B. Kolb, T. Thonhauser, and
     *   S. de Gironcoli, J. Phys.: Condens. Matter 24, 424209 (2012).
     *

     Carrying out vdW-DF run using the following parameters:

     Nqs =      20    Nr_points =    1024   r_max =   100.000
     q_mesh =
               0.00001000     0.04494208     0.09755937     0.15916263
               0.23128650     0.31572767     0.41458969     0.53033537
               0.66584808     0.82450364     1.01025438     1.22772762
               1.48234092     1.78043706     2.12944203     2.53805004
               3.01644009     3.57652955     4.23227104     5.00000000

     Gradients computed in reciprocal space

     Adding external electric field

     Computed dipole along edir(3) :
        Dipole                0.0000 Ry au,          0.0000 Debye
        Dipole field          0.0000 Ry au

        Potential amp.       -0.0000 Ry
        Total length         46.2833 bohr

     Starting wfc are  135 randomized atomic wfcs

     Self-consistent Calculation

     iteration #  1     ecut=    36.75 Ry     beta=0.10
     Davidson diagonalization with overlap
     ethr =  1.00E-02,  avg # of iterations =  7.8

[...]

     total energy              =   -4078.72852454 Ry
     Harris-Foulkes estimate   =   -4087.82813236 Ry
     estimated scf accuracy    <      51.27448464 Ry

[...]

     End of self-consistent calculation

          k = 0.0000 0.0000 0.0000 ( 21811 PWs)   bands (ev):

   -94.7254 -94.7235 -94.7231 -94.7223 -94.7222 -94.7222 -94.7222 -94.7222
   -94.7221 -94.7179 -94.7161 -94.7158 -94.7105 -94.7105 -94.7104 -94.7104
   -94.7100 -94.7100 -94.7039 -94.7021 -94.7016 -94.7005 -94.7004 -94.6992
   -94.6992 -94.6990 -94.6990 -15.1491 -15.1379 -15.1374 -15.1269 -15.1184
   -15.1160 -15.1071 -15.1011 -15.1010 -15.0994 -15.0985 -15.0867 -15.0865
   -15.0808 -15.0807 -15.0754 -15.0716 -15.0686 -15.0556 -15.0556 -15.0463
   -15.0335 -15.0325 -15.0207 -15.0200 -15.0200 -15.0175 -15.0153 -15.0152
   -14.9978 -14.9978 -14.9978 -14.9975 -14.9829 -14.9824 -14.9706 -14.9676
   -14.9674 -14.9640 -14.9639 -14.9388 -14.9377 -14.9376 -14.9269 -14.9226
    -9.4391  -8.1538  -7.5638  -7.4315  -7.4315  -7.2385  -7.2385  -7.0824
    -7.0824  -6.9489  -6.9489  -6.9346  -6.8628  -6.8628  -6.8117  -6.8117
    -6.7484  -5.3540  -4.1409  -4.1406  -3.9537  -3.9536  -3.6444  -3.4560
    -2.8317  -2.8316  -2.2542  -2.1213  -1.9806  -1.9806  -1.7187  -0.5446
    -0.5445  -0.2586  -0.2585  -0.1876  -0.0975   1.2867   3.1412   3.2329
     3.2330   3.2703   3.2704   3.7039   3.9977   4.1874   4.6342   4.8356
     4.8435   5.5898   5.5898   6.1093   6.1580   6.1581   6.3165   6.3504
     6.7439   7.1579   7.1583   7.2020   7.3477

[...]

          k =-0.0797-0.0460 0.0000 ( 21712 PWs)   bands (ev):

[...]

     the Fermi energy is     0.1544 ev

!    total energy              =   -4076.53519787 Ry
     Harris-Foulkes estimate   =   -4076.53519257 Ry
     estimated scf accuracy    <       0.00000030 Ry

     The total energy is the sum of the following terms:

     one-electron contribution =  -20817.66106867 Ry
     hartree contribution      =   10433.19186256 Ry
     xc contribution           =    -568.42385496 Ry
     ewald contribution        =    6876.39402078 Ry
     electric field correction =       0.00000000 Ry
     smearing contrib. (-TS)   =      -0.03615758 Ry

     convergence has been achieved in  15 iterations

 BEEF-vdW xc energy contributions
           1 :   -505.954584691617
           2 :    460.552715678090
           3 :   -383.892147708734
           4 :    297.515474893137
           5 :   -220.952606022012
           6 :    164.587228811127
           7 :   -127.968263535282
           8 :    103.522385233653
           9 :   -82.7958963703840
          10 :    61.3900414811125
[...]
     Using radial grid of  871 points,  6 beta functions with:
                l(1) =   0
                l(2) =   0
                l(3) =   1
                l(4) =   1
                l(5) =   2
                l(6) =   2
     Q(r) pseudized with  8 coefficients,  rinner =    1.250   1.250   1.250
                                                       1.250   1.250

     PseudoPot. # 2 for Hg read from file:
     /afs/slac.stanford.edu/u/if/mamunm/psp/gbrv1.5pbe/Hg.UPF
     MD5 check sum: 8f42caffe07f7fd9c0a564347f8c5498
     Pseudo is Ultrasoft + core correction, Zval = 12.0
     Generated by new atomic code, or converted to UPF format
     Using radial grid of  985 points,  6 beta functions with:
                l(1) =   0
                l(2) =   0
                l(3) =   1
                l(4) =   1
                l(5) =   2
                l(6) =   2
     Q(r) pseudized with  8 coefficients,  rinner =    2.000   2.000   2.000
                                                       2.000   2.000

     vdW kernel table read from file vdW_kernel_table
     MD5 check sum: 095c7af220d748ca6e76c0b4c6cfb241

     atomic species   valence    mass     pseudopotential
        Ga1           19.00    69.72300     Ga( 1.00)
        Hg1           12.00   200.59200     Hg( 1.00)

     No symmetry found

   Cartesian axes

     site n.     atom                  positions (alat units)
         1           Ga1 tau(   1) = (   0.0000000   0.0000000  10.0000000  )
         2           Ga1 tau(   2) = (  -1.5677012   2.7153381  10.0000000  )
         3           Ga1 tau(   3) = (   1.5677012   2.7153381  10.0000000  )
         4           Hg1 tau(   4) = (   3.1354024   0.0000000  10.0000000  )
         5           Ga1 tau(   5) = (   3.1354024   1.8102254  12.5600453  )
         6           Ga1 tau(   6) = (   1.5677012   4.5255635  12.5600453  )
         7           Ga1 tau(   7) = (  -1.5677012   4.5255635  12.5600453  )
         8           Hg1 tau(   8) = (   0.0000000   1.8102254  12.5600453  )
         9           Ga1 tau(   9) = (  -0.0000045   3.6609982  15.0886232  )
        10           Ga1 tau(  10) = (   1.6026954   0.8846648  15.0892198  )
        11           Ga1 tau(  11) = (   4.6681293   0.8847014  15.0892175  )
        12           Hg1 tau(  12) = (   3.1354441   3.6178556  15.4473663  )

     number of k points=    20  Fermi-Dirac smearing, width (Ry)=  0.0110
                       cart. coord. in units 2pi/alat
        k(    1) = (   0.0000000   0.0000000   0.0000000), wk =   0.0555556
        k(    2) = (   0.0000000   0.0306899   0.0000000), wk =   0.1111111
        k(    3) = (   0.0000000   0.0613797   0.0000000), wk =   0.1111111
        k(    4) = (   0.0000000  -0.0920696   0.0000000), wk =   0.0555556
        k(    5) = (   0.0265782   0.0153449   0.0000000), wk =   0.1111111
        k(    6) = (   0.0265782   0.0460348   0.0000000), wk =   0.1111111
        k(    7) = (   0.0265782   0.0767246   0.0000000), wk =   0.1111111
        k(    8) = (   0.0265782  -0.0767246   0.0000000), wk =   0.1111111
        k(    9) = (   0.0265782  -0.0460348   0.0000000), wk =   0.1111111
        k(   10) = (   0.0265782  -0.0153449   0.0000000), wk =   0.1111111
        k(   11) = (   0.0531564   0.0306899   0.0000000), wk =   0.1111111
        k(   12) = (   0.0531564   0.0613797   0.0000000), wk =   0.1111111
        k(   13) = (   0.0531564   0.0920696   0.0000000), wk =   0.1111111
        k(   14) = (   0.0531564  -0.0613797   0.0000000), wk =   0.1111111
        k(   15) = (   0.0531564  -0.0306899   0.0000000), wk =   0.1111111
        k(   16) = (   0.0531564   0.0000000   0.0000000), wk =   0.1111111
        k(   17) = (  -0.0797346  -0.0460348   0.0000000), wk =   0.0555556
        k(   18) = (  -0.0797346  -0.0153449   0.0000000), wk =   0.1111111
        k(   19) = (  -0.0797346   0.0153449   0.0000000), wk =   0.1111111
        k(   20) = (  -0.0797346  -0.1381043   0.0000000), wk =   0.0555556

     Largest allocated arrays     est. size (Mb)     dimensions
     Largest temporary arrays     est. size (Mb)     dimensions

     Initial potential from superposition of free atoms
     Check: negative starting charge=   -0.001081

     starting charge  197.99982, renormalised to  207.00000

[...]

     *
     * You are using vdW-DF for exchange-correlation in this calculation.
     * Please cite the following three references that made this development
     * possible:
     *
     *   M. Dion, H. Rydberg, E. Schroder, D. C. Langreth, and
     *   B. I. Lundqvist, Phys. Rev. Lett. 92, 246401 (2004).
     *
     *   T. Thonhauser, V. R. Cooper, S. Li, A. Puzder, P. Hyldgaard, and
     *   D. C. Langreth, Phys. Rev. B 76, 125112 (2007).
     *
     *   G. Roman-Perez and J. M. Soler, Phys. Rev. Lett. 103, 096102 (2009).
     *
     *
     * If you are using vdW-DF2, please also cite:
     *
     *   K. Lee, E. D. Murray, L. Kong, B. I. Lundqvist, and
     *   D. C. Langreth, Phys. Rev. B 82, 081101(R) (2010).
     *
     *
     * If you are calculating the stress with vdW-DF, please also cite:
     *
     *   R. Sabatini, E. Kucukbenli, B. Kolb, T. Thonhauser, and
     *   S. de Gironcoli, J. Phys.: Condens. Matter 24, 424209 (2012).
     *

     Carrying out vdW-DF run using the following parameters:

     Nqs =      20    Nr_points =    1024   r_max =   100.000
     q_mesh =
               0.00001000     0.04494208     0.09755937     0.15916263
               0.23128650     0.31572767     0.41458969     0.53033537
               0.66584808     0.82450364     1.01025438     1.22772762
               1.48234092     1.78043706     2.12944203     2.53805004
               3.01644009     3.57652955     4.23227104     5.00000000

     Gradients computed in reciprocal space

[...]

     Starting wfc are  135 randomized atomic wfcs

     Self-consistent Calculation

[...]

     total energy              =   -4076.54641979 Ry
     Harris-Foulkes estimate   =   -4076.54641741 Ry
     estimated scf accuracy    <       0.00000260 Ry

     iteration # 15     ecut=    36.75 Ry     beta=0.10
     Davidson diagonalization with overlap
     ethr =  1.26E-09,  avg # of iterations =  2.0

[...]

     negative rho (up, down):  8.791E-04 0.000E+00

     Adding external electric field

     Computed dipole along edir(3) :
        Dipole               -0.0053 Ry au,         -0.0135 Debye
        Dipole field         -0.0000 Ry au

        Potential amp.        0.0011 Ry
        Total length         46.2833 bohr

     End of self-consistent calculation

[...]

          k = 0.0532 0.0000 0.0000 ( 21747 PWs)   bands (ev):

[...]

          k =-0.0797-0.1381 0.0000 ( 21712 PWs)   bands (ev):

   -94.7372 -94.7372 -94.7370 -94.7369 -94.7368 -94.7368 -94.7291 -94.7290
   -94.7287 -94.7247 -94.7246 -94.7243 -94.7242 -94.7239 -94.7237 -94.7182
   -94.7177 -94.7173 -94.7171 -94.7170 -94.7167 -94.7143 -94.7140 -94.7134
   -94.7027 -94.7025 -94.7022 -15.1397 -15.1237 -15.1172 -15.1109 -15.1075
   -15.1042 -15.0983 -15.0962 -15.0909 -15.0881 -15.0865 -15.0801 -15.0769
   -15.0710 -15.0665 -15.0661 -15.0624 -15.0609 -15.0539 -15.0532 -15.0482
   -15.0479 -15.0452 -15.0425 -15.0410 -15.0384 -15.0376 -15.0319 -15.0300
   -15.0274 -15.0249 -15.0213 -15.0145 -15.0130 -15.0086 -15.0076 -14.9994
   -14.9969 -14.9933 -14.9918 -14.9877 -14.9827 -14.9680 -14.9588 -14.9390
    -8.2405  -8.1344  -7.6086  -7.3457  -7.2685  -7.1665  -7.1643  -7.1011
    -7.0007  -6.9597  -6.9217  -6.9103  -6.8107  -6.8044  -6.7572  -6.7092
    -6.6980  -6.4929  -6.0894  -5.4655  -4.7596  -4.5748  -4.2982  -4.1533
    -3.5136  -2.7431  -1.8107  -0.4249  -0.3803   0.1681   0.2672   0.4969
     0.6064   1.3728   1.4370   1.6395   1.7575   2.1872   2.4616   2.5395
     2.8921   3.1193   3.2242   3.5458   3.6504   4.0012   4.0756   4.2688
     4.4387   4.5301   4.6815   4.9289   5.0776   5.1309   5.2525   5.6817
     5.7252   5.9190   6.0541   6.1343   6.3177

     the Fermi energy is     0.1382 ev

!    total energy              =   -4076.54642607 Ry
     Harris-Foulkes estimate   =   -4076.54642018 Ry
     estimated scf accuracy    <       0.00000062 Ry

     The total energy is the sum of the following terms:

     one-electron contribution =  -20732.32355387 Ry
     hartree contribution      =   10390.55878643 Ry
     xc contribution           =    -568.40830996 Ry
     ewald contribution        =    6833.66221022 Ry
     electric field correction =       0.00000006 Ry
     smearing contrib. (-TS)   =      -0.03555895 Ry

     convergence has been achieved in  15 iterations

 BEEF-vdW xc energy contributions
           1 :   -506.144677268334
           2 :    460.707082127768
           3 :   -384.008123069444
           4 :    297.626661690601
           5 :   -221.103408608090
           6 :    164.801414474607
           7 :   -128.232820115617
           8 :    103.795624569299
           9 :   -83.0334185914749
          10 :    61.5719550736218
          11 :   -40.2738541465998
          12 :    22.7952377205009
          13 :   -11.8869136936678
          14 :    7.13027045739193
          15 :   -5.37674670828676
          16 :    3.11608420874711
          17 :    1.20066301586348
          18 :   -6.53383256150073
          19 :    10.5399662741690
          20 :   -11.6013192401349
          21 :    10.0461002742430
          22 :   -7.77744459630776
          23 :    6.76712492048227
          24 :   -7.65104865295132
          25 :    9.45620113094901
          26 :   -10.5475258843725
          27 :    9.96316407021743
          28 :   -8.09642745232293
          29 :    6.26829240616598
          30 :   -5.61857512954305
          31 :   -39.2876426328162
          32 :   -27.1783537084112

     Forces acting on atoms (Ry/au):

     negative rho (up, down):  8.791E-04 0.000E+00
     atom    1 type  1   force =     0.00000105   -0.00393356    0.00010575
     atom    2 type  1   force =    -0.00338583    0.00193149    0.00010272
     atom    3 type  1   force =     0.00339155    0.00193274    0.00009917
     atom    4 type  2   force =    -0.00000035   -0.00001730   -0.01002754
     atom    5 type  1   force =    -0.00000029    0.00484393    0.00232924
     atom    6 type  1   force =     0.00423474   -0.00245203    0.00235545
     atom    7 type  1   force =    -0.00423868   -0.00245599    0.00235439
     atom    8 type  2   force =     0.00000011   -0.00002825    0.00003198
     atom    9 type  1   force =     0.00000027    0.00081869    0.00030386
     atom   10 type  1   force =     0.00069209   -0.00037434    0.00027332
     atom   11 type  1   force =    -0.00069234   -0.00037313    0.00027555
     atom   12 type  2   force =    -0.00000232    0.00010775    0.00179611

     Total force =     0.015486     Total SCF correction =     0.003340
     SCF correction compared to forces is large: reduce conv_thr to get better values

     entering subroutine stress ...

     negative rho (up, down):  8.791E-04 0.000E+00
          total   stress  (Ry/bohr**3)                   (kbar)     P=   -1.89
  -0.00002800   0.00000000  -0.00000000         -4.12      0.00     -0.00
   0.00000000  -0.00002808   0.00000002          0.00     -4.13      0.00
  -0.00000000   0.00000002   0.00001757         -0.00      0.00      2.58

 !ASE

     Writing output data file calc.save

     General routines

     Parallel routines

   This run was terminated on:   2:56:27  26Dec2018

   JOB DONE.
Job  /afs/slac/g/suncat/bin/suncat-tsmpirun -x LD_LIBRARY_PATH -wdir /scratch/qe109675_cGWvm pw.x -in pw.inp

TID   HOST_NAME   COMMAND_LINE            STATUS            TERMINATION_TIME
00000 suncat0178 pw.x -in pw.inp   Done                     12/26/2018 02:56:27
00001 suncat0178 pw.x -in pw.inp   Done                     12/26/2018 02:56:27
00002 suncat0178 pw.x -in pw.inp   Done                     12/26/2018 02:56:27
00003 suncat0178 pw.x -in pw.inp   Done                     12/26/2018 02:56:27
00004 suncat0178 pw.x -in pw.inp   Done                     12/26/2018 02:56:27
00005 suncat0178 pw.x -in pw.inp   Done                     12/26/2018 02:56:27
00006 suncat0178 pw.x -in pw.inp   Done                     12/26/2018 02:56:27
00007 suncat0178 pw.x -in pw.inp   Done                     12/26/2018 02:56:27
00008 suncat0177 pw.x -in pw.inp   Done                     12/26/2018 02:56:27
00009 suncat0177 pw.x -in pw.inp   Done                     12/26/2018 02:56:27
00010 suncat0177 pw.x -in pw.inp   Done                     12/26/2018 02:56:27
00011 suncat0177 pw.x -in pw.inp   Done                     12/26/2018 02:56:27
00012 suncat0177 pw.x -in pw.inp   Done                     12/26/2018 02:56:27
00013 suncat0177 pw.x -in pw.inp   Done                     12/26/2018 02:56:27
00014 suncat0177 pw.x -in pw.inp   Done                     12/26/2018 02:56:27
00015 suncat0177 pw.x -in pw.inp   Done                     12/26/2018 02:56:27
00016 suncat0129 pw.x -in pw.inp   Done                     12/26/2018 02:56:27
00017 suncat0129 pw.x -in pw.inp   Done                     12/26/2018 02:56:27
00018 suncat0129 pw.x -in pw.inp   Done                     12/26/2018 02:56:27
00019 suncat0129 pw.x -in pw.inp   Done                     12/26/2018 02:56:27
00020 suncat0129 pw.x -in pw.inp   Done                     12/26/2018 02:56:27
00021 suncat0129 pw.x -in pw.inp   Done                     12/26/2018 02:56:27
00022 suncat0129 pw.x -in pw.inp   Done                     12/26/2018 02:56:27
00023 suncat0129 pw.x -in pw.inp   Done                     12/26/2018 02:56:27
00024 suncat0254 pw.x -in pw.inp   Done                     12/26/2018 02:56:27
00025 suncat0254 pw.x -in pw.inp   Done                     12/26/2018 02:56:27
00026 suncat0254 pw.x -in pw.inp   Done                     12/26/2018 02:56:27
00027 suncat0254 pw.x -in pw.inp   Done                     12/26/2018 02:56:27
00028 suncat0254 pw.x -in pw.inp   Done                     12/26/2018 02:56:27
00029 suncat0254 pw.x -in pw.inp   Done                     12/26/2018 02:56:27
00030 suncat0254 pw.x -in pw.inp   Done                     12/26/2018 02:56:27
00031 suncat0254 pw.x -in pw.inp   Done                     12/26/2018 02:56:27
00032 suncat0253 pw.x -in pw.inp   Done                     12/26/2018 02:56:27
00033 suncat0253 pw.x -in pw.inp   Done                     12/26/2018 02:56:27
00034 suncat0253 pw.x -in pw.inp   Done                     12/26/2018 02:56:27
00035 suncat0253 pw.x -in pw.inp   Done                     12/26/2018 02:56:27
00036 suncat0253 pw.x -in pw.inp   Done                     12/26/2018 02:56:27
00037 suncat0253 pw.x -in pw.inp   Done                     12/26/2018 02:56:27
00038 suncat0253 pw.x -in pw.inp   Done                     12/26/2018 02:56:27
00039 suncat0253 pw.x -in pw.inp   Done                     12/26/2018 02:56:27
00040 suncat0244 pw.x -in pw.inp   Done                     12/26/2018 02:56:27
00041 suncat0244 pw.x -in pw.inp   Done                     12/26/2018 02:56:27
00042 suncat0244 pw.x -in pw.inp   Done                     12/26/2018 02:56:27
00043 suncat0244 pw.x -in pw.inp   Done                     12/26/2018 02:56:27
00044 suncat0244 pw.x -in pw.inp   Done                     12/26/2018 02:56:27
00045 suncat0244 pw.x -in pw.inp   Done                     12/26/2018 02:56:27
00046 suncat0244 pw.x -in pw.inp   Done                     12/26/2018 02:56:27
00047 suncat0244 pw.x -in pw.inp   Done                     12/26/2018 02:56:27
00048 suncat0243 pw.x -in pw.inp   Done                     12/26/2018 02:56:27
00049 suncat0243 pw.x -in pw.inp   Done                     12/26/2018 02:56:27
00050 suncat0243 pw.x -in pw.inp   Done                     12/26/2018 02:56:27
00051 suncat0243 pw.x -in pw.inp   Done                     12/26/2018 02:56:27
00052 suncat0243 pw.x -in pw.inp   Done                     12/26/2018 02:56:27
00053 suncat0243 pw.x -in pw.inp   Done                     12/26/2018 02:56:27
00054 suncat0243 pw.x -in pw.inp   Done                     12/26/2018 02:56:27
00055 suncat0243 pw.x -in pw.inp   Done                     12/26/2018 02:56:27
00056 suncat0242 pw.x -in pw.inp   Done                     12/26/2018 02:56:27
00057 suncat0242 pw.x -in pw.inp   Done                     12/26/2018 02:56:27
00058 suncat0242 pw.x -in pw.inp   Done                     12/26/2018 02:56:27
00059 suncat0242 pw.x -in pw.inp   Done                     12/26/2018 02:56:27
00060 suncat0242 pw.x -in pw.inp   Done                     12/26/2018 02:56:27
00061 suncat0242 pw.x -in pw.inp   Done                     12/26/2018 02:56:27
00062 suncat0242 pw.x -in pw.inp   Done                     12/26/2018 02:56:27
00063 suncat0242 pw.x -in pw.inp   Done                     12/26/2018 02:56:27