     Program PWSCF v.5.1rc2 (svn rev. 11289) starts on 27Dec2018 at  9:39:27

     Current dimensions of program PWSCF are:
     Max number of different atomic species (ntypx) = 10
     Max number of k-points (npk) =  40000
     Max angular momentum in pseudopotentials (lmaxx) =  3
     Presently stress not available with electric field

     IMPORTANT: XC functional enforced from input :
     Exchange-correlation      = BEEF-VDW ( 1  4 27 13 2)
     Any further DFT definition will be discarded
     Please, verify this is what you really want

     Subspace diagonalization in iterative solution of the eigenvalue problem:
     a serial algorithm will be used

     Generating pointlists ...
     new r_m :   0.4125 (alat units)  0.7795 (a.u.) for type    1
     new r_m :   0.4125 (alat units)  0.7795 (a.u.) for type    2

     bravais-lattice index     =            0
     lattice parameter (alat)  =       1.8897  a.u.
     unit-cell volume          =    3744.3055 (a.u.)^3
     number of atoms/cell      =           12
     number of atomic types    =            2
     number of electrons       =       207.00
     number of Kohn-Sham states=          133
     kinetic-energy cutoff     =      36.7493  Ry
     charge density cutoff     =     367.4932  Ry
     convergence threshold     =      1.0E-06
     mixing beta               =       0.1000
     number of iterations used =           10  plain     mixing
     Exchange-correlation      = BEEF-VDW ( 1  4 27 13 2)
     nstep                     =           50

     celldm(1)=   1.889726  celldm(2)=   0.000000  celldm(3)=   0.000000
     celldm(4)=   0.000000  celldm(5)=   0.000000  celldm(6)=   0.000000

     crystal axes: (cart. coord. in units of alat)
               a(1) = (   5.145230   0.000000   0.000000 )
               a(2) = (  -2.572615   4.455900   0.000000 )
               a(3) = (   0.000000   0.000000  24.201063 )

     reciprocal axes: (cart. coord. in units 2 pi/alat)
               b(1) = (  0.194355  0.112211  0.000000 )
               b(2) = (  0.000000  0.224422  0.000000 )
               b(3) = (  0.000000  0.000000  0.041320 )

     PseudoPot. # 1 for Ni read from file:
     /afs/slac.stanford.edu/u/if/mamunm/psp/gbrv1.5pbe/Ni.UPF
     MD5 check sum: 1ee80287db30b12d2bc1f57a5b5d6409
     Pseudo is Ultrasoft + core correction, Zval = 18.0
     Generated by new atomic code, or converted to UPF format
     Using radial grid of  865 points,  6 beta functions with:
                l(1) =   0
                l(2) =   0
                l(3) =   1
                l(4) =   1
                l(5) =   2
                l(6) =   2
     Q(r) pseudized with 10 coefficients,  rinner =    0.980   0.980   0.980
                                                       0.980   0.980

     PseudoPot. # 2 for Tc read from file:
     /afs/slac.stanford.edu/u/if/mamunm/psp/gbrv1.5pbe/Tc.UPF
     MD5 check sum: 9eb49e5b028550b2339a02317eb7b844
     Pseudo is Ultrasoft + core correction, Zval = 15.0
     Generated by new atomic code, or converted to UPF format
     Using radial grid of  965 points,  6 beta functions with:
                l(1) =   0
                l(2) =   0
                l(3) =   1
                l(4) =   1
                l(5) =   2
                l(6) =   2
     Q(r) pseudized with  8 coefficients,  rinner =    1.300   1.300   1.300
                                                       1.300   1.300

     vdW kernel table read from file vdW_kernel_table
     MD5 check sum: 095c7af220d748ca6e76c0b4c6cfb241

     atomic species   valence    mass     pseudopotential
        Ni1           18.00    58.69340     Ni( 1.00)
        Tc1           15.00    97.90721     Tc( 1.00)

     Starting magnetic structure
     atomic species   magnetization
        Ni1          0.111
        Tc1          0.133

     No symmetry found

   Cartesian axes

     site n.     atom                  positions (alat units)
         1           Ni1 tau(   1) = (   0.0000000   0.0000000  10.0000000  )
         2           Ni1 tau(   2) = (  -1.2863075   2.2279500  10.0000000  )
         3           Ni1 tau(   3) = (   1.2863075   2.2279500  10.0000000  )
         4           Tc1 tau(   4) = (   2.5726150   0.0000000  10.0000000  )
         5           Ni1 tau(   5) = (   2.5726150   1.4853000  12.1005314  )
         6           Ni1 tau(   6) = (   1.2863075   3.7132500  12.1005314  )
         7           Ni1 tau(   7) = (  -1.2863075   3.7132500  12.1005314  )
         8           Tc1 tau(   8) = (   0.0000000   1.4853000  12.1005314  )
         9           Ni1 tau(   9) = (  -0.0000000   2.9706000  14.2010628  )
        10           Ni1 tau(  10) = (   1.2863075   0.7426500  14.2010628  )
        11           Ni1 tau(  11) = (   3.8589226   0.7426500  14.2010628  )
        12           Tc1 tau(  12) = (   2.5726150   2.9706000  14.2010628  )

     number of k points=    40  Fermi-Dirac smearing, width (Ry)=  0.0110
                       cart. coord. in units 2pi/alat
        k(    1) = (   0.0000000   0.0000000   0.0000000), wk =   0.0277778
        k(    2) = (   0.0000000   0.0374036   0.0000000), wk =   0.0555556
        k(    3) = (   0.0000000   0.0748072   0.0000000), wk =   0.0555556
        k(    4) = (   0.0000000  -0.1122108   0.0000000), wk =   0.0277778
        k(    5) = (   0.0323925   0.0187018   0.0000000), wk =   0.0555556
        k(    6) = (   0.0323925   0.0561054   0.0000000), wk =   0.0555556
        k(    7) = (   0.0323925   0.0935090   0.0000000), wk =   0.0555556
        k(    8) = (   0.0323925  -0.0935090   0.0000000), wk =   0.0555556
        k(    9) = (   0.0323925  -0.0561054   0.0000000), wk =   0.0555556
        k(   10) = (   0.0323925  -0.0187018   0.0000000), wk =   0.0555556
        k(   11) = (   0.0647849   0.0374036   0.0000000), wk =   0.0555556
        k(   12) = (   0.0647849   0.0748072   0.0000000), wk =   0.0555556
        k(   13) = (   0.0647849   0.1122108   0.0000000), wk =   0.0555556
        k(   14) = (   0.0647849  -0.0748072   0.0000000), wk =   0.0555556
        k(   15) = (   0.0647849  -0.0374036   0.0000000), wk =   0.0555556
        k(   16) = (   0.0647849   0.0000000   0.0000000), wk =   0.0555556
        k(   17) = (  -0.0971774  -0.0561054   0.0000000), wk =   0.0277778
        k(   18) = (  -0.0971774  -0.0187018   0.0000000), wk =   0.0555556
        k(   19) = (  -0.0971774   0.0187018   0.0000000), wk =   0.0555556
        k(   20) = (  -0.0971774  -0.1683162   0.0000000), wk =   0.0277778
        k(   21) = (   0.0000000   0.0000000   0.0000000), wk =   0.0277778
        k(   22) = (   0.0000000   0.0374036   0.0000000), wk =   0.0555556
        k(   23) = (   0.0000000   0.0748072   0.0000000), wk =   0.0555556
        k(   24) = (   0.0000000  -0.1122108   0.0000000), wk =   0.0277778
        k(   25) = (   0.0323925   0.0187018   0.0000000), wk =   0.0555556
        k(   26) = (   0.0323925   0.0561054   0.0000000), wk =   0.0555556
        k(   27) = (   0.0323925   0.0935090   0.0000000), wk =   0.0555556
        k(   28) = (   0.0323925  -0.0935090   0.0000000), wk =   0.0555556
        k(   29) = (   0.0323925  -0.0561054   0.0000000), wk =   0.0555556
        k(   30) = (   0.0323925  -0.0187018   0.0000000), wk =   0.0555556
        k(   31) = (   0.0647849   0.0374036   0.0000000), wk =   0.0555556
        k(   32) = (   0.0647849   0.0748072   0.0000000), wk =   0.0555556
        k(   33) = (   0.0647849   0.1122108   0.0000000), wk =   0.0555556
        k(   34) = (   0.0647849  -0.0748072   0.0000000), wk =   0.0555556
        k(   35) = (   0.0647849  -0.0374036   0.0000000), wk =   0.0555556
        k(   36) = (   0.0647849   0.0000000   0.0000000), wk =   0.0555556
        k(   37) = (  -0.0971774  -0.0561054   0.0000000), wk =   0.0277778
        k(   38) = (  -0.0971774  -0.0187018   0.0000000), wk =   0.0555556
        k(   39) = (  -0.0971774   0.0187018   0.0000000), wk =   0.0555556
        k(   40) = (  -0.0971774  -0.1683162   0.0000000), wk =   0.0277778

     Largest allocated arrays     est. size (Mb)     dimensions
     Largest temporary arrays     est. size (Mb)     dimensions

     Check: negative/imaginary core charge=   -0.000012    0.000000

     Initial potential from superposition of free atoms
     Check: negative starting charge=(component1):   -0.220597
     Check: negative starting charge=(component2):   -0.168704

     starting charge  185.99992, renormalised to  207.00000

     negative rho (up, down):  2.455E-01 1.878E-01

     *
     * You are using vdW-DF for exchange-correlation in this calculation.
     * Please cite the following three references that made this development
     * possible:
     *
     *   M. Dion, H. Rydberg, E. Schroder, D. C. Langreth, and
     *   B. I. Lundqvist, Phys. Rev. Lett. 92, 246401 (2004).
     *
     *   T. Thonhauser, V. R. Cooper, S. Li, A. Puzder, P. Hyldgaard, and
     *   D. C. Langreth, Phys. Rev. B 76, 125112 (2007).
     *
     *   G. Roman-Perez and J. M. Soler, Phys. Rev. Lett. 103, 096102 (2009).
     *
     *
     * If you are using vdW-DF2, please also cite:
     *
     *   K. Lee, E. D. Murray, L. Kong, B. I. Lundqvist, and
     *   D. C. Langreth, Phys. Rev. B 82, 081101(R) (2010).
     *
     *
     * If you are calculating the stress with vdW-DF, please also cite:
     *
     *   R. Sabatini, E. Kucukbenli, B. Kolb, T. Thonhauser, and
     *   S. de Gironcoli, J. Phys.: Condens. Matter 24, 424209 (2012).
     *

     Carrying out vdW-DF run using the following parameters:

     Nqs =      20    Nr_points =    1024   r_max =   100.000
     q_mesh =
               0.00001000     0.04494208     0.09755937     0.15916263
               0.23128650     0.31572767     0.41458969     0.53033537
               0.66584808     0.82450364     1.01025438     1.22772762
               1.48234092     1.78043706     2.12944203     2.53805004
               3.01644009     3.57652955     4.23227104     5.00000000

     Gradients computed in reciprocal space

     Adding external electric field

     Computed dipole along edir(3) :
        Dipole                0.0000 Ry au,          0.0000 Debye
        Dipole field          0.0000 Ry au

        Potential amp.       -0.0000 Ry
        Total length         44.5900 bohr

[...]

     Starting wfc are  156 randomized atomic wfcs

     Self-consistent Calculation

     iteration #  1     ecut=    36.75 Ry     beta=0.10
     Davidson diagonalization with overlap
     ethr =  1.00E-02,  avg # of iterations =  7.9

[...]

     Magnetic moment per site:
     atom:    1    charge:    9.8692    magn:    1.0458    constr:    0.0000
     atom:    2    charge:    9.8692    magn:    1.0458    constr:    0.0000
     atom:    3    charge:    9.8692    magn:    1.0458    constr:    0.0000
     atom:    4    charge:    2.4797    magn:    0.3059    constr:    0.0000
     atom:    5    charge:    9.8709    magn:    1.0459    constr:    0.0000
     atom:    6    charge:    9.8709    magn:    1.0459    constr:    0.0000
     atom:    7    charge:    9.8709    magn:    1.0459    constr:    0.0000
     atom:    8    charge:    2.4818    magn:    0.3058    constr:    0.0000
[...]
        k(    6) = (   0.0323925   0.0561054   0.0000000), wk =   0.0555556
        k(    7) = (   0.0323925   0.0935090   0.0000000), wk =   0.0555556
        k(    8) = (   0.0323925  -0.0935090   0.0000000), wk =   0.0555556
        k(    9) = (   0.0323925  -0.0561054   0.0000000), wk =   0.0555556
        k(   10) = (   0.0323925  -0.0187018   0.0000000), wk =   0.0555556
        k(   11) = (   0.0647849   0.0374036   0.0000000), wk =   0.0555556
        k(   12) = (   0.0647849   0.0748072   0.0000000), wk =   0.0555556
        k(   13) = (   0.0647849   0.1122108   0.0000000), wk =   0.0555556
        k(   14) = (   0.0647849  -0.0748072   0.0000000), wk =   0.0555556
        k(   15) = (   0.0647849  -0.0374036   0.0000000), wk =   0.0555556
        k(   16) = (   0.0647849   0.0000000   0.0000000), wk =   0.0555556
        k(   17) = (  -0.0971774  -0.0561054   0.0000000), wk =   0.0277778
        k(   18) = (  -0.0971774  -0.0187018   0.0000000), wk =   0.0555556
        k(   19) = (  -0.0971774   0.0187018   0.0000000), wk =   0.0555556
        k(   20) = (  -0.0971774  -0.1683162   0.0000000), wk =   0.0277778
        k(   21) = (   0.0000000   0.0000000   0.0000000), wk =   0.0277778
        k(   22) = (   0.0000000   0.0374036   0.0000000), wk =   0.0555556
        k(   23) = (   0.0000000   0.0748072   0.0000000), wk =   0.0555556
        k(   24) = (   0.0000000  -0.1122108   0.0000000), wk =   0.0277778
        k(   25) = (   0.0323925   0.0187018   0.0000000), wk =   0.0555556
        k(   26) = (   0.0323925   0.0561054   0.0000000), wk =   0.0555556
        k(   27) = (   0.0323925   0.0935090   0.0000000), wk =   0.0555556
        k(   28) = (   0.0323925  -0.0935090   0.0000000), wk =   0.0555556
        k(   29) = (   0.0323925  -0.0561054   0.0000000), wk =   0.0555556
        k(   30) = (   0.0323925  -0.0187018   0.0000000), wk =   0.0555556
        k(   31) = (   0.0647849   0.0374036   0.0000000), wk =   0.0555556
        k(   32) = (   0.0647849   0.0748072   0.0000000), wk =   0.0555556
        k(   33) = (   0.0647849   0.1122108   0.0000000), wk =   0.0555556
        k(   34) = (   0.0647849  -0.0748072   0.0000000), wk =   0.0555556
        k(   35) = (   0.0647849  -0.0374036   0.0000000), wk =   0.0555556
        k(   36) = (   0.0647849   0.0000000   0.0000000), wk =   0.0555556
        k(   37) = (  -0.0971774  -0.0561054   0.0000000), wk =   0.0277778
        k(   38) = (  -0.0971774  -0.0187018   0.0000000), wk =   0.0555556
        k(   39) = (  -0.0971774   0.0187018   0.0000000), wk =   0.0555556
        k(   40) = (  -0.0971774  -0.1683162   0.0000000), wk =   0.0277778

     Largest allocated arrays     est. size (Mb)     dimensions
     Largest temporary arrays     est. size (Mb)     dimensions

     Check: negative/imaginary core charge=   -0.000012    0.000000

     Initial potential from superposition of free atoms
     Check: negative starting charge=(component1):   -0.219378
     Check: negative starting charge=(component2):   -0.167772

     starting charge  185.99992, renormalised to  207.00000

[...]

     *
     * You are using vdW-DF for exchange-correlation in this calculation.
     * Please cite the following three references that made this development
     * possible:
     *
     *   M. Dion, H. Rydberg, E. Schroder, D. C. Langreth, and
     *   B. I. Lundqvist, Phys. Rev. Lett. 92, 246401 (2004).
     *
     *   T. Thonhauser, V. R. Cooper, S. Li, A. Puzder, P. Hyldgaard, and
     *   D. C. Langreth, Phys. Rev. B 76, 125112 (2007).
     *
     *   G. Roman-Perez and J. M. Soler, Phys. Rev. Lett. 103, 096102 (2009).
     *
     *
     * If you are using vdW-DF2, please also cite:
     *
     *   K. Lee, E. D. Murray, L. Kong, B. I. Lundqvist, and
     *   D. C. Langreth, Phys. Rev. B 82, 081101(R) (2010).
     *
     *
     * If you are calculating the stress with vdW-DF, please also cite:
     *
     *   R. Sabatini, E. Kucukbenli, B. Kolb, T. Thonhauser, and
     *   S. de Gironcoli, J. Phys.: Condens. Matter 24, 424209 (2012).
     *

     Carrying out vdW-DF run using the following parameters:

     Nqs =      20    Nr_points =    1024   r_max =   100.000
     q_mesh =
               0.00001000     0.04494208     0.09755937     0.15916263
               0.23128650     0.31572767     0.41458969     0.53033537
               0.66584808     0.82450364     1.01025438     1.22772762
               1.48234092     1.78043706     2.12944203     2.53805004
               3.01644009     3.57652955     4.23227104     5.00000000

     Gradients computed in reciprocal space

[...]

     Starting wfc are  156 randomized atomic wfcs

     Self-consistent Calculation

[...]

     total energy              =   -3625.50987214 Ry
     Harris-Foulkes estimate   =   -3625.50987169 Ry
     estimated scf accuracy    <       0.00000131 Ry

[...]

     iteration # 53     ecut=    36.75 Ry     beta=0.10
     Davidson diagonalization with overlap
     ethr =  6.33E-10,  avg # of iterations =  2.2

[...]

     negative rho (up, down):  1.930E-01 2.114E-01

[...]

     Adding external electric field

     Computed dipole along edir(3) :
        Dipole                0.0077 Ry au,          0.0195 Debye
        Dipole field          0.0000 Ry au

        Potential amp.       -0.0023 Ry
        Total length         44.5900 bohr

     Magnetic moment per site:
     atom:    1    charge:    9.3540    magn:    0.1244    constr:    0.0000
     atom:    2    charge:    9.3540    magn:    0.1244    constr:    0.0000
     atom:    3    charge:    9.3540    magn:    0.1244    constr:    0.0000
     atom:    4    charge:    2.2695    magn:    0.1142    constr:    0.0000
     atom:    5    charge:    9.3511    magn:    0.1769    constr:    0.0000
     atom:    6    charge:    9.3513    magn:    0.1769    constr:    0.0000
     atom:    7    charge:    9.3514    magn:    0.1769    constr:    0.0000
     atom:    8    charge:    2.2713    magn:    0.0300    constr:    0.0000
     atom:    9    charge:    9.3436    magn:    0.1129    constr:    0.0000
     atom:   10    charge:    9.3434    magn:    0.1130    constr:    0.0000
     atom:   11    charge:    9.3434    magn:    0.1129    constr:    0.0000
     atom:   12    charge:    2.2577    magn:    0.1080    constr:    0.0000

     End of self-consistent calculation

 ------ SPIN UP ------------

[...]

 ------ SPIN DOWN ----------

[...]

          k = 0.0648 0.0000 0.0000 ( 14087 PWs)   bands (ev):

[...]

          k =-0.0972-0.1683 0.0000 ( 14098 PWs)   bands (ev):

  -102.2917-102.2882-102.2844-102.0978-102.0938-102.0906-102.0319-102.0283
  -102.0249 -66.2755 -65.5682 -65.5277 -62.7669 -62.7485 -62.7387 -62.7324
   -62.7248 -62.7093 -62.6225 -62.6081 -62.5960 -62.5762 -62.5600 -62.5587
   -62.5457 -62.5414 -62.5195 -62.5175 -62.4951 -62.4708 -62.4478 -62.4229
   -62.3962 -62.3337 -62.3250 -62.3162 -62.2601 -62.2535 -62.2457 -38.3520
   -38.2200 -38.2162 -37.5773 -37.5734 -37.5370 -37.5332 -37.4726 -37.4184
    -4.8505  -4.7968  -3.5267  -3.1955  -3.1172  -3.0307  -2.7682  -2.5264
    -2.4158  -2.3277  -2.2027  -2.0050  -1.9475  -1.9208  -1.9020  -1.6451
    -1.5591  -1.4791  -1.4722  -1.4412  -1.4285  -1.2815  -1.0037  -0.9718
    -0.8455  -0.8301  -0.8114  -0.7959  -0.7841  -0.6978  -0.6563  -0.6472
    -0.6045  -0.5824  -0.5193  -0.5111  -0.5019  -0.4327  -0.4039  -0.3347
    -0.2284  -0.1511  -0.1339  -0.0480   0.0577   0.0735   0.3076   0.3532
     0.3555   0.3723   0.6061   0.7505   0.8004   0.8746   0.9635   1.0948
     1.1660   1.1923   1.4971   1.5296   1.6031   1.6781   1.7108   2.2992
     2.6328   3.0169   3.4753   4.0316   4.4799   4.9985   5.3589   5.5372
     6.5150   6.6029   7.0423   7.0476   7.4986   7.5433   7.6368   7.6381
     8.7050   8.7697   8.8232   9.2585   9.2654

     the Fermi energy is     1.0433 ev

!    total energy              =   -3625.50987736 Ry
     Harris-Foulkes estimate   =   -3625.50987420 Ry
     estimated scf accuracy    <       0.00000086 Ry

     The total energy is the sum of the following terms:

     one-electron contribution =  -30346.05621003 Ry
     hartree contribution      =   15180.10302373 Ry
     xc contribution           =    -430.01263448 Ry
     ewald contribution        =   11970.55835459 Ry
     electric field correction =       0.00000020 Ry
     smearing contrib. (-TS)   =      -0.10241138 Ry

     total magnetization       =     4.45 Bohr mag/cell
     absolute magnetization    =     4.90 Bohr mag/cell

     convergence has been achieved in  53 iterations

 BEEF-vdW xc energy contributions
           1 :   -378.401748739760
           2 :    344.116369366443
           3 :   -285.764310796227
           4 :    219.144507457193
           5 :   -159.169668560123
           6 :    114.589292882370
           7 :   -86.3006276394600
           8 :    69.3731600765972
           9 :   -57.1944459955987
          10 :    45.2121767475994
          11 :   -32.5412669671263
          12 :    21.0776993166318
          13 :   -13.2835088345778
          14 :    10.2094865565194
          15 :   -10.9077973204911
          16 :    13.2291048209416
          17 :   -15.2196981141947
          18 :    16.0675950958104
          19 :   -16.1170971457971
          20 :    16.1184884695750
          21 :   -16.4124740726106
          22 :    16.6105691740179
          23 :   -15.9441291436520
          24 :    13.9074636761053
          25 :   -10.7045371159455
          26 :    7.15755870804350
          27 :   -4.20145490569655
          28 :    2.33027240673869
          29 :   -1.40244199359029
          30 :   0.886800163826706
          31 :   -32.4093953857080
          32 :   -22.9320077298630

     Forces acting on atoms (Ry/au):

     negative rho (up, down):  1.930E-01 2.114E-01
     atom    1 type  1   force =    -0.00002227    0.00328941    0.01043330
     atom    2 type  1   force =     0.00277571   -0.00169676    0.01046462
     atom    3 type  1   force =    -0.00278532   -0.00167613    0.01048561
     atom    4 type  2   force =    -0.00000660   -0.00001670    0.00474146
     atom    5 type  1   force =     0.00003007   -0.00027922   -0.00701011
     atom    6 type  1   force =    -0.00019145    0.00017747   -0.00706138
     atom    7 type  1   force =     0.00019325    0.00014370   -0.00706363
     atom    8 type  2   force =     0.00001138    0.00000188   -0.01439804
     atom    9 type  1   force =    -0.00001569    0.00079183   -0.00023099
     atom   10 type  1   force =     0.00077327   -0.00038024   -0.00029622
     atom   11 type  1   force =    -0.00078224   -0.00036686   -0.00027715
     atom   12 type  2   force =     0.00001989    0.00001164    0.00021253

     Total force =     0.027231     Total SCF correction =     0.003603
     SCF correction compared to forces is large: reduce conv_thr to get better values

     entering subroutine stress ...

     negative rho (up, down):  1.930E-01 2.114E-01
          total   stress  (Ry/bohr**3)                   (kbar)     P=  -67.29
  -0.00050169   0.00000001  -0.00000001        -73.80      0.00     -0.00
   0.00000001  -0.00050166   0.00000003          0.00    -73.80      0.00
  -0.00000001   0.00000003  -0.00036886         -0.00      0.00    -54.26

 !ASE

     Writing output data file calc.save

     General routines

     Parallel routines

   This run was terminated on:  14:21:58  27Dec2018

   JOB DONE.
Job  /afs/slac/g/suncat/bin/suncat-tsmpirun -x LD_LIBRARY_PATH -wdir /scratch/qe110288_eMUho pw.x -in pw.inp

TID   HOST_NAME   COMMAND_LINE            STATUS            TERMINATION_TIME
00000 suncat0266 pw.x -in pw.inp   Done                     12/27/2018 14:21:58
00001 suncat0266 pw.x -in pw.inp   Done                     12/27/2018 14:21:58
00002 suncat0266 pw.x -in pw.inp   Done                     12/27/2018 14:21:58
00003 suncat0266 pw.x -in pw.inp   Done                     12/27/2018 14:21:58
00004 suncat0266 pw.x -in pw.inp   Done                     12/27/2018 14:21:58
00005 suncat0266 pw.x -in pw.inp   Done                     12/27/2018 14:21:58
00006 suncat0266 pw.x -in pw.inp   Done                     12/27/2018 14:21:58
00007 suncat0266 pw.x -in pw.inp   Done                     12/27/2018 14:21:58
00008 suncat0264 pw.x -in pw.inp   Done                     12/27/2018 14:21:58
00009 suncat0264 pw.x -in pw.inp   Done                     12/27/2018 14:21:58
00010 suncat0264 pw.x -in pw.inp   Done                     12/27/2018 14:21:58
00011 suncat0264 pw.x -in pw.inp   Done                     12/27/2018 14:21:58
00012 suncat0264 pw.x -in pw.inp   Done                     12/27/2018 14:21:58
00013 suncat0264 pw.x -in pw.inp   Done                     12/27/2018 14:21:58
00014 suncat0264 pw.x -in pw.inp   Done                     12/27/2018 14:21:58
00015 suncat0264 pw.x -in pw.inp   Done                     12/27/2018 14:21:58
00016 suncat0256 pw.x -in pw.inp   Done                     12/27/2018 14:21:58
00017 suncat0256 pw.x -in pw.inp   Done                     12/27/2018 14:21:58
00018 suncat0256 pw.x -in pw.inp   Done                     12/27/2018 14:21:58
00019 suncat0256 pw.x -in pw.inp   Done                     12/27/2018 14:21:58
00020 suncat0256 pw.x -in pw.inp   Done                     12/27/2018 14:21:58
00021 suncat0256 pw.x -in pw.inp   Done                     12/27/2018 14:21:58
00022 suncat0256 pw.x -in pw.inp   Done                     12/27/2018 14:21:58
00023 suncat0256 pw.x -in pw.inp   Done                     12/27/2018 14:21:58
00024 suncat0255 pw.x -in pw.inp   Done                     12/27/2018 14:21:58
00025 suncat0255 pw.x -in pw.inp   Done                     12/27/2018 14:21:58
00026 suncat0255 pw.x -in pw.inp   Done                     12/27/2018 14:21:58
00027 suncat0255 pw.x -in pw.inp   Done                     12/27/2018 14:21:58
00028 suncat0255 pw.x -in pw.inp   Done                     12/27/2018 14:21:58
00029 suncat0255 pw.x -in pw.inp   Done                     12/27/2018 14:21:58
00030 suncat0255 pw.x -in pw.inp   Done                     12/27/2018 14:21:58
00031 suncat0255 pw.x -in pw.inp   Done                     12/27/2018 14:21:58
00032 suncat0234 pw.x -in pw.inp   Done                     12/27/2018 14:21:58
00033 suncat0234 pw.x -in pw.inp   Done                     12/27/2018 14:21:58
00034 suncat0234 pw.x -in pw.inp   Done                     12/27/2018 14:21:58
00035 suncat0234 pw.x -in pw.inp   Done                     12/27/2018 14:21:58
00036 suncat0234 pw.x -in pw.inp   Done                     12/27/2018 14:21:58
00037 suncat0234 pw.x -in pw.inp   Done                     12/27/2018 14:21:58
00038 suncat0234 pw.x -in pw.inp   Done                     12/27/2018 14:21:58
00039 suncat0234 pw.x -in pw.inp   Done                     12/27/2018 14:21:58
00040 suncat0233 pw.x -in pw.inp   Done                     12/27/2018 14:21:58
00041 suncat0233 pw.x -in pw.inp   Done                     12/27/2018 14:21:58
00042 suncat0233 pw.x -in pw.inp   Done                     12/27/2018 14:21:58
00043 suncat0233 pw.x -in pw.inp   Done                     12/27/2018 14:21:58
00044 suncat0233 pw.x -in pw.inp   Done                     12/27/2018 14:21:58
00045 suncat0233 pw.x -in pw.inp   Done                     12/27/2018 14:21:58
00046 suncat0233 pw.x -in pw.inp   Done                     12/27/2018 14:21:58
00047 suncat0233 pw.x -in pw.inp   Done                     12/27/2018 14:21:58
00048 suncat0222 pw.x -in pw.inp   Done                     12/27/2018 14:21:58
00049 suncat0222 pw.x -in pw.inp   Done                     12/27/2018 14:21:58
00050 suncat0222 pw.x -in pw.inp   Done                     12/27/2018 14:21:58
00051 suncat0222 pw.x -in pw.inp   Done                     12/27/2018 14:21:58
00052 suncat0222 pw.x -in pw.inp   Done                     12/27/2018 14:21:58
00053 suncat0222 pw.x -in pw.inp   Done                     12/27/2018 14:21:58
00054 suncat0222 pw.x -in pw.inp   Done                     12/27/2018 14:21:58
00055 suncat0222 pw.x -in pw.inp   Done                     12/27/2018 14:21:58
00056 suncat0221 pw.x -in pw.inp   Done                     12/27/2018 14:21:58
00057 suncat0221 pw.x -in pw.inp   Done                     12/27/2018 14:21:58
00058 suncat0221 pw.x -in pw.inp   Done                     12/27/2018 14:21:58
00059 suncat0221 pw.x -in pw.inp   Done                     12/27/2018 14:21:58
00060 suncat0221 pw.x -in pw.inp   Done                     12/27/2018 14:21:58
00061 suncat0221 pw.x -in pw.inp   Done                     12/27/2018 14:21:58
00062 suncat0221 pw.x -in pw.inp   Done                     12/27/2018 14:21:58
00063 suncat0221 pw.x -in pw.inp   Done                     12/27/2018 14:21:58