     Program PWSCF v.5.1rc2 (svn rev. 11289) starts on 25Dec2018 at  3:40:48

     Current dimensions of program PWSCF are:
     Max number of different atomic species (ntypx) = 10
     Max number of k-points (npk) =  40000
     Max angular momentum in pseudopotentials (lmaxx) =  3
     Presently stress not available with electric field

     IMPORTANT: XC functional enforced from input :
     Exchange-correlation      = BEEF-VDW ( 1  4 27 13 2)
     Any further DFT definition will be discarded
     Please, verify this is what you really want

     Subspace diagonalization in iterative solution of the eigenvalue problem:
     a serial algorithm will be used

     Found symmetry operation: I + ( -0.5000 -0.5000  0.0000)
     This is a supercell, fractional translations are disabled

     bravais-lattice index     =            0
     lattice parameter (alat)  =       1.8897  a.u.
     unit-cell volume          =    6692.7272 (a.u.)^3
     number of atoms/cell      =           12
     number of atomic types    =            2
     number of electrons       =       138.00
     number of Kohn-Sham states=           99
     kinetic-energy cutoff     =      36.7493  Ry
     charge density cutoff     =     367.4932  Ry
     convergence threshold     =      1.0E-06
     mixing beta               =       0.1000
     number of iterations used =           10  plain     mixing
     Exchange-correlation      = BEEF-VDW ( 1  4 27 13 2)
     nstep                     =           50

     celldm(1)=   1.889726  celldm(2)=   0.000000  celldm(3)=   0.000000
     celldm(4)=   0.000000  celldm(5)=   0.000000  celldm(6)=   0.000000

     crystal axes: (cart. coord. in units of alat)
               a(1) = (   6.468851   0.000000   0.000000 )
               a(2) = (   2.272062   6.056713   0.000000 )
               a(3) = (   0.000000   0.000000  25.312927 )

     reciprocal axes: (cart. coord. in units 2 pi/alat)
               b(1) = (  0.154587 -0.057990  0.000000 )
               b(2) = (  0.000000  0.165106  0.000000 )
               b(3) = (  0.000000  0.000000  0.039506 )

     PseudoPot. # 1 for Y  read from file:
     /afs/slac.stanford.edu/u/if/mamunm/psp/gbrv1.5pbe/Y.UPF
     MD5 check sum: d034151ed7554c50b6e82763ed42c788
     Pseudo is Ultrasoft + core correction, Zval = 11.0
     Generated by new atomic code, or converted to UPF format
     Using radial grid of  885 points,  6 beta functions with:
                l(1) =   0
                l(2) =   0
                l(3) =   1
                l(4) =   1
                l(5) =   2
                l(6) =   2
     Q(r) pseudized with  8 coefficients,  rinner =    1.200   1.200   1.200
                                                       1.200   1.200

     PseudoPot. # 2 for Hg read from file:
     /afs/slac.stanford.edu/u/if/mamunm/psp/gbrv1.5pbe/Hg.UPF
     MD5 check sum: 8f42caffe07f7fd9c0a564347f8c5498
     Pseudo is Ultrasoft + core correction, Zval = 12.0
     Generated by new atomic code, or converted to UPF format
     Using radial grid of  985 points,  6 beta functions with:
                l(1) =   0
                l(2) =   0
                l(3) =   1
                l(4) =   1
                l(5) =   2
                l(6) =   2
     Q(r) pseudized with  8 coefficients,  rinner =    2.000   2.000   2.000
                                                       2.000   2.000

     vdW kernel table read from file vdW_kernel_table
     MD5 check sum: 095c7af220d748ca6e76c0b4c6cfb241

     atomic species   valence    mass     pseudopotential
        Y1            11.00    88.90584     Y ( 1.00)
        Hg1           12.00   200.59200     Hg( 1.00)

     No symmetry found

   Cartesian axes

     site n.     atom                  positions (alat units)
         1           Y1  tau(   1) = (   0.0000000   0.0000000  10.0000000  )
         2           Y1  tau(   2) = (   4.3704565   3.0283565  10.0000000  )
         3           Hg1 tau(   3) = (   3.2344256   0.0000000  10.0000000  )
         4           Hg1 tau(   4) = (   1.1360309   3.0283565  10.0000000  )
         5           Y1  tau(   5) = (   6.4688513   4.4823665  12.6564634  )
         6           Y1  tau(   6) = (   2.0983948   1.4540100  12.6564634  )
         7           Hg1 tau(   7) = (   3.2344256   4.4823665  12.6564634  )
         8           Hg1 tau(   8) = (   5.3328204   1.4540100  12.6564634  )
         9           Y1  tau(   9) = (   4.1967895   2.9080199  15.3129269  )
        10           Y1  tau(  10) = (   8.5672460   5.9363764  15.3129269  )
        11           Hg1 tau(  11) = (   7.4312151   2.9080199  15.3129269  )
        12           Hg1 tau(  12) = (   5.3328204   5.9363764  15.3129269  )

     number of k points=    20  Fermi-Dirac smearing, width (Ry)=  0.0110
                       cart. coord. in units 2pi/alat
        k(    1) = (   0.0000000   0.0000000   0.0000000), wk =   0.0555556
        k(    2) = (   0.0000000   0.0275177   0.0000000), wk =   0.1111111
        k(    3) = (   0.0000000   0.0550354   0.0000000), wk =   0.1111111
        k(    4) = (   0.0000000  -0.0825530   0.0000000), wk =   0.0555556
        k(    5) = (   0.0257645  -0.0096651   0.0000000), wk =   0.1111111
        k(    6) = (   0.0257645   0.0178526   0.0000000), wk =   0.1111111
        k(    7) = (   0.0257645   0.0453703   0.0000000), wk =   0.1111111
        k(    8) = (   0.0257645  -0.0922181   0.0000000), wk =   0.1111111
        k(    9) = (   0.0257645  -0.0647004   0.0000000), wk =   0.1111111
        k(   10) = (   0.0257645  -0.0371827   0.0000000), wk =   0.1111111
        k(   11) = (   0.0515290  -0.0193301   0.0000000), wk =   0.1111111
        k(   12) = (   0.0515290   0.0081875   0.0000000), wk =   0.1111111
        k(   13) = (   0.0515290   0.0357052   0.0000000), wk =   0.1111111
        k(   14) = (   0.0515290  -0.1018832   0.0000000), wk =   0.1111111
        k(   15) = (   0.0515290  -0.0743655   0.0000000), wk =   0.1111111
        k(   16) = (   0.0515290  -0.0468478   0.0000000), wk =   0.1111111
        k(   17) = (  -0.0772935   0.0289952   0.0000000), wk =   0.0555556
        k(   18) = (  -0.0772935   0.0565129   0.0000000), wk =   0.1111111
        k(   19) = (  -0.0772935   0.0840305   0.0000000), wk =   0.1111111
        k(   20) = (  -0.0772935  -0.0535578   0.0000000), wk =   0.0555556

     Largest allocated arrays     est. size (Mb)     dimensions
     Largest temporary arrays     est. size (Mb)     dimensions

     Initial potential from superposition of free atoms
     Check: negative starting charge=   -0.000436

     starting charge  137.97284, renormalised to  138.00000

     negative rho (up, down):  4.362E-04 0.000E+00

     *
     * You are using vdW-DF for exchange-correlation in this calculation.
     * Please cite the following three references that made this development
     * possible:
     *
     *   M. Dion, H. Rydberg, E. Schroder, D. C. Langreth, and
     *   B. I. Lundqvist, Phys. Rev. Lett. 92, 246401 (2004).
     *
     *   T. Thonhauser, V. R. Cooper, S. Li, A. Puzder, P. Hyldgaard, and
     *   D. C. Langreth, Phys. Rev. B 76, 125112 (2007).
     *
     *   G. Roman-Perez and J. M. Soler, Phys. Rev. Lett. 103, 096102 (2009).
     *
     *
     * If you are using vdW-DF2, please also cite:
     *
     *   K. Lee, E. D. Murray, L. Kong, B. I. Lundqvist, and
     *   D. C. Langreth, Phys. Rev. B 82, 081101(R) (2010).
     *
     *
     * If you are calculating the stress with vdW-DF, please also cite:
     *
     *   R. Sabatini, E. Kucukbenli, B. Kolb, T. Thonhauser, and
     *   S. de Gironcoli, J. Phys.: Condens. Matter 24, 424209 (2012).
     *

     Carrying out vdW-DF run using the following parameters:

     Nqs =      20    Nr_points =    1024   r_max =   100.000
     q_mesh =
               0.00001000     0.04494208     0.09755937     0.15916263
               0.23128650     0.31572767     0.41458969     0.53033537
               0.66584808     0.82450364     1.01025438     1.22772762
               1.48234092     1.78043706     2.12944203     2.53805004
               3.01644009     3.57652955     4.23227104     5.00000000

     Gradients computed in reciprocal space

     Adding external electric field

     Computed dipole along edir(3) :
        Dipole                0.0000 Ry au,          0.0000 Debye
        Dipole field          0.0000 Ry au

        Potential amp.       -0.0000 Ry
        Total length         46.6386 bohr

     Starting wfc are  132 randomized atomic wfcs

     Self-consistent Calculation

     iteration #  1     ecut=    36.75 Ry     beta=0.10
     Davidson diagonalization with overlap
     ethr =  1.00E-02,  avg # of iterations =  3.1

     Threshold (ethr) on eigenvalues was too large:
     Diagonalizing with lowered threshold

     Davidson diagonalization with overlap
     ethr =  6.44E-04,  avg # of iterations =  3.8

[...]

     total energy              =   -1217.01511791 Ry
     Harris-Foulkes estimate   =   -1217.18075968 Ry
     estimated scf accuracy    <       1.00428169 Ry

[...]

     End of self-consistent calculation

          k = 0.0000 0.0000 0.0000 ( 25199 PWs)   bands (ev):

   -42.7459 -42.7456 -42.7314 -42.7313 -42.4591 -42.4445 -22.7483 -22.7425
   -22.7303 -22.7172 -22.6888 -22.6869 -22.6613 -22.6487 -22.6474 -22.6286
   -22.5033 -22.4738 -22.4737 -22.4089 -22.3754 -22.3692 -22.3461 -22.2781
    -6.5489  -6.5443  -6.5161  -6.4978  -6.4539  -6.4097  -6.3974  -6.3821
    -6.3457  -6.3335  -6.3060  -6.2604  -6.2575  -6.2413  -6.2085  -6.1978
    -6.1855  -6.1806  -6.1760  -6.1688  -6.1372  -6.0988  -6.0929  -6.0648
    -5.9561  -5.9482  -5.9376  -5.8409  -5.8325  -5.7932  -5.7225  -4.6790
    -3.5540  -3.2826  -2.9887  -2.9447  -0.1720   0.0712   0.2925   0.5453
     0.7167   0.7912   1.0030   1.0486   1.1422   1.2440   1.6823   1.6873
     1.8322   1.8586   1.8941   1.9042   1.9052   2.3360   2.6295   2.6418
     2.6840   3.1391   3.3555   3.3637   3.5018   3.5492   3.7777   3.9226
     4.0064   4.1065   4.1340   4.1506   4.2526   4.2637   4.3387   4.5115
     4.7953   4.8488   5.0112

[...]

          k =-0.0773 0.0290 0.0000 ( 25150 PWs)   bands (ev):

[...]

     the Fermi energy is     1.1402 ev

!    total energy              =   -1217.06419953 Ry
     Harris-Foulkes estimate   =   -1217.06420027 Ry
     estimated scf accuracy    <       0.00000045 Ry

     The total energy is the sum of the following terms:

     one-electron contribution =   -6786.17920559 Ry
     hartree contribution      =    3434.25944450 Ry
     xc contribution           =    -412.03750615 Ry
     ewald contribution        =    2546.96813558 Ry
     electric field correction =       0.00000000 Ry
     smearing contrib. (-TS)   =      -0.07506787 Ry

     convergence has been achieved in  15 iterations

 BEEF-vdW xc energy contributions
           1 :   -360.610322569978
           2 :    328.791117005318
           3 :   -273.511774458234
           4 :    207.848498134321
           5 :   -144.617897290872
           6 :    92.6073091169656
           7 :   -55.3136482291010
           8 :    31.8942146279401
           9 :   -19.1653470579371
          10 :    13.4818735166135
[...]
     Pseudo is Ultrasoft + core correction, Zval = 11.0
     Generated by new atomic code, or converted to UPF format
     Using radial grid of  885 points,  6 beta functions with:
                l(1) =   0
                l(2) =   0
                l(3) =   1
                l(4) =   1
                l(5) =   2
                l(6) =   2
     Q(r) pseudized with  8 coefficients,  rinner =    1.200   1.200   1.200
                                                       1.200   1.200

     PseudoPot. # 2 for Hg read from file:
     /afs/slac.stanford.edu/u/if/mamunm/psp/gbrv1.5pbe/Hg.UPF
     MD5 check sum: 8f42caffe07f7fd9c0a564347f8c5498
     Pseudo is Ultrasoft + core correction, Zval = 12.0
     Generated by new atomic code, or converted to UPF format
     Using radial grid of  985 points,  6 beta functions with:
                l(1) =   0
                l(2) =   0
                l(3) =   1
                l(4) =   1
                l(5) =   2
                l(6) =   2
     Q(r) pseudized with  8 coefficients,  rinner =    2.000   2.000   2.000
                                                       2.000   2.000

     vdW kernel table read from file vdW_kernel_table
     MD5 check sum: 095c7af220d748ca6e76c0b4c6cfb241

     atomic species   valence    mass     pseudopotential
        Y1            11.00    88.90584     Y ( 1.00)
        Hg1           12.00   200.59200     Hg( 1.00)

     No symmetry found

   Cartesian axes

     site n.     atom                  positions (alat units)
         1           Y1  tau(   1) = (   0.0000000   0.0000000  10.0000000  )
         2           Y1  tau(   2) = (   4.3704565   3.0283565  10.0000000  )
         3           Hg1 tau(   3) = (   3.2344256   0.0000000  10.0000000  )
         4           Hg1 tau(   4) = (   1.1360309   3.0283565  10.0000000  )
         5           Y1  tau(   5) = (   6.4688513   4.4823665  12.6564634  )
         6           Y1  tau(   6) = (   2.0983948   1.4540100  12.6564634  )
         7           Hg1 tau(   7) = (   3.2344256   4.4823665  12.6564634  )
         8           Hg1 tau(   8) = (   5.3328204   1.4540100  12.6564634  )
         9           Y1  tau(   9) = (   4.2744125   2.9618481  15.2806299  )
        10           Y1  tau(  10) = (   8.6446930   5.9900234  15.2807040  )
        11           Hg1 tau(  11) = (   7.5118029   2.9636319  15.3579875  )
        12           Hg1 tau(  12) = (   5.4132635   5.9923946  15.3580026  )

     number of k points=    20  Fermi-Dirac smearing, width (Ry)=  0.0110
                       cart. coord. in units 2pi/alat
        k(    1) = (   0.0000000   0.0000000   0.0000000), wk =   0.0555556
        k(    2) = (   0.0000000   0.0275177   0.0000000), wk =   0.1111111
        k(    3) = (   0.0000000   0.0550354   0.0000000), wk =   0.1111111
        k(    4) = (   0.0000000  -0.0825530   0.0000000), wk =   0.0555556
        k(    5) = (   0.0257645  -0.0096651   0.0000000), wk =   0.1111111
        k(    6) = (   0.0257645   0.0178526   0.0000000), wk =   0.1111111
        k(    7) = (   0.0257645   0.0453703   0.0000000), wk =   0.1111111
        k(    8) = (   0.0257645  -0.0922181   0.0000000), wk =   0.1111111
        k(    9) = (   0.0257645  -0.0647004   0.0000000), wk =   0.1111111
        k(   10) = (   0.0257645  -0.0371827   0.0000000), wk =   0.1111111
        k(   11) = (   0.0515290  -0.0193301   0.0000000), wk =   0.1111111
        k(   12) = (   0.0515290   0.0081875   0.0000000), wk =   0.1111111
        k(   13) = (   0.0515290   0.0357052   0.0000000), wk =   0.1111111
        k(   14) = (   0.0515290  -0.1018832   0.0000000), wk =   0.1111111
        k(   15) = (   0.0515290  -0.0743655   0.0000000), wk =   0.1111111
        k(   16) = (   0.0515290  -0.0468478   0.0000000), wk =   0.1111111
        k(   17) = (  -0.0772935   0.0289952   0.0000000), wk =   0.0555556
        k(   18) = (  -0.0772935   0.0565129   0.0000000), wk =   0.1111111
        k(   19) = (  -0.0772935   0.0840305   0.0000000), wk =   0.1111111
        k(   20) = (  -0.0772935  -0.0535578   0.0000000), wk =   0.0555556

     Largest allocated arrays     est. size (Mb)     dimensions
     Largest temporary arrays     est. size (Mb)     dimensions

     Initial potential from superposition of free atoms
     Check: negative starting charge=   -0.000443

     starting charge  137.97284, renormalised to  138.00000

[...]

     *
     * You are using vdW-DF for exchange-correlation in this calculation.
     * Please cite the following three references that made this development
     * possible:
     *
     *   M. Dion, H. Rydberg, E. Schroder, D. C. Langreth, and
     *   B. I. Lundqvist, Phys. Rev. Lett. 92, 246401 (2004).
     *
     *   T. Thonhauser, V. R. Cooper, S. Li, A. Puzder, P. Hyldgaard, and
     *   D. C. Langreth, Phys. Rev. B 76, 125112 (2007).
     *
     *   G. Roman-Perez and J. M. Soler, Phys. Rev. Lett. 103, 096102 (2009).
     *
     *
     * If you are using vdW-DF2, please also cite:
     *
     *   K. Lee, E. D. Murray, L. Kong, B. I. Lundqvist, and
     *   D. C. Langreth, Phys. Rev. B 82, 081101(R) (2010).
     *
     *
     * If you are calculating the stress with vdW-DF, please also cite:
     *
     *   R. Sabatini, E. Kucukbenli, B. Kolb, T. Thonhauser, and
     *   S. de Gironcoli, J. Phys.: Condens. Matter 24, 424209 (2012).
     *

     Carrying out vdW-DF run using the following parameters:

     Nqs =      20    Nr_points =    1024   r_max =   100.000
     q_mesh =
               0.00001000     0.04494208     0.09755937     0.15916263
               0.23128650     0.31572767     0.41458969     0.53033537
               0.66584808     0.82450364     1.01025438     1.22772762
               1.48234092     1.78043706     2.12944203     2.53805004
               3.01644009     3.57652955     4.23227104     5.00000000

     Gradients computed in reciprocal space

[...]

     Starting wfc are  132 randomized atomic wfcs

     Self-consistent Calculation

[...]

     Threshold (ethr) on eigenvalues was too large:
     Diagonalizing with lowered threshold

     Davidson diagonalization with overlap
     ethr =  6.42E-04,  avg # of iterations =  4.2

[...]

     total energy              =   -1217.06509640 Ry
     Harris-Foulkes estimate   =   -1217.06509681 Ry
     estimated scf accuracy    <       0.00000476 Ry

     iteration # 14     ecut=    36.75 Ry     beta=0.10
     Davidson diagonalization with overlap
     ethr =  3.45E-09,  avg # of iterations =  2.2

[...]

     negative rho (up, down):  4.858E-05 0.000E+00

     Adding external electric field

     Computed dipole along edir(3) :
        Dipole               -0.0218 Ry au,         -0.0553 Debye
        Dipole field         -0.0000 Ry au

        Potential amp.        0.0038 Ry
        Total length         46.6386 bohr

     End of self-consistent calculation

[...]

          k = 0.0515-0.0468 0.0000 ( 25140 PWs)   bands (ev):

[...]

          k =-0.0773-0.0536 0.0000 ( 25202 PWs)   bands (ev):

   -42.7630 -42.7490 -42.7396 -42.7256 -42.4870 -42.4720 -22.7705 -22.7417
   -22.7386 -22.7154 -22.7104 -22.6927 -22.6908 -22.6634 -22.6551 -22.6326
   -22.5313 -22.4922 -22.4721 -22.4212 -22.4080 -22.4023 -22.3767 -22.3065
    -6.5129  -6.4385  -6.3974  -6.3927  -6.3618  -6.3616  -6.3434  -6.3019
    -6.2668  -6.2495  -6.2464  -6.2250  -6.1981  -6.1739  -6.1550  -6.1513
    -6.1423  -6.1377  -6.1302  -6.0963  -6.0957  -6.0679  -6.0585  -6.0439
    -6.0421  -5.9903  -5.9298  -5.8541  -5.8350  -5.7347  -4.5525  -4.4796
    -3.7446  -3.5306  -2.8907  -1.8764  -1.6711  -1.6261  -1.0170  -0.4266
    -0.3618  -0.3293  -0.3228   0.3327   0.6184   1.0014   1.1367   1.1784
     1.5180   1.5970   1.9638   2.0110   2.1657   2.4512   2.5346   2.5618
     2.6337   2.6727   2.6740   2.8305   3.0058   3.0983   3.5289   3.9446
     4.1851   4.2092   4.3466   4.3980   4.4088   4.6935   4.8160   4.9397
     5.1104   5.2967   5.3636

     the Fermi energy is     1.1207 ev

!    total energy              =   -1217.06509601 Ry
     Harris-Foulkes estimate   =   -1217.06509727 Ry
     estimated scf accuracy    <       0.00000089 Ry

     The total energy is the sum of the following terms:

     one-electron contribution =   -6778.05330495 Ry
     hartree contribution      =    3430.13921982 Ry
     xc contribution           =    -412.04010925 Ry
     ewald contribution        =    2542.96457462 Ry
     electric field correction =       0.00000089 Ry
     smearing contrib. (-TS)   =      -0.07547715 Ry

     convergence has been achieved in  14 iterations

 BEEF-vdW xc energy contributions
           1 :   -360.611830213335
           2 :    328.788952982011
           3 :   -273.506499676375
           4 :    207.844714564731
           5 :   -144.620665158903
           6 :    92.6187258863128
           7 :   -55.3304958618828
           8 :    31.9085724796619
           9 :   -19.1693400298359
          10 :    13.4736437627067
          11 :   -11.8318905020020
          12 :    12.1653471794879
          13 :   -13.0794726987885
          14 :    13.5943858667764
          15 :   -13.0662534496548
          16 :    11.2255458194593
          17 :   -8.15390660835180
          18 :    4.15274238650602
          19 :   0.376325889187797
          20 :   -4.93674420830774
          21 :    8.88192779661040
          22 :   -11.4624178980771
          23 :    12.0644343304498
          24 :   -10.5472000694820
          25 :    7.44955136604113
          26 :   -3.87279076659115
          27 :    1.03957690712957
          28 :   0.244765699578693
          29 :   8.264090539591962E-002
          30 :   -1.41517461228455
          31 :   -33.8948399561289
          32 :   -24.2290551461676

     Forces acting on atoms (Ry/au):

     negative rho (up, down):  4.858E-05 0.000E+00
     atom    1 type  1   force =    -0.00193424   -0.00134221    0.00260980
     atom    2 type  1   force =    -0.00192515   -0.00133192    0.00261853
     atom    3 type  2   force =    -0.00045985   -0.00030197   -0.00191570
     atom    4 type  2   force =    -0.00044703   -0.00032800   -0.00191455
     atom    5 type  1   force =     0.00171733    0.00119187    0.00113436
     atom    6 type  1   force =     0.00170729    0.00118175    0.00112574
     atom    7 type  2   force =     0.00027527    0.00017706   -0.00145986
     atom    8 type  2   force =     0.00026433    0.00019458   -0.00145723
     atom    9 type  1   force =     0.00041349    0.00028626   -0.00006056
     atom   10 type  1   force =     0.00042595    0.00029913   -0.00007039
     atom   11 type  2   force =    -0.00000837   -0.00002214   -0.00030548
     atom   12 type  2   force =    -0.00002904   -0.00000442   -0.00030465

     Total force =     0.007004     Total SCF correction =     0.003285
     SCF correction compared to forces is large: reduce conv_thr to get better values

     entering subroutine stress ...

     negative rho (up, down):  4.858E-05 0.000E+00
          total   stress  (Ry/bohr**3)                   (kbar)     P=   -3.51
  -0.00004250  -0.00001781   0.00000412         -6.25     -2.62      0.61
  -0.00001781  -0.00002914   0.00000285         -2.62     -4.29      0.42
   0.00000412   0.00000285   0.00000003          0.61      0.42      0.00

 !ASE

     Writing output data file calc.save

     General routines

     Parallel routines

   This run was terminated on:   6:28:48  25Dec2018

   JOB DONE.
Job  /afs/slac/g/suncat/bin/suncat-tsmpirun -x LD_LIBRARY_PATH -wdir /scratch/qe109177_3D7GZ pw.x -in pw.inp

TID   HOST_NAME   COMMAND_LINE            STATUS            TERMINATION_TIME
00000 suncat0095 pw.x -in pw.inp   Done                     12/25/2018 06:28:48
00001 suncat0095 pw.x -in pw.inp   Done                     12/25/2018 06:28:48
00002 suncat0095 pw.x -in pw.inp   Done                     12/25/2018 06:28:48
00003 suncat0095 pw.x -in pw.inp   Done                     12/25/2018 06:28:48
00004 suncat0095 pw.x -in pw.inp   Done                     12/25/2018 06:28:48
00005 suncat0095 pw.x -in pw.inp   Done                     12/25/2018 06:28:48
00006 suncat0095 pw.x -in pw.inp   Done                     12/25/2018 06:28:48
00007 suncat0095 pw.x -in pw.inp   Done                     12/25/2018 06:28:48
00008 suncat0084 pw.x -in pw.inp   Done                     12/25/2018 06:28:48
00009 suncat0084 pw.x -in pw.inp   Done                     12/25/2018 06:28:48
00010 suncat0084 pw.x -in pw.inp   Done                     12/25/2018 06:28:48
00011 suncat0084 pw.x -in pw.inp   Done                     12/25/2018 06:28:48
00012 suncat0084 pw.x -in pw.inp   Done                     12/25/2018 06:28:48
00013 suncat0084 pw.x -in pw.inp   Done                     12/25/2018 06:28:48
00014 suncat0084 pw.x -in pw.inp   Done                     12/25/2018 06:28:48
00015 suncat0084 pw.x -in pw.inp   Done                     12/25/2018 06:28:48
00016 suncat0078 pw.x -in pw.inp   Done                     12/25/2018 06:28:48
00017 suncat0078 pw.x -in pw.inp   Done                     12/25/2018 06:28:48
00018 suncat0078 pw.x -in pw.inp   Done                     12/25/2018 06:28:48
00019 suncat0078 pw.x -in pw.inp   Done                     12/25/2018 06:28:48
00020 suncat0078 pw.x -in pw.inp   Done                     12/25/2018 06:28:48
00021 suncat0078 pw.x -in pw.inp   Done                     12/25/2018 06:28:48
00022 suncat0078 pw.x -in pw.inp   Done                     12/25/2018 06:28:48
00023 suncat0078 pw.x -in pw.inp   Done                     12/25/2018 06:28:48
00024 suncat0077 pw.x -in pw.inp   Done                     12/25/2018 06:28:48
00025 suncat0077 pw.x -in pw.inp   Done                     12/25/2018 06:28:48
00026 suncat0077 pw.x -in pw.inp   Done                     12/25/2018 06:28:48
00027 suncat0077 pw.x -in pw.inp   Done                     12/25/2018 06:28:48
00028 suncat0077 pw.x -in pw.inp   Done                     12/25/2018 06:28:48
00029 suncat0077 pw.x -in pw.inp   Done                     12/25/2018 06:28:48
00030 suncat0077 pw.x -in pw.inp   Done                     12/25/2018 06:28:48
00031 suncat0077 pw.x -in pw.inp   Done                     12/25/2018 06:28:48
00032 suncat0069 pw.x -in pw.inp   Done                     12/25/2018 06:28:48
00033 suncat0069 pw.x -in pw.inp   Done                     12/25/2018 06:28:48
00034 suncat0069 pw.x -in pw.inp   Done                     12/25/2018 06:28:48
00035 suncat0069 pw.x -in pw.inp   Done                     12/25/2018 06:28:48
00036 suncat0069 pw.x -in pw.inp   Done                     12/25/2018 06:28:48
00037 suncat0069 pw.x -in pw.inp   Done                     12/25/2018 06:28:48
00038 suncat0069 pw.x -in pw.inp   Done                     12/25/2018 06:28:48
00039 suncat0069 pw.x -in pw.inp   Done                     12/25/2018 06:28:48
00040 suncat0065 pw.x -in pw.inp   Done                     12/25/2018 06:28:48
00041 suncat0065 pw.x -in pw.inp   Done                     12/25/2018 06:28:48
00042 suncat0065 pw.x -in pw.inp   Done                     12/25/2018 06:28:48
00043 suncat0065 pw.x -in pw.inp   Done                     12/25/2018 06:28:48
00044 suncat0065 pw.x -in pw.inp   Done                     12/25/2018 06:28:48
00045 suncat0065 pw.x -in pw.inp   Done                     12/25/2018 06:28:48
00046 suncat0065 pw.x -in pw.inp   Done                     12/25/2018 06:28:48
00047 suncat0065 pw.x -in pw.inp   Done                     12/25/2018 06:28:48
00048 suncat0010 pw.x -in pw.inp   Done                     12/25/2018 06:28:48
00049 suncat0010 pw.x -in pw.inp   Done                     12/25/2018 06:28:48
00050 suncat0010 pw.x -in pw.inp   Done                     12/25/2018 06:28:48
00051 suncat0010 pw.x -in pw.inp   Done                     12/25/2018 06:28:48
00052 suncat0010 pw.x -in pw.inp   Done                     12/25/2018 06:28:48
00053 suncat0010 pw.x -in pw.inp   Done                     12/25/2018 06:28:48
00054 suncat0010 pw.x -in pw.inp   Done                     12/25/2018 06:28:48
00055 suncat0010 pw.x -in pw.inp   Done                     12/25/2018 06:28:48
00056 suncat0100 pw.x -in pw.inp   Done                     12/25/2018 06:28:48
00057 suncat0100 pw.x -in pw.inp   Done                     12/25/2018 06:28:48
00058 suncat0100 pw.x -in pw.inp   Done                     12/25/2018 06:28:48
00059 suncat0100 pw.x -in pw.inp   Done                     12/25/2018 06:28:48
00060 suncat0100 pw.x -in pw.inp   Done                     12/25/2018 06:28:48
00061 suncat0100 pw.x -in pw.inp   Done                     12/25/2018 06:28:48
00062 suncat0100 pw.x -in pw.inp   Done                     12/25/2018 06:28:48
00063 suncat0100 pw.x -in pw.inp   Done                     12/25/2018 06:28:48