     Program PWSCF v.5.1rc2 (svn rev. 11289) starts on 20Dec2018 at  0:23: 3

     Current dimensions of program PWSCF are:
     Max number of different atomic species (ntypx) = 10
     Max number of k-points (npk) =  40000
     Max angular momentum in pseudopotentials (lmaxx) =  3
     Presently stress not available with electric field

     IMPORTANT: XC functional enforced from input :
     Exchange-correlation      = BEEF-VDW ( 1  4 27 13 2)
     Any further DFT definition will be discarded
     Please, verify this is what you really want

     Subspace diagonalization in iterative solution of the eigenvalue problem:
     a serial algorithm will be used

     bravais-lattice index     =            0
     lattice parameter (alat)  =       1.8897  a.u.
     unit-cell volume          =    5241.4075 (a.u.)^3
     number of atoms/cell      =           12
     number of atomic types    =            2
     number of electrons       =       153.00
     number of Kohn-Sham states=          106
     kinetic-energy cutoff     =      36.7493  Ry
     charge density cutoff     =     367.4932  Ry
     convergence threshold     =      1.0E-06
     mixing beta               =       0.1000
     number of iterations used =           10  plain     mixing
     Exchange-correlation      = BEEF-VDW ( 1  4 27 13 2)
     nstep                     =           50

     celldm(1)=   1.889726  celldm(2)=   0.000000  celldm(3)=   0.000000
     celldm(4)=   0.000000  celldm(5)=   0.000000  celldm(6)=   0.000000

     crystal axes: (cart. coord. in units of alat)
               a(1) = (   6.001488   0.000000   0.000000 )
               a(2) = (  -3.000744   5.197441   0.000000 )
               a(3) = (   0.000000   0.000000  24.900195 )

     reciprocal axes: (cart. coord. in units 2 pi/alat)
               b(1) = (  0.166625  0.096201  0.000000 )
               b(2) = (  0.000000  0.192402  0.000000 )
               b(3) = (  0.000000  0.000000  0.040160 )

     PseudoPot. # 1 for Cd read from file:
     /afs/slac.stanford.edu/u/if/mamunm/psp/gbrv1.5pbe/Cd.UPF
     MD5 check sum: 17164a7926edb8e0dc231208abae86a6
     Pseudo is Ultrasoft + core correction, Zval = 12.0
     Generated by new atomic code, or converted to UPF format
     Using radial grid of  889 points,  6 beta functions with:
                l(1) =   0
                l(2) =   0
                l(3) =   1
                l(4) =   1
                l(5) =   2
                l(6) =   2
     Q(r) pseudized with  6 coefficients,  rinner =    1.000   1.000   1.000
                                                       1.000   1.000

     PseudoPot. # 2 for Rh read from file:
     /afs/slac.stanford.edu/u/if/mamunm/psp/gbrv1.5pbe/Rh.UPF
     MD5 check sum: 761627e959a2e3a1f56b0b5fe687810e
     Pseudo is Ultrasoft + core correction, Zval = 15.0
     Generated by new atomic code, or converted to UPF format
     Using radial grid of  969 points,  7 beta functions with:
                l(1) =   0
                l(2) =   0
                l(3) =   1
                l(4) =   1
                l(5) =   2
                l(6) =   2
                l(7) =   2
     Q(r) pseudized with  8 coefficients,  rinner =    1.200   1.200   1.200
                                                       1.200   1.200

     vdW kernel table read from file vdW_kernel_table
     MD5 check sum: 095c7af220d748ca6e76c0b4c6cfb241

     atomic species   valence    mass     pseudopotential
        Cd1           12.00   112.41400     Cd( 1.00)
        Rh1           15.00   102.90550     Rh( 1.00)

     No symmetry found

   Cartesian axes

     site n.     atom                  positions (alat units)
         1           Cd1 tau(   1) = (   0.0000000   0.0000000  10.0000000  )
         2           Cd1 tau(   2) = (   4.5011163   2.5987207  10.0000000  )
         3           Cd1 tau(   3) = (   1.5003721   2.5987207  10.0000000  )
         4           Rh1 tau(   4) = (   3.0007442   0.0000000  10.0000000  )
         5           Cd1 tau(   5) = (   3.0007442   1.7324805  12.4500974  )
         6           Cd1 tau(   6) = (   1.5003721   4.3312012  12.4500974  )
         7           Cd1 tau(   7) = (  -1.5003721   4.3312012  12.4500974  )
         8           Rh1 tau(   8) = (   0.0000000   1.7324805  12.4500974  )
         9           Cd1 tau(   9) = (  -0.0000000   3.4649610  14.9001948  )
        10           Cd1 tau(  10) = (   1.5003721   0.8662402  14.9001948  )
        11           Cd1 tau(  11) = (   4.5011163   0.8662402  14.9001948  )
        12           Rh1 tau(  12) = (   3.0007442   3.4649610  14.9001948  )

     number of k points=    20  Fermi-Dirac smearing, width (Ry)=  0.0110
                       cart. coord. in units 2pi/alat
        k(    1) = (   0.0000000   0.0000000   0.0000000), wk =   0.0555556
        k(    2) = (   0.0000000   0.0320671   0.0000000), wk =   0.1111111
        k(    3) = (   0.0000000   0.0641341   0.0000000), wk =   0.1111111
        k(    4) = (   0.0000000  -0.0962012   0.0000000), wk =   0.0555556
        k(    5) = (   0.0277709   0.0160335   0.0000000), wk =   0.1111111
        k(    6) = (   0.0277709   0.0481006   0.0000000), wk =   0.1111111
        k(    7) = (   0.0277709   0.0801676   0.0000000), wk =   0.1111111
        k(    8) = (   0.0277709  -0.0801676   0.0000000), wk =   0.1111111
        k(    9) = (   0.0277709  -0.0481006   0.0000000), wk =   0.1111111
        k(   10) = (   0.0277709  -0.0160335   0.0000000), wk =   0.1111111
        k(   11) = (   0.0555418   0.0320671   0.0000000), wk =   0.1111111
        k(   12) = (   0.0555418   0.0641341   0.0000000), wk =   0.1111111
        k(   13) = (   0.0555418   0.0962012   0.0000000), wk =   0.1111111
        k(   14) = (   0.0555418  -0.0641341   0.0000000), wk =   0.1111111
        k(   15) = (   0.0555418  -0.0320671   0.0000000), wk =   0.1111111
        k(   16) = (   0.0555418   0.0000000   0.0000000), wk =   0.1111111
        k(   17) = (  -0.0833127  -0.0481006   0.0000000), wk =   0.0555556
        k(   18) = (  -0.0833127  -0.0160335   0.0000000), wk =   0.1111111
        k(   19) = (  -0.0833127   0.0160335   0.0000000), wk =   0.1111111
        k(   20) = (  -0.0833127  -0.1443018   0.0000000), wk =   0.0555556

     Largest allocated arrays     est. size (Mb)     dimensions
     Largest temporary arrays     est. size (Mb)     dimensions

     Initial potential from superposition of free atoms
     Check: negative starting charge=   -0.353535

     starting charge  146.99933, renormalised to  153.00000

     negative rho (up, down):  3.680E-01 0.000E+00

     *
     * You are using vdW-DF for exchange-correlation in this calculation.
     * Please cite the following three references that made this development
     * possible:
     *
     *   M. Dion, H. Rydberg, E. Schroder, D. C. Langreth, and
     *   B. I. Lundqvist, Phys. Rev. Lett. 92, 246401 (2004).
     *
     *   T. Thonhauser, V. R. Cooper, S. Li, A. Puzder, P. Hyldgaard, and
     *   D. C. Langreth, Phys. Rev. B 76, 125112 (2007).
     *
     *   G. Roman-Perez and J. M. Soler, Phys. Rev. Lett. 103, 096102 (2009).
     *
     *
     * If you are using vdW-DF2, please also cite:
     *
     *   K. Lee, E. D. Murray, L. Kong, B. I. Lundqvist, and
     *   D. C. Langreth, Phys. Rev. B 82, 081101(R) (2010).
     *
     *
     * If you are calculating the stress with vdW-DF, please also cite:
     *
     *   R. Sabatini, E. Kucukbenli, B. Kolb, T. Thonhauser, and
     *   S. de Gironcoli, J. Phys.: Condens. Matter 24, 424209 (2012).
     *

     Carrying out vdW-DF run using the following parameters:

     Nqs =      20    Nr_points =    1024   r_max =   100.000
     q_mesh =
               0.00001000     0.04494208     0.09755937     0.15916263
               0.23128650     0.31572767     0.41458969     0.53033537
               0.66584808     0.82450364     1.01025438     1.22772762
               1.48234092     1.78043706     2.12944203     2.53805004
               3.01644009     3.57652955     4.23227104     5.00000000

     Gradients computed in reciprocal space

     Adding external electric field

     Computed dipole along edir(3) :
        Dipole               -0.0000 Ry au,         -0.0000 Debye
        Dipole field         -0.0000 Ry au

        Potential amp.        0.0000 Ry
        Total length         45.8782 bohr

     Starting wfc are  117 randomized atomic wfcs

     Self-consistent Calculation

     iteration #  1     ecut=    36.75 Ry     beta=0.10
     Davidson diagonalization with overlap
     ethr =  1.00E-02,  avg # of iterations =  7.8

[...]

     total energy              =   -1561.43548667 Ry
     Harris-Foulkes estimate   =   -1562.07874612 Ry
     estimated scf accuracy    <       3.87731632 Ry

[...]

     End of self-consistent calculation

          k = 0.0000 0.0000 0.0000 ( 19543 PWs)   bands (ev):

   -44.9053 -44.9053 -44.8358 -44.7276 -44.7276 -44.7275 -44.7275 -44.6304
   -44.6301  -9.2621  -9.0710  -9.0377  -9.0377  -8.9333  -8.9198  -8.8040
    -8.7845  -8.7845  -8.6679  -8.6679  -8.6454  -8.6454  -8.5382  -8.4713
    -8.4713  -8.3758  -8.3495  -8.2413  -8.2413  -8.2342  -8.1469  -8.1311
    -8.1311  -8.0866  -8.0866  -7.9232  -7.9232  -7.8643  -7.8643  -7.8511
    -7.8213  -7.8213  -7.8155  -7.8155  -7.7700  -7.7700  -7.6398  -7.6398
    -7.5710  -7.5555  -7.5157  -7.5157  -7.3286  -7.3237  -7.2404  -5.4804
    -3.1150  -1.9665  -1.9665  -1.5271  -1.5271  -1.4441  -1.2380  -1.2380
    -1.0662  -0.6612  -0.6612  -0.4303  -0.4068  -0.4068  -0.1749  -0.1749
    -0.0058   0.3418   0.4336   0.4336   0.7526   1.0218   1.0218   1.1032
     1.1032   1.1261   2.8207   2.8207   3.3299   3.5223   3.5223   4.0202
     4.2392   4.2392   4.2859   4.8351   5.0200   5.2055   6.0524   6.1667
     6.9802   6.9802   7.2540   7.2649   7.2649   7.4155   7.9076   8.1883
     8.9042   8.9050

[...]

          k =-0.0833-0.0481 0.0000 ( 19732 PWs)   bands (ev):

[...]

     the Fermi energy is     0.6961 ev

!    total energy              =   -1561.40484834 Ry
     Harris-Foulkes estimate   =   -1561.40486706 Ry
     estimated scf accuracy    <       0.00000036 Ry

     The total energy is the sum of the following terms:

     one-electron contribution =  -10892.43211854 Ry
     hartree contribution      =    5527.07075509 Ry
     xc contribution           =    -460.58864748 Ry
     ewald contribution        =    4264.58550357 Ry
     electric field correction =       0.00000000 Ry
     smearing contrib. (-TS)   =      -0.04034098 Ry

     convergence has been achieved in  15 iterations

 BEEF-vdW xc energy contributions
           1 :   -403.045367095801
           2 :    369.024448905314
           3 :   -311.319258099377
           4 :    245.945352026414
           5 :   -187.978910486354
           6 :    146.252638705445
           7 :   -121.544618254133
           8 :    108.527996731645
           9 :   -99.9144428114463
          10 :    90.4093150426232
          11 :   -78.6053314362013
          12 :    66.3411007605804
          13 :   -56.4725091228691
          14 :    50.6595143347525
          15 :   -48.4182031179864
          16 :    47.7040000415723
[...]
               b(3) = (  0.000000  0.000000  0.040160 )

     PseudoPot. # 1 for Cd read from file:
     /afs/slac.stanford.edu/u/if/mamunm/psp/gbrv1.5pbe/Cd.UPF
     MD5 check sum: 17164a7926edb8e0dc231208abae86a6
     Pseudo is Ultrasoft + core correction, Zval = 12.0
     Generated by new atomic code, or converted to UPF format
     Using radial grid of  889 points,  6 beta functions with:
                l(1) =   0
                l(2) =   0
                l(3) =   1
                l(4) =   1
                l(5) =   2
                l(6) =   2
     Q(r) pseudized with  6 coefficients,  rinner =    1.000   1.000   1.000
                                                       1.000   1.000

     PseudoPot. # 2 for Rh read from file:
     /afs/slac.stanford.edu/u/if/mamunm/psp/gbrv1.5pbe/Rh.UPF
     MD5 check sum: 761627e959a2e3a1f56b0b5fe687810e
     Pseudo is Ultrasoft + core correction, Zval = 15.0
     Generated by new atomic code, or converted to UPF format
     Using radial grid of  969 points,  7 beta functions with:
                l(1) =   0
                l(2) =   0
                l(3) =   1
                l(4) =   1
                l(5) =   2
                l(6) =   2
                l(7) =   2
     Q(r) pseudized with  8 coefficients,  rinner =    1.200   1.200   1.200
                                                       1.200   1.200

     vdW kernel table read from file vdW_kernel_table
     MD5 check sum: 095c7af220d748ca6e76c0b4c6cfb241

     atomic species   valence    mass     pseudopotential
        Cd1           12.00   112.41400     Cd( 1.00)
        Rh1           15.00   102.90550     Rh( 1.00)

     No symmetry found

   Cartesian axes

     site n.     atom                  positions (alat units)
         1           Cd1 tau(   1) = (   0.0000000   0.0000000  10.0000000  )
         2           Cd1 tau(   2) = (   4.5011163   2.5987207  10.0000000  )
         3           Cd1 tau(   3) = (   1.5003721   2.5987207  10.0000000  )
         4           Rh1 tau(   4) = (   3.0007442   0.0000000  10.0000000  )
         5           Cd1 tau(   5) = (   3.0007442   1.7324805  12.4500974  )
         6           Cd1 tau(   6) = (   1.5003721   4.3312012  12.4500974  )
         7           Cd1 tau(   7) = (  -1.5003721   4.3312012  12.4500974  )
         8           Rh1 tau(   8) = (   0.0000000   1.7324805  12.4500974  )
         9           Cd1 tau(   9) = (  -0.0000347   3.4493340  15.0944409  )
        10           Cd1 tau(  10) = (   1.4868088   0.8740928  15.0943637  )
        11           Cd1 tau(  11) = (   4.5146335   0.8740625  15.0944180  )
        12           Rh1 tau(  12) = (   3.0007346   3.4649706  14.6448262  )

     number of k points=    20  Fermi-Dirac smearing, width (Ry)=  0.0110
                       cart. coord. in units 2pi/alat
        k(    1) = (   0.0000000   0.0000000   0.0000000), wk =   0.0555556
        k(    2) = (   0.0000000   0.0320671   0.0000000), wk =   0.1111111
        k(    3) = (   0.0000000   0.0641341   0.0000000), wk =   0.1111111
        k(    4) = (   0.0000000  -0.0962012   0.0000000), wk =   0.0555556
        k(    5) = (   0.0277709   0.0160335   0.0000000), wk =   0.1111111
        k(    6) = (   0.0277709   0.0481006   0.0000000), wk =   0.1111111
        k(    7) = (   0.0277709   0.0801676   0.0000000), wk =   0.1111111
        k(    8) = (   0.0277709  -0.0801676   0.0000000), wk =   0.1111111
        k(    9) = (   0.0277709  -0.0481006   0.0000000), wk =   0.1111111
        k(   10) = (   0.0277709  -0.0160335   0.0000000), wk =   0.1111111
        k(   11) = (   0.0555418   0.0320671   0.0000000), wk =   0.1111111
        k(   12) = (   0.0555418   0.0641341   0.0000000), wk =   0.1111111
        k(   13) = (   0.0555418   0.0962012   0.0000000), wk =   0.1111111
        k(   14) = (   0.0555418  -0.0641341   0.0000000), wk =   0.1111111
        k(   15) = (   0.0555418  -0.0320671   0.0000000), wk =   0.1111111
        k(   16) = (   0.0555418   0.0000000   0.0000000), wk =   0.1111111
        k(   17) = (  -0.0833127  -0.0481006   0.0000000), wk =   0.0555556
        k(   18) = (  -0.0833127  -0.0160335   0.0000000), wk =   0.1111111
        k(   19) = (  -0.0833127   0.0160335   0.0000000), wk =   0.1111111
        k(   20) = (  -0.0833127  -0.1443018   0.0000000), wk =   0.0555556

     Largest allocated arrays     est. size (Mb)     dimensions
     Largest temporary arrays     est. size (Mb)     dimensions

     Initial potential from superposition of free atoms
     Check: negative starting charge=   -0.354598

     starting charge  146.99933, renormalised to  153.00000

[...]

     *
     * You are using vdW-DF for exchange-correlation in this calculation.
     * Please cite the following three references that made this development
     * possible:
     *
     *   M. Dion, H. Rydberg, E. Schroder, D. C. Langreth, and
     *   B. I. Lundqvist, Phys. Rev. Lett. 92, 246401 (2004).
     *
     *   T. Thonhauser, V. R. Cooper, S. Li, A. Puzder, P. Hyldgaard, and
     *   D. C. Langreth, Phys. Rev. B 76, 125112 (2007).
     *
     *   G. Roman-Perez and J. M. Soler, Phys. Rev. Lett. 103, 096102 (2009).
     *
     *
     * If you are using vdW-DF2, please also cite:
     *
     *   K. Lee, E. D. Murray, L. Kong, B. I. Lundqvist, and
     *   D. C. Langreth, Phys. Rev. B 82, 081101(R) (2010).
     *
     *
     * If you are calculating the stress with vdW-DF, please also cite:
     *
     *   R. Sabatini, E. Kucukbenli, B. Kolb, T. Thonhauser, and
     *   S. de Gironcoli, J. Phys.: Condens. Matter 24, 424209 (2012).
     *

     Carrying out vdW-DF run using the following parameters:

     Nqs =      20    Nr_points =    1024   r_max =   100.000
     q_mesh =
               0.00001000     0.04494208     0.09755937     0.15916263
               0.23128650     0.31572767     0.41458969     0.53033537
               0.66584808     0.82450364     1.01025438     1.22772762
               1.48234092     1.78043706     2.12944203     2.53805004
               3.01644009     3.57652955     4.23227104     5.00000000

     Gradients computed in reciprocal space

[...]

     Starting wfc are  117 randomized atomic wfcs

     Self-consistent Calculation

[...]

     total energy              =   -1561.43275809 Ry
     Harris-Foulkes estimate   =   -1561.43276316 Ry
     estimated scf accuracy    <       0.00000190 Ry

     iteration # 15     ecut=    36.75 Ry     beta=0.10
     Davidson diagonalization with overlap
     ethr =  1.24E-09,  avg # of iterations =  5.0

[...]

     negative rho (up, down):  3.614E-01 0.000E+00

     Adding external electric field

     Computed dipole along edir(3) :
        Dipole                0.0232 Ry au,          0.0591 Debye
        Dipole field          0.0001 Ry au

        Potential amp.       -0.0051 Ry
        Total length         45.8782 bohr

     End of self-consistent calculation

[...]

          k = 0.0555 0.0000 0.0000 ( 19721 PWs)   bands (ev):

[...]

          k =-0.0833-0.1443 0.0000 ( 19732 PWs)   bands (ev):

   -44.7814 -44.7813 -44.7673 -44.7672 -44.7231 -44.6994 -44.6754 -44.6753
   -44.5968  -8.8594  -8.7320  -8.6984  -8.6252  -8.5787  -8.5412  -8.4980
    -8.4563  -8.4388  -8.3962  -8.3888  -8.3749  -8.2937  -8.2673  -8.2364
    -8.2303  -8.1789  -8.1202  -8.1051  -8.0722  -8.0633  -8.0599  -8.0214
    -8.0168  -8.0081  -7.9837  -7.9834  -7.9406  -7.9303  -7.9151  -7.9076
    -7.9006  -7.8880  -7.8671  -7.8614  -7.8504  -7.8348  -7.7768  -7.7431
    -7.6920  -7.6758  -7.6720  -7.5675  -7.4600  -7.3961  -5.5835  -5.3360
    -4.0173  -3.7361  -2.8678  -2.1512  -1.8919  -1.7052  -1.3707  -1.2540
    -0.9994  -0.9416  -0.7666  -0.7101  -0.7073  -0.6202  -0.4930  -0.3203
    -0.2444  -0.1290   0.3391   0.6010   0.6259   0.7918   1.2023   2.2652
     2.3628   2.4960   2.8526   4.7434   4.7657   4.8826   5.1001   5.2740
     5.2959   5.3027   5.6070   5.8023   5.8204   6.3593   6.4047   6.4551
     6.5896   6.6699   7.1408   7.2140   7.3319   7.3463   7.3713   7.4008
     7.7874   7.8537

     the Fermi energy is     0.7515 ev

!    total energy              =   -1561.43273704 Ry
     Harris-Foulkes estimate   =   -1561.43275854 Ry
     estimated scf accuracy    <       0.00000082 Ry

     The total energy is the sum of the following terms:

     one-electron contribution =  -10788.07510479 Ry
     hartree contribution      =    5475.34374121 Ry
     xc contribution           =    -460.53926951 Ry
     ewald contribution        =    4211.87611776 Ry
     electric field correction =       0.00000129 Ry
     smearing contrib. (-TS)   =      -0.03822300 Ry

     convergence has been achieved in  15 iterations

 BEEF-vdW xc energy contributions
           1 :   -403.116582142996
           2 :    369.049184608608
           3 :   -311.288102595455
           4 :    245.894934221618
           5 :   -187.964145875135
           6 :    146.303386441405
           7 :   -121.641544045122
           8 :    108.617414834559
           9 :   -99.9511622841645
          10 :    90.3939587304416
          11 :   -78.5864503617521
          12 :    66.3794704926290
          13 :   -56.5944313135400
          14 :    50.8351777740794
          15 :   -48.5824302263021
          16 :    47.8045189104714
          17 :   -46.3902549590467
          18 :    43.3728095236203
          19 :   -39.2464139995861
          20 :    35.3529725103259
          21 :   -32.8738618224675
          22 :    32.0983039903792
          23 :   -32.3549757578644
          24 :    32.5354436386641
          25 :   -31.8040083628230
          26 :    30.0463947671388
          27 :   -27.8323141602752
          28 :    25.9832154162191
          29 :   -25.0524318085488
          30 :    25.0323378906462
          31 :   -36.9480244617585
          32 :   -27.1195370853669

     Forces acting on atoms (Ry/au):

     negative rho (up, down):  3.614E-01 0.000E+00
     atom    1 type  1   force =    -0.00000011    0.00756547   -0.01909461
     atom    2 type  1   force =     0.00655639   -0.00378524   -0.01910098
     atom    3 type  1   force =    -0.00655533   -0.00378408   -0.01909571
     atom    4 type  2   force =    -0.00000118   -0.00000025    0.04791357
     atom    5 type  1   force =     0.00000045   -0.01290512    0.00160119
     atom    6 type  1   force =    -0.01117448    0.00645260    0.00159984
     atom    7 type  1   force =     0.01117851    0.00645452    0.00159548
     atom    8 type  2   force =    -0.00000019   -0.00000022    0.00508664
     atom    9 type  1   force =    -0.00000109    0.00014731    0.00008889
     atom   10 type  1   force =     0.00012680   -0.00007177    0.00008813
     atom   11 type  1   force =    -0.00012988   -0.00007297    0.00008572
     atom   12 type  2   force =     0.00000011   -0.00000025   -0.00076817

     Total force =     0.063996     Total SCF correction =     0.002699

     entering subroutine stress ...

     negative rho (up, down):  3.614E-01 0.000E+00
          total   stress  (Ry/bohr**3)                   (kbar)     P=  -15.68
  -0.00013399  -0.00000000   0.00000000        -19.71     -0.00      0.00
  -0.00000000  -0.00013399   0.00000000         -0.00    -19.71      0.00
   0.00000000   0.00000000  -0.00005182          0.00      0.00     -7.62

 !ASE

     Writing output data file calc.save

     General routines

     Parallel routines

   This run was terminated on:   1:36:23  20Dec2018

   JOB DONE.
Job  /afs/slac/g/suncat/bin/suncat-tsmpirun -x LD_LIBRARY_PATH -wdir /scratch/qe773463_vz0RB pw.x -in pw.inp

TID   HOST_NAME   COMMAND_LINE            STATUS            TERMINATION_TIME
00000 suncat0041 pw.x -in pw.inp   Done                     12/20/2018 01:36:23
00001 suncat0041 pw.x -in pw.inp   Done                     12/20/2018 01:36:23
00002 suncat0041 pw.x -in pw.inp   Done                     12/20/2018 01:36:23
00003 suncat0041 pw.x -in pw.inp   Done                     12/20/2018 01:36:23
00004 suncat0041 pw.x -in pw.inp   Done                     12/20/2018 01:36:23
00005 suncat0041 pw.x -in pw.inp   Done                     12/20/2018 01:36:23
00006 suncat0041 pw.x -in pw.inp   Done                     12/20/2018 01:36:23
00007 suncat0041 pw.x -in pw.inp   Done                     12/20/2018 01:36:23
00008 suncat0036 pw.x -in pw.inp   Done                     12/20/2018 01:36:23
00009 suncat0036 pw.x -in pw.inp   Done                     12/20/2018 01:36:23
00010 suncat0036 pw.x -in pw.inp   Done                     12/20/2018 01:36:23
00011 suncat0036 pw.x -in pw.inp   Done                     12/20/2018 01:36:23
00012 suncat0036 pw.x -in pw.inp   Done                     12/20/2018 01:36:23
00013 suncat0036 pw.x -in pw.inp   Done                     12/20/2018 01:36:23
00014 suncat0036 pw.x -in pw.inp   Done                     12/20/2018 01:36:23
00015 suncat0036 pw.x -in pw.inp   Done                     12/20/2018 01:36:23
00016 suncat0035 pw.x -in pw.inp   Done                     12/20/2018 01:36:23
00017 suncat0035 pw.x -in pw.inp   Done                     12/20/2018 01:36:23
00018 suncat0035 pw.x -in pw.inp   Done                     12/20/2018 01:36:23
00019 suncat0035 pw.x -in pw.inp   Done                     12/20/2018 01:36:23
00020 suncat0035 pw.x -in pw.inp   Done                     12/20/2018 01:36:23
00021 suncat0035 pw.x -in pw.inp   Done                     12/20/2018 01:36:23
00022 suncat0035 pw.x -in pw.inp   Done                     12/20/2018 01:36:23
00023 suncat0035 pw.x -in pw.inp   Done                     12/20/2018 01:36:23
00024 suncat0034 pw.x -in pw.inp   Done                     12/20/2018 01:36:23
00025 suncat0034 pw.x -in pw.inp   Done                     12/20/2018 01:36:23
00026 suncat0034 pw.x -in pw.inp   Done                     12/20/2018 01:36:23
00027 suncat0034 pw.x -in pw.inp   Done                     12/20/2018 01:36:23
00028 suncat0034 pw.x -in pw.inp   Done                     12/20/2018 01:36:23
00029 suncat0034 pw.x -in pw.inp   Done                     12/20/2018 01:36:23
00030 suncat0034 pw.x -in pw.inp   Done                     12/20/2018 01:36:23
00031 suncat0034 pw.x -in pw.inp   Done                     12/20/2018 01:36:23
00032 suncat0207 pw.x -in pw.inp   Done                     12/20/2018 01:36:23
00033 suncat0207 pw.x -in pw.inp   Done                     12/20/2018 01:36:23
00034 suncat0207 pw.x -in pw.inp   Done                     12/20/2018 01:36:23
00035 suncat0207 pw.x -in pw.inp   Done                     12/20/2018 01:36:23
00036 suncat0207 pw.x -in pw.inp   Done                     12/20/2018 01:36:23
00037 suncat0207 pw.x -in pw.inp   Done                     12/20/2018 01:36:23
00038 suncat0207 pw.x -in pw.inp   Done                     12/20/2018 01:36:23
00039 suncat0207 pw.x -in pw.inp   Done                     12/20/2018 01:36:23
00040 suncat0206 pw.x -in pw.inp   Done                     12/20/2018 01:36:23
00041 suncat0206 pw.x -in pw.inp   Done                     12/20/2018 01:36:23
00042 suncat0206 pw.x -in pw.inp   Done                     12/20/2018 01:36:23
00043 suncat0206 pw.x -in pw.inp   Done                     12/20/2018 01:36:23
00044 suncat0206 pw.x -in pw.inp   Done                     12/20/2018 01:36:23
00045 suncat0206 pw.x -in pw.inp   Done                     12/20/2018 01:36:23
00046 suncat0206 pw.x -in pw.inp   Done                     12/20/2018 01:36:23
00047 suncat0206 pw.x -in pw.inp   Done                     12/20/2018 01:36:23
00048 suncat0205 pw.x -in pw.inp   Done                     12/20/2018 01:36:23
00049 suncat0205 pw.x -in pw.inp   Done                     12/20/2018 01:36:23
00050 suncat0205 pw.x -in pw.inp   Done                     12/20/2018 01:36:23
00051 suncat0205 pw.x -in pw.inp   Done                     12/20/2018 01:36:23
00052 suncat0205 pw.x -in pw.inp   Done                     12/20/2018 01:36:23
00053 suncat0205 pw.x -in pw.inp   Done                     12/20/2018 01:36:23
00054 suncat0205 pw.x -in pw.inp   Done                     12/20/2018 01:36:23
00055 suncat0205 pw.x -in pw.inp   Done                     12/20/2018 01:36:23
00056 suncat0204 pw.x -in pw.inp   Done                     12/20/2018 01:36:23
00057 suncat0204 pw.x -in pw.inp   Done                     12/20/2018 01:36:23
00058 suncat0204 pw.x -in pw.inp   Done                     12/20/2018 01:36:23
00059 suncat0204 pw.x -in pw.inp   Done                     12/20/2018 01:36:23
00060 suncat0204 pw.x -in pw.inp   Done                     12/20/2018 01:36:23
00061 suncat0204 pw.x -in pw.inp   Done                     12/20/2018 01:36:23
00062 suncat0204 pw.x -in pw.inp   Done                     12/20/2018 01:36:23
00063 suncat0204 pw.x -in pw.inp   Done                     12/20/2018 01:36:23