     Program PWSCF v.5.1rc2 (svn rev. 11289) starts on 19Dec2018 at 15: 8:10

     Current dimensions of program PWSCF are:
     Max number of different atomic species (ntypx) = 10
     Max number of k-points (npk) =  40000
     Max angular momentum in pseudopotentials (lmaxx) =  3
     Presently stress not available with electric field

     IMPORTANT: XC functional enforced from input :
     Exchange-correlation      = BEEF-VDW ( 1  4 27 13 2)
     Any further DFT definition will be discarded
     Please, verify this is what you really want

     Subspace diagonalization in iterative solution of the eigenvalue problem:
     a serial algorithm will be used

     bravais-lattice index     =            0
     lattice parameter (alat)  =       1.8897  a.u.
     unit-cell volume          =    4916.2492 (a.u.)^3
     number of atoms/cell      =           12
     number of atomic types    =            2
     number of electrons       =       219.00
     number of Kohn-Sham states=          139
     kinetic-energy cutoff     =      36.7493  Ry
     charge density cutoff     =     367.4932  Ry
     convergence threshold     =      1.0E-06
     mixing beta               =       0.1000
     number of iterations used =           10  plain     mixing
     Exchange-correlation      = BEEF-VDW ( 1  4 27 13 2)
     nstep                     =           50

     celldm(1)=   1.889726  celldm(2)=   0.000000  celldm(3)=   0.000000
     celldm(4)=   0.000000  celldm(5)=   0.000000  celldm(6)=   0.000000

     crystal axes: (cart. coord. in units of alat)
               a(1) = (   5.828872   0.000000   0.000000 )
               a(2) = (  -2.914436   5.047952   0.000000 )
               a(3) = (   0.000000   0.000000  24.759254 )

     reciprocal axes: (cart. coord. in units 2 pi/alat)
               b(1) = (  0.171560  0.099050  0.000000 )
               b(2) = (  0.000000  0.198100  0.000000 )
               b(3) = (  0.000000  0.000000  0.040389 )

     PseudoPot. # 1 for Ag read from file:
     /afs/slac.stanford.edu/u/if/mamunm/psp/gbrv1.5pbe/Ag.UPF
     MD5 check sum: d66d668201baa78d5eb5b04ef7011058
     Pseudo is Ultrasoft + core correction, Zval = 19.0
     Generated by new atomic code, or converted to UPF format
     Using radial grid of  887 points,  6 beta functions with:
                l(1) =   0
                l(2) =   0
                l(3) =   1
                l(4) =   1
                l(5) =   2
                l(6) =   2
     Q(r) pseudized with  6 coefficients,  rinner =    1.300   1.300   1.300
                                                       1.300   1.300

     PseudoPot. # 2 for Pt read from file:
     /afs/slac.stanford.edu/u/if/mamunm/psp/gbrv1.5pbe/Pt.UPF
     MD5 check sum: f09d6de1a584b5a045c4fc126da2d0c4
     Pseudo is Ultrasoft + core correction, Zval = 16.0
     Generated by new atomic code, or converted to UPF format
     Using radial grid of  985 points,  6 beta functions with:
                l(1) =   0
                l(2) =   0
                l(3) =   1
                l(4) =   1
                l(5) =   2
                l(6) =   2
     Q(r) pseudized with  8 coefficients,  rinner =    1.300   1.300   1.300
                                                       1.300   1.300

     vdW kernel table read from file vdW_kernel_table
     MD5 check sum: 095c7af220d748ca6e76c0b4c6cfb241

     atomic species   valence    mass     pseudopotential
        Ag1           19.00   107.86820     Ag( 1.00)
        Pt1           16.00   195.08400     Pt( 1.00)

     No symmetry found

   Cartesian axes

     site n.     atom                  positions (alat units)
         1           Ag1 tau(   1) = (   0.0000000   0.0000000  10.0000000  )
         2           Ag1 tau(   2) = (  -1.4572181   2.5239758  10.0000000  )
         3           Ag1 tau(   3) = (   1.4572181   2.5239758  10.0000000  )
         4           Pt1 tau(   4) = (   2.9144362   0.0000000  10.0000000  )
         5           Ag1 tau(   5) = (   2.9144362   1.6826505  12.3796272  )
         6           Ag1 tau(   6) = (   1.4572181   4.2066263  12.3796272  )
         7           Ag1 tau(   7) = (  -1.4572181   4.2066263  12.3796272  )
         8           Pt1 tau(   8) = (   0.0000000   1.6826505  12.3796272  )
         9           Ag1 tau(   9) = (  -0.0000000   3.3653011  14.7592544  )
        10           Ag1 tau(  10) = (   1.4572181   0.8413253  14.7592544  )
        11           Ag1 tau(  11) = (   4.3716543   0.8413253  14.7592544  )
        12           Pt1 tau(  12) = (   2.9144362   3.3653011  14.7592544  )

     number of k points=    20  Fermi-Dirac smearing, width (Ry)=  0.0110
                       cart. coord. in units 2pi/alat
        k(    1) = (   0.0000000   0.0000000   0.0000000), wk =   0.0555556
        k(    2) = (   0.0000000   0.0330167   0.0000000), wk =   0.1111111
        k(    3) = (   0.0000000   0.0660334   0.0000000), wk =   0.1111111
        k(    4) = (   0.0000000  -0.0990501   0.0000000), wk =   0.0555556
        k(    5) = (   0.0285933   0.0165083   0.0000000), wk =   0.1111111
        k(    6) = (   0.0285933   0.0495250   0.0000000), wk =   0.1111111
        k(    7) = (   0.0285933   0.0825417   0.0000000), wk =   0.1111111
        k(    8) = (   0.0285933  -0.0825417   0.0000000), wk =   0.1111111
        k(    9) = (   0.0285933  -0.0495250   0.0000000), wk =   0.1111111
        k(   10) = (   0.0285933  -0.0165083   0.0000000), wk =   0.1111111
        k(   11) = (   0.0571866   0.0330167   0.0000000), wk =   0.1111111
        k(   12) = (   0.0571866   0.0660334   0.0000000), wk =   0.1111111
        k(   13) = (   0.0571866   0.0990501   0.0000000), wk =   0.1111111
        k(   14) = (   0.0571866  -0.0660334   0.0000000), wk =   0.1111111
        k(   15) = (   0.0571866  -0.0330167   0.0000000), wk =   0.1111111
        k(   16) = (   0.0571866   0.0000000   0.0000000), wk =   0.1111111
        k(   17) = (  -0.0857799  -0.0495250   0.0000000), wk =   0.0555556
        k(   18) = (  -0.0857799  -0.0165083   0.0000000), wk =   0.1111111
        k(   19) = (  -0.0857799   0.0165083   0.0000000), wk =   0.1111111
        k(   20) = (  -0.0857799  -0.1485751   0.0000000), wk =   0.0555556

     Largest allocated arrays     est. size (Mb)     dimensions
     Largest temporary arrays     est. size (Mb)     dimensions

     Initial potential from superposition of free atoms
     Check: negative starting charge=   -0.550062

     starting charge  212.99954, renormalised to  219.00000

     negative rho (up, down):  5.656E-01 0.000E+00

     *
     * You are using vdW-DF for exchange-correlation in this calculation.
     * Please cite the following three references that made this development
     * possible:
     *
     *   M. Dion, H. Rydberg, E. Schroder, D. C. Langreth, and
     *   B. I. Lundqvist, Phys. Rev. Lett. 92, 246401 (2004).
     *
     *   T. Thonhauser, V. R. Cooper, S. Li, A. Puzder, P. Hyldgaard, and
     *   D. C. Langreth, Phys. Rev. B 76, 125112 (2007).
     *
     *   G. Roman-Perez and J. M. Soler, Phys. Rev. Lett. 103, 096102 (2009).
     *
     *
     * If you are using vdW-DF2, please also cite:
     *
     *   K. Lee, E. D. Murray, L. Kong, B. I. Lundqvist, and
     *   D. C. Langreth, Phys. Rev. B 82, 081101(R) (2010).
     *
     *
     * If you are calculating the stress with vdW-DF, please also cite:
     *
     *   R. Sabatini, E. Kucukbenli, B. Kolb, T. Thonhauser, and
     *   S. de Gironcoli, J. Phys.: Condens. Matter 24, 424209 (2012).
     *

     Carrying out vdW-DF run using the following parameters:

     Nqs =      20    Nr_points =    1024   r_max =   100.000
     q_mesh =
               0.00001000     0.04494208     0.09755937     0.15916263
               0.23128650     0.31572767     0.41458969     0.53033537
               0.66584808     0.82450364     1.01025438     1.22772762
               1.48234092     1.78043706     2.12944203     2.53805004
               3.01644009     3.57652955     4.23227104     5.00000000

     Gradients computed in reciprocal space

     Adding external electric field

     Computed dipole along edir(3) :
        Dipole               -0.0000 Ry au,         -0.0000 Debye
        Dipole field         -0.0000 Ry au

        Potential amp.        0.0000 Ry
        Total length         45.6185 bohr

     Starting wfc are  153 randomized atomic wfcs

     Self-consistent Calculation

     iteration #  1     ecut=    36.75 Ry     beta=0.10
     Davidson diagonalization with overlap
     ethr =  1.00E-02,  avg # of iterations =  7.0

[...]

     total energy              =   -3307.52627170 Ry
     Harris-Foulkes estimate   =   -3310.13710693 Ry
     estimated scf accuracy    <      15.79895311 Ry

[...]

     End of self-consistent calculation

          k = 0.0000 0.0000 0.0000 ( 18535 PWs)   bands (ev):

   -90.4333 -90.4257 -90.4257 -90.3401 -90.3399 -90.3326 -90.3326 -90.3326
   -90.3326 -54.0123 -53.9627 -53.9627 -53.9349 -53.9300 -53.9300 -53.9200
   -53.9108 -53.8925 -53.8803 -53.8803 -53.8639 -53.8639 -53.8569 -53.8569
   -53.8154 -53.8154 -53.8133 -53.8133 -53.8104 -53.8055 -53.8039 -53.8022
   -53.7967 -53.7967 -53.7927 -53.7927 -50.3546 -50.3133 -50.3133 -50.1886
   -50.1886 -50.1884 -50.1884 -50.0753 -50.0744  -5.4310  -4.4896  -4.4452
    -4.3433  -4.2440  -4.1840  -4.1840  -4.0962  -4.0758  -4.0444  -4.0444
    -3.9628  -3.9628  -3.7989  -3.7989  -3.4047  -3.1285  -3.1285  -3.1071
    -3.1071  -2.9646  -2.8625  -2.8527  -2.7236  -2.7236  -2.6649  -2.6649
    -2.5477  -2.5477  -2.4220  -2.4220  -2.4095  -2.2944  -2.2944  -2.1755
    -2.0553  -2.0553  -1.9943  -1.9943  -1.7536  -1.7536  -1.5932  -1.5112
    -1.5112  -1.3869  -1.2981  -1.2658  -0.6507  -0.4704  -0.0157  -0.0157
     0.0069   0.0069   0.1281   0.1281   0.2260   0.2795   0.2795   0.3941
     0.3941   0.6258   0.6258   0.7101   2.1027   2.3490   2.4486   2.4486
     3.2376   3.4166   3.4166   3.5861   3.6793   3.6793   5.0856   5.4460
     5.6536   5.9535   6.1399   6.2962   6.2962   6.7111   6.7111   6.9289
     6.9721   7.5513   7.6493   7.6493   9.2207   9.4265   9.6632   9.9015
     9.9015   9.9043  10.3649

[...]

          k =-0.0858-0.0495 0.0000 ( 18464 PWs)   bands (ev):

[...]

     the Fermi energy is     1.2639 ev

!    total energy              =   -3306.88147134 Ry
     Harris-Foulkes estimate   =   -3306.88146957 Ry
     estimated scf accuracy    <       0.00000048 Ry

     The total energy is the sum of the following terms:

     one-electron contribution =  -24694.82314172 Ry
     hartree contribution      =   12352.44835391 Ry
     xc contribution           =    -446.82090807 Ry
     ewald contribution        =    9482.33289767 Ry
     electric field correction =       0.00000000 Ry
     smearing contrib. (-TS)   =      -0.01867313 Ry

     convergence has been achieved in  15 iterations

 BEEF-vdW xc energy contributions
           1 :   -391.315779756560
           2 :    358.304885920108
           3 :   -301.825853907118
           4 :    236.725629032264
           5 :   -177.252050986927
           6 :    132.311223301001
           7 :   -103.720874601437
           8 :    87.6157268976668
[...]
                l(1) =   0
                l(2) =   0
                l(3) =   1
                l(4) =   1
                l(5) =   2
                l(6) =   2
     Q(r) pseudized with  6 coefficients,  rinner =    1.300   1.300   1.300
                                                       1.300   1.300

     PseudoPot. # 2 for Pt read from file:
     /afs/slac.stanford.edu/u/if/mamunm/psp/gbrv1.5pbe/Pt.UPF
     MD5 check sum: f09d6de1a584b5a045c4fc126da2d0c4
     Pseudo is Ultrasoft + core correction, Zval = 16.0
     Generated by new atomic code, or converted to UPF format
     Using radial grid of  985 points,  6 beta functions with:
                l(1) =   0
                l(2) =   0
                l(3) =   1
                l(4) =   1
                l(5) =   2
                l(6) =   2
     Q(r) pseudized with  8 coefficients,  rinner =    1.300   1.300   1.300
                                                       1.300   1.300

     vdW kernel table read from file vdW_kernel_table
     MD5 check sum: 095c7af220d748ca6e76c0b4c6cfb241

     atomic species   valence    mass     pseudopotential
        Ag1           19.00   107.86820     Ag( 1.00)
        Pt1           16.00   195.08400     Pt( 1.00)

     No symmetry found

   Cartesian axes

     site n.     atom                  positions (alat units)
         1           Ag1 tau(   1) = (   0.0000000   0.0000000  10.0000000  )
         2           Ag1 tau(   2) = (  -1.4572181   2.5239758  10.0000000  )
         3           Ag1 tau(   3) = (   1.4572181   2.5239758  10.0000000  )
         4           Pt1 tau(   4) = (   2.9144362   0.0000000  10.0000000  )
         5           Ag1 tau(   5) = (   2.9144362   1.6826505  12.3796272  )
         6           Ag1 tau(   6) = (   1.4572181   4.2066263  12.3796272  )
         7           Ag1 tau(   7) = (  -1.4572181   4.2066263  12.3796272  )
         8           Pt1 tau(   8) = (   0.0000000   1.6826505  12.3796272  )
         9           Ag1 tau(   9) = (  -0.0000012   3.3559174  14.8082642  )
        10           Ag1 tau(  10) = (   1.4490922   0.8460167  14.8082638  )
        11           Ag1 tau(  11) = (   4.3797801   0.8460181  14.8082657  )
        12           Pt1 tau(  12) = (   2.9144367   3.3653014  14.6622175  )

     number of k points=    20  Fermi-Dirac smearing, width (Ry)=  0.0110
                       cart. coord. in units 2pi/alat
        k(    1) = (   0.0000000   0.0000000   0.0000000), wk =   0.0555556
        k(    2) = (   0.0000000   0.0330167   0.0000000), wk =   0.1111111
        k(    3) = (   0.0000000   0.0660334   0.0000000), wk =   0.1111111
        k(    4) = (   0.0000000  -0.0990501   0.0000000), wk =   0.0555556
        k(    5) = (   0.0285933   0.0165083   0.0000000), wk =   0.1111111
        k(    6) = (   0.0285933   0.0495250   0.0000000), wk =   0.1111111
        k(    7) = (   0.0285933   0.0825417   0.0000000), wk =   0.1111111
        k(    8) = (   0.0285933  -0.0825417   0.0000000), wk =   0.1111111
        k(    9) = (   0.0285933  -0.0495250   0.0000000), wk =   0.1111111
        k(   10) = (   0.0285933  -0.0165083   0.0000000), wk =   0.1111111
        k(   11) = (   0.0571866   0.0330167   0.0000000), wk =   0.1111111
        k(   12) = (   0.0571866   0.0660334   0.0000000), wk =   0.1111111
        k(   13) = (   0.0571866   0.0990501   0.0000000), wk =   0.1111111
        k(   14) = (   0.0571866  -0.0660334   0.0000000), wk =   0.1111111
        k(   15) = (   0.0571866  -0.0330167   0.0000000), wk =   0.1111111
        k(   16) = (   0.0571866   0.0000000   0.0000000), wk =   0.1111111
        k(   17) = (  -0.0857799  -0.0495250   0.0000000), wk =   0.0555556
        k(   18) = (  -0.0857799  -0.0165083   0.0000000), wk =   0.1111111
        k(   19) = (  -0.0857799   0.0165083   0.0000000), wk =   0.1111111
        k(   20) = (  -0.0857799  -0.1485751   0.0000000), wk =   0.0555556

     Largest allocated arrays     est. size (Mb)     dimensions
     Largest temporary arrays     est. size (Mb)     dimensions

     Initial potential from superposition of free atoms
     Check: negative starting charge=   -0.549833

     starting charge  212.99954, renormalised to  219.00000

[...]

     *
     * You are using vdW-DF for exchange-correlation in this calculation.
     * Please cite the following three references that made this development
     * possible:
     *
     *   M. Dion, H. Rydberg, E. Schroder, D. C. Langreth, and
     *   B. I. Lundqvist, Phys. Rev. Lett. 92, 246401 (2004).
     *
     *   T. Thonhauser, V. R. Cooper, S. Li, A. Puzder, P. Hyldgaard, and
     *   D. C. Langreth, Phys. Rev. B 76, 125112 (2007).
     *
     *   G. Roman-Perez and J. M. Soler, Phys. Rev. Lett. 103, 096102 (2009).
     *
     *
     * If you are using vdW-DF2, please also cite:
     *
     *   K. Lee, E. D. Murray, L. Kong, B. I. Lundqvist, and
     *   D. C. Langreth, Phys. Rev. B 82, 081101(R) (2010).
     *
     *
     * If you are calculating the stress with vdW-DF, please also cite:
     *
     *   R. Sabatini, E. Kucukbenli, B. Kolb, T. Thonhauser, and
     *   S. de Gironcoli, J. Phys.: Condens. Matter 24, 424209 (2012).
     *

     Carrying out vdW-DF run using the following parameters:

     Nqs =      20    Nr_points =    1024   r_max =   100.000
     q_mesh =
               0.00001000     0.04494208     0.09755937     0.15916263
               0.23128650     0.31572767     0.41458969     0.53033537
               0.66584808     0.82450364     1.01025438     1.22772762
               1.48234092     1.78043706     2.12944203     2.53805004
               3.01644009     3.57652955     4.23227104     5.00000000

     Gradients computed in reciprocal space

[...]

     Starting wfc are  153 randomized atomic wfcs

     Self-consistent Calculation

[...]

     total energy              =   -3306.88971835 Ry
     Harris-Foulkes estimate   =   -3306.88971782 Ry
     estimated scf accuracy    <       0.00000297 Ry

     iteration # 15     ecut=    36.75 Ry     beta=0.10
     Davidson diagonalization with overlap
     ethr =  1.36E-09,  avg # of iterations =  2.0

[...]

     negative rho (up, down):  5.276E-01 0.000E+00

     Adding external electric field

     Computed dipole along edir(3) :
        Dipole                0.0167 Ry au,          0.0424 Debye
        Dipole field          0.0000 Ry au

        Potential amp.       -0.0039 Ry
        Total length         45.6185 bohr

     End of self-consistent calculation

[...]

          k = 0.0572 0.0000 0.0000 ( 18507 PWs)   bands (ev):

[...]

          k =-0.0858-0.1486 0.0000 ( 18464 PWs)   bands (ev):

   -90.4035 -90.4010 -90.3985 -90.3153 -90.3128 -90.3103 -90.3005 -90.2979
   -90.2955 -53.9578 -53.9351 -53.9206 -53.9041 -53.8907 -53.8885 -53.8861
   -53.8825 -53.8700 -53.8584 -53.8573 -53.8401 -53.8273 -53.8200 -53.8133
   -53.8073 -53.8060 -53.7993 -53.7914 -53.7879 -53.7799 -53.7772 -53.7736
   -53.7717 -53.7645 -53.7607 -53.7566 -50.3118 -50.2759 -50.2751 -50.2290
   -50.2282 -50.1754 -50.1745 -50.1337 -50.0618  -4.2266  -4.1623  -3.9496
    -3.8783  -3.8043  -3.6883  -3.6314  -3.5912  -3.5863  -3.5654  -3.5387
    -3.5171  -3.3546  -3.3135  -3.2611  -3.2041  -3.1790  -3.1095  -3.0597
    -2.9731  -2.8740  -2.8149  -2.7971  -2.7868  -2.7052  -2.7020  -2.6677
    -2.6056  -2.5457  -2.4999  -2.4926  -2.4834  -2.4597  -2.4253  -2.3210
    -2.3165  -2.3041  -2.2432  -2.2167  -2.2156  -2.1130  -2.0978  -2.0942
    -2.0022  -1.9022  -1.7324  -1.5681  -1.3763  -1.2435  -0.9669  -0.6770
    -0.5798  -0.3003  -0.2384  -0.2158  -0.1870  -0.1825  -0.1587  -0.0127
     0.0416   0.1699   0.1930   0.2999   0.6271   1.7104   2.0211   2.1136
     2.7251   3.1210   3.2977   4.6825   4.8014   5.2290   5.3910   6.6031
     6.6149   7.2109   7.2235   7.3023   7.3121   7.8227   8.0188   8.0215
     8.2130   8.2956   8.4490   8.4746   8.6519   8.8253   8.8793   9.3506
     9.3898   9.7361   9.8258

     the Fermi energy is     1.2767 ev

!    total energy              =   -3306.88972361 Ry
     Harris-Foulkes estimate   =   -3306.88971850 Ry
     estimated scf accuracy    <       0.00000062 Ry

     The total energy is the sum of the following terms:

     one-electron contribution =  -24635.94283629 Ry
     hartree contribution      =   12323.17457784 Ry
     xc contribution           =    -446.82172419 Ry
     ewald contribution        =    9452.71881008 Ry
     electric field correction =       0.00000071 Ry
     smearing contrib. (-TS)   =      -0.01855176 Ry

     convergence has been achieved in  15 iterations

 BEEF-vdW xc energy contributions
           1 :   -391.471256065262
           2 :    358.453857423218
           3 :   -301.967785270727
           4 :    236.866937780816
           5 :   -177.400699743568
           6 :    132.469389923774
           7 :   -103.882171553325
           8 :    87.7699492200232
           9 :   -77.9220443827493
          10 :    69.1575155546427
          11 :   -59.2100735162209
          12 :    48.6232219863293
          13 :   -39.2721874528237
          14 :    32.6756615682717
          15 :   -29.0760774956292
          16 :    27.5649428111483
          17 :   -26.8626598174732
          18 :    26.0760520033499
          19 :   -24.9731209349929
          20 :    23.7522226618916
          21 :   -22.6245665478832
          22 :    21.5587460133983
          23 :   -20.3353126221624
          24 :    18.7960702811769
          25 :   -17.0506119119047
          26 :    15.4605517854129
          27 :   -14.4117176922114
          28 :    14.0459444855229
          29 :   -14.1552669700146
          30 :    14.3140146414829
          31 :   -36.1832632332533
          32 :   -26.4614399676753

     Forces acting on atoms (Ry/au):

     negative rho (up, down):  5.276E-01 0.000E+00
     atom    1 type  1   force =    -0.00000021    0.00298218   -0.00760796
     atom    2 type  1   force =     0.00258230   -0.00149130   -0.00760814
     atom    3 type  1   force =    -0.00258247   -0.00149099   -0.00760813
     atom    4 type  2   force =     0.00000038    0.00000015    0.01723251
     atom    5 type  1   force =    -0.00000044   -0.00532516   -0.00152519
     atom    6 type  1   force =    -0.00461200    0.00266217   -0.00152511
     atom    7 type  1   force =     0.00461201    0.00266255   -0.00152473
     atom    8 type  2   force =     0.00000056    0.00000044    0.00466131
     atom    9 type  1   force =     0.00000003    0.00039468    0.00137629
     atom   10 type  1   force =     0.00034186   -0.00019730    0.00137646
     atom   11 type  1   force =    -0.00034183   -0.00019749    0.00137676
     atom   12 type  2   force =    -0.00000018    0.00000008    0.00137592

     Total force =     0.024882     Total SCF correction =     0.005669
     SCF correction compared to forces is large: reduce conv_thr to get better values

     entering subroutine stress ...

     negative rho (up, down):  5.276E-01 0.000E+00
          total   stress  (Ry/bohr**3)                   (kbar)     P=   -6.69
  -0.00006326  -0.00000000   0.00000000         -9.31     -0.00      0.00
  -0.00000000  -0.00006327  -0.00000000         -0.00     -9.31     -0.00
   0.00000000  -0.00000000  -0.00000997          0.00     -0.00     -1.47

 !ASE

     Writing output data file calc.save

     General routines

     Parallel routines

   This run was terminated on:  16:26:56  19Dec2018

   JOB DONE.
Job  /afs/slac/g/suncat/bin/suncat-tsmpirun -x LD_LIBRARY_PATH -wdir /scratch/qe773188_RcLg0 pw.x -in pw.inp

TID   HOST_NAME   COMMAND_LINE            STATUS            TERMINATION_TIME
00000 suncat0081 pw.x -in pw.inp   Done                     12/19/2018 16:26:56
00001 suncat0081 pw.x -in pw.inp   Done                     12/19/2018 16:26:56
00002 suncat0081 pw.x -in pw.inp   Done                     12/19/2018 16:26:56
00003 suncat0081 pw.x -in pw.inp   Done                     12/19/2018 16:26:56
00004 suncat0081 pw.x -in pw.inp   Done                     12/19/2018 16:26:56
00005 suncat0081 pw.x -in pw.inp   Done                     12/19/2018 16:26:56
00006 suncat0081 pw.x -in pw.inp   Done                     12/19/2018 16:26:56
00007 suncat0081 pw.x -in pw.inp   Done                     12/19/2018 16:26:56
00008 suncat0080 pw.x -in pw.inp   Done                     12/19/2018 16:26:56
00009 suncat0080 pw.x -in pw.inp   Done                     12/19/2018 16:26:56
00010 suncat0080 pw.x -in pw.inp   Done                     12/19/2018 16:26:56
00011 suncat0080 pw.x -in pw.inp   Done                     12/19/2018 16:26:56
00012 suncat0080 pw.x -in pw.inp   Done                     12/19/2018 16:26:56
00013 suncat0080 pw.x -in pw.inp   Done                     12/19/2018 16:26:56
00014 suncat0080 pw.x -in pw.inp   Done                     12/19/2018 16:26:56
00015 suncat0080 pw.x -in pw.inp   Done                     12/19/2018 16:26:56
00016 suncat0079 pw.x -in pw.inp   Done                     12/19/2018 16:26:56
00017 suncat0079 pw.x -in pw.inp   Done                     12/19/2018 16:26:56
00018 suncat0079 pw.x -in pw.inp   Done                     12/19/2018 16:26:56
00019 suncat0079 pw.x -in pw.inp   Done                     12/19/2018 16:26:56
00020 suncat0079 pw.x -in pw.inp   Done                     12/19/2018 16:26:56
00021 suncat0079 pw.x -in pw.inp   Done                     12/19/2018 16:26:56
00022 suncat0079 pw.x -in pw.inp   Done                     12/19/2018 16:26:56
00023 suncat0079 pw.x -in pw.inp   Done                     12/19/2018 16:26:56
00024 suncat0078 pw.x -in pw.inp   Done                     12/19/2018 16:26:56
00025 suncat0078 pw.x -in pw.inp   Done                     12/19/2018 16:26:56
00026 suncat0078 pw.x -in pw.inp   Done                     12/19/2018 16:26:56
00027 suncat0078 pw.x -in pw.inp   Done                     12/19/2018 16:26:56
00028 suncat0078 pw.x -in pw.inp   Done                     12/19/2018 16:26:56
00029 suncat0078 pw.x -in pw.inp   Done                     12/19/2018 16:26:56
00030 suncat0078 pw.x -in pw.inp   Done                     12/19/2018 16:26:56
00031 suncat0078 pw.x -in pw.inp   Done                     12/19/2018 16:26:56
00032 suncat0077 pw.x -in pw.inp   Done                     12/19/2018 16:26:56
00033 suncat0077 pw.x -in pw.inp   Done                     12/19/2018 16:26:56
00034 suncat0077 pw.x -in pw.inp   Done                     12/19/2018 16:26:56
00035 suncat0077 pw.x -in pw.inp   Done                     12/19/2018 16:26:56
00036 suncat0077 pw.x -in pw.inp   Done                     12/19/2018 16:26:56
00037 suncat0077 pw.x -in pw.inp   Done                     12/19/2018 16:26:56
00038 suncat0077 pw.x -in pw.inp   Done                     12/19/2018 16:26:56
00039 suncat0077 pw.x -in pw.inp   Done                     12/19/2018 16:26:56
00040 suncat0074 pw.x -in pw.inp   Done                     12/19/2018 16:26:56
00041 suncat0074 pw.x -in pw.inp   Done                     12/19/2018 16:26:56
00042 suncat0074 pw.x -in pw.inp   Done                     12/19/2018 16:26:56
00043 suncat0074 pw.x -in pw.inp   Done                     12/19/2018 16:26:56
00044 suncat0074 pw.x -in pw.inp   Done                     12/19/2018 16:26:56
00045 suncat0074 pw.x -in pw.inp   Done                     12/19/2018 16:26:56
00046 suncat0074 pw.x -in pw.inp   Done                     12/19/2018 16:26:56
00047 suncat0074 pw.x -in pw.inp   Done                     12/19/2018 16:26:56
00048 suncat0073 pw.x -in pw.inp   Done                     12/19/2018 16:26:56
00049 suncat0073 pw.x -in pw.inp   Done                     12/19/2018 16:26:56
00050 suncat0073 pw.x -in pw.inp   Done                     12/19/2018 16:26:56
00051 suncat0073 pw.x -in pw.inp   Done                     12/19/2018 16:26:56
00052 suncat0073 pw.x -in pw.inp   Done                     12/19/2018 16:26:56
00053 suncat0073 pw.x -in pw.inp   Done                     12/19/2018 16:26:56
00054 suncat0073 pw.x -in pw.inp   Done                     12/19/2018 16:26:56
00055 suncat0073 pw.x -in pw.inp   Done                     12/19/2018 16:26:56
00056 suncat0072 pw.x -in pw.inp   Done                     12/19/2018 16:26:56
00057 suncat0072 pw.x -in pw.inp   Done                     12/19/2018 16:26:56
00058 suncat0072 pw.x -in pw.inp   Done                     12/19/2018 16:26:56
00059 suncat0072 pw.x -in pw.inp   Done                     12/19/2018 16:26:56
00060 suncat0072 pw.x -in pw.inp   Done                     12/19/2018 16:26:56
00061 suncat0072 pw.x -in pw.inp   Done                     12/19/2018 16:26:56
00062 suncat0072 pw.x -in pw.inp   Done                     12/19/2018 16:26:56
00063 suncat0072 pw.x -in pw.inp   Done                     12/19/2018 16:26:56