     Program PWSCF v.5.1rc2 (svn rev. 11289) starts on 25Dec2018 at 18:47: 3

     Current dimensions of program PWSCF are:
     Max number of different atomic species (ntypx) = 10
     Max number of k-points (npk) =  40000
     Max angular momentum in pseudopotentials (lmaxx) =  3
     Presently stress not available with electric field

     IMPORTANT: XC functional enforced from input :
     Exchange-correlation      = BEEF-VDW ( 1  4 27 13 2)
     Any further DFT definition will be discarded
     Please, verify this is what you really want

     Subspace diagonalization in iterative solution of the eigenvalue problem:
     a serial algorithm will be used

     bravais-lattice index     =            0
     lattice parameter (alat)  =       1.8897  a.u.
     unit-cell volume          =    4118.2895 (a.u.)^3
     number of atoms/cell      =           12
     number of atomic types    =            2
     number of electrons       =       207.00
     number of Kohn-Sham states=          133
     kinetic-energy cutoff     =      36.7493  Ry
     charge density cutoff     =     367.4932  Ry
     convergence threshold     =      1.0E-06
     mixing beta               =       0.1000
     number of iterations used =           10  plain     mixing
     Exchange-correlation      = BEEF-VDW ( 1  4 27 13 2)
     nstep                     =           50

     celldm(1)=   1.889726  celldm(2)=   0.000000  celldm(3)=   0.000000
     celldm(4)=   0.000000  celldm(5)=   0.000000  celldm(6)=   0.000000

     crystal axes: (cart. coord. in units of alat)
               a(1) = (   5.375253   0.000000   0.000000 )
               a(2) = (  -2.687627   4.655106   0.000000 )
               a(3) = (   0.000000   0.000000  24.388876 )

     reciprocal axes: (cart. coord. in units 2 pi/alat)
               b(1) = (  0.186038  0.107409  0.000000 )
               b(2) = (  0.000000  0.214818  0.000000 )
               b(3) = (  0.000000  0.000000  0.041002 )

     PseudoPot. # 1 for Cu read from file:
     /afs/slac.stanford.edu/u/if/mamunm/psp/gbrv1.5pbe/Cu.UPF
     MD5 check sum: 6e991ff952a84172a2a52a1c1e996048
     Pseudo is Ultrasoft + core correction, Zval = 19.0
     Generated by new atomic code, or converted to UPF format
     Using radial grid of  867 points,  6 beta functions with:
                l(1) =   0
                l(2) =   0
                l(3) =   1
                l(4) =   1
                l(5) =   2
                l(6) =   2
     Q(r) pseudized with  8 coefficients,  rinner =    1.150   1.150   1.150
                                                       1.150   1.150

     PseudoPot. # 2 for Ti read from file:
     /afs/slac.stanford.edu/u/if/mamunm/psp/gbrv1.5pbe/Ti.UPF
     MD5 check sum: 88a00a6731bd790ddea75d31a80cb452
     Pseudo is Ultrasoft + core correction, Zval = 12.0
     Generated by new atomic code, or converted to UPF format
     Using radial grid of  851 points,  6 beta functions with:
                l(1) =   0
                l(2) =   0
                l(3) =   1
                l(4) =   1
                l(5) =   2
                l(6) =   2
     Q(r) pseudized with  6 coefficients,  rinner =    1.000   1.000   1.000
                                                       1.000   1.000

     vdW kernel table read from file vdW_kernel_table
     MD5 check sum: 095c7af220d748ca6e76c0b4c6cfb241

     atomic species   valence    mass     pseudopotential
        Cu1           19.00    63.54600     Cu( 1.00)
        Ti1           12.00    47.86700     Ti( 1.00)

     No symmetry found

   Cartesian axes

     site n.     atom                  positions (alat units)
         1           Cu1 tau(   1) = (   0.0000000   0.0000000  10.0000000  )
         2           Cu1 tau(   2) = (  -1.3438133   2.3275529  10.0000000  )
         3           Cu1 tau(   3) = (   1.3438133   2.3275529  10.0000000  )
         4           Ti1 tau(   4) = (   2.6876266   0.0000000  10.0000000  )
         5           Cu1 tau(   5) = (   2.6876266   1.5517020  12.1944379  )
         6           Cu1 tau(   6) = (   1.3438133   3.8792549  12.1944379  )
         7           Cu1 tau(   7) = (  -1.3438133   3.8792549  12.1944379  )
         8           Ti1 tau(   8) = (   0.0000000   1.5517020  12.1944379  )
         9           Cu1 tau(   9) = (  -0.0000000   3.1034039  14.3888759  )
        10           Cu1 tau(  10) = (   1.3438133   0.7758510  14.3888759  )
        11           Cu1 tau(  11) = (   4.0314399   0.7758510  14.3888759  )
        12           Ti1 tau(  12) = (   2.6876266   3.1034039  14.3888759  )

     number of k points=    20  Fermi-Dirac smearing, width (Ry)=  0.0110
                       cart. coord. in units 2pi/alat
        k(    1) = (   0.0000000   0.0000000   0.0000000), wk =   0.0555556
        k(    2) = (   0.0000000   0.0358030   0.0000000), wk =   0.1111111
        k(    3) = (   0.0000000   0.0716060   0.0000000), wk =   0.1111111
        k(    4) = (   0.0000000  -0.1074089   0.0000000), wk =   0.0555556
        k(    5) = (   0.0310063   0.0179015   0.0000000), wk =   0.1111111
        k(    6) = (   0.0310063   0.0537045   0.0000000), wk =   0.1111111
        k(    7) = (   0.0310063   0.0895075   0.0000000), wk =   0.1111111
        k(    8) = (   0.0310063  -0.0895075   0.0000000), wk =   0.1111111
        k(    9) = (   0.0310063  -0.0537045   0.0000000), wk =   0.1111111
        k(   10) = (   0.0310063  -0.0179015   0.0000000), wk =   0.1111111
        k(   11) = (   0.0620126   0.0358030   0.0000000), wk =   0.1111111
        k(   12) = (   0.0620126   0.0716060   0.0000000), wk =   0.1111111
        k(   13) = (   0.0620126   0.1074089   0.0000000), wk =   0.1111111
        k(   14) = (   0.0620126  -0.0716060   0.0000000), wk =   0.1111111
        k(   15) = (   0.0620126  -0.0358030   0.0000000), wk =   0.1111111
        k(   16) = (   0.0620126   0.0000000   0.0000000), wk =   0.1111111
        k(   17) = (  -0.0930189  -0.0537045   0.0000000), wk =   0.0555556
        k(   18) = (  -0.0930189  -0.0179015   0.0000000), wk =   0.1111111
        k(   19) = (  -0.0930189   0.0179015   0.0000000), wk =   0.1111111
        k(   20) = (  -0.0930189  -0.1611134   0.0000000), wk =   0.0555556

     Largest allocated arrays     est. size (Mb)     dimensions
     Largest temporary arrays     est. size (Mb)     dimensions

     Check: negative/imaginary core charge=   -0.000003    0.000000

     Initial potential from superposition of free atoms
     Check: negative starting charge=   -0.004360

     starting charge  194.99985, renormalised to  207.00000

     negative rho (up, down):  4.628E-03 0.000E+00

     *
     * You are using vdW-DF for exchange-correlation in this calculation.
     * Please cite the following three references that made this development
     * possible:
     *
     *   M. Dion, H. Rydberg, E. Schroder, D. C. Langreth, and
     *   B. I. Lundqvist, Phys. Rev. Lett. 92, 246401 (2004).
     *
     *   T. Thonhauser, V. R. Cooper, S. Li, A. Puzder, P. Hyldgaard, and
     *   D. C. Langreth, Phys. Rev. B 76, 125112 (2007).
     *
     *   G. Roman-Perez and J. M. Soler, Phys. Rev. Lett. 103, 096102 (2009).
     *
     *
     * If you are using vdW-DF2, please also cite:
     *
     *   K. Lee, E. D. Murray, L. Kong, B. I. Lundqvist, and
     *   D. C. Langreth, Phys. Rev. B 82, 081101(R) (2010).
     *
     *
     * If you are calculating the stress with vdW-DF, please also cite:
     *
     *   R. Sabatini, E. Kucukbenli, B. Kolb, T. Thonhauser, and
     *   S. de Gironcoli, J. Phys.: Condens. Matter 24, 424209 (2012).
     *

     Carrying out vdW-DF run using the following parameters:

     Nqs =      20    Nr_points =    1024   r_max =   100.000
     q_mesh =
               0.00001000     0.04494208     0.09755937     0.15916263
               0.23128650     0.31572767     0.41458969     0.53033537
               0.66584808     0.82450364     1.01025438     1.22772762
               1.48234092     1.78043706     2.12944203     2.53805004
               3.01644009     3.57652955     4.23227104     5.00000000

     Gradients computed in reciprocal space

     Adding external electric field

     Computed dipole along edir(3) :
        Dipole                0.0000 Ry au,          0.0000 Debye
        Dipole field          0.0000 Ry au

        Potential amp.       -0.0000 Ry
        Total length         44.9361 bohr

     Starting wfc are  147 randomized atomic wfcs

     Self-consistent Calculation

     iteration #  1     ecut=    36.75 Ry     beta=0.10
     Davidson diagonalization with overlap
     ethr =  1.00E-02,  avg # of iterations =  7.7

[...]

     total energy              =   -3955.23409240 Ry
     Harris-Foulkes estimate   =   -4026.72756784 Ry
     estimated scf accuracy    <     397.54712860 Ry

[...]

     End of self-consistent calculation

          k = 0.0000 0.0000 0.0000 ( 15497 PWs)   bands (ev):

  -112.2621-112.2589-112.2589-112.0799-112.0796-112.0767-112.0767-112.0764
  -112.0764 -69.7006 -69.6893 -69.6893 -69.6758 -69.6758 -69.6636 -69.5812
   -69.5770 -69.5770 -69.5758 -69.5758 -69.5609 -69.5605 -69.5537 -69.5537
   -69.4624 -69.4622 -69.4370 -69.4370 -69.4368 -69.4368 -69.3858 -69.3846
   -69.3718 -69.3718 -69.3713 -69.3713 -57.0362 -57.0358 -56.9065 -33.3246
   -33.3232 -33.2127 -33.2127 -33.2123 -33.2123 -33.1291 -33.1083 -33.1083
    -6.9405  -5.2772  -4.1280  -3.7746  -3.7746  -3.6524  -3.6524  -3.5384
    -3.4800  -3.2776  -3.2776  -3.2765  -3.2765  -3.2526  -3.1930  -2.7012
    -2.6721  -2.6721  -2.5517  -2.5517  -2.3951  -2.3665  -2.3238  -2.2853
    -2.2399  -2.2399  -2.1585  -2.1585  -2.1098  -2.1098  -2.0205  -2.0205
    -1.9983  -1.9983  -1.8672  -1.6781  -1.6781  -1.6516  -1.6516  -1.6169
    -1.6169  -1.5426  -1.3795  -1.3723  -1.3723  -1.2688  -1.2485  -1.1598
    -0.2035   0.3677   0.3677   0.3696   0.4599   0.4599   0.6213   0.8296
     0.8296   1.0212   1.0212   1.3865   1.5179   1.5470   1.5470   1.6998
     1.6998   1.8679   1.8679   2.9981   2.9981   3.0713   3.0713   3.1140
     3.1183   4.2419   4.4622   4.9156   5.6601   5.6601   5.8106   5.9196
     5.9196   6.3262   6.8120   6.8120   6.8293

[...]

          k =-0.0930-0.0537 0.0000 ( 15506 PWs)   bands (ev):

[...]

     the Fermi energy is     0.6574 ev

!    total energy              =   -4004.00815369 Ry
     Harris-Foulkes estimate   =   -4004.00815194 Ry
     estimated scf accuracy    <       0.00000062 Ry

     The total energy is the sum of the following terms:

     one-electron contribution =  -28254.32982491 Ry
     hartree contribution      =   14132.50395729 Ry
     xc contribution           =    -415.74719034 Ry
     ewald contribution        =   10533.64926438 Ry
     electric field correction =       0.00000006 Ry
     smearing contrib. (-TS)   =      -0.08436017 Ry

     convergence has been achieved in  26 iterations

 BEEF-vdW xc energy contributions
           1 :   -367.046894243849
           2 :    332.120435997529
           3 :   -273.201164501505
           4 :    206.861659866144
           5 :   -147.983429112886
           6 :    104.328548361145
           7 :   -75.4513972139299
           8 :    55.7032044439727
[...]
     Using radial grid of  867 points,  6 beta functions with:
                l(1) =   0
                l(2) =   0
                l(3) =   1
                l(4) =   1
                l(5) =   2
                l(6) =   2
     Q(r) pseudized with  8 coefficients,  rinner =    1.150   1.150   1.150
                                                       1.150   1.150

     PseudoPot. # 2 for Ti read from file:
     /afs/slac.stanford.edu/u/if/mamunm/psp/gbrv1.5pbe/Ti.UPF
     MD5 check sum: 88a00a6731bd790ddea75d31a80cb452
     Pseudo is Ultrasoft + core correction, Zval = 12.0
     Generated by new atomic code, or converted to UPF format
     Using radial grid of  851 points,  6 beta functions with:
                l(1) =   0
                l(2) =   0
                l(3) =   1
                l(4) =   1
                l(5) =   2
                l(6) =   2
     Q(r) pseudized with  6 coefficients,  rinner =    1.000   1.000   1.000
                                                       1.000   1.000

     vdW kernel table read from file vdW_kernel_table
     MD5 check sum: 095c7af220d748ca6e76c0b4c6cfb241

     atomic species   valence    mass     pseudopotential
        Cu1           19.00    63.54600     Cu( 1.00)
        Ti1           12.00    47.86700     Ti( 1.00)

     No symmetry found

   Cartesian axes

     site n.     atom                  positions (alat units)
         1           Cu1 tau(   1) = (   0.0000000   0.0000000  10.0000000  )
         2           Cu1 tau(   2) = (  -1.3438133   2.3275529  10.0000000  )
         3           Cu1 tau(   3) = (   1.3438133   2.3275529  10.0000000  )
         4           Ti1 tau(   4) = (   2.6876266   0.0000000  10.0000000  )
         5           Cu1 tau(   5) = (   2.6876266   1.5517020  12.1944379  )
         6           Cu1 tau(   6) = (   1.3438133   3.8792549  12.1944379  )
         7           Cu1 tau(   7) = (  -1.3438133   3.8792549  12.1944379  )
         8           Ti1 tau(   8) = (   0.0000000   1.5517020  12.1944379  )
         9           Cu1 tau(   9) = (  -0.0000068   3.1436517  14.2994138  )
        10           Cu1 tau(  10) = (   1.3786630   0.7557382  14.2994287  )
        11           Cu1 tau(  11) = (   3.9965790   0.7557290  14.2994247  )
        12           Ti1 tau(  12) = (   2.6876210   3.1034053  14.3960165  )

     number of k points=    20  Fermi-Dirac smearing, width (Ry)=  0.0110
                       cart. coord. in units 2pi/alat
        k(    1) = (   0.0000000   0.0000000   0.0000000), wk =   0.0555556
        k(    2) = (   0.0000000   0.0358030   0.0000000), wk =   0.1111111
        k(    3) = (   0.0000000   0.0716060   0.0000000), wk =   0.1111111
        k(    4) = (   0.0000000  -0.1074089   0.0000000), wk =   0.0555556
        k(    5) = (   0.0310063   0.0179015   0.0000000), wk =   0.1111111
        k(    6) = (   0.0310063   0.0537045   0.0000000), wk =   0.1111111
        k(    7) = (   0.0310063   0.0895075   0.0000000), wk =   0.1111111
        k(    8) = (   0.0310063  -0.0895075   0.0000000), wk =   0.1111111
        k(    9) = (   0.0310063  -0.0537045   0.0000000), wk =   0.1111111
        k(   10) = (   0.0310063  -0.0179015   0.0000000), wk =   0.1111111
        k(   11) = (   0.0620126   0.0358030   0.0000000), wk =   0.1111111
        k(   12) = (   0.0620126   0.0716060   0.0000000), wk =   0.1111111
        k(   13) = (   0.0620126   0.1074089   0.0000000), wk =   0.1111111
        k(   14) = (   0.0620126  -0.0716060   0.0000000), wk =   0.1111111
        k(   15) = (   0.0620126  -0.0358030   0.0000000), wk =   0.1111111
        k(   16) = (   0.0620126   0.0000000   0.0000000), wk =   0.1111111
        k(   17) = (  -0.0930189  -0.0537045   0.0000000), wk =   0.0555556
        k(   18) = (  -0.0930189  -0.0179015   0.0000000), wk =   0.1111111
        k(   19) = (  -0.0930189   0.0179015   0.0000000), wk =   0.1111111
        k(   20) = (  -0.0930189  -0.1611134   0.0000000), wk =   0.0555556

     Largest allocated arrays     est. size (Mb)     dimensions
     Largest temporary arrays     est. size (Mb)     dimensions

     Check: negative/imaginary core charge=   -0.000003    0.000000

     Initial potential from superposition of free atoms
     Check: negative starting charge=   -0.004380

     starting charge  194.99985, renormalised to  207.00000

[...]

     *
     * You are using vdW-DF for exchange-correlation in this calculation.
     * Please cite the following three references that made this development
     * possible:
     *
     *   M. Dion, H. Rydberg, E. Schroder, D. C. Langreth, and
     *   B. I. Lundqvist, Phys. Rev. Lett. 92, 246401 (2004).
     *
     *   T. Thonhauser, V. R. Cooper, S. Li, A. Puzder, P. Hyldgaard, and
     *   D. C. Langreth, Phys. Rev. B 76, 125112 (2007).
     *
     *   G. Roman-Perez and J. M. Soler, Phys. Rev. Lett. 103, 096102 (2009).
     *
     *
     * If you are using vdW-DF2, please also cite:
     *
     *   K. Lee, E. D. Murray, L. Kong, B. I. Lundqvist, and
     *   D. C. Langreth, Phys. Rev. B 82, 081101(R) (2010).
     *
     *
     * If you are calculating the stress with vdW-DF, please also cite:
     *
     *   R. Sabatini, E. Kucukbenli, B. Kolb, T. Thonhauser, and
     *   S. de Gironcoli, J. Phys.: Condens. Matter 24, 424209 (2012).
     *

     Carrying out vdW-DF run using the following parameters:

     Nqs =      20    Nr_points =    1024   r_max =   100.000
     q_mesh =
               0.00001000     0.04494208     0.09755937     0.15916263
               0.23128650     0.31572767     0.41458969     0.53033537
               0.66584808     0.82450364     1.01025438     1.22772762
               1.48234092     1.78043706     2.12944203     2.53805004
               3.01644009     3.57652955     4.23227104     5.00000000

     Gradients computed in reciprocal space

[...]

     Starting wfc are  147 randomized atomic wfcs

     Self-consistent Calculation

[...]

     total energy              =   -4004.01142392 Ry
     Harris-Foulkes estimate   =   -4004.01142361 Ry
     estimated scf accuracy    <       0.00000328 Ry

     iteration # 25     ecut=    36.75 Ry     beta=0.10
     Davidson diagonalization with overlap
     ethr =  1.58E-09,  avg # of iterations =  1.1

[...]

     negative rho (up, down):  3.452E-03 0.000E+00

     Adding external electric field

     Computed dipole along edir(3) :
        Dipole                0.0216 Ry au,          0.0548 Debye
        Dipole field          0.0001 Ry au

        Potential amp.       -0.0059 Ry
        Total length         44.9361 bohr

     End of self-consistent calculation

[...]

          k = 0.0620 0.0000 0.0000 ( 15480 PWs)   bands (ev):

[...]

          k =-0.0930-0.1611 0.0000 ( 15506 PWs)   bands (ev):

  -112.2554-112.2543-112.2533-112.0979-112.0962-112.0953-112.0579-112.0569
  -112.0558 -69.6880 -69.6830 -69.6794 -69.6704 -69.6660 -69.6609 -69.5839
   -69.5784 -69.5721 -69.5704 -69.5631 -69.5551 -69.5531 -69.5478 -69.5441
   -69.4827 -69.4725 -69.4664 -69.4320 -69.4238 -69.4160 -69.4024 -69.3953
   -69.3899 -69.3608 -69.3565 -69.3512 -57.0147 -57.0090 -56.8585 -33.3160
   -33.2973 -33.1885 -33.1874 -33.1869 -33.1856 -33.0782 -33.0695 -33.0676
    -5.4217  -5.2221  -3.9355  -3.8566  -3.5126  -3.3153  -3.2837  -3.2314
    -3.2302  -3.1668  -3.0447  -2.9105  -2.8993  -2.8671  -2.8559  -2.7664
    -2.7525  -2.6744  -2.6559  -2.6007  -2.4827  -2.4257  -2.3815  -2.3391
    -2.3263  -2.2994  -2.2792  -2.2537  -2.2324  -2.2127  -2.1960  -2.1851
    -2.1692  -2.0655  -2.0619  -2.0408  -1.9881  -1.9412  -1.9404  -1.9162
    -1.8790  -1.8560  -1.7953  -1.7415  -1.5918  -1.5564  -1.4022  -1.3926
    -1.3045  -1.2097  -0.4264  -0.2032   0.0333   0.1081   0.4781   0.5932
     0.8452   0.9095   0.9225   1.0112   1.0970   1.3634   1.4242   1.6757
     1.8852   1.9026   2.4830   2.7328   3.2922   3.5142   3.9538   4.0726
     4.5159   4.9389   5.7326   5.7720   6.2687   6.2952   6.5442   6.5544
     6.9939   7.2841   7.3401   7.5536   7.5850

     the Fermi energy is     0.6804 ev

!    total energy              =   -4004.01142638 Ry
     Harris-Foulkes estimate   =   -4004.01142400 Ry
     estimated scf accuracy    <       0.00000080 Ry

     The total energy is the sum of the following terms:

     one-electron contribution =  -28523.46448695 Ry
     hartree contribution      =   14267.15193407 Ry
     xc contribution           =    -415.79464776 Ry
     ewald contribution        =   10668.17869457 Ry
     electric field correction =       0.00000142 Ry
     smearing contrib. (-TS)   =      -0.08292173 Ry

     convergence has been achieved in  25 iterations

 BEEF-vdW xc energy contributions
           1 :   -367.100928766728
           2 :    332.215877765407
           3 :   -273.341885856505
           4 :    207.006136525157
           5 :   -148.074453775249
           6 :    104.338614428454
           7 :   -75.4085189909134
           8 :    55.6735032368341
           9 :   -39.0171976947704
          10 :    22.4270861602207
          11 :   -6.76354616464153
          12 :   -5.13576966495248
          13 :    11.2744739656909
          14 :   -12.2240380551078
          15 :    10.7642280386614
          16 :   -9.98793878787967
          17 :    11.3741828561149
          18 :   -14.1549182180980
          19 :    16.2470710331444
          20 :   -15.9397402175414
          21 :    13.1149808686149
          22 :   -9.23618574506543
          23 :    6.24239636446214
          24 :   -5.21406366270963
          25 :    5.74413680388801
          26 :   -6.38227679187190
          27 :    5.74912788049875
          28 :   -3.50130105907124
          29 :   0.503585492951572
          30 :    1.83809126962672
          31 :   -30.4537094483540
          32 :   -20.9344426113846

     Forces acting on atoms (Ry/au):

     negative rho (up, down):  3.452E-03 0.000E+00
     atom    1 type  1   force =     0.00000295   -0.00545419    0.01065236
     atom    2 type  1   force =    -0.00472883    0.00273066    0.01065216
     atom    3 type  1   force =     0.00472433    0.00272682    0.01065289
     atom    4 type  2   force =    -0.00000050   -0.00000031   -0.00180225
     atom    5 type  1   force =    -0.00000014    0.00278403   -0.00652974
     atom    6 type  1   force =     0.00240882   -0.00139085   -0.00653231
     atom    7 type  1   force =    -0.00241018   -0.00139084   -0.00652718
     atom    8 type  2   force =    -0.00000046   -0.00000085   -0.00989338
     atom    9 type  1   force =     0.00000133   -0.00168574   -0.00045739
     atom   10 type  1   force =    -0.00145824    0.00083861   -0.00046089
     atom   11 type  1   force =     0.00146084    0.00084215   -0.00045839
     atom   12 type  2   force =     0.00000008    0.00000050    0.00070413

     Total force =     0.026299     Total SCF correction =     0.002478

     entering subroutine stress ...

     negative rho (up, down):  3.452E-03 0.000E+00
          total   stress  (Ry/bohr**3)                   (kbar)     P=  -17.97
  -0.00014373  -0.00000000   0.00000000        -21.14     -0.00      0.00
  -0.00000000  -0.00014373   0.00000000         -0.00    -21.14      0.00
   0.00000000   0.00000000  -0.00007909          0.00      0.00    -11.63

 !ASE

     Writing output data file calc.save

     General routines

     Parallel routines

   This run was terminated on:  20:42:14  25Dec2018

   JOB DONE.
Job  /afs/slac/g/suncat/bin/suncat-tsmpirun -x LD_LIBRARY_PATH -wdir /scratch/qe109599_42rJM pw.x -in pw.inp

TID   HOST_NAME   COMMAND_LINE            STATUS            TERMINATION_TIME
00000 suncat0190 pw.x -in pw.inp   Done                     12/25/2018 20:42:14
00001 suncat0190 pw.x -in pw.inp   Done                     12/25/2018 20:42:14
00002 suncat0190 pw.x -in pw.inp   Done                     12/25/2018 20:42:14
00003 suncat0190 pw.x -in pw.inp   Done                     12/25/2018 20:42:14
00004 suncat0190 pw.x -in pw.inp   Done                     12/25/2018 20:42:14
00005 suncat0190 pw.x -in pw.inp   Done                     12/25/2018 20:42:14
00006 suncat0190 pw.x -in pw.inp   Done                     12/25/2018 20:42:14
00007 suncat0190 pw.x -in pw.inp   Done                     12/25/2018 20:42:14
00008 suncat0009 pw.x -in pw.inp   Done                     12/25/2018 20:42:14
00009 suncat0009 pw.x -in pw.inp   Done                     12/25/2018 20:42:14
00010 suncat0009 pw.x -in pw.inp   Done                     12/25/2018 20:42:14
00011 suncat0009 pw.x -in pw.inp   Done                     12/25/2018 20:42:14
00012 suncat0009 pw.x -in pw.inp   Done                     12/25/2018 20:42:14
00013 suncat0009 pw.x -in pw.inp   Done                     12/25/2018 20:42:14
00014 suncat0009 pw.x -in pw.inp   Done                     12/25/2018 20:42:14
00015 suncat0009 pw.x -in pw.inp   Done                     12/25/2018 20:42:14
00016 suncat0169 pw.x -in pw.inp   Done                     12/25/2018 20:42:14
00017 suncat0169 pw.x -in pw.inp   Done                     12/25/2018 20:42:14
00018 suncat0169 pw.x -in pw.inp   Done                     12/25/2018 20:42:14
00019 suncat0169 pw.x -in pw.inp   Done                     12/25/2018 20:42:14
00020 suncat0169 pw.x -in pw.inp   Done                     12/25/2018 20:42:14
00021 suncat0169 pw.x -in pw.inp   Done                     12/25/2018 20:42:14
00022 suncat0169 pw.x -in pw.inp   Done                     12/25/2018 20:42:14
00023 suncat0169 pw.x -in pw.inp   Done                     12/25/2018 20:42:14
00024 suncat0168 pw.x -in pw.inp   Done                     12/25/2018 20:42:14
00025 suncat0168 pw.x -in pw.inp   Done                     12/25/2018 20:42:14
00026 suncat0168 pw.x -in pw.inp   Done                     12/25/2018 20:42:14
00027 suncat0168 pw.x -in pw.inp   Done                     12/25/2018 20:42:14
00028 suncat0168 pw.x -in pw.inp   Done                     12/25/2018 20:42:14
00029 suncat0168 pw.x -in pw.inp   Done                     12/25/2018 20:42:14
00030 suncat0168 pw.x -in pw.inp   Done                     12/25/2018 20:42:14
00031 suncat0168 pw.x -in pw.inp   Done                     12/25/2018 20:42:14
00032 suncat0161 pw.x -in pw.inp   Done                     12/25/2018 20:42:14
00033 suncat0161 pw.x -in pw.inp   Done                     12/25/2018 20:42:14
00034 suncat0161 pw.x -in pw.inp   Done                     12/25/2018 20:42:14
00035 suncat0161 pw.x -in pw.inp   Done                     12/25/2018 20:42:14
00036 suncat0161 pw.x -in pw.inp   Done                     12/25/2018 20:42:14
00037 suncat0161 pw.x -in pw.inp   Done                     12/25/2018 20:42:14
00038 suncat0161 pw.x -in pw.inp   Done                     12/25/2018 20:42:14
00039 suncat0161 pw.x -in pw.inp   Done                     12/25/2018 20:42:14
00040 suncat0159 pw.x -in pw.inp   Done                     12/25/2018 20:42:14
00041 suncat0159 pw.x -in pw.inp   Done                     12/25/2018 20:42:14
00042 suncat0159 pw.x -in pw.inp   Done                     12/25/2018 20:42:14
00043 suncat0159 pw.x -in pw.inp   Done                     12/25/2018 20:42:14
00044 suncat0159 pw.x -in pw.inp   Done                     12/25/2018 20:42:14
00045 suncat0159 pw.x -in pw.inp   Done                     12/25/2018 20:42:14
00046 suncat0159 pw.x -in pw.inp   Done                     12/25/2018 20:42:14
00047 suncat0159 pw.x -in pw.inp   Done                     12/25/2018 20:42:14
00048 suncat0114 pw.x -in pw.inp   Done                     12/25/2018 20:42:14
00049 suncat0114 pw.x -in pw.inp   Done                     12/25/2018 20:42:14
00050 suncat0114 pw.x -in pw.inp   Done                     12/25/2018 20:42:14
00051 suncat0114 pw.x -in pw.inp   Done                     12/25/2018 20:42:14
00052 suncat0114 pw.x -in pw.inp   Done                     12/25/2018 20:42:14
00053 suncat0114 pw.x -in pw.inp   Done                     12/25/2018 20:42:14
00054 suncat0114 pw.x -in pw.inp   Done                     12/25/2018 20:42:14
00055 suncat0114 pw.x -in pw.inp   Done                     12/25/2018 20:42:14
00056 suncat0267 pw.x -in pw.inp   Done                     12/25/2018 20:42:14
00057 suncat0267 pw.x -in pw.inp   Done                     12/25/2018 20:42:14
00058 suncat0267 pw.x -in pw.inp   Done                     12/25/2018 20:42:14
00059 suncat0267 pw.x -in pw.inp   Done                     12/25/2018 20:42:14
00060 suncat0267 pw.x -in pw.inp   Done                     12/25/2018 20:42:14
00061 suncat0267 pw.x -in pw.inp   Done                     12/25/2018 20:42:14
00062 suncat0267 pw.x -in pw.inp   Done                     12/25/2018 20:42:14
00063 suncat0267 pw.x -in pw.inp   Done                     12/25/2018 20:42:14