     Program PWSCF v.5.1rc2 (svn rev. 11289) starts on 26Dec2018 at  3:10:24

     Current dimensions of program PWSCF are:
     Max number of different atomic species (ntypx) = 10
     Max number of k-points (npk) =  40000
     Max angular momentum in pseudopotentials (lmaxx) =  3
     Presently stress not available with electric field

     IMPORTANT: XC functional enforced from input :
     Exchange-correlation      = BEEF-VDW ( 1  4 27 13 2)
     Any further DFT definition will be discarded
     Please, verify this is what you really want

     Subspace diagonalization in iterative solution of the eigenvalue problem:
     a serial algorithm will be used

     bravais-lattice index     =            0
     lattice parameter (alat)  =       1.8897  a.u.
     unit-cell volume          =    4940.3691 (a.u.)^3
     number of atoms/cell      =           12
     number of atomic types    =            2
     number of electrons       =       204.00
     number of Kohn-Sham states=          132
     kinetic-energy cutoff     =      36.7493  Ry
     charge density cutoff     =     367.4932  Ry
     convergence threshold     =      1.0E-06
     mixing beta               =       0.1000
     number of iterations used =           10  plain     mixing
     Exchange-correlation      = BEEF-VDW ( 1  4 27 13 2)
     nstep                     =           50

     celldm(1)=   1.889726  celldm(2)=   0.000000  celldm(3)=   0.000000
     celldm(4)=   0.000000  celldm(5)=   0.000000  celldm(6)=   0.000000

     crystal axes: (cart. coord. in units of alat)
               a(1) = (   5.841899   0.000000   0.000000 )
               a(2) = (  -2.920949   5.059233   0.000000 )
               a(3) = (   0.000000   0.000000  24.769890 )

     reciprocal axes: (cart. coord. in units 2 pi/alat)
               b(1) = (  0.171177  0.098829  0.000000 )
               b(2) = (  0.000000  0.197658  0.000000 )
               b(3) = (  0.000000  0.000000  0.040372 )

     PseudoPot. # 1 for Ga read from file:
     /afs/slac.stanford.edu/u/if/mamunm/psp/gbrv1.5pbe/Ga.UPF
     MD5 check sum: ccd671392a58a050fbb373893b4fcd66
     Pseudo is Ultrasoft + core correction, Zval = 19.0
     Generated by new atomic code, or converted to UPF format
     Using radial grid of  871 points,  6 beta functions with:
                l(1) =   0
                l(2) =   0
                l(3) =   1
                l(4) =   1
                l(5) =   2
                l(6) =   2
     Q(r) pseudized with  8 coefficients,  rinner =    1.250   1.250   1.250
                                                       1.250   1.250

     PseudoPot. # 2 for Sc read from file:
     /afs/slac.stanford.edu/u/if/mamunm/psp/gbrv1.5pbe/Sc.UPF
     MD5 check sum: db30a2753ba66ef00f23801d899b7e7f
     Pseudo is Ultrasoft + core correction, Zval = 11.0
     Generated by new atomic code, or converted to UPF format
     Using radial grid of  849 points,  6 beta functions with:
                l(1) =   0
                l(2) =   0
                l(3) =   1
                l(4) =   1
                l(5) =   2
                l(6) =   2
     Q(r) pseudized with  6 coefficients,  rinner =    1.200   1.200   1.200
                                                       1.200   1.200

     vdW kernel table read from file vdW_kernel_table
     MD5 check sum: 095c7af220d748ca6e76c0b4c6cfb241

     atomic species   valence    mass     pseudopotential
        Ga1           19.00    69.72300     Ga( 1.00)
        Sc1           11.00    44.95591     Sc( 1.00)

     No symmetry found

   Cartesian axes

     site n.     atom                  positions (alat units)
         1           Ga1 tau(   1) = (   0.0000000   0.0000000  10.0000000  )
         2           Ga1 tau(   2) = (  -1.4604747   2.5296164  10.0000000  )
         3           Ga1 tau(   3) = (   1.4604747   2.5296164  10.0000000  )
         4           Sc1 tau(   4) = (   2.9209495   0.0000000  10.0000000  )
         5           Ga1 tau(   5) = (   2.9209495   1.6864110  12.3849452  )
         6           Ga1 tau(   6) = (   1.4604747   4.2160274  12.3849452  )
         7           Ga1 tau(   7) = (  -1.4604747   4.2160274  12.3849452  )
         8           Sc1 tau(   8) = (   0.0000000   1.6864110  12.3849452  )
         9           Ga1 tau(   9) = (  -0.0000000   3.3728219  14.7698905  )
        10           Ga1 tau(  10) = (   1.4604747   0.8432055  14.7698905  )
        11           Ga1 tau(  11) = (   4.3814242   0.8432055  14.7698905  )
        12           Sc1 tau(  12) = (   2.9209495   3.3728219  14.7698905  )

     number of k points=    20  Fermi-Dirac smearing, width (Ry)=  0.0110
                       cart. coord. in units 2pi/alat
        k(    1) = (   0.0000000   0.0000000   0.0000000), wk =   0.0555556
        k(    2) = (   0.0000000   0.0329431   0.0000000), wk =   0.1111111
        k(    3) = (   0.0000000   0.0658861   0.0000000), wk =   0.1111111
        k(    4) = (   0.0000000  -0.0988292   0.0000000), wk =   0.0555556
        k(    5) = (   0.0285295   0.0164715   0.0000000), wk =   0.1111111
        k(    6) = (   0.0285295   0.0494146   0.0000000), wk =   0.1111111
        k(    7) = (   0.0285295   0.0823577   0.0000000), wk =   0.1111111
        k(    8) = (   0.0285295  -0.0823577   0.0000000), wk =   0.1111111
        k(    9) = (   0.0285295  -0.0494146   0.0000000), wk =   0.1111111
        k(   10) = (   0.0285295  -0.0164715   0.0000000), wk =   0.1111111
        k(   11) = (   0.0570591   0.0329431   0.0000000), wk =   0.1111111
        k(   12) = (   0.0570591   0.0658861   0.0000000), wk =   0.1111111
        k(   13) = (   0.0570591   0.0988292   0.0000000), wk =   0.1111111
        k(   14) = (   0.0570591  -0.0658861   0.0000000), wk =   0.1111111
        k(   15) = (   0.0570591  -0.0329431   0.0000000), wk =   0.1111111
        k(   16) = (   0.0570591   0.0000000   0.0000000), wk =   0.1111111
        k(   17) = (  -0.0855886  -0.0494146   0.0000000), wk =   0.0555556
        k(   18) = (  -0.0855886  -0.0164715   0.0000000), wk =   0.1111111
        k(   19) = (  -0.0855886   0.0164715   0.0000000), wk =   0.1111111
        k(   20) = (  -0.0855886  -0.1482438   0.0000000), wk =   0.0555556

     Largest allocated arrays     est. size (Mb)     dimensions
     Largest temporary arrays     est. size (Mb)     dimensions

     Initial potential from superposition of free atoms
     Check: negative starting charge=   -0.000868

     starting charge  194.99278, renormalised to  204.00000

     negative rho (up, down):  9.080E-04 0.000E+00

     *
     * You are using vdW-DF for exchange-correlation in this calculation.
     * Please cite the following three references that made this development
     * possible:
     *
     *   M. Dion, H. Rydberg, E. Schroder, D. C. Langreth, and
     *   B. I. Lundqvist, Phys. Rev. Lett. 92, 246401 (2004).
     *
     *   T. Thonhauser, V. R. Cooper, S. Li, A. Puzder, P. Hyldgaard, and
     *   D. C. Langreth, Phys. Rev. B 76, 125112 (2007).
     *
     *   G. Roman-Perez and J. M. Soler, Phys. Rev. Lett. 103, 096102 (2009).
     *
     *
     * If you are using vdW-DF2, please also cite:
     *
     *   K. Lee, E. D. Murray, L. Kong, B. I. Lundqvist, and
     *   D. C. Langreth, Phys. Rev. B 82, 081101(R) (2010).
     *
     *
     * If you are calculating the stress with vdW-DF, please also cite:
     *
     *   R. Sabatini, E. Kucukbenli, B. Kolb, T. Thonhauser, and
     *   S. de Gironcoli, J. Phys.: Condens. Matter 24, 424209 (2012).
     *

     Carrying out vdW-DF run using the following parameters:

     Nqs =      20    Nr_points =    1024   r_max =   100.000
     q_mesh =
               0.00001000     0.04494208     0.09755937     0.15916263
               0.23128650     0.31572767     0.41458969     0.53033537
               0.66584808     0.82450364     1.01025438     1.22772762
               1.48234092     1.78043706     2.12944203     2.53805004
               3.01644009     3.57652955     4.23227104     5.00000000

     Gradients computed in reciprocal space

     Adding external electric field

     Computed dipole along edir(3) :
        Dipole                0.0000 Ry au,          0.0000 Debye
        Dipole field          0.0000 Ry au

        Potential amp.       -0.0000 Ry
        Total length         45.6381 bohr

     Starting wfc are  147 randomized atomic wfcs

     Self-consistent Calculation

     iteration #  1     ecut=    36.75 Ry     beta=0.10
     Davidson diagonalization with overlap
     ethr =  1.00E-02,  avg # of iterations =  7.5

[...]

     total energy              =   -4034.98521323 Ry
     Harris-Foulkes estimate   =   -4046.41883320 Ry
     estimated scf accuracy    <      64.06454591 Ry

[...]

     End of self-consistent calculation

          k = 0.0000 0.0000 0.0000 ( 18679 PWs)   bands (ev):

   -93.9897 -93.9880 -93.9879 -93.9598 -93.9598 -93.9588 -93.9544 -93.9536
   -93.9536 -93.9105 -93.9103 -93.9096 -93.9096 -93.9095 -93.9095 -93.8914
   -93.8913 -93.8897 -93.8897 -93.8896 -93.8896 -93.8578 -93.8578 -93.8577
   -93.8577 -93.8568 -93.8567 -49.3278 -49.3276 -49.1234 -28.0555 -28.0541
   -27.8701 -27.8701 -27.8700 -27.8700 -27.8040 -27.7280 -27.7280 -14.5069
   -14.4748 -14.4748 -14.4694 -14.4048 -14.4036 -14.3911 -14.3793 -14.3793
   -14.3689 -14.3689 -14.3430 -14.3430 -14.3196 -14.3178 -14.3134 -14.3134
   -14.2699 -14.2699 -14.2662 -14.2649 -14.2553 -14.2553 -14.2506 -14.2506
   -14.2395 -14.1820 -14.1820 -14.1794 -14.1794 -14.1704 -14.1704 -14.1677
   -14.1653 -14.1653 -14.1333 -14.1333 -14.1322 -14.1277 -14.1277 -14.1065
   -14.0925 -14.0925 -14.0292 -14.0284  -9.4291  -7.8526  -5.8318  -4.5961
    -4.5961  -3.8546  -3.8546  -2.9096  -2.8044  -2.8044  -2.0897  -1.6720
    -1.4874  -1.4874  -1.1713   0.2608   0.2608   0.3043   0.3043   0.3362
     1.5784   1.5784   1.5929   1.5929   2.1173   2.3328   2.7745   2.7745
     3.2609   3.2609   3.3372   3.3372   3.4370   3.4999   3.7372   3.8684
     3.8684   4.1284   4.3699   4.6170   5.3062   5.3062   5.4307   5.5873
     5.6027   5.6027   6.0395   6.2031

[...]

          k =-0.0856-0.0494 0.0000 ( 18584 PWs)   bands (ev):

[...]

     the Fermi energy is     0.6089 ev

!    total energy              =   -4034.02281396 Ry
     Harris-Foulkes estimate   =   -4034.02281073 Ry
     estimated scf accuracy    <       0.00000009 Ry

     The total energy is the sum of the following terms:

     one-electron contribution =  -23378.57694051 Ry
     hartree contribution      =   11692.05252775 Ry
     xc contribution           =    -489.68005359 Ry
     ewald contribution        =    8142.22234486 Ry
     electric field correction =       0.00000000 Ry
     smearing contrib. (-TS)   =      -0.04069247 Ry

     convergence has been achieved in  17 iterations

 BEEF-vdW xc energy contributions
           1 :   -435.459729720825
           2 :    394.865661319082
           3 :   -327.067094460286
           4 :    252.105585632707
           5 :   -187.452687905813
           6 :    141.439401523970
           7 :   -112.316071280294
           8 :    92.4149736290476
           9 :   -74.2285981881571
          10 :    54.6797116656460
[...]
     Pseudo is Ultrasoft + core correction, Zval = 19.0
     Generated by new atomic code, or converted to UPF format
     Using radial grid of  871 points,  6 beta functions with:
                l(1) =   0
                l(2) =   0
                l(3) =   1
                l(4) =   1
                l(5) =   2
                l(6) =   2
     Q(r) pseudized with  8 coefficients,  rinner =    1.250   1.250   1.250
                                                       1.250   1.250

     PseudoPot. # 2 for Sc read from file:
     /afs/slac.stanford.edu/u/if/mamunm/psp/gbrv1.5pbe/Sc.UPF
     MD5 check sum: db30a2753ba66ef00f23801d899b7e7f
     Pseudo is Ultrasoft + core correction, Zval = 11.0
     Generated by new atomic code, or converted to UPF format
     Using radial grid of  849 points,  6 beta functions with:
                l(1) =   0
                l(2) =   0
                l(3) =   1
                l(4) =   1
                l(5) =   2
                l(6) =   2
     Q(r) pseudized with  6 coefficients,  rinner =    1.200   1.200   1.200
                                                       1.200   1.200

     vdW kernel table read from file vdW_kernel_table
     MD5 check sum: 095c7af220d748ca6e76c0b4c6cfb241

     atomic species   valence    mass     pseudopotential
        Ga1           19.00    69.72300     Ga( 1.00)
        Sc1           11.00    44.95591     Sc( 1.00)

     No symmetry found

   Cartesian axes

     site n.     atom                  positions (alat units)
         1           Ga1 tau(   1) = (   0.0000000   0.0000000  10.0000000  )
         2           Ga1 tau(   2) = (  -1.4604747   2.5296164  10.0000000  )
         3           Ga1 tau(   3) = (   1.4604747   2.5296164  10.0000000  )
         4           Sc1 tau(   4) = (   2.9209495   0.0000000  10.0000000  )
         5           Ga1 tau(   5) = (   2.9209495   1.6864110  12.3849452  )
         6           Ga1 tau(   6) = (   1.4604747   4.2160274  12.3849452  )
         7           Ga1 tau(   7) = (  -1.4604747   4.2160274  12.3849452  )
         8           Sc1 tau(   8) = (   0.0000000   1.6864110  12.3849452  )
         9           Ga1 tau(   9) = (  -0.0000428   3.4069915  14.9453848  )
        10           Ga1 tau(  10) = (   1.4900817   0.8261360  14.9453344  )
        11           Ga1 tau(  11) = (   4.3518053   0.8261602  14.9453607  )
        12           Sc1 tau(  12) = (   2.9209389   3.3728316  14.6704324  )

     number of k points=    20  Fermi-Dirac smearing, width (Ry)=  0.0110
                       cart. coord. in units 2pi/alat
        k(    1) = (   0.0000000   0.0000000   0.0000000), wk =   0.0555556
        k(    2) = (   0.0000000   0.0329431   0.0000000), wk =   0.1111111
        k(    3) = (   0.0000000   0.0658861   0.0000000), wk =   0.1111111
        k(    4) = (   0.0000000  -0.0988292   0.0000000), wk =   0.0555556
        k(    5) = (   0.0285295   0.0164715   0.0000000), wk =   0.1111111
        k(    6) = (   0.0285295   0.0494146   0.0000000), wk =   0.1111111
        k(    7) = (   0.0285295   0.0823577   0.0000000), wk =   0.1111111
        k(    8) = (   0.0285295  -0.0823577   0.0000000), wk =   0.1111111
        k(    9) = (   0.0285295  -0.0494146   0.0000000), wk =   0.1111111
        k(   10) = (   0.0285295  -0.0164715   0.0000000), wk =   0.1111111
        k(   11) = (   0.0570591   0.0329431   0.0000000), wk =   0.1111111
        k(   12) = (   0.0570591   0.0658861   0.0000000), wk =   0.1111111
        k(   13) = (   0.0570591   0.0988292   0.0000000), wk =   0.1111111
        k(   14) = (   0.0570591  -0.0658861   0.0000000), wk =   0.1111111
        k(   15) = (   0.0570591  -0.0329431   0.0000000), wk =   0.1111111
        k(   16) = (   0.0570591   0.0000000   0.0000000), wk =   0.1111111
        k(   17) = (  -0.0855886  -0.0494146   0.0000000), wk =   0.0555556
        k(   18) = (  -0.0855886  -0.0164715   0.0000000), wk =   0.1111111
        k(   19) = (  -0.0855886   0.0164715   0.0000000), wk =   0.1111111
        k(   20) = (  -0.0855886  -0.1482438   0.0000000), wk =   0.0555556

     Largest allocated arrays     est. size (Mb)     dimensions
     Largest temporary arrays     est. size (Mb)     dimensions

     Initial potential from superposition of free atoms
     Check: negative starting charge=   -0.000892

     starting charge  194.99278, renormalised to  204.00000

[...]

     *
     * You are using vdW-DF for exchange-correlation in this calculation.
     * Please cite the following three references that made this development
     * possible:
     *
     *   M. Dion, H. Rydberg, E. Schroder, D. C. Langreth, and
     *   B. I. Lundqvist, Phys. Rev. Lett. 92, 246401 (2004).
     *
     *   T. Thonhauser, V. R. Cooper, S. Li, A. Puzder, P. Hyldgaard, and
     *   D. C. Langreth, Phys. Rev. B 76, 125112 (2007).
     *
     *   G. Roman-Perez and J. M. Soler, Phys. Rev. Lett. 103, 096102 (2009).
     *
     *
     * If you are using vdW-DF2, please also cite:
     *
     *   K. Lee, E. D. Murray, L. Kong, B. I. Lundqvist, and
     *   D. C. Langreth, Phys. Rev. B 82, 081101(R) (2010).
     *
     *
     * If you are calculating the stress with vdW-DF, please also cite:
     *
     *   R. Sabatini, E. Kucukbenli, B. Kolb, T. Thonhauser, and
     *   S. de Gironcoli, J. Phys.: Condens. Matter 24, 424209 (2012).
     *

     Carrying out vdW-DF run using the following parameters:

     Nqs =      20    Nr_points =    1024   r_max =   100.000
     q_mesh =
               0.00001000     0.04494208     0.09755937     0.15916263
               0.23128650     0.31572767     0.41458969     0.53033537
               0.66584808     0.82450364     1.01025438     1.22772762
               1.48234092     1.78043706     2.12944203     2.53805004
               3.01644009     3.57652955     4.23227104     5.00000000

     Gradients computed in reciprocal space

[...]

     Starting wfc are  147 randomized atomic wfcs

     Self-consistent Calculation

[...]

     total energy              =   -4034.05509074 Ry
     Harris-Foulkes estimate   =   -4034.05509102 Ry
     estimated scf accuracy    <       0.00000355 Ry

     iteration # 19     ecut=    36.75 Ry     beta=0.10
     Davidson diagonalization with overlap
     ethr =  1.74E-09,  avg # of iterations =  2.3

[...]

     negative rho (up, down):  7.366E-04 0.000E+00

     Adding external electric field

     Computed dipole along edir(3) :
        Dipole               -0.0254 Ry au,         -0.0646 Debye
        Dipole field         -0.0001 Ry au

        Potential amp.        0.0059 Ry
        Total length         45.6381 bohr

     End of self-consistent calculation

[...]

          k = 0.0571 0.0000 0.0000 ( 18557 PWs)   bands (ev):

[...]

          k =-0.0856-0.1482 0.0000 ( 18584 PWs)   bands (ev):

   -93.9906 -93.9900 -93.9894 -93.9619 -93.9616 -93.9613 -93.9579 -93.9576
   -93.9574 -93.9549 -93.9546 -93.9543 -93.9455 -93.9452 -93.9450 -93.9406
   -93.9400 -93.9394 -93.9211 -93.9201 -93.9195 -93.9071 -93.9068 -93.9065
   -93.8835 -93.8833 -93.8828 -49.3403 -49.2668 -49.1924 -28.0631 -27.9393
   -27.9146 -27.8882 -27.8881 -27.8579 -27.8568 -27.7477 -27.7462 -14.4690
   -14.4247 -14.4143 -14.4066 -14.3905 -14.3858 -14.3785 -14.3662 -14.3571
   -14.3550 -14.3472 -14.3402 -14.3259 -14.3127 -14.3118 -14.3045 -14.3002
   -14.2861 -14.2808 -14.2774 -14.2744 -14.2722 -14.2630 -14.2578 -14.2573
   -14.2508 -14.2485 -14.2482 -14.2419 -14.2417 -14.2349 -14.2309 -14.2291
   -14.2289 -14.2248 -14.2206 -14.2103 -14.2096 -14.2028 -14.1824 -14.1810
   -14.1705 -14.1566 -14.1247 -14.1080  -8.0779  -7.7165  -6.4508  -6.2119
    -5.1991  -5.1055  -4.5860  -3.7752  -2.6493  -2.0198  -1.9550  -1.1922
    -0.4546  -0.3858  -0.3385   0.1259   0.3327   0.6359   0.9607   1.2068
     1.6129   2.0987   2.2140   2.3416   2.4813   2.6614   2.7230   2.8342
     2.8502   3.0934   3.2290   3.4231   3.5235   3.7743   3.8931   3.9574
     4.1478   4.1970   4.5977   4.6069   4.8010   5.2883   5.3719   5.3795
     5.4345   5.6887   5.9189   6.2528

     the Fermi energy is     0.5565 ev

!    total energy              =   -4034.05509346 Ry
     Harris-Foulkes estimate   =   -4034.05509144 Ry
     estimated scf accuracy    <       0.00000042 Ry

     The total energy is the sum of the following terms:

     one-electron contribution =  -22994.96269682 Ry
     hartree contribution      =   11500.07715566 Ry
     xc contribution           =    -489.62101546 Ry
     ewald contribution        =    7950.49226104 Ry
     electric field correction =       0.00000164 Ry
     smearing contrib. (-TS)   =      -0.04079953 Ry

     convergence has been achieved in  19 iterations

 BEEF-vdW xc energy contributions
           1 :   -436.020328270100
           2 :    395.380864564765
           3 :   -327.527160147267
           4 :    252.546992456126
           5 :   -187.933720327888
           6 :    141.995143320695
           7 :   -112.930304908528
           8 :    93.0365377305732
           9 :   -74.8174726956358
          10 :    55.2393390397139
          11 :   -36.1061422581843
          12 :    21.2041346909202
          13 :   -12.7641171041238
          14 :    9.74828453660427
          15 :   -8.79730766338361
          16 :    6.71589168924822
          17 :   -2.50835672450756
          18 :   -2.40708514346761
          19 :    5.70460046198275
          20 :   -6.08604703479466
          21 :    4.21410250749398
          22 :   -2.10006340054156
          23 :    1.56069018231716
          24 :   -2.95363972056890
          25 :    5.07440358640628
          26 :   -6.18742850814277
          27 :    5.35405784148617
          28 :   -3.07877950922705
          29 :   0.860517685901868
          30 :  -5.659138344555004E-002
          31 :   -33.6433619420914
          32 :   -23.1128312593232

     Forces acting on atoms (Ry/au):

     negative rho (up, down):  7.366E-04 0.000E+00
     atom    1 type  1   force =    -0.00000382   -0.00987615   -0.01537365
     atom    2 type  1   force =    -0.00855072    0.00493240   -0.01537357
     atom    3 type  1   force =     0.00854702    0.00493737   -0.01536986
     atom    4 type  2   force =     0.00000118    0.00000098    0.02111439
     atom    5 type  1   force =     0.00000245   -0.00611125    0.00127526
     atom    6 type  1   force =    -0.00528911    0.00305657    0.00127615
     atom    7 type  1   force =     0.00529224    0.00305709    0.00128181
     atom    8 type  2   force =    -0.00000018    0.00000012    0.01968981
     atom    9 type  1   force =     0.00000498    0.00059695   -0.00000091
     atom   10 type  1   force =     0.00050739   -0.00029725    0.00000067
     atom   11 type  1   force =    -0.00050689   -0.00030231   -0.00000056
     atom   12 type  2   force =    -0.00000453    0.00000548    0.00148046

     Total force =     0.044215     Total SCF correction =     0.000925

     entering subroutine stress ...

     negative rho (up, down):  7.366E-04 0.000E+00
          total   stress  (Ry/bohr**3)                   (kbar)     P=   -7.47
  -0.00008520  -0.00000000   0.00000000        -12.53     -0.00      0.00
  -0.00000000  -0.00008520  -0.00000000         -0.00    -12.53     -0.00
   0.00000000  -0.00000000   0.00001800          0.00     -0.00      2.65

 !ASE

     Writing output data file calc.save

     General routines

     Parallel routines

   This run was terminated on:   5:47:23  26Dec2018

   JOB DONE.
Job  /afs/slac/g/suncat/bin/suncat-tsmpirun -x LD_LIBRARY_PATH -wdir /scratch/qe109702_pDLcE pw.x -in pw.inp

TID   HOST_NAME   COMMAND_LINE            STATUS            TERMINATION_TIME
00000 suncat0180 pw.x -in pw.inp   Done                     12/26/2018 05:47:23
00001 suncat0180 pw.x -in pw.inp   Done                     12/26/2018 05:47:23
00002 suncat0180 pw.x -in pw.inp   Done                     12/26/2018 05:47:23
00003 suncat0180 pw.x -in pw.inp   Done                     12/26/2018 05:47:23
00004 suncat0180 pw.x -in pw.inp   Done                     12/26/2018 05:47:23
00005 suncat0180 pw.x -in pw.inp   Done                     12/26/2018 05:47:23
00006 suncat0180 pw.x -in pw.inp   Done                     12/26/2018 05:47:23
00007 suncat0180 pw.x -in pw.inp   Done                     12/26/2018 05:47:23
00008 suncat0167 pw.x -in pw.inp   Done                     12/26/2018 05:47:23
00009 suncat0167 pw.x -in pw.inp   Done                     12/26/2018 05:47:23
00010 suncat0167 pw.x -in pw.inp   Done                     12/26/2018 05:47:23
00011 suncat0167 pw.x -in pw.inp   Done                     12/26/2018 05:47:23
00012 suncat0167 pw.x -in pw.inp   Done                     12/26/2018 05:47:23
00013 suncat0167 pw.x -in pw.inp   Done                     12/26/2018 05:47:23
00014 suncat0167 pw.x -in pw.inp   Done                     12/26/2018 05:47:23
00015 suncat0167 pw.x -in pw.inp   Done                     12/26/2018 05:47:23
00016 suncat0166 pw.x -in pw.inp   Done                     12/26/2018 05:47:23
00017 suncat0166 pw.x -in pw.inp   Done                     12/26/2018 05:47:23
00018 suncat0166 pw.x -in pw.inp   Done                     12/26/2018 05:47:23
00019 suncat0166 pw.x -in pw.inp   Done                     12/26/2018 05:47:23
00020 suncat0166 pw.x -in pw.inp   Done                     12/26/2018 05:47:23
00021 suncat0166 pw.x -in pw.inp   Done                     12/26/2018 05:47:23
00022 suncat0166 pw.x -in pw.inp   Done                     12/26/2018 05:47:23
00023 suncat0166 pw.x -in pw.inp   Done                     12/26/2018 05:47:23
00024 suncat0165 pw.x -in pw.inp   Done                     12/26/2018 05:47:23
00025 suncat0165 pw.x -in pw.inp   Done                     12/26/2018 05:47:23
00026 suncat0165 pw.x -in pw.inp   Done                     12/26/2018 05:47:23
00027 suncat0165 pw.x -in pw.inp   Done                     12/26/2018 05:47:23
00028 suncat0165 pw.x -in pw.inp   Done                     12/26/2018 05:47:23
00029 suncat0165 pw.x -in pw.inp   Done                     12/26/2018 05:47:23
00030 suncat0165 pw.x -in pw.inp   Done                     12/26/2018 05:47:23
00031 suncat0165 pw.x -in pw.inp   Done                     12/26/2018 05:47:23
00032 suncat0164 pw.x -in pw.inp   Done                     12/26/2018 05:47:23
00033 suncat0164 pw.x -in pw.inp   Done                     12/26/2018 05:47:23
00034 suncat0164 pw.x -in pw.inp   Done                     12/26/2018 05:47:23
00035 suncat0164 pw.x -in pw.inp   Done                     12/26/2018 05:47:23
00036 suncat0164 pw.x -in pw.inp   Done                     12/26/2018 05:47:23
00037 suncat0164 pw.x -in pw.inp   Done                     12/26/2018 05:47:23
00038 suncat0164 pw.x -in pw.inp   Done                     12/26/2018 05:47:23
00039 suncat0164 pw.x -in pw.inp   Done                     12/26/2018 05:47:23
00040 suncat0149 pw.x -in pw.inp   Done                     12/26/2018 05:47:23
00041 suncat0149 pw.x -in pw.inp   Done                     12/26/2018 05:47:23
00042 suncat0149 pw.x -in pw.inp   Done                     12/26/2018 05:47:23
00043 suncat0149 pw.x -in pw.inp   Done                     12/26/2018 05:47:23
00044 suncat0149 pw.x -in pw.inp   Done                     12/26/2018 05:47:23
00045 suncat0149 pw.x -in pw.inp   Done                     12/26/2018 05:47:23
00046 suncat0149 pw.x -in pw.inp   Done                     12/26/2018 05:47:23
00047 suncat0149 pw.x -in pw.inp   Done                     12/26/2018 05:47:23
00048 suncat0148 pw.x -in pw.inp   Done                     12/26/2018 05:47:23
00049 suncat0148 pw.x -in pw.inp   Done                     12/26/2018 05:47:23
00050 suncat0148 pw.x -in pw.inp   Done                     12/26/2018 05:47:23
00051 suncat0148 pw.x -in pw.inp   Done                     12/26/2018 05:47:23
00052 suncat0148 pw.x -in pw.inp   Done                     12/26/2018 05:47:23
00053 suncat0148 pw.x -in pw.inp   Done                     12/26/2018 05:47:23
00054 suncat0148 pw.x -in pw.inp   Done                     12/26/2018 05:47:23
00055 suncat0148 pw.x -in pw.inp   Done                     12/26/2018 05:47:23
00056 suncat0137 pw.x -in pw.inp   Done                     12/26/2018 05:47:23
00057 suncat0137 pw.x -in pw.inp   Done                     12/26/2018 05:47:23
00058 suncat0137 pw.x -in pw.inp   Done                     12/26/2018 05:47:23
00059 suncat0137 pw.x -in pw.inp   Done                     12/26/2018 05:47:23
00060 suncat0137 pw.x -in pw.inp   Done                     12/26/2018 05:47:23
00061 suncat0137 pw.x -in pw.inp   Done                     12/26/2018 05:47:23
00062 suncat0137 pw.x -in pw.inp   Done                     12/26/2018 05:47:23
00063 suncat0137 pw.x -in pw.inp   Done                     12/26/2018 05:47:23