     Program PWSCF v.5.1rc2 (svn rev. 11289) starts on  3Jan2019 at  8:43:16

     Current dimensions of program PWSCF are:
     Max number of different atomic species (ntypx) = 10
     Max number of k-points (npk) =  40000
     Max angular momentum in pseudopotentials (lmaxx) =  3
     Presently stress not available with electric field

     IMPORTANT: XC functional enforced from input :
     Exchange-correlation      = BEEF-VDW ( 1  4 27 13 2)
     Any further DFT definition will be discarded
     Please, verify this is what you really want

     Subspace diagonalization in iterative solution of the eigenvalue problem:
     a serial algorithm will be used

     Generating pointlists ...
     new r_m :   0.4125 (alat units)  0.7795 (a.u.) for type    1
     new r_m :   0.4125 (alat units)  0.7795 (a.u.) for type    2

     bravais-lattice index     =            0
     lattice parameter (alat)  =       1.8897  a.u.
     unit-cell volume          =    4304.0747 (a.u.)^3
     number of atoms/cell      =           12
     number of atomic types    =            2
     number of electrons       =       195.00
     number of Kohn-Sham states=          127
     kinetic-energy cutoff     =      36.7493  Ry
     charge density cutoff     =     367.4932  Ry
     convergence threshold     =      1.0E-06
     mixing beta               =       0.1000
     number of iterations used =           10  plain     mixing
     Exchange-correlation      = BEEF-VDW ( 1  4 27 13 2)
     nstep                     =           50

     celldm(1)=   1.889726  celldm(2)=   0.000000  celldm(3)=   0.000000
     celldm(4)=   0.000000  celldm(5)=   0.000000  celldm(6)=   0.000000

     crystal axes: (cart. coord. in units of alat)
               a(1) = (   5.485086   0.000000   0.000000 )
               a(2) = (  -2.742543   4.750223   0.000000 )
               a(3) = (   0.000000   0.000000  24.478554 )

     reciprocal axes: (cart. coord. in units 2 pi/alat)
               b(1) = (  0.182313  0.105258  0.000000 )
               b(2) = (  0.000000  0.210516  0.000000 )
               b(3) = (  0.000000  0.000000  0.040852 )

     PseudoPot. # 1 for Pt read from file:
     /afs/slac.stanford.edu/u/if/mamunm/psp/gbrv1.5pbe/Pt.UPF
     MD5 check sum: f09d6de1a584b5a045c4fc126da2d0c4
     Pseudo is Ultrasoft + core correction, Zval = 16.0
     Generated by new atomic code, or converted to UPF format
     Using radial grid of  985 points,  6 beta functions with:
                l(1) =   0
                l(2) =   0
                l(3) =   1
                l(4) =   1
                l(5) =   2
                l(6) =   2
     Q(r) pseudized with  8 coefficients,  rinner =    1.300   1.300   1.300
                                                       1.300   1.300

     PseudoPot. # 2 for Co read from file:
     /afs/slac.stanford.edu/u/if/mamunm/psp/gbrv1.5pbe/Co.UPF
     MD5 check sum: 5f91765df6ddd3222702df6e7b74a16d
     Pseudo is Ultrasoft + core correction, Zval = 17.0
     Generated by new atomic code, or converted to UPF format
     Using radial grid of  863 points,  6 beta functions with:
                l(1) =   0
                l(2) =   0
                l(3) =   1
                l(4) =   1
                l(5) =   2
                l(6) =   2
     Q(r) pseudized with  8 coefficients,  rinner =    1.200   1.200   1.200
                                                       1.200   1.200

     vdW kernel table read from file vdW_kernel_table
     MD5 check sum: 095c7af220d748ca6e76c0b4c6cfb241

     atomic species   valence    mass     pseudopotential
        Pt1           16.00   195.08400     Pt( 1.00)
        Co1           17.00    58.93319     Co( 1.00)

     Starting magnetic structure
     atomic species   magnetization
        Pt1          0.000
        Co1          0.000

     No symmetry found

   Cartesian axes

     site n.     atom                  positions (alat units)
         1           Pt1 tau(   1) = (   0.0000000   0.0000000  10.0000000  )
         2           Pt1 tau(   2) = (  -1.3712714   2.3751117  10.0000000  )
         3           Pt1 tau(   3) = (   1.3712714   2.3751117  10.0000000  )
         4           Co1 tau(   4) = (   2.7425428   0.0000000  10.0000000  )
         5           Pt1 tau(   5) = (   2.7425428   1.5834078  12.2392768  )
         6           Pt1 tau(   6) = (   1.3712714   3.9585195  12.2392768  )
         7           Pt1 tau(   7) = (  -1.3712714   3.9585195  12.2392768  )
         8           Co1 tau(   8) = (   0.0000000   1.5834078  12.2392768  )
         9           Pt1 tau(   9) = (  -0.0000000   3.1668156  14.4785536  )
        10           Pt1 tau(  10) = (   1.3712714   0.7917039  14.4785536  )
        11           Pt1 tau(  11) = (   4.1138142   0.7917039  14.4785536  )
        12           Co1 tau(  12) = (   2.7425428   3.1668156  14.4785536  )

     number of k points=    40  Fermi-Dirac smearing, width (Ry)=  0.0110
                       cart. coord. in units 2pi/alat
        k(    1) = (   0.0000000   0.0000000   0.0000000), wk =   0.0277778
        k(    2) = (   0.0000000   0.0350861   0.0000000), wk =   0.0555556
        k(    3) = (   0.0000000   0.0701721   0.0000000), wk =   0.0555556
        k(    4) = (   0.0000000  -0.1052582   0.0000000), wk =   0.0277778
        k(    5) = (   0.0303854   0.0175430   0.0000000), wk =   0.0555556
        k(    6) = (   0.0303854   0.0526291   0.0000000), wk =   0.0555556
        k(    7) = (   0.0303854   0.0877152   0.0000000), wk =   0.0555556
        k(    8) = (   0.0303854  -0.0877152   0.0000000), wk =   0.0555556
        k(    9) = (   0.0303854  -0.0526291   0.0000000), wk =   0.0555556
        k(   10) = (   0.0303854  -0.0175430   0.0000000), wk =   0.0555556
        k(   11) = (   0.0607709   0.0350861   0.0000000), wk =   0.0555556
        k(   12) = (   0.0607709   0.0701721   0.0000000), wk =   0.0555556
        k(   13) = (   0.0607709   0.1052582   0.0000000), wk =   0.0555556
        k(   14) = (   0.0607709  -0.0701721   0.0000000), wk =   0.0555556
        k(   15) = (   0.0607709  -0.0350861   0.0000000), wk =   0.0555556
        k(   16) = (   0.0607709  -0.0000000   0.0000000), wk =   0.0555556
        k(   17) = (  -0.0911563  -0.0526291   0.0000000), wk =   0.0277778
        k(   18) = (  -0.0911563  -0.0175430   0.0000000), wk =   0.0555556
        k(   19) = (  -0.0911563   0.0175430   0.0000000), wk =   0.0555556
        k(   20) = (  -0.0911563  -0.1578873   0.0000000), wk =   0.0277778
        k(   21) = (   0.0000000   0.0000000   0.0000000), wk =   0.0277778
        k(   22) = (   0.0000000   0.0350861   0.0000000), wk =   0.0555556
        k(   23) = (   0.0000000   0.0701721   0.0000000), wk =   0.0555556
        k(   24) = (   0.0000000  -0.1052582   0.0000000), wk =   0.0277778
        k(   25) = (   0.0303854   0.0175430   0.0000000), wk =   0.0555556
        k(   26) = (   0.0303854   0.0526291   0.0000000), wk =   0.0555556
        k(   27) = (   0.0303854   0.0877152   0.0000000), wk =   0.0555556
        k(   28) = (   0.0303854  -0.0877152   0.0000000), wk =   0.0555556
        k(   29) = (   0.0303854  -0.0526291   0.0000000), wk =   0.0555556
        k(   30) = (   0.0303854  -0.0175430   0.0000000), wk =   0.0555556
        k(   31) = (   0.0607709   0.0350861   0.0000000), wk =   0.0555556
        k(   32) = (   0.0607709   0.0701721   0.0000000), wk =   0.0555556
        k(   33) = (   0.0607709   0.1052582   0.0000000), wk =   0.0555556
        k(   34) = (   0.0607709  -0.0701721   0.0000000), wk =   0.0555556
        k(   35) = (   0.0607709  -0.0350861   0.0000000), wk =   0.0555556
        k(   36) = (   0.0607709  -0.0000000   0.0000000), wk =   0.0555556
        k(   37) = (  -0.0911563  -0.0526291   0.0000000), wk =   0.0277778
        k(   38) = (  -0.0911563  -0.0175430   0.0000000), wk =   0.0555556
        k(   39) = (  -0.0911563   0.0175430   0.0000000), wk =   0.0555556
        k(   40) = (  -0.0911563  -0.1578873   0.0000000), wk =   0.0277778

     Largest allocated arrays     est. size (Mb)     dimensions
     Largest temporary arrays     est. size (Mb)     dimensions

     Check: negative/imaginary core charge=   -0.000002    0.000000

     Initial potential from superposition of free atoms
     Check: negative starting charge=(component1):   -0.827801
     Check: negative starting charge=(component2):   -0.827801

     starting charge  187.49988, renormalised to  195.00000

     negative rho (up, down):  8.609E-01 8.609E-01

     *
     * You are using vdW-DF for exchange-correlation in this calculation.
     * Please cite the following three references that made this development
     * possible:
     *
     *   M. Dion, H. Rydberg, E. Schroder, D. C. Langreth, and
     *   B. I. Lundqvist, Phys. Rev. Lett. 92, 246401 (2004).
     *
     *   T. Thonhauser, V. R. Cooper, S. Li, A. Puzder, P. Hyldgaard, and
     *   D. C. Langreth, Phys. Rev. B 76, 125112 (2007).
     *
     *   G. Roman-Perez and J. M. Soler, Phys. Rev. Lett. 103, 096102 (2009).
     *
     *
     * If you are using vdW-DF2, please also cite:
     *
     *   K. Lee, E. D. Murray, L. Kong, B. I. Lundqvist, and
     *   D. C. Langreth, Phys. Rev. B 82, 081101(R) (2010).
     *
     *
     * If you are calculating the stress with vdW-DF, please also cite:
     *
     *   R. Sabatini, E. Kucukbenli, B. Kolb, T. Thonhauser, and
     *   S. de Gironcoli, J. Phys.: Condens. Matter 24, 424209 (2012).
     *

     Carrying out vdW-DF run using the following parameters:

     Nqs =      20    Nr_points =    1024   r_max =   100.000
     q_mesh =
               0.00001000     0.04494208     0.09755937     0.15916263
               0.23128650     0.31572767     0.41458969     0.53033537
               0.66584808     0.82450364     1.01025438     1.22772762
               1.48234092     1.78043706     2.12944203     2.53805004
               3.01644009     3.57652955     4.23227104     5.00000000

     Gradients computed in reciprocal space

     Adding external electric field

     Computed dipole along edir(3) :
        Dipole                0.0000 Ry au,          0.0000 Debye
        Dipole field          0.0000 Ry au

        Potential amp.       -0.0000 Ry
        Total length         45.1013 bohr

[...]

     Starting wfc are  147 randomized atomic wfcs

     Self-consistent Calculation

     iteration #  1     ecut=    36.75 Ry     beta=0.10
     Davidson diagonalization with overlap
     ethr =  1.00E-02,  avg # of iterations =  7.5

[...]

     Magnetic moment per site:
     atom:    1    charge:    2.1185    magn:    0.0000    constr:    0.0000
     atom:    2    charge:    2.1185    magn:   -0.0000    constr:    0.0000
     atom:    3    charge:    2.1185    magn:   -0.0000    constr:    0.0000
     atom:    4    charge:    8.4315    magn:   -0.0000    constr:    0.0000
     atom:    5    charge:    2.1125    magn:    0.0000    constr:    0.0000
     atom:    6    charge:    2.1125    magn:    0.0000    constr:    0.0000
     atom:    7    charge:    2.1125    magn:    0.0000    constr:    0.0000
     atom:    8    charge:    8.3872    magn:    0.0000    constr:    0.0000
[...]
        k(    7) = (   0.0303854   0.0877152   0.0000000), wk =   0.0555556
        k(    8) = (   0.0303854  -0.0877152   0.0000000), wk =   0.0555556
        k(    9) = (   0.0303854  -0.0526291   0.0000000), wk =   0.0555556
        k(   10) = (   0.0303854  -0.0175430   0.0000000), wk =   0.0555556
        k(   11) = (   0.0607709   0.0350861   0.0000000), wk =   0.0555556
        k(   12) = (   0.0607709   0.0701721   0.0000000), wk =   0.0555556
        k(   13) = (   0.0607709   0.1052582   0.0000000), wk =   0.0555556
        k(   14) = (   0.0607709  -0.0701721   0.0000000), wk =   0.0555556
        k(   15) = (   0.0607709  -0.0350861   0.0000000), wk =   0.0555556
        k(   16) = (   0.0607709  -0.0000000   0.0000000), wk =   0.0555556
        k(   17) = (  -0.0911563  -0.0526291   0.0000000), wk =   0.0277778
        k(   18) = (  -0.0911563  -0.0175430   0.0000000), wk =   0.0555556
        k(   19) = (  -0.0911563   0.0175430   0.0000000), wk =   0.0555556
        k(   20) = (  -0.0911563  -0.1578873   0.0000000), wk =   0.0277778
        k(   21) = (   0.0000000   0.0000000   0.0000000), wk =   0.0277778
        k(   22) = (   0.0000000   0.0350861   0.0000000), wk =   0.0555556
        k(   23) = (   0.0000000   0.0701721   0.0000000), wk =   0.0555556
        k(   24) = (   0.0000000  -0.1052582   0.0000000), wk =   0.0277778
        k(   25) = (   0.0303854   0.0175430   0.0000000), wk =   0.0555556
        k(   26) = (   0.0303854   0.0526291   0.0000000), wk =   0.0555556
        k(   27) = (   0.0303854   0.0877152   0.0000000), wk =   0.0555556
        k(   28) = (   0.0303854  -0.0877152   0.0000000), wk =   0.0555556
        k(   29) = (   0.0303854  -0.0526291   0.0000000), wk =   0.0555556
        k(   30) = (   0.0303854  -0.0175430   0.0000000), wk =   0.0555556
        k(   31) = (   0.0607709   0.0350861   0.0000000), wk =   0.0555556
        k(   32) = (   0.0607709   0.0701721   0.0000000), wk =   0.0555556
        k(   33) = (   0.0607709   0.1052582   0.0000000), wk =   0.0555556
        k(   34) = (   0.0607709  -0.0701721   0.0000000), wk =   0.0555556
        k(   35) = (   0.0607709  -0.0350861   0.0000000), wk =   0.0555556
        k(   36) = (   0.0607709  -0.0000000   0.0000000), wk =   0.0555556
        k(   37) = (  -0.0911563  -0.0526291   0.0000000), wk =   0.0277778
        k(   38) = (  -0.0911563  -0.0175430   0.0000000), wk =   0.0555556
        k(   39) = (  -0.0911563   0.0175430   0.0000000), wk =   0.0555556
        k(   40) = (  -0.0911563  -0.1578873   0.0000000), wk =   0.0277778

     Largest allocated arrays     est. size (Mb)     dimensions
     Largest temporary arrays     est. size (Mb)     dimensions

     Check: negative/imaginary core charge=   -0.000002    0.000000

     Initial potential from superposition of free atoms
     Check: negative starting charge=(component1):   -0.829136
     Check: negative starting charge=(component2):   -0.829136

     starting charge  187.49988, renormalised to  195.00000

[...]

     *
     * You are using vdW-DF for exchange-correlation in this calculation.
     * Please cite the following three references that made this development
     * possible:
     *
     *   M. Dion, H. Rydberg, E. Schroder, D. C. Langreth, and
     *   B. I. Lundqvist, Phys. Rev. Lett. 92, 246401 (2004).
     *
     *   T. Thonhauser, V. R. Cooper, S. Li, A. Puzder, P. Hyldgaard, and
     *   D. C. Langreth, Phys. Rev. B 76, 125112 (2007).
     *
     *   G. Roman-Perez and J. M. Soler, Phys. Rev. Lett. 103, 096102 (2009).
     *
     *
     * If you are using vdW-DF2, please also cite:
     *
     *   K. Lee, E. D. Murray, L. Kong, B. I. Lundqvist, and
     *   D. C. Langreth, Phys. Rev. B 82, 081101(R) (2010).
     *
     *
     * If you are calculating the stress with vdW-DF, please also cite:
     *
     *   R. Sabatini, E. Kucukbenli, B. Kolb, T. Thonhauser, and
     *   S. de Gironcoli, J. Phys.: Condens. Matter 24, 424209 (2012).
     *

     Carrying out vdW-DF run using the following parameters:

     Nqs =      20    Nr_points =    1024   r_max =   100.000
     q_mesh =
               0.00001000     0.04494208     0.09755937     0.15916263
               0.23128650     0.31572767     0.41458969     0.53033537
               0.66584808     0.82450364     1.01025438     1.22772762
               1.48234092     1.78043706     2.12944203     2.53805004
               3.01644009     3.57652955     4.23227104     5.00000000

     Gradients computed in reciprocal space

[...]

     Starting wfc are  147 randomized atomic wfcs

     Self-consistent Calculation

[...]

     iteration # 20     ecut=    36.75 Ry     beta=0.10
     Davidson diagonalization with overlap
     c_bands:  1 eigenvalues not converged
     c_bands:  1 eigenvalues not converged
     ethr =  1.66E-07,  avg # of iterations =  1.9

[...]

     total energy              =   -2809.62982889 Ry
     Harris-Foulkes estimate   =   -2809.62982655 Ry
     estimated scf accuracy    <       0.00000112 Ry

[...]

     iteration # 23     ecut=    36.75 Ry     beta=0.10
     Davidson diagonalization with overlap
     ethr =  5.73E-10,  avg # of iterations =  1.1

[...]

     negative rho (up, down):  7.958E-01 7.958E-01

[...]

     Adding external electric field

     Computed dipole along edir(3) :
        Dipole               -0.0115 Ry au,         -0.0293 Debye
        Dipole field         -0.0000 Ry au

        Potential amp.        0.0030 Ry
        Total length         45.1013 bohr

     Magnetic moment per site:
     atom:    1    charge:    2.0970    magn:   -0.0000    constr:    0.0000
     atom:    2    charge:    2.0970    magn:   -0.0000    constr:    0.0000
     atom:    3    charge:    2.0970    magn:   -0.0000    constr:    0.0000
     atom:    4    charge:    8.2921    magn:   -0.0012    constr:    0.0000
     atom:    5    charge:    2.0958    magn:   -0.0000    constr:    0.0000
     atom:    6    charge:    2.0958    magn:   -0.0000    constr:    0.0000
     atom:    7    charge:    2.0958    magn:   -0.0000    constr:    0.0000
     atom:    8    charge:    8.2845    magn:   -0.0006    constr:    0.0000
     atom:    9    charge:    2.0981    magn:   -0.0000    constr:    0.0000
     atom:   10    charge:    2.0981    magn:   -0.0000    constr:    0.0000
     atom:   11    charge:    2.0981    magn:   -0.0000    constr:    0.0000
     atom:   12    charge:    8.2927    magn:   -0.0001    constr:    0.0000

     End of self-consistent calculation

 ------ SPIN UP ------------

[...]

 ------ SPIN DOWN ----------

[...]

          k = 0.0608-0.0000 0.0000 ( 16214 PWs)   bands (ev):

[...]

          k =-0.0912-0.1579 0.0000 ( 16164 PWs)   bands (ev):

   -93.2476 -93.1210 -93.0735 -56.5739 -56.5538 -56.5532 -56.4800 -56.4795
   -56.4439 -56.4434 -56.3390 -56.2698 -51.7079 -51.5898 -51.5639 -51.5500
   -51.5377 -51.5218 -51.5171 -51.4925 -51.4077 -51.2858 -51.2577 -51.1635
   -51.1450 -51.1426 -51.1256 -51.1218 -51.1081 -51.1005 -51.0761 -51.0182
   -50.9858 -50.9132 -50.9035 -50.8903 -50.8711 -50.8556 -50.8456  -5.5991
    -5.1999  -4.1968  -3.9705  -3.9333  -3.7625  -3.6317  -3.5095  -3.4547
    -3.2499  -3.1755  -3.1549  -2.8702  -2.7143  -2.6362  -2.6313  -2.5732
    -2.5209  -2.2605  -2.1267  -1.7534  -1.6463  -1.6302  -1.6145  -1.5587
    -1.5170  -1.4820  -1.4394  -1.3346  -1.3033  -1.2553  -1.1327  -1.0594
    -1.0197  -0.8029  -0.7986  -0.6969  -0.5180  -0.4399  -0.3201  -0.3058
    -0.0205  -0.0181   0.1175   0.1423   0.1610   0.4284   0.5425   0.6247
     0.6485   0.7171   0.7375   0.7927   0.8833   0.9884   1.0017   1.0671
     1.0976   1.3501   1.4324   1.4994   1.5494   1.6835   1.7928   2.8708
     3.2179   3.4463   3.8787   4.2582   4.6637   5.8072   5.9103   6.4645
     6.5260   7.7077   7.7207   8.3107   8.3296   8.4250   8.4293   9.2306
     9.3351   9.4337   9.5255   9.5296   9.5653   9.7078   9.9466

     the Fermi energy is     1.4507 ev

!    total energy              =   -2809.62984106 Ry
     Harris-Foulkes estimate   =   -2809.62982879 Ry
     estimated scf accuracy    <       0.00000059 Ry

     The total energy is the sum of the following terms:

     one-electron contribution =  -22190.61630474 Ry
     hartree contribution      =   11124.24567809 Ry
     xc contribution           =    -628.59427261 Ry
     ewald contribution        =    8885.48607501 Ry
     electric field correction =       0.00000039 Ry
     smearing contrib. (-TS)   =      -0.15101720 Ry

     total magnetization       =    -0.01 Bohr mag/cell
     absolute magnetization    =     0.01 Bohr mag/cell

     convergence has been achieved in  23 iterations

 BEEF-vdW xc energy contributions
           1 :   -558.772723772845
           2 :    517.921656506622
           3 :   -445.423591005550
           4 :    356.189014368030
           5 :   -265.860908986435
           6 :    186.428516381397
           7 :   -123.939913449770
           8 :    78.6662673434424
           9 :   -47.1211566745867
          10 :    24.6821330584744
          11 :   -7.65479311472620
          12 :   -5.86970255059612
          13 :    16.2565724838137
          14 :   -23.1480724736240
          15 :    26.2544872346666
          16 :   -25.7964187347777
          17 :    22.5499182082200
          18 :   -17.6680223318468
          19 :    12.4290016485855
          20 :   -8.00400645779087
          21 :    5.23090760327750
          22 :   -4.42169714492661
          23 :    5.26104356741416
          24 :   -6.90593724324185
          25 :    8.30551347949336
          26 :   -8.65170594032259
          27 :    7.73674080556725
          28 :   -6.02677991226938
          29 :    4.38147350172426
          30 :   -3.57131843302864
          31 :   -46.0104653731053
          32 :   -33.6723453889462

     Forces acting on atoms (Ry/au):

     negative rho (up, down):  7.958E-01 7.958E-01
     atom    1 type  1   force =     0.00000004    0.01884260   -0.00907685
     atom    2 type  1   force =     0.01631810   -0.00942142   -0.00907681
     atom    3 type  1   force =    -0.01631805   -0.00942128   -0.00907676
     atom    4 type  2   force =    -0.00000005    0.00000003    0.01893071
     atom    5 type  1   force =    -0.00000005   -0.00661816    0.00331114
     atom    6 type  1   force =    -0.00573156    0.00330892    0.00331121
     atom    7 type  1   force =     0.00573161    0.00330909    0.00331121
     atom    8 type  2   force =     0.00000010    0.00000007    0.00121690
     atom    9 type  1   force =     0.00000012   -0.00008364   -0.00047809
     atom   10 type  1   force =    -0.00007241    0.00004175   -0.00047803
     atom   11 type  1   force =     0.00007254    0.00004163   -0.00047784
     atom   12 type  2   force =    -0.00000038    0.00000040   -0.00141677

     Total force =     0.042885     Total SCF correction =     0.003787

     entering subroutine stress ...

     negative rho (up, down):  7.958E-01 7.958E-01
          total   stress  (Ry/bohr**3)                   (kbar)     P=  -20.16
  -0.00019592   0.00000000   0.00000000        -28.82      0.00      0.00
   0.00000000  -0.00019592  -0.00000000          0.00    -28.82     -0.00
   0.00000000  -0.00000000  -0.00001936          0.00     -0.00     -2.85

 !ASE

     Writing output data file calc.save

     General routines

     Parallel routines

   This run was terminated on:  11:16: 7   3Jan2019

   JOB DONE.
Job  /afs/slac/g/suncat/bin/suncat-tsmpirun -x LD_LIBRARY_PATH -wdir /scratch/qe888997_5KSFh pw.x -in pw.inp

TID   HOST_NAME   COMMAND_LINE            STATUS            TERMINATION_TIME
00000 suncat0010 pw.x -in pw.inp   Done                     01/03/2019 11:16:07
00001 suncat0010 pw.x -in pw.inp   Done                     01/03/2019 11:16:07
00002 suncat0010 pw.x -in pw.inp   Done                     01/03/2019 11:16:07
00003 suncat0010 pw.x -in pw.inp   Done                     01/03/2019 11:16:07
00004 suncat0010 pw.x -in pw.inp   Done                     01/03/2019 11:16:07
00005 suncat0010 pw.x -in pw.inp   Done                     01/03/2019 11:16:07
00006 suncat0010 pw.x -in pw.inp   Done                     01/03/2019 11:16:07
00007 suncat0010 pw.x -in pw.inp   Done                     01/03/2019 11:16:07
00008 suncat0191 pw.x -in pw.inp   Done                     01/03/2019 11:16:07
00009 suncat0191 pw.x -in pw.inp   Done                     01/03/2019 11:16:07
00010 suncat0191 pw.x -in pw.inp   Done                     01/03/2019 11:16:07
00011 suncat0191 pw.x -in pw.inp   Done                     01/03/2019 11:16:07
00012 suncat0191 pw.x -in pw.inp   Done                     01/03/2019 11:16:07
00013 suncat0191 pw.x -in pw.inp   Done                     01/03/2019 11:16:07
00014 suncat0191 pw.x -in pw.inp   Done                     01/03/2019 11:16:07
00015 suncat0191 pw.x -in pw.inp   Done                     01/03/2019 11:16:07
00016 suncat0007 pw.x -in pw.inp   Done                     01/03/2019 11:16:07
00017 suncat0007 pw.x -in pw.inp   Done                     01/03/2019 11:16:07
00018 suncat0007 pw.x -in pw.inp   Done                     01/03/2019 11:16:07
00019 suncat0007 pw.x -in pw.inp   Done                     01/03/2019 11:16:07
00020 suncat0007 pw.x -in pw.inp   Done                     01/03/2019 11:16:07
00021 suncat0007 pw.x -in pw.inp   Done                     01/03/2019 11:16:07
00022 suncat0007 pw.x -in pw.inp   Done                     01/03/2019 11:16:07
00023 suncat0007 pw.x -in pw.inp   Done                     01/03/2019 11:16:07
00024 suncat0185 pw.x -in pw.inp   Done                     01/03/2019 11:16:07
00025 suncat0185 pw.x -in pw.inp   Done                     01/03/2019 11:16:07
00026 suncat0185 pw.x -in pw.inp   Done                     01/03/2019 11:16:07
00027 suncat0185 pw.x -in pw.inp   Done                     01/03/2019 11:16:07
00028 suncat0185 pw.x -in pw.inp   Done                     01/03/2019 11:16:07
00029 suncat0185 pw.x -in pw.inp   Done                     01/03/2019 11:16:07
00030 suncat0185 pw.x -in pw.inp   Done                     01/03/2019 11:16:07
00031 suncat0185 pw.x -in pw.inp   Done                     01/03/2019 11:16:07
00032 suncat0183 pw.x -in pw.inp   Done                     01/03/2019 11:16:07
00033 suncat0183 pw.x -in pw.inp   Done                     01/03/2019 11:16:07
00034 suncat0183 pw.x -in pw.inp   Done                     01/03/2019 11:16:07
00035 suncat0183 pw.x -in pw.inp   Done                     01/03/2019 11:16:07
00036 suncat0183 pw.x -in pw.inp   Done                     01/03/2019 11:16:07
00037 suncat0183 pw.x -in pw.inp   Done                     01/03/2019 11:16:07
00038 suncat0183 pw.x -in pw.inp   Done                     01/03/2019 11:16:07
00039 suncat0183 pw.x -in pw.inp   Done                     01/03/2019 11:16:07
00040 suncat0172 pw.x -in pw.inp   Done                     01/03/2019 11:16:07
00041 suncat0172 pw.x -in pw.inp   Done                     01/03/2019 11:16:07
00042 suncat0172 pw.x -in pw.inp   Done                     01/03/2019 11:16:07
00043 suncat0172 pw.x -in pw.inp   Done                     01/03/2019 11:16:07
00044 suncat0172 pw.x -in pw.inp   Done                     01/03/2019 11:16:07
00045 suncat0172 pw.x -in pw.inp   Done                     01/03/2019 11:16:07
00046 suncat0172 pw.x -in pw.inp   Done                     01/03/2019 11:16:07
00047 suncat0172 pw.x -in pw.inp   Done                     01/03/2019 11:16:07
00048 suncat0164 pw.x -in pw.inp   Done                     01/03/2019 11:16:07
00049 suncat0164 pw.x -in pw.inp   Done                     01/03/2019 11:16:07
00050 suncat0164 pw.x -in pw.inp   Done                     01/03/2019 11:16:07
00051 suncat0164 pw.x -in pw.inp   Done                     01/03/2019 11:16:07
00052 suncat0164 pw.x -in pw.inp   Done                     01/03/2019 11:16:07
00053 suncat0164 pw.x -in pw.inp   Done                     01/03/2019 11:16:07
00054 suncat0164 pw.x -in pw.inp   Done                     01/03/2019 11:16:07
00055 suncat0164 pw.x -in pw.inp   Done                     01/03/2019 11:16:07
00056 suncat0141 pw.x -in pw.inp   Done                     01/03/2019 11:16:07
00057 suncat0141 pw.x -in pw.inp   Done                     01/03/2019 11:16:07
00058 suncat0141 pw.x -in pw.inp   Done                     01/03/2019 11:16:07
00059 suncat0141 pw.x -in pw.inp   Done                     01/03/2019 11:16:07
00060 suncat0141 pw.x -in pw.inp   Done                     01/03/2019 11:16:07
00061 suncat0141 pw.x -in pw.inp   Done                     01/03/2019 11:16:07
00062 suncat0141 pw.x -in pw.inp   Done                     01/03/2019 11:16:07
00063 suncat0141 pw.x -in pw.inp   Done                     01/03/2019 11:16:07