     Program PWSCF v.5.1rc2 (svn rev. 11289) starts on  1Jan2019 at 18: 0: 2

     Current dimensions of program PWSCF are:
     Max number of different atomic species (ntypx) = 10
     Max number of k-points (npk) =  40000
     Max angular momentum in pseudopotentials (lmaxx) =  3
     Presently stress not available with electric field

     IMPORTANT: XC functional enforced from input :
     Exchange-correlation      = BEEF-VDW ( 1  4 27 13 2)
     Any further DFT definition will be discarded
     Please, verify this is what you really want

     Subspace diagonalization in iterative solution of the eigenvalue problem:
     a serial algorithm will be used

     bravais-lattice index     =            0
     lattice parameter (alat)  =       1.8897  a.u.
     unit-cell volume          =    4907.3437 (a.u.)^3
     number of atoms/cell      =           12
     number of atomic types    =            2
     number of electrons       =       165.00
     number of Kohn-Sham states=          112
     kinetic-energy cutoff     =      36.7493  Ry
     charge density cutoff     =     367.4932  Ry
     convergence threshold     =      1.0E-06
     mixing beta               =       0.1000
     number of iterations used =           10  plain     mixing
     Exchange-correlation      = BEEF-VDW ( 1  4 27 13 2)
     nstep                     =           50

     celldm(1)=   1.889726  celldm(2)=   0.000000  celldm(3)=   0.000000
     celldm(4)=   0.000000  celldm(5)=   0.000000  celldm(6)=   0.000000

     crystal axes: (cart. coord. in units of alat)
               a(1) = (   5.824053   0.000000   0.000000 )
               a(2) = (  -2.912027   5.043778   0.000000 )
               a(3) = (   0.000000   0.000000  24.755320 )

     reciprocal axes: (cart. coord. in units 2 pi/alat)
               b(1) = (  0.171702  0.099132  0.000000 )
               b(2) = (  0.000000  0.198264  0.000000 )
               b(3) = (  0.000000  0.000000  0.040395 )

     PseudoPot. # 1 for Ta read from file:
     /afs/slac.stanford.edu/u/if/mamunm/psp/gbrv1.5pbe/Ta.UPF
     MD5 check sum: f8bbe9446314a3b8ea5d9f3e3836c939
     Pseudo is Ultrasoft + core correction, Zval = 13.0
     Generated by new atomic code, or converted to UPF format
     Using radial grid of  921 points,  7 beta functions with:
                l(1) =   0
                l(2) =   0
                l(3) =   1
                l(4) =   1
                l(5) =   2
                l(6) =   2
                l(7) =   3
     Q(r) pseudized with  6 coefficients,  rinner =    1.300   1.300   1.300
                                                       1.300   1.300   1.300
                                                       1.300

     PseudoPot. # 2 for Ru read from file:
     /afs/slac.stanford.edu/u/if/mamunm/psp/gbrv1.5pbe/Ru.UPF
     MD5 check sum: 7158a806dd851261a58e6920c40ebe78
     Pseudo is Ultrasoft + core correction, Zval = 16.0
     Generated by new atomic code, or converted to UPF format
     Using radial grid of  967 points,  6 beta functions with:
                l(1) =   0
                l(2) =   0
                l(3) =   1
                l(4) =   1
                l(5) =   2
                l(6) =   2
     Q(r) pseudized with  8 coefficients,  rinner =    1.300   1.300   1.300
                                                       1.300   1.300

     vdW kernel table read from file vdW_kernel_table
     MD5 check sum: 095c7af220d748ca6e76c0b4c6cfb241

     atomic species   valence    mass     pseudopotential
        Ta1           13.00   180.94788     Ta( 1.00)
        Ru1           16.00   101.07000     Ru( 1.00)

     No symmetry found

   Cartesian axes

     site n.     atom                  positions (alat units)
         1           Ta1 tau(   1) = (   0.0000000   0.0000000  10.0000000  )
         2           Ta1 tau(   2) = (  -1.4560134   2.5218891  10.0000000  )
         3           Ta1 tau(   3) = (   1.4560134   2.5218891  10.0000000  )
         4           Ru1 tau(   4) = (   2.9120267   0.0000000  10.0000000  )
         5           Ta1 tau(   5) = (   2.9120267   1.6812594  12.3776599  )
         6           Ta1 tau(   6) = (   1.4560134   4.2031486  12.3776599  )
         7           Ta1 tau(   7) = (  -1.4560134   4.2031486  12.3776599  )
         8           Ru1 tau(   8) = (   0.0000000   1.6812594  12.3776599  )
         9           Ta1 tau(   9) = (  -0.0000000   3.3625188  14.7553197  )
        10           Ta1 tau(  10) = (   1.4560134   0.8406297  14.7553197  )
        11           Ta1 tau(  11) = (   4.3680401   0.8406297  14.7553197  )
        12           Ru1 tau(  12) = (   2.9120267   3.3625188  14.7553197  )

     number of k points=    20  Fermi-Dirac smearing, width (Ry)=  0.0110
                       cart. coord. in units 2pi/alat
        k(    1) = (   0.0000000   0.0000000   0.0000000), wk =   0.0555556
        k(    2) = (   0.0000000   0.0330440   0.0000000), wk =   0.1111111
        k(    3) = (   0.0000000   0.0660880   0.0000000), wk =   0.1111111
        k(    4) = (   0.0000000  -0.0991320   0.0000000), wk =   0.0555556
        k(    5) = (   0.0286170   0.0165220   0.0000000), wk =   0.1111111
        k(    6) = (   0.0286170   0.0495660   0.0000000), wk =   0.1111111
        k(    7) = (   0.0286170   0.0826100   0.0000000), wk =   0.1111111
        k(    8) = (   0.0286170  -0.0826100   0.0000000), wk =   0.1111111
        k(    9) = (   0.0286170  -0.0495660   0.0000000), wk =   0.1111111
        k(   10) = (   0.0286170  -0.0165220   0.0000000), wk =   0.1111111
        k(   11) = (   0.0572339   0.0330440   0.0000000), wk =   0.1111111
        k(   12) = (   0.0572339   0.0660880   0.0000000), wk =   0.1111111
        k(   13) = (   0.0572339   0.0991320   0.0000000), wk =   0.1111111
        k(   14) = (   0.0572339  -0.0660880   0.0000000), wk =   0.1111111
        k(   15) = (   0.0572339  -0.0330440   0.0000000), wk =   0.1111111
        k(   16) = (   0.0572339   0.0000000   0.0000000), wk =   0.1111111
        k(   17) = (  -0.0858509  -0.0495660   0.0000000), wk =   0.0555556
        k(   18) = (  -0.0858509  -0.0165220   0.0000000), wk =   0.1111111
        k(   19) = (  -0.0858509   0.0165220   0.0000000), wk =   0.1111111
        k(   20) = (  -0.0858509  -0.1486981   0.0000000), wk =   0.0555556

     Largest allocated arrays     est. size (Mb)     dimensions
     Largest temporary arrays     est. size (Mb)     dimensions

     Initial potential from superposition of free atoms
     Check: negative starting charge=   -1.060026

     starting charge  161.98994, renormalised to  165.00000

     negative rho (up, down):  1.080E+00 0.000E+00

     *
     * You are using vdW-DF for exchange-correlation in this calculation.
     * Please cite the following three references that made this development
     * possible:
     *
     *   M. Dion, H. Rydberg, E. Schroder, D. C. Langreth, and
     *   B. I. Lundqvist, Phys. Rev. Lett. 92, 246401 (2004).
     *
     *   T. Thonhauser, V. R. Cooper, S. Li, A. Puzder, P. Hyldgaard, and
     *   D. C. Langreth, Phys. Rev. B 76, 125112 (2007).
     *
     *   G. Roman-Perez and J. M. Soler, Phys. Rev. Lett. 103, 096102 (2009).
     *
     *
     * If you are using vdW-DF2, please also cite:
     *
     *   K. Lee, E. D. Murray, L. Kong, B. I. Lundqvist, and
     *   D. C. Langreth, Phys. Rev. B 82, 081101(R) (2010).
     *
     *
     * If you are calculating the stress with vdW-DF, please also cite:
     *
     *   R. Sabatini, E. Kucukbenli, B. Kolb, T. Thonhauser, and
     *   S. de Gironcoli, J. Phys.: Condens. Matter 24, 424209 (2012).
     *

     Carrying out vdW-DF run using the following parameters:

     Nqs =      20    Nr_points =    1024   r_max =   100.000
     q_mesh =
               0.00001000     0.04494208     0.09755937     0.15916263
               0.23128650     0.31572767     0.41458969     0.53033537
               0.66584808     0.82450364     1.01025438     1.22772762
               1.48234092     1.78043706     2.12944203     2.53805004
               3.01644009     3.57652955     4.23227104     5.00000000

     Gradients computed in reciprocal space

     Adding external electric field

     Computed dipole along edir(3) :
        Dipole               -0.0000 Ry au,         -0.0000 Debye
        Dipole field         -0.0000 Ry au

        Potential amp.        0.0000 Ry
        Total length         45.6113 bohr

     Starting wfc are  156 randomized atomic wfcs

     Self-consistent Calculation

     iteration #  1     ecut=    36.75 Ry     beta=0.10
     Davidson diagonalization with overlap
     ethr =  1.00E-02,  avg # of iterations =  2.0

[...]

     total energy              =   -1873.93390090 Ry
     Harris-Foulkes estimate   =   -1874.92582637 Ry
     estimated scf accuracy    <       5.83288410 Ry

[...]

     End of self-consistent calculation

          k = 0.0000 0.0000 0.0000 ( 18511 PWs)   bands (ev):

   -70.5267 -70.1961 -70.1959 -66.2534 -66.2492 -66.1937 -66.1936 -66.1926
   -66.1926 -66.0852 -66.0310 -66.0310 -40.4893 -40.4708 -40.4708 -40.1694
   -40.1662 -40.1494 -40.1494 -40.1486 -40.1486 -33.0545 -32.9496 -32.8904
   -32.8240 -32.8240 -32.8234 -32.7738 -32.7738 -32.7192 -32.6985 -32.6985
   -32.6159 -32.6159 -32.4767 -32.4767 -32.3626 -32.3011 -32.2432 -32.2305
   -32.2305 -32.1495 -32.1164 -32.1164 -32.1099 -32.1099 -32.0345 -32.0345
    -5.1939  -3.5952  -2.7891  -2.2878  -2.2878  -2.1233  -2.1233  -2.0708
    -1.7697  -1.4352  -1.4352  -1.3629  -1.3629  -1.3414  -1.1474  -0.1867
    -0.1867   0.1166   0.5547   0.5547   0.7225   0.8330   1.2773   1.6701
     1.6701   1.7332   1.8218   1.9281   1.9281   1.9396   1.9396   2.1062
     2.1062   2.2639   2.2639   2.7142   2.8282   2.8693   3.0778   3.0778
     3.1410   3.1410   3.6839   3.6839   3.9831   4.1037   4.1037   4.3071
     4.6558   5.1971   5.1971   5.4407   5.4407   6.0588   6.0588   6.1363
     6.1606   6.2005   6.2005   6.3352   6.4190   6.4190   6.5783   6.5783

[...]

          k =-0.0859-0.0496 0.0000 ( 18412 PWs)   bands (ev):

[...]

     the Fermi energy is     2.0987 ev

!    total energy              =   -1874.09689590 Ry
     Harris-Foulkes estimate   =   -1874.09743798 Ry
     estimated scf accuracy    <       0.00000087 Ry

     The total energy is the sum of the following terms:

     one-electron contribution =  -13562.17405008 Ry
     hartree contribution      =    6768.22626164 Ry
     xc contribution           =    -472.56758084 Ry
     ewald contribution        =    5392.52121963 Ry
     electric field correction =       0.00000001 Ry
     smearing contrib. (-TS)   =      -0.10274627 Ry

     convergence has been achieved in  17 iterations

 BEEF-vdW xc energy contributions
           1 :   -414.895703186725
           2 :    382.731267047026
           3 :   -326.561091681371
           4 :    259.455880705001
           5 :   -194.665795055536
           6 :    141.518392036670
           7 :   -103.459949150195
           8 :    78.6586732611523
           9 :   -62.4137785882433
          10 :    49.9677716096317
          11 :   -38.4321080744098
          12 :    27.2343887806300
[...]
     MD5 check sum: f8bbe9446314a3b8ea5d9f3e3836c939
     Pseudo is Ultrasoft + core correction, Zval = 13.0
     Generated by new atomic code, or converted to UPF format
     Using radial grid of  921 points,  7 beta functions with:
                l(1) =   0
                l(2) =   0
                l(3) =   1
                l(4) =   1
                l(5) =   2
                l(6) =   2
                l(7) =   3
     Q(r) pseudized with  6 coefficients,  rinner =    1.300   1.300   1.300
                                                       1.300   1.300   1.300
                                                       1.300

     PseudoPot. # 2 for Ru read from file:
     /afs/slac.stanford.edu/u/if/mamunm/psp/gbrv1.5pbe/Ru.UPF
     MD5 check sum: 7158a806dd851261a58e6920c40ebe78
     Pseudo is Ultrasoft + core correction, Zval = 16.0
     Generated by new atomic code, or converted to UPF format
     Using radial grid of  967 points,  6 beta functions with:
                l(1) =   0
                l(2) =   0
                l(3) =   1
                l(4) =   1
                l(5) =   2
                l(6) =   2
     Q(r) pseudized with  8 coefficients,  rinner =    1.300   1.300   1.300
                                                       1.300   1.300

     vdW kernel table read from file vdW_kernel_table
     MD5 check sum: 095c7af220d748ca6e76c0b4c6cfb241

     atomic species   valence    mass     pseudopotential
        Ta1           13.00   180.94788     Ta( 1.00)
        Ru1           16.00   101.07000     Ru( 1.00)

     No symmetry found

   Cartesian axes

     site n.     atom                  positions (alat units)
         1           Ta1 tau(   1) = (   0.0000000   0.0000000  10.0000000  )
         2           Ta1 tau(   2) = (  -1.4560134   2.5218891  10.0000000  )
         3           Ta1 tau(   3) = (   1.4560134   2.5218891  10.0000000  )
         4           Ru1 tau(   4) = (   2.9120267   0.0000000  10.0000000  )
         5           Ta1 tau(   5) = (   2.9120267   1.6812594  12.3776599  )
         6           Ta1 tau(   6) = (   1.4560134   4.2031486  12.3776599  )
         7           Ta1 tau(   7) = (  -1.4560134   4.2031486  12.3776599  )
         8           Ru1 tau(   8) = (   0.0000000   1.6812594  12.3776599  )
         9           Ta1 tau(   9) = (  -0.0000018   3.3305731  14.7643533  )
        10           Ta1 tau(  10) = (   1.4283415   0.8566046  14.7643511  )
        11           Ta1 tau(  11) = (   4.3957057   0.8566022  14.7643529  )
        12           Ru1 tau(  12) = (   2.9120294   3.3625189  14.6663559  )

     number of k points=    20  Fermi-Dirac smearing, width (Ry)=  0.0110
                       cart. coord. in units 2pi/alat
        k(    1) = (   0.0000000   0.0000000   0.0000000), wk =   0.0555556
        k(    2) = (   0.0000000   0.0330440   0.0000000), wk =   0.1111111
        k(    3) = (   0.0000000   0.0660880   0.0000000), wk =   0.1111111
        k(    4) = (   0.0000000  -0.0991320   0.0000000), wk =   0.0555556
        k(    5) = (   0.0286170   0.0165220   0.0000000), wk =   0.1111111
        k(    6) = (   0.0286170   0.0495660   0.0000000), wk =   0.1111111
        k(    7) = (   0.0286170   0.0826100   0.0000000), wk =   0.1111111
        k(    8) = (   0.0286170  -0.0826100   0.0000000), wk =   0.1111111
        k(    9) = (   0.0286170  -0.0495660   0.0000000), wk =   0.1111111
        k(   10) = (   0.0286170  -0.0165220   0.0000000), wk =   0.1111111
        k(   11) = (   0.0572339   0.0330440   0.0000000), wk =   0.1111111
        k(   12) = (   0.0572339   0.0660880   0.0000000), wk =   0.1111111
        k(   13) = (   0.0572339   0.0991320   0.0000000), wk =   0.1111111
        k(   14) = (   0.0572339  -0.0660880   0.0000000), wk =   0.1111111
        k(   15) = (   0.0572339  -0.0330440   0.0000000), wk =   0.1111111
        k(   16) = (   0.0572339   0.0000000   0.0000000), wk =   0.1111111
        k(   17) = (  -0.0858509  -0.0495660   0.0000000), wk =   0.0555556
        k(   18) = (  -0.0858509  -0.0165220   0.0000000), wk =   0.1111111
        k(   19) = (  -0.0858509   0.0165220   0.0000000), wk =   0.1111111
        k(   20) = (  -0.0858509  -0.1486981   0.0000000), wk =   0.0555556

     Largest allocated arrays     est. size (Mb)     dimensions
     Largest temporary arrays     est. size (Mb)     dimensions

     Initial potential from superposition of free atoms
     Check: negative starting charge=   -1.064172

     starting charge  161.98994, renormalised to  165.00000

[...]

     *
     * You are using vdW-DF for exchange-correlation in this calculation.
     * Please cite the following three references that made this development
     * possible:
     *
     *   M. Dion, H. Rydberg, E. Schroder, D. C. Langreth, and
     *   B. I. Lundqvist, Phys. Rev. Lett. 92, 246401 (2004).
     *
     *   T. Thonhauser, V. R. Cooper, S. Li, A. Puzder, P. Hyldgaard, and
     *   D. C. Langreth, Phys. Rev. B 76, 125112 (2007).
     *
     *   G. Roman-Perez and J. M. Soler, Phys. Rev. Lett. 103, 096102 (2009).
     *
     *
     * If you are using vdW-DF2, please also cite:
     *
     *   K. Lee, E. D. Murray, L. Kong, B. I. Lundqvist, and
     *   D. C. Langreth, Phys. Rev. B 82, 081101(R) (2010).
     *
     *
     * If you are calculating the stress with vdW-DF, please also cite:
     *
     *   R. Sabatini, E. Kucukbenli, B. Kolb, T. Thonhauser, and
     *   S. de Gironcoli, J. Phys.: Condens. Matter 24, 424209 (2012).
     *

     Carrying out vdW-DF run using the following parameters:

     Nqs =      20    Nr_points =    1024   r_max =   100.000
     q_mesh =
               0.00001000     0.04494208     0.09755937     0.15916263
               0.23128650     0.31572767     0.41458969     0.53033537
               0.66584808     0.82450364     1.01025438     1.22772762
               1.48234092     1.78043706     2.12944203     2.53805004
               3.01644009     3.57652955     4.23227104     5.00000000

     Gradients computed in reciprocal space

[...]

     Starting wfc are  156 randomized atomic wfcs

     Self-consistent Calculation

[...]

     total energy              =   -1874.10751087 Ry
     Harris-Foulkes estimate   =   -1874.10751018 Ry
     estimated scf accuracy    <       0.00000288 Ry

     iteration # 18     ecut=    36.75 Ry     beta=0.10
     Davidson diagonalization with overlap
     ethr =  1.74E-09,  avg # of iterations =  2.0

[...]

     negative rho (up, down):  1.113E+00 0.000E+00

     Adding external electric field

     Computed dipole along edir(3) :
        Dipole                0.0150 Ry au,          0.0382 Debye
        Dipole field          0.0000 Ry au

        Potential amp.       -0.0035 Ry
        Total length         45.6113 bohr

     End of self-consistent calculation

[...]

          k = 0.0572 0.0000 0.0000 ( 18461 PWs)   bands (ev):

[...]

          k =-0.0859-0.1487 0.0000 ( 18412 PWs)   bands (ev):

   -70.5053 -70.1920 -70.1806 -66.2098 -66.2073 -66.1889 -66.1859 -66.1689
   -66.1678 -66.0471 -66.0294 -66.0110 -40.4669 -40.4490 -40.4461 -40.1712
   -40.1551 -40.1470 -40.1438 -40.1304 -40.1273 -32.8644 -32.8510 -32.7927
   -32.7523 -32.7204 -32.7015 -32.6679 -32.6386 -32.6244 -32.5725 -32.5528
   -32.5384 -32.5068 -32.4730 -32.4538 -32.4475 -32.4235 -32.3959 -32.3506
   -32.3238 -32.3152 -32.1976 -32.1788 -32.1687 -32.1273 -32.1068 -32.0348
    -3.4425  -3.2884  -2.0583  -1.9470  -1.4378  -1.3925  -1.3465  -1.2553
    -0.9527  -0.9466  -0.6619  -0.4719  -0.3026  -0.2499  -0.2484  -0.0089
     0.0622   0.1834   0.2006   0.3044   0.4206   0.5962   0.7613   0.7741
     0.9096   0.9586   1.2599   1.3252   1.3762   1.4714   1.5284   1.6334
     1.6494   1.6932   1.7421   1.9488   2.0235   2.1550   2.5127   2.6788
     2.7472   3.0372   3.1351   3.1828   3.5168   3.5801   3.6257   3.7008
     3.9586   4.3187   4.3539   4.4030   4.5880   4.6370   5.0314   5.2155
     5.2293   5.2570   5.3555   5.7241   5.8628   6.0133   6.2946   6.6056

     the Fermi energy is     2.1217 ev

!    total energy              =   -1874.10751179 Ry
     Harris-Foulkes estimate   =   -1874.10751101 Ry
     estimated scf accuracy    <       0.00000090 Ry

     The total energy is the sum of the following terms:

     one-electron contribution =  -13599.89120910 Ry
     hartree contribution      =    6787.19695747 Ry
     xc contribution           =    -472.59835750 Ry
     ewald contribution        =    5411.28715405 Ry
     electric field correction =       0.00000058 Ry
     smearing contrib. (-TS)   =      -0.10205729 Ry

     convergence has been achieved in  18 iterations

 BEEF-vdW xc energy contributions
           1 :   -415.149346177888
           2 :    382.997301189785
           3 :   -326.843211150467
           4 :    259.745449279169
           5 :   -194.945052932787
           6 :    141.769220005035
           7 :   -103.674263387580
           8 :    78.8446598578623
           9 :   -62.5933546952085
          10 :    50.1654057421620
          11 :   -38.6611098299806
          12 :    27.4894213971979
          13 :   -17.5853120007129
          14 :    10.1385974425575
          15 :   -5.60661779837801
          16 :    3.43193117694040
          17 :   -2.42561327330981
          18 :    1.45103593781113
          19 :   2.969026639021877E-002
          20 :   -1.82513686184467
          21 :    3.30943047523738
          22 :   -3.91896938932047
          23 :    3.53982153645177
          24 :   -2.57280630676098
          25 :    1.67684907280750
          26 :   -1.38053891265957
          27 :    1.80661807188619
          28 :   -2.65711446432215
          29 :    3.43546230847204
          30 :   -3.74683482832882
          31 :   -38.0051440789302
          32 :   -28.3260550142559

     Forces acting on atoms (Ry/au):

     negative rho (up, down):  1.113E+00 0.000E+00
     atom    1 type  1   force =     0.00000084    0.01677211   -0.00280459
     atom    2 type  1   force =     0.01452501   -0.00838574   -0.00280383
     atom    3 type  1   force =    -0.01452502   -0.00838678   -0.00280475
     atom    4 type  2   force =    -0.00000057    0.00000022    0.01640750
     atom    5 type  1   force =     0.00000007   -0.00471683   -0.00165943
     atom    6 type  1   force =    -0.00408472    0.00235820   -0.00165942
     atom    7 type  1   force =     0.00408502    0.00235825   -0.00165984
     atom    8 type  2   force =     0.00000012    0.00000009   -0.00200996
     atom    9 type  1   force =    -0.00000088   -0.00017153   -0.00021865
     atom   10 type  1   force =    -0.00014789    0.00008583   -0.00021919
     atom   11 type  1   force =     0.00014777    0.00008648   -0.00021843
     atom   12 type  2   force =     0.00000024   -0.00000030   -0.00034942

     Total force =     0.034873     Total SCF correction =     0.002657

     entering subroutine stress ...

     negative rho (up, down):  1.113E+00 0.000E+00
          total   stress  (Ry/bohr**3)                   (kbar)     P=  -33.12
  -0.00031490  -0.00000000  -0.00000000        -46.32     -0.00     -0.00
  -0.00000000  -0.00031490   0.00000000         -0.00    -46.32      0.00
  -0.00000000   0.00000000  -0.00004570         -0.00      0.00     -6.72

 !ASE

     Writing output data file calc.save

     General routines

     Parallel routines

   This run was terminated on:  18:53:47   1Jan2019

   JOB DONE.
Job  /afs/slac/g/suncat/bin/suncat-tsmpirun -x LD_LIBRARY_PATH -wdir /scratch/qe649128_lWQip pw.x -in pw.inp

TID   HOST_NAME   COMMAND_LINE            STATUS            TERMINATION_TIME
00000 suncat0058 pw.x -in pw.inp   Done                     01/01/2019 18:53:47
00001 suncat0058 pw.x -in pw.inp   Done                     01/01/2019 18:53:47
00002 suncat0058 pw.x -in pw.inp   Done                     01/01/2019 18:53:47
00003 suncat0058 pw.x -in pw.inp   Done                     01/01/2019 18:53:47
00004 suncat0058 pw.x -in pw.inp   Done                     01/01/2019 18:53:47
00005 suncat0058 pw.x -in pw.inp   Done                     01/01/2019 18:53:47
00006 suncat0058 pw.x -in pw.inp   Done                     01/01/2019 18:53:47
00007 suncat0058 pw.x -in pw.inp   Done                     01/01/2019 18:53:47
00008 suncat0056 pw.x -in pw.inp   Done                     01/01/2019 18:53:47
00009 suncat0056 pw.x -in pw.inp   Done                     01/01/2019 18:53:47
00010 suncat0056 pw.x -in pw.inp   Done                     01/01/2019 18:53:47
00011 suncat0056 pw.x -in pw.inp   Done                     01/01/2019 18:53:47
00012 suncat0056 pw.x -in pw.inp   Done                     01/01/2019 18:53:47
00013 suncat0056 pw.x -in pw.inp   Done                     01/01/2019 18:53:47
00014 suncat0056 pw.x -in pw.inp   Done                     01/01/2019 18:53:47
00015 suncat0056 pw.x -in pw.inp   Done                     01/01/2019 18:53:47
00016 suncat0054 pw.x -in pw.inp   Done                     01/01/2019 18:53:47
00017 suncat0054 pw.x -in pw.inp   Done                     01/01/2019 18:53:47
00018 suncat0054 pw.x -in pw.inp   Done                     01/01/2019 18:53:47
00019 suncat0054 pw.x -in pw.inp   Done                     01/01/2019 18:53:47
00020 suncat0054 pw.x -in pw.inp   Done                     01/01/2019 18:53:47
00021 suncat0054 pw.x -in pw.inp   Done                     01/01/2019 18:53:47
00022 suncat0054 pw.x -in pw.inp   Done                     01/01/2019 18:53:47
00023 suncat0054 pw.x -in pw.inp   Done                     01/01/2019 18:53:47
00024 suncat0052 pw.x -in pw.inp   Done                     01/01/2019 18:53:47
00025 suncat0052 pw.x -in pw.inp   Done                     01/01/2019 18:53:47
00026 suncat0052 pw.x -in pw.inp   Done                     01/01/2019 18:53:47
00027 suncat0052 pw.x -in pw.inp   Done                     01/01/2019 18:53:47
00028 suncat0052 pw.x -in pw.inp   Done                     01/01/2019 18:53:47
00029 suncat0052 pw.x -in pw.inp   Done                     01/01/2019 18:53:47
00030 suncat0052 pw.x -in pw.inp   Done                     01/01/2019 18:53:47
00031 suncat0052 pw.x -in pw.inp   Done                     01/01/2019 18:53:47
00032 suncat0048 pw.x -in pw.inp   Done                     01/01/2019 18:53:47
00033 suncat0048 pw.x -in pw.inp   Done                     01/01/2019 18:53:47
00034 suncat0048 pw.x -in pw.inp   Done                     01/01/2019 18:53:47
00035 suncat0048 pw.x -in pw.inp   Done                     01/01/2019 18:53:47
00036 suncat0048 pw.x -in pw.inp   Done                     01/01/2019 18:53:47
00037 suncat0048 pw.x -in pw.inp   Done                     01/01/2019 18:53:47
00038 suncat0048 pw.x -in pw.inp   Done                     01/01/2019 18:53:47
00039 suncat0048 pw.x -in pw.inp   Done                     01/01/2019 18:53:47
00040 suncat0047 pw.x -in pw.inp   Done                     01/01/2019 18:53:47
00041 suncat0047 pw.x -in pw.inp   Done                     01/01/2019 18:53:47
00042 suncat0047 pw.x -in pw.inp   Done                     01/01/2019 18:53:47
00043 suncat0047 pw.x -in pw.inp   Done                     01/01/2019 18:53:47
00044 suncat0047 pw.x -in pw.inp   Done                     01/01/2019 18:53:47
00045 suncat0047 pw.x -in pw.inp   Done                     01/01/2019 18:53:47
00046 suncat0047 pw.x -in pw.inp   Done                     01/01/2019 18:53:47
00047 suncat0047 pw.x -in pw.inp   Done                     01/01/2019 18:53:47
00048 suncat0121 pw.x -in pw.inp   Done                     01/01/2019 18:53:47
00049 suncat0121 pw.x -in pw.inp   Done                     01/01/2019 18:53:47
00050 suncat0121 pw.x -in pw.inp   Done                     01/01/2019 18:53:47
00051 suncat0121 pw.x -in pw.inp   Done                     01/01/2019 18:53:47
00052 suncat0121 pw.x -in pw.inp   Done                     01/01/2019 18:53:47
00053 suncat0121 pw.x -in pw.inp   Done                     01/01/2019 18:53:47
00054 suncat0121 pw.x -in pw.inp   Done                     01/01/2019 18:53:47
00055 suncat0121 pw.x -in pw.inp   Done                     01/01/2019 18:53:47
00056 suncat0115 pw.x -in pw.inp   Done                     01/01/2019 18:53:47
00057 suncat0115 pw.x -in pw.inp   Done                     01/01/2019 18:53:47
00058 suncat0115 pw.x -in pw.inp   Done                     01/01/2019 18:53:47
00059 suncat0115 pw.x -in pw.inp   Done                     01/01/2019 18:53:47
00060 suncat0115 pw.x -in pw.inp   Done                     01/01/2019 18:53:47
00061 suncat0115 pw.x -in pw.inp   Done                     01/01/2019 18:53:47
00062 suncat0115 pw.x -in pw.inp   Done                     01/01/2019 18:53:47
00063 suncat0115 pw.x -in pw.inp   Done                     01/01/2019 18:53:47