     Program PWSCF v.5.1rc2 (svn rev. 11289) starts on  1Jan2019 at  4:25:58

     Current dimensions of program PWSCF are:
     Max number of different atomic species (ntypx) = 10
     Max number of k-points (npk) =  40000
     Max angular momentum in pseudopotentials (lmaxx) =  3
     Presently stress not available with electric field

     IMPORTANT: XC functional enforced from input :
     Exchange-correlation      = BEEF-VDW ( 1  4 27 13 2)
     Any further DFT definition will be discarded
     Please, verify this is what you really want

     Subspace diagonalization in iterative solution of the eigenvalue problem:
     a serial algorithm will be used

     bravais-lattice index     =            0
     lattice parameter (alat)  =       1.8897  a.u.
     unit-cell volume          =    4251.1069 (a.u.)^3
     number of atoms/cell      =           12
     number of atomic types    =            2
     number of electrons       =       192.00
     number of Kohn-Sham states=          126
     kinetic-energy cutoff     =      36.7493  Ry
     charge density cutoff     =     367.4932  Ry
     convergence threshold     =      1.0E-06
     mixing beta               =       0.1000
     number of iterations used =           10  plain     mixing
     Exchange-correlation      = BEEF-VDW ( 1  4 27 13 2)
     nstep                     =           50

     celldm(1)=   1.889726  celldm(2)=   0.000000  celldm(3)=   0.000000
     celldm(4)=   0.000000  celldm(5)=   0.000000  celldm(6)=   0.000000

     crystal axes: (cart. coord. in units of alat)
               a(1) = (   5.454054   0.000000   0.000000 )
               a(2) = (  -2.727027   4.723349   0.000000 )
               a(3) = (   0.000000   0.000000  24.453216 )

     reciprocal axes: (cart. coord. in units 2 pi/alat)
               b(1) = (  0.183350  0.105857  0.000000 )
               b(2) = (  0.000000  0.211714  0.000000 )
               b(3) = (  0.000000  0.000000  0.040894 )

     PseudoPot. # 1 for Ru read from file:
     /afs/slac.stanford.edu/u/if/mamunm/psp/gbrv1.5pbe/Ru.UPF
     MD5 check sum: 7158a806dd851261a58e6920c40ebe78
     Pseudo is Ultrasoft + core correction, Zval = 16.0
     Generated by new atomic code, or converted to UPF format
     Using radial grid of  967 points,  6 beta functions with:
                l(1) =   0
                l(2) =   0
                l(3) =   1
                l(4) =   1
                l(5) =   2
                l(6) =   2
     Q(r) pseudized with  8 coefficients,  rinner =    1.300   1.300   1.300
                                                       1.300   1.300

     PseudoPot. # 2 for Pt read from file:
     /afs/slac.stanford.edu/u/if/mamunm/psp/gbrv1.5pbe/Pt.UPF
     MD5 check sum: f09d6de1a584b5a045c4fc126da2d0c4
     Pseudo is Ultrasoft + core correction, Zval = 16.0
     Generated by new atomic code, or converted to UPF format
     Using radial grid of  985 points,  6 beta functions with:
                l(1) =   0
                l(2) =   0
                l(3) =   1
                l(4) =   1
                l(5) =   2
                l(6) =   2
     Q(r) pseudized with  8 coefficients,  rinner =    1.300   1.300   1.300
                                                       1.300   1.300

     vdW kernel table read from file vdW_kernel_table
     MD5 check sum: 095c7af220d748ca6e76c0b4c6cfb241

     atomic species   valence    mass     pseudopotential
        Ru1           16.00   101.07000     Ru( 1.00)
        Pt1           16.00   195.08400     Pt( 1.00)

     No symmetry found

   Cartesian axes

     site n.     atom                  positions (alat units)
         1           Ru1 tau(   1) = (   0.0000000   0.0000000  10.0000000  )
         2           Ru1 tau(   2) = (  -1.3635134   2.3616745  10.0000000  )
         3           Ru1 tau(   3) = (   1.3635134   2.3616745  10.0000000  )
         4           Pt1 tau(   4) = (   2.7270268   0.0000000  10.0000000  )
         5           Ru1 tau(   5) = (   2.7270268   1.5744497  12.2266081  )
         6           Ru1 tau(   6) = (   1.3635134   3.9361242  12.2266081  )
         7           Ru1 tau(   7) = (  -1.3635134   3.9361242  12.2266081  )
         8           Pt1 tau(   8) = (   0.0000000   1.5744497  12.2266081  )
         9           Ru1 tau(   9) = (  -0.0000000   3.1488993  14.4532161  )
        10           Ru1 tau(  10) = (   1.3635134   0.7872248  14.4532161  )
        11           Ru1 tau(  11) = (   4.0905402   0.7872248  14.4532161  )
        12           Pt1 tau(  12) = (   2.7270268   3.1488993  14.4532161  )

     number of k points=    20  Fermi-Dirac smearing, width (Ry)=  0.0110
                       cart. coord. in units 2pi/alat
        k(    1) = (   0.0000000   0.0000000   0.0000000), wk =   0.0555556
        k(    2) = (   0.0000000   0.0352857   0.0000000), wk =   0.1111111
        k(    3) = (   0.0000000   0.0705714   0.0000000), wk =   0.1111111
        k(    4) = (   0.0000000  -0.1058571   0.0000000), wk =   0.0555556
        k(    5) = (   0.0305583   0.0176428   0.0000000), wk =   0.1111111
        k(    6) = (   0.0305583   0.0529285   0.0000000), wk =   0.1111111
        k(    7) = (   0.0305583   0.0882142   0.0000000), wk =   0.1111111
        k(    8) = (   0.0305583  -0.0882142   0.0000000), wk =   0.1111111
        k(    9) = (   0.0305583  -0.0529285   0.0000000), wk =   0.1111111
        k(   10) = (   0.0305583  -0.0176428   0.0000000), wk =   0.1111111
        k(   11) = (   0.0611166   0.0352857   0.0000000), wk =   0.1111111
        k(   12) = (   0.0611166   0.0705714   0.0000000), wk =   0.1111111
        k(   13) = (   0.0611166   0.1058571   0.0000000), wk =   0.1111111
        k(   14) = (   0.0611166  -0.0705714   0.0000000), wk =   0.1111111
        k(   15) = (   0.0611166  -0.0352857   0.0000000), wk =   0.1111111
        k(   16) = (   0.0611166  -0.0000000   0.0000000), wk =   0.1111111
        k(   17) = (  -0.0916749  -0.0529285   0.0000000), wk =   0.0555556
        k(   18) = (  -0.0916749  -0.0176428   0.0000000), wk =   0.1111111
        k(   19) = (  -0.0916749   0.0176428   0.0000000), wk =   0.1111111
        k(   20) = (  -0.0916749  -0.1587856   0.0000000), wk =   0.0555556

     Largest allocated arrays     est. size (Mb)     dimensions
     Largest temporary arrays     est. size (Mb)     dimensions

     Initial potential from superposition of free atoms
     Check: negative starting charge=   -1.209599

     starting charge  181.49983, renormalised to  192.00000

     negative rho (up, down):  1.280E+00 0.000E+00

     *
     * You are using vdW-DF for exchange-correlation in this calculation.
     * Please cite the following three references that made this development
     * possible:
     *
     *   M. Dion, H. Rydberg, E. Schroder, D. C. Langreth, and
     *   B. I. Lundqvist, Phys. Rev. Lett. 92, 246401 (2004).
     *
     *   T. Thonhauser, V. R. Cooper, S. Li, A. Puzder, P. Hyldgaard, and
     *   D. C. Langreth, Phys. Rev. B 76, 125112 (2007).
     *
     *   G. Roman-Perez and J. M. Soler, Phys. Rev. Lett. 103, 096102 (2009).
     *
     *
     * If you are using vdW-DF2, please also cite:
     *
     *   K. Lee, E. D. Murray, L. Kong, B. I. Lundqvist, and
     *   D. C. Langreth, Phys. Rev. B 82, 081101(R) (2010).
     *
     *
     * If you are calculating the stress with vdW-DF, please also cite:
     *
     *   R. Sabatini, E. Kucukbenli, B. Kolb, T. Thonhauser, and
     *   S. de Gironcoli, J. Phys.: Condens. Matter 24, 424209 (2012).
     *

     Carrying out vdW-DF run using the following parameters:

     Nqs =      20    Nr_points =    1024   r_max =   100.000
     q_mesh =
               0.00001000     0.04494208     0.09755937     0.15916263
               0.23128650     0.31572767     0.41458969     0.53033537
               0.66584808     0.82450364     1.01025438     1.22772762
               1.48234092     1.78043706     2.12944203     2.53805004
               3.01644009     3.57652955     4.23227104     5.00000000

     Gradients computed in reciprocal space

     Adding external electric field

     Computed dipole along edir(3) :
        Dipole               -0.0000 Ry au,         -0.0000 Debye
        Dipole field         -0.0000 Ry au

        Potential amp.        0.0000 Ry
        Total length         45.0546 bohr

     Starting wfc are  153 randomized atomic wfcs

     Self-consistent Calculation

     iteration #  1     ecut=    36.75 Ry     beta=0.10
     Davidson diagonalization with overlap
     ethr =  1.00E-02,  avg # of iterations =  8.4

[...]

     total energy              =   -2392.31104860 Ry
     Harris-Foulkes estimate   =   -2399.19048667 Ry
     estimated scf accuracy    <      40.54764599 Ry

[...]

     End of self-consistent calculation

          k = 0.0000 0.0000 0.0000 ( 15893 PWs)   bands (ev):

   -70.9994 -70.9277 -70.9276 -70.5508 -70.5482 -70.4808 -70.4807 -70.4802
   -70.4801 -51.3392 -51.3392 -51.3077 -50.8523 -50.8523 -50.8518 -50.8518
   -50.7075 -50.7053 -41.2480 -41.0612 -41.0611 -41.0578 -40.9608 -40.9607
   -40.8418 -40.8100 -40.7540 -40.6459 -40.6459 -40.6161 -40.6161 -40.5530
   -40.5530 -40.4558 -40.3846 -40.3846 -40.3687 -40.3372 -40.3372 -40.3201
   -40.3084 -40.2357 -40.2356 -40.2330 -40.2329  -5.4124  -3.9396  -3.8907
    -3.8157  -3.8157  -3.4586  -3.4586  -3.4420  -3.2796  -3.1264  -3.1264
    -3.0580  -2.8720  -2.8720  -2.4128  -1.7690  -1.7690  -1.3441  -1.3440
    -1.1850  -0.9501  -0.7824  -0.7043  -0.4763  -0.4763  -0.1695  -0.1695
    -0.1179  -0.1179   0.1080   0.1080   0.2985   0.3965   0.8625   0.8625
     1.2872   1.2872   1.4660   1.4769   1.4770   1.7709   1.7709   1.8712
     1.9065   2.4347   2.4348   2.4927   2.8162   2.8162   2.9739   2.9740
     3.1440   3.1673   3.1674   3.2365   3.2685   3.2686   3.6388   3.6388
     3.7335   3.7474   3.7474   4.1257   4.1373   4.1373   4.1819   4.4298
     6.1995   6.2197   6.2197   6.2323   6.2790   6.2791   6.7351   6.9613
     7.3927   8.3000   8.9602   9.1261   9.3847  10.1568

[...]

          k =-0.0917-0.0529 0.0000 ( 16024 PWs)   bands (ev):

[...]

     the Fermi energy is     2.2895 ev

!    total energy              =   -2392.93618179 Ry
     Harris-Foulkes estimate   =   -2392.93618588 Ry
     estimated scf accuracy    <       0.00000056 Ry

     The total energy is the sum of the following terms:

     one-electron contribution =  -21451.82120903 Ry
     hartree contribution      =   10733.82501641 Ry
     xc contribution           =    -417.12624581 Ry
     ewald contribution        =    8742.28070396 Ry
     electric field correction =       0.00000000 Ry
     smearing contrib. (-TS)   =      -0.09444732 Ry

     convergence has been achieved in  19 iterations

 BEEF-vdW xc energy contributions
           1 :   -365.916560416317
           2 :    338.024724390645
           3 :   -288.994174968662
           4 :    229.791749427798
           5 :   -171.927054058277
           6 :    124.120028229892
           7 :   -90.3906681121243
           8 :    69.9787714791094
           9 :   -58.8367450491137
          10 :    51.8968603898340
          11 :   -45.1579334990011
[...]
     MD5 check sum: 7158a806dd851261a58e6920c40ebe78
     Pseudo is Ultrasoft + core correction, Zval = 16.0
     Generated by new atomic code, or converted to UPF format
     Using radial grid of  967 points,  6 beta functions with:
                l(1) =   0
                l(2) =   0
                l(3) =   1
                l(4) =   1
                l(5) =   2
                l(6) =   2
     Q(r) pseudized with  8 coefficients,  rinner =    1.300   1.300   1.300
                                                       1.300   1.300

     PseudoPot. # 2 for Pt read from file:
     /afs/slac.stanford.edu/u/if/mamunm/psp/gbrv1.5pbe/Pt.UPF
     MD5 check sum: f09d6de1a584b5a045c4fc126da2d0c4
     Pseudo is Ultrasoft + core correction, Zval = 16.0
     Generated by new atomic code, or converted to UPF format
     Using radial grid of  985 points,  6 beta functions with:
                l(1) =   0
                l(2) =   0
                l(3) =   1
                l(4) =   1
                l(5) =   2
                l(6) =   2
     Q(r) pseudized with  8 coefficients,  rinner =    1.300   1.300   1.300
                                                       1.300   1.300

     vdW kernel table read from file vdW_kernel_table
     MD5 check sum: 095c7af220d748ca6e76c0b4c6cfb241

     atomic species   valence    mass     pseudopotential
        Ru1           16.00   101.07000     Ru( 1.00)
        Pt1           16.00   195.08400     Pt( 1.00)

     No symmetry found

   Cartesian axes

     site n.     atom                  positions (alat units)
         1           Ru1 tau(   1) = (   0.0000000   0.0000000  10.0000000  )
         2           Ru1 tau(   2) = (  -1.3635134   2.3616745  10.0000000  )
         3           Ru1 tau(   3) = (   1.3635134   2.3616745  10.0000000  )
         4           Pt1 tau(   4) = (   2.7270268   0.0000000  10.0000000  )
         5           Ru1 tau(   5) = (   2.7270268   1.5744497  12.2266081  )
         6           Ru1 tau(   6) = (   1.3635134   3.9361242  12.2266081  )
         7           Ru1 tau(   7) = (  -1.3635134   3.9361242  12.2266081  )
         8           Pt1 tau(   8) = (   0.0000000   1.5744497  12.2266081  )
         9           Ru1 tau(   9) = (  -0.0000226   3.2218567  14.3755294  )
        10           Ru1 tau(  10) = (   1.4266930   0.7507276  14.3755184  )
        11           Ru1 tau(  11) = (   4.0273412   0.7507425  14.3755276  )
        12           Pt1 tau(  12) = (   2.7270163   3.1488943  14.4024109  )

     number of k points=    20  Fermi-Dirac smearing, width (Ry)=  0.0110
                       cart. coord. in units 2pi/alat
        k(    1) = (   0.0000000   0.0000000   0.0000000), wk =   0.0555556
        k(    2) = (   0.0000000   0.0352857   0.0000000), wk =   0.1111111
        k(    3) = (   0.0000000   0.0705714   0.0000000), wk =   0.1111111
        k(    4) = (   0.0000000  -0.1058571   0.0000000), wk =   0.0555556
        k(    5) = (   0.0305583   0.0176428   0.0000000), wk =   0.1111111
        k(    6) = (   0.0305583   0.0529285   0.0000000), wk =   0.1111111
        k(    7) = (   0.0305583   0.0882142   0.0000000), wk =   0.1111111
        k(    8) = (   0.0305583  -0.0882142   0.0000000), wk =   0.1111111
        k(    9) = (   0.0305583  -0.0529285   0.0000000), wk =   0.1111111
        k(   10) = (   0.0305583  -0.0176428   0.0000000), wk =   0.1111111
        k(   11) = (   0.0611166   0.0352857   0.0000000), wk =   0.1111111
        k(   12) = (   0.0611166   0.0705714   0.0000000), wk =   0.1111111
        k(   13) = (   0.0611166   0.1058571   0.0000000), wk =   0.1111111
        k(   14) = (   0.0611166  -0.0705714   0.0000000), wk =   0.1111111
        k(   15) = (   0.0611166  -0.0352857   0.0000000), wk =   0.1111111
        k(   16) = (   0.0611166  -0.0000000   0.0000000), wk =   0.1111111
        k(   17) = (  -0.0916749  -0.0529285   0.0000000), wk =   0.0555556
        k(   18) = (  -0.0916749  -0.0176428   0.0000000), wk =   0.1111111
        k(   19) = (  -0.0916749   0.0176428   0.0000000), wk =   0.1111111
        k(   20) = (  -0.0916749  -0.1587856   0.0000000), wk =   0.0555556

     Largest allocated arrays     est. size (Mb)     dimensions
     Largest temporary arrays     est. size (Mb)     dimensions

     Initial potential from superposition of free atoms
     Check: negative starting charge=   -1.209130

     starting charge  181.49983, renormalised to  192.00000

[...]

     *
     * You are using vdW-DF for exchange-correlation in this calculation.
     * Please cite the following three references that made this development
     * possible:
     *
     *   M. Dion, H. Rydberg, E. Schroder, D. C. Langreth, and
     *   B. I. Lundqvist, Phys. Rev. Lett. 92, 246401 (2004).
     *
     *   T. Thonhauser, V. R. Cooper, S. Li, A. Puzder, P. Hyldgaard, and
     *   D. C. Langreth, Phys. Rev. B 76, 125112 (2007).
     *
     *   G. Roman-Perez and J. M. Soler, Phys. Rev. Lett. 103, 096102 (2009).
     *
     *
     * If you are using vdW-DF2, please also cite:
     *
     *   K. Lee, E. D. Murray, L. Kong, B. I. Lundqvist, and
     *   D. C. Langreth, Phys. Rev. B 82, 081101(R) (2010).
     *
     *
     * If you are calculating the stress with vdW-DF, please also cite:
     *
     *   R. Sabatini, E. Kucukbenli, B. Kolb, T. Thonhauser, and
     *   S. de Gironcoli, J. Phys.: Condens. Matter 24, 424209 (2012).
     *

     Carrying out vdW-DF run using the following parameters:

     Nqs =      20    Nr_points =    1024   r_max =   100.000
     q_mesh =
               0.00001000     0.04494208     0.09755937     0.15916263
               0.23128650     0.31572767     0.41458969     0.53033537
               0.66584808     0.82450364     1.01025438     1.22772762
               1.48234092     1.78043706     2.12944203     2.53805004
               3.01644009     3.57652955     4.23227104     5.00000000

     Gradients computed in reciprocal space

[...]

     Starting wfc are  153 randomized atomic wfcs

     Self-consistent Calculation

[...]

     total energy              =   -2392.94718426 Ry
     Harris-Foulkes estimate   =   -2392.94718451 Ry
     estimated scf accuracy    <       0.00000277 Ry

     iteration # 18     ecut=    36.75 Ry     beta=0.10
     Davidson diagonalization with overlap
     ethr =  1.44E-09,  avg # of iterations =  2.4

[...]

     negative rho (up, down):  1.210E+00 0.000E+00

     Adding external electric field

     Computed dipole along edir(3) :
        Dipole                0.0038 Ry au,          0.0097 Debye
        Dipole field          0.0000 Ry au

        Potential amp.       -0.0010 Ry
        Total length         45.0546 bohr

     End of self-consistent calculation

[...]

          k = 0.0611-0.0000 0.0000 ( 15998 PWs)   bands (ev):

[...]

          k =-0.0917-0.1588 0.0000 ( 16024 PWs)   bands (ev):

   -71.0257 -71.0013 -70.9769 -70.6208 -70.5743 -70.5573 -70.4853 -70.4620
   -70.4390 -51.3447 -51.3427 -51.3118 -50.9082 -50.9062 -50.8249 -50.8230
   -50.7777 -50.6803 -41.2022 -41.1106 -41.0956 -41.0510 -40.9879 -40.9649
   -40.9331 -40.9325 -40.8202 -40.7097 -40.6737 -40.6388 -40.5855 -40.4820
   -40.4671 -40.4666 -40.4623 -40.4472 -40.4364 -40.4234 -40.4142 -40.3905
   -40.3484 -40.3204 -40.3171 -40.3069 -40.2189  -4.1095  -3.7032  -3.0675
    -3.0234  -2.9758  -2.8992  -2.6830  -2.6165  -2.5893  -2.5302  -2.3258
    -2.2637  -2.1039  -2.0242  -2.0061  -1.8056  -1.5687  -1.5494  -1.5155
    -1.3280  -0.9854  -0.9719  -0.8479  -0.8238  -0.7803  -0.6913  -0.5544
    -0.3332  -0.2866  -0.2493   0.0470   0.0538   0.1274   0.2878   0.3294
     0.3301   0.4105   0.4206   0.5748   0.6568   0.7930   1.0346   1.0517
     1.0710   1.3027   1.4233   1.4301   1.5468   1.6217   1.8723   1.8982
     1.9416   2.0804   2.2426   2.3508   2.3843   2.4468   2.6064   2.8650
     3.0081   3.2007   3.2315   3.3706   3.7897   4.8049   4.9173   5.5858
     6.0732   6.3939   6.6758   7.0576   7.2018   8.2513   8.3820   8.3912
     8.4187   8.9767   9.0082   9.0365   9.0403  10.1840

     the Fermi energy is     2.3068 ev

!    total energy              =   -2392.94718154 Ry
     Harris-Foulkes estimate   =   -2392.94718465 Ry
     estimated scf accuracy    <       0.00000088 Ry

     The total energy is the sum of the following terms:

     one-electron contribution =  -21671.32101136 Ry
     hartree contribution      =   10843.38239135 Ry
     xc contribution           =    -417.28297965 Ry
     ewald contribution        =    8852.36535819 Ry
     electric field correction =       0.00000004 Ry
     smearing contrib. (-TS)   =      -0.09094011 Ry

     convergence has been achieved in  18 iterations

 BEEF-vdW xc energy contributions
           1 :   -366.081608343622
           2 :    338.264892142831
           3 :   -289.336642714905
           4 :    230.193618152884
           5 :   -172.291719105099
           6 :    124.344083992964
           7 :   -90.4174324688973
           8 :    69.8308597627129
           9 :   -58.6105137831867
          10 :    51.7203420294684
          11 :   -45.1318337391551
          12 :    37.0023707948478
          13 :   -27.7156413503631
          14 :    19.0153512791954
          15 :   -12.7759931803419
          16 :    9.98138169100008
          17 :   -10.2978909623824
          18 :    12.3182778110874
          19 :   -14.2666517346212
          20 :    14.7828664620884
          21 :   -13.4264706013403
          22 :    10.7089810525109
          23 :   -7.70473787827279
          24 :    5.47079881481920
          25 :   -4.56433690396079
          26 :    4.86082588082195
          27 :   -5.71567899773095
          28 :    6.34491511542876
          29 :   -6.21607380072879
          30 :    5.26164627563685
          31 :   -34.5203487753525
          32 :   -25.9748760176362

     Forces acting on atoms (Ry/au):

     negative rho (up, down):  1.210E+00 0.000E+00
     atom    1 type  1   force =     0.00000829   -0.02116518    0.01757363
     atom    2 type  1   force =    -0.01832326    0.01058202    0.01759331
     atom    3 type  1   force =     0.01832903    0.01057593    0.01758717
     atom    4 type  2   force =     0.00000846   -0.00000486    0.00883440
     atom    5 type  1   force =    -0.00000973    0.00227601   -0.01702091
     atom    6 type  1   force =     0.00200036   -0.00114007   -0.01705434
     atom    7 type  1   force =    -0.00199566   -0.00112626   -0.01703959
     atom    8 type  2   force =    -0.00000554    0.00001002   -0.00965987
     atom    9 type  1   force =    -0.00000092    0.00042270   -0.00021317
     atom   10 type  1   force =     0.00035620   -0.00021021   -0.00019949
     atom   11 type  1   force =    -0.00036328   -0.00021288   -0.00020465
     atom   12 type  2   force =    -0.00000397   -0.00000723   -0.00019650

     Total force =     0.057705     Total SCF correction =     0.005407

     entering subroutine stress ...

     negative rho (up, down):  1.210E+00 0.000E+00
          total   stress  (Ry/bohr**3)                   (kbar)     P=  -18.36
  -0.00015283  -0.00000001   0.00000001        -22.48     -0.00      0.00
  -0.00000001  -0.00015282  -0.00000000         -0.00    -22.48     -0.00
   0.00000001  -0.00000000  -0.00006871          0.00     -0.00    -10.11

 !ASE

     Writing output data file calc.save

     General routines

     Parallel routines

   This run was terminated on:   5:14:20   1Jan2019

   JOB DONE.
Job  /afs/slac/g/suncat/bin/suncat-tsmpirun -x LD_LIBRARY_PATH -wdir /scratch/qe648942_HIq5u pw.x -in pw.inp

TID   HOST_NAME   COMMAND_LINE            STATUS            TERMINATION_TIME
00000 suncat0074 pw.x -in pw.inp   Done                     01/01/2019 05:14:20
00001 suncat0074 pw.x -in pw.inp   Done                     01/01/2019 05:14:20
00002 suncat0074 pw.x -in pw.inp   Done                     01/01/2019 05:14:20
00003 suncat0074 pw.x -in pw.inp   Done                     01/01/2019 05:14:20
00004 suncat0074 pw.x -in pw.inp   Done                     01/01/2019 05:14:20
00005 suncat0074 pw.x -in pw.inp   Done                     01/01/2019 05:14:20
00006 suncat0074 pw.x -in pw.inp   Done                     01/01/2019 05:14:20
00007 suncat0074 pw.x -in pw.inp   Done                     01/01/2019 05:14:20
00008 suncat0073 pw.x -in pw.inp   Done                     01/01/2019 05:14:20
00009 suncat0073 pw.x -in pw.inp   Done                     01/01/2019 05:14:20
00010 suncat0073 pw.x -in pw.inp   Done                     01/01/2019 05:14:20
00011 suncat0073 pw.x -in pw.inp   Done                     01/01/2019 05:14:20
00012 suncat0073 pw.x -in pw.inp   Done                     01/01/2019 05:14:20
00013 suncat0073 pw.x -in pw.inp   Done                     01/01/2019 05:14:20
00014 suncat0073 pw.x -in pw.inp   Done                     01/01/2019 05:14:20
00015 suncat0073 pw.x -in pw.inp   Done                     01/01/2019 05:14:20
00016 suncat0068 pw.x -in pw.inp   Done                     01/01/2019 05:14:20
00017 suncat0068 pw.x -in pw.inp   Done                     01/01/2019 05:14:20
00018 suncat0068 pw.x -in pw.inp   Done                     01/01/2019 05:14:20
00019 suncat0068 pw.x -in pw.inp   Done                     01/01/2019 05:14:20
00020 suncat0068 pw.x -in pw.inp   Done                     01/01/2019 05:14:20
00021 suncat0068 pw.x -in pw.inp   Done                     01/01/2019 05:14:20
00022 suncat0068 pw.x -in pw.inp   Done                     01/01/2019 05:14:20
00023 suncat0068 pw.x -in pw.inp   Done                     01/01/2019 05:14:20
00024 suncat0059 pw.x -in pw.inp   Done                     01/01/2019 05:14:20
00025 suncat0059 pw.x -in pw.inp   Done                     01/01/2019 05:14:20
00026 suncat0059 pw.x -in pw.inp   Done                     01/01/2019 05:14:20
00027 suncat0059 pw.x -in pw.inp   Done                     01/01/2019 05:14:20
00028 suncat0059 pw.x -in pw.inp   Done                     01/01/2019 05:14:20
00029 suncat0059 pw.x -in pw.inp   Done                     01/01/2019 05:14:20
00030 suncat0059 pw.x -in pw.inp   Done                     01/01/2019 05:14:20
00031 suncat0059 pw.x -in pw.inp   Done                     01/01/2019 05:14:20
00032 suncat0056 pw.x -in pw.inp   Done                     01/01/2019 05:14:20
00033 suncat0056 pw.x -in pw.inp   Done                     01/01/2019 05:14:20
00034 suncat0056 pw.x -in pw.inp   Done                     01/01/2019 05:14:20
00035 suncat0056 pw.x -in pw.inp   Done                     01/01/2019 05:14:20
00036 suncat0056 pw.x -in pw.inp   Done                     01/01/2019 05:14:20
00037 suncat0056 pw.x -in pw.inp   Done                     01/01/2019 05:14:20
00038 suncat0056 pw.x -in pw.inp   Done                     01/01/2019 05:14:20
00039 suncat0056 pw.x -in pw.inp   Done                     01/01/2019 05:14:20
00040 suncat0052 pw.x -in pw.inp   Done                     01/01/2019 05:14:20
00041 suncat0052 pw.x -in pw.inp   Done                     01/01/2019 05:14:20
00042 suncat0052 pw.x -in pw.inp   Done                     01/01/2019 05:14:20
00043 suncat0052 pw.x -in pw.inp   Done                     01/01/2019 05:14:20
00044 suncat0052 pw.x -in pw.inp   Done                     01/01/2019 05:14:20
00045 suncat0052 pw.x -in pw.inp   Done                     01/01/2019 05:14:20
00046 suncat0052 pw.x -in pw.inp   Done                     01/01/2019 05:14:20
00047 suncat0052 pw.x -in pw.inp   Done                     01/01/2019 05:14:20
00048 suncat0132 pw.x -in pw.inp   Done                     01/01/2019 05:14:20
00049 suncat0132 pw.x -in pw.inp   Done                     01/01/2019 05:14:20
00050 suncat0132 pw.x -in pw.inp   Done                     01/01/2019 05:14:20
00051 suncat0132 pw.x -in pw.inp   Done                     01/01/2019 05:14:20
00052 suncat0132 pw.x -in pw.inp   Done                     01/01/2019 05:14:20
00053 suncat0132 pw.x -in pw.inp   Done                     01/01/2019 05:14:20
00054 suncat0132 pw.x -in pw.inp   Done                     01/01/2019 05:14:20
00055 suncat0132 pw.x -in pw.inp   Done                     01/01/2019 05:14:20
00056 suncat0131 pw.x -in pw.inp   Done                     01/01/2019 05:14:20
00057 suncat0131 pw.x -in pw.inp   Done                     01/01/2019 05:14:20
00058 suncat0131 pw.x -in pw.inp   Done                     01/01/2019 05:14:20
00059 suncat0131 pw.x -in pw.inp   Done                     01/01/2019 05:14:20
00060 suncat0131 pw.x -in pw.inp   Done                     01/01/2019 05:14:20
00061 suncat0131 pw.x -in pw.inp   Done                     01/01/2019 05:14:20
00062 suncat0131 pw.x -in pw.inp   Done                     01/01/2019 05:14:20
00063 suncat0131 pw.x -in pw.inp   Done                     01/01/2019 05:14:20