     Program PWSCF v.5.1rc2 (svn rev. 11289) starts on 31Dec2018 at 21:54:22

     Current dimensions of program PWSCF are:
     Max number of different atomic species (ntypx) = 10
     Max number of k-points (npk) =  40000
     Max angular momentum in pseudopotentials (lmaxx) =  3
     Presently stress not available with electric field

     IMPORTANT: XC functional enforced from input :
     Exchange-correlation      = BEEF-VDW ( 1  4 27 13 2)
     Any further DFT definition will be discarded
     Please, verify this is what you really want

     Subspace diagonalization in iterative solution of the eigenvalue problem:
     a serial algorithm will be used

     bravais-lattice index     =            0
     lattice parameter (alat)  =       1.8897  a.u.
     unit-cell volume          =    4161.6407 (a.u.)^3
     number of atoms/cell      =           12
     number of atomic types    =            2
     number of electrons       =       192.00
     number of Kohn-Sham states=          126
     kinetic-energy cutoff     =      36.7493  Ry
     charge density cutoff     =     367.4932  Ry
     convergence threshold     =      1.0E-06
     mixing beta               =       0.1000
     number of iterations used =           10  plain     mixing
     Exchange-correlation      = BEEF-VDW ( 1  4 27 13 2)
     nstep                     =           50

     celldm(1)=   1.889726  celldm(2)=   0.000000  celldm(3)=   0.000000
     celldm(4)=   0.000000  celldm(5)=   0.000000  celldm(6)=   0.000000

     crystal axes: (cart. coord. in units of alat)
               a(1) = (   5.401131   0.000000   0.000000 )
               a(2) = (  -2.700566   4.677517   0.000000 )
               a(3) = (   0.000000   0.000000  24.410005 )

     reciprocal axes: (cart. coord. in units 2 pi/alat)
               b(1) = (  0.185146  0.106894  0.000000 )
               b(2) = (  0.000000  0.213789  0.000000 )
               b(3) = (  0.000000  0.000000  0.040967 )

     PseudoPot. # 1 for Rh read from file:
     /afs/slac.stanford.edu/u/if/mamunm/psp/gbrv1.5pbe/Rh.UPF
     MD5 check sum: 761627e959a2e3a1f56b0b5fe687810e
     Pseudo is Ultrasoft + core correction, Zval = 15.0
     Generated by new atomic code, or converted to UPF format
     Using radial grid of  969 points,  7 beta functions with:
                l(1) =   0
                l(2) =   0
                l(3) =   1
                l(4) =   1
                l(5) =   2
                l(6) =   2
                l(7) =   2
     Q(r) pseudized with  8 coefficients,  rinner =    1.200   1.200   1.200
                                                       1.200   1.200

     PseudoPot. # 2 for Cu read from file:
     /afs/slac.stanford.edu/u/if/mamunm/psp/gbrv1.5pbe/Cu.UPF
     MD5 check sum: 6e991ff952a84172a2a52a1c1e996048
     Pseudo is Ultrasoft + core correction, Zval = 19.0
     Generated by new atomic code, or converted to UPF format
     Using radial grid of  867 points,  6 beta functions with:
                l(1) =   0
                l(2) =   0
                l(3) =   1
                l(4) =   1
                l(5) =   2
                l(6) =   2
     Q(r) pseudized with  8 coefficients,  rinner =    1.150   1.150   1.150
                                                       1.150   1.150

     vdW kernel table read from file vdW_kernel_table
     MD5 check sum: 095c7af220d748ca6e76c0b4c6cfb241

     atomic species   valence    mass     pseudopotential
        Rh1           15.00   102.90550     Rh( 1.00)
        Cu1           19.00    63.54600     Cu( 1.00)

     No symmetry found

   Cartesian axes

     site n.     atom                  positions (alat units)
         1           Rh1 tau(   1) = (   0.0000000   0.0000000  10.0000000  )
         2           Rh1 tau(   2) = (  -1.3502828   2.3387585  10.0000000  )
         3           Rh1 tau(   3) = (   1.3502828   2.3387585  10.0000000  )
         4           Cu1 tau(   4) = (   2.7005657   0.0000000  10.0000000  )
         5           Rh1 tau(   5) = (   2.7005657   1.5591723  12.2050026  )
         6           Rh1 tau(   6) = (   1.3502828   3.8979308  12.2050026  )
         7           Rh1 tau(   7) = (  -1.3502828   3.8979308  12.2050026  )
         8           Cu1 tau(   8) = (   0.0000000   1.5591723  12.2050026  )
         9           Rh1 tau(   9) = (  -0.0000000   3.1183446  14.4100053  )
        10           Rh1 tau(  10) = (   1.3502828   0.7795862  14.4100053  )
        11           Rh1 tau(  11) = (   4.0508485   0.7795862  14.4100053  )
        12           Cu1 tau(  12) = (   2.7005657   3.1183446  14.4100053  )

     number of k points=    20  Fermi-Dirac smearing, width (Ry)=  0.0110
                       cart. coord. in units 2pi/alat
        k(    1) = (   0.0000000   0.0000000   0.0000000), wk =   0.0555556
        k(    2) = (   0.0000000   0.0356314   0.0000000), wk =   0.1111111
        k(    3) = (   0.0000000   0.0712629   0.0000000), wk =   0.1111111
        k(    4) = (   0.0000000  -0.1068943   0.0000000), wk =   0.0555556
        k(    5) = (   0.0308577   0.0178157   0.0000000), wk =   0.1111111
        k(    6) = (   0.0308577   0.0534472   0.0000000), wk =   0.1111111
        k(    7) = (   0.0308577   0.0890786   0.0000000), wk =   0.1111111
        k(    8) = (   0.0308577  -0.0890786   0.0000000), wk =   0.1111111
        k(    9) = (   0.0308577  -0.0534472   0.0000000), wk =   0.1111111
        k(   10) = (   0.0308577  -0.0178157   0.0000000), wk =   0.1111111
        k(   11) = (   0.0617155   0.0356314   0.0000000), wk =   0.1111111
        k(   12) = (   0.0617155   0.0712629   0.0000000), wk =   0.1111111
        k(   13) = (   0.0617155   0.1068943   0.0000000), wk =   0.1111111
        k(   14) = (   0.0617155  -0.0712629   0.0000000), wk =   0.1111111
        k(   15) = (   0.0617155  -0.0356314   0.0000000), wk =   0.1111111
        k(   16) = (   0.0617155   0.0000000   0.0000000), wk =   0.1111111
        k(   17) = (  -0.0925732  -0.0534472   0.0000000), wk =   0.0555556
        k(   18) = (  -0.0925732  -0.0178157   0.0000000), wk =   0.1111111
        k(   19) = (  -0.0925732   0.0178157   0.0000000), wk =   0.1111111
        k(   20) = (  -0.0925732  -0.1603415   0.0000000), wk =   0.0555556

     Largest allocated arrays     est. size (Mb)     dimensions
     Largest temporary arrays     est. size (Mb)     dimensions

     Initial potential from superposition of free atoms
     Check: negative starting charge=   -0.489305

     starting charge  184.49911, renormalised to  192.00000

     negative rho (up, down):  5.092E-01 0.000E+00

     *
     * You are using vdW-DF for exchange-correlation in this calculation.
     * Please cite the following three references that made this development
     * possible:
     *
     *   M. Dion, H. Rydberg, E. Schroder, D. C. Langreth, and
     *   B. I. Lundqvist, Phys. Rev. Lett. 92, 246401 (2004).
     *
     *   T. Thonhauser, V. R. Cooper, S. Li, A. Puzder, P. Hyldgaard, and
     *   D. C. Langreth, Phys. Rev. B 76, 125112 (2007).
     *
     *   G. Roman-Perez and J. M. Soler, Phys. Rev. Lett. 103, 096102 (2009).
     *
     *
     * If you are using vdW-DF2, please also cite:
     *
     *   K. Lee, E. D. Murray, L. Kong, B. I. Lundqvist, and
     *   D. C. Langreth, Phys. Rev. B 82, 081101(R) (2010).
     *
     *
     * If you are calculating the stress with vdW-DF, please also cite:
     *
     *   R. Sabatini, E. Kucukbenli, B. Kolb, T. Thonhauser, and
     *   S. de Gironcoli, J. Phys.: Condens. Matter 24, 424209 (2012).
     *

     Carrying out vdW-DF run using the following parameters:

     Nqs =      20    Nr_points =    1024   r_max =   100.000
     q_mesh =
               0.00001000     0.04494208     0.09755937     0.15916263
               0.23128650     0.31572767     0.41458969     0.53033537
               0.66584808     0.82450364     1.01025438     1.22772762
               1.48234092     1.78043706     2.12944203     2.53805004
               3.01644009     3.57652955     4.23227104     5.00000000

     Gradients computed in reciprocal space

     Adding external electric field

     Computed dipole along edir(3) :
        Dipole                0.0000 Ry au,          0.0000 Debye
        Dipole field          0.0000 Ry au

        Potential amp.       -0.0000 Ry
        Total length         44.9750 bohr

     Starting wfc are  147 randomized atomic wfcs

     Self-consistent Calculation

     iteration #  1     ecut=    36.75 Ry     beta=0.10
     Davidson diagonalization with overlap
     ethr =  1.00E-02,  avg # of iterations =  7.3

[...]

     total energy              =   -2765.21114535 Ry
     Harris-Foulkes estimate   =   -2767.11871062 Ry
     estimated scf accuracy    <      11.61104559 Ry

[...]

     End of self-consistent calculation

          k = 0.0000 0.0000 0.0000 ( 15569 PWs)   bands (ev):

  -111.0340-110.8703-110.8703 -68.4305 -68.4305 -68.4240 -68.3190 -68.3190
   -68.3190 -68.3190 -68.1598 -68.1597 -45.5818 -45.4062 -45.4062 -45.3330
   -45.3022 -45.3022 -45.2586 -45.2173 -45.1428 -45.0246 -45.0246 -45.0117
   -45.0117 -44.9735 -44.9735 -44.8221 -44.7880 -44.7879 -44.7704 -44.7689
   -44.7689 -44.7481 -44.7399 -44.7336 -44.7336 -44.7192 -44.7192  -5.5911
    -4.1706  -4.0729  -4.0658  -3.6210  -3.4227  -3.4227  -3.3197  -3.2384
    -3.2179  -3.2179  -3.1003  -3.1003  -2.7609  -2.7609  -2.1991  -1.8370
    -1.8370  -1.5534  -1.5116  -1.5116  -1.3717  -1.2948  -1.2948  -1.1166
    -1.1036  -1.1036  -1.0509  -1.0509  -0.9570  -0.9570  -0.8640  -0.6432
    -0.3258  -0.3258  -0.1906  -0.1906  -0.1594  -0.1594  -0.0108   0.3780
     0.3780   0.4334   0.5911   0.9055   0.9055   0.9570   0.9571   1.0037
     1.0466   1.0466   1.2640   1.2641   1.3024   1.3024   1.4608   1.4608
     1.7618   1.8524   1.8524   2.1609   2.2396   2.4645   2.5120   3.0098
     3.0098   3.3799   4.5868   4.7421   4.7474   4.7474   4.9425   4.9425
     5.6599   5.9124   6.4203   7.3117   7.6186   7.7956   8.2271   8.7782
     8.7782   8.8115   8.8116   8.9554   9.7111   9.9527

[...]

          k =-0.0926-0.0534 0.0000 ( 15692 PWs)   bands (ev):

[...]

     the Fermi energy is     1.2033 ev

!    total energy              =   -2764.54333758 Ry
     Harris-Foulkes estimate   =   -2764.54333082 Ry
     estimated scf accuracy    <       0.00000081 Ry

     The total energy is the sum of the following terms:

     one-electron contribution =  -22729.23477414 Ry
     hartree contribution      =   11400.11600272 Ry
     xc contribution           =    -399.06802261 Ry
     ewald contribution        =    8963.75546364 Ry
     electric field correction =       0.00000000 Ry
     smearing contrib. (-TS)   =      -0.11200719 Ry

     convergence has been achieved in  17 iterations

 BEEF-vdW xc energy contributions
           1 :   -349.458222856241
           2 :    319.615765600424
           3 :   -268.381552977087
           4 :    209.015501646122
           5 :   -154.414542335195
           6 :    112.849724134153
           7 :   -86.2372489066549
           8 :    71.2322408115584
           9 :   -62.1479972148712
          10 :    54.0459592010635
          11 :   -44.5868219698613
[...]
     Generated by new atomic code, or converted to UPF format
     Using radial grid of  969 points,  7 beta functions with:
                l(1) =   0
                l(2) =   0
                l(3) =   1
                l(4) =   1
                l(5) =   2
                l(6) =   2
                l(7) =   2
     Q(r) pseudized with  8 coefficients,  rinner =    1.200   1.200   1.200
                                                       1.200   1.200

     PseudoPot. # 2 for Cu read from file:
     /afs/slac.stanford.edu/u/if/mamunm/psp/gbrv1.5pbe/Cu.UPF
     MD5 check sum: 6e991ff952a84172a2a52a1c1e996048
     Pseudo is Ultrasoft + core correction, Zval = 19.0
     Generated by new atomic code, or converted to UPF format
     Using radial grid of  867 points,  6 beta functions with:
                l(1) =   0
                l(2) =   0
                l(3) =   1
                l(4) =   1
                l(5) =   2
                l(6) =   2
     Q(r) pseudized with  8 coefficients,  rinner =    1.150   1.150   1.150
                                                       1.150   1.150

     vdW kernel table read from file vdW_kernel_table
     MD5 check sum: 095c7af220d748ca6e76c0b4c6cfb241

     atomic species   valence    mass     pseudopotential
        Rh1           15.00   102.90550     Rh( 1.00)
        Cu1           19.00    63.54600     Cu( 1.00)

     No symmetry found

   Cartesian axes

     site n.     atom                  positions (alat units)
         1           Rh1 tau(   1) = (   0.0000000   0.0000000  10.0000000  )
         2           Rh1 tau(   2) = (  -1.3502828   2.3387585  10.0000000  )
         3           Rh1 tau(   3) = (   1.3502828   2.3387585  10.0000000  )
         4           Cu1 tau(   4) = (   2.7005657   0.0000000  10.0000000  )
         5           Rh1 tau(   5) = (   2.7005657   1.5591723  12.2050026  )
         6           Rh1 tau(   6) = (   1.3502828   3.8979308  12.2050026  )
         7           Rh1 tau(   7) = (  -1.3502828   3.8979308  12.2050026  )
         8           Cu1 tau(   8) = (   0.0000000   1.5591723  12.2050026  )
         9           Rh1 tau(   9) = (   0.0000183   3.1158228  14.3627709  )
        10           Rh1 tau(  10) = (   1.3481060   0.7808660  14.3627707  )
        11           Rh1 tau(  11) = (   4.0530347   0.7808504  14.3627749  )
        12           Cu1 tau(  12) = (   2.7005645   3.1183477  14.4291123  )

     number of k points=    20  Fermi-Dirac smearing, width (Ry)=  0.0110
                       cart. coord. in units 2pi/alat
        k(    1) = (   0.0000000   0.0000000   0.0000000), wk =   0.0555556
        k(    2) = (   0.0000000   0.0356314   0.0000000), wk =   0.1111111
        k(    3) = (   0.0000000   0.0712629   0.0000000), wk =   0.1111111
        k(    4) = (   0.0000000  -0.1068943   0.0000000), wk =   0.0555556
        k(    5) = (   0.0308577   0.0178157   0.0000000), wk =   0.1111111
        k(    6) = (   0.0308577   0.0534472   0.0000000), wk =   0.1111111
        k(    7) = (   0.0308577   0.0890786   0.0000000), wk =   0.1111111
        k(    8) = (   0.0308577  -0.0890786   0.0000000), wk =   0.1111111
        k(    9) = (   0.0308577  -0.0534472   0.0000000), wk =   0.1111111
        k(   10) = (   0.0308577  -0.0178157   0.0000000), wk =   0.1111111
        k(   11) = (   0.0617155   0.0356314   0.0000000), wk =   0.1111111
        k(   12) = (   0.0617155   0.0712629   0.0000000), wk =   0.1111111
        k(   13) = (   0.0617155   0.1068943   0.0000000), wk =   0.1111111
        k(   14) = (   0.0617155  -0.0712629   0.0000000), wk =   0.1111111
        k(   15) = (   0.0617155  -0.0356314   0.0000000), wk =   0.1111111
        k(   16) = (   0.0617155   0.0000000   0.0000000), wk =   0.1111111
        k(   17) = (  -0.0925732  -0.0534472   0.0000000), wk =   0.0555556
        k(   18) = (  -0.0925732  -0.0178157   0.0000000), wk =   0.1111111
        k(   19) = (  -0.0925732   0.0178157   0.0000000), wk =   0.1111111
        k(   20) = (  -0.0925732  -0.1603415   0.0000000), wk =   0.0555556

     Largest allocated arrays     est. size (Mb)     dimensions
     Largest temporary arrays     est. size (Mb)     dimensions

     Initial potential from superposition of free atoms
     Check: negative starting charge=   -0.488823

     starting charge  184.49911, renormalised to  192.00000

[...]

     *
     * You are using vdW-DF for exchange-correlation in this calculation.
     * Please cite the following three references that made this development
     * possible:
     *
     *   M. Dion, H. Rydberg, E. Schroder, D. C. Langreth, and
     *   B. I. Lundqvist, Phys. Rev. Lett. 92, 246401 (2004).
     *
     *   T. Thonhauser, V. R. Cooper, S. Li, A. Puzder, P. Hyldgaard, and
     *   D. C. Langreth, Phys. Rev. B 76, 125112 (2007).
     *
     *   G. Roman-Perez and J. M. Soler, Phys. Rev. Lett. 103, 096102 (2009).
     *
     *
     * If you are using vdW-DF2, please also cite:
     *
     *   K. Lee, E. D. Murray, L. Kong, B. I. Lundqvist, and
     *   D. C. Langreth, Phys. Rev. B 82, 081101(R) (2010).
     *
     *
     * If you are calculating the stress with vdW-DF, please also cite:
     *
     *   R. Sabatini, E. Kucukbenli, B. Kolb, T. Thonhauser, and
     *   S. de Gironcoli, J. Phys.: Condens. Matter 24, 424209 (2012).
     *

     Carrying out vdW-DF run using the following parameters:

     Nqs =      20    Nr_points =    1024   r_max =   100.000
     q_mesh =
               0.00001000     0.04494208     0.09755937     0.15916263
               0.23128650     0.31572767     0.41458969     0.53033537
               0.66584808     0.82450364     1.01025438     1.22772762
               1.48234092     1.78043706     2.12944203     2.53805004
               3.01644009     3.57652955     4.23227104     5.00000000

     Gradients computed in reciprocal space

[...]

     Starting wfc are  147 randomized atomic wfcs

     Self-consistent Calculation

[...]

     total energy              =   -2764.54495570 Ry
     Harris-Foulkes estimate   =   -2764.54495433 Ry
     estimated scf accuracy    <       0.00000108 Ry

     iteration # 18     ecut=    36.75 Ry     beta=0.10
     Davidson diagonalization with overlap
     ethr =  5.62E-10,  avg # of iterations =  1.9

[...]

     negative rho (up, down):  5.093E-01 0.000E+00

     Adding external electric field

     Computed dipole along edir(3) :
        Dipole                0.0030 Ry au,          0.0077 Debye
        Dipole field          0.0000 Ry au

        Potential amp.       -0.0008 Ry
        Total length         44.9750 bohr

     End of self-consistent calculation

[...]

          k = 0.0617 0.0000 0.0000 ( 15628 PWs)   bands (ev):

[...]

          k =-0.0926-0.1603 0.0000 ( 15692 PWs)   bands (ev):

  -111.0593-110.8633-110.8499 -68.4569 -68.4522 -68.4521 -68.3123 -68.3123
   -68.2997 -68.2997 -68.1524 -68.1394 -45.5120 -45.4234 -45.3638 -45.3514
   -45.2880 -45.2499 -45.2411 -45.1888 -45.1484 -45.1113 -45.0470 -44.9994
   -44.9677 -44.9159 -44.9155 -44.8858 -44.8837 -44.8757 -44.8393 -44.8125
   -44.8026 -44.7990 -44.7648 -44.7575 -44.7527 -44.7435 -44.7162  -4.0845
    -4.0035  -3.3527  -3.1951  -3.0467  -2.9805  -2.9008  -2.6818  -2.6593
    -2.6308  -2.5804  -2.4140  -2.3198  -2.2974  -2.1260  -2.0391  -1.9775
    -1.8911  -1.8277  -1.7453  -1.6196  -1.5719  -1.3652  -1.3397  -1.1524
    -1.1267  -1.1244  -1.0891  -1.0095  -0.9940  -0.9237  -0.8946  -0.7942
    -0.7869  -0.7510  -0.7450  -0.7062  -0.6892  -0.6679  -0.5409  -0.4192
    -0.2785  -0.2613  -0.1329  -0.1101  -0.0774   0.1438   0.1858   0.2538
     0.2563   0.3005   0.5936   0.6093   0.7385   0.7902   0.8672   0.8835
     0.9812   1.1209   1.1395   1.2716   1.4748   1.7744   2.1941   3.1916
     3.2468   3.5821   4.4705   4.5037   5.1473   5.5773   5.7751   6.7211
     6.8924   7.2656   7.2848   7.8757   7.8923   8.0963   8.0984   9.1333
     9.1491   9.1612   9.2044   9.6978   9.7439  10.2082

     the Fermi energy is     1.2096 ev

!    total energy              =   -2764.54496118 Ry
     Harris-Foulkes estimate   =   -2764.54495575 Ry
     estimated scf accuracy    <       0.00000030 Ry

     The total energy is the sum of the following terms:

     one-electron contribution =  -22815.19681839 Ry
     hartree contribution      =   11443.05384036 Ry
     xc contribution           =    -399.11652118 Ry
     ewald contribution        =    9006.82470449 Ry
     electric field correction =       0.00000003 Ry
     smearing contrib. (-TS)   =      -0.11016649 Ry

     convergence has been achieved in  18 iterations

 BEEF-vdW xc energy contributions
           1 :   -349.510979245566
           2 :    319.697798376100
           3 :   -268.500450378780
           4 :    209.149335277196
           5 :   -154.522641691930
           6 :    112.895509867617
           7 :   -86.2099167357459
           8 :    71.1546629658288
           9 :   -62.0660207369655
          10 :    54.0048462866960
          11 :   -44.6079220284126
          12 :    34.1834149355599
          13 :   -24.4939315198579
          14 :    17.2050047417322
          15 :   -12.8856646282303
          16 :    10.9117753504858
          17 :   -10.0464021377730
          18 :    9.17610805161803
          19 :   -7.76549694550550
          20 :    5.87927239625020
          21 :   -3.90234080235382
          22 :    2.21623051663119
          23 :   -1.02599658189371
          24 :   0.356767139093449
          25 :  -0.119391253480217
          26 :   0.154257162245813
          27 :  -0.247951674923229
          28 :   0.171028611534496
          29 :   0.232767680687971
          30 :  -0.942338748564737
          31 :   -32.4401373740343
          32 :   -23.7406912834312

     Forces acting on atoms (Ry/au):

     negative rho (up, down):  5.093E-01 0.000E+00
     atom    1 type  1   force =     0.00000058    0.00095620    0.01049322
     atom    2 type  1   force =     0.00082876   -0.00047748    0.01049371
     atom    3 type  1   force =    -0.00082773   -0.00047742    0.01049289
     atom    4 type  2   force =    -0.00000679    0.00000155   -0.00417403
     atom    5 type  1   force =     0.00000126    0.00423968   -0.00677961
     atom    6 type  1   force =     0.00367237   -0.00211814   -0.00677990
     atom    7 type  1   force =    -0.00367035   -0.00211871   -0.00677813
     atom    8 type  2   force =    -0.00000664   -0.00000477   -0.00821987
     atom    9 type  1   force =    -0.00000402   -0.00046050    0.00020493
     atom   10 type  1   force =    -0.00040021    0.00022641    0.00020548
     atom   11 type  1   force =     0.00040204    0.00023227    0.00020322
     atom   12 type  2   force =     0.00001074    0.00000091    0.00063810

     Total force =     0.024719     Total SCF correction =     0.003027
     SCF correction compared to forces is large: reduce conv_thr to get better values

     entering subroutine stress ...

     negative rho (up, down):  5.093E-01 0.000E+00
          total   stress  (Ry/bohr**3)                   (kbar)     P=  -33.58
  -0.00025777   0.00000000  -0.00000000        -37.92      0.00     -0.00
   0.00000000  -0.00025778  -0.00000000          0.00    -37.92     -0.00
  -0.00000000  -0.00000000  -0.00016928         -0.00     -0.00    -24.90

 !ASE

     Writing output data file calc.save

     General routines

     Parallel routines

   This run was terminated on:  22:35:46  31Dec2018

   JOB DONE.
Job  /afs/slac/g/suncat/bin/suncat-tsmpirun -x LD_LIBRARY_PATH -wdir /scratch/qe648870_yUFK5 pw.x -in pw.inp

TID   HOST_NAME   COMMAND_LINE            STATUS            TERMINATION_TIME
00000 suncat0074 pw.x -in pw.inp   Done                     12/31/2018 22:35:46
00001 suncat0074 pw.x -in pw.inp   Done                     12/31/2018 22:35:46
00002 suncat0074 pw.x -in pw.inp   Done                     12/31/2018 22:35:46
00003 suncat0074 pw.x -in pw.inp   Done                     12/31/2018 22:35:46
00004 suncat0074 pw.x -in pw.inp   Done                     12/31/2018 22:35:46
00005 suncat0074 pw.x -in pw.inp   Done                     12/31/2018 22:35:46
00006 suncat0074 pw.x -in pw.inp   Done                     12/31/2018 22:35:46
00007 suncat0074 pw.x -in pw.inp   Done                     12/31/2018 22:35:46
00008 suncat0073 pw.x -in pw.inp   Done                     12/31/2018 22:35:46
00009 suncat0073 pw.x -in pw.inp   Done                     12/31/2018 22:35:46
00010 suncat0073 pw.x -in pw.inp   Done                     12/31/2018 22:35:46
00011 suncat0073 pw.x -in pw.inp   Done                     12/31/2018 22:35:46
00012 suncat0073 pw.x -in pw.inp   Done                     12/31/2018 22:35:46
00013 suncat0073 pw.x -in pw.inp   Done                     12/31/2018 22:35:46
00014 suncat0073 pw.x -in pw.inp   Done                     12/31/2018 22:35:46
00015 suncat0073 pw.x -in pw.inp   Done                     12/31/2018 22:35:46
00016 suncat0065 pw.x -in pw.inp   Done                     12/31/2018 22:35:46
00017 suncat0065 pw.x -in pw.inp   Done                     12/31/2018 22:35:46
00018 suncat0065 pw.x -in pw.inp   Done                     12/31/2018 22:35:46
00019 suncat0065 pw.x -in pw.inp   Done                     12/31/2018 22:35:46
00020 suncat0065 pw.x -in pw.inp   Done                     12/31/2018 22:35:46
00021 suncat0065 pw.x -in pw.inp   Done                     12/31/2018 22:35:46
00022 suncat0065 pw.x -in pw.inp   Done                     12/31/2018 22:35:46
00023 suncat0065 pw.x -in pw.inp   Done                     12/31/2018 22:35:46
00024 suncat0064 pw.x -in pw.inp   Done                     12/31/2018 22:35:46
00025 suncat0064 pw.x -in pw.inp   Done                     12/31/2018 22:35:46
00026 suncat0064 pw.x -in pw.inp   Done                     12/31/2018 22:35:46
00027 suncat0064 pw.x -in pw.inp   Done                     12/31/2018 22:35:46
00028 suncat0064 pw.x -in pw.inp   Done                     12/31/2018 22:35:46
00029 suncat0064 pw.x -in pw.inp   Done                     12/31/2018 22:35:46
00030 suncat0064 pw.x -in pw.inp   Done                     12/31/2018 22:35:46
00031 suncat0064 pw.x -in pw.inp   Done                     12/31/2018 22:35:46
00032 suncat0156 pw.x -in pw.inp   Done                     12/31/2018 22:35:46
00033 suncat0156 pw.x -in pw.inp   Done                     12/31/2018 22:35:46
00034 suncat0156 pw.x -in pw.inp   Done                     12/31/2018 22:35:46
00035 suncat0156 pw.x -in pw.inp   Done                     12/31/2018 22:35:46
00036 suncat0156 pw.x -in pw.inp   Done                     12/31/2018 22:35:46
00037 suncat0156 pw.x -in pw.inp   Done                     12/31/2018 22:35:46
00038 suncat0156 pw.x -in pw.inp   Done                     12/31/2018 22:35:46
00039 suncat0156 pw.x -in pw.inp   Done                     12/31/2018 22:35:46
00040 suncat0153 pw.x -in pw.inp   Done                     12/31/2018 22:35:46
00041 suncat0153 pw.x -in pw.inp   Done                     12/31/2018 22:35:46
00042 suncat0153 pw.x -in pw.inp   Done                     12/31/2018 22:35:46
00043 suncat0153 pw.x -in pw.inp   Done                     12/31/2018 22:35:46
00044 suncat0153 pw.x -in pw.inp   Done                     12/31/2018 22:35:46
00045 suncat0153 pw.x -in pw.inp   Done                     12/31/2018 22:35:46
00046 suncat0153 pw.x -in pw.inp   Done                     12/31/2018 22:35:46
00047 suncat0153 pw.x -in pw.inp   Done                     12/31/2018 22:35:46
00048 suncat0145 pw.x -in pw.inp   Done                     12/31/2018 22:35:46
00049 suncat0145 pw.x -in pw.inp   Done                     12/31/2018 22:35:46
00050 suncat0145 pw.x -in pw.inp   Done                     12/31/2018 22:35:46
00051 suncat0145 pw.x -in pw.inp   Done                     12/31/2018 22:35:46
00052 suncat0145 pw.x -in pw.inp   Done                     12/31/2018 22:35:46
00053 suncat0145 pw.x -in pw.inp   Done                     12/31/2018 22:35:46
00054 suncat0145 pw.x -in pw.inp   Done                     12/31/2018 22:35:46
00055 suncat0145 pw.x -in pw.inp   Done                     12/31/2018 22:35:46
00056 suncat0144 pw.x -in pw.inp   Done                     12/31/2018 22:35:46
00057 suncat0144 pw.x -in pw.inp   Done                     12/31/2018 22:35:46
00058 suncat0144 pw.x -in pw.inp   Done                     12/31/2018 22:35:46
00059 suncat0144 pw.x -in pw.inp   Done                     12/31/2018 22:35:46
00060 suncat0144 pw.x -in pw.inp   Done                     12/31/2018 22:35:46
00061 suncat0144 pw.x -in pw.inp   Done                     12/31/2018 22:35:46
00062 suncat0144 pw.x -in pw.inp   Done                     12/31/2018 22:35:46
00063 suncat0144 pw.x -in pw.inp   Done                     12/31/2018 22:35:46