     Program PWSCF v.5.1rc2 (svn rev. 11289) starts on 27Dec2018 at 19: 2: 2

     Current dimensions of program PWSCF are:
     Max number of different atomic species (ntypx) = 10
     Max number of k-points (npk) =  40000
     Max angular momentum in pseudopotentials (lmaxx) =  3
     Presently stress not available with electric field

     IMPORTANT: XC functional enforced from input :
     Exchange-correlation      = BEEF-VDW ( 1  4 27 13 2)
     Any further DFT definition will be discarded
     Please, verify this is what you really want

     Subspace diagonalization in iterative solution of the eigenvalue problem:
     a serial algorithm will be used

     bravais-lattice index     =            0
     lattice parameter (alat)  =       1.8897  a.u.
     unit-cell volume          =    4505.8377 (a.u.)^3
     number of atoms/cell      =           12
     number of atomic types    =            2
     number of electrons       =       180.00
     number of Kohn-Sham states=          120
     kinetic-energy cutoff     =      36.7493  Ry
     charge density cutoff     =     367.4932  Ry
     convergence threshold     =      1.0E-06
     mixing beta               =       0.1000
     number of iterations used =           10  plain     mixing
     Exchange-correlation      = BEEF-VDW ( 1  4 27 13 2)
     nstep                     =           50

     celldm(1)=   1.889726  celldm(2)=   0.000000  celldm(3)=   0.000000
     celldm(4)=   0.000000  celldm(5)=   0.000000  celldm(6)=   0.000000

     crystal axes: (cart. coord. in units of alat)
               a(1) = (   5.601327   0.000000   0.000000 )
               a(2) = (  -2.800664   4.850892   0.000000 )
               a(3) = (   0.000000   0.000000  24.573465 )

     reciprocal axes: (cart. coord. in units 2 pi/alat)
               b(1) = (  0.178529  0.103074  0.000000 )
               b(2) = (  0.000000  0.206148  0.000000 )
               b(3) = (  0.000000  0.000000  0.040694 )

     PseudoPot. # 1 for Pt read from file:
     /afs/slac.stanford.edu/u/if/mamunm/psp/gbrv1.5pbe/Pt.UPF
     MD5 check sum: f09d6de1a584b5a045c4fc126da2d0c4
     Pseudo is Ultrasoft + core correction, Zval = 16.0
     Generated by new atomic code, or converted to UPF format
     Using radial grid of  985 points,  6 beta functions with:
                l(1) =   0
                l(2) =   0
                l(3) =   1
                l(4) =   1
                l(5) =   2
                l(6) =   2
     Q(r) pseudized with  8 coefficients,  rinner =    1.300   1.300   1.300
                                                       1.300   1.300

     PseudoPot. # 2 for Ti read from file:
     /afs/slac.stanford.edu/u/if/mamunm/psp/gbrv1.5pbe/Ti.UPF
     MD5 check sum: 88a00a6731bd790ddea75d31a80cb452
     Pseudo is Ultrasoft + core correction, Zval = 12.0
     Generated by new atomic code, or converted to UPF format
     Using radial grid of  851 points,  6 beta functions with:
                l(1) =   0
                l(2) =   0
                l(3) =   1
                l(4) =   1
                l(5) =   2
                l(6) =   2
     Q(r) pseudized with  6 coefficients,  rinner =    1.000   1.000   1.000
                                                       1.000   1.000

     vdW kernel table read from file vdW_kernel_table
     MD5 check sum: 095c7af220d748ca6e76c0b4c6cfb241

     atomic species   valence    mass     pseudopotential
        Pt1           16.00   195.08400     Pt( 1.00)
        Ti1           12.00    47.86700     Ti( 1.00)

     No symmetry found

   Cartesian axes

     site n.     atom                  positions (alat units)
         1           Pt1 tau(   1) = (   0.0000000   0.0000000  10.0000000  )
         2           Pt1 tau(   2) = (  -1.4003318   2.4254459  10.0000000  )
         3           Pt1 tau(   3) = (   1.4003318   2.4254459  10.0000000  )
         4           Ti1 tau(   4) = (   2.8006637   0.0000000  10.0000000  )
         5           Pt1 tau(   5) = (   2.8006637   1.6169639  12.2867323  )
         6           Pt1 tau(   6) = (   1.4003318   4.0424099  12.2867323  )
         7           Pt1 tau(   7) = (  -1.4003318   4.0424099  12.2867323  )
         8           Ti1 tau(   8) = (   0.0000000   1.6169639  12.2867323  )
         9           Pt1 tau(   9) = (  -0.0000000   3.2339279  14.5734647  )
        10           Pt1 tau(  10) = (   1.4003318   0.8084820  14.5734647  )
        11           Pt1 tau(  11) = (   4.2009955   0.8084820  14.5734647  )
        12           Ti1 tau(  12) = (   2.8006637   3.2339279  14.5734647  )

     number of k points=    20  Fermi-Dirac smearing, width (Ry)=  0.0110
                       cart. coord. in units 2pi/alat
        k(    1) = (   0.0000000   0.0000000   0.0000000), wk =   0.0555556
        k(    2) = (   0.0000000   0.0343579   0.0000000), wk =   0.1111111
        k(    3) = (   0.0000000   0.0687159   0.0000000), wk =   0.1111111
        k(    4) = (   0.0000000  -0.1030738   0.0000000), wk =   0.0555556
        k(    5) = (   0.0297549   0.0171790   0.0000000), wk =   0.1111111
        k(    6) = (   0.0297549   0.0515369   0.0000000), wk =   0.1111111
        k(    7) = (   0.0297549   0.0858949   0.0000000), wk =   0.1111111
        k(    8) = (   0.0297549  -0.0858949   0.0000000), wk =   0.1111111
        k(    9) = (   0.0297549  -0.0515369   0.0000000), wk =   0.1111111
        k(   10) = (   0.0297549  -0.0171790   0.0000000), wk =   0.1111111
        k(   11) = (   0.0595097   0.0343579   0.0000000), wk =   0.1111111
        k(   12) = (   0.0595097   0.0687159   0.0000000), wk =   0.1111111
        k(   13) = (   0.0595097   0.1030738   0.0000000), wk =   0.1111111
        k(   14) = (   0.0595097  -0.0687159   0.0000000), wk =   0.1111111
        k(   15) = (   0.0595097  -0.0343579   0.0000000), wk =   0.1111111
        k(   16) = (   0.0595097  -0.0000000   0.0000000), wk =   0.1111111
        k(   17) = (  -0.0892646  -0.0515369   0.0000000), wk =   0.0555556
        k(   18) = (  -0.0892646  -0.0171790   0.0000000), wk =   0.1111111
        k(   19) = (  -0.0892646   0.0171790   0.0000000), wk =   0.1111111
        k(   20) = (  -0.0892646  -0.1546107   0.0000000), wk =   0.0555556

     Largest allocated arrays     est. size (Mb)     dimensions
     Largest temporary arrays     est. size (Mb)     dimensions

     Check: negative/imaginary core charge=   -0.000002    0.000000

     Initial potential from superposition of free atoms
     Check: negative starting charge=   -1.647738

     starting charge  172.49977, renormalised to  180.00000

     negative rho (up, down):  1.719E+00 0.000E+00

     *
     * You are using vdW-DF for exchange-correlation in this calculation.
     * Please cite the following three references that made this development
     * possible:
     *
     *   M. Dion, H. Rydberg, E. Schroder, D. C. Langreth, and
     *   B. I. Lundqvist, Phys. Rev. Lett. 92, 246401 (2004).
     *
     *   T. Thonhauser, V. R. Cooper, S. Li, A. Puzder, P. Hyldgaard, and
     *   D. C. Langreth, Phys. Rev. B 76, 125112 (2007).
     *
     *   G. Roman-Perez and J. M. Soler, Phys. Rev. Lett. 103, 096102 (2009).
     *
     *
     * If you are using vdW-DF2, please also cite:
     *
     *   K. Lee, E. D. Murray, L. Kong, B. I. Lundqvist, and
     *   D. C. Langreth, Phys. Rev. B 82, 081101(R) (2010).
     *
     *
     * If you are calculating the stress with vdW-DF, please also cite:
     *
     *   R. Sabatini, E. Kucukbenli, B. Kolb, T. Thonhauser, and
     *   S. de Gironcoli, J. Phys.: Condens. Matter 24, 424209 (2012).
     *

     Carrying out vdW-DF run using the following parameters:

     Nqs =      20    Nr_points =    1024   r_max =   100.000
     q_mesh =
               0.00001000     0.04494208     0.09755937     0.15916263
               0.23128650     0.31572767     0.41458969     0.53033537
               0.66584808     0.82450364     1.01025438     1.22772762
               1.48234092     1.78043706     2.12944203     2.53805004
               3.01644009     3.57652955     4.23227104     5.00000000

     Gradients computed in reciprocal space

     Adding external electric field

     Computed dipole along edir(3) :
        Dipole                0.0000 Ry au,          0.0000 Debye
        Dipole field          0.0000 Ry au

        Potential amp.       -0.0000 Ry
        Total length         45.2762 bohr

     Starting wfc are  138 randomized atomic wfcs

     Self-consistent Calculation

     iteration #  1     ecut=    36.75 Ry     beta=0.10
     Davidson diagonalization with overlap
     ethr =  1.00E-02,  avg # of iterations =  7.6

[...]

     total energy              =   -2262.10628134 Ry
     Harris-Foulkes estimate   =   -2281.54374103 Ry
     estimated scf accuracy    <     109.35036525 Ry

[...]

     End of self-consistent calculation

          k = 0.0000 0.0000 0.0000 ( 16883 PWs)   bands (ev):

   -56.2797 -56.2312 -56.2305 -51.4328 -51.2906 -51.2906 -51.2396 -51.2159
   -51.2159 -51.1268 -51.1167 -51.1167 -50.9404 -50.9345 -50.9118 -50.9118
   -50.8958 -50.8958 -50.7831 -50.7796 -50.6683 -50.6683 -50.6676 -50.6676
   -50.6509 -50.6321 -50.6217 -50.6217 -50.6115 -50.6115 -32.5333 -32.5281
   -32.4944 -32.4944 -32.3678 -32.3406 -32.3406 -32.3392 -32.3392  -6.5693
    -4.8725  -4.5266  -4.1498  -4.0857  -4.0857  -3.9064  -3.7843  -3.7843
    -3.4755  -3.4364  -3.4364  -3.2675  -3.1762  -3.1762  -2.2979  -1.8953
    -1.8953  -1.8796  -1.8796  -1.4964  -1.3397  -1.2726  -1.2046  -0.9993
    -0.9993  -0.8581  -0.8581  -0.6516  -0.6516  -0.4911  -0.4911  -0.3617
    -0.3617   0.1581   0.5855   0.5855   0.5876   0.5876   0.7209   0.7209
     0.8140   1.2173   1.3407   1.5003   1.5003   1.7503   2.0455   2.1441
     2.1976   2.3979   2.5388   2.5388   2.9402   2.9402   3.1207   3.1207
     3.1344   3.1344   3.1572   3.2266   3.2683   3.2683   3.5274   3.5274
     3.7061   3.7061   4.8837   4.8837   4.8839   4.8839   5.0176   5.3189
     6.0651   6.3375   6.6750   7.5140   7.5140   7.6157   7.6361   7.6361

[...]

          k =-0.0893-0.0515 0.0000 ( 16960 PWs)   bands (ev):

[...]

     the Fermi energy is     1.7836 ev

!    total energy              =   -2271.37802219 Ry
     Harris-Foulkes estimate   =   -2271.37893539 Ry
     estimated scf accuracy    <       0.00000075 Ry

     The total energy is the sum of the following terms:

     one-electron contribution =  -17698.00929811 Ry
     hartree contribution      =    8871.81068094 Ry
     xc contribution           =    -583.68152305 Ry
     ewald contribution        =    7138.55646670 Ry
     electric field correction =       0.00000000 Ry
     smearing contrib. (-TS)   =      -0.05434866 Ry

     convergence has been achieved in  19 iterations

 BEEF-vdW xc energy contributions
           1 :   -517.710952002508
           2 :    480.185300615491
           3 :   -413.564532020658
           4 :    331.444412994344
           5 :   -248.035978231708
           6 :    174.290418390729
           7 :   -115.949098386288
           8 :    73.6556898468150
           9 :   -44.5499814880944
          10 :    24.3964582019048
          11 :   -9.39886197349199
[...]
     MD5 check sum: f09d6de1a584b5a045c4fc126da2d0c4
     Pseudo is Ultrasoft + core correction, Zval = 16.0
     Generated by new atomic code, or converted to UPF format
     Using radial grid of  985 points,  6 beta functions with:
                l(1) =   0
                l(2) =   0
                l(3) =   1
                l(4) =   1
                l(5) =   2
                l(6) =   2
     Q(r) pseudized with  8 coefficients,  rinner =    1.300   1.300   1.300
                                                       1.300   1.300

     PseudoPot. # 2 for Ti read from file:
     /afs/slac.stanford.edu/u/if/mamunm/psp/gbrv1.5pbe/Ti.UPF
     MD5 check sum: 88a00a6731bd790ddea75d31a80cb452
     Pseudo is Ultrasoft + core correction, Zval = 12.0
     Generated by new atomic code, or converted to UPF format
     Using radial grid of  851 points,  6 beta functions with:
                l(1) =   0
                l(2) =   0
                l(3) =   1
                l(4) =   1
                l(5) =   2
                l(6) =   2
     Q(r) pseudized with  6 coefficients,  rinner =    1.000   1.000   1.000
                                                       1.000   1.000

     vdW kernel table read from file vdW_kernel_table
     MD5 check sum: 095c7af220d748ca6e76c0b4c6cfb241

     atomic species   valence    mass     pseudopotential
        Pt1           16.00   195.08400     Pt( 1.00)
        Ti1           12.00    47.86700     Ti( 1.00)

     No symmetry found

   Cartesian axes

     site n.     atom                  positions (alat units)
         1           Pt1 tau(   1) = (   0.0000000   0.0000000  10.0000000  )
         2           Pt1 tau(   2) = (  -1.4003318   2.4254459  10.0000000  )
         3           Pt1 tau(   3) = (   1.4003318   2.4254459  10.0000000  )
         4           Ti1 tau(   4) = (   2.8006637   0.0000000  10.0000000  )
         5           Pt1 tau(   5) = (   2.8006637   1.6169639  12.2867323  )
         6           Pt1 tau(   6) = (   1.4003318   4.0424099  12.2867323  )
         7           Pt1 tau(   7) = (  -1.4003318   4.0424099  12.2867323  )
         8           Ti1 tau(   8) = (   0.0000000   1.6169639  12.2867323  )
         9           Pt1 tau(   9) = (   0.0000003   3.1915399  14.5511951  )
        10           Pt1 tau(  10) = (   1.3636234   0.8296760  14.5511948  )
        11           Pt1 tau(  11) = (   4.2377044   0.8296755  14.5511946  )
        12           Ti1 tau(  12) = (   2.8006639   3.2339276  14.4613724  )

     number of k points=    20  Fermi-Dirac smearing, width (Ry)=  0.0110
                       cart. coord. in units 2pi/alat
        k(    1) = (   0.0000000   0.0000000   0.0000000), wk =   0.0555556
        k(    2) = (   0.0000000   0.0343579   0.0000000), wk =   0.1111111
        k(    3) = (   0.0000000   0.0687159   0.0000000), wk =   0.1111111
        k(    4) = (   0.0000000  -0.1030738   0.0000000), wk =   0.0555556
        k(    5) = (   0.0297549   0.0171790   0.0000000), wk =   0.1111111
        k(    6) = (   0.0297549   0.0515369   0.0000000), wk =   0.1111111
        k(    7) = (   0.0297549   0.0858949   0.0000000), wk =   0.1111111
        k(    8) = (   0.0297549  -0.0858949   0.0000000), wk =   0.1111111
        k(    9) = (   0.0297549  -0.0515369   0.0000000), wk =   0.1111111
        k(   10) = (   0.0297549  -0.0171790   0.0000000), wk =   0.1111111
        k(   11) = (   0.0595097   0.0343579   0.0000000), wk =   0.1111111
        k(   12) = (   0.0595097   0.0687159   0.0000000), wk =   0.1111111
        k(   13) = (   0.0595097   0.1030738   0.0000000), wk =   0.1111111
        k(   14) = (   0.0595097  -0.0687159   0.0000000), wk =   0.1111111
        k(   15) = (   0.0595097  -0.0343579   0.0000000), wk =   0.1111111
        k(   16) = (   0.0595097  -0.0000000   0.0000000), wk =   0.1111111
        k(   17) = (  -0.0892646  -0.0515369   0.0000000), wk =   0.0555556
        k(   18) = (  -0.0892646  -0.0171790   0.0000000), wk =   0.1111111
        k(   19) = (  -0.0892646   0.0171790   0.0000000), wk =   0.1111111
        k(   20) = (  -0.0892646  -0.1546107   0.0000000), wk =   0.0555556

     Largest allocated arrays     est. size (Mb)     dimensions
     Largest temporary arrays     est. size (Mb)     dimensions

     Check: negative/imaginary core charge=   -0.000002    0.000000

     Initial potential from superposition of free atoms
     Check: negative starting charge=   -1.648524

     starting charge  172.49977, renormalised to  180.00000

[...]

     *
     * You are using vdW-DF for exchange-correlation in this calculation.
     * Please cite the following three references that made this development
     * possible:
     *
     *   M. Dion, H. Rydberg, E. Schroder, D. C. Langreth, and
     *   B. I. Lundqvist, Phys. Rev. Lett. 92, 246401 (2004).
     *
     *   T. Thonhauser, V. R. Cooper, S. Li, A. Puzder, P. Hyldgaard, and
     *   D. C. Langreth, Phys. Rev. B 76, 125112 (2007).
     *
     *   G. Roman-Perez and J. M. Soler, Phys. Rev. Lett. 103, 096102 (2009).
     *
     *
     * If you are using vdW-DF2, please also cite:
     *
     *   K. Lee, E. D. Murray, L. Kong, B. I. Lundqvist, and
     *   D. C. Langreth, Phys. Rev. B 82, 081101(R) (2010).
     *
     *
     * If you are calculating the stress with vdW-DF, please also cite:
     *
     *   R. Sabatini, E. Kucukbenli, B. Kolb, T. Thonhauser, and
     *   S. de Gironcoli, J. Phys.: Condens. Matter 24, 424209 (2012).
     *

     Carrying out vdW-DF run using the following parameters:

     Nqs =      20    Nr_points =    1024   r_max =   100.000
     q_mesh =
               0.00001000     0.04494208     0.09755937     0.15916263
               0.23128650     0.31572767     0.41458969     0.53033537
               0.66584808     0.82450364     1.01025438     1.22772762
               1.48234092     1.78043706     2.12944203     2.53805004
               3.01644009     3.57652955     4.23227104     5.00000000

     Gradients computed in reciprocal space

[...]

     Starting wfc are  138 randomized atomic wfcs

     Self-consistent Calculation

[...]

     total energy              =   -2271.39772843 Ry
     Harris-Foulkes estimate   =   -2271.39772573 Ry
     estimated scf accuracy    <       0.00000587 Ry

     iteration # 19     ecut=    36.75 Ry     beta=0.10
     Davidson diagonalization with overlap
     ethr =  3.26E-09,  avg # of iterations =  1.2

[...]

     negative rho (up, down):  1.576E+00 0.000E+00

     Adding external electric field

     Computed dipole along edir(3) :
        Dipole               -0.0149 Ry au,         -0.0378 Debye
        Dipole field         -0.0000 Ry au

        Potential amp.        0.0038 Ry
        Total length         45.2762 bohr

     End of self-consistent calculation

[...]

          k = 0.0595-0.0000 0.0000 ( 16966 PWs)   bands (ev):

[...]

          k =-0.0893-0.1546 0.0000 ( 16960 PWs)   bands (ev):

   -56.2968 -56.2569 -56.2244 -51.4447 -51.3662 -51.3255 -51.3031 -51.2720
   -51.2654 -51.2619 -51.2520 -51.1813 -50.9585 -50.9293 -50.9002 -50.8936
   -50.8689 -50.8537 -50.8463 -50.8450 -50.8026 -50.7934 -50.7226 -50.6979
   -50.6820 -50.6688 -50.6607 -50.6534 -50.6430 -50.6363 -32.5618 -32.5258
   -32.5184 -32.5176 -32.3839 -32.3703 -32.3660 -32.3498 -32.3451  -5.1654
    -4.7614  -3.7816  -3.5276  -3.5180  -3.4231  -3.3867  -3.1067  -3.0652
    -3.0402  -2.9195  -2.8348  -2.5315  -2.4949  -2.4238  -2.3905  -2.3614
    -2.1531  -2.0842  -1.9568  -1.4871  -1.4313  -1.3770  -1.3555  -1.3399
    -1.2984  -1.1914  -1.1452  -1.0987  -1.0346  -0.9783  -0.9546  -0.8533
    -0.8188  -0.6925  -0.5841  -0.4729  -0.4145  -0.2654  -0.1471  -0.1429
     0.0321   0.2632   0.2961   0.6511   0.7182   0.7431   0.8823   1.2237
     1.2889   1.3731   1.7685   1.9981   2.1639   2.2711   2.3678   2.4336
     2.5190   2.7142   2.7287   2.8729   3.0276   3.0889   3.5998   3.7460
     3.8552   4.1212   4.8039   5.0681   5.5231   6.0888   6.2228   6.6766
     7.0567   7.5529   7.5919   8.1355   8.1556   8.2022   8.2224   9.2091

     the Fermi energy is     1.7637 ev

!    total energy              =   -2271.39773826 Ry
     Harris-Foulkes estimate   =   -2271.39772873 Ry
     estimated scf accuracy    <       0.00000030 Ry

     The total energy is the sum of the following terms:

     one-electron contribution =  -17799.10648643 Ry
     hartree contribution      =    8922.10051690 Ry
     xc contribution           =    -583.77227986 Ry
     ewald contribution        =    7189.43251702 Ry
     electric field correction =       0.00000062 Ry
     smearing contrib. (-TS)   =      -0.05200650 Ry

     convergence has been achieved in  19 iterations

 BEEF-vdW xc energy contributions
           1 :   -518.203252194451
           2 :    480.711873153611
           3 :   -414.133741447557
           4 :    332.031017836882
           5 :   -248.596447691182
           6 :    174.788560941099
           7 :   -116.374337996527
           8 :    74.0255918946251
           9 :   -44.8989888156192
          10 :    24.7597807746488
          11 :   -9.80022482315985
          12 :   -2.36789398411599
          13 :    12.5829370988238
          14 :   -20.5852743610774
          15 :    25.6749455650328
          16 :   -27.3290163129233
          17 :    25.6330679957078
          18 :   -21.4397480250863
          19 :    16.1989130802149
          20 :   -11.5100639955124
          21 :    8.56146231269861
          22 :   -7.70907579316406
          23 :    8.40126119261163
          24 :   -9.50538383676314
          25 :    9.88098737423809
          26 :   -8.91219557433988
          27 :    6.73139353731892
          28 :   -4.05019991825350
          29 :    1.73072397574106
          30 :  -0.355678757383544
          31 :   -43.5823399802614
          32 :   -32.1113190886471

     Forces acting on atoms (Ry/au):

     negative rho (up, down):  1.576E+00 0.000E+00
     atom    1 type  1   force =     0.00000019    0.02704474    0.00011298
     atom    2 type  1   force =     0.02342178   -0.01352174    0.00011313
     atom    3 type  1   force =    -0.02342180   -0.01352194    0.00011211
     atom    4 type  2   force =    -0.00000006   -0.00000029    0.01718496
     atom    5 type  1   force =     0.00000017   -0.00293938   -0.00457052
     atom    6 type  1   force =    -0.00254526    0.00146972   -0.00457043
     atom    7 type  1   force =     0.00254541    0.00146991   -0.00457066
     atom    8 type  2   force =    -0.00000017   -0.00000019   -0.00428748
     atom    9 type  1   force =    -0.00000112   -0.00027164   -0.00009954
     atom   10 type  1   force =    -0.00023556    0.00013444   -0.00009959
     atom   11 type  1   force =     0.00023585    0.00013595   -0.00009938
     atom   12 type  2   force =     0.00000055    0.00000042    0.00077441

     Total force =     0.050965     Total SCF correction =     0.002039

     entering subroutine stress ...

     negative rho (up, down):  1.576E+00 0.000E+00
          total   stress  (Ry/bohr**3)                   (kbar)     P=  -18.34
  -0.00017263   0.00000000   0.00000000        -25.39      0.00      0.00
   0.00000000  -0.00017263   0.00000000          0.00    -25.39      0.00
   0.00000000   0.00000000  -0.00002883          0.00      0.00     -4.24

 !ASE

     Writing output data file calc.save

     General routines

     Parallel routines

   This run was terminated on:  20:25:12  27Dec2018

   JOB DONE.
Job  /afs/slac/g/suncat/bin/suncat-tsmpirun -x LD_LIBRARY_PATH -wdir /scratch/qe110568_qO2v7 pw.x -in pw.inp

TID   HOST_NAME   COMMAND_LINE            STATUS            TERMINATION_TIME
00000 suncat0041 pw.x -in pw.inp   Done                     12/27/2018 20:25:12
00001 suncat0041 pw.x -in pw.inp   Done                     12/27/2018 20:25:12
00002 suncat0041 pw.x -in pw.inp   Done                     12/27/2018 20:25:12
00003 suncat0041 pw.x -in pw.inp   Done                     12/27/2018 20:25:12
00004 suncat0041 pw.x -in pw.inp   Done                     12/27/2018 20:25:12
00005 suncat0041 pw.x -in pw.inp   Done                     12/27/2018 20:25:12
00006 suncat0041 pw.x -in pw.inp   Done                     12/27/2018 20:25:12
00007 suncat0041 pw.x -in pw.inp   Done                     12/27/2018 20:25:12
00008 suncat0039 pw.x -in pw.inp   Done                     12/27/2018 20:25:12
00009 suncat0039 pw.x -in pw.inp   Done                     12/27/2018 20:25:12
00010 suncat0039 pw.x -in pw.inp   Done                     12/27/2018 20:25:12
00011 suncat0039 pw.x -in pw.inp   Done                     12/27/2018 20:25:12
00012 suncat0039 pw.x -in pw.inp   Done                     12/27/2018 20:25:12
00013 suncat0039 pw.x -in pw.inp   Done                     12/27/2018 20:25:12
00014 suncat0039 pw.x -in pw.inp   Done                     12/27/2018 20:25:12
00015 suncat0039 pw.x -in pw.inp   Done                     12/27/2018 20:25:12
00016 suncat0169 pw.x -in pw.inp   Done                     12/27/2018 20:25:12
00017 suncat0169 pw.x -in pw.inp   Done                     12/27/2018 20:25:12
00018 suncat0169 pw.x -in pw.inp   Done                     12/27/2018 20:25:12
00019 suncat0169 pw.x -in pw.inp   Done                     12/27/2018 20:25:12
00020 suncat0169 pw.x -in pw.inp   Done                     12/27/2018 20:25:12
00021 suncat0169 pw.x -in pw.inp   Done                     12/27/2018 20:25:12
00022 suncat0169 pw.x -in pw.inp   Done                     12/27/2018 20:25:12
00023 suncat0169 pw.x -in pw.inp   Done                     12/27/2018 20:25:12
00024 suncat0168 pw.x -in pw.inp   Done                     12/27/2018 20:25:12
00025 suncat0168 pw.x -in pw.inp   Done                     12/27/2018 20:25:12
00026 suncat0168 pw.x -in pw.inp   Done                     12/27/2018 20:25:12
00027 suncat0168 pw.x -in pw.inp   Done                     12/27/2018 20:25:12
00028 suncat0168 pw.x -in pw.inp   Done                     12/27/2018 20:25:12
00029 suncat0168 pw.x -in pw.inp   Done                     12/27/2018 20:25:12
00030 suncat0168 pw.x -in pw.inp   Done                     12/27/2018 20:25:12
00031 suncat0168 pw.x -in pw.inp   Done                     12/27/2018 20:25:12
00032 suncat0161 pw.x -in pw.inp   Done                     12/27/2018 20:25:12
00033 suncat0161 pw.x -in pw.inp   Done                     12/27/2018 20:25:12
00034 suncat0161 pw.x -in pw.inp   Done                     12/27/2018 20:25:12
00035 suncat0161 pw.x -in pw.inp   Done                     12/27/2018 20:25:12
00036 suncat0161 pw.x -in pw.inp   Done                     12/27/2018 20:25:12
00037 suncat0161 pw.x -in pw.inp   Done                     12/27/2018 20:25:12
00038 suncat0161 pw.x -in pw.inp   Done                     12/27/2018 20:25:12
00039 suncat0161 pw.x -in pw.inp   Done                     12/27/2018 20:25:12
00040 suncat0250 pw.x -in pw.inp   Done                     12/27/2018 20:25:12
00041 suncat0250 pw.x -in pw.inp   Done                     12/27/2018 20:25:12
00042 suncat0250 pw.x -in pw.inp   Done                     12/27/2018 20:25:12
00043 suncat0250 pw.x -in pw.inp   Done                     12/27/2018 20:25:12
00044 suncat0250 pw.x -in pw.inp   Done                     12/27/2018 20:25:12
00045 suncat0250 pw.x -in pw.inp   Done                     12/27/2018 20:25:12
00046 suncat0250 pw.x -in pw.inp   Done                     12/27/2018 20:25:12
00047 suncat0250 pw.x -in pw.inp   Done                     12/27/2018 20:25:12
00048 suncat0249 pw.x -in pw.inp   Done                     12/27/2018 20:25:12
00049 suncat0249 pw.x -in pw.inp   Done                     12/27/2018 20:25:12
00050 suncat0249 pw.x -in pw.inp   Done                     12/27/2018 20:25:12
00051 suncat0249 pw.x -in pw.inp   Done                     12/27/2018 20:25:12
00052 suncat0249 pw.x -in pw.inp   Done                     12/27/2018 20:25:12
00053 suncat0249 pw.x -in pw.inp   Done                     12/27/2018 20:25:12
00054 suncat0249 pw.x -in pw.inp   Done                     12/27/2018 20:25:12
00055 suncat0249 pw.x -in pw.inp   Done                     12/27/2018 20:25:12
00056 suncat0231 pw.x -in pw.inp   Done                     12/27/2018 20:25:12
00057 suncat0231 pw.x -in pw.inp   Done                     12/27/2018 20:25:12
00058 suncat0231 pw.x -in pw.inp   Done                     12/27/2018 20:25:12
00059 suncat0231 pw.x -in pw.inp   Done                     12/27/2018 20:25:12
00060 suncat0231 pw.x -in pw.inp   Done                     12/27/2018 20:25:12
00061 suncat0231 pw.x -in pw.inp   Done                     12/27/2018 20:25:12
00062 suncat0231 pw.x -in pw.inp   Done                     12/27/2018 20:25:12
00063 suncat0231 pw.x -in pw.inp   Done                     12/27/2018 20:25:12