     Program PWSCF v.5.1rc2 (svn rev. 11289) starts on 18Dec2018 at 23:38:59

     Current dimensions of program PWSCF are:
     Max number of different atomic species (ntypx) = 10
     Max number of k-points (npk) =  40000
     Max angular momentum in pseudopotentials (lmaxx) =  3
     Presently stress not available with electric field

     IMPORTANT: XC functional enforced from input :
     Exchange-correlation      = BEEF-VDW ( 1  4 27 13 2)
     Any further DFT definition will be discarded
     Please, verify this is what you really want

     Subspace diagonalization in iterative solution of the eigenvalue problem:
     a serial algorithm will be used

     Found symmetry operation: I + ( -0.5000 -0.5000  0.0000)
     This is a supercell, fractional translations are disabled

     Generating pointlists ...
     new r_m :   0.4125 (alat units)  0.7795 (a.u.) for type    1
     new r_m :   0.4125 (alat units)  0.7795 (a.u.) for type    2

     bravais-lattice index     =            0
     lattice parameter (alat)  =       1.8897  a.u.
     unit-cell volume          =    5472.0484 (a.u.)^3
     number of atoms/cell      =           12
     number of atomic types    =            2
     number of electrons       =       174.00
     number of Kohn-Sham states=          117
     kinetic-energy cutoff     =      36.7493  Ry
     charge density cutoff     =     367.4932  Ry
     convergence threshold     =      1.0E-06
     mixing beta               =       0.1000
     number of iterations used =           10  plain     mixing
     Exchange-correlation      = BEEF-VDW ( 1  4 27 13 2)
     nstep                     =           50

     celldm(1)=   1.889726  celldm(2)=   0.000000  celldm(3)=   0.000000
     celldm(4)=   0.000000  celldm(5)=   0.000000  celldm(6)=   0.000000

     crystal axes: (cart. coord. in units of alat)
               a(1) = (   5.892307   0.000000   0.000000 )
               a(2) = (   1.994288   5.544556   0.000000 )
               a(3) = (   0.000000   0.000000  24.819965 )

     reciprocal axes: (cart. coord. in units 2 pi/alat)
               b(1) = (  0.169713 -0.061043  0.000000 )
               b(2) = (  0.000000  0.180357  0.000000 )
               b(3) = (  0.000000  0.000000  0.040290 )

     PseudoPot. # 1 for Ni read from file:
     /afs/slac.stanford.edu/u/if/mamunm/psp/gbrv1.5pbe/Ni.UPF
     MD5 check sum: 1ee80287db30b12d2bc1f57a5b5d6409
     Pseudo is Ultrasoft + core correction, Zval = 18.0
     Generated by new atomic code, or converted to UPF format
     Using radial grid of  865 points,  6 beta functions with:
                l(1) =   0
                l(2) =   0
                l(3) =   1
                l(4) =   1
                l(5) =   2
                l(6) =   2
     Q(r) pseudized with 10 coefficients,  rinner =    0.980   0.980   0.980
                                                       0.980   0.980

     PseudoPot. # 2 for Y  read from file:
     /afs/slac.stanford.edu/u/if/mamunm/psp/gbrv1.5pbe/Y.UPF
     MD5 check sum: d034151ed7554c50b6e82763ed42c788
     Pseudo is Ultrasoft + core correction, Zval = 11.0
     Generated by new atomic code, or converted to UPF format
     Using radial grid of  885 points,  6 beta functions with:
                l(1) =   0
                l(2) =   0
                l(3) =   1
                l(4) =   1
                l(5) =   2
                l(6) =   2
     Q(r) pseudized with  8 coefficients,  rinner =    1.200   1.200   1.200
                                                       1.200   1.200

     vdW kernel table read from file vdW_kernel_table
     MD5 check sum: 095c7af220d748ca6e76c0b4c6cfb241

     atomic species   valence    mass     pseudopotential
        Ni1           18.00    58.69340     Ni( 1.00)
        Y1            11.00    88.90584     Y ( 1.00)

     Starting magnetic structure
     atomic species   magnetization
        Ni1          0.111
        Y1           0.182

     No symmetry found

   Cartesian axes

     site n.     atom                  positions (alat units)
         1           Ni1 tau(   1) = (   0.0000000   0.0000000  10.0000000  )
         2           Ni1 tau(   2) = (   3.9432979   2.7722780  10.0000000  )
         3           Y1  tau(   3) = (   2.9461537   0.0000000  10.0000000  )
         4           Y1  tau(   4) = (   0.9971442   2.7722780  10.0000000  )
         5           Ni1 tau(   5) = (   5.8923074   4.1425007  12.4099824  )
         6           Ni1 tau(   6) = (   1.9490095   1.3702227  12.4099824  )
         7           Y1  tau(   7) = (   2.9461537   4.1425007  12.4099824  )
         8           Y1  tau(   8) = (   4.8951633   1.3702227  12.4099824  )
         9           Ni1 tau(   9) = (   3.8980191   2.7404454  14.8199647  )
        10           Ni1 tau(  10) = (   7.8413170   5.5127234  14.8199647  )
        11           Y1  tau(  11) = (   6.8441728   2.7404454  14.8199647  )
        12           Y1  tau(  12) = (   4.8951633   5.5127234  14.8199647  )

     number of k points=    40  Fermi-Dirac smearing, width (Ry)=  0.0110
                       cart. coord. in units 2pi/alat
        k(    1) = (   0.0000000   0.0000000   0.0000000), wk =   0.0277778
        k(    2) = (   0.0000000   0.0300595   0.0000000), wk =   0.0555556
        k(    3) = (   0.0000000   0.0601190   0.0000000), wk =   0.0555556
        k(    4) = (   0.0000000  -0.0901785   0.0000000), wk =   0.0277778
        k(    5) = (   0.0282855  -0.0101738   0.0000000), wk =   0.0555556
        k(    6) = (   0.0282855   0.0198857   0.0000000), wk =   0.0555556
        k(    7) = (   0.0282855   0.0499452   0.0000000), wk =   0.0555556
        k(    8) = (   0.0282855  -0.1003524   0.0000000), wk =   0.0555556
        k(    9) = (   0.0282855  -0.0702929   0.0000000), wk =   0.0555556
        k(   10) = (   0.0282855  -0.0402333   0.0000000), wk =   0.0555556
        k(   11) = (   0.0565709  -0.0203477   0.0000000), wk =   0.0555556
        k(   12) = (   0.0565709   0.0097119   0.0000000), wk =   0.0555556
        k(   13) = (   0.0565709   0.0397714   0.0000000), wk =   0.0555556
        k(   14) = (   0.0565709  -0.1105262   0.0000000), wk =   0.0555556
        k(   15) = (   0.0565709  -0.0804667   0.0000000), wk =   0.0555556
        k(   16) = (   0.0565709  -0.0504072   0.0000000), wk =   0.0555556
        k(   17) = (  -0.0848564   0.0305215   0.0000000), wk =   0.0277778
        k(   18) = (  -0.0848564   0.0605810   0.0000000), wk =   0.0555556
        k(   19) = (  -0.0848564   0.0906405   0.0000000), wk =   0.0555556
        k(   20) = (  -0.0848564  -0.0596571   0.0000000), wk =   0.0277778
        k(   21) = (   0.0000000   0.0000000   0.0000000), wk =   0.0277778
        k(   22) = (   0.0000000   0.0300595   0.0000000), wk =   0.0555556
        k(   23) = (   0.0000000   0.0601190   0.0000000), wk =   0.0555556
        k(   24) = (   0.0000000  -0.0901785   0.0000000), wk =   0.0277778
        k(   25) = (   0.0282855  -0.0101738   0.0000000), wk =   0.0555556
        k(   26) = (   0.0282855   0.0198857   0.0000000), wk =   0.0555556
        k(   27) = (   0.0282855   0.0499452   0.0000000), wk =   0.0555556
        k(   28) = (   0.0282855  -0.1003524   0.0000000), wk =   0.0555556
        k(   29) = (   0.0282855  -0.0702929   0.0000000), wk =   0.0555556
        k(   30) = (   0.0282855  -0.0402333   0.0000000), wk =   0.0555556
        k(   31) = (   0.0565709  -0.0203477   0.0000000), wk =   0.0555556
        k(   32) = (   0.0565709   0.0097119   0.0000000), wk =   0.0555556
        k(   33) = (   0.0565709   0.0397714   0.0000000), wk =   0.0555556
        k(   34) = (   0.0565709  -0.1105262   0.0000000), wk =   0.0555556
        k(   35) = (   0.0565709  -0.0804667   0.0000000), wk =   0.0555556
        k(   36) = (   0.0565709  -0.0504072   0.0000000), wk =   0.0555556
        k(   37) = (  -0.0848564   0.0305215   0.0000000), wk =   0.0277778
        k(   38) = (  -0.0848564   0.0605810   0.0000000), wk =   0.0555556
        k(   39) = (  -0.0848564   0.0906405   0.0000000), wk =   0.0555556
        k(   40) = (  -0.0848564  -0.0596571   0.0000000), wk =   0.0277778

     Largest allocated arrays     est. size (Mb)     dimensions
     Largest temporary arrays     est. size (Mb)     dimensions

     Check: negative/imaginary core charge=   -0.000001    0.000000

     Initial potential from superposition of free atoms
     Check: negative starting charge=(component1):   -0.000354
     Check: negative starting charge=(component2):   -0.000269

     starting charge  161.97319, renormalised to  174.00000

     negative rho (up, down):  3.803E-04 2.887E-04

     *
     * You are using vdW-DF for exchange-correlation in this calculation.
     * Please cite the following three references that made this development
     * possible:
     *
     *   M. Dion, H. Rydberg, E. Schroder, D. C. Langreth, and
     *   B. I. Lundqvist, Phys. Rev. Lett. 92, 246401 (2004).
     *
     *   T. Thonhauser, V. R. Cooper, S. Li, A. Puzder, P. Hyldgaard, and
     *   D. C. Langreth, Phys. Rev. B 76, 125112 (2007).
     *
     *   G. Roman-Perez and J. M. Soler, Phys. Rev. Lett. 103, 096102 (2009).
     *
     *
     * If you are using vdW-DF2, please also cite:
     *
     *   K. Lee, E. D. Murray, L. Kong, B. I. Lundqvist, and
     *   D. C. Langreth, Phys. Rev. B 82, 081101(R) (2010).
     *
     *
     * If you are calculating the stress with vdW-DF, please also cite:
     *
     *   R. Sabatini, E. Kucukbenli, B. Kolb, T. Thonhauser, and
     *   S. de Gironcoli, J. Phys.: Condens. Matter 24, 424209 (2012).
     *

     Carrying out vdW-DF run using the following parameters:

     Nqs =      20    Nr_points =    1024   r_max =   100.000
     q_mesh =
               0.00001000     0.04494208     0.09755937     0.15916263
               0.23128650     0.31572767     0.41458969     0.53033537
               0.66584808     0.82450364     1.01025438     1.22772762
               1.48234092     1.78043706     2.12944203     2.53805004
               3.01644009     3.57652955     4.23227104     5.00000000

     Gradients computed in reciprocal space

     Adding external electric field

     Computed dipole along edir(3) :
        Dipole                0.0000 Ry au,          0.0000 Debye
        Dipole field          0.0000 Ry au

        Potential amp.       -0.0000 Ry
        Total length         45.7304 bohr

[...]

     Starting wfc are  156 randomized atomic wfcs

     Self-consistent Calculation

     iteration #  1     ecut=    36.75 Ry     beta=0.10
     Davidson diagonalization with overlap
     ethr =  1.00E-02,  avg # of iterations =  7.6

[...]

     Magnetic moment per site:
     atom:    1    charge:    9.5690    magn:    1.0117    constr:    0.0000
     atom:    2    charge:    9.5690    magn:    1.0116    constr:    0.0000
     atom:    3    charge:    0.9304    magn:    0.1547    constr:    0.0000
     atom:    4    charge:    0.9304    magn:    0.1547    constr:    0.0000
     atom:    5    charge:    9.5737    magn:    1.0119    constr:    0.0000
     atom:    6    charge:    9.5737    magn:    1.0119    constr:    0.0000
[...]

     PseudoPot. # 2 for Y  read from file:
     /afs/slac.stanford.edu/u/if/mamunm/psp/gbrv1.5pbe/Y.UPF
     MD5 check sum: d034151ed7554c50b6e82763ed42c788
     Pseudo is Ultrasoft + core correction, Zval = 11.0
     Generated by new atomic code, or converted to UPF format
     Using radial grid of  885 points,  6 beta functions with:
                l(1) =   0
                l(2) =   0
                l(3) =   1
                l(4) =   1
                l(5) =   2
                l(6) =   2
     Q(r) pseudized with  8 coefficients,  rinner =    1.200   1.200   1.200
                                                       1.200   1.200

     vdW kernel table read from file vdW_kernel_table
     MD5 check sum: 095c7af220d748ca6e76c0b4c6cfb241

     atomic species   valence    mass     pseudopotential
        Ni1           18.00    58.69340     Ni( 1.00)
        Y1            11.00    88.90584     Y ( 1.00)

     Starting magnetic structure
     atomic species   magnetization
        Ni1          0.111
        Y1           0.182

     No symmetry found

   Cartesian axes

     site n.     atom                  positions (alat units)
         1           Ni1 tau(   1) = (   0.0000000   0.0000000  10.0000000  )
         2           Ni1 tau(   2) = (   3.9432979   2.7722780  10.0000000  )
         3           Y1  tau(   3) = (   2.9461537   0.0000000  10.0000000  )
         4           Y1  tau(   4) = (   0.9971442   2.7722780  10.0000000  )
         5           Ni1 tau(   5) = (   5.8923074   4.1425007  12.4099824  )
         6           Ni1 tau(   6) = (   1.9490095   1.3702227  12.4099824  )
         7           Y1  tau(   7) = (   2.9461537   4.1425007  12.4099824  )
         8           Y1  tau(   8) = (   4.8951633   1.3702227  12.4099824  )
         9           Ni1 tau(   9) = (   3.9089589   2.7482230  14.5799654  )
        10           Ni1 tau(  10) = (   7.8523553   5.5203977  14.5799364  )
        11           Y1  tau(  11) = (   6.8594431   2.7511582  14.8197234  )
        12           Y1  tau(  12) = (   4.9104538   5.5234945  14.8197215  )

     number of k points=    40  Fermi-Dirac smearing, width (Ry)=  0.0110
                       cart. coord. in units 2pi/alat
        k(    1) = (   0.0000000   0.0000000   0.0000000), wk =   0.0277778
        k(    2) = (   0.0000000   0.0300595   0.0000000), wk =   0.0555556
        k(    3) = (   0.0000000   0.0601190   0.0000000), wk =   0.0555556
        k(    4) = (   0.0000000  -0.0901785   0.0000000), wk =   0.0277778
        k(    5) = (   0.0282855  -0.0101738   0.0000000), wk =   0.0555556
        k(    6) = (   0.0282855   0.0198857   0.0000000), wk =   0.0555556
        k(    7) = (   0.0282855   0.0499452   0.0000000), wk =   0.0555556
        k(    8) = (   0.0282855  -0.1003524   0.0000000), wk =   0.0555556
        k(    9) = (   0.0282855  -0.0702929   0.0000000), wk =   0.0555556
        k(   10) = (   0.0282855  -0.0402333   0.0000000), wk =   0.0555556
        k(   11) = (   0.0565709  -0.0203477   0.0000000), wk =   0.0555556
        k(   12) = (   0.0565709   0.0097119   0.0000000), wk =   0.0555556
        k(   13) = (   0.0565709   0.0397714   0.0000000), wk =   0.0555556
        k(   14) = (   0.0565709  -0.1105262   0.0000000), wk =   0.0555556
        k(   15) = (   0.0565709  -0.0804667   0.0000000), wk =   0.0555556
        k(   16) = (   0.0565709  -0.0504072   0.0000000), wk =   0.0555556
        k(   17) = (  -0.0848564   0.0305215   0.0000000), wk =   0.0277778
        k(   18) = (  -0.0848564   0.0605810   0.0000000), wk =   0.0555556
        k(   19) = (  -0.0848564   0.0906405   0.0000000), wk =   0.0555556
        k(   20) = (  -0.0848564  -0.0596571   0.0000000), wk =   0.0277778
        k(   21) = (   0.0000000   0.0000000   0.0000000), wk =   0.0277778
        k(   22) = (   0.0000000   0.0300595   0.0000000), wk =   0.0555556
        k(   23) = (   0.0000000   0.0601190   0.0000000), wk =   0.0555556
        k(   24) = (   0.0000000  -0.0901785   0.0000000), wk =   0.0277778
        k(   25) = (   0.0282855  -0.0101738   0.0000000), wk =   0.0555556
        k(   26) = (   0.0282855   0.0198857   0.0000000), wk =   0.0555556
        k(   27) = (   0.0282855   0.0499452   0.0000000), wk =   0.0555556
        k(   28) = (   0.0282855  -0.1003524   0.0000000), wk =   0.0555556
        k(   29) = (   0.0282855  -0.0702929   0.0000000), wk =   0.0555556
        k(   30) = (   0.0282855  -0.0402333   0.0000000), wk =   0.0555556
        k(   31) = (   0.0565709  -0.0203477   0.0000000), wk =   0.0555556
        k(   32) = (   0.0565709   0.0097119   0.0000000), wk =   0.0555556
        k(   33) = (   0.0565709   0.0397714   0.0000000), wk =   0.0555556
        k(   34) = (   0.0565709  -0.1105262   0.0000000), wk =   0.0555556
        k(   35) = (   0.0565709  -0.0804667   0.0000000), wk =   0.0555556
        k(   36) = (   0.0565709  -0.0504072   0.0000000), wk =   0.0555556
        k(   37) = (  -0.0848564   0.0305215   0.0000000), wk =   0.0277778
        k(   38) = (  -0.0848564   0.0605810   0.0000000), wk =   0.0555556
        k(   39) = (  -0.0848564   0.0906405   0.0000000), wk =   0.0555556
        k(   40) = (  -0.0848564  -0.0596571   0.0000000), wk =   0.0277778

     Largest allocated arrays     est. size (Mb)     dimensions
     Largest temporary arrays     est. size (Mb)     dimensions

     Check: negative/imaginary core charge=   -0.000001    0.000000

     Initial potential from superposition of free atoms
     Check: negative starting charge=(component1):   -0.000359
     Check: negative starting charge=(component2):   -0.000273

     starting charge  161.97319, renormalised to  174.00000

[...]

     *
     * You are using vdW-DF for exchange-correlation in this calculation.
     * Please cite the following three references that made this development
     * possible:
     *
     *   M. Dion, H. Rydberg, E. Schroder, D. C. Langreth, and
     *   B. I. Lundqvist, Phys. Rev. Lett. 92, 246401 (2004).
     *
     *   T. Thonhauser, V. R. Cooper, S. Li, A. Puzder, P. Hyldgaard, and
     *   D. C. Langreth, Phys. Rev. B 76, 125112 (2007).
     *
     *   G. Roman-Perez and J. M. Soler, Phys. Rev. Lett. 103, 096102 (2009).
     *
     *
     * If you are using vdW-DF2, please also cite:
     *
     *   K. Lee, E. D. Murray, L. Kong, B. I. Lundqvist, and
     *   D. C. Langreth, Phys. Rev. B 82, 081101(R) (2010).
     *
     *
     * If you are calculating the stress with vdW-DF, please also cite:
     *
     *   R. Sabatini, E. Kucukbenli, B. Kolb, T. Thonhauser, and
     *   S. de Gironcoli, J. Phys.: Condens. Matter 24, 424209 (2012).
     *

     Carrying out vdW-DF run using the following parameters:

     Nqs =      20    Nr_points =    1024   r_max =   100.000
     q_mesh =
               0.00001000     0.04494208     0.09755937     0.15916263
               0.23128650     0.31572767     0.41458969     0.53033537
               0.66584808     0.82450364     1.01025438     1.22772762
               1.48234092     1.78043706     2.12944203     2.53805004
               3.01644009     3.57652955     4.23227104     5.00000000

     Gradients computed in reciprocal space

[...]

     Starting wfc are  156 randomized atomic wfcs

     Self-consistent Calculation

[...]

     iteration # 16     ecut=    36.75 Ry     beta=0.10
     Davidson diagonalization with overlap
     c_bands:  2 eigenvalues not converged
     c_bands:  1 eigenvalues not converged
     ethr =  6.59E-05,  avg # of iterations =  5.5

[...]

     total energy              =   -2629.00359008 Ry
     Harris-Foulkes estimate   =   -2629.00358603 Ry
     estimated scf accuracy    <       0.00000119 Ry

[...]

     iteration # 33     ecut=    36.75 Ry     beta=0.10
     Davidson diagonalization with overlap
     ethr =  6.82E-10,  avg # of iterations =  2.7

[...]

     negative rho (up, down):  5.844E-04 5.829E-04

[...]

     Adding external electric field

     Computed dipole along edir(3) :
        Dipole                0.0827 Ry au,          0.2102 Debye
        Dipole field          0.0002 Ry au

        Potential amp.       -0.0174 Ry
        Total length         45.7304 bohr

     Magnetic moment per site:
     atom:    1    charge:    9.3558    magn:    0.0033    constr:    0.0000
     atom:    2    charge:    9.3557    magn:    0.0033    constr:    0.0000
     atom:    3    charge:    0.8664    magn:   -0.0002    constr:    0.0000
     atom:    4    charge:    0.8664    magn:   -0.0002    constr:    0.0000
     atom:    5    charge:    9.3469    magn:    0.0020    constr:    0.0000
     atom:    6    charge:    9.3469    magn:    0.0020    constr:    0.0000
     atom:    7    charge:    0.8689    magn:   -0.0000    constr:    0.0000
     atom:    8    charge:    0.8689    magn:   -0.0000    constr:    0.0000
     atom:    9    charge:    9.3486    magn:    0.0014    constr:    0.0000
     atom:   10    charge:    9.3486    magn:    0.0014    constr:    0.0000
     atom:   11    charge:    0.8666    magn:   -0.0001    constr:    0.0000
     atom:   12    charge:    0.8666    magn:   -0.0001    constr:    0.0000

     End of self-consistent calculation

 ------ SPIN UP ------------

[...]

 ------ SPIN DOWN ----------

[...]

          k = 0.0566-0.0504 0.0000 ( 20585 PWs)   bands (ev):

[...]

          k =-0.0849-0.0597 0.0000 ( 20602 PWs)   bands (ev):

  -101.8104-101.8103-101.5987-101.5986-101.4572-101.4570 -62.2102 -62.2100
   -62.2093 -62.2068 -62.1626 -62.1622 -62.0386 -62.0383 -61.9994 -61.9969
   -61.9580 -61.9577 -61.9362 -61.9360 -61.8435 -61.8410 -61.7537 -61.7536
   -41.9819 -41.9521 -41.9414 -41.9115 -41.1350 -41.0914 -22.1373 -22.1136
   -22.0611 -21.9996 -21.9880 -21.9455 -21.9237 -21.8724 -21.8317 -21.7977
   -21.6531 -21.6288 -21.3869 -21.1262 -21.1220 -21.0869 -21.0609 -20.8802
    -2.5163  -2.4932  -1.6087  -1.3785  -1.2397  -1.0209  -0.9783  -0.9566
    -0.8181  -0.6977  -0.6292  -0.5170  -0.5115  -0.4743  -0.4522  -0.4308
    -0.3138  -0.3054  -0.2314  -0.1911  -0.1690  -0.1424  -0.1401  -0.1030
    -0.0522  -0.0154  -0.0120  -0.0096   0.0051   0.0350   0.1150   0.1254
     0.2882   0.2934   0.3035   0.4476   0.5078   0.5151   0.6003   0.6313
     0.7128   1.3030   1.3635   1.4319   1.5535   1.8858   2.0532   2.4229
     2.4339   2.7553   2.9306   2.9575   3.1323   3.4246   3.6482   3.7436
     3.7689   3.8254   3.8609   4.3264   4.4645   4.4969   5.1577   5.3267
     5.5276   5.5352   5.8376   5.9905   6.0481

     the Fermi energy is     1.2786 ev

!    total energy              =   -2629.00360220 Ry
     Harris-Foulkes estimate   =   -2629.00359047 Ry
     estimated scf accuracy    <       0.00000062 Ry

     The total energy is the sum of the following terms:

     one-electron contribution =  -15221.43726416 Ry
     hartree contribution      =    7616.72664591 Ry
     xc contribution           =    -390.45215348 Ry
     ewald contribution        =    5366.21146504 Ry
     electric field correction =       0.00001570 Ry
     smearing contrib. (-TS)   =      -0.05231122 Ry

     total magnetization       =    -0.03 Bohr mag/cell
     absolute magnetization    =     0.08 Bohr mag/cell

     convergence has been achieved in  33 iterations

 BEEF-vdW xc energy contributions
           1 :   -342.547625450511
           2 :    309.139706356243
           3 :   -252.222135294408
           4 :    187.015800115860
           5 :   -127.728412394797
           6 :    82.7728852909226
           7 :   -53.5244665461246
           8 :    36.3767778192944
           9 :   -26.3029559291666
          10 :    19.7800423468273
          11 :   -15.7632804290138
          12 :    14.7098768045703
          13 :   -16.7956462295361
          14 :    20.7499671341783
          15 :   -24.0963379016688
          16 :    24.4707572641628
          17 :   -20.9758584088745
          18 :    14.6152809534310
          19 :   -7.60095408336429
          20 :    2.07495538268103
          21 :   0.909316512572218
          22 :   -1.59663781121179
          23 :   0.962775510060339
          24 :   0.101134876290757
          25 :   -1.26601003379852
          26 :    2.65400490261510
          27 :   -4.36656545235127
          28 :    6.10346253968441
          29 :   -7.19969488567295
          30 :    7.04233509545912
          31 :   -30.2524917201001
          32 :   -20.8552443304525

     Forces acting on atoms (Ry/au):

     negative rho (up, down):  5.844E-04 5.829E-04
     atom    1 type  1   force =    -0.00014595   -0.00010047    0.02431496
     atom    2 type  1   force =    -0.00012461   -0.00008805    0.02432303
     atom    3 type  2   force =    -0.00179400   -0.00125337   -0.00834880
     atom    4 type  2   force =    -0.00178564   -0.00126421   -0.00834925
     atom    5 type  1   force =     0.00015149    0.00010811    0.00294506
     atom    6 type  1   force =     0.00014889    0.00010232    0.00293297
     atom    7 type  2   force =     0.00115880    0.00081886   -0.01917088
     atom    8 type  2   force =     0.00116371    0.00081345   -0.01916580
     atom    9 type  1   force =     0.00030282    0.00020862   -0.00012664
     atom   10 type  1   force =     0.00028288    0.00020325   -0.00012982
     atom   11 type  2   force =     0.00031838    0.00022577    0.00038719
     atom   12 type  2   force =     0.00032325    0.00022571    0.00038799

     Total force =     0.045705     Total SCF correction =     0.002319

     entering subroutine stress ...

     negative rho (up, down):  5.844E-04 5.829E-04
          total   stress  (Ry/bohr**3)                   (kbar)     P=  -30.51
  -0.00023987  -0.00004941   0.00000409        -35.29     -7.27      0.60
  -0.00004941  -0.00020433   0.00000288         -7.27    -30.06      0.42
   0.00000409   0.00000288  -0.00017799          0.60      0.42    -26.18

 !ASE

     Writing output data file calc.save

     General routines

     Parallel routines

   This run was terminated on:   1:27:39  19Dec2018

   JOB DONE.
Job  /afs/slac/g/suncat/bin/suncat-tsmpirun -x LD_LIBRARY_PATH -wdir /scratch/qe530392_ZWp31 pw.x -in pw.inp

TID   HOST_NAME   COMMAND_LINE            STATUS            TERMINATION_TIME
00000 suncat2050 pw.x -in pw.inp   Done                     12/19/2018 01:27:39
00001 suncat2050 pw.x -in pw.inp   Done                     12/19/2018 01:27:39
00002 suncat2050 pw.x -in pw.inp   Done                     12/19/2018 01:27:39
00003 suncat2050 pw.x -in pw.inp   Done                     12/19/2018 01:27:39
00004 suncat2050 pw.x -in pw.inp   Done                     12/19/2018 01:27:39
00005 suncat2050 pw.x -in pw.inp   Done                     12/19/2018 01:27:39
00006 suncat2050 pw.x -in pw.inp   Done                     12/19/2018 01:27:39
00007 suncat2050 pw.x -in pw.inp   Done                     12/19/2018 01:27:39
00008 suncat2050 pw.x -in pw.inp   Done                     12/19/2018 01:27:39
00009 suncat2050 pw.x -in pw.inp   Done                     12/19/2018 01:27:39
00010 suncat2050 pw.x -in pw.inp   Done                     12/19/2018 01:27:39
00011 suncat2050 pw.x -in pw.inp   Done                     12/19/2018 01:27:39
00012 suncat2050 pw.x -in pw.inp   Done                     12/19/2018 01:27:39
00013 suncat2050 pw.x -in pw.inp   Done                     12/19/2018 01:27:39
00014 suncat2050 pw.x -in pw.inp   Done                     12/19/2018 01:27:39
00015 suncat2050 pw.x -in pw.inp   Done                     12/19/2018 01:27:39
00016 suncat2049 pw.x -in pw.inp   Done                     12/19/2018 01:27:39
00017 suncat2049 pw.x -in pw.inp   Done                     12/19/2018 01:27:39
00018 suncat2049 pw.x -in pw.inp   Done                     12/19/2018 01:27:39
00019 suncat2049 pw.x -in pw.inp   Done                     12/19/2018 01:27:39
00020 suncat2049 pw.x -in pw.inp   Done                     12/19/2018 01:27:39
00021 suncat2049 pw.x -in pw.inp   Done                     12/19/2018 01:27:39
00022 suncat2049 pw.x -in pw.inp   Done                     12/19/2018 01:27:39
00023 suncat2049 pw.x -in pw.inp   Done                     12/19/2018 01:27:39
00024 suncat2049 pw.x -in pw.inp   Done                     12/19/2018 01:27:39
00025 suncat2049 pw.x -in pw.inp   Done                     12/19/2018 01:27:39
00026 suncat2049 pw.x -in pw.inp   Done                     12/19/2018 01:27:39
00027 suncat2049 pw.x -in pw.inp   Done                     12/19/2018 01:27:39
00028 suncat2049 pw.x -in pw.inp   Done                     12/19/2018 01:27:39
00029 suncat2049 pw.x -in pw.inp   Done                     12/19/2018 01:27:39
00030 suncat2049 pw.x -in pw.inp   Done                     12/19/2018 01:27:39
00031 suncat2049 pw.x -in pw.inp   Done                     12/19/2018 01:27:39