     Program PWSCF v.5.1rc2 (svn rev. 11289) starts on 25Dec2018 at  4: 0:48

     Current dimensions of program PWSCF are:
     Max number of different atomic species (ntypx) = 10
     Max number of k-points (npk) =  40000
     Max angular momentum in pseudopotentials (lmaxx) =  3
     Presently stress not available with electric field

     IMPORTANT: XC functional enforced from input :
     Exchange-correlation      = BEEF-VDW ( 1  4 27 13 2)
     Any further DFT definition will be discarded
     Please, verify this is what you really want

     Subspace diagonalization in iterative solution of the eigenvalue problem:
     a serial algorithm will be used

     Found symmetry operation: I + ( -0.5000 -0.5000  0.0000)
     This is a supercell, fractional translations are disabled

     bravais-lattice index     =            0
     lattice parameter (alat)  =       1.8897  a.u.
     unit-cell volume          =    7092.3057 (a.u.)^3
     number of atoms/cell      =           12
     number of atomic types    =            2
     number of electrons       =       150.00
     number of Kohn-Sham states=          105
     kinetic-energy cutoff     =      36.7493  Ry
     charge density cutoff     =     367.4932  Ry
     convergence threshold     =      1.0E-06
     mixing beta               =       0.1000
     number of iterations used =           10  plain     mixing
     Exchange-correlation      = BEEF-VDW ( 1  4 27 13 2)
     nstep                     =           50

     celldm(1)=   1.889726  celldm(2)=   0.000000  celldm(3)=   0.000000
     celldm(4)=   0.000000  celldm(5)=   0.000000  celldm(6)=   0.000000

     crystal axes: (cart. coord. in units of alat)
               a(1) = (   6.753264   0.000000   0.000000 )
               a(2) = (   2.936311   6.081501   0.000000 )
               a(3) = (   0.000000   0.000000  25.589770 )

     reciprocal axes: (cart. coord. in units 2 pi/alat)
               b(1) = (  0.148077 -0.071495  0.000000 )
               b(2) = (  0.000000  0.164433  0.000000 )
               b(3) = (  0.000000  0.000000  0.039078 )

     PseudoPot. # 1 for Y  read from file:
     /afs/slac.stanford.edu/u/if/mamunm/psp/gbrv1.5pbe/Y.UPF
     MD5 check sum: d034151ed7554c50b6e82763ed42c788
     Pseudo is Ultrasoft + core correction, Zval = 11.0
     Generated by new atomic code, or converted to UPF format
     Using radial grid of  885 points,  6 beta functions with:
                l(1) =   0
                l(2) =   0
                l(3) =   1
                l(4) =   1
                l(5) =   2
                l(6) =   2
     Q(r) pseudized with  8 coefficients,  rinner =    1.200   1.200   1.200
                                                       1.200   1.200

     PseudoPot. # 2 for Pb read from file:
     /afs/slac.stanford.edu/u/if/mamunm/psp/gbrv1.5pbe/Pb.UPF
     MD5 check sum: 3d1c1779aa92214d1e8f3a7db79003e2
     Pseudo is Ultrasoft + core correction, Zval = 14.0
     Generated by new atomic code, or converted to UPF format
     Using radial grid of  899 points,  6 beta functions with:
                l(1) =   0
                l(2) =   0
                l(3) =   1
                l(4) =   1
                l(5) =   2
                l(6) =   2
     Q(r) pseudized with  6 coefficients,  rinner =    1.000   1.000   1.000
                                                       1.000   1.000

     vdW kernel table read from file vdW_kernel_table
     MD5 check sum: 095c7af220d748ca6e76c0b4c6cfb241

     atomic species   valence    mass     pseudopotential
        Y1            11.00    88.90584     Y ( 1.00)
        Pb1           14.00   207.20000     Pb( 1.00)

     No symmetry found

   Cartesian axes

     site n.     atom                  positions (alat units)
         1           Y1  tau(   1) = (   0.0000000   0.0000000  10.0000000  )
         2           Y1  tau(   2) = (   4.8447877   3.0407503  10.0000000  )
         3           Pb1 tau(   3) = (   3.3766320   0.0000000  10.0000000  )
         4           Pb1 tau(   4) = (   1.4681557   3.0407503  10.0000000  )
         5           Y1  tau(   5) = (   6.7532639   4.2385736  12.7948849  )
         6           Y1  tau(   6) = (   1.9084762   1.1978233  12.7948849  )
         7           Pb1 tau(   7) = (   3.3766320   4.2385736  12.7948849  )
         8           Pb1 tau(   8) = (   5.2851082   1.1978233  12.7948849  )
         9           Y1  tau(   9) = (   3.8169525   2.3956466  15.5897698  )
        10           Y1  tau(  10) = (   8.6617401   5.4363969  15.5897698  )
        11           Pb1 tau(  11) = (   7.1935844   2.3956466  15.5897698  )
        12           Pb1 tau(  12) = (   5.2851082   5.4363969  15.5897698  )

     number of k points=    20  Fermi-Dirac smearing, width (Ry)=  0.0110
                       cart. coord. in units 2pi/alat
        k(    1) = (   0.0000000   0.0000000   0.0000000), wk =   0.0555556
        k(    2) = (   0.0000000   0.0274055   0.0000000), wk =   0.1111111
        k(    3) = (   0.0000000   0.0548110   0.0000000), wk =   0.1111111
        k(    4) = (   0.0000000  -0.0822166   0.0000000), wk =   0.0555556
        k(    5) = (   0.0246794  -0.0119159   0.0000000), wk =   0.1111111
        k(    6) = (   0.0246794   0.0154896   0.0000000), wk =   0.1111111
        k(    7) = (   0.0246794   0.0428951   0.0000000), wk =   0.1111111
        k(    8) = (   0.0246794  -0.0941324   0.0000000), wk =   0.1111111
        k(    9) = (   0.0246794  -0.0667269   0.0000000), wk =   0.1111111
        k(   10) = (   0.0246794  -0.0393214   0.0000000), wk =   0.1111111
        k(   11) = (   0.0493588  -0.0238318   0.0000000), wk =   0.1111111
        k(   12) = (   0.0493588   0.0035737   0.0000000), wk =   0.1111111
        k(   13) = (   0.0493588   0.0309793   0.0000000), wk =   0.1111111
        k(   14) = (   0.0493588  -0.1060483   0.0000000), wk =   0.1111111
        k(   15) = (   0.0493588  -0.0786428   0.0000000), wk =   0.1111111
        k(   16) = (   0.0493588  -0.0512373   0.0000000), wk =   0.1111111
        k(   17) = (  -0.0740383   0.0357477   0.0000000), wk =   0.0555556
        k(   18) = (  -0.0740383   0.0631532   0.0000000), wk =   0.1111111
        k(   19) = (  -0.0740383   0.0905587   0.0000000), wk =   0.1111111
        k(   20) = (  -0.0740383  -0.0464689   0.0000000), wk =   0.0555556

     Largest allocated arrays     est. size (Mb)     dimensions
     Largest temporary arrays     est. size (Mb)     dimensions

     Check: negative/imaginary core charge=   -0.000001    0.000000

     Initial potential from superposition of free atoms
     Check: negative starting charge=   -0.099863

     starting charge  149.95908, renormalised to  150.00000

     negative rho (up, down):  9.989E-02 0.000E+00

     *
     * You are using vdW-DF for exchange-correlation in this calculation.
     * Please cite the following three references that made this development
     * possible:
     *
     *   M. Dion, H. Rydberg, E. Schroder, D. C. Langreth, and
     *   B. I. Lundqvist, Phys. Rev. Lett. 92, 246401 (2004).
     *
     *   T. Thonhauser, V. R. Cooper, S. Li, A. Puzder, P. Hyldgaard, and
     *   D. C. Langreth, Phys. Rev. B 76, 125112 (2007).
     *
     *   G. Roman-Perez and J. M. Soler, Phys. Rev. Lett. 103, 096102 (2009).
     *
     *
     * If you are using vdW-DF2, please also cite:
     *
     *   K. Lee, E. D. Murray, L. Kong, B. I. Lundqvist, and
     *   D. C. Langreth, Phys. Rev. B 82, 081101(R) (2010).
     *
     *
     * If you are calculating the stress with vdW-DF, please also cite:
     *
     *   R. Sabatini, E. Kucukbenli, B. Kolb, T. Thonhauser, and
     *   S. de Gironcoli, J. Phys.: Condens. Matter 24, 424209 (2012).
     *

     Carrying out vdW-DF run using the following parameters:

     Nqs =      20    Nr_points =    1024   r_max =   100.000
     q_mesh =
               0.00001000     0.04494208     0.09755937     0.15916263
               0.23128650     0.31572767     0.41458969     0.53033537
               0.66584808     0.82450364     1.01025438     1.22772762
               1.48234092     1.78043706     2.12944203     2.53805004
               3.01644009     3.57652955     4.23227104     5.00000000

     Gradients computed in reciprocal space

     Adding external electric field

     Computed dipole along edir(3) :
        Dipole               -0.0000 Ry au,         -0.0000 Debye
        Dipole field         -0.0000 Ry au

        Potential amp.        0.0000 Ry
        Total length         47.1487 bohr

     Starting wfc are  132 randomized atomic wfcs

     Self-consistent Calculation

     iteration #  1     ecut=    36.75 Ry     beta=0.10
     Davidson diagonalization with overlap
     ethr =  1.00E-02,  avg # of iterations =  2.0

     Threshold (ethr) on eigenvalues was too large:
     Diagonalizing with lowered threshold

     Davidson diagonalization with overlap
     ethr =  7.00E-04,  avg # of iterations =  2.0

[...]

     total energy              =   -1558.55567998 Ry
     Harris-Foulkes estimate   =   -1558.74065511 Ry
     estimated scf accuracy    <       1.11921972 Ry

[...]

     End of self-consistent calculation

          k = 0.0000 0.0000 0.0000 ( 26709 PWs)   bands (ev):

   -42.4169 -42.4168 -42.3971 -42.3970 -41.8950 -41.8742 -22.4601 -22.4556
   -22.4312 -22.4245 -22.3803 -22.3788 -22.3298 -22.3201 -22.2992 -22.2897
   -22.1038 -22.1034 -21.9697 -21.8990 -21.8660 -21.8245 -21.7903 -21.6798
   -15.7594 -15.7306 -15.6895 -15.6616 -15.6555 -15.6547 -15.6375 -15.6293
   -15.6158 -15.5349 -15.5303 -15.5208 -15.4919 -15.4915 -15.4645 -15.4558
   -15.4213 -15.4203 -15.4088 -15.4074 -15.4074 -15.4071 -15.3888 -15.3868
   -15.3855 -15.3814 -15.3671 -15.3669 -15.3107 -15.3094  -8.4456  -7.5448
    -7.0304  -6.7413  -6.1200  -5.8868  -1.5977  -1.1623  -1.0328  -0.8298
    -0.6988  -0.5340  -0.4498  -0.0224   0.3158   0.3516   0.5899   0.8335
     1.2080   1.2360   1.2587   1.3040   1.5300   1.7241   1.7527   2.1002
     2.6099   2.6167   2.6899   2.7434   2.8294   2.8485   2.9294   3.1221
     3.4007   3.5427   3.7535   3.7717   3.9485   3.9730   4.1064   4.1300
     4.1418   4.1640   4.1699   4.2598   4.2895   4.3987   4.4521   4.6832
     4.8131

[...]

          k =-0.0740 0.0357 0.0000 ( 26692 PWs)   bands (ev):

[...]

     the Fermi energy is     1.4275 ev

!    total energy              =   -1558.60314854 Ry
     Harris-Foulkes estimate   =   -1558.60309499 Ry
     estimated scf accuracy    <       0.00000076 Ry

     The total energy is the sum of the following terms:

     one-electron contribution =   -7580.71254447 Ry
     hartree contribution      =    3822.95831170 Ry
     xc contribution           =    -561.66526852 Ry
     ewald contribution        =    2760.88142412 Ry
     electric field correction =       0.00000000 Ry
     smearing contrib. (-TS)   =      -0.06507137 Ry

     convergence has been achieved in  14 iterations

 BEEF-vdW xc energy contributions
           1 :   -497.623842136373
           2 :    458.034626201855
           3 :   -388.696680690881
           4 :    305.174302939505
           5 :   -223.033207062728
           6 :    153.309880922307
[...]
     Pseudo is Ultrasoft + core correction, Zval = 11.0
     Generated by new atomic code, or converted to UPF format
     Using radial grid of  885 points,  6 beta functions with:
                l(1) =   0
                l(2) =   0
                l(3) =   1
                l(4) =   1
                l(5) =   2
                l(6) =   2
     Q(r) pseudized with  8 coefficients,  rinner =    1.200   1.200   1.200
                                                       1.200   1.200

     PseudoPot. # 2 for Pb read from file:
     /afs/slac.stanford.edu/u/if/mamunm/psp/gbrv1.5pbe/Pb.UPF
     MD5 check sum: 3d1c1779aa92214d1e8f3a7db79003e2
     Pseudo is Ultrasoft + core correction, Zval = 14.0
     Generated by new atomic code, or converted to UPF format
     Using radial grid of  899 points,  6 beta functions with:
                l(1) =   0
                l(2) =   0
                l(3) =   1
                l(4) =   1
                l(5) =   2
                l(6) =   2
     Q(r) pseudized with  6 coefficients,  rinner =    1.000   1.000   1.000
                                                       1.000   1.000

     vdW kernel table read from file vdW_kernel_table
     MD5 check sum: 095c7af220d748ca6e76c0b4c6cfb241

     atomic species   valence    mass     pseudopotential
        Y1            11.00    88.90584     Y ( 1.00)
        Pb1           14.00   207.20000     Pb( 1.00)

     No symmetry found

   Cartesian axes

     site n.     atom                  positions (alat units)
         1           Y1  tau(   1) = (   0.0000000   0.0000000  10.0000000  )
         2           Y1  tau(   2) = (   4.8447877   3.0407503  10.0000000  )
         3           Pb1 tau(   3) = (   3.3766320   0.0000000  10.0000000  )
         4           Pb1 tau(   4) = (   1.4681557   3.0407503  10.0000000  )
         5           Y1  tau(   5) = (   6.7532639   4.2385736  12.7948849  )
         6           Y1  tau(   6) = (   1.9084762   1.1978233  12.7948849  )
         7           Pb1 tau(   7) = (   3.3766320   4.2385736  12.7948849  )
         8           Pb1 tau(   8) = (   5.2851082   1.1978233  12.7948849  )
         9           Y1  tau(   9) = (   3.8347498   2.4068540  15.5093796  )
        10           Y1  tau(  10) = (   8.6794482   5.4475058  15.5094571  )
        11           Pb1 tau(  11) = (   7.2036090   2.4017983  15.7897703  )
        12           Pb1 tau(  12) = (   5.2950523   5.4428008  15.7897386  )

     number of k points=    20  Fermi-Dirac smearing, width (Ry)=  0.0110
                       cart. coord. in units 2pi/alat
        k(    1) = (   0.0000000   0.0000000   0.0000000), wk =   0.0555556
        k(    2) = (   0.0000000   0.0274055   0.0000000), wk =   0.1111111
        k(    3) = (   0.0000000   0.0548110   0.0000000), wk =   0.1111111
        k(    4) = (   0.0000000  -0.0822166   0.0000000), wk =   0.0555556
        k(    5) = (   0.0246794  -0.0119159   0.0000000), wk =   0.1111111
        k(    6) = (   0.0246794   0.0154896   0.0000000), wk =   0.1111111
        k(    7) = (   0.0246794   0.0428951   0.0000000), wk =   0.1111111
        k(    8) = (   0.0246794  -0.0941324   0.0000000), wk =   0.1111111
        k(    9) = (   0.0246794  -0.0667269   0.0000000), wk =   0.1111111
        k(   10) = (   0.0246794  -0.0393214   0.0000000), wk =   0.1111111
        k(   11) = (   0.0493588  -0.0238318   0.0000000), wk =   0.1111111
        k(   12) = (   0.0493588   0.0035737   0.0000000), wk =   0.1111111
        k(   13) = (   0.0493588   0.0309793   0.0000000), wk =   0.1111111
        k(   14) = (   0.0493588  -0.1060483   0.0000000), wk =   0.1111111
        k(   15) = (   0.0493588  -0.0786428   0.0000000), wk =   0.1111111
        k(   16) = (   0.0493588  -0.0512373   0.0000000), wk =   0.1111111
        k(   17) = (  -0.0740383   0.0357477   0.0000000), wk =   0.0555556
        k(   18) = (  -0.0740383   0.0631532   0.0000000), wk =   0.1111111
        k(   19) = (  -0.0740383   0.0905587   0.0000000), wk =   0.1111111
        k(   20) = (  -0.0740383  -0.0464689   0.0000000), wk =   0.0555556

     Largest allocated arrays     est. size (Mb)     dimensions
     Largest temporary arrays     est. size (Mb)     dimensions

     Check: negative/imaginary core charge=   -0.000001    0.000000

     Initial potential from superposition of free atoms
     Check: negative starting charge=   -0.100385

     starting charge  149.95908, renormalised to  150.00000

[...]

     *
     * You are using vdW-DF for exchange-correlation in this calculation.
     * Please cite the following three references that made this development
     * possible:
     *
     *   M. Dion, H. Rydberg, E. Schroder, D. C. Langreth, and
     *   B. I. Lundqvist, Phys. Rev. Lett. 92, 246401 (2004).
     *
     *   T. Thonhauser, V. R. Cooper, S. Li, A. Puzder, P. Hyldgaard, and
     *   D. C. Langreth, Phys. Rev. B 76, 125112 (2007).
     *
     *   G. Roman-Perez and J. M. Soler, Phys. Rev. Lett. 103, 096102 (2009).
     *
     *
     * If you are using vdW-DF2, please also cite:
     *
     *   K. Lee, E. D. Murray, L. Kong, B. I. Lundqvist, and
     *   D. C. Langreth, Phys. Rev. B 82, 081101(R) (2010).
     *
     *
     * If you are calculating the stress with vdW-DF, please also cite:
     *
     *   R. Sabatini, E. Kucukbenli, B. Kolb, T. Thonhauser, and
     *   S. de Gironcoli, J. Phys.: Condens. Matter 24, 424209 (2012).
     *

     Carrying out vdW-DF run using the following parameters:

     Nqs =      20    Nr_points =    1024   r_max =   100.000
     q_mesh =
               0.00001000     0.04494208     0.09755937     0.15916263
               0.23128650     0.31572767     0.41458969     0.53033537
               0.66584808     0.82450364     1.01025438     1.22772762
               1.48234092     1.78043706     2.12944203     2.53805004
               3.01644009     3.57652955     4.23227104     5.00000000

     Gradients computed in reciprocal space

[...]

     Starting wfc are  132 randomized atomic wfcs

     Self-consistent Calculation

[...]

     Threshold (ethr) on eigenvalues was too large:
     Diagonalizing with lowered threshold

     Davidson diagonalization with overlap
     ethr =  6.16E-04,  avg # of iterations =  2.0

[...]

     total energy              =   -1558.61089712 Ry
     Harris-Foulkes estimate   =   -1558.61084671 Ry
     estimated scf accuracy    <       0.00000110 Ry

     iteration # 15     ecut=    36.75 Ry     beta=0.10
     Davidson diagonalization with overlap
     ethr =  7.32E-10,  avg # of iterations =  5.3

[...]

     negative rho (up, down):  1.120E-01 0.000E+00

     Adding external electric field

     Computed dipole along edir(3) :
        Dipole               -0.0712 Ry au,         -0.1810 Debye
        Dipole field         -0.0001 Ry au

        Potential amp.        0.0119 Ry
        Total length         47.1487 bohr

     End of self-consistent calculation

[...]

          k = 0.0494-0.0512 0.0000 ( 26688 PWs)   bands (ev):

[...]

          k =-0.0740-0.0465 0.0000 ( 26614 PWs)   bands (ev):

   -42.4770 -42.4572 -42.3937 -42.3738 -41.9920 -41.9714 -22.5204 -22.4888
   -22.4419 -22.4331 -22.4010 -22.3935 -22.3864 -22.3583 -22.3077 -22.2724
   -22.1637 -22.1063 -22.0660 -21.9928 -21.9575 -21.9054 -21.8755 -21.7770
   -15.8066 -15.7675 -15.7303 -15.7009 -15.6973 -15.6945 -15.6789 -15.6712
   -15.6676 -15.5854 -15.5837 -15.5666 -15.5483 -15.5241 -15.5081 -15.4829
   -15.4788 -15.4645 -15.4630 -15.4580 -15.4470 -15.4457 -15.4387 -15.4379
   -15.4339 -15.4167 -15.4165 -15.4139 -15.3702 -15.3451  -7.9265  -7.4126
    -7.0883  -6.7508  -6.0397  -5.5512  -2.7032  -2.5417  -2.2010  -1.5153
    -1.4700  -1.2948  -1.0299  -0.6181  -0.2244   0.0245   0.1016   0.2519
     1.0831   1.3619   1.5358   1.6093   1.7254   1.7412   2.3441   2.4559
     2.5140   2.5967   2.6133   2.8521   2.9100   3.0983   3.2426   3.3463
     3.3478   3.5075   3.8992   3.9113   4.1166   4.2451   4.3678   4.5411
     4.7361   4.8241   4.8764   4.9176   5.2042   5.3042   5.3728   5.5182
     5.6095

     the Fermi energy is     1.3684 ev

!    total energy              =   -1558.61090365 Ry
     Harris-Foulkes estimate   =   -1558.61089735 Ry
     estimated scf accuracy    <       0.00000042 Ry

     The total energy is the sum of the following terms:

     one-electron contribution =   -7496.05922183 Ry
     hartree contribution      =    3780.35862824 Ry
     xc contribution           =    -561.62313097 Ry
     ewald contribution        =    2718.77801559 Ry
     electric field correction =       0.00000898 Ry
     smearing contrib. (-TS)   =      -0.06520366 Ry

     convergence has been achieved in  15 iterations

 BEEF-vdW xc energy contributions
           1 :   -497.579092815280
           2 :    457.963263684323
           3 :   -388.598486978569
           4 :    305.080575712634
           5 :   -222.988051617134
           6 :    153.339372041903
           7 :   -100.816038760259
           8 :    64.6512238181642
           9 :   -41.0183447522821
          10 :    25.5312758131460
          11 :   -14.8815981320338
          12 :    7.29178102207356
          13 :   -2.08275347562414
          14 :   -1.04867707885921
          15 :    2.54947763259861
          16 :   -3.16677400429580
          17 :    3.82015821322989
          18 :   -5.32205361392982
          19 :    8.04952462915230
          20 :   -11.6987534766840
          21 :    15.2853973069430
          22 :   -17.4887817824272
          23 :    17.2479993955483
          24 :   -14.3325412013834
          25 :    9.56350052640084
          26 :   -4.51931915927935
          27 :   0.840138565768598
          28 :   0.510375321547372
          29 :   0.371143247130931
          30 :   -2.49234510198767
          31 :   -42.0394773499506
          32 :   -30.1793518157526

     Forces acting on atoms (Ry/au):

     negative rho (up, down):  1.120E-01 0.000E+00
     atom    1 type  1   force =    -0.00276439   -0.00173207    0.01061318
     atom    2 type  1   force =    -0.00275986   -0.00173448    0.01061294
     atom    3 type  2   force =     0.00299855    0.00188214   -0.01362738
     atom    4 type  2   force =     0.00300437    0.00188663   -0.01362230
     atom    5 type  1   force =    -0.00426402   -0.00267666    0.00580273
     atom    6 type  1   force =    -0.00426217   -0.00267500    0.00579739
     atom    7 type  2   force =     0.00231999    0.00146262   -0.00221605
     atom    8 type  2   force =     0.00232918    0.00145227   -0.00221408
     atom    9 type  1   force =     0.00101344    0.00063534   -0.00117827
     atom   10 type  1   force =     0.00100844    0.00063394   -0.00118534
     atom   11 type  2   force =     0.00068976    0.00043435    0.00061026
     atom   12 type  2   force =     0.00068671    0.00043092    0.00060692

     Total force =     0.028168     Total SCF correction =     0.001744

     entering subroutine stress ...

     negative rho (up, down):  1.120E-01 0.000E+00
          total   stress  (Ry/bohr**3)                   (kbar)     P=   -6.55
  -0.00008650  -0.00003327   0.00000147        -12.72     -4.89      0.22
  -0.00003327  -0.00005437   0.00000092         -4.89     -8.00      0.14
   0.00000147   0.00000092   0.00000723          0.22      0.14      1.06

 !ASE

     Writing output data file calc.save

     General routines

     Parallel routines

   This run was terminated on:   5:58:46  25Dec2018

   JOB DONE.
Job  /afs/slac/g/suncat/bin/suncat-tsmpirun -x LD_LIBRARY_PATH -wdir /scratch/qe109188_kRdXb pw.x -in pw.inp

TID   HOST_NAME   COMMAND_LINE            STATUS            TERMINATION_TIME
00000 suncat0137 pw.x -in pw.inp   Done                     12/25/2018 05:58:46
00001 suncat0137 pw.x -in pw.inp   Done                     12/25/2018 05:58:46
00002 suncat0137 pw.x -in pw.inp   Done                     12/25/2018 05:58:46
00003 suncat0137 pw.x -in pw.inp   Done                     12/25/2018 05:58:46
00004 suncat0137 pw.x -in pw.inp   Done                     12/25/2018 05:58:46
00005 suncat0137 pw.x -in pw.inp   Done                     12/25/2018 05:58:46
00006 suncat0137 pw.x -in pw.inp   Done                     12/25/2018 05:58:46
00007 suncat0137 pw.x -in pw.inp   Done                     12/25/2018 05:58:46
00008 suncat0136 pw.x -in pw.inp   Done                     12/25/2018 05:58:46
00009 suncat0136 pw.x -in pw.inp   Done                     12/25/2018 05:58:46
00010 suncat0136 pw.x -in pw.inp   Done                     12/25/2018 05:58:46
00011 suncat0136 pw.x -in pw.inp   Done                     12/25/2018 05:58:46
00012 suncat0136 pw.x -in pw.inp   Done                     12/25/2018 05:58:46
00013 suncat0136 pw.x -in pw.inp   Done                     12/25/2018 05:58:46
00014 suncat0136 pw.x -in pw.inp   Done                     12/25/2018 05:58:46
00015 suncat0136 pw.x -in pw.inp   Done                     12/25/2018 05:58:46
00016 suncat0135 pw.x -in pw.inp   Done                     12/25/2018 05:58:46
00017 suncat0135 pw.x -in pw.inp   Done                     12/25/2018 05:58:46
00018 suncat0135 pw.x -in pw.inp   Done                     12/25/2018 05:58:46
00019 suncat0135 pw.x -in pw.inp   Done                     12/25/2018 05:58:46
00020 suncat0135 pw.x -in pw.inp   Done                     12/25/2018 05:58:46
00021 suncat0135 pw.x -in pw.inp   Done                     12/25/2018 05:58:46
00022 suncat0135 pw.x -in pw.inp   Done                     12/25/2018 05:58:46
00023 suncat0135 pw.x -in pw.inp   Done                     12/25/2018 05:58:46
00024 suncat0134 pw.x -in pw.inp   Done                     12/25/2018 05:58:46
00025 suncat0134 pw.x -in pw.inp   Done                     12/25/2018 05:58:46
00026 suncat0134 pw.x -in pw.inp   Done                     12/25/2018 05:58:46
00027 suncat0134 pw.x -in pw.inp   Done                     12/25/2018 05:58:46
00028 suncat0134 pw.x -in pw.inp   Done                     12/25/2018 05:58:46
00029 suncat0134 pw.x -in pw.inp   Done                     12/25/2018 05:58:46
00030 suncat0134 pw.x -in pw.inp   Done                     12/25/2018 05:58:46
00031 suncat0134 pw.x -in pw.inp   Done                     12/25/2018 05:58:46
00032 suncat0220 pw.x -in pw.inp   Done                     12/25/2018 05:58:46
00033 suncat0220 pw.x -in pw.inp   Done                     12/25/2018 05:58:46
00034 suncat0220 pw.x -in pw.inp   Done                     12/25/2018 05:58:46
00035 suncat0220 pw.x -in pw.inp   Done                     12/25/2018 05:58:46
00036 suncat0220 pw.x -in pw.inp   Done                     12/25/2018 05:58:46
00037 suncat0220 pw.x -in pw.inp   Done                     12/25/2018 05:58:46
00038 suncat0220 pw.x -in pw.inp   Done                     12/25/2018 05:58:46
00039 suncat0220 pw.x -in pw.inp   Done                     12/25/2018 05:58:46
00040 suncat0219 pw.x -in pw.inp   Done                     12/25/2018 05:58:46
00041 suncat0219 pw.x -in pw.inp   Done                     12/25/2018 05:58:46
00042 suncat0219 pw.x -in pw.inp   Done                     12/25/2018 05:58:46
00043 suncat0219 pw.x -in pw.inp   Done                     12/25/2018 05:58:46
00044 suncat0219 pw.x -in pw.inp   Done                     12/25/2018 05:58:46
00045 suncat0219 pw.x -in pw.inp   Done                     12/25/2018 05:58:46
00046 suncat0219 pw.x -in pw.inp   Done                     12/25/2018 05:58:46
00047 suncat0219 pw.x -in pw.inp   Done                     12/25/2018 05:58:46
00048 suncat0201 pw.x -in pw.inp   Done                     12/25/2018 05:58:46
00049 suncat0201 pw.x -in pw.inp   Done                     12/25/2018 05:58:46
00050 suncat0201 pw.x -in pw.inp   Done                     12/25/2018 05:58:46
00051 suncat0201 pw.x -in pw.inp   Done                     12/25/2018 05:58:46
00052 suncat0201 pw.x -in pw.inp   Done                     12/25/2018 05:58:46
00053 suncat0201 pw.x -in pw.inp   Done                     12/25/2018 05:58:46
00054 suncat0201 pw.x -in pw.inp   Done                     12/25/2018 05:58:46
00055 suncat0201 pw.x -in pw.inp   Done                     12/25/2018 05:58:46
00056 suncat0200 pw.x -in pw.inp   Done                     12/25/2018 05:58:46
00057 suncat0200 pw.x -in pw.inp   Done                     12/25/2018 05:58:46
00058 suncat0200 pw.x -in pw.inp   Done                     12/25/2018 05:58:46
00059 suncat0200 pw.x -in pw.inp   Done                     12/25/2018 05:58:46
00060 suncat0200 pw.x -in pw.inp   Done                     12/25/2018 05:58:46
00061 suncat0200 pw.x -in pw.inp   Done                     12/25/2018 05:58:46
00062 suncat0200 pw.x -in pw.inp   Done                     12/25/2018 05:58:46
00063 suncat0200 pw.x -in pw.inp   Done                     12/25/2018 05:58:46