     Program PWSCF v.5.1rc2 (svn rev. 11289) starts on  2Jan2019 at 17:55:41

     Current dimensions of program PWSCF are:
     Max number of different atomic species (ntypx) = 10
     Max number of k-points (npk) =  40000
     Max angular momentum in pseudopotentials (lmaxx) =  3
     Presently stress not available with electric field

     IMPORTANT: XC functional enforced from input :
     Exchange-correlation      = BEEF-VDW ( 1  4 27 13 2)
     Any further DFT definition will be discarded
     Please, verify this is what you really want

     Subspace diagonalization in iterative solution of the eigenvalue problem:
     a serial algorithm will be used

     bravais-lattice index     =            0
     lattice parameter (alat)  =       1.8897  a.u.
     unit-cell volume          =    4856.3730 (a.u.)^3
     number of atoms/cell      =           12
     number of atomic types    =            2
     number of electrons       =       213.00
     number of Kohn-Sham states=          136
     kinetic-energy cutoff     =      36.7493  Ry
     charge density cutoff     =     367.4932  Ry
     convergence threshold     =      1.0E-06
     mixing beta               =       0.1000
     number of iterations used =           10  plain     mixing
     Exchange-correlation      = BEEF-VDW ( 1  4 27 13 2)
     nstep                     =           50

     celldm(1)=   1.889726  celldm(2)=   0.000000  celldm(3)=   0.000000
     celldm(4)=   0.000000  celldm(5)=   0.000000  celldm(6)=   0.000000

     crystal axes: (cart. coord. in units of alat)
               a(1) = (   5.796375   0.000000   0.000000 )
               a(2) = (  -2.898187   5.019808   0.000000 )
               a(3) = (   0.000000   0.000000  24.732720 )

     reciprocal axes: (cart. coord. in units 2 pi/alat)
               b(1) = (  0.172522  0.099605  0.000000 )
               b(2) = (  0.000000  0.199211  0.000000 )
               b(3) = (  0.000000  0.000000  0.040432 )

     PseudoPot. # 1 for Zn read from file:
     /afs/slac.stanford.edu/u/if/mamunm/psp/gbrv1.5pbe/Zn.UPF
     MD5 check sum: df62231357ef9e81f77b2b3087fa5675
     Pseudo is Ultrasoft, Zval = 20.0
     Generated by new atomic code, or converted to UPF format
     Using radial grid of  943 points,  6 beta functions with:
                l(1) =   0
                l(2) =   0
                l(3) =   1
                l(4) =   1
                l(5) =   2
                l(6) =   2
     Q(r) pseudized with  8 coefficients,  rinner =    1.100   1.100   1.100
                                                       1.100   1.100

     PseudoPot. # 2 for Sc read from file:
     /afs/slac.stanford.edu/u/if/mamunm/psp/gbrv1.5pbe/Sc.UPF
     MD5 check sum: db30a2753ba66ef00f23801d899b7e7f
     Pseudo is Ultrasoft + core correction, Zval = 11.0
     Generated by new atomic code, or converted to UPF format
     Using radial grid of  849 points,  6 beta functions with:
                l(1) =   0
                l(2) =   0
                l(3) =   1
                l(4) =   1
                l(5) =   2
                l(6) =   2
     Q(r) pseudized with  6 coefficients,  rinner =    1.200   1.200   1.200
                                                       1.200   1.200

     vdW kernel table read from file vdW_kernel_table
     MD5 check sum: 095c7af220d748ca6e76c0b4c6cfb241

     atomic species   valence    mass     pseudopotential
        Zn1           20.00    65.38000     Zn( 1.00)
        Sc1           11.00    44.95591     Sc( 1.00)

     No symmetry found

   Cartesian axes

     site n.     atom                  positions (alat units)
         1           Zn1 tau(   1) = (   0.0000000   0.0000000  10.0000000  )
         2           Zn1 tau(   2) = (  -1.4490937   2.5099039  10.0000000  )
         3           Zn1 tau(   3) = (   1.4490937   2.5099039  10.0000000  )
         4           Sc1 tau(   4) = (   2.8981874   0.0000000  10.0000000  )
         5           Zn1 tau(   5) = (   2.8981874   1.6732693  12.3663601  )
         6           Zn1 tau(   6) = (   1.4490937   4.1831732  12.3663601  )
         7           Zn1 tau(   7) = (  -1.4490937   4.1831732  12.3663601  )
         8           Sc1 tau(   8) = (   0.0000000   1.6732693  12.3663601  )
         9           Zn1 tau(   9) = (  -0.0000000   3.3465385  14.7327202  )
        10           Zn1 tau(  10) = (   1.4490937   0.8366346  14.7327202  )
        11           Zn1 tau(  11) = (   4.3472811   0.8366346  14.7327202  )
        12           Sc1 tau(  12) = (   2.8981874   3.3465385  14.7327202  )

     number of k points=    20  Fermi-Dirac smearing, width (Ry)=  0.0110
                       cart. coord. in units 2pi/alat
        k(    1) = (   0.0000000   0.0000000   0.0000000), wk =   0.0555556
        k(    2) = (   0.0000000   0.0332018   0.0000000), wk =   0.1111111
        k(    3) = (   0.0000000   0.0664036   0.0000000), wk =   0.1111111
        k(    4) = (   0.0000000  -0.0996054   0.0000000), wk =   0.0555556
        k(    5) = (   0.0287536   0.0166009   0.0000000), wk =   0.1111111
        k(    6) = (   0.0287536   0.0498027   0.0000000), wk =   0.1111111
        k(    7) = (   0.0287536   0.0830045   0.0000000), wk =   0.1111111
        k(    8) = (   0.0287536  -0.0830045   0.0000000), wk =   0.1111111
        k(    9) = (   0.0287536  -0.0498027   0.0000000), wk =   0.1111111
        k(   10) = (   0.0287536  -0.0166009   0.0000000), wk =   0.1111111
        k(   11) = (   0.0575072   0.0332018   0.0000000), wk =   0.1111111
        k(   12) = (   0.0575072   0.0664036   0.0000000), wk =   0.1111111
        k(   13) = (   0.0575072   0.0996054   0.0000000), wk =   0.1111111
        k(   14) = (   0.0575072  -0.0664036   0.0000000), wk =   0.1111111
        k(   15) = (   0.0575072  -0.0332018   0.0000000), wk =   0.1111111
        k(   16) = (   0.0575072   0.0000000   0.0000000), wk =   0.1111111
        k(   17) = (  -0.0862608  -0.0498027   0.0000000), wk =   0.0555556
        k(   18) = (  -0.0862608  -0.0166009   0.0000000), wk =   0.1111111
        k(   19) = (  -0.0862608   0.0166009   0.0000000), wk =   0.1111111
        k(   20) = (  -0.0862608  -0.1494081   0.0000000), wk =   0.0555556

     Largest allocated arrays     est. size (Mb)     dimensions
     Largest temporary arrays     est. size (Mb)     dimensions

     Initial potential from superposition of free atoms
     Check: negative starting charge=   -0.000746

     starting charge  212.99152, renormalised to  213.00000

     negative rho (up, down):  7.459E-04 0.000E+00

     *
     * You are using vdW-DF for exchange-correlation in this calculation.
     * Please cite the following three references that made this development
     * possible:
     *
     *   M. Dion, H. Rydberg, E. Schroder, D. C. Langreth, and
     *   B. I. Lundqvist, Phys. Rev. Lett. 92, 246401 (2004).
     *
     *   T. Thonhauser, V. R. Cooper, S. Li, A. Puzder, P. Hyldgaard, and
     *   D. C. Langreth, Phys. Rev. B 76, 125112 (2007).
     *
     *   G. Roman-Perez and J. M. Soler, Phys. Rev. Lett. 103, 096102 (2009).
     *
     *
     * If you are using vdW-DF2, please also cite:
     *
     *   K. Lee, E. D. Murray, L. Kong, B. I. Lundqvist, and
     *   D. C. Langreth, Phys. Rev. B 82, 081101(R) (2010).
     *
     *
     * If you are calculating the stress with vdW-DF, please also cite:
     *
     *   R. Sabatini, E. Kucukbenli, B. Kolb, T. Thonhauser, and
     *   S. de Gironcoli, J. Phys.: Condens. Matter 24, 424209 (2012).
     *

     Carrying out vdW-DF run using the following parameters:

     Nqs =      20    Nr_points =    1024   r_max =   100.000
     q_mesh =
               0.00001000     0.04494208     0.09755937     0.15916263
               0.23128650     0.31572767     0.41458969     0.53033537
               0.66584808     0.82450364     1.01025438     1.22772762
               1.48234092     1.78043706     2.12944203     2.53805004
               3.01644009     3.57652955     4.23227104     5.00000000

     Gradients computed in reciprocal space

     Adding external electric field

     Computed dipole along edir(3) :
        Dipole               -0.0000 Ry au,         -0.0000 Debye
        Dipole field         -0.0000 Ry au

        Potential amp.        0.0000 Ry
        Total length         45.5696 bohr

     Starting wfc are  156 randomized atomic wfcs

     Self-consistent Calculation

     iteration #  1     ecut=    36.75 Ry     beta=0.10
     Davidson diagonalization with overlap
     ethr =  1.00E-02,  avg # of iterations =  5.3

     Threshold (ethr) on eigenvalues was too large:
     Diagonalizing with lowered threshold

     Davidson diagonalization with overlap
     ethr =  6.13E-04,  avg # of iterations =  5.3

[...]

     total energy              =   -4449.48080316 Ry
     Harris-Foulkes estimate   =   -4449.69872385 Ry
     estimated scf accuracy    <       1.31539049 Ry

[...]

     End of self-consistent calculation

          k = 0.0000 0.0000 0.0000 ( 18295 PWs)   bands (ev):

  -125.6750-125.6749-125.6745-125.6745-125.6744-125.6744-125.6512-125.6507
  -125.6505 -79.8603 -79.8602 -79.8596 -79.8596 -79.8593 -79.8593 -79.8500
   -79.8500 -79.8498 -79.8498 -79.8470 -79.8469 -79.8432 -79.8429 -79.8354
   -79.8354 -79.8352 -79.8352 -79.8311 -79.8309 -79.8282 -79.8269 -79.8247
   -79.8245 -79.8180 -79.8121 -79.8119 -49.5292 -49.5290 -49.2917 -28.2416
   -28.2406 -28.0639 -28.0639 -28.0637 -28.0637 -27.9669 -27.8621 -27.8621
    -7.4934  -7.0177  -7.0062  -6.9912  -6.9558  -6.9558  -6.9494  -6.9414
    -6.9139  -6.9139  -6.8729  -6.8728  -6.8648  -6.8648  -6.8188  -6.7583
    -6.6896  -6.6896  -6.6687  -6.6687  -6.6187  -6.5531  -6.5472  -6.4971
    -6.4971  -6.4965  -6.4965  -6.4651  -6.4650  -6.4438  -6.4333  -6.4332
    -6.3897  -6.3897  -6.3848  -6.3848  -6.3300  -6.3299  -6.2536  -6.2536
    -6.2420  -6.1857  -6.1856  -6.1587  -6.1564  -6.1231  -5.7074  -3.4866
    -1.9325  -1.9325  -1.5632  -1.5632  -1.1221  -0.6717  -0.6717  -0.5466
    -0.2606   0.0369   0.0369   0.2924   1.2072   1.4602   1.4602   1.5541
     1.5541   2.0312   2.0312   2.2558   2.2558   2.4427   2.6723   3.0687
     3.0687   3.7233   3.8365   4.1019   4.1019   4.1343   4.1343   4.4656
     4.5730   4.8990   4.8991   4.9741   5.3476   5.5751   5.9662   6.8859

[...]

          k =-0.0863-0.0498 0.0000 ( 18248 PWs)   bands (ev):

[...]

     the Fermi energy is     0.6579 ev

!    total energy              =   -4449.51500774 Ry
     Harris-Foulkes estimate   =   -4449.51500613 Ry
     estimated scf accuracy    <       0.00000088 Ry

     The total energy is the sum of the following terms:

     one-electron contribution =  -26127.51371067 Ry
     hartree contribution      =   13046.39486758 Ry
     xc contribution           =    -432.25510002 Ry
     ewald contribution        =    9063.90970316 Ry
     electric field correction =       0.00000000 Ry
     smearing contrib. (-TS)   =      -0.05076779 Ry

     convergence has been achieved in  14 iterations

 BEEF-vdW xc energy contributions
           1 :   -381.987761115975
           2 :    345.266343881090
           3 :   -284.106133005423
           4 :    216.806107723913
[...]
                l(6) =   2
     Q(r) pseudized with  8 coefficients,  rinner =    1.100   1.100   1.100
                                                       1.100   1.100

     PseudoPot. # 2 for Sc read from file:
     /afs/slac.stanford.edu/u/if/mamunm/psp/gbrv1.5pbe/Sc.UPF
     MD5 check sum: db30a2753ba66ef00f23801d899b7e7f
     Pseudo is Ultrasoft + core correction, Zval = 11.0
     Generated by new atomic code, or converted to UPF format
     Using radial grid of  849 points,  6 beta functions with:
                l(1) =   0
                l(2) =   0
                l(3) =   1
                l(4) =   1
                l(5) =   2
                l(6) =   2
     Q(r) pseudized with  6 coefficients,  rinner =    1.200   1.200   1.200
                                                       1.200   1.200

     vdW kernel table read from file vdW_kernel_table
     MD5 check sum: 095c7af220d748ca6e76c0b4c6cfb241

     atomic species   valence    mass     pseudopotential
        Zn1           20.00    65.38000     Zn( 1.00)
        Sc1           11.00    44.95591     Sc( 1.00)

     No symmetry found

   Cartesian axes

     site n.     atom                  positions (alat units)
         1           Zn1 tau(   1) = (   0.0000000   0.0000000  10.0000000  )
         2           Zn1 tau(   2) = (  -1.4490937   2.5099039  10.0000000  )
         3           Zn1 tau(   3) = (   1.4490937   2.5099039  10.0000000  )
         4           Sc1 tau(   4) = (   2.8981874   0.0000000  10.0000000  )
         5           Zn1 tau(   5) = (   2.8981874   1.6732693  12.3663601  )
         6           Zn1 tau(   6) = (   1.4490937   4.1831732  12.3663601  )
         7           Zn1 tau(   7) = (  -1.4490937   4.1831732  12.3663601  )
         8           Sc1 tau(   8) = (   0.0000000   1.6732693  12.3663601  )
         9           Zn1 tau(   9) = (   0.0000142   3.4329815  14.6702356  )
        10           Zn1 tau(  10) = (   1.5240153   0.7935494  14.6702507  )
        11           Zn1 tau(  11) = (   4.2723590   0.7935333  14.6702472  )
        12           Sc1 tau(  12) = (   2.8981596   3.3462034  14.7336267  )

     number of k points=    20  Fermi-Dirac smearing, width (Ry)=  0.0110
                       cart. coord. in units 2pi/alat
        k(    1) = (   0.0000000   0.0000000   0.0000000), wk =   0.0555556
        k(    2) = (   0.0000000   0.0332018   0.0000000), wk =   0.1111111
        k(    3) = (   0.0000000   0.0664036   0.0000000), wk =   0.1111111
        k(    4) = (   0.0000000  -0.0996054   0.0000000), wk =   0.0555556
        k(    5) = (   0.0287536   0.0166009   0.0000000), wk =   0.1111111
        k(    6) = (   0.0287536   0.0498027   0.0000000), wk =   0.1111111
        k(    7) = (   0.0287536   0.0830045   0.0000000), wk =   0.1111111
        k(    8) = (   0.0287536  -0.0830045   0.0000000), wk =   0.1111111
        k(    9) = (   0.0287536  -0.0498027   0.0000000), wk =   0.1111111
        k(   10) = (   0.0287536  -0.0166009   0.0000000), wk =   0.1111111
        k(   11) = (   0.0575072   0.0332018   0.0000000), wk =   0.1111111
        k(   12) = (   0.0575072   0.0664036   0.0000000), wk =   0.1111111
        k(   13) = (   0.0575072   0.0996054   0.0000000), wk =   0.1111111
        k(   14) = (   0.0575072  -0.0664036   0.0000000), wk =   0.1111111
        k(   15) = (   0.0575072  -0.0332018   0.0000000), wk =   0.1111111
        k(   16) = (   0.0575072   0.0000000   0.0000000), wk =   0.1111111
        k(   17) = (  -0.0862608  -0.0498027   0.0000000), wk =   0.0555556
        k(   18) = (  -0.0862608  -0.0166009   0.0000000), wk =   0.1111111
        k(   19) = (  -0.0862608   0.0166009   0.0000000), wk =   0.1111111
        k(   20) = (  -0.0862608  -0.1494081   0.0000000), wk =   0.0555556

     Largest allocated arrays     est. size (Mb)     dimensions
     Largest temporary arrays     est. size (Mb)     dimensions

     Initial potential from superposition of free atoms
     Check: negative starting charge=   -0.000757

     starting charge  212.99152, renormalised to  213.00000

[...]

     *
     * You are using vdW-DF for exchange-correlation in this calculation.
     * Please cite the following three references that made this development
     * possible:
     *
     *   M. Dion, H. Rydberg, E. Schroder, D. C. Langreth, and
     *   B. I. Lundqvist, Phys. Rev. Lett. 92, 246401 (2004).
     *
     *   T. Thonhauser, V. R. Cooper, S. Li, A. Puzder, P. Hyldgaard, and
     *   D. C. Langreth, Phys. Rev. B 76, 125112 (2007).
     *
     *   G. Roman-Perez and J. M. Soler, Phys. Rev. Lett. 103, 096102 (2009).
     *
     *
     * If you are using vdW-DF2, please also cite:
     *
     *   K. Lee, E. D. Murray, L. Kong, B. I. Lundqvist, and
     *   D. C. Langreth, Phys. Rev. B 82, 081101(R) (2010).
     *
     *
     * If you are calculating the stress with vdW-DF, please also cite:
     *
     *   R. Sabatini, E. Kucukbenli, B. Kolb, T. Thonhauser, and
     *   S. de Gironcoli, J. Phys.: Condens. Matter 24, 424209 (2012).
     *

     Carrying out vdW-DF run using the following parameters:

     Nqs =      20    Nr_points =    1024   r_max =   100.000
     q_mesh =
               0.00001000     0.04494208     0.09755937     0.15916263
               0.23128650     0.31572767     0.41458969     0.53033537
               0.66584808     0.82450364     1.01025438     1.22772762
               1.48234092     1.78043706     2.12944203     2.53805004
               3.01644009     3.57652955     4.23227104     5.00000000

     Gradients computed in reciprocal space

[...]

     Starting wfc are  156 randomized atomic wfcs

     Self-consistent Calculation

[...]

     Threshold (ethr) on eigenvalues was too large:
     Diagonalizing with lowered threshold

     Davidson diagonalization with overlap
     ethr =  6.18E-04,  avg # of iterations =  4.2

[...]

     total energy              =   -4449.53380758 Ry
     Harris-Foulkes estimate   =   -4449.53380769 Ry
     estimated scf accuracy    <       0.00000198 Ry

     iteration # 15     ecut=    36.75 Ry     beta=0.10
     Davidson diagonalization with overlap
     ethr =  9.29E-10,  avg # of iterations =  2.2

[...]

     negative rho (up, down):  8.802E-04 0.000E+00

     Adding external electric field

     Computed dipole along edir(3) :
        Dipole                0.0212 Ry au,          0.0538 Debye
        Dipole field          0.0001 Ry au

        Potential amp.       -0.0050 Ry
        Total length         45.5696 bohr

     End of self-consistent calculation

[...]

          k = 0.0575 0.0000 0.0000 ( 18295 PWs)   bands (ev):

[...]

          k =-0.0863-0.1494 0.0000 ( 18248 PWs)   bands (ev):

  -125.6693-125.6688-125.6687-125.6429-125.6427-125.6426-125.6408-125.6406
  -125.6404 -79.8534 -79.8527 -79.8525 -79.8422 -79.8414 -79.8393 -79.8385
   -79.8328 -79.8315 -79.8262 -79.8260 -79.8255 -79.8208 -79.8199 -79.8191
   -79.8185 -79.8179 -79.8175 -79.8153 -79.8144 -79.8136 -79.8065 -79.8062
   -79.8046 -79.8039 -79.8027 -79.8016 -49.5152 -49.4960 -49.2353 -28.2343
   -28.2103 -28.0487 -28.0475 -28.0316 -28.0303 -27.9046 -27.8109 -27.8096
    -7.0021  -6.9457  -6.8907  -6.8503  -6.8307  -6.8264  -6.8159  -6.7925
    -6.7744  -6.7548  -6.7420  -6.7265  -6.7161  -6.7093  -6.6592  -6.6552
    -6.6372  -6.6200  -6.5983  -6.5807  -6.5584  -6.5572  -6.5496  -6.5378
    -6.5312  -6.5282  -6.4993  -6.4638  -6.4508  -6.4467  -6.4336  -6.4300
    -6.4155  -6.4150  -6.4061  -6.4013  -6.3863  -6.3799  -6.3739  -6.3659
    -6.3537  -6.2989  -6.2282  -6.1936  -6.1287  -5.8896  -5.6637  -4.4158
    -4.1021  -2.9061  -2.7197  -2.1341  -1.5530  -1.2896  -0.7253   0.2251
     0.5492   0.6652   0.6764   0.7031   1.0173   1.1682   1.4434   1.6784
     1.7955   2.1430   2.6368   2.8984   3.0779   3.1374   3.2720   3.2779
     3.4057   3.8156   4.2044   4.6256   4.7880   4.8151   5.1716   5.2369
     5.3052   5.3818   5.5579   5.7582   5.7913   5.8662   6.0021   6.0613

     the Fermi energy is     0.6936 ev

!    total energy              =   -4449.53380876 Ry
     Harris-Foulkes estimate   =   -4449.53380827 Ry
     estimated scf accuracy    <       0.00000071 Ry

     The total energy is the sum of the following terms:

     one-electron contribution =  -26307.86025386 Ry
     hartree contribution      =   13136.73373491 Ry
     xc contribution           =    -432.30623710 Ry
     ewald contribution        =    9153.94854994 Ry
     electric field correction =       0.00000116 Ry
     smearing contrib. (-TS)   =      -0.04960381 Ry

     convergence has been achieved in  15 iterations

 BEEF-vdW xc energy contributions
           1 :   -382.495294794052
           2 :    345.799639947023
           3 :   -284.670048801447
           4 :    217.377657410685
           5 :   -159.710163699104
           6 :    119.039811987237
           7 :   -93.6233201716620
           8 :    76.5001489996645
           9 :   -60.9893553362770
          10 :    44.4276103296135
          11 :   -28.4048508223652
          12 :    16.1689313114126
          13 :   -9.52577599556383
          14 :    7.43386647791118
          15 :   -6.93244826039796
          16 :    5.32559005020551
          17 :   -1.87298907054389
          18 :   -2.13505611254095
          19 :    4.73347038670801
          20 :   -4.90236564619090
          21 :    3.26114291179823
          22 :   -1.47588358533369
          23 :   0.978230930701272
          24 :   -1.99884026716359
          25 :    3.56542335154290
          26 :   -4.35899973005655
          27 :    3.72249678500975
          28 :   -2.08249375522524
          29 :   0.540637957196907
          30 :  -1.433705226764914E-002
          31 :   -30.9519605678021
          32 :   -21.2386925950088

     Forces acting on atoms (Ry/au):

     negative rho (up, down):  8.802E-04 0.000E+00
     atom    1 type  1   force =    -0.00000010   -0.00997434    0.00427925
     atom    2 type  1   force =    -0.00863725    0.00498655    0.00428051
     atom    3 type  1   force =     0.00863669    0.00498609    0.00428095
     atom    4 type  2   force =    -0.00000011   -0.00000166   -0.00126914
     atom    5 type  1   force =     0.00000057    0.00179008   -0.00293277
     atom    6 type  1   force =     0.00155593   -0.00089746   -0.00291712
     atom    7 type  1   force =    -0.00155677   -0.00089824   -0.00291584
     atom    8 type  2   force =     0.00000006    0.00000261    0.00090339
     atom    9 type  1   force =    -0.00000532   -0.00144368   -0.00122574
     atom   10 type  1   force =    -0.00127759    0.00067279   -0.00122692
     atom   11 type  1   force =     0.00127581    0.00067697   -0.00122649
     atom   12 type  2   force =     0.00000808    0.00010029   -0.00003007

     Total force =     0.020046     Total SCF correction =     0.005225
     SCF correction compared to forces is large: reduce conv_thr to get better values

     entering subroutine stress ...

     negative rho (up, down):  8.802E-04 0.000E+00
          total   stress  (Ry/bohr**3)                   (kbar)     P=   -9.34
  -0.00007188  -0.00000000   0.00000000        -10.57     -0.00      0.00
  -0.00000000  -0.00007186   0.00000001         -0.00    -10.57      0.00
   0.00000000   0.00000001  -0.00004672          0.00      0.00     -6.87

 !ASE

     Writing output data file calc.save

     General routines

     Parallel routines

   This run was terminated on:  19:41: 2   2Jan2019

   JOB DONE.
Job  /afs/slac/g/suncat/bin/suncat-tsmpirun -x LD_LIBRARY_PATH -wdir /scratch/qe649508_Jp9cn pw.x -in pw.inp

TID   HOST_NAME   COMMAND_LINE            STATUS            TERMINATION_TIME
00000 suncat0146 pw.x -in pw.inp   Done                     01/02/2019 19:41:02
00001 suncat0146 pw.x -in pw.inp   Done                     01/02/2019 19:41:02
00002 suncat0146 pw.x -in pw.inp   Done                     01/02/2019 19:41:02
00003 suncat0146 pw.x -in pw.inp   Done                     01/02/2019 19:41:02
00004 suncat0146 pw.x -in pw.inp   Done                     01/02/2019 19:41:02
00005 suncat0146 pw.x -in pw.inp   Done                     01/02/2019 19:41:02
00006 suncat0146 pw.x -in pw.inp   Done                     01/02/2019 19:41:02
00007 suncat0146 pw.x -in pw.inp   Done                     01/02/2019 19:41:02
00008 suncat0136 pw.x -in pw.inp   Done                     01/02/2019 19:41:02
00009 suncat0136 pw.x -in pw.inp   Done                     01/02/2019 19:41:02
00010 suncat0136 pw.x -in pw.inp   Done                     01/02/2019 19:41:02
00011 suncat0136 pw.x -in pw.inp   Done                     01/02/2019 19:41:02
00012 suncat0136 pw.x -in pw.inp   Done                     01/02/2019 19:41:02
00013 suncat0136 pw.x -in pw.inp   Done                     01/02/2019 19:41:02
00014 suncat0136 pw.x -in pw.inp   Done                     01/02/2019 19:41:02
00015 suncat0136 pw.x -in pw.inp   Done                     01/02/2019 19:41:02
00016 suncat0248 pw.x -in pw.inp   Done                     01/02/2019 19:41:02
00017 suncat0248 pw.x -in pw.inp   Done                     01/02/2019 19:41:02
00018 suncat0248 pw.x -in pw.inp   Done                     01/02/2019 19:41:02
00019 suncat0248 pw.x -in pw.inp   Done                     01/02/2019 19:41:02
00020 suncat0248 pw.x -in pw.inp   Done                     01/02/2019 19:41:02
00021 suncat0248 pw.x -in pw.inp   Done                     01/02/2019 19:41:02
00022 suncat0248 pw.x -in pw.inp   Done                     01/02/2019 19:41:02
00023 suncat0248 pw.x -in pw.inp   Done                     01/02/2019 19:41:02
00024 suncat0247 pw.x -in pw.inp   Done                     01/02/2019 19:41:02
00025 suncat0247 pw.x -in pw.inp   Done                     01/02/2019 19:41:02
00026 suncat0247 pw.x -in pw.inp   Done                     01/02/2019 19:41:02
00027 suncat0247 pw.x -in pw.inp   Done                     01/02/2019 19:41:02
00028 suncat0247 pw.x -in pw.inp   Done                     01/02/2019 19:41:02
00029 suncat0247 pw.x -in pw.inp   Done                     01/02/2019 19:41:02
00030 suncat0247 pw.x -in pw.inp   Done                     01/02/2019 19:41:02
00031 suncat0247 pw.x -in pw.inp   Done                     01/02/2019 19:41:02
00032 suncat0246 pw.x -in pw.inp   Done                     01/02/2019 19:41:02
00033 suncat0246 pw.x -in pw.inp   Done                     01/02/2019 19:41:02
00034 suncat0246 pw.x -in pw.inp   Done                     01/02/2019 19:41:02
00035 suncat0246 pw.x -in pw.inp   Done                     01/02/2019 19:41:02
00036 suncat0246 pw.x -in pw.inp   Done                     01/02/2019 19:41:02
00037 suncat0246 pw.x -in pw.inp   Done                     01/02/2019 19:41:02
00038 suncat0246 pw.x -in pw.inp   Done                     01/02/2019 19:41:02
00039 suncat0246 pw.x -in pw.inp   Done                     01/02/2019 19:41:02
00040 suncat0245 pw.x -in pw.inp   Done                     01/02/2019 19:41:02
00041 suncat0245 pw.x -in pw.inp   Done                     01/02/2019 19:41:02
00042 suncat0245 pw.x -in pw.inp   Done                     01/02/2019 19:41:02
00043 suncat0245 pw.x -in pw.inp   Done                     01/02/2019 19:41:02
00044 suncat0245 pw.x -in pw.inp   Done                     01/02/2019 19:41:02
00045 suncat0245 pw.x -in pw.inp   Done                     01/02/2019 19:41:02
00046 suncat0245 pw.x -in pw.inp   Done                     01/02/2019 19:41:02
00047 suncat0245 pw.x -in pw.inp   Done                     01/02/2019 19:41:02
00048 suncat0214 pw.x -in pw.inp   Done                     01/02/2019 19:41:02
00049 suncat0214 pw.x -in pw.inp   Done                     01/02/2019 19:41:02
00050 suncat0214 pw.x -in pw.inp   Done                     01/02/2019 19:41:02
00051 suncat0214 pw.x -in pw.inp   Done                     01/02/2019 19:41:02
00052 suncat0214 pw.x -in pw.inp   Done                     01/02/2019 19:41:02
00053 suncat0214 pw.x -in pw.inp   Done                     01/02/2019 19:41:02
00054 suncat0214 pw.x -in pw.inp   Done                     01/02/2019 19:41:02
00055 suncat0214 pw.x -in pw.inp   Done                     01/02/2019 19:41:02
00056 suncat0213 pw.x -in pw.inp   Done                     01/02/2019 19:41:02
00057 suncat0213 pw.x -in pw.inp   Done                     01/02/2019 19:41:02
00058 suncat0213 pw.x -in pw.inp   Done                     01/02/2019 19:41:02
00059 suncat0213 pw.x -in pw.inp   Done                     01/02/2019 19:41:02
00060 suncat0213 pw.x -in pw.inp   Done                     01/02/2019 19:41:02
00061 suncat0213 pw.x -in pw.inp   Done                     01/02/2019 19:41:02
00062 suncat0213 pw.x -in pw.inp   Done                     01/02/2019 19:41:02
00063 suncat0213 pw.x -in pw.inp   Done                     01/02/2019 19:41:02