     Program PWSCF v.5.1rc2 (svn rev. 11289) starts on  1Jan2019 at 21: 4:11

     Current dimensions of program PWSCF are:
     Max number of different atomic species (ntypx) = 10
     Max number of k-points (npk) =  40000
     Max angular momentum in pseudopotentials (lmaxx) =  3
     Presently stress not available with electric field

     IMPORTANT: XC functional enforced from input :
     Exchange-correlation      = BEEF-VDW ( 1  4 27 13 2)
     Any further DFT definition will be discarded
     Please, verify this is what you really want

     Subspace diagonalization in iterative solution of the eigenvalue problem:
     a serial algorithm will be used

     bravais-lattice index     =            0
     lattice parameter (alat)  =       1.8897  a.u.
     unit-cell volume          =    4612.0784 (a.u.)^3
     number of atoms/cell      =           12
     number of atomic types    =            2
     number of electrons       =       177.00
     number of Kohn-Sham states=          118
     kinetic-energy cutoff     =      36.7493  Ry
     charge density cutoff     =     367.4932  Ry
     convergence threshold     =      1.0E-06
     mixing beta               =       0.1000
     number of iterations used =           10  plain     mixing
     Exchange-correlation      = BEEF-VDW ( 1  4 27 13 2)
     nstep                     =           50

     celldm(1)=   1.889726  celldm(2)=   0.000000  celldm(3)=   0.000000
     celldm(4)=   0.000000  celldm(5)=   0.000000  celldm(6)=   0.000000

     crystal axes: (cart. coord. in units of alat)
               a(1) = (   5.661337   0.000000   0.000000 )
               a(2) = (  -2.830668   4.902861   0.000000 )
               a(3) = (   0.000000   0.000000  24.622462 )

     reciprocal axes: (cart. coord. in units 2 pi/alat)
               b(1) = (  0.176637  0.101981  0.000000 )
               b(2) = (  0.000000  0.203963  0.000000 )
               b(3) = (  0.000000  0.000000  0.040613 )

     PseudoPot. # 1 for Tc read from file:
     /afs/slac.stanford.edu/u/if/mamunm/psp/gbrv1.5pbe/Tc.UPF
     MD5 check sum: 9eb49e5b028550b2339a02317eb7b844
     Pseudo is Ultrasoft + core correction, Zval = 15.0
     Generated by new atomic code, or converted to UPF format
     Using radial grid of  965 points,  6 beta functions with:
                l(1) =   0
                l(2) =   0
                l(3) =   1
                l(4) =   1
                l(5) =   2
                l(6) =   2
     Q(r) pseudized with  8 coefficients,  rinner =    1.300   1.300   1.300
                                                       1.300   1.300

     PseudoPot. # 2 for Sn read from file:
     /afs/slac.stanford.edu/u/if/mamunm/psp/gbrv1.5pbe/Sn.UPF
     MD5 check sum: 469debedee59599fedebd795477fea03
     Pseudo is Ultrasoft + core correction, Zval = 14.0
     Generated by new atomic code, or converted to UPF format
     Using radial grid of  891 points,  6 beta functions with:
                l(1) =   0
                l(2) =   0
                l(3) =   1
                l(4) =   1
                l(5) =   2
                l(6) =   2
     Q(r) pseudized with  8 coefficients,  rinner =    1.350   1.350   1.350
                                                       1.350   1.350

     vdW kernel table read from file vdW_kernel_table
     MD5 check sum: 095c7af220d748ca6e76c0b4c6cfb241

     atomic species   valence    mass     pseudopotential
        Tc1           15.00    97.90721     Tc( 1.00)
        Sn1           14.00   118.71000     Sn( 1.00)

     No symmetry found

   Cartesian axes

     site n.     atom                  positions (alat units)
         1           Tc1 tau(   1) = (   0.0000000   0.0000000  10.0000000  )
         2           Tc1 tau(   2) = (  -1.4153342   2.4514307  10.0000000  )
         3           Tc1 tau(   3) = (   1.4153342   2.4514307  10.0000000  )
         4           Sn1 tau(   4) = (   2.8306684   0.0000000  10.0000000  )
         5           Tc1 tau(   5) = (   2.8306684   1.6342871  12.3112310  )
         6           Tc1 tau(   6) = (   1.4153342   4.0857179  12.3112310  )
         7           Tc1 tau(   7) = (  -1.4153342   4.0857179  12.3112310  )
         8           Sn1 tau(   8) = (   0.0000000   1.6342871  12.3112310  )
         9           Tc1 tau(   9) = (  -0.0000000   3.2685743  14.6224621  )
        10           Tc1 tau(  10) = (   1.4153342   0.8171436  14.6224621  )
        11           Tc1 tau(  11) = (   4.2460025   0.8171436  14.6224621  )
        12           Sn1 tau(  12) = (   2.8306684   3.2685743  14.6224621  )

     number of k points=    20  Fermi-Dirac smearing, width (Ry)=  0.0110
                       cart. coord. in units 2pi/alat
        k(    1) = (   0.0000000   0.0000000   0.0000000), wk =   0.0555556
        k(    2) = (   0.0000000   0.0339938   0.0000000), wk =   0.1111111
        k(    3) = (   0.0000000   0.0679875   0.0000000), wk =   0.1111111
        k(    4) = (   0.0000000  -0.1019813   0.0000000), wk =   0.0555556
        k(    5) = (   0.0294395   0.0169969   0.0000000), wk =   0.1111111
        k(    6) = (   0.0294395   0.0509906   0.0000000), wk =   0.1111111
        k(    7) = (   0.0294395   0.0849844   0.0000000), wk =   0.1111111
        k(    8) = (   0.0294395  -0.0849844   0.0000000), wk =   0.1111111
        k(    9) = (   0.0294395  -0.0509906   0.0000000), wk =   0.1111111
        k(   10) = (   0.0294395  -0.0169969   0.0000000), wk =   0.1111111
        k(   11) = (   0.0588789   0.0339938   0.0000000), wk =   0.1111111
        k(   12) = (   0.0588789   0.0679875   0.0000000), wk =   0.1111111
        k(   13) = (   0.0588789   0.1019813   0.0000000), wk =   0.1111111
        k(   14) = (   0.0588789  -0.0679875   0.0000000), wk =   0.1111111
        k(   15) = (   0.0588789  -0.0339938   0.0000000), wk =   0.1111111
        k(   16) = (   0.0588789   0.0000000   0.0000000), wk =   0.1111111
        k(   17) = (  -0.0883184  -0.0509906   0.0000000), wk =   0.0555556
        k(   18) = (  -0.0883184  -0.0169969   0.0000000), wk =   0.1111111
        k(   19) = (  -0.0883184   0.0169969   0.0000000), wk =   0.1111111
        k(   20) = (  -0.0883184  -0.1529719   0.0000000), wk =   0.0555556

     Largest allocated arrays     est. size (Mb)     dimensions
     Largest temporary arrays     est. size (Mb)     dimensions

     Check: negative/imaginary core charge=   -0.000017    0.000000

     Initial potential from superposition of free atoms
     Check: negative starting charge=   -1.135906

     starting charge  164.99962, renormalised to  177.00000

     negative rho (up, down):  1.219E+00 0.000E+00

     *
     * You are using vdW-DF for exchange-correlation in this calculation.
     * Please cite the following three references that made this development
     * possible:
     *
     *   M. Dion, H. Rydberg, E. Schroder, D. C. Langreth, and
     *   B. I. Lundqvist, Phys. Rev. Lett. 92, 246401 (2004).
     *
     *   T. Thonhauser, V. R. Cooper, S. Li, A. Puzder, P. Hyldgaard, and
     *   D. C. Langreth, Phys. Rev. B 76, 125112 (2007).
     *
     *   G. Roman-Perez and J. M. Soler, Phys. Rev. Lett. 103, 096102 (2009).
     *
     *
     * If you are using vdW-DF2, please also cite:
     *
     *   K. Lee, E. D. Murray, L. Kong, B. I. Lundqvist, and
     *   D. C. Langreth, Phys. Rev. B 82, 081101(R) (2010).
     *
     *
     * If you are calculating the stress with vdW-DF, please also cite:
     *
     *   R. Sabatini, E. Kucukbenli, B. Kolb, T. Thonhauser, and
     *   S. de Gironcoli, J. Phys.: Condens. Matter 24, 424209 (2012).
     *

     Carrying out vdW-DF run using the following parameters:

     Nqs =      20    Nr_points =    1024   r_max =   100.000
     q_mesh =
               0.00001000     0.04494208     0.09755937     0.15916263
               0.23128650     0.31572767     0.41458969     0.53033537
               0.66584808     0.82450364     1.01025438     1.22772762
               1.48234092     1.78043706     2.12944203     2.53805004
               3.01644009     3.57652955     4.23227104     5.00000000

     Gradients computed in reciprocal space

     Adding external electric field

     Computed dipole along edir(3) :
        Dipole                0.0000 Ry au,          0.0000 Debye
        Dipole field          0.0000 Ry au

        Potential amp.       -0.0000 Ry
        Total length         45.3665 bohr

     Starting wfc are  144 randomized atomic wfcs

     Self-consistent Calculation

     iteration #  1     ecut=    36.75 Ry     beta=0.10
     Davidson diagonalization with overlap
     ethr =  1.00E-02,  avg # of iterations =  8.2

[...]

     total energy              =   -2059.19828759 Ry
     Harris-Foulkes estimate   =   -2064.63947474 Ry
     estimated scf accuracy    <      33.17333024 Ry

[...]

     End of self-consistent calculation

          k = 0.0000 0.0000 0.0000 ( 17423 PWs)   bands (ev):

   -65.0354 -64.9619 -64.9618 -64.8718 -64.8652 -64.8035 -64.8035 -64.8019
   -64.8018 -37.3639 -37.2292 -37.2057 -37.2056 -37.1876 -37.1438 -37.1437
   -37.1295 -37.0121 -37.0121 -36.8983 -36.8982 -36.8885 -36.8525 -36.7815
   -36.7814 -36.7253 -36.7252 -36.7152 -36.7043 -36.6974 -36.6974 -36.6863
   -36.5924 -36.5923 -36.5880 -36.5880 -19.7558 -19.7538 -19.7538 -19.7314
   -19.7314 -19.4156 -19.4076 -19.3807 -19.3807 -19.3707 -19.3707 -19.3627
   -19.3627 -19.3622 -19.3622  -7.7449  -6.3366  -6.3024  -2.7957  -2.5633
    -2.3142  -1.8130  -1.8130  -1.5393  -1.3960  -1.3959  -1.3735  -1.3735
    -1.3232  -1.3232  -1.2535  -0.6184  -0.6184  -0.1236   0.1343   0.1922
     0.1922   0.6639   0.6639   0.7335   0.7335   0.7915   1.0103   1.0476
     1.2839   1.2839   1.6109   1.8821   1.8822   2.1056   2.1056   2.2547
     2.2723   2.2723   2.7032   2.7032   2.7203   2.7203   3.1127   3.1127
     3.1523   3.7125   3.7125   3.7314   3.7369   3.8132   4.0824   4.0824
     4.3925   4.5871   4.6860   4.7507   4.7508   5.0211   5.1311   5.7941
     6.1290   6.3243   6.8312   7.3277   8.2475   8.9610

[...]

          k =-0.0883-0.0510 0.0000 ( 17344 PWs)   bands (ev):

[...]

     the Fermi energy is     2.0992 ev

!    total energy              =   -2059.42288627 Ry
     Harris-Foulkes estimate   =   -2059.42288205 Ry
     estimated scf accuracy    <       0.00000078 Ry

     The total energy is the sum of the following terms:

     one-electron contribution =  -16715.32299015 Ry
     hartree contribution      =    8373.56425561 Ry
     xc contribution           =    -431.63657807 Ry
     ewald contribution        =    6714.07005149 Ry
     electric field correction =       0.00000001 Ry
     smearing contrib. (-TS)   =      -0.09762516 Ry

     convergence has been achieved in  19 iterations

 BEEF-vdW xc energy contributions
           1 :   -378.391262378795
           2 :    347.587696596126
           3 :   -293.574885129278
           4 :    228.465397079396
           5 :   -164.699763627510
           6 :    111.208289839867
           7 :   -71.5491524353659
           8 :    44.3486221592549
           9 :   -25.5283902788369
          10 :    10.9776916932379
          11 :    1.52318863167227
          12 :   -11.8529229570606
[...]
     MD5 check sum: 9eb49e5b028550b2339a02317eb7b844
     Pseudo is Ultrasoft + core correction, Zval = 15.0
     Generated by new atomic code, or converted to UPF format
     Using radial grid of  965 points,  6 beta functions with:
                l(1) =   0
                l(2) =   0
                l(3) =   1
                l(4) =   1
                l(5) =   2
                l(6) =   2
     Q(r) pseudized with  8 coefficients,  rinner =    1.300   1.300   1.300
                                                       1.300   1.300

     PseudoPot. # 2 for Sn read from file:
     /afs/slac.stanford.edu/u/if/mamunm/psp/gbrv1.5pbe/Sn.UPF
     MD5 check sum: 469debedee59599fedebd795477fea03
     Pseudo is Ultrasoft + core correction, Zval = 14.0
     Generated by new atomic code, or converted to UPF format
     Using radial grid of  891 points,  6 beta functions with:
                l(1) =   0
                l(2) =   0
                l(3) =   1
                l(4) =   1
                l(5) =   2
                l(6) =   2
     Q(r) pseudized with  8 coefficients,  rinner =    1.350   1.350   1.350
                                                       1.350   1.350

     vdW kernel table read from file vdW_kernel_table
     MD5 check sum: 095c7af220d748ca6e76c0b4c6cfb241

     atomic species   valence    mass     pseudopotential
        Tc1           15.00    97.90721     Tc( 1.00)
        Sn1           14.00   118.71000     Sn( 1.00)

     No symmetry found

   Cartesian axes

     site n.     atom                  positions (alat units)
         1           Tc1 tau(   1) = (   0.0000000   0.0000000  10.0000000  )
         2           Tc1 tau(   2) = (  -1.4153342   2.4514307  10.0000000  )
         3           Tc1 tau(   3) = (   1.4153342   2.4514307  10.0000000  )
         4           Sn1 tau(   4) = (   2.8306684   0.0000000  10.0000000  )
         5           Tc1 tau(   5) = (   2.8306684   1.6342871  12.3112310  )
         6           Tc1 tau(   6) = (   1.4153342   4.0857179  12.3112310  )
         7           Tc1 tau(   7) = (  -1.4153342   4.0857179  12.3112310  )
         8           Sn1 tau(   8) = (   0.0000000   1.6342871  12.3112310  )
         9           Tc1 tau(   9) = (  -0.0000670   3.4222015  14.4883507  )
        10           Tc1 tau(  10) = (   1.5483739   0.7402401  14.4883795  )
        11           Tc1 tau(  11) = (   4.1129832   0.7403315  14.4883859  )
        12           Sn1 tau(  12) = (   2.8305346   3.2684942  14.9233444  )

     number of k points=    20  Fermi-Dirac smearing, width (Ry)=  0.0110
                       cart. coord. in units 2pi/alat
        k(    1) = (   0.0000000   0.0000000   0.0000000), wk =   0.0555556
        k(    2) = (   0.0000000   0.0339938   0.0000000), wk =   0.1111111
        k(    3) = (   0.0000000   0.0679875   0.0000000), wk =   0.1111111
        k(    4) = (   0.0000000  -0.1019813   0.0000000), wk =   0.0555556
        k(    5) = (   0.0294395   0.0169969   0.0000000), wk =   0.1111111
        k(    6) = (   0.0294395   0.0509906   0.0000000), wk =   0.1111111
        k(    7) = (   0.0294395   0.0849844   0.0000000), wk =   0.1111111
        k(    8) = (   0.0294395  -0.0849844   0.0000000), wk =   0.1111111
        k(    9) = (   0.0294395  -0.0509906   0.0000000), wk =   0.1111111
        k(   10) = (   0.0294395  -0.0169969   0.0000000), wk =   0.1111111
        k(   11) = (   0.0588789   0.0339938   0.0000000), wk =   0.1111111
        k(   12) = (   0.0588789   0.0679875   0.0000000), wk =   0.1111111
        k(   13) = (   0.0588789   0.1019813   0.0000000), wk =   0.1111111
        k(   14) = (   0.0588789  -0.0679875   0.0000000), wk =   0.1111111
        k(   15) = (   0.0588789  -0.0339938   0.0000000), wk =   0.1111111
        k(   16) = (   0.0588789   0.0000000   0.0000000), wk =   0.1111111
        k(   17) = (  -0.0883184  -0.0509906   0.0000000), wk =   0.0555556
        k(   18) = (  -0.0883184  -0.0169969   0.0000000), wk =   0.1111111
        k(   19) = (  -0.0883184   0.0169969   0.0000000), wk =   0.1111111
        k(   20) = (  -0.0883184  -0.1529719   0.0000000), wk =   0.0555556

     Largest allocated arrays     est. size (Mb)     dimensions
     Largest temporary arrays     est. size (Mb)     dimensions

     Check: negative/imaginary core charge=   -0.000017    0.000000

     Initial potential from superposition of free atoms
     Check: negative starting charge=   -1.134552

     starting charge  164.99962, renormalised to  177.00000

[...]

     *
     * You are using vdW-DF for exchange-correlation in this calculation.
     * Please cite the following three references that made this development
     * possible:
     *
     *   M. Dion, H. Rydberg, E. Schroder, D. C. Langreth, and
     *   B. I. Lundqvist, Phys. Rev. Lett. 92, 246401 (2004).
     *
     *   T. Thonhauser, V. R. Cooper, S. Li, A. Puzder, P. Hyldgaard, and
     *   D. C. Langreth, Phys. Rev. B 76, 125112 (2007).
     *
     *   G. Roman-Perez and J. M. Soler, Phys. Rev. Lett. 103, 096102 (2009).
     *
     *
     * If you are using vdW-DF2, please also cite:
     *
     *   K. Lee, E. D. Murray, L. Kong, B. I. Lundqvist, and
     *   D. C. Langreth, Phys. Rev. B 82, 081101(R) (2010).
     *
     *
     * If you are calculating the stress with vdW-DF, please also cite:
     *
     *   R. Sabatini, E. Kucukbenli, B. Kolb, T. Thonhauser, and
     *   S. de Gironcoli, J. Phys.: Condens. Matter 24, 424209 (2012).
     *

     Carrying out vdW-DF run using the following parameters:

     Nqs =      20    Nr_points =    1024   r_max =   100.000
     q_mesh =
               0.00001000     0.04494208     0.09755937     0.15916263
               0.23128650     0.31572767     0.41458969     0.53033537
               0.66584808     0.82450364     1.01025438     1.22772762
               1.48234092     1.78043706     2.12944203     2.53805004
               3.01644009     3.57652955     4.23227104     5.00000000

     Gradients computed in reciprocal space

[...]

     Starting wfc are  144 randomized atomic wfcs

     Self-consistent Calculation

[...]

     total energy              =   -2059.46927948 Ry
     Harris-Foulkes estimate   =   -2059.46927832 Ry
     estimated scf accuracy    <       0.00000106 Ry

     iteration # 19     ecut=    36.75 Ry     beta=0.10
     Davidson diagonalization with overlap
     ethr =  5.97E-10,  avg # of iterations =  2.0

[...]

     negative rho (up, down):  1.180E+00 0.000E+00

     Adding external electric field

     Computed dipole along edir(3) :
        Dipole                0.0964 Ry au,          0.2450 Debye
        Dipole field          0.0003 Ry au

        Potential amp.       -0.0238 Ry
        Total length         45.3665 bohr

     End of self-consistent calculation

[...]

          k = 0.0589 0.0000 0.0000 ( 17364 PWs)   bands (ev):

[...]

          k =-0.0883-0.1530 0.0000 ( 17344 PWs)   bands (ev):

   -64.9791 -64.9358 -64.9049 -64.8873 -64.8225 -64.8118 -64.7256 -64.7036
   -64.6813 -37.3644 -37.2710 -37.2044 -37.2037 -37.1764 -37.0650 -37.0344
   -36.9817 -36.9745 -36.9352 -36.9149 -36.8912 -36.7832 -36.7513 -36.7479
   -36.7392 -36.7333 -36.7287 -36.6756 -36.6744 -36.6440 -36.6386 -36.6127
   -36.5877 -36.5719 -36.5475 -36.4952 -19.6623 -19.6524 -19.6478 -19.6358
   -19.6339 -19.4571 -19.4184 -19.4173 -19.3703 -19.3627 -19.3024 -19.2708
   -19.2702 -19.2503 -19.2405  -6.6219  -5.9284  -5.5060  -3.3603  -2.7660
    -2.5862  -2.3239  -2.0888  -1.6226  -1.3935  -1.3505  -1.2194  -1.2026
    -1.1116  -1.0836  -0.6671  -0.5031  -0.4350  -0.4334  -0.3620  -0.1597
     0.0011   0.2557   0.2807   0.4837   0.5957   0.7078   0.8566   0.8732
     0.8843   1.0363   1.2147   1.2834   1.7595   1.8059   1.8241   2.0073
     2.0796   2.2124   2.2224   2.3669   2.5224   2.5480   2.5799   2.6294
     2.7907   3.1944   3.4514   3.4697   3.6313   3.8024   4.2844   4.4661
     4.7116   5.3019   5.4843   5.5890   5.7291   6.1530   7.0177   7.0703
     7.3128   7.5277   7.6559   7.7129   7.7867   8.1516

     the Fermi energy is     2.2095 ev

!    total energy              =   -2059.46928407 Ry
     Harris-Foulkes estimate   =   -2059.46927971 Ry
     estimated scf accuracy    <       0.00000058 Ry

     The total energy is the sum of the following terms:

     one-electron contribution =  -16787.23086155 Ry
     hartree contribution      =    8409.77263853 Ry
     xc contribution           =    -431.78103949 Ry
     ewald contribution        =    6749.86375379 Ry
     electric field correction =       0.00002532 Ry
     smearing contrib. (-TS)   =      -0.09380067 Ry

     convergence has been achieved in  19 iterations

 BEEF-vdW xc energy contributions
           1 :   -378.788538238753
           2 :    348.029624220027
           3 :   -294.070080391599
           4 :    228.973444350161
           5 :   -165.140678567400
           6 :    111.496557578244
           7 :   -71.6326981041015
           8 :    44.2374705676255
           9 :   -25.2995181195156
          10 :    10.7538002661313
          11 :    1.61684714211333
          12 :   -11.7391742553157
          13 :    18.0936471477681
          14 :   -19.1610680148706
          15 :    14.5935199520462
          16 :   -5.59698674441017
          17 :   -5.52839955033141
          18 :    16.2829429126794
          19 :   -24.7910305783354
          20 :    30.1740645212034
          21 :   -32.4289068270604
          22 :    32.0112970549301
          23 :   -29.4364767611995
          24 :    25.0978266503032
          25 :   -19.3342365350903
          26 :    12.6035319171054
          27 :   -5.59438298123234
          28 :  -0.828734731782617
          29 :    5.81736967327583
          30 :   -8.76126750313836
          31 :   -35.0492729135956
          32 :   -25.7109442492715

     Forces acting on atoms (Ry/au):

     negative rho (up, down):  1.180E+00 0.000E+00
     atom    1 type  1   force =    -0.00000236   -0.02614580    0.01456915
     atom    2 type  1   force =    -0.02263296    0.01306710    0.01456862
     atom    3 type  1   force =     0.02263176    0.01306888    0.01456796
     atom    4 type  2   force =    -0.00001751    0.00005738   -0.05287448
     atom    5 type  1   force =     0.00000336    0.02046667    0.00613538
     atom    6 type  1   force =     0.01774430   -0.01023618    0.00612708
     atom    7 type  1   force =    -0.01774390   -0.01023972    0.00612442
     atom    8 type  2   force =     0.00001344    0.00004109   -0.00842801
     atom    9 type  1   force =    -0.00001489    0.00074273    0.00006598
     atom   10 type  1   force =     0.00063148   -0.00039411    0.00006872
     atom   11 type  1   force =    -0.00064070   -0.00038315    0.00005492
     atom   12 type  2   force =     0.00002798   -0.00004488   -0.00097973

     Total force =     0.083226     Total SCF correction =     0.002454

     entering subroutine stress ...

     negative rho (up, down):  1.180E+00 0.000E+00
          total   stress  (Ry/bohr**3)                   (kbar)     P=  -22.02
  -0.00022077  -0.00000000  -0.00000000        -32.48     -0.00     -0.00
  -0.00000000  -0.00022075  -0.00000000         -0.00    -32.47     -0.00
  -0.00000000  -0.00000000  -0.00000755         -0.00     -0.00     -1.11

 !ASE

     Writing output data file calc.save

     General routines

     Parallel routines

   This run was terminated on:  22:41:26   1Jan2019

   JOB DONE.
Job  /afs/slac/g/suncat/bin/suncat-tsmpirun -x LD_LIBRARY_PATH -wdir /scratch/qe649179_g4gHN pw.x -in pw.inp

TID   HOST_NAME   COMMAND_LINE            STATUS            TERMINATION_TIME
00000 suncat0154 pw.x -in pw.inp   Done                     01/01/2019 22:41:26
00001 suncat0154 pw.x -in pw.inp   Done                     01/01/2019 22:41:26
00002 suncat0154 pw.x -in pw.inp   Done                     01/01/2019 22:41:26
00003 suncat0154 pw.x -in pw.inp   Done                     01/01/2019 22:41:26
00004 suncat0154 pw.x -in pw.inp   Done                     01/01/2019 22:41:26
00005 suncat0154 pw.x -in pw.inp   Done                     01/01/2019 22:41:26
00006 suncat0154 pw.x -in pw.inp   Done                     01/01/2019 22:41:26
00007 suncat0154 pw.x -in pw.inp   Done                     01/01/2019 22:41:26
00008 suncat0143 pw.x -in pw.inp   Done                     01/01/2019 22:41:26
00009 suncat0143 pw.x -in pw.inp   Done                     01/01/2019 22:41:26
00010 suncat0143 pw.x -in pw.inp   Done                     01/01/2019 22:41:26
00011 suncat0143 pw.x -in pw.inp   Done                     01/01/2019 22:41:26
00012 suncat0143 pw.x -in pw.inp   Done                     01/01/2019 22:41:26
00013 suncat0143 pw.x -in pw.inp   Done                     01/01/2019 22:41:26
00014 suncat0143 pw.x -in pw.inp   Done                     01/01/2019 22:41:26
00015 suncat0143 pw.x -in pw.inp   Done                     01/01/2019 22:41:26
00016 suncat0108 pw.x -in pw.inp   Done                     01/01/2019 22:41:26
00017 suncat0108 pw.x -in pw.inp   Done                     01/01/2019 22:41:26
00018 suncat0108 pw.x -in pw.inp   Done                     01/01/2019 22:41:26
00019 suncat0108 pw.x -in pw.inp   Done                     01/01/2019 22:41:26
00020 suncat0108 pw.x -in pw.inp   Done                     01/01/2019 22:41:26
00021 suncat0108 pw.x -in pw.inp   Done                     01/01/2019 22:41:26
00022 suncat0108 pw.x -in pw.inp   Done                     01/01/2019 22:41:26
00023 suncat0108 pw.x -in pw.inp   Done                     01/01/2019 22:41:26
00024 suncat0252 pw.x -in pw.inp   Done                     01/01/2019 22:41:26
00025 suncat0252 pw.x -in pw.inp   Done                     01/01/2019 22:41:26
00026 suncat0252 pw.x -in pw.inp   Done                     01/01/2019 22:41:26
00027 suncat0252 pw.x -in pw.inp   Done                     01/01/2019 22:41:26
00028 suncat0252 pw.x -in pw.inp   Done                     01/01/2019 22:41:26
00029 suncat0252 pw.x -in pw.inp   Done                     01/01/2019 22:41:26
00030 suncat0252 pw.x -in pw.inp   Done                     01/01/2019 22:41:26
00031 suncat0252 pw.x -in pw.inp   Done                     01/01/2019 22:41:26
00032 suncat0226 pw.x -in pw.inp   Done                     01/01/2019 22:41:26
00033 suncat0226 pw.x -in pw.inp   Done                     01/01/2019 22:41:26
00034 suncat0226 pw.x -in pw.inp   Done                     01/01/2019 22:41:26
00035 suncat0226 pw.x -in pw.inp   Done                     01/01/2019 22:41:26
00036 suncat0226 pw.x -in pw.inp   Done                     01/01/2019 22:41:26
00037 suncat0226 pw.x -in pw.inp   Done                     01/01/2019 22:41:26
00038 suncat0226 pw.x -in pw.inp   Done                     01/01/2019 22:41:26
00039 suncat0226 pw.x -in pw.inp   Done                     01/01/2019 22:41:26
00040 suncat0225 pw.x -in pw.inp   Done                     01/01/2019 22:41:26
00041 suncat0225 pw.x -in pw.inp   Done                     01/01/2019 22:41:26
00042 suncat0225 pw.x -in pw.inp   Done                     01/01/2019 22:41:26
00043 suncat0225 pw.x -in pw.inp   Done                     01/01/2019 22:41:26
00044 suncat0225 pw.x -in pw.inp   Done                     01/01/2019 22:41:26
00045 suncat0225 pw.x -in pw.inp   Done                     01/01/2019 22:41:26
00046 suncat0225 pw.x -in pw.inp   Done                     01/01/2019 22:41:26
00047 suncat0225 pw.x -in pw.inp   Done                     01/01/2019 22:41:26
00048 suncat0224 pw.x -in pw.inp   Done                     01/01/2019 22:41:26
00049 suncat0224 pw.x -in pw.inp   Done                     01/01/2019 22:41:26
00050 suncat0224 pw.x -in pw.inp   Done                     01/01/2019 22:41:26
00051 suncat0224 pw.x -in pw.inp   Done                     01/01/2019 22:41:26
00052 suncat0224 pw.x -in pw.inp   Done                     01/01/2019 22:41:26
00053 suncat0224 pw.x -in pw.inp   Done                     01/01/2019 22:41:26
00054 suncat0224 pw.x -in pw.inp   Done                     01/01/2019 22:41:26
00055 suncat0224 pw.x -in pw.inp   Done                     01/01/2019 22:41:26
00056 suncat0223 pw.x -in pw.inp   Done                     01/01/2019 22:41:26
00057 suncat0223 pw.x -in pw.inp   Done                     01/01/2019 22:41:26
00058 suncat0223 pw.x -in pw.inp   Done                     01/01/2019 22:41:26
00059 suncat0223 pw.x -in pw.inp   Done                     01/01/2019 22:41:26
00060 suncat0223 pw.x -in pw.inp   Done                     01/01/2019 22:41:26
00061 suncat0223 pw.x -in pw.inp   Done                     01/01/2019 22:41:26
00062 suncat0223 pw.x -in pw.inp   Done                     01/01/2019 22:41:26
00063 suncat0223 pw.x -in pw.inp   Done                     01/01/2019 22:41:26