     Program PWSCF v.5.1rc2 (svn rev. 11289) starts on 20Dec2018 at  8:50:27

     Current dimensions of program PWSCF are:
     Max number of different atomic species (ntypx) = 10
     Max number of k-points (npk) =  40000
     Max angular momentum in pseudopotentials (lmaxx) =  3
     Presently stress not available with electric field

     IMPORTANT: XC functional enforced from input :
     Exchange-correlation      = BEEF-VDW ( 1  4 27 13 2)
     Any further DFT definition will be discarded
     Please, verify this is what you really want

     Subspace diagonalization in iterative solution of the eigenvalue problem:
     a serial algorithm will be used

     Generating pointlists ...
     new r_m :   0.4125 (alat units)  0.7795 (a.u.) for type    1
     new r_m :   0.4125 (alat units)  0.7795 (a.u.) for type    2

     bravais-lattice index     =            0
     lattice parameter (alat)  =       1.8897  a.u.
     unit-cell volume          =    3620.0377 (a.u.)^3
     number of atoms/cell      =           12
     number of atomic types    =            2
     number of electrons       =       198.00
     number of Kohn-Sham states=          129
     kinetic-energy cutoff     =      36.7493  Ry
     charge density cutoff     =     367.4932  Ry
     convergence threshold     =      1.0E-06
     mixing beta               =       0.1000
     number of iterations used =           10  plain     mixing
     Exchange-correlation      = BEEF-VDW ( 1  4 27 13 2)
     nstep                     =           50

     celldm(1)=   1.889726  celldm(2)=   0.000000  celldm(3)=   0.000000
     celldm(4)=   0.000000  celldm(5)=   0.000000  celldm(6)=   0.000000

     crystal axes: (cart. coord. in units of alat)
               a(1) = (   5.065911   0.000000   0.000000 )
               a(2) = (  -2.532956   4.387208   0.000000 )
               a(3) = (   0.000000   0.000000  24.136299 )

     reciprocal axes: (cart. coord. in units 2 pi/alat)
               b(1) = (  0.197398  0.113968  0.000000 )
               b(2) = (  0.000000  0.227935  0.000000 )
               b(3) = (  0.000000  0.000000  0.041431 )

     PseudoPot. # 1 for Co read from file:
     /afs/slac.stanford.edu/u/if/mamunm/psp/gbrv1.5pbe/Co.UPF
     MD5 check sum: 5f91765df6ddd3222702df6e7b74a16d
     Pseudo is Ultrasoft + core correction, Zval = 17.0
     Generated by new atomic code, or converted to UPF format
     Using radial grid of  863 points,  6 beta functions with:
                l(1) =   0
                l(2) =   0
                l(3) =   1
                l(4) =   1
                l(5) =   2
                l(6) =   2
     Q(r) pseudized with  8 coefficients,  rinner =    1.200   1.200   1.200
                                                       1.200   1.200

     PseudoPot. # 2 for Re read from file:
     /afs/slac.stanford.edu/u/if/mamunm/psp/gbrv1.5pbe/Re.UPF
     MD5 check sum: 85f993410f3e006da9d71c142b4ad953
     Pseudo is Ultrasoft + core correction, Zval = 15.0
     Generated by new atomic code, or converted to UPF format
     Using radial grid of  981 points,  8 beta functions with:
                l(1) =   0
                l(2) =   0
                l(3) =   1
                l(4) =   1
                l(5) =   2
                l(6) =   2
                l(7) =   3
                l(8) =   3
     Q(r) pseudized with  8 coefficients,  rinner =    1.150   1.150   1.150
                                                       1.150   1.150   1.150
                                                       1.150

     vdW kernel table read from file vdW_kernel_table
     MD5 check sum: 095c7af220d748ca6e76c0b4c6cfb241

     atomic species   valence    mass     pseudopotential
        Co1           17.00    58.93319     Co( 1.00)
        Re1           15.00   186.20700     Re( 1.00)

     Starting magnetic structure
     atomic species   magnetization
        Co1          0.118
        Re1          0.133

     No symmetry found

   Cartesian axes

     site n.     atom                  positions (alat units)
         1           Co1 tau(   1) = (   0.0000000   0.0000000  10.0000000  )
         2           Co1 tau(   2) = (  -1.2664778   2.1936040  10.0000000  )
         3           Co1 tau(   3) = (   1.2664778   2.1936040  10.0000000  )
         4           Re1 tau(   4) = (   2.5329557   0.0000000  10.0000000  )
         5           Co1 tau(   5) = (   2.5329557   1.4624026  12.0681497  )
         6           Co1 tau(   6) = (   1.2664778   3.6560066  12.0681497  )
         7           Co1 tau(   7) = (  -1.2664778   3.6560066  12.0681497  )
         8           Re1 tau(   8) = (   0.0000000   1.4624026  12.0681497  )
         9           Co1 tau(   9) = (  -0.0000000   2.9248053  14.1362993  )
        10           Co1 tau(  10) = (   1.2664778   0.7312013  14.1362993  )
        11           Co1 tau(  11) = (   3.7994335   0.7312013  14.1362993  )
        12           Re1 tau(  12) = (   2.5329557   2.9248053  14.1362993  )

     number of k points=    40  Fermi-Dirac smearing, width (Ry)=  0.0110
                       cart. coord. in units 2pi/alat
        k(    1) = (   0.0000000   0.0000000   0.0000000), wk =   0.0277778
        k(    2) = (   0.0000000   0.0379892   0.0000000), wk =   0.0555556
        k(    3) = (   0.0000000   0.0759785   0.0000000), wk =   0.0555556
        k(    4) = (   0.0000000  -0.1139677   0.0000000), wk =   0.0277778
        k(    5) = (   0.0328996   0.0189946   0.0000000), wk =   0.0555556
        k(    6) = (   0.0328996   0.0569839   0.0000000), wk =   0.0555556
        k(    7) = (   0.0328996   0.0949731   0.0000000), wk =   0.0555556
        k(    8) = (   0.0328996  -0.0949731   0.0000000), wk =   0.0555556
        k(    9) = (   0.0328996  -0.0569839   0.0000000), wk =   0.0555556
        k(   10) = (   0.0328996  -0.0189946   0.0000000), wk =   0.0555556
        k(   11) = (   0.0657993   0.0379892   0.0000000), wk =   0.0555556
        k(   12) = (   0.0657993   0.0759785   0.0000000), wk =   0.0555556
        k(   13) = (   0.0657993   0.1139677   0.0000000), wk =   0.0555556
        k(   14) = (   0.0657993  -0.0759785   0.0000000), wk =   0.0555556
        k(   15) = (   0.0657993  -0.0379892   0.0000000), wk =   0.0555556
        k(   16) = (   0.0657993   0.0000000   0.0000000), wk =   0.0555556
        k(   17) = (  -0.0986989  -0.0569839   0.0000000), wk =   0.0277778
        k(   18) = (  -0.0986989  -0.0189946   0.0000000), wk =   0.0555556
        k(   19) = (  -0.0986989   0.0189946   0.0000000), wk =   0.0555556
        k(   20) = (  -0.0986989  -0.1709516   0.0000000), wk =   0.0277778
        k(   21) = (   0.0000000   0.0000000   0.0000000), wk =   0.0277778
        k(   22) = (   0.0000000   0.0379892   0.0000000), wk =   0.0555556
        k(   23) = (   0.0000000   0.0759785   0.0000000), wk =   0.0555556
        k(   24) = (   0.0000000  -0.1139677   0.0000000), wk =   0.0277778
        k(   25) = (   0.0328996   0.0189946   0.0000000), wk =   0.0555556
        k(   26) = (   0.0328996   0.0569839   0.0000000), wk =   0.0555556
        k(   27) = (   0.0328996   0.0949731   0.0000000), wk =   0.0555556
        k(   28) = (   0.0328996  -0.0949731   0.0000000), wk =   0.0555556
        k(   29) = (   0.0328996  -0.0569839   0.0000000), wk =   0.0555556
        k(   30) = (   0.0328996  -0.0189946   0.0000000), wk =   0.0555556
        k(   31) = (   0.0657993   0.0379892   0.0000000), wk =   0.0555556
        k(   32) = (   0.0657993   0.0759785   0.0000000), wk =   0.0555556
        k(   33) = (   0.0657993   0.1139677   0.0000000), wk =   0.0555556
        k(   34) = (   0.0657993  -0.0759785   0.0000000), wk =   0.0555556
        k(   35) = (   0.0657993  -0.0379892   0.0000000), wk =   0.0555556
        k(   36) = (   0.0657993   0.0000000   0.0000000), wk =   0.0555556
        k(   37) = (  -0.0986989  -0.0569839   0.0000000), wk =   0.0277778
        k(   38) = (  -0.0986989  -0.0189946   0.0000000), wk =   0.0555556
        k(   39) = (  -0.0986989   0.0189946   0.0000000), wk =   0.0555556
        k(   40) = (  -0.0986989  -0.1709516   0.0000000), wk =   0.0277778

     Largest allocated arrays     est. size (Mb)     dimensions
     Largest temporary arrays     est. size (Mb)     dimensions

     Check: negative/imaginary core charge=   -0.000005    0.000000

     Initial potential from superposition of free atoms
     Check: negative starting charge=(component1):   -0.220348
     Check: negative starting charge=(component2):   -0.168486

     starting charge  187.49980, renormalised to  198.00000

     negative rho (up, down):  2.327E-01 1.779E-01

     *
     * You are using vdW-DF for exchange-correlation in this calculation.
     * Please cite the following three references that made this development
     * possible:
     *
     *   M. Dion, H. Rydberg, E. Schroder, D. C. Langreth, and
     *   B. I. Lundqvist, Phys. Rev. Lett. 92, 246401 (2004).
     *
     *   T. Thonhauser, V. R. Cooper, S. Li, A. Puzder, P. Hyldgaard, and
     *   D. C. Langreth, Phys. Rev. B 76, 125112 (2007).
     *
     *   G. Roman-Perez and J. M. Soler, Phys. Rev. Lett. 103, 096102 (2009).
     *
     *
     * If you are using vdW-DF2, please also cite:
     *
     *   K. Lee, E. D. Murray, L. Kong, B. I. Lundqvist, and
     *   D. C. Langreth, Phys. Rev. B 82, 081101(R) (2010).
     *
     *
     * If you are calculating the stress with vdW-DF, please also cite:
     *
     *   R. Sabatini, E. Kucukbenli, B. Kolb, T. Thonhauser, and
     *   S. de Gironcoli, J. Phys.: Condens. Matter 24, 424209 (2012).
     *

     Carrying out vdW-DF run using the following parameters:

     Nqs =      20    Nr_points =    1024   r_max =   100.000
     q_mesh =
               0.00001000     0.04494208     0.09755937     0.15916263
               0.23128650     0.31572767     0.41458969     0.53033537
               0.66584808     0.82450364     1.01025438     1.22772762
               1.48234092     1.78043706     2.12944203     2.53805004
               3.01644009     3.57652955     4.23227104     5.00000000

     Gradients computed in reciprocal space

     Adding external electric field

     Computed dipole along edir(3) :
        Dipole                0.0000 Ry au,          0.0000 Debye
        Dipole field          0.0000 Ry au

        Potential amp.       -0.0000 Ry
        Total length         44.4707 bohr

[...]

     Starting wfc are  156 randomized atomic wfcs

     Self-consistent Calculation

     iteration #  1     ecut=    36.75 Ry     beta=0.10
     Davidson diagonalization with overlap
     ethr =  1.00E-02,  avg # of iterations =  7.0

[...]

     Magnetic moment per site:
     atom:    1    charge:    8.4389    magn:    0.9591    constr:    0.0000
     atom:    2    charge:    8.4389    magn:    0.9591    constr:    0.0000
     atom:    3    charge:    8.4389    magn:    0.9591    constr:    0.0000
     atom:    4    charge:    1.9694    magn:    0.2382    constr:    0.0000
     atom:    5    charge:    8.4479    magn:    0.9551    constr:    0.0000
     atom:    6    charge:    8.4479    magn:    0.9551    constr:    0.0000
[...]
        k(    5) = (   0.0328996   0.0189946   0.0000000), wk =   0.0555556
        k(    6) = (   0.0328996   0.0569839   0.0000000), wk =   0.0555556
        k(    7) = (   0.0328996   0.0949731   0.0000000), wk =   0.0555556
        k(    8) = (   0.0328996  -0.0949731   0.0000000), wk =   0.0555556
        k(    9) = (   0.0328996  -0.0569839   0.0000000), wk =   0.0555556
        k(   10) = (   0.0328996  -0.0189946   0.0000000), wk =   0.0555556
        k(   11) = (   0.0657993   0.0379892   0.0000000), wk =   0.0555556
        k(   12) = (   0.0657993   0.0759785   0.0000000), wk =   0.0555556
        k(   13) = (   0.0657993   0.1139677   0.0000000), wk =   0.0555556
        k(   14) = (   0.0657993  -0.0759785   0.0000000), wk =   0.0555556
        k(   15) = (   0.0657993  -0.0379892   0.0000000), wk =   0.0555556
        k(   16) = (   0.0657993   0.0000000   0.0000000), wk =   0.0555556
        k(   17) = (  -0.0986989  -0.0569839   0.0000000), wk =   0.0277778
        k(   18) = (  -0.0986989  -0.0189946   0.0000000), wk =   0.0555556
        k(   19) = (  -0.0986989   0.0189946   0.0000000), wk =   0.0555556
        k(   20) = (  -0.0986989  -0.1709516   0.0000000), wk =   0.0277778
        k(   21) = (   0.0000000   0.0000000   0.0000000), wk =   0.0277778
        k(   22) = (   0.0000000   0.0379892   0.0000000), wk =   0.0555556
        k(   23) = (   0.0000000   0.0759785   0.0000000), wk =   0.0555556
        k(   24) = (   0.0000000  -0.1139677   0.0000000), wk =   0.0277778
        k(   25) = (   0.0328996   0.0189946   0.0000000), wk =   0.0555556
        k(   26) = (   0.0328996   0.0569839   0.0000000), wk =   0.0555556
        k(   27) = (   0.0328996   0.0949731   0.0000000), wk =   0.0555556
        k(   28) = (   0.0328996  -0.0949731   0.0000000), wk =   0.0555556
        k(   29) = (   0.0328996  -0.0569839   0.0000000), wk =   0.0555556
        k(   30) = (   0.0328996  -0.0189946   0.0000000), wk =   0.0555556
        k(   31) = (   0.0657993   0.0379892   0.0000000), wk =   0.0555556
        k(   32) = (   0.0657993   0.0759785   0.0000000), wk =   0.0555556
        k(   33) = (   0.0657993   0.1139677   0.0000000), wk =   0.0555556
        k(   34) = (   0.0657993  -0.0759785   0.0000000), wk =   0.0555556
        k(   35) = (   0.0657993  -0.0379892   0.0000000), wk =   0.0555556
        k(   36) = (   0.0657993   0.0000000   0.0000000), wk =   0.0555556
        k(   37) = (  -0.0986989  -0.0569839   0.0000000), wk =   0.0277778
        k(   38) = (  -0.0986989  -0.0189946   0.0000000), wk =   0.0555556
        k(   39) = (  -0.0986989   0.0189946   0.0000000), wk =   0.0555556
        k(   40) = (  -0.0986989  -0.1709516   0.0000000), wk =   0.0277778

     Largest allocated arrays     est. size (Mb)     dimensions
     Largest temporary arrays     est. size (Mb)     dimensions

     Check: negative/imaginary core charge=   -0.000005    0.000000

     Initial potential from superposition of free atoms
     Check: negative starting charge=(component1):   -0.220952
     Check: negative starting charge=(component2):   -0.168948

     starting charge  187.49980, renormalised to  198.00000

[...]

     *
     * You are using vdW-DF for exchange-correlation in this calculation.
     * Please cite the following three references that made this development
     * possible:
     *
     *   M. Dion, H. Rydberg, E. Schroder, D. C. Langreth, and
     *   B. I. Lundqvist, Phys. Rev. Lett. 92, 246401 (2004).
     *
     *   T. Thonhauser, V. R. Cooper, S. Li, A. Puzder, P. Hyldgaard, and
     *   D. C. Langreth, Phys. Rev. B 76, 125112 (2007).
     *
     *   G. Roman-Perez and J. M. Soler, Phys. Rev. Lett. 103, 096102 (2009).
     *
     *
     * If you are using vdW-DF2, please also cite:
     *
     *   K. Lee, E. D. Murray, L. Kong, B. I. Lundqvist, and
     *   D. C. Langreth, Phys. Rev. B 82, 081101(R) (2010).
     *
     *
     * If you are calculating the stress with vdW-DF, please also cite:
     *
     *   R. Sabatini, E. Kucukbenli, B. Kolb, T. Thonhauser, and
     *   S. de Gironcoli, J. Phys.: Condens. Matter 24, 424209 (2012).
     *

     Carrying out vdW-DF run using the following parameters:

     Nqs =      20    Nr_points =    1024   r_max =   100.000
     q_mesh =
               0.00001000     0.04494208     0.09755937     0.15916263
               0.23128650     0.31572767     0.41458969     0.53033537
               0.66584808     0.82450364     1.01025438     1.22772762
               1.48234092     1.78043706     2.12944203     2.53805004
               3.01644009     3.57652955     4.23227104     5.00000000

     Gradients computed in reciprocal space

[...]

     Starting wfc are  156 randomized atomic wfcs

     Self-consistent Calculation

[...]

     total energy              =   -3272.05385912 Ry
     Harris-Foulkes estimate   =   -3272.05385920 Ry
     estimated scf accuracy    <       0.00000104 Ry

[...]

     iteration # 61     ecut=    36.75 Ry     beta=0.10
     Davidson diagonalization with overlap
     ethr =  5.27E-10,  avg # of iterations =  1.5

[...]

     negative rho (up, down):  2.056E-01 1.999E-01

[...]

     Adding external electric field

     Computed dipole along edir(3) :
        Dipole                0.0069 Ry au,          0.0174 Debye
        Dipole field          0.0000 Ry au

        Potential amp.       -0.0021 Ry
        Total length         44.4707 bohr

     Magnetic moment per site:
     atom:    1    charge:    8.2786    magn:    0.4807    constr:    0.0000
     atom:    2    charge:    8.2786    magn:    0.4807    constr:    0.0000
     atom:    3    charge:    8.2787    magn:    0.4806    constr:    0.0000
     atom:    4    charge:    1.8665    magn:   -0.0131    constr:    0.0000
     atom:    5    charge:    8.2764    magn:    0.2680    constr:    0.0000
     atom:    6    charge:    8.2764    magn:    0.2679    constr:    0.0000
     atom:    7    charge:    8.2764    magn:    0.2679    constr:    0.0000
     atom:    8    charge:    1.8729    magn:   -0.0079    constr:    0.0000
     atom:    9    charge:    8.2831    magn:    0.4172    constr:    0.0000
     atom:   10    charge:    8.2831    magn:    0.4171    constr:    0.0000
     atom:   11    charge:    8.2832    magn:    0.4171    constr:    0.0000
     atom:   12    charge:    1.8688    magn:   -0.0121    constr:    0.0000

     End of self-consistent calculation

 ------ SPIN UP ------------

[...]

 ------ SPIN DOWN ----------

[...]

          k = 0.0658 0.0000 0.0000 ( 13617 PWs)   bands (ev):

[...]

          k =-0.0987-0.1710 0.0000 ( 13634 PWs)   bands (ev):

   -93.5165 -93.5090 -93.5015 -93.0574 -93.0499 -93.0426 -92.9773 -92.9699
   -92.9626 -79.6661 -79.3552 -79.3325 -56.9903 -56.9501 -56.9226 -56.8752
   -56.8553 -56.8283 -56.7112 -56.6868 -56.6510 -56.5545 -56.5311 -56.5101
   -56.4903 -56.4651 -56.4444 -56.3868 -56.3472 -56.3123 -56.2972 -56.2563
   -56.2460 -56.2268 -56.2205 -56.1967 -56.1697 -56.1520 -56.1225 -41.3746
   -41.3674 -41.3651 -41.0878 -41.0556 -41.0497 -41.0435 -41.0270 -41.0202
    -5.4729  -5.0427  -3.8732  -3.3212  -3.2922  -3.2699  -2.8491  -2.5076
    -2.4620  -2.4322  -2.1450  -1.9572  -1.9271  -1.8526  -1.6979  -1.4657
    -1.3806  -1.2521  -1.2247  -1.0463  -0.9771  -0.7868  -0.6472  -0.4998
    -0.4528  -0.4023  -0.3526  -0.2303  -0.1109  -0.0968  -0.0401  -0.0094
     0.0242   0.0962   0.1301   0.1532   0.2060   0.2486   0.2712   0.3486
     0.5559   0.7342   0.7736   0.8984   0.9974   1.0719   1.0918   1.0925
     1.3989   1.4451   1.4993   1.5158   1.6208   1.7588   1.8503   1.8526
     1.9369   2.0163   2.2398   2.3633   2.3959   2.6056   2.6870   3.3344
     3.5638   3.6819   4.0446   4.9981   5.4904   5.9699   6.1173   6.3665
     7.4175   7.4710   7.7438   7.7954   8.2604   8.2896   8.4446   8.4594
     9.4663

     the Fermi energy is     1.4219 ev

!    total energy              =   -3272.05385970 Ry
     Harris-Foulkes estimate   =   -3272.05385934 Ry
     estimated scf accuracy    <       0.00000081 Ry

     The total energy is the sum of the following terms:

     one-electron contribution =  -28416.11591532 Ry
     hartree contribution      =   14209.38050564 Ry
     xc contribution           =    -465.95212989 Ry
     ewald contribution        =   11400.72784549 Ry
     electric field correction =       0.00000016 Ry
     smearing contrib. (-TS)   =      -0.09416578 Ry

     total magnetization       =     5.43 Bohr mag/cell
     absolute magnetization    =     7.58 Bohr mag/cell

     convergence has been achieved in  61 iterations

 BEEF-vdW xc energy contributions
           1 :   -411.815859877347
           2 :    376.926265008346
           3 :   -316.383511221484
           4 :    244.765914984440
           5 :   -176.409155877234
           6 :    120.732033274524
           7 :   -80.3869386443239
           8 :    52.5323283919461
           9 :   -32.0581249048848
          10 :    14.8313569191988
          11 :   0.585168724480468
          12 :   -13.2258051691454
          13 :    21.3358566532909
          14 :   -24.0829833002273
          15 :    22.3354465047519
          16 :   -18.2451224681928
          17 :    14.0963884856228
          18 :   -11.2418652810401
          19 :    9.73242479808596
          20 :   -8.75188344522405
          21 :    7.44965076904259
          22 :   -5.59866386997010
          23 :    3.68459367828768
          24 :   -2.46553138910991
          25 :    2.36700315283605
          26 :   -3.15648541189336
          27 :    4.09515305295690
          28 :   -4.43788952303680
          29 :    3.91531460909584
          30 :   -2.88033850655006
          31 :   -34.6867083559863
          32 :   -24.6795050380781

     Forces acting on atoms (Ry/au):

     negative rho (up, down):  2.056E-01 1.999E-01
     atom    1 type  1   force =     0.00000414    0.00209270    0.00784436
     atom    2 type  1   force =     0.00182508   -0.00103825    0.00784146
     atom    3 type  1   force =    -0.00182556   -0.00104319    0.00785428
     atom    4 type  2   force =    -0.00000031    0.00000651    0.01129821
     atom    5 type  1   force =     0.00002006   -0.00281444   -0.00796692
     atom    6 type  1   force =    -0.00243367    0.00142011   -0.00797120
     atom    7 type  1   force =     0.00242609    0.00139309   -0.00799068
     atom    8 type  2   force =     0.00001584    0.00000495   -0.01031105
     atom    9 type  1   force =    -0.00002445   -0.00014367   -0.00078692
     atom   10 type  1   force =    -0.00014125    0.00004835   -0.00076281
     atom   11 type  1   force =     0.00014216    0.00007684   -0.00076794
     atom   12 type  2   force =    -0.00000813   -0.00000298    0.00171921

     Total force =     0.025520     Total SCF correction =     0.003534
     SCF correction compared to forces is large: reduce conv_thr to get better values

     entering subroutine stress ...

     negative rho (up, down):  2.056E-01 1.999E-01
          total   stress  (Ry/bohr**3)                   (kbar)     P=  -24.93
  -0.00021258   0.00000002   0.00000002        -31.27      0.00      0.00
   0.00000002  -0.00021260  -0.00000000          0.00    -31.27     -0.00
   0.00000002  -0.00000000  -0.00008322          0.00     -0.00    -12.24

 !ASE

     Writing output data file calc.save

     General routines

     Parallel routines

   This run was terminated on:  12:53:18  20Dec2018

   JOB DONE.
Job  /afs/slac/g/suncat/bin/suncat-tsmpirun -x LD_LIBRARY_PATH -wdir /scratch/qe773532_hVVqc pw.x -in pw.inp

TID   HOST_NAME   COMMAND_LINE            STATUS            TERMINATION_TIME
00000 suncat0077 pw.x -in pw.inp   Done                     12/20/2018 12:53:18
00001 suncat0077 pw.x -in pw.inp   Done                     12/20/2018 12:53:18
00002 suncat0077 pw.x -in pw.inp   Done                     12/20/2018 12:53:18
00003 suncat0077 pw.x -in pw.inp   Done                     12/20/2018 12:53:18
00004 suncat0077 pw.x -in pw.inp   Done                     12/20/2018 12:53:18
00005 suncat0077 pw.x -in pw.inp   Done                     12/20/2018 12:53:18
00006 suncat0077 pw.x -in pw.inp   Done                     12/20/2018 12:53:18
00007 suncat0077 pw.x -in pw.inp   Done                     12/20/2018 12:53:18
00008 suncat0076 pw.x -in pw.inp   Done                     12/20/2018 12:53:18
00009 suncat0076 pw.x -in pw.inp   Done                     12/20/2018 12:53:18
00010 suncat0076 pw.x -in pw.inp   Done                     12/20/2018 12:53:18
00011 suncat0076 pw.x -in pw.inp   Done                     12/20/2018 12:53:18
00012 suncat0076 pw.x -in pw.inp   Done                     12/20/2018 12:53:18
00013 suncat0076 pw.x -in pw.inp   Done                     12/20/2018 12:53:18
00014 suncat0076 pw.x -in pw.inp   Done                     12/20/2018 12:53:18
00015 suncat0076 pw.x -in pw.inp   Done                     12/20/2018 12:53:18
00016 suncat0075 pw.x -in pw.inp   Done                     12/20/2018 12:53:18
00017 suncat0075 pw.x -in pw.inp   Done                     12/20/2018 12:53:18
00018 suncat0075 pw.x -in pw.inp   Done                     12/20/2018 12:53:18
00019 suncat0075 pw.x -in pw.inp   Done                     12/20/2018 12:53:18
00020 suncat0075 pw.x -in pw.inp   Done                     12/20/2018 12:53:18
00021 suncat0075 pw.x -in pw.inp   Done                     12/20/2018 12:53:18
00022 suncat0075 pw.x -in pw.inp   Done                     12/20/2018 12:53:18
00023 suncat0075 pw.x -in pw.inp   Done                     12/20/2018 12:53:18
00024 suncat0074 pw.x -in pw.inp   Done                     12/20/2018 12:53:18
00025 suncat0074 pw.x -in pw.inp   Done                     12/20/2018 12:53:18
00026 suncat0074 pw.x -in pw.inp   Done                     12/20/2018 12:53:18
00027 suncat0074 pw.x -in pw.inp   Done                     12/20/2018 12:53:18
00028 suncat0074 pw.x -in pw.inp   Done                     12/20/2018 12:53:18
00029 suncat0074 pw.x -in pw.inp   Done                     12/20/2018 12:53:18
00030 suncat0074 pw.x -in pw.inp   Done                     12/20/2018 12:53:18
00031 suncat0074 pw.x -in pw.inp   Done                     12/20/2018 12:53:18
00032 suncat0248 pw.x -in pw.inp   Done                     12/20/2018 12:53:18
00033 suncat0248 pw.x -in pw.inp   Done                     12/20/2018 12:53:18
00034 suncat0248 pw.x -in pw.inp   Done                     12/20/2018 12:53:18
00035 suncat0248 pw.x -in pw.inp   Done                     12/20/2018 12:53:18
00036 suncat0248 pw.x -in pw.inp   Done                     12/20/2018 12:53:18
00037 suncat0248 pw.x -in pw.inp   Done                     12/20/2018 12:53:18
00038 suncat0248 pw.x -in pw.inp   Done                     12/20/2018 12:53:18
00039 suncat0248 pw.x -in pw.inp   Done                     12/20/2018 12:53:18
00040 suncat0247 pw.x -in pw.inp   Done                     12/20/2018 12:53:18
00041 suncat0247 pw.x -in pw.inp   Done                     12/20/2018 12:53:18
00042 suncat0247 pw.x -in pw.inp   Done                     12/20/2018 12:53:18
00043 suncat0247 pw.x -in pw.inp   Done                     12/20/2018 12:53:18
00044 suncat0247 pw.x -in pw.inp   Done                     12/20/2018 12:53:18
00045 suncat0247 pw.x -in pw.inp   Done                     12/20/2018 12:53:18
00046 suncat0247 pw.x -in pw.inp   Done                     12/20/2018 12:53:18
00047 suncat0247 pw.x -in pw.inp   Done                     12/20/2018 12:53:18
00048 suncat0246 pw.x -in pw.inp   Done                     12/20/2018 12:53:18
00049 suncat0246 pw.x -in pw.inp   Done                     12/20/2018 12:53:18
00050 suncat0246 pw.x -in pw.inp   Done                     12/20/2018 12:53:18
00051 suncat0246 pw.x -in pw.inp   Done                     12/20/2018 12:53:18
00052 suncat0246 pw.x -in pw.inp   Done                     12/20/2018 12:53:18
00053 suncat0246 pw.x -in pw.inp   Done                     12/20/2018 12:53:18
00054 suncat0246 pw.x -in pw.inp   Done                     12/20/2018 12:53:18
00055 suncat0246 pw.x -in pw.inp   Done                     12/20/2018 12:53:18
00056 suncat0245 pw.x -in pw.inp   Done                     12/20/2018 12:53:18
00057 suncat0245 pw.x -in pw.inp   Done                     12/20/2018 12:53:18
00058 suncat0245 pw.x -in pw.inp   Done                     12/20/2018 12:53:18
00059 suncat0245 pw.x -in pw.inp   Done                     12/20/2018 12:53:18
00060 suncat0245 pw.x -in pw.inp   Done                     12/20/2018 12:53:18
00061 suncat0245 pw.x -in pw.inp   Done                     12/20/2018 12:53:18
00062 suncat0245 pw.x -in pw.inp   Done                     12/20/2018 12:53:18
00063 suncat0245 pw.x -in pw.inp   Done                     12/20/2018 12:53:18