     Program PWSCF v.5.1rc2 (svn rev. 11289) starts on 30Dec2018 at 16:12:47

     Current dimensions of program PWSCF are:
     Max number of different atomic species (ntypx) = 10
     Max number of k-points (npk) =  40000
     Max angular momentum in pseudopotentials (lmaxx) =  3
     Presently stress not available with electric field

     IMPORTANT: XC functional enforced from input :
     Exchange-correlation      = BEEF-VDW ( 1  4 27 13 2)
     Any further DFT definition will be discarded
     Please, verify this is what you really want

     Subspace diagonalization in iterative solution of the eigenvalue problem:
     a serial algorithm will be used

     bravais-lattice index     =            0
     lattice parameter (alat)  =       1.8897  a.u.
     unit-cell volume          =    4531.8112 (a.u.)^3
     number of atoms/cell      =           12
     number of atomic types    =            2
     number of electrons       =       135.00
     number of Kohn-Sham states=           97
     kinetic-energy cutoff     =      36.7493  Ry
     charge density cutoff     =     367.4932  Ry
     convergence threshold     =      1.0E-06
     mixing beta               =       0.1000
     number of iterations used =           10  plain     mixing
     Exchange-correlation      = BEEF-VDW ( 1  4 27 13 2)
     nstep                     =           50

     celldm(1)=   1.889726  celldm(2)=   0.000000  celldm(3)=   0.000000
     celldm(4)=   0.000000  celldm(5)=   0.000000  celldm(6)=   0.000000

     crystal axes: (cart. coord. in units of alat)
               a(1) = (   5.616073   0.000000   0.000000 )
               a(2) = (  -2.808036   4.863662   0.000000 )
               a(3) = (   0.000000   0.000000  24.585504 )

     reciprocal axes: (cart. coord. in units 2 pi/alat)
               b(1) = (  0.178060  0.102803  0.000000 )
               b(2) = (  0.000000  0.205606  0.000000 )
               b(3) = (  0.000000  0.000000  0.040674 )

     PseudoPot. # 1 for Mo read from file:
     /afs/slac.stanford.edu/u/if/mamunm/psp/gbrv1.5pbe/Mo.UPF
     MD5 check sum: 30c4dcd161f5d35cd49bb5239c51a633
     Pseudo is Ultrasoft + core correction, Zval = 14.0
     Generated by new atomic code, or converted to UPF format
     Using radial grid of  889 points,  6 beta functions with:
                l(1) =   0
                l(2) =   0
                l(3) =   1
                l(4) =   1
                l(5) =   2
                l(6) =   2
     Q(r) pseudized with  6 coefficients,  rinner =    1.000   1.000   1.000
                                                       1.000   1.000

     PseudoPot. # 2 for Al read from file:
     /afs/slac.stanford.edu/u/if/mamunm/psp/gbrv1.5pbe/Al.UPF
     MD5 check sum: 0a6289f5291fc8f409219462bc851e1f
     Pseudo is Ultrasoft + core correction, Zval =  3.0
     Generated by new atomic code, or converted to UPF format
     Using radial grid of  893 points,  3 beta functions with:
                l(1) =   0
                l(2) =   1
                l(3) =   2
     Q(r) pseudized with  8 coefficients,  rinner =    0.900   0.900   0.900
                                                       0.900   0.900

     vdW kernel table read from file vdW_kernel_table
     MD5 check sum: 095c7af220d748ca6e76c0b4c6cfb241

     atomic species   valence    mass     pseudopotential
        Mo1           14.00    95.95000     Mo( 1.00)
        Al1            3.00    26.98154     Al( 1.00)

     No symmetry found

   Cartesian axes

     site n.     atom                  positions (alat units)
         1           Mo1 tau(   1) = (   0.0000000   0.0000000  10.0000000  )
         2           Mo1 tau(   2) = (  -1.4040182   2.4318309  10.0000000  )
         3           Mo1 tau(   3) = (   1.4040182   2.4318309  10.0000000  )
         4           Al1 tau(   4) = (   2.8080364   0.0000000  10.0000000  )
         5           Mo1 tau(   5) = (   2.8080364   1.6212206  12.2927521  )
         6           Mo1 tau(   6) = (   1.4040182   4.0530514  12.2927521  )
         7           Mo1 tau(   7) = (  -1.4040182   4.0530514  12.2927521  )
         8           Al1 tau(   8) = (   0.0000000   1.6212206  12.2927521  )
         9           Mo1 tau(   9) = (  -0.0000000   3.2424411  14.5855042  )
        10           Mo1 tau(  10) = (   1.4040182   0.8106103  14.5855042  )
        11           Mo1 tau(  11) = (   4.2120546   0.8106103  14.5855042  )
        12           Al1 tau(  12) = (   2.8080364   3.2424411  14.5855042  )

     number of k points=    20  Fermi-Dirac smearing, width (Ry)=  0.0110
                       cart. coord. in units 2pi/alat
        k(    1) = (   0.0000000   0.0000000   0.0000000), wk =   0.0555556
        k(    2) = (   0.0000000   0.0342677   0.0000000), wk =   0.1111111
        k(    3) = (   0.0000000   0.0685355   0.0000000), wk =   0.1111111
        k(    4) = (   0.0000000  -0.1028032   0.0000000), wk =   0.0555556
        k(    5) = (   0.0296767   0.0171339   0.0000000), wk =   0.1111111
        k(    6) = (   0.0296767   0.0514016   0.0000000), wk =   0.1111111
        k(    7) = (   0.0296767   0.0856693   0.0000000), wk =   0.1111111
        k(    8) = (   0.0296767  -0.0856693   0.0000000), wk =   0.1111111
        k(    9) = (   0.0296767  -0.0514016   0.0000000), wk =   0.1111111
        k(   10) = (   0.0296767  -0.0171339   0.0000000), wk =   0.1111111
        k(   11) = (   0.0593535   0.0342677   0.0000000), wk =   0.1111111
        k(   12) = (   0.0593535   0.0685355   0.0000000), wk =   0.1111111
        k(   13) = (   0.0593535   0.1028032   0.0000000), wk =   0.1111111
        k(   14) = (   0.0593535  -0.0685355   0.0000000), wk =   0.1111111
        k(   15) = (   0.0593535  -0.0342677   0.0000000), wk =   0.1111111
        k(   16) = (   0.0593535   0.0000000   0.0000000), wk =   0.1111111
        k(   17) = (  -0.0890302  -0.0514016   0.0000000), wk =   0.0555556
        k(   18) = (  -0.0890302  -0.0171339   0.0000000), wk =   0.1111111
        k(   19) = (  -0.0890302   0.0171339   0.0000000), wk =   0.1111111
        k(   20) = (  -0.0890302  -0.1542048   0.0000000), wk =   0.0555556

     Largest allocated arrays     est. size (Mb)     dimensions
     Largest temporary arrays     est. size (Mb)     dimensions

     Initial potential from superposition of free atoms
     Check: negative starting charge=   -0.004378

     starting charge  134.98303, renormalised to  135.00000

     negative rho (up, down):  4.379E-03 0.000E+00

     *
     * You are using vdW-DF for exchange-correlation in this calculation.
     * Please cite the following three references that made this development
     * possible:
     *
     *   M. Dion, H. Rydberg, E. Schroder, D. C. Langreth, and
     *   B. I. Lundqvist, Phys. Rev. Lett. 92, 246401 (2004).
     *
     *   T. Thonhauser, V. R. Cooper, S. Li, A. Puzder, P. Hyldgaard, and
     *   D. C. Langreth, Phys. Rev. B 76, 125112 (2007).
     *
     *   G. Roman-Perez and J. M. Soler, Phys. Rev. Lett. 103, 096102 (2009).
     *
     *
     * If you are using vdW-DF2, please also cite:
     *
     *   K. Lee, E. D. Murray, L. Kong, B. I. Lundqvist, and
     *   D. C. Langreth, Phys. Rev. B 82, 081101(R) (2010).
     *
     *
     * If you are calculating the stress with vdW-DF, please also cite:
     *
     *   R. Sabatini, E. Kucukbenli, B. Kolb, T. Thonhauser, and
     *   S. de Gironcoli, J. Phys.: Condens. Matter 24, 424209 (2012).
     *

     Carrying out vdW-DF run using the following parameters:

     Nqs =      20    Nr_points =    1024   r_max =   100.000
     q_mesh =
               0.00001000     0.04494208     0.09755937     0.15916263
               0.23128650     0.31572767     0.41458969     0.53033537
               0.66584808     0.82450364     1.01025438     1.22772762
               1.48234092     1.78043706     2.12944203     2.53805004
               3.01644009     3.57652955     4.23227104     5.00000000

     Gradients computed in reciprocal space

     Adding external electric field

     Computed dipole along edir(3) :
        Dipole               -0.0000 Ry au,         -0.0000 Debye
        Dipole field         -0.0000 Ry au

        Potential amp.        0.0000 Ry
        Total length         45.2984 bohr

     Starting wfc are  129 randomized atomic wfcs

     Self-consistent Calculation

     iteration #  1     ecut=    36.75 Ry     beta=0.10
     Davidson diagonalization with overlap
     ethr =  1.00E-02,  avg # of iterations =  2.8

[...]

     total energy              =   -1279.90888960 Ry
     Harris-Foulkes estimate   =   -1280.61778094 Ry
     estimated scf accuracy    <       4.02713608 Ry

[...]

     End of self-consistent calculation

          k = 0.0000 0.0000 0.0000 ( 17015 PWs)   bands (ev):

   -59.8938 -59.7631 -59.7631 -59.6979 -59.6815 -59.5805 -59.5805 -59.5763
   -59.5763 -34.4509 -34.1923 -34.1863 -34.1863 -34.1474 -34.0759 -34.0585
   -34.0585 -33.8831 -33.8831 -33.7746 -33.7018 -33.7018 -33.6752 -33.6583
   -33.6583 -33.4764 -33.4699 -33.4699 -33.4471 -33.4471 -33.4274 -33.3806
   -33.2265 -33.2265 -33.2208 -33.2208  -6.4522  -4.9992  -4.9044  -3.4886
    -2.7584  -2.7174  -2.2008  -2.2008  -2.0232  -1.8469  -1.8469  -1.8072
    -1.8072  -1.5515  -1.4026  -1.4026  -0.6881  -0.6881  -0.0103  -0.0039
     0.1169   0.1169   0.6580   0.6580   0.8605   0.9783   0.9941   0.9941
     1.1707   1.3560   1.7722   1.7722   1.9615   1.9615   2.3002   2.3002
     2.5171   2.5171   2.5580   3.0103   3.0103   3.0718   3.0718   3.2590
     3.6010   3.6010   3.7044   4.1368   4.1502   4.1502   4.3788   4.5437
     4.5437   5.1760   5.3472   5.4646   5.4715   5.5232   5.5232   5.5679
     5.8925

[...]

          k =-0.0890-0.0514 0.0000 ( 17080 PWs)   bands (ev):

[...]

     the Fermi energy is     1.2923 ev

!    total energy              =   -1280.18718662 Ry
     Harris-Foulkes estimate   =   -1280.18718641 Ry
     estimated scf accuracy    <       0.00000027 Ry

     The total energy is the sum of the following terms:

     one-electron contribution =   -9987.93298555 Ry
     hartree contribution      =    4986.95383217 Ry
     xc contribution           =    -193.34276399 Ry
     ewald contribution        =    3914.20251482 Ry
     electric field correction =       0.00000000 Ry
     smearing contrib. (-TS)   =      -0.06778408 Ry

     convergence has been achieved in  16 iterations

 BEEF-vdW xc energy contributions
           1 :   -165.524708088997
           2 :    150.561568795151
           3 :   -125.227922878797
           4 :    96.6066461671859
           5 :   -71.4548752695038
           6 :    53.9496519963739
           7 :   -44.8796929362192
           8 :    42.2718552210934
           9 :   -42.8651425715253
          10 :    43.6125073431833
          11 :   -42.6593722979385
          12 :    39.6036649356758
          13 :   -35.1837484357202
          14 :    30.6494384485047
          15 :   -27.0958332688297
          16 :    24.9787635865871
          17 :   -23.9800438260124
          18 :    23.2501142214720
          19 :   -21.9013459010452
          20 :    19.4857850866057
          21 :   -16.2068244664515
[...]

     reciprocal axes: (cart. coord. in units 2 pi/alat)
               b(1) = (  0.178060  0.102803  0.000000 )
               b(2) = (  0.000000  0.205606  0.000000 )
               b(3) = (  0.000000  0.000000  0.040674 )

     PseudoPot. # 1 for Mo read from file:
     /afs/slac.stanford.edu/u/if/mamunm/psp/gbrv1.5pbe/Mo.UPF
     MD5 check sum: 30c4dcd161f5d35cd49bb5239c51a633
     Pseudo is Ultrasoft + core correction, Zval = 14.0
     Generated by new atomic code, or converted to UPF format
     Using radial grid of  889 points,  6 beta functions with:
                l(1) =   0
                l(2) =   0
                l(3) =   1
                l(4) =   1
                l(5) =   2
                l(6) =   2
     Q(r) pseudized with  6 coefficients,  rinner =    1.000   1.000   1.000
                                                       1.000   1.000

     PseudoPot. # 2 for Al read from file:
     /afs/slac.stanford.edu/u/if/mamunm/psp/gbrv1.5pbe/Al.UPF
     MD5 check sum: 0a6289f5291fc8f409219462bc851e1f
     Pseudo is Ultrasoft + core correction, Zval =  3.0
     Generated by new atomic code, or converted to UPF format
     Using radial grid of  893 points,  3 beta functions with:
                l(1) =   0
                l(2) =   1
                l(3) =   2
     Q(r) pseudized with  8 coefficients,  rinner =    0.900   0.900   0.900
                                                       0.900   0.900

     vdW kernel table read from file vdW_kernel_table
     MD5 check sum: 095c7af220d748ca6e76c0b4c6cfb241

     atomic species   valence    mass     pseudopotential
        Mo1           14.00    95.95000     Mo( 1.00)
        Al1            3.00    26.98154     Al( 1.00)

     No symmetry found

   Cartesian axes

     site n.     atom                  positions (alat units)
         1           Mo1 tau(   1) = (   0.0000000   0.0000000  10.0000000  )
         2           Mo1 tau(   2) = (  -1.4040182   2.4318309  10.0000000  )
         3           Mo1 tau(   3) = (   1.4040182   2.4318309  10.0000000  )
         4           Al1 tau(   4) = (   2.8080364   0.0000000  10.0000000  )
         5           Mo1 tau(   5) = (   2.8080364   1.6212206  12.2927521  )
         6           Mo1 tau(   6) = (   1.4040182   4.0530514  12.2927521  )
         7           Mo1 tau(   7) = (  -1.4040182   4.0530514  12.2927521  )
         8           Al1 tau(   8) = (   0.0000000   1.6212206  12.2927521  )
         9           Mo1 tau(   9) = (   0.0000004   3.3058075  14.4995926  )
        10           Mo1 tau(  10) = (   1.4588973   0.7789265  14.4995912  )
        11           Mo1 tau(  11) = (   4.1571769   0.7789265  14.4995908  )
        12           Al1 tau(  12) = (   2.8080367   3.2424415  14.8261497  )

     number of k points=    20  Fermi-Dirac smearing, width (Ry)=  0.0110
                       cart. coord. in units 2pi/alat
        k(    1) = (   0.0000000   0.0000000   0.0000000), wk =   0.0555556
        k(    2) = (   0.0000000   0.0342677   0.0000000), wk =   0.1111111
        k(    3) = (   0.0000000   0.0685355   0.0000000), wk =   0.1111111
        k(    4) = (   0.0000000  -0.1028032   0.0000000), wk =   0.0555556
        k(    5) = (   0.0296767   0.0171339   0.0000000), wk =   0.1111111
        k(    6) = (   0.0296767   0.0514016   0.0000000), wk =   0.1111111
        k(    7) = (   0.0296767   0.0856693   0.0000000), wk =   0.1111111
        k(    8) = (   0.0296767  -0.0856693   0.0000000), wk =   0.1111111
        k(    9) = (   0.0296767  -0.0514016   0.0000000), wk =   0.1111111
        k(   10) = (   0.0296767  -0.0171339   0.0000000), wk =   0.1111111
        k(   11) = (   0.0593535   0.0342677   0.0000000), wk =   0.1111111
        k(   12) = (   0.0593535   0.0685355   0.0000000), wk =   0.1111111
        k(   13) = (   0.0593535   0.1028032   0.0000000), wk =   0.1111111
        k(   14) = (   0.0593535  -0.0685355   0.0000000), wk =   0.1111111
        k(   15) = (   0.0593535  -0.0342677   0.0000000), wk =   0.1111111
        k(   16) = (   0.0593535   0.0000000   0.0000000), wk =   0.1111111
        k(   17) = (  -0.0890302  -0.0514016   0.0000000), wk =   0.0555556
        k(   18) = (  -0.0890302  -0.0171339   0.0000000), wk =   0.1111111
        k(   19) = (  -0.0890302   0.0171339   0.0000000), wk =   0.1111111
        k(   20) = (  -0.0890302  -0.1542048   0.0000000), wk =   0.0555556

     Largest allocated arrays     est. size (Mb)     dimensions
     Largest temporary arrays     est. size (Mb)     dimensions

     Initial potential from superposition of free atoms
     Check: negative starting charge=   -0.004115

     starting charge  134.98303, renormalised to  135.00000

[...]

     *
     * You are using vdW-DF for exchange-correlation in this calculation.
     * Please cite the following three references that made this development
     * possible:
     *
     *   M. Dion, H. Rydberg, E. Schroder, D. C. Langreth, and
     *   B. I. Lundqvist, Phys. Rev. Lett. 92, 246401 (2004).
     *
     *   T. Thonhauser, V. R. Cooper, S. Li, A. Puzder, P. Hyldgaard, and
     *   D. C. Langreth, Phys. Rev. B 76, 125112 (2007).
     *
     *   G. Roman-Perez and J. M. Soler, Phys. Rev. Lett. 103, 096102 (2009).
     *
     *
     * If you are using vdW-DF2, please also cite:
     *
     *   K. Lee, E. D. Murray, L. Kong, B. I. Lundqvist, and
     *   D. C. Langreth, Phys. Rev. B 82, 081101(R) (2010).
     *
     *
     * If you are calculating the stress with vdW-DF, please also cite:
     *
     *   R. Sabatini, E. Kucukbenli, B. Kolb, T. Thonhauser, and
     *   S. de Gironcoli, J. Phys.: Condens. Matter 24, 424209 (2012).
     *

     Carrying out vdW-DF run using the following parameters:

     Nqs =      20    Nr_points =    1024   r_max =   100.000
     q_mesh =
               0.00001000     0.04494208     0.09755937     0.15916263
               0.23128650     0.31572767     0.41458969     0.53033537
               0.66584808     0.82450364     1.01025438     1.22772762
               1.48234092     1.78043706     2.12944203     2.53805004
               3.01644009     3.57652955     4.23227104     5.00000000

     Gradients computed in reciprocal space

[...]

     Starting wfc are  129 randomized atomic wfcs

     Self-consistent Calculation

[...]

     total energy              =   -1280.20559557 Ry
     Harris-Foulkes estimate   =   -1280.20559495 Ry
     estimated scf accuracy    <       0.00000158 Ry

     iteration # 16     ecut=    36.75 Ry     beta=0.10
     Davidson diagonalization with overlap
     ethr =  1.17E-09,  avg # of iterations =  2.0

[...]

     negative rho (up, down):  4.226E-03 0.000E+00

     Adding external electric field

     Computed dipole along edir(3) :
        Dipole               -0.0026 Ry au,         -0.0066 Debye
        Dipole field         -0.0000 Ry au

        Potential amp.        0.0007 Ry
        Total length         45.2984 bohr

     End of self-consistent calculation

[...]

          k = 0.0594 0.0000 0.0000 ( 17028 PWs)   bands (ev):

[...]

          k =-0.0890-0.1542 0.0000 ( 17080 PWs)   bands (ev):

   -59.8461 -59.8037 -59.7559 -59.6402 -59.6185 -59.6024 -59.5662 -59.5609
   -59.5296 -34.3126 -34.1905 -34.1271 -34.0476 -33.9901 -33.9867 -33.9586
   -33.9042 -33.8975 -33.8438 -33.7401 -33.6887 -33.6748 -33.6734 -33.6124
   -33.6039 -33.5972 -33.5565 -33.5459 -33.5034 -33.4693 -33.4421 -33.4187
   -33.3733 -33.3651 -33.2389 -33.2042  -5.1169  -4.6129  -3.8872  -3.2090
    -2.7448  -2.6419  -2.4028  -2.1883  -1.6459  -1.5046  -1.4070  -1.3602
    -1.2613  -1.2488  -1.2189  -0.8772  -0.6421  -0.5725  -0.5206  -0.5147
    -0.0668  -0.0234   0.1784   0.3653   0.4199   0.5161   0.5426   0.6406
     0.7863   0.8379   0.9976   1.0367   1.1579   1.7280   1.8295   2.0136
     2.1442   2.2158   2.3965   2.4232   2.5440   2.5930   2.7371   2.9151
     2.9314   3.0201   3.4126   3.4569   3.7203   3.8617   4.1767   4.5731
     4.9745   5.0887   5.7742   6.0292   6.0650   6.2853   6.7357   6.8720
     6.9419

     the Fermi energy is     1.3130 ev

!    total energy              =   -1280.20559575 Ry
     Harris-Foulkes estimate   =   -1280.20559592 Ry
     estimated scf accuracy    <       0.00000080 Ry

     The total energy is the sum of the following terms:

     one-electron contribution =  -10080.23190426 Ry
     hartree contribution      =    5033.15925911 Ry
     xc contribution           =    -193.41577844 Ry
     ewald contribution        =    3960.34597827 Ry
     electric field correction =       0.00000002 Ry
     smearing contrib. (-TS)   =      -0.06315044 Ry

     convergence has been achieved in  16 iterations

 BEEF-vdW xc energy contributions
           1 :   -165.632489797397
           2 :    150.695585213968
           3 :   -125.392871445016
           4 :    96.7757020358742
           5 :   -71.5757584674097
           6 :    53.9676269144686
           7 :   -44.7657142660889
           8 :    42.0408957000031
           9 :   -42.5723843130362
          10 :    43.3304355839024
          11 :   -42.4458892149943
          12 :    39.4782266070245
          13 :   -35.1224308228469
          14 :    30.5984378217568
          15 :   -26.9958670567975
          16 :    24.7907605330566
          17 :   -23.7025358373165
          18 :    22.9219681918642
          19 :   -21.5880550578329
          20 :    19.2529683576892
          21 :   -16.0905126765198
          22 :    12.7455498874097
          23 :   -9.94013287613507
          24 :    8.07583976925147
          25 :   -7.05785450945982
          26 :    6.40857758086554
          27 :   -5.56944908914585
          28 :    4.19452578690814
          29 :   -2.28372829846975
          30 :   0.116687886531224
          31 :   -19.2548604280566
          32 :   -14.7032354834878

     Forces acting on atoms (Ry/au):

     negative rho (up, down):  4.226E-03 0.000E+00
     atom    1 type  1   force =     0.00000009   -0.01004000    0.02437616
     atom    2 type  1   force =    -0.00869474    0.00501993    0.02437452
     atom    3 type  1   force =     0.00869479    0.00501991    0.02437479
     atom    4 type  2   force =    -0.00000001   -0.00000017   -0.03782304
     atom    5 type  1   force =    -0.00000002    0.01246319   -0.00830389
     atom    6 type  1   force =     0.01079325   -0.00623173   -0.00830331
     atom    7 type  1   force =    -0.01079317   -0.00623188   -0.00830321
     atom    8 type  2   force =     0.00000005    0.00000002   -0.01133512
     atom    9 type  1   force =    -0.00000004    0.00004402   -0.00025855
     atom   10 type  1   force =     0.00003709   -0.00002169   -0.00025766
     atom   11 type  1   force =    -0.00003734   -0.00002161   -0.00025775
     atom   12 type  2   force =     0.00000004    0.00000001    0.00171706

     Total force =     0.065726     Total SCF correction =     0.005606

     entering subroutine stress ...

     negative rho (up, down):  4.226E-03 0.000E+00
          total   stress  (Ry/bohr**3)                   (kbar)     P=  -24.45
  -0.00023078   0.00000000   0.00000000        -33.95      0.00      0.00
   0.00000000  -0.00023077  -0.00000000          0.00    -33.95     -0.00
   0.00000000  -0.00000000  -0.00003716          0.00     -0.00     -5.47

 !ASE

     Writing output data file calc.save

     General routines

     Parallel routines

   This run was terminated on:  17:42:57  30Dec2018

   JOB DONE.
Job  /afs/slac/g/suncat/bin/suncat-tsmpirun -x LD_LIBRARY_PATH -wdir /scratch/qe648588_2pEBf pw.x -in pw.inp

TID   HOST_NAME   COMMAND_LINE            STATUS            TERMINATION_TIME
00000 suncat0075 pw.x -in pw.inp   Done                     12/30/2018 17:42:57
00001 suncat0075 pw.x -in pw.inp   Done                     12/30/2018 17:42:57
00002 suncat0075 pw.x -in pw.inp   Done                     12/30/2018 17:42:57
00003 suncat0075 pw.x -in pw.inp   Done                     12/30/2018 17:42:57
00004 suncat0075 pw.x -in pw.inp   Done                     12/30/2018 17:42:57
00005 suncat0075 pw.x -in pw.inp   Done                     12/30/2018 17:42:57
00006 suncat0075 pw.x -in pw.inp   Done                     12/30/2018 17:42:57
00007 suncat0075 pw.x -in pw.inp   Done                     12/30/2018 17:42:57
00008 suncat0055 pw.x -in pw.inp   Done                     12/30/2018 17:42:57
00009 suncat0055 pw.x -in pw.inp   Done                     12/30/2018 17:42:57
00010 suncat0055 pw.x -in pw.inp   Done                     12/30/2018 17:42:57
00011 suncat0055 pw.x -in pw.inp   Done                     12/30/2018 17:42:57
00012 suncat0055 pw.x -in pw.inp   Done                     12/30/2018 17:42:57
00013 suncat0055 pw.x -in pw.inp   Done                     12/30/2018 17:42:57
00014 suncat0055 pw.x -in pw.inp   Done                     12/30/2018 17:42:57
00015 suncat0055 pw.x -in pw.inp   Done                     12/30/2018 17:42:57
00016 suncat0051 pw.x -in pw.inp   Done                     12/30/2018 17:42:57
00017 suncat0051 pw.x -in pw.inp   Done                     12/30/2018 17:42:57
00018 suncat0051 pw.x -in pw.inp   Done                     12/30/2018 17:42:57
00019 suncat0051 pw.x -in pw.inp   Done                     12/30/2018 17:42:57
00020 suncat0051 pw.x -in pw.inp   Done                     12/30/2018 17:42:57
00021 suncat0051 pw.x -in pw.inp   Done                     12/30/2018 17:42:57
00022 suncat0051 pw.x -in pw.inp   Done                     12/30/2018 17:42:57
00023 suncat0051 pw.x -in pw.inp   Done                     12/30/2018 17:42:57
00024 suncat0022 pw.x -in pw.inp   Done                     12/30/2018 17:42:57
00025 suncat0022 pw.x -in pw.inp   Done                     12/30/2018 17:42:57
00026 suncat0022 pw.x -in pw.inp   Done                     12/30/2018 17:42:57
00027 suncat0022 pw.x -in pw.inp   Done                     12/30/2018 17:42:57
00028 suncat0022 pw.x -in pw.inp   Done                     12/30/2018 17:42:57
00029 suncat0022 pw.x -in pw.inp   Done                     12/30/2018 17:42:57
00030 suncat0022 pw.x -in pw.inp   Done                     12/30/2018 17:42:57
00031 suncat0022 pw.x -in pw.inp   Done                     12/30/2018 17:42:57
00032 suncat0015 pw.x -in pw.inp   Done                     12/30/2018 17:42:57
00033 suncat0015 pw.x -in pw.inp   Done                     12/30/2018 17:42:57
00034 suncat0015 pw.x -in pw.inp   Done                     12/30/2018 17:42:57
00035 suncat0015 pw.x -in pw.inp   Done                     12/30/2018 17:42:57
00036 suncat0015 pw.x -in pw.inp   Done                     12/30/2018 17:42:57
00037 suncat0015 pw.x -in pw.inp   Done                     12/30/2018 17:42:57
00038 suncat0015 pw.x -in pw.inp   Done                     12/30/2018 17:42:57
00039 suncat0015 pw.x -in pw.inp   Done                     12/30/2018 17:42:57
00040 suncat0196 pw.x -in pw.inp   Done                     12/30/2018 17:42:57
00041 suncat0196 pw.x -in pw.inp   Done                     12/30/2018 17:42:57
00042 suncat0196 pw.x -in pw.inp   Done                     12/30/2018 17:42:57
00043 suncat0196 pw.x -in pw.inp   Done                     12/30/2018 17:42:57
00044 suncat0196 pw.x -in pw.inp   Done                     12/30/2018 17:42:57
00045 suncat0196 pw.x -in pw.inp   Done                     12/30/2018 17:42:57
00046 suncat0196 pw.x -in pw.inp   Done                     12/30/2018 17:42:57
00047 suncat0196 pw.x -in pw.inp   Done                     12/30/2018 17:42:57
00048 suncat0270 pw.x -in pw.inp   Done                     12/30/2018 17:42:57
00049 suncat0270 pw.x -in pw.inp   Done                     12/30/2018 17:42:57
00050 suncat0270 pw.x -in pw.inp   Done                     12/30/2018 17:42:57
00051 suncat0270 pw.x -in pw.inp   Done                     12/30/2018 17:42:57
00052 suncat0270 pw.x -in pw.inp   Done                     12/30/2018 17:42:57
00053 suncat0270 pw.x -in pw.inp   Done                     12/30/2018 17:42:57
00054 suncat0270 pw.x -in pw.inp   Done                     12/30/2018 17:42:57
00055 suncat0270 pw.x -in pw.inp   Done                     12/30/2018 17:42:57
00056 suncat0268 pw.x -in pw.inp   Done                     12/30/2018 17:42:57
00057 suncat0268 pw.x -in pw.inp   Done                     12/30/2018 17:42:57
00058 suncat0268 pw.x -in pw.inp   Done                     12/30/2018 17:42:57
00059 suncat0268 pw.x -in pw.inp   Done                     12/30/2018 17:42:57
00060 suncat0268 pw.x -in pw.inp   Done                     12/30/2018 17:42:57
00061 suncat0268 pw.x -in pw.inp   Done                     12/30/2018 17:42:57
00062 suncat0268 pw.x -in pw.inp   Done                     12/30/2018 17:42:57
00063 suncat0268 pw.x -in pw.inp   Done                     12/30/2018 17:42:57