     Program PWSCF v.5.1rc2 (svn rev. 11289) starts on  2Jan2019 at 15:50:31

     Current dimensions of program PWSCF are:
     Max number of different atomic species (ntypx) = 10
     Max number of k-points (npk) =  40000
     Max angular momentum in pseudopotentials (lmaxx) =  3
     Presently stress not available with electric field

     IMPORTANT: XC functional enforced from input :
     Exchange-correlation      = BEEF-VDW ( 1  4 27 13 2)
     Any further DFT definition will be discarded
     Please, verify this is what you really want

     Subspace diagonalization in iterative solution of the eigenvalue problem:
     a serial algorithm will be used

     bravais-lattice index     =            0
     lattice parameter (alat)  =       1.8897  a.u.
     unit-cell volume          =    4237.6984 (a.u.)^3
     number of atoms/cell      =           12
     number of atomic types    =            2
     number of electrons       =       225.00
     number of Kohn-Sham states=          142
     kinetic-energy cutoff     =      36.7493  Ry
     charge density cutoff     =     367.4932  Ry
     convergence threshold     =      1.0E-06
     mixing beta               =       0.1000
     number of iterations used =           10  plain     mixing
     Exchange-correlation      = BEEF-VDW ( 1  4 27 13 2)
     nstep                     =           50

     celldm(1)=   1.889726  celldm(2)=   0.000000  celldm(3)=   0.000000
     celldm(4)=   0.000000  celldm(5)=   0.000000  celldm(6)=   0.000000

     crystal axes: (cart. coord. in units of alat)
               a(1) = (   5.446163   0.000000   0.000000 )
               a(2) = (  -2.723081   4.716515   0.000000 )
               a(3) = (   0.000000   0.000000  24.446773 )

     reciprocal axes: (cart. coord. in units 2 pi/alat)
               b(1) = (  0.183616  0.106010  0.000000 )
               b(2) = (  0.000000  0.212021  0.000000 )
               b(3) = (  0.000000  0.000000  0.040905 )

     PseudoPot. # 1 for Zn read from file:
     /afs/slac.stanford.edu/u/if/mamunm/psp/gbrv1.5pbe/Zn.UPF
     MD5 check sum: df62231357ef9e81f77b2b3087fa5675
     Pseudo is Ultrasoft, Zval = 20.0
     Generated by new atomic code, or converted to UPF format
     Using radial grid of  943 points,  6 beta functions with:
                l(1) =   0
                l(2) =   0
                l(3) =   1
                l(4) =   1
                l(5) =   2
                l(6) =   2
     Q(r) pseudized with  8 coefficients,  rinner =    1.100   1.100   1.100
                                                       1.100   1.100

     PseudoPot. # 2 for Ir read from file:
     /afs/slac.stanford.edu/u/if/mamunm/psp/gbrv1.5pbe/Ir.UPF
     MD5 check sum: 8836f839c3459d2b385c504ce6d91f2c
     Pseudo is Ultrasoft + core correction, Zval = 15.0
     Generated by new atomic code, or converted to UPF format
     Using radial grid of  983 points,  7 beta functions with:
                l(1) =   0
                l(2) =   0
                l(3) =   1
                l(4) =   1
                l(5) =   1
                l(6) =   2
                l(7) =   2
     Q(r) pseudized with  8 coefficients,  rinner =    1.400   1.400   1.400
                                                       1.400   1.400

     vdW kernel table read from file vdW_kernel_table
     MD5 check sum: 095c7af220d748ca6e76c0b4c6cfb241

     atomic species   valence    mass     pseudopotential
        Zn1           20.00    65.38000     Zn( 1.00)
        Ir1           15.00   192.21700     Ir( 1.00)

     No symmetry found

   Cartesian axes

     site n.     atom                  positions (alat units)
         1           Zn1 tau(   1) = (   0.0000000   0.0000000  10.0000000  )
         2           Zn1 tau(   2) = (  -1.3615407   2.3582577  10.0000000  )
         3           Zn1 tau(   3) = (   1.3615407   2.3582577  10.0000000  )
         4           Ir1 tau(   4) = (   2.7230815   0.0000000  10.0000000  )
         5           Zn1 tau(   5) = (   2.7230815   1.5721718  12.2233867  )
         6           Zn1 tau(   6) = (   1.3615407   3.9304296  12.2233867  )
         7           Zn1 tau(   7) = (  -1.3615407   3.9304296  12.2233867  )
         8           Ir1 tau(   8) = (   0.0000000   1.5721718  12.2233867  )
         9           Zn1 tau(   9) = (  -0.0000000   3.1443437  14.4467734  )
        10           Zn1 tau(  10) = (   1.3615407   0.7860859  14.4467734  )
        11           Zn1 tau(  11) = (   4.0846222   0.7860859  14.4467734  )
        12           Ir1 tau(  12) = (   2.7230815   3.1443437  14.4467734  )

     number of k points=    20  Fermi-Dirac smearing, width (Ry)=  0.0110
                       cart. coord. in units 2pi/alat
        k(    1) = (   0.0000000   0.0000000   0.0000000), wk =   0.0555556
        k(    2) = (   0.0000000   0.0353368   0.0000000), wk =   0.1111111
        k(    3) = (   0.0000000   0.0706736   0.0000000), wk =   0.1111111
        k(    4) = (   0.0000000  -0.1060105   0.0000000), wk =   0.0555556
        k(    5) = (   0.0306026   0.0176684   0.0000000), wk =   0.1111111
        k(    6) = (   0.0306026   0.0530052   0.0000000), wk =   0.1111111
        k(    7) = (   0.0306026   0.0883421   0.0000000), wk =   0.1111111
        k(    8) = (   0.0306026  -0.0883421   0.0000000), wk =   0.1111111
        k(    9) = (   0.0306026  -0.0530052   0.0000000), wk =   0.1111111
        k(   10) = (   0.0306026  -0.0176684   0.0000000), wk =   0.1111111
        k(   11) = (   0.0612052   0.0353368   0.0000000), wk =   0.1111111
        k(   12) = (   0.0612052   0.0706736   0.0000000), wk =   0.1111111
        k(   13) = (   0.0612052   0.1060105   0.0000000), wk =   0.1111111
        k(   14) = (   0.0612052  -0.0706736   0.0000000), wk =   0.1111111
        k(   15) = (   0.0612052  -0.0353368   0.0000000), wk =   0.1111111
        k(   16) = (   0.0612052   0.0000000   0.0000000), wk =   0.1111111
        k(   17) = (  -0.0918078  -0.0530052   0.0000000), wk =   0.0555556
        k(   18) = (  -0.0918078  -0.0176684   0.0000000), wk =   0.1111111
        k(   19) = (  -0.0918078   0.0176684   0.0000000), wk =   0.1111111
        k(   20) = (  -0.0918078  -0.1590157   0.0000000), wk =   0.0555556

     Largest allocated arrays     est. size (Mb)     dimensions
     Largest temporary arrays     est. size (Mb)     dimensions

     Initial potential from superposition of free atoms
     Check: negative starting charge=   -1.090526

     starting charge  223.49864, renormalised to  225.00000

     negative rho (up, down):  1.098E+00 0.000E+00

     *
     * You are using vdW-DF for exchange-correlation in this calculation.
     * Please cite the following three references that made this development
     * possible:
     *
     *   M. Dion, H. Rydberg, E. Schroder, D. C. Langreth, and
     *   B. I. Lundqvist, Phys. Rev. Lett. 92, 246401 (2004).
     *
     *   T. Thonhauser, V. R. Cooper, S. Li, A. Puzder, P. Hyldgaard, and
     *   D. C. Langreth, Phys. Rev. B 76, 125112 (2007).
     *
     *   G. Roman-Perez and J. M. Soler, Phys. Rev. Lett. 103, 096102 (2009).
     *
     *
     * If you are using vdW-DF2, please also cite:
     *
     *   K. Lee, E. D. Murray, L. Kong, B. I. Lundqvist, and
     *   D. C. Langreth, Phys. Rev. B 82, 081101(R) (2010).
     *
     *
     * If you are calculating the stress with vdW-DF, please also cite:
     *
     *   R. Sabatini, E. Kucukbenli, B. Kolb, T. Thonhauser, and
     *   S. de Gironcoli, J. Phys.: Condens. Matter 24, 424209 (2012).
     *

     Carrying out vdW-DF run using the following parameters:

     Nqs =      20    Nr_points =    1024   r_max =   100.000
     q_mesh =
               0.00001000     0.04494208     0.09755937     0.15916263
               0.23128650     0.31572767     0.41458969     0.53033537
               0.66584808     0.82450364     1.01025438     1.22772762
               1.48234092     1.78043706     2.12944203     2.53805004
               3.01644009     3.57652955     4.23227104     5.00000000

     Gradients computed in reciprocal space

     Adding external electric field

     Computed dipole along edir(3) :
        Dipole               -0.0000 Ry au,         -0.0000 Debye
        Dipole field         -0.0000 Ry au

        Potential amp.        0.0000 Ry
        Total length         45.0428 bohr

     Starting wfc are  153 randomized atomic wfcs

     Self-consistent Calculation

     iteration #  1     ecut=    36.75 Ry     beta=0.10
     Davidson diagonalization with overlap
     ethr =  1.00E-02,  avg # of iterations =  7.5

[...]

     total energy              =   -4715.21925098 Ry
     Harris-Foulkes estimate   =   -4715.67897105 Ry
     estimated scf accuracy    <       2.78922771 Ry

[...]

     End of self-consistent calculation

          k = 0.0000 0.0000 0.0000 ( 15869 PWs)   bands (ev):

  -125.7480-125.7466-125.7466-125.4616-125.4616-125.4602-125.4602-125.4602
  -125.4602 -79.9963 -79.9849 -79.9849 -79.9105 -79.9105 -79.9035 -79.8884
   -79.8814 -79.8813 -79.6937 -79.6934 -79.6818 -79.6818 -79.6817 -79.6817
   -79.6394 -79.6393 -79.6335 -79.6335 -79.6333 -79.6333 -79.6005 -79.6005
   -79.6003 -79.6003 -79.5942 -79.5940 -47.7843 -47.7843 -47.7188 -47.5271
   -47.5271 -47.5269 -47.5269 -47.3925 -47.3921  -8.8228  -7.4579  -7.3800
    -7.3590  -7.3427  -7.3427  -7.2752  -7.1483  -7.1483  -7.1042  -7.0860
    -7.0860  -6.9532  -6.8843  -6.8843  -6.7509  -6.6991  -6.6991  -6.6419
    -6.5884  -6.5884  -6.5880  -6.5441  -6.5441  -6.5174  -6.5146  -6.5146
    -6.2769  -6.2769  -6.2563  -6.2563  -6.2182  -6.2182  -6.2031  -6.2031
    -6.1699  -6.1545  -6.1545  -6.1086  -6.0926  -6.0926  -6.0545  -6.0029
    -5.9818  -5.9818  -5.8065  -5.8048  -3.8487  -2.7962  -2.7962  -2.2010
    -2.2010  -2.1871  -1.9971  -1.9971  -1.6894  -1.1235  -1.1235  -0.6164
    -0.6033  -0.6033  -0.2112  -0.2112  -0.1212   0.2373   0.5137   0.5137
     0.9085   1.3189   1.3189   1.3623   1.4316   1.4316   3.1891   4.0228
     4.0228   4.4406   4.4406   4.5081   4.5730   5.1286   5.2227   5.2391
     5.2391   5.4382   6.3676   6.6517   7.9422   8.1181   8.1181   8.2365
     8.6116   8.6201   8.6201   8.6783  10.2935  10.2935

[...]

          k =-0.0918-0.0530 0.0000 ( 15984 PWs)   bands (ev):

[...]

     the Fermi energy is     0.8390 ev

!    total energy              =   -4715.03992181 Ry
     Harris-Foulkes estimate   =   -4715.03992474 Ry
     estimated scf accuracy    <       0.00000047 Ry

     The total energy is the sum of the following terms:

     one-electron contribution =  -32396.58767400 Ry
     hartree contribution      =   16192.66460944 Ry
     xc contribution           =    -546.97720415 Ry
     ewald contribution        =   12035.89209475 Ry
     electric field correction =       0.00000000 Ry
     smearing contrib. (-TS)   =      -0.03174785 Ry

     convergence has been achieved in  15 iterations

 BEEF-vdW xc energy contributions
           1 :   -485.694666573515
           2 :    443.666896989363
           3 :   -372.014506367348
           4 :    289.816315288062
           5 :   -214.771445939819
           6 :    156.989437448088
           7 :   -117.336351308773
[...]
     Using radial grid of  943 points,  6 beta functions with:
                l(1) =   0
                l(2) =   0
                l(3) =   1
                l(4) =   1
                l(5) =   2
                l(6) =   2
     Q(r) pseudized with  8 coefficients,  rinner =    1.100   1.100   1.100
                                                       1.100   1.100

     PseudoPot. # 2 for Ir read from file:
     /afs/slac.stanford.edu/u/if/mamunm/psp/gbrv1.5pbe/Ir.UPF
     MD5 check sum: 8836f839c3459d2b385c504ce6d91f2c
     Pseudo is Ultrasoft + core correction, Zval = 15.0
     Generated by new atomic code, or converted to UPF format
     Using radial grid of  983 points,  7 beta functions with:
                l(1) =   0
                l(2) =   0
                l(3) =   1
                l(4) =   1
                l(5) =   1
                l(6) =   2
                l(7) =   2
     Q(r) pseudized with  8 coefficients,  rinner =    1.400   1.400   1.400
                                                       1.400   1.400

     vdW kernel table read from file vdW_kernel_table
     MD5 check sum: 095c7af220d748ca6e76c0b4c6cfb241

     atomic species   valence    mass     pseudopotential
        Zn1           20.00    65.38000     Zn( 1.00)
        Ir1           15.00   192.21700     Ir( 1.00)

     No symmetry found

   Cartesian axes

     site n.     atom                  positions (alat units)
         1           Zn1 tau(   1) = (   0.0000000   0.0000000  10.0000000  )
         2           Zn1 tau(   2) = (  -1.3615407   2.3582577  10.0000000  )
         3           Zn1 tau(   3) = (   1.3615407   2.3582577  10.0000000  )
         4           Ir1 tau(   4) = (   2.7230815   0.0000000  10.0000000  )
         5           Zn1 tau(   5) = (   2.7230815   1.5721718  12.2233867  )
         6           Zn1 tau(   6) = (   1.3615407   3.9304296  12.2233867  )
         7           Zn1 tau(   7) = (  -1.3615407   3.9304296  12.2233867  )
         8           Ir1 tau(   8) = (   0.0000000   1.5721718  12.2233867  )
         9           Zn1 tau(   9) = (  -0.0000006   3.1382122  14.6065430  )
        10           Zn1 tau(  10) = (   1.3562297   0.7891536  14.6065470  )
        11           Zn1 tau(  11) = (   4.0899269   0.7891542  14.6065473  )
        12           Ir1 tau(  12) = (   2.7230794   3.1443446  14.2845576  )

     number of k points=    20  Fermi-Dirac smearing, width (Ry)=  0.0110
                       cart. coord. in units 2pi/alat
        k(    1) = (   0.0000000   0.0000000   0.0000000), wk =   0.0555556
        k(    2) = (   0.0000000   0.0353368   0.0000000), wk =   0.1111111
        k(    3) = (   0.0000000   0.0706736   0.0000000), wk =   0.1111111
        k(    4) = (   0.0000000  -0.1060105   0.0000000), wk =   0.0555556
        k(    5) = (   0.0306026   0.0176684   0.0000000), wk =   0.1111111
        k(    6) = (   0.0306026   0.0530052   0.0000000), wk =   0.1111111
        k(    7) = (   0.0306026   0.0883421   0.0000000), wk =   0.1111111
        k(    8) = (   0.0306026  -0.0883421   0.0000000), wk =   0.1111111
        k(    9) = (   0.0306026  -0.0530052   0.0000000), wk =   0.1111111
        k(   10) = (   0.0306026  -0.0176684   0.0000000), wk =   0.1111111
        k(   11) = (   0.0612052   0.0353368   0.0000000), wk =   0.1111111
        k(   12) = (   0.0612052   0.0706736   0.0000000), wk =   0.1111111
        k(   13) = (   0.0612052   0.1060105   0.0000000), wk =   0.1111111
        k(   14) = (   0.0612052  -0.0706736   0.0000000), wk =   0.1111111
        k(   15) = (   0.0612052  -0.0353368   0.0000000), wk =   0.1111111
        k(   16) = (   0.0612052   0.0000000   0.0000000), wk =   0.1111111
        k(   17) = (  -0.0918078  -0.0530052   0.0000000), wk =   0.0555556
        k(   18) = (  -0.0918078  -0.0176684   0.0000000), wk =   0.1111111
        k(   19) = (  -0.0918078   0.0176684   0.0000000), wk =   0.1111111
        k(   20) = (  -0.0918078  -0.1590157   0.0000000), wk =   0.0555556

     Largest allocated arrays     est. size (Mb)     dimensions
     Largest temporary arrays     est. size (Mb)     dimensions

     Initial potential from superposition of free atoms
     Check: negative starting charge=   -1.090489

     starting charge  223.49864, renormalised to  225.00000

[...]

     *
     * You are using vdW-DF for exchange-correlation in this calculation.
     * Please cite the following three references that made this development
     * possible:
     *
     *   M. Dion, H. Rydberg, E. Schroder, D. C. Langreth, and
     *   B. I. Lundqvist, Phys. Rev. Lett. 92, 246401 (2004).
     *
     *   T. Thonhauser, V. R. Cooper, S. Li, A. Puzder, P. Hyldgaard, and
     *   D. C. Langreth, Phys. Rev. B 76, 125112 (2007).
     *
     *   G. Roman-Perez and J. M. Soler, Phys. Rev. Lett. 103, 096102 (2009).
     *
     *
     * If you are using vdW-DF2, please also cite:
     *
     *   K. Lee, E. D. Murray, L. Kong, B. I. Lundqvist, and
     *   D. C. Langreth, Phys. Rev. B 82, 081101(R) (2010).
     *
     *
     * If you are calculating the stress with vdW-DF, please also cite:
     *
     *   R. Sabatini, E. Kucukbenli, B. Kolb, T. Thonhauser, and
     *   S. de Gironcoli, J. Phys.: Condens. Matter 24, 424209 (2012).
     *

     Carrying out vdW-DF run using the following parameters:

     Nqs =      20    Nr_points =    1024   r_max =   100.000
     q_mesh =
               0.00001000     0.04494208     0.09755937     0.15916263
               0.23128650     0.31572767     0.41458969     0.53033537
               0.66584808     0.82450364     1.01025438     1.22772762
               1.48234092     1.78043706     2.12944203     2.53805004
               3.01644009     3.57652955     4.23227104     5.00000000

     Gradients computed in reciprocal space

[...]

     Starting wfc are  153 randomized atomic wfcs

     Self-consistent Calculation

[...]

     total energy              =   -4715.05724489 Ry
     Harris-Foulkes estimate   =   -4715.05724231 Ry
     estimated scf accuracy    <       0.00000197 Ry

     iteration # 15     ecut=    36.75 Ry     beta=0.10
     Davidson diagonalization with overlap
     ethr =  8.77E-10,  avg # of iterations =  4.1

[...]

     negative rho (up, down):  9.952E-01 0.000E+00

     Adding external electric field

     Computed dipole along edir(3) :
        Dipole                0.0374 Ry au,          0.0951 Debye
        Dipole field          0.0001 Ry au

        Potential amp.       -0.0100 Ry
        Total length         45.0428 bohr

     End of self-consistent calculation

[...]

          k = 0.0612 0.0000 0.0000 ( 15938 PWs)   bands (ev):

[...]

          k =-0.0918-0.1590 0.0000 ( 15984 PWs)   bands (ev):

  -125.6169-125.6165-125.6160-125.3833-125.3828-125.3823-125.3698-125.3693
  -125.3689 -79.8611 -79.8572 -79.8535 -79.7791 -79.7770 -79.7748 -79.7568
   -79.7548 -79.7524 -79.6137 -79.6099 -79.6064 -79.5960 -79.5917 -79.5878
   -79.5577 -79.5555 -79.5532 -79.5520 -79.5502 -79.5484 -79.5225 -79.5205
   -79.5182 -79.5059 -79.5039 -79.5016 -47.6596 -47.6593 -47.6278 -47.6273
   -47.5807 -47.5136 -47.4516 -47.4513 -47.3383  -7.3636  -7.1511  -7.0250
    -6.9565  -6.9486  -6.9341  -6.8370  -6.8170  -6.8082  -6.7929  -6.7782
    -6.7640  -6.7096  -6.6730  -6.6376  -6.5867  -6.5665  -6.5279  -6.5106
    -6.4405  -6.4282  -6.4219  -6.3958  -6.3732  -6.3627  -6.3545  -6.3314
    -6.3190  -6.3041  -6.2836  -6.2808  -6.2587  -6.2550  -6.2246  -6.2183
    -6.2134  -6.1941  -6.1407  -6.0860  -6.0713  -6.0534  -6.0438  -6.0430
    -6.0061  -5.9461  -5.9078  -5.8881  -5.0401  -4.3497  -3.8447  -2.7458
    -2.6874  -2.4705  -2.1064  -2.0948  -1.7103  -1.5427  -1.2787  -1.1843
    -1.1832  -1.0715  -0.7133  -0.5404  -0.3609  -0.2147   0.5037   0.6024
     0.9174   1.3247   1.5294   2.7348   2.8344   3.0606   3.3344   5.3268
     5.4659   5.6438   5.7603   5.8917   6.1865   6.2372   6.2592   6.5485
     6.6625   6.9460   7.0267   7.0625   7.3689   7.6706   7.9298   7.9599
     8.0565   8.1558   8.2484   8.5327   8.8759   9.0640

     the Fermi energy is     0.9216 ev

!    total energy              =   -4715.05724420 Ry
     Harris-Foulkes estimate   =   -4715.05724523 Ry
     estimated scf accuracy    <       0.00000048 Ry

     The total energy is the sum of the following terms:

     one-electron contribution =  -31989.85254589 Ry
     hartree contribution      =   15989.98966123 Ry
     xc contribution           =    -546.92287967 Ry
     ewald contribution        =   11831.75931776 Ry
     electric field correction =       0.00000415 Ry
     smearing contrib. (-TS)   =      -0.03080178 Ry

     convergence has been achieved in  15 iterations

 BEEF-vdW xc energy contributions
           1 :   -485.637748835927
           2 :    443.575578082360
           3 :   -371.879881177349
           4 :    289.663141410692
           5 :   -214.638779655425
           6 :    156.898214281619
           7 :   -117.271750216573
           8 :    90.2446114080768
           9 :   -69.0110919835574
          10 :    49.5090614228691
          11 :   -31.4896728149896
          12 :    16.8304408484672
          13 :   -6.94854318544435
          14 :    1.31303972743626
          15 :    2.13675230443937
          16 :   -5.38284322397044
          17 :    8.98354388222225
          18 :   -12.0127999119231
          19 :    13.1774540760649
          20 :   -12.1183428306055
          21 :    9.85822007453737
          22 :   -8.10598031586915
          23 :    8.02147527612942
          24 :   -9.41697281181018
          25 :    10.9769483408062
          26 :   -11.2818318104004
          27 :    9.83792317505117
          28 :   -7.36929269705502
          29 :    5.22000908210907
          30 :   -4.37246520276972
          31 :   -38.6315607371077
          32 :   -27.1491245438429

     Forces acting on atoms (Ry/au):

     negative rho (up, down):  9.952E-01 0.000E+00
     atom    1 type  1   force =     0.00000042    0.00122311   -0.01952913
     atom    2 type  1   force =     0.00105977   -0.00061151   -0.01952911
     atom    3 type  1   force =    -0.00105941   -0.00061142   -0.01952884
     atom    4 type  2   force =    -0.00000008   -0.00000019    0.05669923
     atom    5 type  1   force =    -0.00000018   -0.01195776   -0.00383078
     atom    6 type  1   force =    -0.01035621    0.00597888   -0.00383122
     atom    7 type  1   force =     0.01035582    0.00597865   -0.00383123
     atom    8 type  2   force =    -0.00000018   -0.00000039    0.01371868
     atom    9 type  1   force =     0.00000025   -0.00001107   -0.00022876
     atom   10 type  1   force =    -0.00000975    0.00000593   -0.00022869
     atom   11 type  1   force =     0.00000949    0.00000564   -0.00022869
     atom   12 type  2   force =     0.00000006    0.00000010    0.00034852

     Total force =     0.070887     Total SCF correction =     0.004919

     entering subroutine stress ...

     negative rho (up, down):  9.952E-01 0.000E+00
          total   stress  (Ry/bohr**3)                   (kbar)     P=  -23.41
  -0.00021242  -0.00000000   0.00000000        -31.25     -0.00      0.00
  -0.00000000  -0.00021242  -0.00000000         -0.00    -31.25     -0.00
   0.00000000  -0.00000000  -0.00005250          0.00     -0.00     -7.72

 !ASE

     Writing output data file calc.save

     General routines

     Parallel routines

   This run was terminated on:  17:42:19   2Jan2019

   JOB DONE.
Job  /afs/slac/g/suncat/bin/suncat-tsmpirun -x LD_LIBRARY_PATH -wdir /scratch/qe649482_J02Cg pw.x -in pw.inp

TID   HOST_NAME   COMMAND_LINE            STATUS            TERMINATION_TIME
00000 suncat0046 pw.x -in pw.inp   Done                     01/02/2019 17:42:19
00001 suncat0046 pw.x -in pw.inp   Done                     01/02/2019 17:42:19
00002 suncat0046 pw.x -in pw.inp   Done                     01/02/2019 17:42:19
00003 suncat0046 pw.x -in pw.inp   Done                     01/02/2019 17:42:19
00004 suncat0046 pw.x -in pw.inp   Done                     01/02/2019 17:42:19
00005 suncat0046 pw.x -in pw.inp   Done                     01/02/2019 17:42:19
00006 suncat0046 pw.x -in pw.inp   Done                     01/02/2019 17:42:19
00007 suncat0046 pw.x -in pw.inp   Done                     01/02/2019 17:42:19
00008 suncat0044 pw.x -in pw.inp   Done                     01/02/2019 17:42:19
00009 suncat0044 pw.x -in pw.inp   Done                     01/02/2019 17:42:19
00010 suncat0044 pw.x -in pw.inp   Done                     01/02/2019 17:42:19
00011 suncat0044 pw.x -in pw.inp   Done                     01/02/2019 17:42:19
00012 suncat0044 pw.x -in pw.inp   Done                     01/02/2019 17:42:19
00013 suncat0044 pw.x -in pw.inp   Done                     01/02/2019 17:42:19
00014 suncat0044 pw.x -in pw.inp   Done                     01/02/2019 17:42:19
00015 suncat0044 pw.x -in pw.inp   Done                     01/02/2019 17:42:19
00016 suncat0028 pw.x -in pw.inp   Done                     01/02/2019 17:42:19
00017 suncat0028 pw.x -in pw.inp   Done                     01/02/2019 17:42:19
00018 suncat0028 pw.x -in pw.inp   Done                     01/02/2019 17:42:19
00019 suncat0028 pw.x -in pw.inp   Done                     01/02/2019 17:42:19
00020 suncat0028 pw.x -in pw.inp   Done                     01/02/2019 17:42:19
00021 suncat0028 pw.x -in pw.inp   Done                     01/02/2019 17:42:19
00022 suncat0028 pw.x -in pw.inp   Done                     01/02/2019 17:42:19
00023 suncat0028 pw.x -in pw.inp   Done                     01/02/2019 17:42:19
00024 suncat0027 pw.x -in pw.inp   Done                     01/02/2019 17:42:19
00025 suncat0027 pw.x -in pw.inp   Done                     01/02/2019 17:42:19
00026 suncat0027 pw.x -in pw.inp   Done                     01/02/2019 17:42:19
00027 suncat0027 pw.x -in pw.inp   Done                     01/02/2019 17:42:19
00028 suncat0027 pw.x -in pw.inp   Done                     01/02/2019 17:42:19
00029 suncat0027 pw.x -in pw.inp   Done                     01/02/2019 17:42:19
00030 suncat0027 pw.x -in pw.inp   Done                     01/02/2019 17:42:19
00031 suncat0027 pw.x -in pw.inp   Done                     01/02/2019 17:42:19
00032 suncat0026 pw.x -in pw.inp   Done                     01/02/2019 17:42:19
00033 suncat0026 pw.x -in pw.inp   Done                     01/02/2019 17:42:19
00034 suncat0026 pw.x -in pw.inp   Done                     01/02/2019 17:42:19
00035 suncat0026 pw.x -in pw.inp   Done                     01/02/2019 17:42:19
00036 suncat0026 pw.x -in pw.inp   Done                     01/02/2019 17:42:19
00037 suncat0026 pw.x -in pw.inp   Done                     01/02/2019 17:42:19
00038 suncat0026 pw.x -in pw.inp   Done                     01/02/2019 17:42:19
00039 suncat0026 pw.x -in pw.inp   Done                     01/02/2019 17:42:19
00040 suncat0021 pw.x -in pw.inp   Done                     01/02/2019 17:42:19
00041 suncat0021 pw.x -in pw.inp   Done                     01/02/2019 17:42:19
00042 suncat0021 pw.x -in pw.inp   Done                     01/02/2019 17:42:19
00043 suncat0021 pw.x -in pw.inp   Done                     01/02/2019 17:42:19
00044 suncat0021 pw.x -in pw.inp   Done                     01/02/2019 17:42:19
00045 suncat0021 pw.x -in pw.inp   Done                     01/02/2019 17:42:19
00046 suncat0021 pw.x -in pw.inp   Done                     01/02/2019 17:42:19
00047 suncat0021 pw.x -in pw.inp   Done                     01/02/2019 17:42:19
00048 suncat0215 pw.x -in pw.inp   Done                     01/02/2019 17:42:19
00049 suncat0215 pw.x -in pw.inp   Done                     01/02/2019 17:42:19
00050 suncat0215 pw.x -in pw.inp   Done                     01/02/2019 17:42:19
00051 suncat0215 pw.x -in pw.inp   Done                     01/02/2019 17:42:19
00052 suncat0215 pw.x -in pw.inp   Done                     01/02/2019 17:42:19
00053 suncat0215 pw.x -in pw.inp   Done                     01/02/2019 17:42:19
00054 suncat0215 pw.x -in pw.inp   Done                     01/02/2019 17:42:19
00055 suncat0215 pw.x -in pw.inp   Done                     01/02/2019 17:42:19
00056 suncat0210 pw.x -in pw.inp   Done                     01/02/2019 17:42:19
00057 suncat0210 pw.x -in pw.inp   Done                     01/02/2019 17:42:19
00058 suncat0210 pw.x -in pw.inp   Done                     01/02/2019 17:42:19
00059 suncat0210 pw.x -in pw.inp   Done                     01/02/2019 17:42:19
00060 suncat0210 pw.x -in pw.inp   Done                     01/02/2019 17:42:19
00061 suncat0210 pw.x -in pw.inp   Done                     01/02/2019 17:42:19
00062 suncat0210 pw.x -in pw.inp   Done                     01/02/2019 17:42:19
00063 suncat0210 pw.x -in pw.inp   Done                     01/02/2019 17:42:19