     Program PWSCF v.5.1rc2 (svn rev. 11289) starts on 30Dec2018 at 12:22:26

     Current dimensions of program PWSCF are:
     Max number of different atomic species (ntypx) = 10
     Max number of k-points (npk) =  40000
     Max angular momentum in pseudopotentials (lmaxx) =  3
     Presently stress not available with electric field

     IMPORTANT: XC functional enforced from input :
     Exchange-correlation      = BEEF-VDW ( 1  4 27 13 2)
     Any further DFT definition will be discarded
     Please, verify this is what you really want

     Subspace diagonalization in iterative solution of the eigenvalue problem:
     a serial algorithm will be used

     bravais-lattice index     =            0
     lattice parameter (alat)  =       1.8897  a.u.
     unit-cell volume          =    7476.9448 (a.u.)^3
     number of atoms/cell      =           12
     number of atomic types    =            2
     number of electrons       =       156.00
     number of Kohn-Sham states=          108
     kinetic-energy cutoff     =      36.7493  Ry
     charge density cutoff     =     367.4932  Ry
     convergence threshold     =      1.0E-06
     mixing beta               =       0.1000
     number of iterations used =           10  plain     mixing
     Exchange-correlation      = BEEF-VDW ( 1  4 27 13 2)
     nstep                     =           50

     celldm(1)=   1.889726  celldm(2)=   0.000000  celldm(3)=   0.000000
     celldm(4)=   0.000000  celldm(5)=   0.000000  celldm(6)=   0.000000

     crystal axes: (cart. coord. in units of alat)
               a(1) = (   7.048067   0.000000   0.000000 )
               a(2) = (  -3.524034   6.103805   0.000000 )
               a(3) = (   0.000000   0.000000  25.754723 )

     reciprocal axes: (cart. coord. in units 2 pi/alat)
               b(1) = (  0.141883  0.081916  0.000000 )
               b(2) = (  0.000000  0.163832  0.000000 )
               b(3) = (  0.000000  0.000000  0.038828 )

     PseudoPot. # 1 for La read from file:
     /afs/slac.stanford.edu/u/if/mamunm/psp/gbrv1.5pbe/La.UPF
     MD5 check sum: 5937b0c7494ba0601a847275249473aa
     Pseudo is Ultrasoft + core correction, Zval = 11.0
     Generated by new atomic code, or converted to UPF format
     Using radial grid of  995 points,  8 beta functions with:
                l(1) =   0
                l(2) =   0
                l(3) =   1
                l(4) =   1
                l(5) =   2
                l(6) =   2
                l(7) =   3
                l(8) =   3
     Q(r) pseudized with  8 coefficients,  rinner =    1.700   1.700   1.700
                                                       1.700   1.700   1.700
                                                       1.700

     PseudoPot. # 2 for Ga read from file:
     /afs/slac.stanford.edu/u/if/mamunm/psp/gbrv1.5pbe/Ga.UPF
     MD5 check sum: ccd671392a58a050fbb373893b4fcd66
     Pseudo is Ultrasoft + core correction, Zval = 19.0
     Generated by new atomic code, or converted to UPF format
     Using radial grid of  871 points,  6 beta functions with:
                l(1) =   0
                l(2) =   0
                l(3) =   1
                l(4) =   1
                l(5) =   2
                l(6) =   2
     Q(r) pseudized with  8 coefficients,  rinner =    1.250   1.250   1.250
                                                       1.250   1.250

     vdW kernel table read from file vdW_kernel_table
     MD5 check sum: 095c7af220d748ca6e76c0b4c6cfb241

     atomic species   valence    mass     pseudopotential
        La1           11.00   138.90547     La( 1.00)
        Ga1           19.00    69.72300     Ga( 1.00)

     No symmetry found

   Cartesian axes

     site n.     atom                  positions (alat units)
         1           La1 tau(   1) = (   0.0000000   0.0000000  10.0000000  )
         2           La1 tau(   2) = (  -1.7620168   3.0519026  10.0000000  )
         3           La1 tau(   3) = (   1.7620168   3.0519026  10.0000000  )
         4           Ga1 tau(   4) = (  -0.0000000   6.1038052  10.0000000  )
         5           La1 tau(   5) = (   3.5240336   2.0346017  12.8773614  )
         6           La1 tau(   6) = (   1.7620168   5.0865043  12.8773614  )
         7           La1 tau(   7) = (  -1.7620168   5.0865043  12.8773614  )
         8           Ga1 tau(   8) = (  -0.0000000   2.0346017  12.8773614  )
         9           La1 tau(   9) = (  -0.0000000   4.0692035  15.7547227  )
        10           La1 tau(  10) = (   1.7620168   1.0173009  15.7547227  )
        11           La1 tau(  11) = (   5.2860503   1.0173009  15.7547227  )
        12           Ga1 tau(  12) = (   3.5240336   4.0692035  15.7547227  )

     number of k points=    20  Fermi-Dirac smearing, width (Ry)=  0.0110
                       cart. coord. in units 2pi/alat
        k(    1) = (   0.0000000   0.0000000   0.0000000), wk =   0.0555556
        k(    2) = (   0.0000000   0.0273054   0.0000000), wk =   0.1111111
        k(    3) = (   0.0000000   0.0546107   0.0000000), wk =   0.1111111
        k(    4) = (   0.0000000  -0.0819161   0.0000000), wk =   0.0555556
        k(    5) = (   0.0236471   0.0136527   0.0000000), wk =   0.1111111
        k(    6) = (   0.0236471   0.0409581   0.0000000), wk =   0.1111111
        k(    7) = (   0.0236471   0.0682634   0.0000000), wk =   0.1111111
        k(    8) = (   0.0236471  -0.0682634   0.0000000), wk =   0.1111111
        k(    9) = (   0.0236471  -0.0409581   0.0000000), wk =   0.1111111
        k(   10) = (   0.0236471  -0.0136527   0.0000000), wk =   0.1111111
        k(   11) = (   0.0472943   0.0273054   0.0000000), wk =   0.1111111
        k(   12) = (   0.0472943   0.0546107   0.0000000), wk =   0.1111111
        k(   13) = (   0.0472943   0.0819161   0.0000000), wk =   0.1111111
        k(   14) = (   0.0472943  -0.0546107   0.0000000), wk =   0.1111111
        k(   15) = (   0.0472943  -0.0273054   0.0000000), wk =   0.1111111
        k(   16) = (   0.0472943   0.0000000   0.0000000), wk =   0.1111111
        k(   17) = (  -0.0709414  -0.0409581   0.0000000), wk =   0.0555556
        k(   18) = (  -0.0709414  -0.0136527   0.0000000), wk =   0.1111111
        k(   19) = (  -0.0709414   0.0136527   0.0000000), wk =   0.1111111
        k(   20) = (  -0.0709414  -0.1228742   0.0000000), wk =   0.0555556

     Largest allocated arrays     est. size (Mb)     dimensions
     Largest temporary arrays     est. size (Mb)     dimensions

     Initial potential from superposition of free atoms
     Check: negative starting charge=   -0.625619

     starting charge  152.71138, renormalised to  156.00000

     negative rho (up, down):  6.391E-01 0.000E+00

     *
     * You are using vdW-DF for exchange-correlation in this calculation.
     * Please cite the following three references that made this development
     * possible:
     *
     *   M. Dion, H. Rydberg, E. Schroder, D. C. Langreth, and
     *   B. I. Lundqvist, Phys. Rev. Lett. 92, 246401 (2004).
     *
     *   T. Thonhauser, V. R. Cooper, S. Li, A. Puzder, P. Hyldgaard, and
     *   D. C. Langreth, Phys. Rev. B 76, 125112 (2007).
     *
     *   G. Roman-Perez and J. M. Soler, Phys. Rev. Lett. 103, 096102 (2009).
     *
     *
     * If you are using vdW-DF2, please also cite:
     *
     *   K. Lee, E. D. Murray, L. Kong, B. I. Lundqvist, and
     *   D. C. Langreth, Phys. Rev. B 82, 081101(R) (2010).
     *
     *
     * If you are calculating the stress with vdW-DF, please also cite:
     *
     *   R. Sabatini, E. Kucukbenli, B. Kolb, T. Thonhauser, and
     *   S. de Gironcoli, J. Phys.: Condens. Matter 24, 424209 (2012).
     *

     Carrying out vdW-DF run using the following parameters:

     Nqs =      20    Nr_points =    1024   r_max =   100.000
     q_mesh =
               0.00001000     0.04494208     0.09755937     0.15916263
               0.23128650     0.31572767     0.41458969     0.53033537
               0.66584808     0.82450364     1.01025438     1.22772762
               1.48234092     1.78043706     2.12944203     2.53805004
               3.01644009     3.57652955     4.23227104     5.00000000

     Gradients computed in reciprocal space

     Adding external electric field

     Computed dipole along edir(3) :
        Dipole               -0.0000 Ry au,         -0.0000 Debye
        Dipole field         -0.0000 Ry au

        Potential amp.        0.0000 Ry
        Total length         47.4526 bohr

     Starting wfc are  216 randomized atomic wfcs

     Self-consistent Calculation

     iteration #  1     ecut=    36.75 Ry     beta=0.10
     Davidson diagonalization with overlap
     ethr =  1.00E-02,  avg # of iterations =  2.0

[...]

     total energy              =   -2186.00158667 Ry
     Harris-Foulkes estimate   =   -2187.54899726 Ry
     estimated scf accuracy    <       8.64317657 Ry

[...]

     iteration #  7     ecut=    36.75 Ry     beta=0.10
     Davidson diagonalization with overlap
     c_bands:  1 eigenvalues not converged
     c_bands:  4 eigenvalues not converged
     c_bands:  2 eigenvalues not converged
     c_bands:  1 eigenvalues not converged
     c_bands:  5 eigenvalues not converged
     c_bands:  2 eigenvalues not converged
     c_bands:  1 eigenvalues not converged
     ethr =  4.02E-05,  avg # of iterations = 17.3

[...]

     End of self-consistent calculation

          k = 0.0000 0.0000 0.0000 ( 28059 PWs)   bands (ev):

   -92.4069 -92.4066 -92.3824 -92.3824 -92.3821 -92.3821 -92.1831 -92.1770
   -92.1770 -31.5741 -31.5582 -31.3789 -31.3789 -31.3752 -31.3752 -31.1175
   -30.9436 -30.9435 -16.0389 -15.9275 -15.6718 -15.5356 -15.5356 -15.4148
   -15.3996 -15.3996 -15.3931 -15.3930 -15.2640 -15.0446 -15.0446 -14.7685
   -14.7685 -14.6845 -14.6233 -14.4545 -14.4174 -14.4174 -14.4169 -14.4169
   -14.3689 -14.3689 -14.1716 -14.0399 -14.0399 -12.7171 -12.7137 -12.7075
   -12.7073 -12.7013 -12.7011 -12.6949 -12.6943 -12.6939 -12.6933 -12.4971
   -12.4922 -12.4919 -12.4890 -12.4890  -4.1047  -3.7757  -3.6850  -0.5381
    -0.1382   0.2948   0.6447   0.6629   0.9514   0.9514   1.0405   1.0405
     1.2694   1.2694   1.2743   1.2743   1.6672   1.7536   1.8077   1.8077
     2.2591   2.2591   2.3307   2.3308   2.3438   2.4187   2.7495   2.7495
     2.7661   2.8228   2.8228   2.8894   3.0076   3.0648   3.1261   3.1483
     3.1719   3.1720   3.1944   3.2864   3.2864   3.3216   3.3216   3.3318
     3.3787   3.3788   3.4378   3.4379

[...]

          k =-0.0709-0.0410 0.0000 ( 28186 PWs)   bands (ev):

[...]

     the Fermi energy is     1.7894 ev

!    total energy              =   -2186.05111433 Ry
     Harris-Foulkes estimate   =   -2186.05603631 Ry
     estimated scf accuracy    <       0.00000063 Ry

     The total energy is the sum of the following terms:

     one-electron contribution =   -8687.63563602 Ry
     hartree contribution      =    4357.88576104 Ry
     xc contribution           =    -605.94140047 Ry
     ewald contribution        =    2749.73888984 Ry
     electric field correction =       0.00000001 Ry
     smearing contrib. (-TS)   =      -0.09872873 Ry

     convergence has been achieved in  18 iterations

 BEEF-vdW xc energy contributions
[...]
                l(6) =   2
                l(7) =   3
                l(8) =   3
     Q(r) pseudized with  8 coefficients,  rinner =    1.700   1.700   1.700
                                                       1.700   1.700   1.700
                                                       1.700

     PseudoPot. # 2 for Ga read from file:
     /afs/slac.stanford.edu/u/if/mamunm/psp/gbrv1.5pbe/Ga.UPF
     MD5 check sum: ccd671392a58a050fbb373893b4fcd66
     Pseudo is Ultrasoft + core correction, Zval = 19.0
     Generated by new atomic code, or converted to UPF format
     Using radial grid of  871 points,  6 beta functions with:
                l(1) =   0
                l(2) =   0
                l(3) =   1
                l(4) =   1
                l(5) =   2
                l(6) =   2
     Q(r) pseudized with  8 coefficients,  rinner =    1.250   1.250   1.250
                                                       1.250   1.250

     vdW kernel table read from file vdW_kernel_table
     MD5 check sum: 095c7af220d748ca6e76c0b4c6cfb241

     atomic species   valence    mass     pseudopotential
        La1           11.00   138.90547     La( 1.00)
        Ga1           19.00    69.72300     Ga( 1.00)

     No symmetry found

   Cartesian axes

     site n.     atom                  positions (alat units)
         1           La1 tau(   1) = (   0.0000000   0.0000000  10.0000000  )
         2           La1 tau(   2) = (  -1.7620168   3.0519026  10.0000000  )
         3           La1 tau(   3) = (   1.7620168   3.0519026  10.0000000  )
         4           Ga1 tau(   4) = (  -0.0000000   6.1038052  10.0000000  )
         5           La1 tau(   5) = (   3.5240336   2.0346017  12.8773614  )
         6           La1 tau(   6) = (   1.7620168   5.0865043  12.8773614  )
         7           La1 tau(   7) = (  -1.7620168   5.0865043  12.8773614  )
         8           Ga1 tau(   8) = (  -0.0000000   2.0346017  12.8773614  )
         9           La1 tau(   9) = (   0.0000290   3.9754524  15.7595826  )
        10           La1 tau(  10) = (   1.6809366   1.0639544  15.7597166  )
        11           La1 tau(  11) = (   5.3672033   1.0639507  15.7596963  )
        12           Ga1 tau(  12) = (   3.5242364   4.0692755  15.4784349  )

     number of k points=    20  Fermi-Dirac smearing, width (Ry)=  0.0110
                       cart. coord. in units 2pi/alat
        k(    1) = (   0.0000000   0.0000000   0.0000000), wk =   0.0555556
        k(    2) = (   0.0000000   0.0273054   0.0000000), wk =   0.1111111
        k(    3) = (   0.0000000   0.0546107   0.0000000), wk =   0.1111111
        k(    4) = (   0.0000000  -0.0819161   0.0000000), wk =   0.0555556
        k(    5) = (   0.0236471   0.0136527   0.0000000), wk =   0.1111111
        k(    6) = (   0.0236471   0.0409581   0.0000000), wk =   0.1111111
        k(    7) = (   0.0236471   0.0682634   0.0000000), wk =   0.1111111
        k(    8) = (   0.0236471  -0.0682634   0.0000000), wk =   0.1111111
        k(    9) = (   0.0236471  -0.0409581   0.0000000), wk =   0.1111111
        k(   10) = (   0.0236471  -0.0136527   0.0000000), wk =   0.1111111
        k(   11) = (   0.0472943   0.0273054   0.0000000), wk =   0.1111111
        k(   12) = (   0.0472943   0.0546107   0.0000000), wk =   0.1111111
        k(   13) = (   0.0472943   0.0819161   0.0000000), wk =   0.1111111
        k(   14) = (   0.0472943  -0.0546107   0.0000000), wk =   0.1111111
        k(   15) = (   0.0472943  -0.0273054   0.0000000), wk =   0.1111111
        k(   16) = (   0.0472943   0.0000000   0.0000000), wk =   0.1111111
        k(   17) = (  -0.0709414  -0.0409581   0.0000000), wk =   0.0555556
        k(   18) = (  -0.0709414  -0.0136527   0.0000000), wk =   0.1111111
        k(   19) = (  -0.0709414   0.0136527   0.0000000), wk =   0.1111111
        k(   20) = (  -0.0709414  -0.1228742   0.0000000), wk =   0.0555556

     Largest allocated arrays     est. size (Mb)     dimensions
     Largest temporary arrays     est. size (Mb)     dimensions

     Initial potential from superposition of free atoms
     Check: negative starting charge=   -0.626135

     starting charge  152.71138, renormalised to  156.00000

[...]

     *
     * You are using vdW-DF for exchange-correlation in this calculation.
     * Please cite the following three references that made this development
     * possible:
     *
     *   M. Dion, H. Rydberg, E. Schroder, D. C. Langreth, and
     *   B. I. Lundqvist, Phys. Rev. Lett. 92, 246401 (2004).
     *
     *   T. Thonhauser, V. R. Cooper, S. Li, A. Puzder, P. Hyldgaard, and
     *   D. C. Langreth, Phys. Rev. B 76, 125112 (2007).
     *
     *   G. Roman-Perez and J. M. Soler, Phys. Rev. Lett. 103, 096102 (2009).
     *
     *
     * If you are using vdW-DF2, please also cite:
     *
     *   K. Lee, E. D. Murray, L. Kong, B. I. Lundqvist, and
     *   D. C. Langreth, Phys. Rev. B 82, 081101(R) (2010).
     *
     *
     * If you are calculating the stress with vdW-DF, please also cite:
     *
     *   R. Sabatini, E. Kucukbenli, B. Kolb, T. Thonhauser, and
     *   S. de Gironcoli, J. Phys.: Condens. Matter 24, 424209 (2012).
     *

     Carrying out vdW-DF run using the following parameters:

     Nqs =      20    Nr_points =    1024   r_max =   100.000
     q_mesh =
               0.00001000     0.04494208     0.09755937     0.15916263
               0.23128650     0.31572767     0.41458969     0.53033537
               0.66584808     0.82450364     1.01025438     1.22772762
               1.48234092     1.78043706     2.12944203     2.53805004
               3.01644009     3.57652955     4.23227104     5.00000000

     Gradients computed in reciprocal space

[...]

     Starting wfc are  216 randomized atomic wfcs

     Self-consistent Calculation

[...]

     iteration # 10     ecut=    36.75 Ry     beta=0.10
     Davidson diagonalization with overlap
     c_bands:  1 eigenvalues not converged
     c_bands:  1 eigenvalues not converged
     c_bands:  1 eigenvalues not converged
     c_bands:  1 eigenvalues not converged
     ethr =  2.49E-06,  avg # of iterations = 13.3

[...]

     total energy              =   -2186.06665230 Ry
     Harris-Foulkes estimate   =   -2186.06665797 Ry
     estimated scf accuracy    <       0.00000230 Ry

     iteration # 18     ecut=    36.75 Ry     beta=0.10
     Davidson diagonalization with overlap
     ethr =  1.47E-09,  avg # of iterations =  4.5

[...]

     negative rho (up, down):  4.119E-01 0.000E+00

     Adding external electric field

     Computed dipole along edir(3) :
        Dipole                0.0311 Ry au,          0.0791 Debye
        Dipole field          0.0001 Ry au

        Potential amp.       -0.0050 Ry
        Total length         47.4526 bohr

     End of self-consistent calculation

[...]

          k = 0.0473 0.0000 0.0000 ( 28137 PWs)   bands (ev):

[...]

          k =-0.0709-0.1229 0.0000 ( 28186 PWs)   bands (ev):

   -92.3834 -92.3746 -92.3580 -92.3580 -92.3449 -92.3449 -92.1362 -92.1325
   -92.1325 -31.5030 -31.4816 -31.4206 -31.3944 -31.3555 -31.3423 -31.0193
   -30.9636 -30.9026 -15.7274 -15.6438 -15.5333 -15.3881 -15.3371 -15.2535
   -15.2513 -15.1759 -15.1429 -15.1361 -15.0852 -15.0697 -15.0558 -15.0447
   -14.9664 -14.8959 -14.8865 -14.6810 -14.5594 -14.5318 -14.4897 -14.4316
   -14.3971 -14.3556 -14.3416 -14.2968 -14.0442 -12.6888 -12.6838 -12.6829
   -12.6779 -12.6730 -12.6705 -12.6656 -12.6584 -12.6526 -12.6457 -12.4483
   -12.4444 -12.4442 -12.4397 -12.4345  -3.5456  -3.4602  -3.3420  -0.2388
     0.0312   0.2361   0.6003   0.7222   0.8084   0.8417   1.0472   1.1949
     1.2836   1.3102   1.3315   1.4384   1.5792   1.9831   2.1072   2.1099
     2.1548   2.3282   2.3304   2.3371   2.4900   2.5526   2.6542   2.7889
     2.8584   2.8868   2.8992   2.9808   3.0918   3.1078   3.1372   3.1597
     3.1746   3.2115   3.2277   3.2332   3.2670   3.2737   3.2916   3.3183
     3.3739   3.3954   3.4379   3.4465

     the Fermi energy is     1.8155 ev

!    total energy              =   -2186.06662823 Ry
     Harris-Foulkes estimate   =   -2186.06665357 Ry
     estimated scf accuracy    <       0.00000085 Ry

     The total energy is the sum of the following terms:

     one-electron contribution =   -8794.57205946 Ry
     hartree contribution      =    4411.52230894 Ry
     xc contribution           =    -605.99154662 Ry
     ewald contribution        =    2803.07184727 Ry
     electric field correction =       0.00000163 Ry
     smearing contrib. (-TS)   =      -0.09717999 Ry

     convergence has been achieved in  18 iterations

 BEEF-vdW xc energy contributions
           1 :   -538.336207749901
           2 :    493.960758706531
           3 :   -416.401626273348
           4 :    323.559098612290
           5 :   -233.579301802969
           6 :    159.448022913375
           7 :   -106.626277800353
           8 :    73.8790868414172
           9 :   -56.0616331446839
          10 :    47.1526346167552
          11 :   -42.2543660700319
          12 :    38.1617883635001
          13 :   -32.9792759647245
          14 :    25.6257876950435
          15 :   -15.7818672026199
          16 :    4.17389351839108
          17 :    7.33891777207521
          18 :   -16.2957556037663
          19 :    20.6813050554158
          20 :   -19.9305628164332
          21 :    15.2775303441067
          22 :   -9.21107244055531
          23 :    4.32705004527725
          24 :   -2.21468016379015
          25 :    2.95893164342147
          26 :   -5.43921193216238
          27 :    8.12650046377826
          28 :   -9.85752243768707
          29 :    10.1967753867706
          30 :   -9.34115301464203
          31 :   -44.1371504659403
          32 :   -31.3484928427249

     Forces acting on atoms (Ry/au):

     negative rho (up, down):  4.119E-01 0.000E+00
     atom    1 type  1   force =     0.00000830    0.01894229   -0.00446413
     atom    2 type  1   force =     0.01641091   -0.00947855   -0.00445914
     atom    3 type  1   force =    -0.01638774   -0.00947696   -0.00446200
     atom    4 type  2   force =    -0.00000498    0.00000911    0.01774640
     atom    5 type  1   force =     0.00001161   -0.00199772    0.00020780
     atom    6 type  1   force =    -0.00171362    0.00099455    0.00019394
     atom    7 type  1   force =     0.00173882    0.00099407    0.00019142
     atom    8 type  2   force =    -0.00005900   -0.00000529   -0.00082450
     atom    9 type  1   force =     0.00000864   -0.00119596   -0.00097023
     atom   10 type  1   force =    -0.00103012    0.00059388   -0.00094883
     atom   11 type  1   force =     0.00105227    0.00059454   -0.00094895
     atom   12 type  2   force =    -0.00003507    0.00002603   -0.00126178

     Total force =     0.038371     Total SCF correction =     0.004773
     SCF correction compared to forces is large: reduce conv_thr to get better values

     entering subroutine stress ...

     negative rho (up, down):  4.119E-01 0.000E+00
          total   stress  (Ry/bohr**3)                   (kbar)     P=   -3.11
  -0.00002938   0.00000000  -0.00000000         -4.32      0.00     -0.00
   0.00000000  -0.00002926   0.00000000          0.00     -4.30      0.00
  -0.00000000   0.00000000  -0.00000488         -0.00      0.00     -0.72

 !ASE

     Writing output data file calc.save

     General routines

     Parallel routines

   This run was terminated on:  16: 6: 7  30Dec2018

   JOB DONE.
Job  /afs/slac/g/suncat/bin/suncat-tsmpirun -x LD_LIBRARY_PATH -wdir /scratch/qe648553_5z2Vn pw.x -in pw.inp

TID   HOST_NAME   COMMAND_LINE            STATUS            TERMINATION_TIME
00000 suncat0092 pw.x -in pw.inp   Done                     12/30/2018 16:06:07
00001 suncat0092 pw.x -in pw.inp   Done                     12/30/2018 16:06:07
00002 suncat0092 pw.x -in pw.inp   Done                     12/30/2018 16:06:07
00003 suncat0092 pw.x -in pw.inp   Done                     12/30/2018 16:06:07
00004 suncat0092 pw.x -in pw.inp   Done                     12/30/2018 16:06:07
00005 suncat0092 pw.x -in pw.inp   Done                     12/30/2018 16:06:07
00006 suncat0092 pw.x -in pw.inp   Done                     12/30/2018 16:06:07
00007 suncat0092 pw.x -in pw.inp   Done                     12/30/2018 16:06:07
00008 suncat0091 pw.x -in pw.inp   Done                     12/30/2018 16:06:07
00009 suncat0091 pw.x -in pw.inp   Done                     12/30/2018 16:06:07
00010 suncat0091 pw.x -in pw.inp   Done                     12/30/2018 16:06:07
00011 suncat0091 pw.x -in pw.inp   Done                     12/30/2018 16:06:07
00012 suncat0091 pw.x -in pw.inp   Done                     12/30/2018 16:06:07
00013 suncat0091 pw.x -in pw.inp   Done                     12/30/2018 16:06:07
00014 suncat0091 pw.x -in pw.inp   Done                     12/30/2018 16:06:07
00015 suncat0091 pw.x -in pw.inp   Done                     12/30/2018 16:06:07
00016 suncat0089 pw.x -in pw.inp   Done                     12/30/2018 16:06:07
00017 suncat0089 pw.x -in pw.inp   Done                     12/30/2018 16:06:07
00018 suncat0089 pw.x -in pw.inp   Done                     12/30/2018 16:06:07
00019 suncat0089 pw.x -in pw.inp   Done                     12/30/2018 16:06:07
00020 suncat0089 pw.x -in pw.inp   Done                     12/30/2018 16:06:07
00021 suncat0089 pw.x -in pw.inp   Done                     12/30/2018 16:06:07
00022 suncat0089 pw.x -in pw.inp   Done                     12/30/2018 16:06:07
00023 suncat0089 pw.x -in pw.inp   Done                     12/30/2018 16:06:07
00024 suncat0085 pw.x -in pw.inp   Done                     12/30/2018 16:06:07
00025 suncat0085 pw.x -in pw.inp   Done                     12/30/2018 16:06:07
00026 suncat0085 pw.x -in pw.inp   Done                     12/30/2018 16:06:07
00027 suncat0085 pw.x -in pw.inp   Done                     12/30/2018 16:06:07
00028 suncat0085 pw.x -in pw.inp   Done                     12/30/2018 16:06:07
00029 suncat0085 pw.x -in pw.inp   Done                     12/30/2018 16:06:07
00030 suncat0085 pw.x -in pw.inp   Done                     12/30/2018 16:06:07
00031 suncat0085 pw.x -in pw.inp   Done                     12/30/2018 16:06:07
00032 suncat0139 pw.x -in pw.inp   Done                     12/30/2018 16:06:07
00033 suncat0139 pw.x -in pw.inp   Done                     12/30/2018 16:06:07
00034 suncat0139 pw.x -in pw.inp   Done                     12/30/2018 16:06:07
00035 suncat0139 pw.x -in pw.inp   Done                     12/30/2018 16:06:07
00036 suncat0139 pw.x -in pw.inp   Done                     12/30/2018 16:06:07
00037 suncat0139 pw.x -in pw.inp   Done                     12/30/2018 16:06:07
00038 suncat0139 pw.x -in pw.inp   Done                     12/30/2018 16:06:07
00039 suncat0139 pw.x -in pw.inp   Done                     12/30/2018 16:06:07
00040 suncat0124 pw.x -in pw.inp   Done                     12/30/2018 16:06:07
00041 suncat0124 pw.x -in pw.inp   Done                     12/30/2018 16:06:07
00042 suncat0124 pw.x -in pw.inp   Done                     12/30/2018 16:06:07
00043 suncat0124 pw.x -in pw.inp   Done                     12/30/2018 16:06:07
00044 suncat0124 pw.x -in pw.inp   Done                     12/30/2018 16:06:07
00045 suncat0124 pw.x -in pw.inp   Done                     12/30/2018 16:06:07
00046 suncat0124 pw.x -in pw.inp   Done                     12/30/2018 16:06:07
00047 suncat0124 pw.x -in pw.inp   Done                     12/30/2018 16:06:07
00048 suncat0123 pw.x -in pw.inp   Done                     12/30/2018 16:06:07
00049 suncat0123 pw.x -in pw.inp   Done                     12/30/2018 16:06:07
00050 suncat0123 pw.x -in pw.inp   Done                     12/30/2018 16:06:07
00051 suncat0123 pw.x -in pw.inp   Done                     12/30/2018 16:06:07
00052 suncat0123 pw.x -in pw.inp   Done                     12/30/2018 16:06:07
00053 suncat0123 pw.x -in pw.inp   Done                     12/30/2018 16:06:07
00054 suncat0123 pw.x -in pw.inp   Done                     12/30/2018 16:06:07
00055 suncat0123 pw.x -in pw.inp   Done                     12/30/2018 16:06:07
00056 suncat0122 pw.x -in pw.inp   Done                     12/30/2018 16:06:07
00057 suncat0122 pw.x -in pw.inp   Done                     12/30/2018 16:06:07
00058 suncat0122 pw.x -in pw.inp   Done                     12/30/2018 16:06:07
00059 suncat0122 pw.x -in pw.inp   Done                     12/30/2018 16:06:07
00060 suncat0122 pw.x -in pw.inp   Done                     12/30/2018 16:06:07
00061 suncat0122 pw.x -in pw.inp   Done                     12/30/2018 16:06:07
00062 suncat0122 pw.x -in pw.inp   Done                     12/30/2018 16:06:07
00063 suncat0122 pw.x -in pw.inp   Done                     12/30/2018 16:06:07