     Program PWSCF v.5.1rc2 (svn rev. 11289) starts on 31Dec2018 at 14:29:51

     Current dimensions of program PWSCF are:
     Max number of different atomic species (ntypx) = 10
     Max number of k-points (npk) =  40000
     Max angular momentum in pseudopotentials (lmaxx) =  3
     Presently stress not available with electric field

     IMPORTANT: XC functional enforced from input :
     Exchange-correlation      = BEEF-VDW ( 1  4 27 13 2)
     Any further DFT definition will be discarded
     Please, verify this is what you really want

     Subspace diagonalization in iterative solution of the eigenvalue problem:
     a serial algorithm will be used

     bravais-lattice index     =            0
     lattice parameter (alat)  =       1.8897  a.u.
     unit-cell volume          =    4355.4687 (a.u.)^3
     number of atoms/cell      =           12
     number of atomic types    =            2
     number of electrons       =       186.00
     number of Kohn-Sham states=          123
     kinetic-energy cutoff     =      36.7493  Ry
     charge density cutoff     =     367.4932  Ry
     convergence threshold     =      1.0E-06
     mixing beta               =       0.1000
     number of iterations used =           10  plain     mixing
     Exchange-correlation      = BEEF-VDW ( 1  4 27 13 2)
     nstep                     =           50

     celldm(1)=   1.889726  celldm(2)=   0.000000  celldm(3)=   0.000000
     celldm(4)=   0.000000  celldm(5)=   0.000000  celldm(6)=   0.000000

     crystal axes: (cart. coord. in units of alat)
               a(1) = (   5.514987   0.000000   0.000000 )
               a(2) = (  -2.757493   4.776119   0.000000 )
               a(3) = (   0.000000   0.000000  24.502968 )

     reciprocal axes: (cart. coord. in units 2 pi/alat)
               b(1) = (  0.181324  0.104688  0.000000 )
               b(2) = (  0.000000  0.209375  0.000000 )
               b(3) = (  0.000000  0.000000  0.040811 )

     PseudoPot. # 1 for Pt read from file:
     /afs/slac.stanford.edu/u/if/mamunm/psp/gbrv1.5pbe/Pt.UPF
     MD5 check sum: f09d6de1a584b5a045c4fc126da2d0c4
     Pseudo is Ultrasoft + core correction, Zval = 16.0
     Generated by new atomic code, or converted to UPF format
     Using radial grid of  985 points,  6 beta functions with:
                l(1) =   0
                l(2) =   0
                l(3) =   1
                l(4) =   1
                l(5) =   2
                l(6) =   2
     Q(r) pseudized with  8 coefficients,  rinner =    1.300   1.300   1.300
                                                       1.300   1.300

     PseudoPot. # 2 for Cr read from file:
     /afs/slac.stanford.edu/u/if/mamunm/psp/gbrv1.5pbe/Cr.UPF
     MD5 check sum: 0d52af634a40206e4dee301ad30da4bf
     Pseudo is Ultrasoft + core correction, Zval = 14.0
     Generated by new atomic code, or converted to UPF format
     Using radial grid of  857 points,  6 beta functions with:
                l(1) =   0
                l(2) =   0
                l(3) =   1
                l(4) =   1
                l(5) =   2
                l(6) =   2
     Q(r) pseudized with  8 coefficients,  rinner =    0.950   0.950   0.950
                                                       0.950   0.950

     vdW kernel table read from file vdW_kernel_table
     MD5 check sum: 095c7af220d748ca6e76c0b4c6cfb241

     atomic species   valence    mass     pseudopotential
        Pt1           16.00   195.08400     Pt( 1.00)
        Cr1           14.00    51.99610     Cr( 1.00)

     No symmetry found

   Cartesian axes

     site n.     atom                  positions (alat units)
         1           Pt1 tau(   1) = (   0.0000000   0.0000000  10.0000000  )
         2           Pt1 tau(   2) = (  -1.3787467   2.3880594  10.0000000  )
         3           Pt1 tau(   3) = (   1.3787467   2.3880594  10.0000000  )
         4           Cr1 tau(   4) = (   2.7574935   0.0000000  10.0000000  )
         5           Pt1 tau(   5) = (   2.7574935   1.5920396  12.2514840  )
         6           Pt1 tau(   6) = (   1.3787467   3.9800990  12.2514840  )
         7           Pt1 tau(   7) = (  -1.3787467   3.9800990  12.2514840  )
         8           Cr1 tau(   8) = (   0.0000000   1.5920396  12.2514840  )
         9           Pt1 tau(   9) = (  -0.0000000   3.1840792  14.5029680  )
        10           Pt1 tau(  10) = (   1.3787467   0.7960198  14.5029680  )
        11           Pt1 tau(  11) = (   4.1362402   0.7960198  14.5029680  )
        12           Cr1 tau(  12) = (   2.7574935   3.1840792  14.5029680  )

     number of k points=    20  Fermi-Dirac smearing, width (Ry)=  0.0110
                       cart. coord. in units 2pi/alat
        k(    1) = (   0.0000000   0.0000000   0.0000000), wk =   0.0555556
        k(    2) = (   0.0000000   0.0348958   0.0000000), wk =   0.1111111
        k(    3) = (   0.0000000   0.0697917   0.0000000), wk =   0.1111111
        k(    4) = (   0.0000000  -0.1046875   0.0000000), wk =   0.0555556
        k(    5) = (   0.0302207   0.0174479   0.0000000), wk =   0.1111111
        k(    6) = (   0.0302207   0.0523438   0.0000000), wk =   0.1111111
        k(    7) = (   0.0302207   0.0872396   0.0000000), wk =   0.1111111
        k(    8) = (   0.0302207  -0.0872396   0.0000000), wk =   0.1111111
        k(    9) = (   0.0302207  -0.0523438   0.0000000), wk =   0.1111111
        k(   10) = (   0.0302207  -0.0174479   0.0000000), wk =   0.1111111
        k(   11) = (   0.0604414   0.0348958   0.0000000), wk =   0.1111111
        k(   12) = (   0.0604414   0.0697917   0.0000000), wk =   0.1111111
        k(   13) = (   0.0604414   0.1046875   0.0000000), wk =   0.1111111
        k(   14) = (   0.0604414  -0.0697917   0.0000000), wk =   0.1111111
        k(   15) = (   0.0604414  -0.0348958   0.0000000), wk =   0.1111111
        k(   16) = (   0.0604414  -0.0000000   0.0000000), wk =   0.1111111
        k(   17) = (  -0.0906620  -0.0523438   0.0000000), wk =   0.0555556
        k(   18) = (  -0.0906620  -0.0174479   0.0000000), wk =   0.1111111
        k(   19) = (  -0.0906620   0.0174479   0.0000000), wk =   0.1111111
        k(   20) = (  -0.0906620  -0.1570313   0.0000000), wk =   0.0555556

     Largest allocated arrays     est. size (Mb)     dimensions
     Largest temporary arrays     est. size (Mb)     dimensions

     Check: negative/imaginary core charge=   -0.000002    0.000000

     Initial potential from superposition of free atoms
     Check: negative starting charge=   -1.654041

     starting charge  178.49985, renormalised to  186.00000

     negative rho (up, down):  1.724E+00 0.000E+00

     *
     * You are using vdW-DF for exchange-correlation in this calculation.
     * Please cite the following three references that made this development
     * possible:
     *
     *   M. Dion, H. Rydberg, E. Schroder, D. C. Langreth, and
     *   B. I. Lundqvist, Phys. Rev. Lett. 92, 246401 (2004).
     *
     *   T. Thonhauser, V. R. Cooper, S. Li, A. Puzder, P. Hyldgaard, and
     *   D. C. Langreth, Phys. Rev. B 76, 125112 (2007).
     *
     *   G. Roman-Perez and J. M. Soler, Phys. Rev. Lett. 103, 096102 (2009).
     *
     *
     * If you are using vdW-DF2, please also cite:
     *
     *   K. Lee, E. D. Murray, L. Kong, B. I. Lundqvist, and
     *   D. C. Langreth, Phys. Rev. B 82, 081101(R) (2010).
     *
     *
     * If you are calculating the stress with vdW-DF, please also cite:
     *
     *   R. Sabatini, E. Kucukbenli, B. Kolb, T. Thonhauser, and
     *   S. de Gironcoli, J. Phys.: Condens. Matter 24, 424209 (2012).
     *

     Carrying out vdW-DF run using the following parameters:

     Nqs =      20    Nr_points =    1024   r_max =   100.000
     q_mesh =
               0.00001000     0.04494208     0.09755937     0.15916263
               0.23128650     0.31572767     0.41458969     0.53033537
               0.66584808     0.82450364     1.01025438     1.22772762
               1.48234092     1.78043706     2.12944203     2.53805004
               3.01644009     3.57652955     4.23227104     5.00000000

     Gradients computed in reciprocal space

     Adding external electric field

     Computed dipole along edir(3) :
        Dipole                0.0000 Ry au,          0.0000 Debye
        Dipole field          0.0000 Ry au

        Potential amp.       -0.0000 Ry
        Total length         45.1463 bohr

     Starting wfc are  138 randomized atomic wfcs

     Self-consistent Calculation

     iteration #  1     ecut=    36.75 Ry     beta=0.10
     Davidson diagonalization with overlap
     ethr =  1.00E-02,  avg # of iterations =  7.4

[...]

     total energy              =   -2435.69773750 Ry
     Harris-Foulkes estimate   =   -2446.99409339 Ry
     estimated scf accuracy    <      64.31350691 Ry

[...]

     End of self-consistent calculation

          k = 0.0000 0.0000 0.0000 ( 16283 PWs)   bands (ev):

   -70.5977 -70.3859 -70.3858 -51.6537 -51.4875 -51.4875 -51.4470 -51.4072
   -51.4072 -51.2987 -51.2943 -51.2943 -51.2073 -51.1981 -51.1277 -51.1277
   -51.1044 -51.1044 -50.9691 -50.9642 -50.8781 -50.8781 -50.8775 -50.8775
   -50.8431 -50.8166 -50.8076 -50.8076 -50.7930 -50.7930 -41.9320 -41.8505
   -41.8505 -41.6784 -41.6758 -41.6687 -41.6687 -41.6680 -41.6680  -6.9643
    -5.2340  -4.8331  -4.6037  -4.3235  -4.3168  -4.3168  -4.0085  -4.0085
    -3.8373  -3.6929  -3.6929  -3.6601  -3.4173  -3.4173  -2.6450  -2.0848
    -2.0848  -2.0835  -2.0835  -1.6904  -1.4966  -1.4877  -1.4036  -1.1414
    -1.1414  -1.0118  -1.0118  -0.8291  -0.8291  -0.6547  -0.6547  -0.5249
    -0.5249   0.0859   0.4770   0.4770   0.5003   0.5003   0.5975   0.5975
     0.7398   0.8173   1.3690   1.4242   1.4761   1.4761   1.7938   1.8251
     1.8251   2.1383   2.1383   2.1676   2.2297   2.3007   2.3007   2.3379
     2.3564   2.4963   2.4963   2.7361   2.7361   2.8134   2.8134   2.9141
     2.9141   3.0060   4.6094   4.6094   4.6712   4.6816   4.6816   4.7568
     6.2311   6.5139   6.8534   7.5336   7.5336   7.7444   7.7444   7.7923
     8.3913   8.7765   8.9357

[...]

          k =-0.0907-0.0523 0.0000 ( 16400 PWs)   bands (ev):

[...]

     the Fermi energy is     1.7424 ev

!    total energy              =   -2439.95960820 Ry
     Harris-Foulkes estimate   =   -2439.95960929 Ry
     estimated scf accuracy    <       0.00000040 Ry

     The total energy is the sum of the following terms:

     one-electron contribution =  -19651.13771646 Ry
     hartree contribution      =    9849.01142346 Ry
     xc contribution           =    -597.10191764 Ry
     ewald contribution        =    7959.39331092 Ry
     electric field correction =       0.00000002 Ry
     smearing contrib. (-TS)   =      -0.12470849 Ry

     convergence has been achieved in  23 iterations

 BEEF-vdW xc energy contributions
           1 :   -530.037113619139
           2 :    491.546451629825
           3 :   -423.259405549949
           4 :    339.267570647843
           5 :   -254.374488656729
           6 :    179.989109448221
           7 :   -121.967289162226
           8 :    80.7002111440736
           9 :   -52.8846352570430
          10 :    33.8988282938330
[...]
     Pseudo is Ultrasoft + core correction, Zval = 16.0
     Generated by new atomic code, or converted to UPF format
     Using radial grid of  985 points,  6 beta functions with:
                l(1) =   0
                l(2) =   0
                l(3) =   1
                l(4) =   1
                l(5) =   2
                l(6) =   2
     Q(r) pseudized with  8 coefficients,  rinner =    1.300   1.300   1.300
                                                       1.300   1.300

     PseudoPot. # 2 for Cr read from file:
     /afs/slac.stanford.edu/u/if/mamunm/psp/gbrv1.5pbe/Cr.UPF
     MD5 check sum: 0d52af634a40206e4dee301ad30da4bf
     Pseudo is Ultrasoft + core correction, Zval = 14.0
     Generated by new atomic code, or converted to UPF format
     Using radial grid of  857 points,  6 beta functions with:
                l(1) =   0
                l(2) =   0
                l(3) =   1
                l(4) =   1
                l(5) =   2
                l(6) =   2
     Q(r) pseudized with  8 coefficients,  rinner =    0.950   0.950   0.950
                                                       0.950   0.950

     vdW kernel table read from file vdW_kernel_table
     MD5 check sum: 095c7af220d748ca6e76c0b4c6cfb241

     atomic species   valence    mass     pseudopotential
        Pt1           16.00   195.08400     Pt( 1.00)
        Cr1           14.00    51.99610     Cr( 1.00)

     No symmetry found

   Cartesian axes

     site n.     atom                  positions (alat units)
         1           Pt1 tau(   1) = (   0.0000000   0.0000000  10.0000000  )
         2           Pt1 tau(   2) = (  -1.3787467   2.3880594  10.0000000  )
         3           Pt1 tau(   3) = (   1.3787467   2.3880594  10.0000000  )
         4           Cr1 tau(   4) = (   2.7574935   0.0000000  10.0000000  )
         5           Pt1 tau(   5) = (   2.7574935   1.5920396  12.2514840  )
         6           Pt1 tau(   6) = (   1.3787467   3.9800990  12.2514840  )
         7           Pt1 tau(   7) = (  -1.3787467   3.9800990  12.2514840  )
         8           Cr1 tau(   8) = (   0.0000000   1.5920396  12.2514840  )
         9           Pt1 tau(   9) = (   0.0000003   3.1477748  14.5034686  )
        10           Pt1 tau(  10) = (   1.3473060   0.8141721  14.5034678  )
        11           Pt1 tau(  11) = (   4.1676799   0.8141711  14.5034685  )
        12           Cr1 tau(  12) = (   2.7574942   3.1840805  14.3772728  )

     number of k points=    20  Fermi-Dirac smearing, width (Ry)=  0.0110
                       cart. coord. in units 2pi/alat
        k(    1) = (   0.0000000   0.0000000   0.0000000), wk =   0.0555556
        k(    2) = (   0.0000000   0.0348958   0.0000000), wk =   0.1111111
        k(    3) = (   0.0000000   0.0697917   0.0000000), wk =   0.1111111
        k(    4) = (   0.0000000  -0.1046875   0.0000000), wk =   0.0555556
        k(    5) = (   0.0302207   0.0174479   0.0000000), wk =   0.1111111
        k(    6) = (   0.0302207   0.0523438   0.0000000), wk =   0.1111111
        k(    7) = (   0.0302207   0.0872396   0.0000000), wk =   0.1111111
        k(    8) = (   0.0302207  -0.0872396   0.0000000), wk =   0.1111111
        k(    9) = (   0.0302207  -0.0523438   0.0000000), wk =   0.1111111
        k(   10) = (   0.0302207  -0.0174479   0.0000000), wk =   0.1111111
        k(   11) = (   0.0604414   0.0348958   0.0000000), wk =   0.1111111
        k(   12) = (   0.0604414   0.0697917   0.0000000), wk =   0.1111111
        k(   13) = (   0.0604414   0.1046875   0.0000000), wk =   0.1111111
        k(   14) = (   0.0604414  -0.0697917   0.0000000), wk =   0.1111111
        k(   15) = (   0.0604414  -0.0348958   0.0000000), wk =   0.1111111
        k(   16) = (   0.0604414  -0.0000000   0.0000000), wk =   0.1111111
        k(   17) = (  -0.0906620  -0.0523438   0.0000000), wk =   0.0555556
        k(   18) = (  -0.0906620  -0.0174479   0.0000000), wk =   0.1111111
        k(   19) = (  -0.0906620   0.0174479   0.0000000), wk =   0.1111111
        k(   20) = (  -0.0906620  -0.1570313   0.0000000), wk =   0.0555556

     Largest allocated arrays     est. size (Mb)     dimensions
     Largest temporary arrays     est. size (Mb)     dimensions

     Check: negative/imaginary core charge=   -0.000002    0.000000

     Initial potential from superposition of free atoms
     Check: negative starting charge=   -1.656045

     starting charge  178.49985, renormalised to  186.00000

[...]

     *
     * You are using vdW-DF for exchange-correlation in this calculation.
     * Please cite the following three references that made this development
     * possible:
     *
     *   M. Dion, H. Rydberg, E. Schroder, D. C. Langreth, and
     *   B. I. Lundqvist, Phys. Rev. Lett. 92, 246401 (2004).
     *
     *   T. Thonhauser, V. R. Cooper, S. Li, A. Puzder, P. Hyldgaard, and
     *   D. C. Langreth, Phys. Rev. B 76, 125112 (2007).
     *
     *   G. Roman-Perez and J. M. Soler, Phys. Rev. Lett. 103, 096102 (2009).
     *
     *
     * If you are using vdW-DF2, please also cite:
     *
     *   K. Lee, E. D. Murray, L. Kong, B. I. Lundqvist, and
     *   D. C. Langreth, Phys. Rev. B 82, 081101(R) (2010).
     *
     *
     * If you are calculating the stress with vdW-DF, please also cite:
     *
     *   R. Sabatini, E. Kucukbenli, B. Kolb, T. Thonhauser, and
     *   S. de Gironcoli, J. Phys.: Condens. Matter 24, 424209 (2012).
     *

     Carrying out vdW-DF run using the following parameters:

     Nqs =      20    Nr_points =    1024   r_max =   100.000
     q_mesh =
               0.00001000     0.04494208     0.09755937     0.15916263
               0.23128650     0.31572767     0.41458969     0.53033537
               0.66584808     0.82450364     1.01025438     1.22772762
               1.48234092     1.78043706     2.12944203     2.53805004
               3.01644009     3.57652955     4.23227104     5.00000000

     Gradients computed in reciprocal space

[...]

     Starting wfc are  138 randomized atomic wfcs

     Self-consistent Calculation

[...]

     total energy              =   -2439.96530736 Ry
     Harris-Foulkes estimate   =   -2439.96530781 Ry
     estimated scf accuracy    <       0.00000118 Ry

     iteration # 22     ecut=    36.75 Ry     beta=0.10
     Davidson diagonalization with overlap
     ethr =  6.32E-10,  avg # of iterations =  2.0

[...]

     negative rho (up, down):  1.587E+00 0.000E+00

     Adding external electric field

     Computed dipole along edir(3) :
        Dipole               -0.0053 Ry au,         -0.0135 Debye
        Dipole field         -0.0000 Ry au

        Potential amp.        0.0014 Ry
        Total length         45.1463 bohr

     End of self-consistent calculation

[...]

          k = 0.0604-0.0000 0.0000 ( 16390 PWs)   bands (ev):

[...]

          k =-0.0907-0.1570 0.0000 ( 16400 PWs)   bands (ev):

   -70.6133 -70.4273 -70.3794 -51.6302 -51.5283 -51.4803 -51.4788 -51.4500
   -51.4471 -51.4272 -51.4254 -51.3377 -51.1678 -51.1492 -51.0829 -51.0731
   -51.0533 -51.0519 -51.0346 -51.0220 -51.0193 -51.0023 -50.9024 -50.8990
   -50.8339 -50.8271 -50.8244 -50.8095 -50.8076 -50.8056 -41.9583 -41.8662
   -41.8636 -41.7324 -41.7096 -41.7071 -41.6711 -41.6685 -41.6628  -5.4818
    -5.0735  -4.0778  -3.8341  -3.8113  -3.6994  -3.6020  -3.3856  -3.3799
    -3.2019  -3.1713  -3.0918  -2.7625  -2.6998  -2.6306  -2.5783  -2.5645
    -2.4294  -2.2533  -2.1343  -1.6714  -1.5967  -1.5577  -1.5423  -1.4921
    -1.4826  -1.3988  -1.3467  -1.2530  -1.2353  -1.1715  -1.0826  -0.9803
    -0.9715  -0.7945  -0.7251  -0.6187  -0.4954  -0.3774  -0.2676  -0.2407
    -0.0096   0.1896   0.2132   0.3401   0.5281   0.7001   0.8479   0.8810
     0.8996   1.2796   1.3683   1.5085   1.5789   1.6202   1.6615   1.6753
     1.8182   1.9014   1.9383   2.1723   2.2454   2.3543   2.6309   3.4557
     3.5581   3.9096   4.2414   4.7654   4.9231   6.0412   6.0650   6.6848
     6.8496   7.7378   7.7742   8.3260   8.3434   8.4240   8.4359   9.3660
     9.4555   9.5119   9.5523

     the Fermi energy is     1.7326 ev

!    total energy              =   -2439.96530519 Ry
     Harris-Foulkes estimate   =   -2439.96530746 Ry
     estimated scf accuracy    <       0.00000052 Ry

     The total energy is the sum of the following terms:

     one-electron contribution =  -19728.57716002 Ry
     hartree contribution      =    9887.59185029 Ry
     xc contribution           =    -597.15508173 Ry
     ewald contribution        =    7998.29863171 Ry
     electric field correction =       0.00000008 Ry
     smearing contrib. (-TS)   =      -0.12354554 Ry

     convergence has been achieved in  22 iterations

 BEEF-vdW xc energy contributions
           1 :   -530.091829924514
           2 :    491.622163272474
           3 :   -423.361587649594
           4 :    339.380125025331
           5 :   -254.468920426860
           6 :    180.042353571157
           7 :   -121.975036104114
           8 :    80.6770963857084
           9 :   -52.8536905442855
          10 :    33.8791280807725
          11 :   -19.7824655082628
          12 :    8.25258631796453
          13 :    1.35586388853574
          14 :   -8.65243903288524
          15 :    12.9931731269004
          16 :   -14.0785244176880
          17 :    12.2304903460384
          18 :   -8.38158845264036
          19 :    3.85532136932500
          20 :  -2.181441572099629E-002
          21 :   -2.09494751710326
          22 :    2.13883850990931
          23 :  -0.533689413568368
          24 :   -1.70753705235904
          25 :    3.42972190975956
          26 :   -3.84773620381668
          27 :    2.87218652275453
          28 :   -1.08845304308068
          29 :  -0.593909462106467
          30 :    1.42497768488454
          31 :   -44.3980027627392
          32 :   -32.7191050798903

     Forces acting on atoms (Ry/au):

     negative rho (up, down):  1.587E+00 0.000E+00
     atom    1 type  1   force =     0.00000025    0.02733835   -0.00451978
     atom    2 type  1   force =     0.02367536   -0.01366895   -0.00451949
     atom    3 type  1   force =    -0.02367530   -0.01366949   -0.00451935
     atom    4 type  2   force =    -0.00000013    0.00000005    0.01911889
     atom    5 type  1   force =    -0.00000011   -0.00574914   -0.00132761
     atom    6 type  1   force =    -0.00497914    0.00287460   -0.00132770
     atom    7 type  1   force =     0.00497930    0.00287464   -0.00132741
     atom    8 type  2   force =    -0.00000004    0.00000001   -0.00184504
     atom    9 type  1   force =    -0.00000025    0.00015210   -0.00024164
     atom   10 type  1   force =     0.00013177   -0.00007631   -0.00024123
     atom   11 type  1   force =    -0.00013172   -0.00007578   -0.00024132
     atom   12 type  2   force =     0.00000001   -0.00000007    0.00099168

     Total force =     0.052707     Total SCF correction =     0.003580

     entering subroutine stress ...

     negative rho (up, down):  1.587E+00 0.000E+00
          total   stress  (Ry/bohr**3)                   (kbar)     P=  -20.01
  -0.00019332  -0.00000000   0.00000000        -28.44     -0.00      0.00
  -0.00000000  -0.00019332  -0.00000000         -0.00    -28.44     -0.00
   0.00000000  -0.00000000  -0.00002141          0.00     -0.00     -3.15

 !ASE

     Writing output data file calc.save

     General routines

     Parallel routines

   This run was terminated on:  16:16:11  31Dec2018

   JOB DONE.
Job  /afs/slac/g/suncat/bin/suncat-tsmpirun -x LD_LIBRARY_PATH -wdir /scratch/qe648794_HtYBB pw.x -in pw.inp

TID   HOST_NAME   COMMAND_LINE            STATUS            TERMINATION_TIME
00000 suncat0121 pw.x -in pw.inp   Done                     12/31/2018 16:16:11
00001 suncat0121 pw.x -in pw.inp   Done                     12/31/2018 16:16:11
00002 suncat0121 pw.x -in pw.inp   Done                     12/31/2018 16:16:11
00003 suncat0121 pw.x -in pw.inp   Done                     12/31/2018 16:16:11
00004 suncat0121 pw.x -in pw.inp   Done                     12/31/2018 16:16:11
00005 suncat0121 pw.x -in pw.inp   Done                     12/31/2018 16:16:11
00006 suncat0121 pw.x -in pw.inp   Done                     12/31/2018 16:16:11
00007 suncat0121 pw.x -in pw.inp   Done                     12/31/2018 16:16:11
00008 suncat0115 pw.x -in pw.inp   Done                     12/31/2018 16:16:11
00009 suncat0115 pw.x -in pw.inp   Done                     12/31/2018 16:16:11
00010 suncat0115 pw.x -in pw.inp   Done                     12/31/2018 16:16:11
00011 suncat0115 pw.x -in pw.inp   Done                     12/31/2018 16:16:11
00012 suncat0115 pw.x -in pw.inp   Done                     12/31/2018 16:16:11
00013 suncat0115 pw.x -in pw.inp   Done                     12/31/2018 16:16:11
00014 suncat0115 pw.x -in pw.inp   Done                     12/31/2018 16:16:11
00015 suncat0115 pw.x -in pw.inp   Done                     12/31/2018 16:16:11
00016 suncat0228 pw.x -in pw.inp   Done                     12/31/2018 16:16:11
00017 suncat0228 pw.x -in pw.inp   Done                     12/31/2018 16:16:11
00018 suncat0228 pw.x -in pw.inp   Done                     12/31/2018 16:16:11
00019 suncat0228 pw.x -in pw.inp   Done                     12/31/2018 16:16:11
00020 suncat0228 pw.x -in pw.inp   Done                     12/31/2018 16:16:11
00021 suncat0228 pw.x -in pw.inp   Done                     12/31/2018 16:16:11
00022 suncat0228 pw.x -in pw.inp   Done                     12/31/2018 16:16:11
00023 suncat0228 pw.x -in pw.inp   Done                     12/31/2018 16:16:11
00024 suncat0227 pw.x -in pw.inp   Done                     12/31/2018 16:16:11
00025 suncat0227 pw.x -in pw.inp   Done                     12/31/2018 16:16:11
00026 suncat0227 pw.x -in pw.inp   Done                     12/31/2018 16:16:11
00027 suncat0227 pw.x -in pw.inp   Done                     12/31/2018 16:16:11
00028 suncat0227 pw.x -in pw.inp   Done                     12/31/2018 16:16:11
00029 suncat0227 pw.x -in pw.inp   Done                     12/31/2018 16:16:11
00030 suncat0227 pw.x -in pw.inp   Done                     12/31/2018 16:16:11
00031 suncat0227 pw.x -in pw.inp   Done                     12/31/2018 16:16:11
00032 suncat0217 pw.x -in pw.inp   Done                     12/31/2018 16:16:11
00033 suncat0217 pw.x -in pw.inp   Done                     12/31/2018 16:16:11
00034 suncat0217 pw.x -in pw.inp   Done                     12/31/2018 16:16:11
00035 suncat0217 pw.x -in pw.inp   Done                     12/31/2018 16:16:11
00036 suncat0217 pw.x -in pw.inp   Done                     12/31/2018 16:16:11
00037 suncat0217 pw.x -in pw.inp   Done                     12/31/2018 16:16:11
00038 suncat0217 pw.x -in pw.inp   Done                     12/31/2018 16:16:11
00039 suncat0217 pw.x -in pw.inp   Done                     12/31/2018 16:16:11
00040 suncat0216 pw.x -in pw.inp   Done                     12/31/2018 16:16:11
00041 suncat0216 pw.x -in pw.inp   Done                     12/31/2018 16:16:11
00042 suncat0216 pw.x -in pw.inp   Done                     12/31/2018 16:16:11
00043 suncat0216 pw.x -in pw.inp   Done                     12/31/2018 16:16:11
00044 suncat0216 pw.x -in pw.inp   Done                     12/31/2018 16:16:11
00045 suncat0216 pw.x -in pw.inp   Done                     12/31/2018 16:16:11
00046 suncat0216 pw.x -in pw.inp   Done                     12/31/2018 16:16:11
00047 suncat0216 pw.x -in pw.inp   Done                     12/31/2018 16:16:11
00048 suncat0215 pw.x -in pw.inp   Done                     12/31/2018 16:16:11
00049 suncat0215 pw.x -in pw.inp   Done                     12/31/2018 16:16:11
00050 suncat0215 pw.x -in pw.inp   Done                     12/31/2018 16:16:11
00051 suncat0215 pw.x -in pw.inp   Done                     12/31/2018 16:16:11
00052 suncat0215 pw.x -in pw.inp   Done                     12/31/2018 16:16:11
00053 suncat0215 pw.x -in pw.inp   Done                     12/31/2018 16:16:11
00054 suncat0215 pw.x -in pw.inp   Done                     12/31/2018 16:16:11
00055 suncat0215 pw.x -in pw.inp   Done                     12/31/2018 16:16:11
00056 suncat0210 pw.x -in pw.inp   Done                     12/31/2018 16:16:11
00057 suncat0210 pw.x -in pw.inp   Done                     12/31/2018 16:16:11
00058 suncat0210 pw.x -in pw.inp   Done                     12/31/2018 16:16:11
00059 suncat0210 pw.x -in pw.inp   Done                     12/31/2018 16:16:11
00060 suncat0210 pw.x -in pw.inp   Done                     12/31/2018 16:16:11
00061 suncat0210 pw.x -in pw.inp   Done                     12/31/2018 16:16:11
00062 suncat0210 pw.x -in pw.inp   Done                     12/31/2018 16:16:11
00063 suncat0210 pw.x -in pw.inp   Done                     12/31/2018 16:16:11