     Program PWSCF v.5.1rc2 (svn rev. 11289) starts on 19Dec2018 at  9:57: 2

     Current dimensions of program PWSCF are:
     Max number of different atomic species (ntypx) = 10
     Max number of k-points (npk) =  40000
     Max angular momentum in pseudopotentials (lmaxx) =  3
     Presently stress not available with electric field

     IMPORTANT: XC functional enforced from input :
     Exchange-correlation      = BEEF-VDW ( 1  4 27 13 2)
     Any further DFT definition will be discarded
     Please, verify this is what you really want

     Subspace diagonalization in iterative solution of the eigenvalue problem:
     a serial algorithm will be used

     Found symmetry operation: I + ( -0.5000 -0.5000  0.0000)
     This is a supercell, fractional translations are disabled

     bravais-lattice index     =            0
     lattice parameter (alat)  =       1.8897  a.u.
     unit-cell volume          =    4136.4784 (a.u.)^3
     number of atoms/cell      =           12
     number of atomic types    =            2
     number of electrons       =       168.00
     number of Kohn-Sham states=          114
     kinetic-energy cutoff     =      36.7493  Ry
     charge density cutoff     =     367.4932  Ry
     convergence threshold     =      1.0E-06
     mixing beta               =       0.1000
     number of iterations used =           10  plain     mixing
     Exchange-correlation      = BEEF-VDW ( 1  4 27 13 2)
     nstep                     =           50

     celldm(1)=   1.889726  celldm(2)=   0.000000  celldm(3)=   0.000000
     celldm(4)=   0.000000  celldm(5)=   0.000000  celldm(6)=   0.000000

     crystal axes: (cart. coord. in units of alat)
               a(1) = (   5.338773   0.000000   0.000000 )
               a(2) = (   2.519766   4.706727   0.000000 )
               a(3) = (   0.000000   0.000000  24.393474 )

     reciprocal axes: (cart. coord. in units 2 pi/alat)
               b(1) = (  0.187309 -0.100277  0.000000 )
               b(2) = (  0.000000  0.212462  0.000000 )
               b(3) = (  0.000000  0.000000  0.040995 )

     PseudoPot. # 1 for V  read from file:
     /afs/slac.stanford.edu/u/if/mamunm/psp/gbrv1.5pbe/V.UPF
     MD5 check sum: 22b79981416ebb76fdaf5b1b8640f6fb
     Pseudo is Ultrasoft + core correction, Zval = 13.0
     Generated by new atomic code, or converted to UPF format
     Using radial grid of  853 points,  6 beta functions with:
                l(1) =   0
                l(2) =   0
                l(3) =   1
                l(4) =   1
                l(5) =   2
                l(6) =   2
     Q(r) pseudized with  8 coefficients,  rinner =    1.100   1.100   1.100
                                                       1.100   1.100

     PseudoPot. # 2 for Rh read from file:
     /afs/slac.stanford.edu/u/if/mamunm/psp/gbrv1.5pbe/Rh.UPF
     MD5 check sum: 761627e959a2e3a1f56b0b5fe687810e
     Pseudo is Ultrasoft + core correction, Zval = 15.0
     Generated by new atomic code, or converted to UPF format
     Using radial grid of  969 points,  7 beta functions with:
                l(1) =   0
                l(2) =   0
                l(3) =   1
                l(4) =   1
                l(5) =   2
                l(6) =   2
                l(7) =   2
     Q(r) pseudized with  8 coefficients,  rinner =    1.200   1.200   1.200
                                                       1.200   1.200

     vdW kernel table read from file vdW_kernel_table
     MD5 check sum: 095c7af220d748ca6e76c0b4c6cfb241

     atomic species   valence    mass     pseudopotential
        V1            13.00    50.94150     V ( 1.00)
        Rh1           15.00   102.90550     Rh( 1.00)

     No symmetry found

   Cartesian axes

     site n.     atom                  positions (alat units)
         1           V1  tau(   1) = (   0.0000000   0.0000000  10.0000000  )
         2           V1  tau(   2) = (   3.9292696   2.3533636  10.0000000  )
         3           Rh1 tau(   3) = (   2.6693867   0.0000000  10.0000000  )
         4           Rh1 tau(   4) = (   1.2598830   2.3533636  10.0000000  )
         5           V1  tau(   5) = (   5.3387733   3.1975598  12.1967369  )
         6           V1  tau(   6) = (   1.4095037   0.8441962  12.1967369  )
         7           Rh1 tau(   7) = (   2.6693867   3.1975598  12.1967369  )
         8           Rh1 tau(   8) = (   4.0788904   0.8441962  12.1967369  )
         9           V1  tau(   9) = (   2.8190074   1.6883925  14.3934737  )
        10           V1  tau(  10) = (   6.7482770   4.0417561  14.3934737  )
        11           Rh1 tau(  11) = (   5.4883941   1.6883925  14.3934737  )
        12           Rh1 tau(  12) = (   4.0788904   4.0417561  14.3934737  )

     number of k points=    20  Fermi-Dirac smearing, width (Ry)=  0.0110
                       cart. coord. in units 2pi/alat
        k(    1) = (   0.0000000   0.0000000   0.0000000), wk =   0.0555556
        k(    2) = (   0.0000000   0.0354103   0.0000000), wk =   0.1111111
        k(    3) = (   0.0000000   0.0708206   0.0000000), wk =   0.1111111
        k(    4) = (   0.0000000  -0.1062309   0.0000000), wk =   0.0555556
        k(    5) = (   0.0312182  -0.0167128   0.0000000), wk =   0.1111111
        k(    6) = (   0.0312182   0.0186975   0.0000000), wk =   0.1111111
        k(    7) = (   0.0312182   0.0541078   0.0000000), wk =   0.1111111
        k(    8) = (   0.0312182  -0.1229437   0.0000000), wk =   0.1111111
        k(    9) = (   0.0312182  -0.0875334   0.0000000), wk =   0.1111111
        k(   10) = (   0.0312182  -0.0521231   0.0000000), wk =   0.1111111
        k(   11) = (   0.0624363  -0.0334255   0.0000000), wk =   0.1111111
        k(   12) = (   0.0624363   0.0019848   0.0000000), wk =   0.1111111
        k(   13) = (   0.0624363   0.0373951   0.0000000), wk =   0.1111111
        k(   14) = (   0.0624363  -0.1396565   0.0000000), wk =   0.1111111
        k(   15) = (   0.0624363  -0.1042462   0.0000000), wk =   0.1111111
        k(   16) = (   0.0624363  -0.0688359   0.0000000), wk =   0.1111111
        k(   17) = (  -0.0936545   0.0501383   0.0000000), wk =   0.0555556
        k(   18) = (  -0.0936545   0.0855486   0.0000000), wk =   0.1111111
        k(   19) = (  -0.0936545   0.1209589   0.0000000), wk =   0.1111111
        k(   20) = (  -0.0936545  -0.0560926   0.0000000), wk =   0.0555556

     Largest allocated arrays     est. size (Mb)     dimensions
     Largest temporary arrays     est. size (Mb)     dimensions

     Initial potential from superposition of free atoms
     Check: negative starting charge=   -0.324796

     starting charge  164.99204, renormalised to  168.00000

     negative rho (up, down):  3.307E-01 0.000E+00

     *
     * You are using vdW-DF for exchange-correlation in this calculation.
     * Please cite the following three references that made this development
     * possible:
     *
     *   M. Dion, H. Rydberg, E. Schroder, D. C. Langreth, and
     *   B. I. Lundqvist, Phys. Rev. Lett. 92, 246401 (2004).
     *
     *   T. Thonhauser, V. R. Cooper, S. Li, A. Puzder, P. Hyldgaard, and
     *   D. C. Langreth, Phys. Rev. B 76, 125112 (2007).
     *
     *   G. Roman-Perez and J. M. Soler, Phys. Rev. Lett. 103, 096102 (2009).
     *
     *
     * If you are using vdW-DF2, please also cite:
     *
     *   K. Lee, E. D. Murray, L. Kong, B. I. Lundqvist, and
     *   D. C. Langreth, Phys. Rev. B 82, 081101(R) (2010).
     *
     *
     * If you are calculating the stress with vdW-DF, please also cite:
     *
     *   R. Sabatini, E. Kucukbenli, B. Kolb, T. Thonhauser, and
     *   S. de Gironcoli, J. Phys.: Condens. Matter 24, 424209 (2012).
     *

     Carrying out vdW-DF run using the following parameters:

     Nqs =      20    Nr_points =    1024   r_max =   100.000
     q_mesh =
               0.00001000     0.04494208     0.09755937     0.15916263
               0.23128650     0.31572767     0.41458969     0.53033537
               0.66584808     0.82450364     1.01025438     1.22772762
               1.48234092     1.78043706     2.12944203     2.53805004
               3.01644009     3.57652955     4.23227104     5.00000000

     Gradients computed in reciprocal space

     Adding external electric field

     Computed dipole along edir(3) :
        Dipole               -0.0000 Ry au,         -0.0000 Debye
        Dipole field         -0.0000 Ry au

        Potential amp.        0.0000 Ry
        Total length         44.9446 bohr

     Starting wfc are  132 randomized atomic wfcs

     Self-consistent Calculation

     iteration #  1     ecut=    36.75 Ry     beta=0.10
     Davidson diagonalization with overlap
     ethr =  1.00E-02,  avg # of iterations =  2.7

[...]

     total energy              =   -1908.11508241 Ry
     Harris-Foulkes estimate   =   -1908.69222189 Ry
     estimated scf accuracy    <       3.58339959 Ry

[...]

     End of self-consistent calculation

          k = 0.0000 0.0000 0.0000 ( 15571 PWs)   bands (ev):

   -63.0614 -63.0430 -63.0296 -63.0174 -63.0002 -62.9876 -45.3314 -45.2612
   -45.2275 -45.2244 -45.1886 -45.0157 -44.9032 -44.9014 -44.8479 -44.8393
   -44.8122 -44.8036 -44.7051 -44.6892 -44.6747 -44.6577 -44.5880 -44.5877
   -37.0089 -36.9826 -36.9466 -36.9444 -36.9065 -36.9042 -36.8882 -36.8827
   -36.8738 -36.8473 -36.8223 -36.8143 -36.7914 -36.6736 -36.6606 -36.6420
   -36.5400 -36.5384  -5.0222  -3.5068  -3.4766  -3.2765  -3.2278  -3.1697
    -2.9369  -2.7392  -2.7026  -2.6081  -2.5605  -2.5521  -2.4355  -2.4348
    -1.8766  -1.6860  -1.4270  -1.0478  -1.0020  -0.8169  -0.7047  -0.6032
    -0.5771  -0.5152  -0.3638  -0.1874  -0.1302  -0.0485  -0.0456   0.8311
     0.9293   0.9743   1.0406   1.1474   1.1593   1.3484   1.3717   1.4203
     1.4608   1.6512   1.8290   2.1540   2.1665   2.2726   2.3052   2.3534
     2.5446   2.6529   2.8663   2.8958   2.9393   3.0991   3.1723   3.2314
     3.3404   3.3602   3.3836   3.4329   3.4411   3.6619   3.7053   3.7115
     3.8147   3.8473   3.8786   3.9817   4.0558   5.3600   5.3984   5.4627
     5.5946   5.7347

[...]

          k =-0.0937 0.0501 0.0000 ( 15606 PWs)   bands (ev):

[...]

     the Fermi energy is     1.5518 ev

!    total energy              =   -1907.97130631 Ry
     Harris-Foulkes estimate   =   -1907.97130561 Ry
     estimated scf accuracy    <       0.00000076 Ry

     The total energy is the sum of the following terms:

     one-electron contribution =  -17067.53576217 Ry
     hartree contribution      =    8547.65766284 Ry
     xc contribution           =    -308.19646636 Ry
     ewald contribution        =    6920.20837257 Ry
     electric field correction =       0.00000001 Ry
     smearing contrib. (-TS)   =      -0.10511321 Ry

     convergence has been achieved in  19 iterations

 BEEF-vdW xc energy contributions
           1 :   -267.395276118320
           2 :    243.490149793644
           3 :   -202.925017689714
           4 :    156.888806727350
           5 :   -115.918257737070
           6 :    86.2959873274976
           7 :   -68.8805770116821
           8 :    60.3690588241830
           9 :   -55.8909862331610
          10 :    51.4763286243505
[...]
     SCF correction compared to forces is large: reduce conv_thr to get better values

[...]

   This run was terminated on:  10:10: 3  19Dec2018

[...]

     Program PWSCF v.5.1rc2 (svn rev. 11289) starts on 19Dec2018 at 10:10:10

     Current dimensions of program PWSCF are:
     Max number of different atomic species (ntypx) = 10
     Max number of k-points (npk) =  40000
     Max angular momentum in pseudopotentials (lmaxx) =  3
     Presently stress not available with electric field

     IMPORTANT: XC functional enforced from input :
     Exchange-correlation      = BEEF-VDW ( 1  4 27 13 2)
     Any further DFT definition will be discarded
     Please, verify this is what you really want

     Subspace diagonalization in iterative solution of the eigenvalue problem:
     a serial algorithm will be used

     Found symmetry operation: I + ( -0.5000 -0.5000  0.0000)
     This is a supercell, fractional translations are disabled

     bravais-lattice index     =            0
     lattice parameter (alat)  =       1.8897  a.u.
     unit-cell volume          =    4136.4784 (a.u.)^3
     number of atoms/cell      =           12
     number of atomic types    =            2
     number of electrons       =       168.00
     number of Kohn-Sham states=          114
     kinetic-energy cutoff     =      36.7493  Ry
     charge density cutoff     =     367.4932  Ry
     convergence threshold     =      1.0E-06
     mixing beta               =       0.1000
     number of iterations used =           10  plain     mixing
     Exchange-correlation      = BEEF-VDW ( 1  4 27 13 2)
     nstep                     =           50

     celldm(1)=   1.889726  celldm(2)=   0.000000  celldm(3)=   0.000000
     celldm(4)=   0.000000  celldm(5)=   0.000000  celldm(6)=   0.000000

     crystal axes: (cart. coord. in units of alat)
               a(1) = (   5.338773   0.000000   0.000000 )
               a(2) = (   2.519766   4.706727   0.000000 )
               a(3) = (   0.000000   0.000000  24.393474 )

     reciprocal axes: (cart. coord. in units 2 pi/alat)
               b(1) = (  0.187309 -0.100277  0.000000 )
               b(2) = (  0.000000  0.212462  0.000000 )
               b(3) = (  0.000000  0.000000  0.040995 )

     PseudoPot. # 1 for V  read from file:
     /afs/slac.stanford.edu/u/if/mamunm/psp/gbrv1.5pbe/V.UPF
     MD5 check sum: 22b79981416ebb76fdaf5b1b8640f6fb
     Pseudo is Ultrasoft + core correction, Zval = 13.0
     Generated by new atomic code, or converted to UPF format
     Using radial grid of  853 points,  6 beta functions with:
                l(1) =   0
                l(2) =   0
                l(3) =   1
                l(4) =   1
                l(5) =   2
                l(6) =   2
     Q(r) pseudized with  8 coefficients,  rinner =    1.100   1.100   1.100
                                                       1.100   1.100

     PseudoPot. # 2 for Rh read from file:
     /afs/slac.stanford.edu/u/if/mamunm/psp/gbrv1.5pbe/Rh.UPF
     MD5 check sum: 761627e959a2e3a1f56b0b5fe687810e
     Pseudo is Ultrasoft + core correction, Zval = 15.0
     Generated by new atomic code, or converted to UPF format
     Using radial grid of  969 points,  7 beta functions with:
                l(1) =   0
                l(2) =   0
                l(3) =   1
                l(4) =   1
                l(5) =   2
                l(6) =   2
                l(7) =   2
     Q(r) pseudized with  8 coefficients,  rinner =    1.200   1.200   1.200
                                                       1.200   1.200

     vdW kernel table read from file vdW_kernel_table
     MD5 check sum: 095c7af220d748ca6e76c0b4c6cfb241

     atomic species   valence    mass     pseudopotential
        V1            13.00    50.94150     V ( 1.00)
        Rh1           15.00   102.90550     Rh( 1.00)

     No symmetry found

   Cartesian axes

     site n.     atom                  positions (alat units)
         1           V1  tau(   1) = (   0.0000000   0.0000000  10.0000000  )
         2           V1  tau(   2) = (   3.9292696   2.3533636  10.0000000  )
         3           Rh1 tau(   3) = (   2.6693867   0.0000000  10.0000000  )
         4           Rh1 tau(   4) = (   1.2598830   2.3533636  10.0000000  )
         5           V1  tau(   5) = (   5.3387733   3.1975598  12.1967369  )
         6           V1  tau(   6) = (   1.4095037   0.8441962  12.1967369  )
         7           Rh1 tau(   7) = (   2.6693867   3.1975598  12.1967369  )
         8           Rh1 tau(   8) = (   4.0788904   0.8441962  12.1967369  )
         9           V1  tau(   9) = (   2.8075767   1.6815463  14.2730790  )
        10           V1  tau(  10) = (   6.7368440   4.0349087  14.2730913  )
        11           Rh1 tau(  11) = (   5.5233105   1.7093050  14.3411401  )
        12           Rh1 tau(  12) = (   4.1138072   4.0626686  14.3411400  )

     number of k points=    20  Fermi-Dirac smearing, width (Ry)=  0.0110
                       cart. coord. in units 2pi/alat
        k(    1) = (   0.0000000   0.0000000   0.0000000), wk =   0.0555556
        k(    2) = (   0.0000000   0.0354103   0.0000000), wk =   0.1111111
        k(    3) = (   0.0000000   0.0708206   0.0000000), wk =   0.1111111
        k(    4) = (   0.0000000  -0.1062309   0.0000000), wk =   0.0555556
        k(    5) = (   0.0312182  -0.0167128   0.0000000), wk =   0.1111111
        k(    6) = (   0.0312182   0.0186975   0.0000000), wk =   0.1111111
        k(    7) = (   0.0312182   0.0541078   0.0000000), wk =   0.1111111
        k(    8) = (   0.0312182  -0.1229437   0.0000000), wk =   0.1111111
        k(    9) = (   0.0312182  -0.0875334   0.0000000), wk =   0.1111111
        k(   10) = (   0.0312182  -0.0521231   0.0000000), wk =   0.1111111
        k(   11) = (   0.0624363  -0.0334255   0.0000000), wk =   0.1111111
        k(   12) = (   0.0624363   0.0019848   0.0000000), wk =   0.1111111
        k(   13) = (   0.0624363   0.0373951   0.0000000), wk =   0.1111111
        k(   14) = (   0.0624363  -0.1396565   0.0000000), wk =   0.1111111
        k(   15) = (   0.0624363  -0.1042462   0.0000000), wk =   0.1111111
        k(   16) = (   0.0624363  -0.0688359   0.0000000), wk =   0.1111111
        k(   17) = (  -0.0936545   0.0501383   0.0000000), wk =   0.0555556
        k(   18) = (  -0.0936545   0.0855486   0.0000000), wk =   0.1111111
        k(   19) = (  -0.0936545   0.1209589   0.0000000), wk =   0.1111111
        k(   20) = (  -0.0936545  -0.0560926   0.0000000), wk =   0.0555556

     Largest allocated arrays     est. size (Mb)     dimensions
     Largest temporary arrays     est. size (Mb)     dimensions

     Initial potential from superposition of free atoms
     Check: negative starting charge=   -0.327769

     starting charge  164.99204, renormalised to  168.00000

[...]

     *
     * You are using vdW-DF for exchange-correlation in this calculation.
     * Please cite the following three references that made this development
     * possible:
     *
     *   M. Dion, H. Rydberg, E. Schroder, D. C. Langreth, and
     *   B. I. Lundqvist, Phys. Rev. Lett. 92, 246401 (2004).
     *
     *   T. Thonhauser, V. R. Cooper, S. Li, A. Puzder, P. Hyldgaard, and
     *   D. C. Langreth, Phys. Rev. B 76, 125112 (2007).
     *
     *   G. Roman-Perez and J. M. Soler, Phys. Rev. Lett. 103, 096102 (2009).
     *
     *
     * If you are using vdW-DF2, please also cite:
     *
     *   K. Lee, E. D. Murray, L. Kong, B. I. Lundqvist, and
     *   D. C. Langreth, Phys. Rev. B 82, 081101(R) (2010).
     *
     *
     * If you are calculating the stress with vdW-DF, please also cite:
     *
     *   R. Sabatini, E. Kucukbenli, B. Kolb, T. Thonhauser, and
     *   S. de Gironcoli, J. Phys.: Condens. Matter 24, 424209 (2012).
     *

     Carrying out vdW-DF run using the following parameters:

     Nqs =      20    Nr_points =    1024   r_max =   100.000
     q_mesh =
               0.00001000     0.04494208     0.09755937     0.15916263
               0.23128650     0.31572767     0.41458969     0.53033537
               0.66584808     0.82450364     1.01025438     1.22772762
               1.48234092     1.78043706     2.12944203     2.53805004
               3.01644009     3.57652955     4.23227104     5.00000000

     Gradients computed in reciprocal space

[...]

     Starting wfc are  132 randomized atomic wfcs

     Self-consistent Calculation

[...]

     iteration #  9     ecut=    36.75 Ry     beta=0.10
     Davidson diagonalization with overlap
     c_bands:  1 eigenvalues not converged
     ethr =  5.10E-06,  avg # of iterations =  3.4

[...]

     total energy              =   -1907.97864591 Ry
     Harris-Foulkes estimate   =   -1907.97864505 Ry
     estimated scf accuracy    <       0.00000359 Ry

     iteration # 19     ecut=    36.75 Ry     beta=0.10
     Davidson diagonalization with overlap
     ethr =  2.14E-09,  avg # of iterations =  2.0

[...]

     negative rho (up, down):  3.500E-01 0.000E+00

     Adding external electric field

     Computed dipole along edir(3) :
        Dipole                0.0029 Ry au,          0.0074 Debye
        Dipole field          0.0000 Ry au

        Potential amp.       -0.0008 Ry
        Total length         44.9446 bohr

     End of self-consistent calculation

[...]

          k = 0.0624-0.0688 0.0000 ( 15585 PWs)   bands (ev):

[...]

          k =-0.0937-0.0561 0.0000 ( 15534 PWs)   bands (ev):

   -63.0658 -63.0286 -63.0228 -62.9887 -62.9849 -62.9449 -45.4090 -45.3529
   -45.3192 -45.2760 -45.2441 -45.0950 -44.9375 -44.9034 -44.8572 -44.8387
   -44.8259 -44.8081 -44.7402 -44.7082 -44.6974 -44.6674 -44.6253 -44.5928
   -37.0154 -37.0041 -36.9615 -36.9205 -36.9108 -36.8996 -36.8852 -36.8784
   -36.8564 -36.8542 -36.8240 -36.8155 -36.7783 -36.6577 -36.6165 -36.5834
   -36.5577 -36.5241  -3.7014  -3.2518  -2.9850  -2.7335  -2.7276  -2.5230
    -2.4918  -2.3120  -2.3044  -2.2192  -1.8870  -1.8593  -1.8238  -1.7720
    -1.6441  -1.6150  -1.4725  -1.1680  -0.9757  -0.7860  -0.7809  -0.7350
    -0.5202  -0.4121  -0.3731  -0.2165  -0.0952  -0.0128   0.2058   0.2279
     0.2546   0.3857   0.5388   0.5925   0.6242   0.6560   0.7323   0.7745
     0.9010   1.0074   1.0221   1.0768   1.0808   1.1284   1.1301   1.2683
     1.5371   1.6512   2.1513   2.1923   2.3539   2.3696   2.4709   2.6716
     2.7054   2.7062   2.8212   2.8502   3.0400   3.0662   3.2602   3.4486
     3.5820   3.9907   4.1907   4.4973   4.5829   5.4503   5.5084   5.9051
     6.0973   6.2565

     the Fermi energy is     1.5409 ev

!    total energy              =   -1907.97864694 Ry
     Harris-Foulkes estimate   =   -1907.97864610 Ry
     estimated scf accuracy    <       0.00000090 Ry

     The total energy is the sum of the following terms:

     one-electron contribution =  -17269.99563332 Ry
     hartree contribution      =    8648.80346372 Ry
     xc contribution           =    -308.35656297 Ry
     ewald contribution        =    7021.67094436 Ry
     electric field correction =       0.00000003 Ry
     smearing contrib. (-TS)   =      -0.10085875 Ry

     convergence has been achieved in  19 iterations

 BEEF-vdW xc energy contributions
           1 :   -267.560710697702
           2 :    243.717641342773
           3 :   -203.224126702408
           4 :    157.202131484912
           5 :   -116.155753495005
           6 :    86.3927054335300
           7 :   -68.8378270202292
           8 :    60.2529696412121
           9 :   -55.7928258062742
          10 :    51.4613246033536
          11 :   -45.4434319986501
          12 :    38.0464457247328
          13 :   -30.6962542152861
          14 :    24.7483704119056
          15 :   -20.7585220854219
          16 :    18.4326903368299
          17 :   -17.0497861594561
          18 :    15.9454554977094
          19 :   -14.7577227384344
          20 :    13.3953261016228
          21 :   -11.8917755252111
          22 :    10.3128057667026
          23 :   -8.76329602474766
          24 :    7.41712153893059
          25 :   -6.48051184829353
          26 :    6.07369554041190
          27 :   -6.11187769940011
          28 :    6.29206810394476
          29 :   -6.23218380706578
          30 :    5.69429786492049
          31 :   -26.8883344391322
          32 :   -19.8812596613332

     Forces acting on atoms (Ry/au):

     negative rho (up, down):  3.500E-01 0.000E+00
     atom    1 type  1   force =     0.00571838    0.00342487    0.01831029
     atom    2 type  1   force =     0.00571895    0.00342525    0.01830985
     atom    3 type  2   force =    -0.00851705   -0.00509834    0.00758501
     atom    4 type  2   force =    -0.00851466   -0.00510260    0.00758504
     atom    5 type  1   force =     0.00181235    0.00108550   -0.00937818
     atom    6 type  1   force =     0.00181222    0.00108538   -0.00939300
     atom    7 type  2   force =     0.00121082    0.00072622   -0.01630634
     atom    8 type  2   force =     0.00121143    0.00072450   -0.01630588
     atom    9 type  1   force =     0.00033561    0.00020106   -0.00064869
     atom   10 type  1   force =     0.00033398    0.00020002   -0.00065512
     atom   11 type  2   force =    -0.00056082   -0.00033614    0.00044851
     atom   12 type  2   force =    -0.00056119   -0.00033572    0.00044849

     Total force =     0.042365     Total SCF correction =     0.004491
     SCF correction compared to forces is large: reduce conv_thr to get better values

     entering subroutine stress ...

     negative rho (up, down):  3.500E-01 0.000E+00
          total   stress  (Ry/bohr**3)                   (kbar)     P=  -24.97
  -0.00019682  -0.00001908   0.00000519        -28.95     -2.81      0.76
  -0.00001908  -0.00017639   0.00000311         -2.81    -25.95      0.46
   0.00000519   0.00000311  -0.00013611          0.76      0.46    -20.02

 !ASE

     Writing output data file calc.save

     General routines

     Parallel routines

   This run was terminated on:  10:14:21  19Dec2018

   JOB DONE.
Job  /afs/slac/g/suncat/bin/suncat-tsmpirun -x LD_LIBRARY_PATH -wdir /scratch/qe530772_eQoQf pw.x -in pw.inp

TID   HOST_NAME   COMMAND_LINE            STATUS            TERMINATION_TIME
00000 suncat2048 pw.x -in pw.inp   Done                     12/19/2018 10:14:21
00001 suncat2048 pw.x -in pw.inp   Done                     12/19/2018 10:14:21
00002 suncat2048 pw.x -in pw.inp   Done                     12/19/2018 10:14:21
00003 suncat2048 pw.x -in pw.inp   Done                     12/19/2018 10:14:21
00004 suncat2048 pw.x -in pw.inp   Done                     12/19/2018 10:14:21
00005 suncat2048 pw.x -in pw.inp   Done                     12/19/2018 10:14:21
00006 suncat2048 pw.x -in pw.inp   Done                     12/19/2018 10:14:21
00007 suncat2048 pw.x -in pw.inp   Done                     12/19/2018 10:14:21
00008 suncat2048 pw.x -in pw.inp   Done                     12/19/2018 10:14:21
00009 suncat2048 pw.x -in pw.inp   Done                     12/19/2018 10:14:21
00010 suncat2048 pw.x -in pw.inp   Done                     12/19/2018 10:14:21
00011 suncat2048 pw.x -in pw.inp   Done                     12/19/2018 10:14:21
00012 suncat2048 pw.x -in pw.inp   Done                     12/19/2018 10:14:21
00013 suncat2048 pw.x -in pw.inp   Done                     12/19/2018 10:14:21
00014 suncat2048 pw.x -in pw.inp   Done                     12/19/2018 10:14:21
00015 suncat2048 pw.x -in pw.inp   Done                     12/19/2018 10:14:21
00016 suncat2047 pw.x -in pw.inp   Done                     12/19/2018 10:14:21
00017 suncat2047 pw.x -in pw.inp   Done                     12/19/2018 10:14:21
00018 suncat2047 pw.x -in pw.inp   Done                     12/19/2018 10:14:21
00019 suncat2047 pw.x -in pw.inp   Done                     12/19/2018 10:14:21
00020 suncat2047 pw.x -in pw.inp   Done                     12/19/2018 10:14:21
00021 suncat2047 pw.x -in pw.inp   Done                     12/19/2018 10:14:21
00022 suncat2047 pw.x -in pw.inp   Done                     12/19/2018 10:14:21
00023 suncat2047 pw.x -in pw.inp   Done                     12/19/2018 10:14:21
00024 suncat2047 pw.x -in pw.inp   Done                     12/19/2018 10:14:21
00025 suncat2047 pw.x -in pw.inp   Done                     12/19/2018 10:14:21
00026 suncat2047 pw.x -in pw.inp   Done                     12/19/2018 10:14:21
00027 suncat2047 pw.x -in pw.inp   Done                     12/19/2018 10:14:21
00028 suncat2047 pw.x -in pw.inp   Done                     12/19/2018 10:14:21
00029 suncat2047 pw.x -in pw.inp   Done                     12/19/2018 10:14:21
00030 suncat2047 pw.x -in pw.inp   Done                     12/19/2018 10:14:21
00031 suncat2047 pw.x -in pw.inp   Done                     12/19/2018 10:14:21