     Program PWSCF v.5.1rc2 (svn rev. 11289) starts on 31Dec2018 at 23: 6:32

     Current dimensions of program PWSCF are:
     Max number of different atomic species (ntypx) = 10
     Max number of k-points (npk) =  40000
     Max angular momentum in pseudopotentials (lmaxx) =  3
     Presently stress not available with electric field

     IMPORTANT: XC functional enforced from input :
     Exchange-correlation      = BEEF-VDW ( 1  4 27 13 2)
     Any further DFT definition will be discarded
     Please, verify this is what you really want

     Subspace diagonalization in iterative solution of the eigenvalue problem:
     a serial algorithm will be used

     bravais-lattice index     =            0
     lattice parameter (alat)  =       1.8897  a.u.
     unit-cell volume          =    4234.8127 (a.u.)^3
     number of atoms/cell      =           12
     number of atomic types    =            2
     number of electrons       =       183.00
     number of Kohn-Sham states=          121
     kinetic-energy cutoff     =      36.7493  Ry
     charge density cutoff     =     367.4932  Ry
     convergence threshold     =      1.0E-06
     mixing beta               =       0.1000
     number of iterations used =           10  plain     mixing
     Exchange-correlation      = BEEF-VDW ( 1  4 27 13 2)
     nstep                     =           50

     celldm(1)=   1.889726  celldm(2)=   0.000000  celldm(3)=   0.000000
     celldm(4)=   0.000000  celldm(5)=   0.000000  celldm(6)=   0.000000

     crystal axes: (cart. coord. in units of alat)
               a(1) = (   5.444463   0.000000   0.000000 )
               a(2) = (  -2.722231   4.715043   0.000000 )
               a(3) = (   0.000000   0.000000  24.445385 )

     reciprocal axes: (cart. coord. in units 2 pi/alat)
               b(1) = (  0.183673  0.106044  0.000000 )
               b(2) = (  0.000000  0.212087  0.000000 )
               b(3) = (  0.000000  0.000000  0.040908 )

     PseudoPot. # 1 for Rh read from file:
     /afs/slac.stanford.edu/u/if/mamunm/psp/gbrv1.5pbe/Rh.UPF
     MD5 check sum: 761627e959a2e3a1f56b0b5fe687810e
     Pseudo is Ultrasoft + core correction, Zval = 15.0
     Generated by new atomic code, or converted to UPF format
     Using radial grid of  969 points,  7 beta functions with:
                l(1) =   0
                l(2) =   0
                l(3) =   1
                l(4) =   1
                l(5) =   2
                l(6) =   2
                l(7) =   2
     Q(r) pseudized with  8 coefficients,  rinner =    1.200   1.200   1.200
                                                       1.200   1.200

     PseudoPot. # 2 for Os read from file:
     /afs/slac.stanford.edu/u/if/mamunm/psp/gbrv1.5pbe/Os.UPF
     MD5 check sum: a3fb40a04f0c37c25c34bbc47164c9a8
     Pseudo is Ultrasoft + core correction, Zval = 16.0
     Generated by new atomic code, or converted to UPF format
     Using radial grid of  983 points,  8 beta functions with:
                l(1) =   0
                l(2) =   0
                l(3) =   1
                l(4) =   1
                l(5) =   2
                l(6) =   2
                l(7) =   3
                l(8) =   3
     Q(r) pseudized with  8 coefficients,  rinner =    1.150   1.150   1.150
                                                       1.150   1.150   1.150
                                                       1.150

     vdW kernel table read from file vdW_kernel_table
     MD5 check sum: 095c7af220d748ca6e76c0b4c6cfb241

     atomic species   valence    mass     pseudopotential
        Rh1           15.00   102.90550     Rh( 1.00)
        Os1           16.00   190.23000     Os( 1.00)

     No symmetry found

   Cartesian axes

     site n.     atom                  positions (alat units)
         1           Rh1 tau(   1) = (   0.0000000   0.0000000  10.0000000  )
         2           Rh1 tau(   2) = (  -1.3611157   2.3575216  10.0000000  )
         3           Rh1 tau(   3) = (   1.3611157   2.3575216  10.0000000  )
         4           Os1 tau(   4) = (   2.7222314   0.0000000  10.0000000  )
         5           Rh1 tau(   5) = (   2.7222314   1.5716811  12.2226927  )
         6           Rh1 tau(   6) = (   1.3611157   3.9292027  12.2226927  )
         7           Rh1 tau(   7) = (  -1.3611157   3.9292027  12.2226927  )
         8           Os1 tau(   8) = (   0.0000000   1.5716811  12.2226927  )
         9           Rh1 tau(   9) = (  -0.0000000   3.1433621  14.4453853  )
        10           Rh1 tau(  10) = (   1.3611157   0.7858405  14.4453853  )
        11           Rh1 tau(  11) = (   4.0833472   0.7858405  14.4453853  )
        12           Os1 tau(  12) = (   2.7222314   3.1433621  14.4453853  )

     number of k points=    20  Fermi-Dirac smearing, width (Ry)=  0.0110
                       cart. coord. in units 2pi/alat
        k(    1) = (   0.0000000   0.0000000   0.0000000), wk =   0.0555556
        k(    2) = (   0.0000000   0.0353479   0.0000000), wk =   0.1111111
        k(    3) = (   0.0000000   0.0706957   0.0000000), wk =   0.1111111
        k(    4) = (   0.0000000  -0.1060436   0.0000000), wk =   0.0555556
        k(    5) = (   0.0306121   0.0176739   0.0000000), wk =   0.1111111
        k(    6) = (   0.0306121   0.0530218   0.0000000), wk =   0.1111111
        k(    7) = (   0.0306121   0.0883696   0.0000000), wk =   0.1111111
        k(    8) = (   0.0306121  -0.0883696   0.0000000), wk =   0.1111111
        k(    9) = (   0.0306121  -0.0530218   0.0000000), wk =   0.1111111
        k(   10) = (   0.0306121  -0.0176739   0.0000000), wk =   0.1111111
        k(   11) = (   0.0612243   0.0353479   0.0000000), wk =   0.1111111
        k(   12) = (   0.0612243   0.0706957   0.0000000), wk =   0.1111111
        k(   13) = (   0.0612243   0.1060436   0.0000000), wk =   0.1111111
        k(   14) = (   0.0612243  -0.0706957   0.0000000), wk =   0.1111111
        k(   15) = (   0.0612243  -0.0353479   0.0000000), wk =   0.1111111
        k(   16) = (   0.0612243  -0.0000000   0.0000000), wk =   0.1111111
        k(   17) = (  -0.0918364  -0.0530218   0.0000000), wk =   0.0555556
        k(   18) = (  -0.0918364  -0.0176739   0.0000000), wk =   0.1111111
        k(   19) = (  -0.0918364   0.0176739   0.0000000), wk =   0.1111111
        k(   20) = (  -0.0918364  -0.1590654   0.0000000), wk =   0.0555556

     Largest allocated arrays     est. size (Mb)     dimensions
     Largest temporary arrays     est. size (Mb)     dimensions

     Initial potential from superposition of free atoms
     Check: negative starting charge=   -0.864627

     starting charge  176.99900, renormalised to  183.00000

     negative rho (up, down):  8.939E-01 0.000E+00

     *
     * You are using vdW-DF for exchange-correlation in this calculation.
     * Please cite the following three references that made this development
     * possible:
     *
     *   M. Dion, H. Rydberg, E. Schroder, D. C. Langreth, and
     *   B. I. Lundqvist, Phys. Rev. Lett. 92, 246401 (2004).
     *
     *   T. Thonhauser, V. R. Cooper, S. Li, A. Puzder, P. Hyldgaard, and
     *   D. C. Langreth, Phys. Rev. B 76, 125112 (2007).
     *
     *   G. Roman-Perez and J. M. Soler, Phys. Rev. Lett. 103, 096102 (2009).
     *
     *
     * If you are using vdW-DF2, please also cite:
     *
     *   K. Lee, E. D. Murray, L. Kong, B. I. Lundqvist, and
     *   D. C. Langreth, Phys. Rev. B 82, 081101(R) (2010).
     *
     *
     * If you are calculating the stress with vdW-DF, please also cite:
     *
     *   R. Sabatini, E. Kucukbenli, B. Kolb, T. Thonhauser, and
     *   S. de Gironcoli, J. Phys.: Condens. Matter 24, 424209 (2012).
     *

     Carrying out vdW-DF run using the following parameters:

     Nqs =      20    Nr_points =    1024   r_max =   100.000
     q_mesh =
               0.00001000     0.04494208     0.09755937     0.15916263
               0.23128650     0.31572767     0.41458969     0.53033537
               0.66584808     0.82450364     1.01025438     1.22772762
               1.48234092     1.78043706     2.12944203     2.53805004
               3.01644009     3.57652955     4.23227104     5.00000000

     Gradients computed in reciprocal space

     Adding external electric field

     Computed dipole along edir(3) :
        Dipole               -0.0000 Ry au,         -0.0000 Debye
        Dipole field         -0.0000 Ry au

        Potential amp.        0.0000 Ry
        Total length         45.0402 bohr

     Starting wfc are  147 randomized atomic wfcs

     Self-consistent Calculation

     iteration #  1     ecut=    36.75 Ry     beta=0.10
     Davidson diagonalization with overlap
     ethr =  1.00E-02,  avg # of iterations =  7.7

[...]

     total energy              =   -2149.33883735 Ry
     Harris-Foulkes estimate   =   -2150.57886588 Ry
     estimated scf accuracy    <       7.60966977 Ry

[...]

     End of self-consistent calculation

          k = 0.0000 0.0000 0.0000 ( 15845 PWs)   bands (ev):

   -85.0121 -84.5156 -84.5155 -45.2269 -45.1325 -45.1325 -45.0389 -44.9920
   -44.9919 -44.8370 -44.7962 -44.7851 -44.7851 -44.7550 -44.7534 -44.7534
   -44.6853 -44.6853 -44.4917 -44.4840 -44.4471 -44.4315 -44.3920 -44.3920
   -44.3915 -44.3915 -44.3253 -44.3253 -44.3168 -44.3168 -44.1687 -44.1281
   -44.1281 -43.7326 -43.7158 -43.7158 -43.7097 -43.7097 -43.7008  -5.6322
    -4.0983  -4.0772  -3.8614  -3.8614  -3.7113  -3.4818  -3.4818  -3.4696
    -3.2280  -3.2280  -3.2124  -2.9098  -2.9098  -2.8145  -1.7498  -1.7498
    -1.6259  -1.2208  -1.2208  -1.1699  -0.9942  -0.8847  -0.8847  -0.6312
    -0.5455  -0.5299  -0.5299  -0.3956  -0.3956  -0.2834  -0.2834   0.2135
     0.2135   0.3820   0.8849   1.1300   1.1300   1.1398   1.1398   1.1536
     1.1536   1.4692   1.5522   1.9805   1.9805   2.0048   2.1366   2.1366
     2.3951   2.5894   2.5894   2.7470   2.7609   2.7840   2.7840   2.8108
     2.8816   3.1282   3.1282   3.4786   3.4786   3.6240   3.6240   3.8413
     3.8413   4.1152   5.8072   5.8072   5.8457   5.8457   6.0244   6.0947
     6.5239   6.7364   7.2212   8.1282   8.8691   9.0897   9.2543   9.7487
     9.7487

[...]

          k =-0.0918-0.0530 0.0000 ( 15968 PWs)   bands (ev):

[...]

     the Fermi energy is     1.9683 ev

!    total energy              =   -2149.04220441 Ry
     Harris-Foulkes estimate   =   -2149.04219788 Ry
     estimated scf accuracy    <       0.00000073 Ry

     The total energy is the sum of the following terms:

     one-electron contribution =  -19516.50976784 Ry
     hartree contribution      =    9783.52142890 Ry
     xc contribution           =    -394.91531987 Ry
     ewald contribution        =    7978.96325404 Ry
     electric field correction =       0.00000000 Ry
     smearing contrib. (-TS)   =      -0.10179965 Ry

     convergence has been achieved in  15 iterations

 BEEF-vdW xc energy contributions
           1 :   -344.616065242205
           2 :    317.384213171249
           3 :   -269.962771989051
           4 :    213.702190710191
           5 :   -160.305271898314
           6 :    118.282164585633
           7 :   -90.9976721423845
           8 :    76.7568193250109
[...]
     Using radial grid of  969 points,  7 beta functions with:
                l(1) =   0
                l(2) =   0
                l(3) =   1
                l(4) =   1
                l(5) =   2
                l(6) =   2
                l(7) =   2
     Q(r) pseudized with  8 coefficients,  rinner =    1.200   1.200   1.200
                                                       1.200   1.200

     PseudoPot. # 2 for Os read from file:
     /afs/slac.stanford.edu/u/if/mamunm/psp/gbrv1.5pbe/Os.UPF
     MD5 check sum: a3fb40a04f0c37c25c34bbc47164c9a8
     Pseudo is Ultrasoft + core correction, Zval = 16.0
     Generated by new atomic code, or converted to UPF format
     Using radial grid of  983 points,  8 beta functions with:
                l(1) =   0
                l(2) =   0
                l(3) =   1
                l(4) =   1
                l(5) =   2
                l(6) =   2
                l(7) =   3
                l(8) =   3
     Q(r) pseudized with  8 coefficients,  rinner =    1.150   1.150   1.150
                                                       1.150   1.150   1.150
                                                       1.150

     vdW kernel table read from file vdW_kernel_table
     MD5 check sum: 095c7af220d748ca6e76c0b4c6cfb241

     atomic species   valence    mass     pseudopotential
        Rh1           15.00   102.90550     Rh( 1.00)
        Os1           16.00   190.23000     Os( 1.00)

     No symmetry found

   Cartesian axes

     site n.     atom                  positions (alat units)
         1           Rh1 tau(   1) = (   0.0000000   0.0000000  10.0000000  )
         2           Rh1 tau(   2) = (  -1.3611157   2.3575216  10.0000000  )
         3           Rh1 tau(   3) = (   1.3611157   2.3575216  10.0000000  )
         4           Os1 tau(   4) = (   2.7222314   0.0000000  10.0000000  )
         5           Rh1 tau(   5) = (   2.7222314   1.5716811  12.2226927  )
         6           Rh1 tau(   6) = (   1.3611157   3.9292027  12.2226927  )
         7           Rh1 tau(   7) = (  -1.3611157   3.9292027  12.2226927  )
         8           Os1 tau(   8) = (   0.0000000   1.5716811  12.2226927  )
         9           Rh1 tau(   9) = (   0.0000008   3.1113675  14.3902271  )
        10           Rh1 tau(  10) = (   1.3334077   0.8018374  14.3902269  )
        11           Rh1 tau(  11) = (   4.1110552   0.8018379  14.3902278  )
        12           Os1 tau(  12) = (   2.7222279   3.1433566  14.3572635  )

     number of k points=    20  Fermi-Dirac smearing, width (Ry)=  0.0110
                       cart. coord. in units 2pi/alat
        k(    1) = (   0.0000000   0.0000000   0.0000000), wk =   0.0555556
        k(    2) = (   0.0000000   0.0353479   0.0000000), wk =   0.1111111
        k(    3) = (   0.0000000   0.0706957   0.0000000), wk =   0.1111111
        k(    4) = (   0.0000000  -0.1060436   0.0000000), wk =   0.0555556
        k(    5) = (   0.0306121   0.0176739   0.0000000), wk =   0.1111111
        k(    6) = (   0.0306121   0.0530218   0.0000000), wk =   0.1111111
        k(    7) = (   0.0306121   0.0883696   0.0000000), wk =   0.1111111
        k(    8) = (   0.0306121  -0.0883696   0.0000000), wk =   0.1111111
        k(    9) = (   0.0306121  -0.0530218   0.0000000), wk =   0.1111111
        k(   10) = (   0.0306121  -0.0176739   0.0000000), wk =   0.1111111
        k(   11) = (   0.0612243   0.0353479   0.0000000), wk =   0.1111111
        k(   12) = (   0.0612243   0.0706957   0.0000000), wk =   0.1111111
        k(   13) = (   0.0612243   0.1060436   0.0000000), wk =   0.1111111
        k(   14) = (   0.0612243  -0.0706957   0.0000000), wk =   0.1111111
        k(   15) = (   0.0612243  -0.0353479   0.0000000), wk =   0.1111111
        k(   16) = (   0.0612243  -0.0000000   0.0000000), wk =   0.1111111
        k(   17) = (  -0.0918364  -0.0530218   0.0000000), wk =   0.0555556
        k(   18) = (  -0.0918364  -0.0176739   0.0000000), wk =   0.1111111
        k(   19) = (  -0.0918364   0.0176739   0.0000000), wk =   0.1111111
        k(   20) = (  -0.0918364  -0.1590654   0.0000000), wk =   0.0555556

     Largest allocated arrays     est. size (Mb)     dimensions
     Largest temporary arrays     est. size (Mb)     dimensions

     Initial potential from superposition of free atoms
     Check: negative starting charge=   -0.863781

     starting charge  176.99900, renormalised to  183.00000

[...]

     *
     * You are using vdW-DF for exchange-correlation in this calculation.
     * Please cite the following three references that made this development
     * possible:
     *
     *   M. Dion, H. Rydberg, E. Schroder, D. C. Langreth, and
     *   B. I. Lundqvist, Phys. Rev. Lett. 92, 246401 (2004).
     *
     *   T. Thonhauser, V. R. Cooper, S. Li, A. Puzder, P. Hyldgaard, and
     *   D. C. Langreth, Phys. Rev. B 76, 125112 (2007).
     *
     *   G. Roman-Perez and J. M. Soler, Phys. Rev. Lett. 103, 096102 (2009).
     *
     *
     * If you are using vdW-DF2, please also cite:
     *
     *   K. Lee, E. D. Murray, L. Kong, B. I. Lundqvist, and
     *   D. C. Langreth, Phys. Rev. B 82, 081101(R) (2010).
     *
     *
     * If you are calculating the stress with vdW-DF, please also cite:
     *
     *   R. Sabatini, E. Kucukbenli, B. Kolb, T. Thonhauser, and
     *   S. de Gironcoli, J. Phys.: Condens. Matter 24, 424209 (2012).
     *

     Carrying out vdW-DF run using the following parameters:

     Nqs =      20    Nr_points =    1024   r_max =   100.000
     q_mesh =
               0.00001000     0.04494208     0.09755937     0.15916263
               0.23128650     0.31572767     0.41458969     0.53033537
               0.66584808     0.82450364     1.01025438     1.22772762
               1.48234092     1.78043706     2.12944203     2.53805004
               3.01644009     3.57652955     4.23227104     5.00000000

     Gradients computed in reciprocal space

[...]

     Starting wfc are  147 randomized atomic wfcs

     Self-consistent Calculation

[...]

     total energy              =   -2149.04884655 Ry
     Harris-Foulkes estimate   =   -2149.04884599 Ry
     estimated scf accuracy    <       0.00000927 Ry

     iteration # 15     ecut=    36.75 Ry     beta=0.10
     Davidson diagonalization with overlap
     ethr =  5.06E-09,  avg # of iterations =  2.0

[...]

     negative rho (up, down):  8.911E-01 0.000E+00

     Adding external electric field

     Computed dipole along edir(3) :
        Dipole                0.0063 Ry au,          0.0160 Debye
        Dipole field          0.0000 Ry au

        Potential amp.       -0.0017 Ry
        Total length         45.0402 bohr

     End of self-consistent calculation

[...]

          k = 0.0612-0.0000 0.0000 ( 15922 PWs)   bands (ev):

[...]

          k =-0.0918-0.1591 0.0000 ( 15968 PWs)   bands (ev):

   -85.0302 -84.5529 -84.4613 -45.1725 -45.0690 -45.0580 -45.0389 -45.0333
   -44.9928 -44.9715 -44.9576 -44.8061 -44.7681 -44.6890 -44.6655 -44.6461
   -44.6020 -44.5741 -44.5603 -44.5439 -44.5299 -44.4981 -44.4645 -44.4511
   -44.4405 -44.3792 -44.3667 -44.3598 -44.3414 -44.2961 -44.1899 -44.1611
   -44.1506 -43.8154 -43.7676 -43.7657 -43.7300 -43.6843 -43.6572  -4.2687
    -3.9155  -3.1359  -3.1093  -3.0681  -2.9179  -2.8777  -2.7310  -2.6755
    -2.5636  -2.4520  -2.3933  -2.2018  -2.0645  -2.0395  -1.9758  -1.6616
    -1.6378  -1.6226  -1.5083  -1.3834  -1.2954  -0.9650  -0.8705  -0.6303
    -0.5807  -0.5749  -0.4906  -0.4031  -0.3763  -0.2790  -0.2154  -0.1862
    -0.1772  -0.1667  -0.1446  -0.1399  -0.0705  -0.0001   0.0454   0.3222
     0.4766   0.5993   0.8197   0.8773   0.8899   0.9845   1.0298   1.2386
     1.3837   1.4290   1.4842   1.5987   1.7763   1.8430   1.9199   2.0218
     2.2340   2.2970   2.4763   2.6126   2.8243   2.8814   3.3793   4.4354
     4.5244   4.9957   5.7122   5.9577   6.3663   6.7490   6.9093   8.0054
     8.0694   8.1374   8.1723   8.7631   8.7957   8.8736   8.8815   9.9873
    10.0003

     the Fermi energy is     1.9927 ev

!    total energy              =   -2149.04885253 Ry
     Harris-Foulkes estimate   =   -2149.04884789 Ry
     estimated scf accuracy    <       0.00000086 Ry

     The total energy is the sum of the following terms:

     one-electron contribution =  -19695.00718015 Ry
     hartree contribution      =    9872.68307335 Ry
     xc contribution           =    -395.04702060 Ry
     ewald contribution        =    8068.42213574 Ry
     electric field correction =       0.00000012 Ry
     smearing contrib. (-TS)   =      -0.09986099 Ry

     convergence has been achieved in  15 iterations

 BEEF-vdW xc energy contributions
           1 :   -344.754487104638
           2 :    317.586936291375
           3 :   -270.253426369638
           4 :    214.045109233938
           5 :   -160.619035479895
           6 :    118.479444292004
           7 :   -91.0310673320895
           8 :    76.6466273209949
           9 :   -70.4291757077818
          10 :    66.7499488444975
          11 :   -61.4829894739556
          12 :    53.1400010671338
          13 :   -42.6918099261036
          14 :    32.4261541612557
          15 :   -24.5216566423553
          16 :    19.9965399871913
          17 :   -18.4076351369933
          18 :    18.2822438835147
          19 :   -17.9580281746354
          20 :    16.3741055590073
          21 :   -13.4483338566246
          22 :    9.92453881706962
          23 :   -6.85046110329444
          24 :    4.99472765049717
          25 :   -4.49078968574037
          26 :    4.84365683930167
          27 :   -5.25066141032534
          28 :    5.04110166426631
          29 :   -4.00089389925756
          30 :    2.42744046162716
          31 :   -33.6158749945153
          32 :   -25.3567088338489

     Forces acting on atoms (Ry/au):

     negative rho (up, down):  8.911E-01 0.000E+00
     atom    1 type  1   force =    -0.00000024    0.01664421    0.01192722
     atom    2 type  1   force =     0.01441513   -0.00832338    0.01192586
     atom    3 type  1   force =    -0.01441521   -0.00832295    0.01192610
     atom    4 type  2   force =    -0.00000300    0.00000196    0.02346103
     atom    5 type  1   force =     0.00000066   -0.00237783   -0.01437541
     atom    6 type  1   force =    -0.00205789    0.00118820   -0.01437478
     atom    7 type  1   force =     0.00205718    0.00118747   -0.01437488
     atom    8 type  2   force =     0.00000351    0.00000247   -0.01587648
     atom    9 type  1   force =    -0.00000041   -0.00013243   -0.00017505
     atom   10 type  1   force =    -0.00011403    0.00006475   -0.00017533
     atom   11 type  1   force =     0.00011447    0.00006556   -0.00017633
     atom   12 type  2   force =    -0.00000014    0.00000196    0.00028805

     Total force =     0.051937     Total SCF correction =     0.006911
     SCF correction compared to forces is large: reduce conv_thr to get better values

     entering subroutine stress ...

     negative rho (up, down):  8.911E-01 0.000E+00
          total   stress  (Ry/bohr**3)                   (kbar)     P=  -35.34
  -0.00026891   0.00000000  -0.00000000        -39.56      0.00     -0.00
   0.00000000  -0.00026891   0.00000000          0.00    -39.56      0.00
  -0.00000000   0.00000000  -0.00018286         -0.00      0.00    -26.90

 !ASE

     Writing output data file calc.save

     General routines

     Parallel routines

   This run was terminated on:   0: 3:30   1Jan2019

   JOB DONE.
Job  /afs/slac/g/suncat/bin/suncat-tsmpirun -x LD_LIBRARY_PATH -wdir /scratch/qe648891_z8QwD pw.x -in pw.inp

TID   HOST_NAME   COMMAND_LINE            STATUS            TERMINATION_TIME
00000 suncat0146 pw.x -in pw.inp   Done                     01/01/2019 00:03:30
00001 suncat0146 pw.x -in pw.inp   Done                     01/01/2019 00:03:30
00002 suncat0146 pw.x -in pw.inp   Done                     01/01/2019 00:03:30
00003 suncat0146 pw.x -in pw.inp   Done                     01/01/2019 00:03:30
00004 suncat0146 pw.x -in pw.inp   Done                     01/01/2019 00:03:30
00005 suncat0146 pw.x -in pw.inp   Done                     01/01/2019 00:03:30
00006 suncat0146 pw.x -in pw.inp   Done                     01/01/2019 00:03:30
00007 suncat0146 pw.x -in pw.inp   Done                     01/01/2019 00:03:30
00008 suncat0136 pw.x -in pw.inp   Done                     01/01/2019 00:03:30
00009 suncat0136 pw.x -in pw.inp   Done                     01/01/2019 00:03:30
00010 suncat0136 pw.x -in pw.inp   Done                     01/01/2019 00:03:30
00011 suncat0136 pw.x -in pw.inp   Done                     01/01/2019 00:03:30
00012 suncat0136 pw.x -in pw.inp   Done                     01/01/2019 00:03:30
00013 suncat0136 pw.x -in pw.inp   Done                     01/01/2019 00:03:30
00014 suncat0136 pw.x -in pw.inp   Done                     01/01/2019 00:03:30
00015 suncat0136 pw.x -in pw.inp   Done                     01/01/2019 00:03:30
00016 suncat0248 pw.x -in pw.inp   Done                     01/01/2019 00:03:30
00017 suncat0248 pw.x -in pw.inp   Done                     01/01/2019 00:03:30
00018 suncat0248 pw.x -in pw.inp   Done                     01/01/2019 00:03:30
00019 suncat0248 pw.x -in pw.inp   Done                     01/01/2019 00:03:30
00020 suncat0248 pw.x -in pw.inp   Done                     01/01/2019 00:03:30
00021 suncat0248 pw.x -in pw.inp   Done                     01/01/2019 00:03:30
00022 suncat0248 pw.x -in pw.inp   Done                     01/01/2019 00:03:30
00023 suncat0248 pw.x -in pw.inp   Done                     01/01/2019 00:03:30
00024 suncat0247 pw.x -in pw.inp   Done                     01/01/2019 00:03:30
00025 suncat0247 pw.x -in pw.inp   Done                     01/01/2019 00:03:30
00026 suncat0247 pw.x -in pw.inp   Done                     01/01/2019 00:03:30
00027 suncat0247 pw.x -in pw.inp   Done                     01/01/2019 00:03:30
00028 suncat0247 pw.x -in pw.inp   Done                     01/01/2019 00:03:30
00029 suncat0247 pw.x -in pw.inp   Done                     01/01/2019 00:03:30
00030 suncat0247 pw.x -in pw.inp   Done                     01/01/2019 00:03:30
00031 suncat0247 pw.x -in pw.inp   Done                     01/01/2019 00:03:30
00032 suncat0246 pw.x -in pw.inp   Done                     01/01/2019 00:03:30
00033 suncat0246 pw.x -in pw.inp   Done                     01/01/2019 00:03:30
00034 suncat0246 pw.x -in pw.inp   Done                     01/01/2019 00:03:30
00035 suncat0246 pw.x -in pw.inp   Done                     01/01/2019 00:03:30
00036 suncat0246 pw.x -in pw.inp   Done                     01/01/2019 00:03:30
00037 suncat0246 pw.x -in pw.inp   Done                     01/01/2019 00:03:30
00038 suncat0246 pw.x -in pw.inp   Done                     01/01/2019 00:03:30
00039 suncat0246 pw.x -in pw.inp   Done                     01/01/2019 00:03:30
00040 suncat0245 pw.x -in pw.inp   Done                     01/01/2019 00:03:30
00041 suncat0245 pw.x -in pw.inp   Done                     01/01/2019 00:03:30
00042 suncat0245 pw.x -in pw.inp   Done                     01/01/2019 00:03:30
00043 suncat0245 pw.x -in pw.inp   Done                     01/01/2019 00:03:30
00044 suncat0245 pw.x -in pw.inp   Done                     01/01/2019 00:03:30
00045 suncat0245 pw.x -in pw.inp   Done                     01/01/2019 00:03:30
00046 suncat0245 pw.x -in pw.inp   Done                     01/01/2019 00:03:30
00047 suncat0245 pw.x -in pw.inp   Done                     01/01/2019 00:03:30
00048 suncat0214 pw.x -in pw.inp   Done                     01/01/2019 00:03:30
00049 suncat0214 pw.x -in pw.inp   Done                     01/01/2019 00:03:30
00050 suncat0214 pw.x -in pw.inp   Done                     01/01/2019 00:03:30
00051 suncat0214 pw.x -in pw.inp   Done                     01/01/2019 00:03:30
00052 suncat0214 pw.x -in pw.inp   Done                     01/01/2019 00:03:30
00053 suncat0214 pw.x -in pw.inp   Done                     01/01/2019 00:03:30
00054 suncat0214 pw.x -in pw.inp   Done                     01/01/2019 00:03:30
00055 suncat0214 pw.x -in pw.inp   Done                     01/01/2019 00:03:30
00056 suncat0213 pw.x -in pw.inp   Done                     01/01/2019 00:03:30
00057 suncat0213 pw.x -in pw.inp   Done                     01/01/2019 00:03:30
00058 suncat0213 pw.x -in pw.inp   Done                     01/01/2019 00:03:30
00059 suncat0213 pw.x -in pw.inp   Done                     01/01/2019 00:03:30
00060 suncat0213 pw.x -in pw.inp   Done                     01/01/2019 00:03:30
00061 suncat0213 pw.x -in pw.inp   Done                     01/01/2019 00:03:30
00062 suncat0213 pw.x -in pw.inp   Done                     01/01/2019 00:03:30
00063 suncat0213 pw.x -in pw.inp   Done                     01/01/2019 00:03:30