     Program PWSCF v.5.1rc2 (svn rev. 11289) starts on 27Dec2018 at 14:17:12

     Current dimensions of program PWSCF are:
     Max number of different atomic species (ntypx) = 10
     Max number of k-points (npk) =  40000
     Max angular momentum in pseudopotentials (lmaxx) =  3
     Presently stress not available with electric field

     IMPORTANT: XC functional enforced from input :
     Exchange-correlation      = BEEF-VDW ( 1  4 27 13 2)
     Any further DFT definition will be discarded
     Please, verify this is what you really want

     Subspace diagonalization in iterative solution of the eigenvalue problem:
     a serial algorithm will be used

     bravais-lattice index     =            0
     lattice parameter (alat)  =       1.8897  a.u.
     unit-cell volume          =    4269.9806 (a.u.)^3
     number of atoms/cell      =           12
     number of atomic types    =            2
     number of electrons       =       189.00
     number of Kohn-Sham states=          124
     kinetic-energy cutoff     =      36.7493  Ry
     charge density cutoff     =     367.4932  Ry
     convergence threshold     =      1.0E-06
     mixing beta               =       0.1000
     number of iterations used =           10  plain     mixing
     Exchange-correlation      = BEEF-VDW ( 1  4 27 13 2)
     nstep                     =           50

     celldm(1)=   1.889726  celldm(2)=   0.000000  celldm(3)=   0.000000
     celldm(4)=   0.000000  celldm(5)=   0.000000  celldm(6)=   0.000000

     crystal axes: (cart. coord. in units of alat)
               a(1) = (   5.465136   0.000000   0.000000 )
               a(2) = (  -2.732568   4.732947   0.000000 )
               a(3) = (   0.000000   0.000000  24.462265 )

     reciprocal axes: (cart. coord. in units 2 pi/alat)
               b(1) = (  0.182978  0.105642  0.000000 )
               b(2) = (  0.000000  0.211285  0.000000 )
               b(3) = (  0.000000  0.000000  0.040879 )

     PseudoPot. # 1 for Os read from file:
     /afs/slac.stanford.edu/u/if/mamunm/psp/gbrv1.5pbe/Os.UPF
     MD5 check sum: a3fb40a04f0c37c25c34bbc47164c9a8
     Pseudo is Ultrasoft + core correction, Zval = 16.0
     Generated by new atomic code, or converted to UPF format
     Using radial grid of  983 points,  8 beta functions with:
                l(1) =   0
                l(2) =   0
                l(3) =   1
                l(4) =   1
                l(5) =   2
                l(6) =   2
                l(7) =   3
                l(8) =   3
     Q(r) pseudized with  8 coefficients,  rinner =    1.150   1.150   1.150
                                                       1.150   1.150   1.150
                                                       1.150

     PseudoPot. # 2 for Tc read from file:
     /afs/slac.stanford.edu/u/if/mamunm/psp/gbrv1.5pbe/Tc.UPF
     MD5 check sum: 9eb49e5b028550b2339a02317eb7b844
     Pseudo is Ultrasoft + core correction, Zval = 15.0
     Generated by new atomic code, or converted to UPF format
     Using radial grid of  965 points,  6 beta functions with:
                l(1) =   0
                l(2) =   0
                l(3) =   1
                l(4) =   1
                l(5) =   2
                l(6) =   2
     Q(r) pseudized with  8 coefficients,  rinner =    1.300   1.300   1.300
                                                       1.300   1.300

     vdW kernel table read from file vdW_kernel_table
     MD5 check sum: 095c7af220d748ca6e76c0b4c6cfb241

     atomic species   valence    mass     pseudopotential
        Os1           16.00   190.23000     Os( 1.00)
        Tc1           15.00    97.90721     Tc( 1.00)

     No symmetry found

   Cartesian axes

     site n.     atom                  positions (alat units)
         1           Os1 tau(   1) = (   0.0000000   0.0000000  10.0000000  )
         2           Os1 tau(   2) = (  -1.3662841   2.3664735  10.0000000  )
         3           Os1 tau(   3) = (   1.3662841   2.3664735  10.0000000  )
         4           Tc1 tau(   4) = (   2.7325682   0.0000000  10.0000000  )
         5           Os1 tau(   5) = (   2.7325682   1.5776490  12.2311326  )
         6           Os1 tau(   6) = (   1.3662841   3.9441224  12.2311326  )
         7           Os1 tau(   7) = (  -1.3662841   3.9441224  12.2311326  )
         8           Tc1 tau(   8) = (   0.0000000   1.5776490  12.2311326  )
         9           Os1 tau(   9) = (  -0.0000000   3.1552979  14.4622651  )
        10           Os1 tau(  10) = (   1.3662841   0.7888245  14.4622651  )
        11           Os1 tau(  11) = (   4.0988523   0.7888245  14.4622651  )
        12           Tc1 tau(  12) = (   2.7325682   3.1552979  14.4622651  )

     number of k points=    20  Fermi-Dirac smearing, width (Ry)=  0.0110
                       cart. coord. in units 2pi/alat
        k(    1) = (   0.0000000   0.0000000   0.0000000), wk =   0.0555556
        k(    2) = (   0.0000000   0.0352141   0.0000000), wk =   0.1111111
        k(    3) = (   0.0000000   0.0704283   0.0000000), wk =   0.1111111
        k(    4) = (   0.0000000  -0.1056424   0.0000000), wk =   0.0555556
        k(    5) = (   0.0304963   0.0176071   0.0000000), wk =   0.1111111
        k(    6) = (   0.0304963   0.0528212   0.0000000), wk =   0.1111111
        k(    7) = (   0.0304963   0.0880354   0.0000000), wk =   0.1111111
        k(    8) = (   0.0304963  -0.0880354   0.0000000), wk =   0.1111111
        k(    9) = (   0.0304963  -0.0528212   0.0000000), wk =   0.1111111
        k(   10) = (   0.0304963  -0.0176071   0.0000000), wk =   0.1111111
        k(   11) = (   0.0609927   0.0352141   0.0000000), wk =   0.1111111
        k(   12) = (   0.0609927   0.0704283   0.0000000), wk =   0.1111111
        k(   13) = (   0.0609927   0.1056424   0.0000000), wk =   0.1111111
        k(   14) = (   0.0609927  -0.0704283   0.0000000), wk =   0.1111111
        k(   15) = (   0.0609927  -0.0352141   0.0000000), wk =   0.1111111
        k(   16) = (   0.0609927   0.0000000   0.0000000), wk =   0.1111111
        k(   17) = (  -0.0914890  -0.0528212   0.0000000), wk =   0.0555556
        k(   18) = (  -0.0914890  -0.0176071   0.0000000), wk =   0.1111111
        k(   19) = (  -0.0914890   0.0176071   0.0000000), wk =   0.1111111
        k(   20) = (  -0.0914890  -0.1584636   0.0000000), wk =   0.0555556

     Largest allocated arrays     est. size (Mb)     dimensions
     Largest temporary arrays     est. size (Mb)     dimensions

     Check: negative/imaginary core charge=   -0.000008    0.000000

     Initial potential from superposition of free atoms
     Check: negative starting charge=   -1.496453

     starting charge  181.49959, renormalised to  189.00000

     negative rho (up, down):  1.558E+00 0.000E+00

     *
     * You are using vdW-DF for exchange-correlation in this calculation.
     * Please cite the following three references that made this development
     * possible:
     *
     *   M. Dion, H. Rydberg, E. Schroder, D. C. Langreth, and
     *   B. I. Lundqvist, Phys. Rev. Lett. 92, 246401 (2004).
     *
     *   T. Thonhauser, V. R. Cooper, S. Li, A. Puzder, P. Hyldgaard, and
     *   D. C. Langreth, Phys. Rev. B 76, 125112 (2007).
     *
     *   G. Roman-Perez and J. M. Soler, Phys. Rev. Lett. 103, 096102 (2009).
     *
     *
     * If you are using vdW-DF2, please also cite:
     *
     *   K. Lee, E. D. Murray, L. Kong, B. I. Lundqvist, and
     *   D. C. Langreth, Phys. Rev. B 82, 081101(R) (2010).
     *
     *
     * If you are calculating the stress with vdW-DF, please also cite:
     *
     *   R. Sabatini, E. Kucukbenli, B. Kolb, T. Thonhauser, and
     *   S. de Gironcoli, J. Phys.: Condens. Matter 24, 424209 (2012).
     *

     Carrying out vdW-DF run using the following parameters:

     Nqs =      20    Nr_points =    1024   r_max =   100.000
     q_mesh =
               0.00001000     0.04494208     0.09755937     0.15916263
               0.23128650     0.31572767     0.41458969     0.53033537
               0.66584808     0.82450364     1.01025438     1.22772762
               1.48234092     1.78043706     2.12944203     2.53805004
               3.01644009     3.57652955     4.23227104     5.00000000

     Gradients computed in reciprocal space

     Adding external electric field

     Computed dipole along edir(3) :
        Dipole                0.0000 Ry au,          0.0000 Debye
        Dipole field          0.0000 Ry au

        Potential amp.       -0.0000 Ry
        Total length         45.0713 bohr

     Starting wfc are  156 randomized atomic wfcs

     Self-consistent Calculation

     iteration #  1     ecut=    36.75 Ry     beta=0.10
     Davidson diagonalization with overlap
     ethr =  1.00E-02,  avg # of iterations =  9.2

[...]

     total energy              =   -2324.58519323 Ry
     Harris-Foulkes estimate   =   -2325.18179483 Ry
     estimated scf accuracy    <       4.03905498 Ry

[...]

     End of self-consistent calculation

          k = 0.0000 0.0000 0.0000 ( 15989 PWs)   bands (ev):

   -84.1966 -84.1538 -84.1538 -83.6952 -83.6944 -83.6532 -83.6532 -83.6529
   -83.6529 -64.7464 -64.3571 -64.3568 -43.8381 -43.6296 -43.6296 -43.5939
   -43.4874 -43.4874 -43.3179 -43.2927 -43.2693 -43.1683 -43.1683 -43.0860
   -43.0860 -43.0246 -43.0246 -42.9789 -42.9063 -42.9063 -42.8886 -42.8530
   -42.8530 -42.7481 -42.7365 -42.6642 -42.6642 -42.6623 -42.6623 -36.7325
   -36.7218 -36.7218 -36.3802 -36.3627 -36.3154 -36.3154 -36.3111 -36.3111
    -6.1462  -4.2811  -4.0072  -3.6730  -3.6730  -3.5607  -3.3475  -3.3475
    -3.0621  -2.7835  -2.7835  -2.7372  -2.4840  -2.4840  -2.3472  -1.1517
    -0.9574  -0.9574  -0.2873  -0.2873  -0.2445   0.0192   0.0860   0.2492
     0.2492   0.5874   0.7238   0.7238   0.8623   0.8623   1.0132   1.0132
     1.0679   1.0679   1.4509   2.0095   2.5653   2.5653   2.5961   2.5967
     2.7365   2.7365   2.9546   2.9546   3.2837   3.6601   3.6601   4.0905
     4.0905   4.3125   4.3349   4.4558   4.5250   4.5250   4.5856   4.5856
     4.7182   4.7182   5.1699   5.2151   5.2151   5.7073   5.7140   5.7140
     5.7840   5.7898   5.7898   6.7163   6.8053   6.8053   7.0528   7.2539
     7.2980   7.4044   7.4044   7.7057

[...]

          k =-0.0915-0.0528 0.0000 ( 16080 PWs)   bands (ev):

[...]

     the Fermi energy is     2.7572 ev

!    total energy              =   -2323.80759821 Ry
     Harris-Foulkes estimate   =   -2323.80758622 Ry
     estimated scf accuracy    <       0.00000091 Ry

     The total energy is the sum of the following terms:

     one-electron contribution =  -20572.87240785 Ry
     hartree contribution      =   10272.05760575 Ry
     xc contribution           =    -447.25413084 Ry
     ewald contribution        =    8424.33924303 Ry
     electric field correction =       0.00000000 Ry
     smearing contrib. (-TS)   =      -0.07790829 Ry

     convergence has been achieved in  15 iterations

 BEEF-vdW xc energy contributions
           1 :   -391.925851799797
           2 :    362.613937416878
           3 :   -310.717875327921
           4 :    247.288693323187
           5 :   -184.279587145234
           6 :    131.217861131515
[...]
     Using radial grid of  983 points,  8 beta functions with:
                l(1) =   0
                l(2) =   0
                l(3) =   1
                l(4) =   1
                l(5) =   2
                l(6) =   2
                l(7) =   3
                l(8) =   3
     Q(r) pseudized with  8 coefficients,  rinner =    1.150   1.150   1.150
                                                       1.150   1.150   1.150
                                                       1.150

     PseudoPot. # 2 for Tc read from file:
     /afs/slac.stanford.edu/u/if/mamunm/psp/gbrv1.5pbe/Tc.UPF
     MD5 check sum: 9eb49e5b028550b2339a02317eb7b844
     Pseudo is Ultrasoft + core correction, Zval = 15.0
     Generated by new atomic code, or converted to UPF format
     Using radial grid of  965 points,  6 beta functions with:
                l(1) =   0
                l(2) =   0
                l(3) =   1
                l(4) =   1
                l(5) =   2
                l(6) =   2
     Q(r) pseudized with  8 coefficients,  rinner =    1.300   1.300   1.300
                                                       1.300   1.300

     vdW kernel table read from file vdW_kernel_table
     MD5 check sum: 095c7af220d748ca6e76c0b4c6cfb241

     atomic species   valence    mass     pseudopotential
        Os1           16.00   190.23000     Os( 1.00)
        Tc1           15.00    97.90721     Tc( 1.00)

     No symmetry found

   Cartesian axes

     site n.     atom                  positions (alat units)
         1           Os1 tau(   1) = (   0.0000000   0.0000000  10.0000000  )
         2           Os1 tau(   2) = (  -1.3662841   2.3664735  10.0000000  )
         3           Os1 tau(   3) = (   1.3662841   2.3664735  10.0000000  )
         4           Tc1 tau(   4) = (   2.7325682   0.0000000  10.0000000  )
         5           Os1 tau(   5) = (   2.7325682   1.5776490  12.2311326  )
         6           Os1 tau(   6) = (   1.3662841   3.9441224  12.2311326  )
         7           Os1 tau(   7) = (  -1.3662841   3.9441224  12.2311326  )
         8           Tc1 tau(   8) = (   0.0000000   1.5776490  12.2311326  )
         9           Os1 tau(   9) = (   0.0000034   3.1506341  14.3579321  )
        10           Os1 tau(  10) = (   1.3622462   0.7911581  14.3579361  )
        11           Os1 tau(  11) = (   4.1028913   0.7911569  14.3579344  )
        12           Tc1 tau(  12) = (   2.7325699   3.1552994  14.3680554  )

     number of k points=    20  Fermi-Dirac smearing, width (Ry)=  0.0110
                       cart. coord. in units 2pi/alat
        k(    1) = (   0.0000000   0.0000000   0.0000000), wk =   0.0555556
        k(    2) = (   0.0000000   0.0352141   0.0000000), wk =   0.1111111
        k(    3) = (   0.0000000   0.0704283   0.0000000), wk =   0.1111111
        k(    4) = (   0.0000000  -0.1056424   0.0000000), wk =   0.0555556
        k(    5) = (   0.0304963   0.0176071   0.0000000), wk =   0.1111111
        k(    6) = (   0.0304963   0.0528212   0.0000000), wk =   0.1111111
        k(    7) = (   0.0304963   0.0880354   0.0000000), wk =   0.1111111
        k(    8) = (   0.0304963  -0.0880354   0.0000000), wk =   0.1111111
        k(    9) = (   0.0304963  -0.0528212   0.0000000), wk =   0.1111111
        k(   10) = (   0.0304963  -0.0176071   0.0000000), wk =   0.1111111
        k(   11) = (   0.0609927   0.0352141   0.0000000), wk =   0.1111111
        k(   12) = (   0.0609927   0.0704283   0.0000000), wk =   0.1111111
        k(   13) = (   0.0609927   0.1056424   0.0000000), wk =   0.1111111
        k(   14) = (   0.0609927  -0.0704283   0.0000000), wk =   0.1111111
        k(   15) = (   0.0609927  -0.0352141   0.0000000), wk =   0.1111111
        k(   16) = (   0.0609927   0.0000000   0.0000000), wk =   0.1111111
        k(   17) = (  -0.0914890  -0.0528212   0.0000000), wk =   0.0555556
        k(   18) = (  -0.0914890  -0.0176071   0.0000000), wk =   0.1111111
        k(   19) = (  -0.0914890   0.0176071   0.0000000), wk =   0.1111111
        k(   20) = (  -0.0914890  -0.1584636   0.0000000), wk =   0.0555556

     Largest allocated arrays     est. size (Mb)     dimensions
     Largest temporary arrays     est. size (Mb)     dimensions

     Check: negative/imaginary core charge=   -0.000008    0.000000

     Initial potential from superposition of free atoms
     Check: negative starting charge=   -1.491977

     starting charge  181.49959, renormalised to  189.00000

[...]

     *
     * You are using vdW-DF for exchange-correlation in this calculation.
     * Please cite the following three references that made this development
     * possible:
     *
     *   M. Dion, H. Rydberg, E. Schroder, D. C. Langreth, and
     *   B. I. Lundqvist, Phys. Rev. Lett. 92, 246401 (2004).
     *
     *   T. Thonhauser, V. R. Cooper, S. Li, A. Puzder, P. Hyldgaard, and
     *   D. C. Langreth, Phys. Rev. B 76, 125112 (2007).
     *
     *   G. Roman-Perez and J. M. Soler, Phys. Rev. Lett. 103, 096102 (2009).
     *
     *
     * If you are using vdW-DF2, please also cite:
     *
     *   K. Lee, E. D. Murray, L. Kong, B. I. Lundqvist, and
     *   D. C. Langreth, Phys. Rev. B 82, 081101(R) (2010).
     *
     *
     * If you are calculating the stress with vdW-DF, please also cite:
     *
     *   R. Sabatini, E. Kucukbenli, B. Kolb, T. Thonhauser, and
     *   S. de Gironcoli, J. Phys.: Condens. Matter 24, 424209 (2012).
     *

     Carrying out vdW-DF run using the following parameters:

     Nqs =      20    Nr_points =    1024   r_max =   100.000
     q_mesh =
               0.00001000     0.04494208     0.09755937     0.15916263
               0.23128650     0.31572767     0.41458969     0.53033537
               0.66584808     0.82450364     1.01025438     1.22772762
               1.48234092     1.78043706     2.12944203     2.53805004
               3.01644009     3.57652955     4.23227104     5.00000000

     Gradients computed in reciprocal space

[...]

     Starting wfc are  156 randomized atomic wfcs

     Self-consistent Calculation

[...]

     total energy              =   -2323.82313764 Ry
     Harris-Foulkes estimate   =   -2323.82313529 Ry
     estimated scf accuracy    <       0.00000105 Ry

     iteration # 16     ecut=    36.75 Ry     beta=0.10
     Davidson diagonalization with overlap
     ethr =  5.57E-10,  avg # of iterations =  1.0

[...]

     negative rho (up, down):  1.529E+00 0.000E+00

     Adding external electric field

     Computed dipole along edir(3) :
        Dipole                0.0282 Ry au,          0.0717 Debye
        Dipole field          0.0001 Ry au

        Potential amp.       -0.0075 Ry
        Total length         45.0713 bohr

     End of self-consistent calculation

[...]

          k = 0.0610 0.0000 0.0000 ( 16086 PWs)   bands (ev):

[...]

          k =-0.0915-0.1585 0.0000 ( 16080 PWs)   bands (ev):

   -84.1892 -84.1747 -84.1603 -83.6880 -83.6740 -83.6602 -83.6137 -83.5997
   -83.5858 -64.7375 -64.3402 -64.2981 -43.7389 -43.5957 -43.5761 -43.5263
   -43.5038 -43.4881 -43.4529 -43.4408 -43.2069 -43.1792 -43.1045 -42.9683
   -42.9428 -42.9287 -42.9243 -42.9185 -42.8998 -42.8853 -42.8796 -42.8552
   -42.8417 -42.8369 -42.8143 -42.8008 -42.7973 -42.7004 -42.6201 -36.7503
   -36.7322 -36.7307 -36.3629 -36.3375 -36.3185 -36.3117 -36.2831 -36.2654
    -4.5421  -4.1877  -2.9099  -2.8994  -2.6715  -2.6292  -2.5472  -2.5293
    -2.4374  -2.1080  -1.9809  -1.8725  -1.6754  -1.4289  -1.3661  -1.3296
    -1.1674  -1.0441  -0.9401  -0.7578  -0.5356  -0.3720   0.0780   0.1083
     0.2567   0.3324   0.3849   0.4917   0.5137   0.5473   0.6275   0.6643
     0.7914   0.8748   0.9665   1.0270   1.0464   1.0516   1.0862   1.2554
     1.7900   1.9551   2.0374   2.2235   2.3193   2.3939   2.4979   2.7302
     2.8740   2.9790   3.1129   3.1769   3.2647   3.3045   3.4361   3.5834
     3.6946   3.8025   4.3786   4.4552   4.9779   4.9979   5.2471   5.3270
     5.8157   5.8613   7.2748   7.3232   7.7306   7.7439   7.9999   8.0274
     8.7161   8.7183   9.1430   9.2413

     the Fermi energy is     2.7793 ev

!    total energy              =   -2323.82314744 Ry
     Harris-Foulkes estimate   =   -2323.82313840 Ry
     estimated scf accuracy    <       0.00000081 Ry

     The total energy is the sum of the following terms:

     one-electron contribution =  -20874.48222332 Ry
     hartree contribution      =   10422.94055741 Ry
     xc contribution           =    -447.53897053 Ry
     ewald contribution        =    8575.33376209 Ry
     electric field correction =       0.00000234 Ry
     smearing contrib. (-TS)   =      -0.07627542 Ry

     convergence has been achieved in  16 iterations

 BEEF-vdW xc energy contributions
           1 :   -392.214145449691
           2 :    363.002284073916
           3 :   -311.248347021055
           4 :    247.915539262768
           5 :   -184.884218907410
           6 :    131.660958482655
           7 :   -93.2995887385893
           8 :    69.9676192799099
           9 :   -58.0872863153230
          10 :    52.3915239882319
          11 :   -48.0783350476570
          12 :    42.2932180721893
          13 :   -34.5771505996452
          14 :    26.3160996741902
          15 :   -19.6136470597227
          16 :    16.1114915450708
          17 :   -16.2318277056937
          18 :    19.0555543507055
          19 :   -22.7905881574872
          20 :    25.5419553924200
          21 :   -26.0315937223143
          22 :    23.9747426161343
          23 :   -20.0157923405508
          24 :    15.3112702000756
          25 :   -10.9902819120788
          26 :    7.72991848660297
          27 :   -5.60776389028672
          28 :    4.24229325562072
          29 :   -3.11343156686667
          30 :    1.88590498381257
          31 :   -37.1407595161494
          32 :   -28.1335361802163

     Forces acting on atoms (Ry/au):

     negative rho (up, down):  1.529E+00 0.000E+00
     atom    1 type  1   force =    -0.00000050    0.00033034    0.02803662
     atom    2 type  1   force =     0.00028640   -0.00016601    0.02803694
     atom    3 type  1   force =    -0.00028638   -0.00016546    0.02803583
     atom    4 type  2   force =     0.00000000    0.00000038    0.01825090
     atom    5 type  1   force =     0.00000037    0.00275755   -0.02623349
     atom    6 type  1   force =     0.00238899   -0.00137829   -0.02623270
     atom    7 type  1   force =    -0.00238839   -0.00137820   -0.02623185
     atom    8 type  2   force =    -0.00000008   -0.00000045   -0.02526157
     atom    9 type  1   force =     0.00000020    0.00062166    0.00012709
     atom   10 type  1   force =     0.00053762   -0.00031036    0.00012409
     atom   11 type  1   force =    -0.00053825   -0.00031085    0.00012549
     atom   12 type  2   force =     0.00000002   -0.00000030    0.00122265

     Total force =     0.073618     Total SCF correction =     0.004891

     entering subroutine stress ...

     negative rho (up, down):  1.529E+00 0.000E+00
          total   stress  (Ry/bohr**3)                   (kbar)     P=  -28.22
  -0.00023198   0.00000000  -0.00000000        -34.12      0.00     -0.00
   0.00000000  -0.00023198  -0.00000000          0.00    -34.12     -0.00
  -0.00000000  -0.00000000  -0.00011164         -0.00     -0.00    -16.42

 !ASE

     Writing output data file calc.save

     General routines

     Parallel routines

   This run was terminated on:  14:57:27  27Dec2018

   JOB DONE.
Job  /afs/slac/g/suncat/bin/suncat-tsmpirun -x LD_LIBRARY_PATH -wdir /scratch/qe110355_eTwtB pw.x -in pw.inp

TID   HOST_NAME   COMMAND_LINE            STATUS            TERMINATION_TIME
00000 suncat0083 pw.x -in pw.inp   Done                     12/27/2018 14:57:27
00001 suncat0083 pw.x -in pw.inp   Done                     12/27/2018 14:57:27
00002 suncat0083 pw.x -in pw.inp   Done                     12/27/2018 14:57:27
00003 suncat0083 pw.x -in pw.inp   Done                     12/27/2018 14:57:27
00004 suncat0083 pw.x -in pw.inp   Done                     12/27/2018 14:57:27
00005 suncat0083 pw.x -in pw.inp   Done                     12/27/2018 14:57:27
00006 suncat0083 pw.x -in pw.inp   Done                     12/27/2018 14:57:27
00007 suncat0083 pw.x -in pw.inp   Done                     12/27/2018 14:57:27
00008 suncat0081 pw.x -in pw.inp   Done                     12/27/2018 14:57:27
00009 suncat0081 pw.x -in pw.inp   Done                     12/27/2018 14:57:27
00010 suncat0081 pw.x -in pw.inp   Done                     12/27/2018 14:57:27
00011 suncat0081 pw.x -in pw.inp   Done                     12/27/2018 14:57:27
00012 suncat0081 pw.x -in pw.inp   Done                     12/27/2018 14:57:27
00013 suncat0081 pw.x -in pw.inp   Done                     12/27/2018 14:57:27
00014 suncat0081 pw.x -in pw.inp   Done                     12/27/2018 14:57:27
00015 suncat0081 pw.x -in pw.inp   Done                     12/27/2018 14:57:27
00016 suncat0079 pw.x -in pw.inp   Done                     12/27/2018 14:57:27
00017 suncat0079 pw.x -in pw.inp   Done                     12/27/2018 14:57:27
00018 suncat0079 pw.x -in pw.inp   Done                     12/27/2018 14:57:27
00019 suncat0079 pw.x -in pw.inp   Done                     12/27/2018 14:57:27
00020 suncat0079 pw.x -in pw.inp   Done                     12/27/2018 14:57:27
00021 suncat0079 pw.x -in pw.inp   Done                     12/27/2018 14:57:27
00022 suncat0079 pw.x -in pw.inp   Done                     12/27/2018 14:57:27
00023 suncat0079 pw.x -in pw.inp   Done                     12/27/2018 14:57:27
00024 suncat0076 pw.x -in pw.inp   Done                     12/27/2018 14:57:27
00025 suncat0076 pw.x -in pw.inp   Done                     12/27/2018 14:57:27
00026 suncat0076 pw.x -in pw.inp   Done                     12/27/2018 14:57:27
00027 suncat0076 pw.x -in pw.inp   Done                     12/27/2018 14:57:27
00028 suncat0076 pw.x -in pw.inp   Done                     12/27/2018 14:57:27
00029 suncat0076 pw.x -in pw.inp   Done                     12/27/2018 14:57:27
00030 suncat0076 pw.x -in pw.inp   Done                     12/27/2018 14:57:27
00031 suncat0076 pw.x -in pw.inp   Done                     12/27/2018 14:57:27
00032 suncat0064 pw.x -in pw.inp   Done                     12/27/2018 14:57:27
00033 suncat0064 pw.x -in pw.inp   Done                     12/27/2018 14:57:27
00034 suncat0064 pw.x -in pw.inp   Done                     12/27/2018 14:57:27
00035 suncat0064 pw.x -in pw.inp   Done                     12/27/2018 14:57:27
00036 suncat0064 pw.x -in pw.inp   Done                     12/27/2018 14:57:27
00037 suncat0064 pw.x -in pw.inp   Done                     12/27/2018 14:57:27
00038 suncat0064 pw.x -in pw.inp   Done                     12/27/2018 14:57:27
00039 suncat0064 pw.x -in pw.inp   Done                     12/27/2018 14:57:27
00040 suncat0129 pw.x -in pw.inp   Done                     12/27/2018 14:57:27
00041 suncat0129 pw.x -in pw.inp   Done                     12/27/2018 14:57:27
00042 suncat0129 pw.x -in pw.inp   Done                     12/27/2018 14:57:27
00043 suncat0129 pw.x -in pw.inp   Done                     12/27/2018 14:57:27
00044 suncat0129 pw.x -in pw.inp   Done                     12/27/2018 14:57:27
00045 suncat0129 pw.x -in pw.inp   Done                     12/27/2018 14:57:27
00046 suncat0129 pw.x -in pw.inp   Done                     12/27/2018 14:57:27
00047 suncat0129 pw.x -in pw.inp   Done                     12/27/2018 14:57:27
00048 suncat0254 pw.x -in pw.inp   Done                     12/27/2018 14:57:27
00049 suncat0254 pw.x -in pw.inp   Done                     12/27/2018 14:57:27
00050 suncat0254 pw.x -in pw.inp   Done                     12/27/2018 14:57:27
00051 suncat0254 pw.x -in pw.inp   Done                     12/27/2018 14:57:27
00052 suncat0254 pw.x -in pw.inp   Done                     12/27/2018 14:57:27
00053 suncat0254 pw.x -in pw.inp   Done                     12/27/2018 14:57:27
00054 suncat0254 pw.x -in pw.inp   Done                     12/27/2018 14:57:27
00055 suncat0254 pw.x -in pw.inp   Done                     12/27/2018 14:57:27
00056 suncat0253 pw.x -in pw.inp   Done                     12/27/2018 14:57:27
00057 suncat0253 pw.x -in pw.inp   Done                     12/27/2018 14:57:27
00058 suncat0253 pw.x -in pw.inp   Done                     12/27/2018 14:57:27
00059 suncat0253 pw.x -in pw.inp   Done                     12/27/2018 14:57:27
00060 suncat0253 pw.x -in pw.inp   Done                     12/27/2018 14:57:27
00061 suncat0253 pw.x -in pw.inp   Done                     12/27/2018 14:57:27
00062 suncat0253 pw.x -in pw.inp   Done                     12/27/2018 14:57:27
00063 suncat0253 pw.x -in pw.inp   Done                     12/27/2018 14:57:27