     Program PWSCF v.5.1rc2 (svn rev. 11289) starts on 27Dec2018 at 21: 5: 8

     Current dimensions of program PWSCF are:
     Max number of different atomic species (ntypx) = 10
     Max number of k-points (npk) =  40000
     Max angular momentum in pseudopotentials (lmaxx) =  3
     Presently stress not available with electric field

     IMPORTANT: XC functional enforced from input :
     Exchange-correlation      = BEEF-VDW ( 1  4 27 13 2)
     Any further DFT definition will be discarded
     Please, verify this is what you really want

     Subspace diagonalization in iterative solution of the eigenvalue problem:
     a serial algorithm will be used

     bravais-lattice index     =            0
     lattice parameter (alat)  =       1.8897  a.u.
     unit-cell volume          =    4241.0853 (a.u.)^3
     number of atoms/cell      =           12
     number of atomic types    =            2
     number of electrons       =       180.00
     number of Kohn-Sham states=          120
     kinetic-energy cutoff     =      36.7493  Ry
     charge density cutoff     =     367.4932  Ry
     convergence threshold     =      1.0E-06
     mixing beta               =       0.1000
     number of iterations used =           10  plain     mixing
     Exchange-correlation      = BEEF-VDW ( 1  4 27 13 2)
     nstep                     =           50

     celldm(1)=   1.889726  celldm(2)=   0.000000  celldm(3)=   0.000000
     celldm(4)=   0.000000  celldm(5)=   0.000000  celldm(6)=   0.000000

     crystal axes: (cart. coord. in units of alat)
               a(1) = (   5.448157   0.000000   0.000000 )
               a(2) = (  -2.724079   4.718243   0.000000 )
               a(3) = (   0.000000   0.000000  24.448402 )

     reciprocal axes: (cart. coord. in units 2 pi/alat)
               b(1) = (  0.183548  0.105972  0.000000 )
               b(2) = (  0.000000  0.211943  0.000000 )
               b(3) = (  0.000000  0.000000  0.040902 )

     PseudoPot. # 1 for Rh read from file:
     /afs/slac.stanford.edu/u/if/mamunm/psp/gbrv1.5pbe/Rh.UPF
     MD5 check sum: 761627e959a2e3a1f56b0b5fe687810e
     Pseudo is Ultrasoft + core correction, Zval = 15.0
     Generated by new atomic code, or converted to UPF format
     Using radial grid of  969 points,  7 beta functions with:
                l(1) =   0
                l(2) =   0
                l(3) =   1
                l(4) =   1
                l(5) =   2
                l(6) =   2
                l(7) =   2
     Q(r) pseudized with  8 coefficients,  rinner =    1.200   1.200   1.200
                                                       1.200   1.200

     PseudoPot. # 2 for Tc read from file:
     /afs/slac.stanford.edu/u/if/mamunm/psp/gbrv1.5pbe/Tc.UPF
     MD5 check sum: 9eb49e5b028550b2339a02317eb7b844
     Pseudo is Ultrasoft + core correction, Zval = 15.0
     Generated by new atomic code, or converted to UPF format
     Using radial grid of  965 points,  6 beta functions with:
                l(1) =   0
                l(2) =   0
                l(3) =   1
                l(4) =   1
                l(5) =   2
                l(6) =   2
     Q(r) pseudized with  8 coefficients,  rinner =    1.300   1.300   1.300
                                                       1.300   1.300

     vdW kernel table read from file vdW_kernel_table
     MD5 check sum: 095c7af220d748ca6e76c0b4c6cfb241

     atomic species   valence    mass     pseudopotential
        Rh1           15.00   102.90550     Rh( 1.00)
        Tc1           15.00    97.90721     Tc( 1.00)

     No symmetry found

   Cartesian axes

     site n.     atom                  positions (alat units)
         1           Rh1 tau(   1) = (   0.0000000   0.0000000  10.0000000  )
         2           Rh1 tau(   2) = (  -1.3620394   2.3591214  10.0000000  )
         3           Rh1 tau(   3) = (   1.3620394   2.3591214  10.0000000  )
         4           Tc1 tau(   4) = (   2.7240787   0.0000000  10.0000000  )
         5           Rh1 tau(   5) = (   2.7240787   1.5727476  12.2242010  )
         6           Rh1 tau(   6) = (   1.3620394   3.9318690  12.2242010  )
         7           Rh1 tau(   7) = (  -1.3620394   3.9318690  12.2242010  )
         8           Tc1 tau(   8) = (   0.0000000   1.5727476  12.2242010  )
         9           Rh1 tau(   9) = (  -0.0000000   3.1454952  14.4484019  )
        10           Rh1 tau(  10) = (   1.3620394   0.7863738  14.4484019  )
        11           Rh1 tau(  11) = (   4.0861181   0.7863738  14.4484019  )
        12           Tc1 tau(  12) = (   2.7240787   3.1454952  14.4484019  )

     number of k points=    20  Fermi-Dirac smearing, width (Ry)=  0.0110
                       cart. coord. in units 2pi/alat
        k(    1) = (   0.0000000   0.0000000   0.0000000), wk =   0.0555556
        k(    2) = (   0.0000000   0.0353239   0.0000000), wk =   0.1111111
        k(    3) = (   0.0000000   0.0706478   0.0000000), wk =   0.1111111
        k(    4) = (   0.0000000  -0.1059717   0.0000000), wk =   0.0555556
        k(    5) = (   0.0305914   0.0176619   0.0000000), wk =   0.1111111
        k(    6) = (   0.0305914   0.0529858   0.0000000), wk =   0.1111111
        k(    7) = (   0.0305914   0.0883097   0.0000000), wk =   0.1111111
        k(    8) = (   0.0305914  -0.0883097   0.0000000), wk =   0.1111111
        k(    9) = (   0.0305914  -0.0529858   0.0000000), wk =   0.1111111
        k(   10) = (   0.0305914  -0.0176619   0.0000000), wk =   0.1111111
        k(   11) = (   0.0611828   0.0353239   0.0000000), wk =   0.1111111
        k(   12) = (   0.0611828   0.0706478   0.0000000), wk =   0.1111111
        k(   13) = (   0.0611828   0.1059717   0.0000000), wk =   0.1111111
        k(   14) = (   0.0611828  -0.0706478   0.0000000), wk =   0.1111111
        k(   15) = (   0.0611828  -0.0353239   0.0000000), wk =   0.1111111
        k(   16) = (   0.0611828   0.0000000   0.0000000), wk =   0.1111111
        k(   17) = (  -0.0917741  -0.0529858   0.0000000), wk =   0.0555556
        k(   18) = (  -0.0917741  -0.0176619   0.0000000), wk =   0.1111111
        k(   19) = (  -0.0917741   0.0176619   0.0000000), wk =   0.1111111
        k(   20) = (  -0.0917741  -0.1589575   0.0000000), wk =   0.0555556

     Largest allocated arrays     est. size (Mb)     dimensions
     Largest temporary arrays     est. size (Mb)     dimensions

     Check: negative/imaginary core charge=   -0.000008    0.000000

     Initial potential from superposition of free atoms
     Check: negative starting charge=   -0.866221

     starting charge  172.49903, renormalised to  180.00000

     negative rho (up, down):  9.039E-01 0.000E+00

     *
     * You are using vdW-DF for exchange-correlation in this calculation.
     * Please cite the following three references that made this development
     * possible:
     *
     *   M. Dion, H. Rydberg, E. Schroder, D. C. Langreth, and
     *   B. I. Lundqvist, Phys. Rev. Lett. 92, 246401 (2004).
     *
     *   T. Thonhauser, V. R. Cooper, S. Li, A. Puzder, P. Hyldgaard, and
     *   D. C. Langreth, Phys. Rev. B 76, 125112 (2007).
     *
     *   G. Roman-Perez and J. M. Soler, Phys. Rev. Lett. 103, 096102 (2009).
     *
     *
     * If you are using vdW-DF2, please also cite:
     *
     *   K. Lee, E. D. Murray, L. Kong, B. I. Lundqvist, and
     *   D. C. Langreth, Phys. Rev. B 82, 081101(R) (2010).
     *
     *
     * If you are calculating the stress with vdW-DF, please also cite:
     *
     *   R. Sabatini, E. Kucukbenli, B. Kolb, T. Thonhauser, and
     *   S. de Gironcoli, J. Phys.: Condens. Matter 24, 424209 (2012).
     *

     Carrying out vdW-DF run using the following parameters:

     Nqs =      20    Nr_points =    1024   r_max =   100.000
     q_mesh =
               0.00001000     0.04494208     0.09755937     0.15916263
               0.23128650     0.31572767     0.41458969     0.53033537
               0.66584808     0.82450364     1.01025438     1.22772762
               1.48234092     1.78043706     2.12944203     2.53805004
               3.01644009     3.57652955     4.23227104     5.00000000

     Gradients computed in reciprocal space

     Adding external electric field

     Computed dipole along edir(3) :
        Dipole               -0.0000 Ry au,         -0.0000 Debye
        Dipole field         -0.0000 Ry au

        Potential amp.        0.0000 Ry
        Total length         45.0458 bohr

     Starting wfc are  147 randomized atomic wfcs

     Self-consistent Calculation

     iteration #  1     ecut=    36.75 Ry     beta=0.10
     Davidson diagonalization with overlap
     ethr =  1.00E-02,  avg # of iterations =  7.7

[...]

     total energy              =   -2076.24745742 Ry
     Harris-Foulkes estimate   =   -2078.19135823 Ry
     estimated scf accuracy    <      12.04512143 Ry

[...]

     End of self-consistent calculation

          k = 0.0000 0.0000 0.0000 ( 15869 PWs)   bands (ev):

   -65.7485 -65.3398 -65.3397 -45.2586 -45.1084 -45.1084 -45.0612 -45.0050
   -45.0050 -44.8740 -44.8183 -44.8183 -44.7794 -44.7716 -44.7182 -44.7182
   -44.6765 -44.6765 -44.5093 -44.5020 -44.4635 -44.4187 -44.4176 -44.4176
   -44.3968 -44.3968 -44.3558 -44.3558 -44.3513 -44.3513 -37.7256 -37.6950
   -37.6950 -37.3164 -37.3146 -37.3146 -37.3117 -37.3117 -37.3052  -4.8844
    -3.6515  -3.6515  -3.5972  -3.5356  -3.4349  -3.3043  -3.2935  -3.2935
    -3.0719  -3.0719  -3.0151  -2.7325  -2.7325  -2.7121  -1.6104  -1.6057
    -1.6057  -1.1841  -1.1841  -1.0786  -0.8984  -0.7754  -0.7754  -0.5791
    -0.5084  -0.4617  -0.4617  -0.2426  -0.2426  -0.2063  -0.2063   0.2449
     0.2449   0.7916   0.8466   1.1397   1.1397   1.1502   1.1502   1.1904
     1.1904   1.4913   1.7748   1.9616   2.0904   2.0904   2.0965   2.0965
     2.3449   2.6449   2.6449   2.7236   2.7708   2.8462   2.8462   2.8661
     2.9392   3.1549   3.1549   3.4965   3.4965   3.6318   3.6318   4.0890
     4.0890   4.1091   5.9553   5.9553   6.0354   6.0354   6.0403   6.1356
     6.1654   6.3313   6.7253   7.6366   8.5210   9.5520   9.5520   9.7438

[...]

          k =-0.0918-0.0530 0.0000 ( 15984 PWs)   bands (ev):

[...]

     the Fermi energy is     1.8638 ev

!    total energy              =   -2075.63997532 Ry
     Harris-Foulkes estimate   =   -2075.63996978 Ry
     estimated scf accuracy    <       0.00000057 Ry

     The total energy is the sum of the following terms:

     one-electron contribution =  -18865.82567197 Ry
     hartree contribution      =    9462.35605274 Ry
     xc contribution           =    -378.13480095 Ry
     ewald contribution        =    7706.06155323 Ry
     electric field correction =       0.00000000 Ry
     smearing contrib. (-TS)   =      -0.09710837 Ry

     convergence has been achieved in  16 iterations

 BEEF-vdW xc energy contributions
           1 :   -329.928982408895
           2 :    303.160132001928
           3 :   -256.475538835684
           4 :    200.852990772660
           5 :   -147.577752406317
           6 :    104.772875943345
           7 :   -75.5976797892143
           8 :    58.4619686941288
           9 :   -48.8751872108897
          10 :    41.9106482399273
[...]
     Pseudo is Ultrasoft + core correction, Zval = 15.0
     Generated by new atomic code, or converted to UPF format
     Using radial grid of  969 points,  7 beta functions with:
                l(1) =   0
                l(2) =   0
                l(3) =   1
                l(4) =   1
                l(5) =   2
                l(6) =   2
                l(7) =   2
     Q(r) pseudized with  8 coefficients,  rinner =    1.200   1.200   1.200
                                                       1.200   1.200

     PseudoPot. # 2 for Tc read from file:
     /afs/slac.stanford.edu/u/if/mamunm/psp/gbrv1.5pbe/Tc.UPF
     MD5 check sum: 9eb49e5b028550b2339a02317eb7b844
     Pseudo is Ultrasoft + core correction, Zval = 15.0
     Generated by new atomic code, or converted to UPF format
     Using radial grid of  965 points,  6 beta functions with:
                l(1) =   0
                l(2) =   0
                l(3) =   1
                l(4) =   1
                l(5) =   2
                l(6) =   2
     Q(r) pseudized with  8 coefficients,  rinner =    1.300   1.300   1.300
                                                       1.300   1.300

     vdW kernel table read from file vdW_kernel_table
     MD5 check sum: 095c7af220d748ca6e76c0b4c6cfb241

     atomic species   valence    mass     pseudopotential
        Rh1           15.00   102.90550     Rh( 1.00)
        Tc1           15.00    97.90721     Tc( 1.00)

     No symmetry found

   Cartesian axes

     site n.     atom                  positions (alat units)
         1           Rh1 tau(   1) = (   0.0000000   0.0000000  10.0000000  )
         2           Rh1 tau(   2) = (  -1.3620394   2.3591214  10.0000000  )
         3           Rh1 tau(   3) = (   1.3620394   2.3591214  10.0000000  )
         4           Tc1 tau(   4) = (   2.7240787   0.0000000  10.0000000  )
         5           Rh1 tau(   5) = (   2.7240787   1.5727476  12.2242010  )
         6           Rh1 tau(   6) = (   1.3620394   3.9318690  12.2242010  )
         7           Rh1 tau(   7) = (  -1.3620394   3.9318690  12.2242010  )
         8           Tc1 tau(   8) = (   0.0000000   1.5727476  12.2242010  )
         9           Rh1 tau(   9) = (  -0.0000010   3.1133530  14.3781167  )
        10           Rh1 tau(  10) = (   1.3342036   0.8024440  14.3781175  )
        11           Rh1 tau(  11) = (   4.1139540   0.8024449  14.3781180  )
        12           Tc1 tau(  12) = (   2.7240827   3.1454960  14.3562322  )

     number of k points=    20  Fermi-Dirac smearing, width (Ry)=  0.0110
                       cart. coord. in units 2pi/alat
        k(    1) = (   0.0000000   0.0000000   0.0000000), wk =   0.0555556
        k(    2) = (   0.0000000   0.0353239   0.0000000), wk =   0.1111111
        k(    3) = (   0.0000000   0.0706478   0.0000000), wk =   0.1111111
        k(    4) = (   0.0000000  -0.1059717   0.0000000), wk =   0.0555556
        k(    5) = (   0.0305914   0.0176619   0.0000000), wk =   0.1111111
        k(    6) = (   0.0305914   0.0529858   0.0000000), wk =   0.1111111
        k(    7) = (   0.0305914   0.0883097   0.0000000), wk =   0.1111111
        k(    8) = (   0.0305914  -0.0883097   0.0000000), wk =   0.1111111
        k(    9) = (   0.0305914  -0.0529858   0.0000000), wk =   0.1111111
        k(   10) = (   0.0305914  -0.0176619   0.0000000), wk =   0.1111111
        k(   11) = (   0.0611828   0.0353239   0.0000000), wk =   0.1111111
        k(   12) = (   0.0611828   0.0706478   0.0000000), wk =   0.1111111
        k(   13) = (   0.0611828   0.1059717   0.0000000), wk =   0.1111111
        k(   14) = (   0.0611828  -0.0706478   0.0000000), wk =   0.1111111
        k(   15) = (   0.0611828  -0.0353239   0.0000000), wk =   0.1111111
        k(   16) = (   0.0611828   0.0000000   0.0000000), wk =   0.1111111
        k(   17) = (  -0.0917741  -0.0529858   0.0000000), wk =   0.0555556
        k(   18) = (  -0.0917741  -0.0176619   0.0000000), wk =   0.1111111
        k(   19) = (  -0.0917741   0.0176619   0.0000000), wk =   0.1111111
        k(   20) = (  -0.0917741  -0.1589575   0.0000000), wk =   0.0555556

     Largest allocated arrays     est. size (Mb)     dimensions
     Largest temporary arrays     est. size (Mb)     dimensions

     Check: negative/imaginary core charge=   -0.000008    0.000000

     Initial potential from superposition of free atoms
     Check: negative starting charge=   -0.863721

     starting charge  172.49903, renormalised to  180.00000

[...]

     *
     * You are using vdW-DF for exchange-correlation in this calculation.
     * Please cite the following three references that made this development
     * possible:
     *
     *   M. Dion, H. Rydberg, E. Schroder, D. C. Langreth, and
     *   B. I. Lundqvist, Phys. Rev. Lett. 92, 246401 (2004).
     *
     *   T. Thonhauser, V. R. Cooper, S. Li, A. Puzder, P. Hyldgaard, and
     *   D. C. Langreth, Phys. Rev. B 76, 125112 (2007).
     *
     *   G. Roman-Perez and J. M. Soler, Phys. Rev. Lett. 103, 096102 (2009).
     *
     *
     * If you are using vdW-DF2, please also cite:
     *
     *   K. Lee, E. D. Murray, L. Kong, B. I. Lundqvist, and
     *   D. C. Langreth, Phys. Rev. B 82, 081101(R) (2010).
     *
     *
     * If you are calculating the stress with vdW-DF, please also cite:
     *
     *   R. Sabatini, E. Kucukbenli, B. Kolb, T. Thonhauser, and
     *   S. de Gironcoli, J. Phys.: Condens. Matter 24, 424209 (2012).
     *

     Carrying out vdW-DF run using the following parameters:

     Nqs =      20    Nr_points =    1024   r_max =   100.000
     q_mesh =
               0.00001000     0.04494208     0.09755937     0.15916263
               0.23128650     0.31572767     0.41458969     0.53033537
               0.66584808     0.82450364     1.01025438     1.22772762
               1.48234092     1.78043706     2.12944203     2.53805004
               3.01644009     3.57652955     4.23227104     5.00000000

     Gradients computed in reciprocal space

[...]

     Starting wfc are  147 randomized atomic wfcs

     Self-consistent Calculation

[...]

     total energy              =   -2075.64710435 Ry
     Harris-Foulkes estimate   =   -2075.64710337 Ry
     estimated scf accuracy    <       0.00000263 Ry

     iteration # 18     ecut=    36.75 Ry     beta=0.10
     Davidson diagonalization with overlap
     ethr =  1.46E-09,  avg # of iterations =  1.0

[...]

     negative rho (up, down):  9.120E-01 0.000E+00

     Adding external electric field

     Computed dipole along edir(3) :
        Dipole                0.0042 Ry au,          0.0107 Debye
        Dipole field          0.0000 Ry au

        Potential amp.       -0.0011 Ry
        Total length         45.0458 bohr

     End of self-consistent calculation

[...]

          k = 0.0612 0.0000 0.0000 ( 15950 PWs)   bands (ev):

[...]

          k =-0.0918-0.1590 0.0000 ( 15984 PWs)   bands (ev):

   -65.7600 -65.3655 -65.2980 -45.2110 -45.1031 -45.0976 -45.0668 -45.0490
   -45.0371 -45.0358 -45.0141 -44.8673 -44.7711 -44.6887 -44.6681 -44.6668
   -44.6104 -44.5827 -44.5714 -44.5655 -44.5535 -44.5002 -44.4969 -44.4758
   -44.4733 -44.4236 -44.3962 -44.3768 -44.3751 -44.3383 -37.7525 -37.7243
   -37.7130 -37.3570 -37.3516 -37.3456 -37.2919 -37.2808 -37.2666  -3.4707
    -3.4546  -2.8958  -2.8483  -2.8413  -2.8277  -2.5835  -2.5670  -2.4609
    -2.3812  -2.3727  -2.2821  -2.0395  -1.9455  -1.9128  -1.8784  -1.6052
    -1.5181  -1.5003  -1.3430  -1.2546  -1.1359  -0.8779  -0.7712  -0.5978
    -0.5832  -0.4459  -0.4440  -0.3706  -0.2901  -0.2665  -0.1646  -0.1539
    -0.1282  -0.0950  -0.0685  -0.0390   0.0531   0.2773   0.2852   0.4596
     0.4758   0.5729   0.7882   0.9117   0.9668   1.0675   1.1741   1.3821
     1.4189   1.4633   1.5634   1.7427   1.9034   1.9559   2.0102   2.0531
     2.3469   2.4278   2.4324   2.6914   2.8847   2.9107   3.4259   4.4968
     4.6833   5.0724   5.8738   6.0400   6.4699   6.6706   6.8080   7.7254
     7.7320   8.0634   8.0886   8.2725   8.2965   8.3608   8.3741   9.5724

     the Fermi energy is     1.8823 ev

!    total energy              =   -2075.64710819 Ry
     Harris-Foulkes estimate   =   -2075.64710458 Ry
     estimated scf accuracy    <       0.00000058 Ry

     The total energy is the sum of the following terms:

     one-electron contribution =  -19070.51810349 Ry
     hartree contribution      =    9564.57306381 Ry
     xc contribution           =    -378.27954995 Ry
     ewald contribution        =    7808.67202541 Ry
     electric field correction =       0.00000005 Ry
     smearing contrib. (-TS)   =      -0.09454402 Ry

     convergence has been achieved in  18 iterations

 BEEF-vdW xc energy contributions
           1 :   -330.082284352935
           2 :    303.387183989431
           3 :   -256.801146143356
           4 :    201.232082303086
           5 :   -147.913401025586
           6 :    104.965791817478
           7 :   -75.6007314786195
           8 :    58.3098918080983
           9 :   -48.6716743762445
          10 :    41.7787601522106
          11 :   -34.2761912376135
          12 :    25.2725343566453
          13 :   -16.0068232506028
          14 :    8.64790522731141
          15 :   -4.92456589338485
          16 :    5.20591039176810
          17 :   -8.37456315226234
          18 :    12.4119725736597
          19 :   -15.3331671613591
          20 :    15.9833949305528
          21 :   -14.3542593418695
          22 :    11.3362835737685
          23 :   -8.11487492522082
          24 :    5.54756301177815
          25 :   -3.82829453400342
          26 :    2.55375490833478
          27 :   -1.10065034816330
          28 :  -0.925272982176239
          29 :    3.41155519496238
          30 :   -5.77004670813369
          31 :   -32.2503403848425
          32 :   -24.0786021188716

     Forces acting on atoms (Ry/au):

     negative rho (up, down):  9.120E-01 0.000E+00
     atom    1 type  1   force =     0.00000005    0.01599686    0.01342036
     atom    2 type  1   force =     0.01385399   -0.00799865    0.01342059
     atom    3 type  1   force =    -0.01385268   -0.00799809    0.01341979
     atom    4 type  2   force =    -0.00000043    0.00000022    0.01782845
     atom    5 type  1   force =     0.00000003   -0.00097665   -0.01507568
     atom    6 type  1   force =    -0.00084576    0.00048828   -0.01507599
     atom    7 type  1   force =     0.00084570    0.00048810   -0.01507591
     atom    8 type  2   force =    -0.00000041   -0.00000008   -0.01753784
     atom    9 type  1   force =     0.00000047   -0.00067395    0.00099133
     atom   10 type  1   force =    -0.00058408    0.00033768    0.00099106
     atom   11 type  1   force =     0.00058383    0.00033689    0.00099105
     atom   12 type  2   force =    -0.00000071   -0.00000061    0.00170278

     Total force =     0.051238     Total SCF correction =     0.004290

     entering subroutine stress ...

     negative rho (up, down):  9.120E-01 0.000E+00
          total   stress  (Ry/bohr**3)                   (kbar)     P=  -34.06
  -0.00025796   0.00000000  -0.00000000        -37.95      0.00     -0.00
   0.00000000  -0.00025796  -0.00000000          0.00    -37.95     -0.00
  -0.00000000  -0.00000000  -0.00017878         -0.00     -0.00    -26.30

 !ASE

     Writing output data file calc.save

     General routines

     Parallel routines

   This run was terminated on:  21:42:50  27Dec2018

   JOB DONE.
Job  /afs/slac/g/suncat/bin/suncat-tsmpirun -x LD_LIBRARY_PATH -wdir /scratch/qe110731_l00OU pw.x -in pw.inp

TID   HOST_NAME   COMMAND_LINE            STATUS            TERMINATION_TIME
00000 suncat0271 pw.x -in pw.inp   Done                     12/27/2018 21:42:50
00001 suncat0271 pw.x -in pw.inp   Done                     12/27/2018 21:42:50
00002 suncat0271 pw.x -in pw.inp   Done                     12/27/2018 21:42:50
00003 suncat0271 pw.x -in pw.inp   Done                     12/27/2018 21:42:50
00004 suncat0271 pw.x -in pw.inp   Done                     12/27/2018 21:42:50
00005 suncat0271 pw.x -in pw.inp   Done                     12/27/2018 21:42:50
00006 suncat0271 pw.x -in pw.inp   Done                     12/27/2018 21:42:50
00007 suncat0271 pw.x -in pw.inp   Done                     12/27/2018 21:42:50
00008 suncat0260 pw.x -in pw.inp   Done                     12/27/2018 21:42:50
00009 suncat0260 pw.x -in pw.inp   Done                     12/27/2018 21:42:50
00010 suncat0260 pw.x -in pw.inp   Done                     12/27/2018 21:42:50
00011 suncat0260 pw.x -in pw.inp   Done                     12/27/2018 21:42:50
00012 suncat0260 pw.x -in pw.inp   Done                     12/27/2018 21:42:50
00013 suncat0260 pw.x -in pw.inp   Done                     12/27/2018 21:42:50
00014 suncat0260 pw.x -in pw.inp   Done                     12/27/2018 21:42:50
00015 suncat0260 pw.x -in pw.inp   Done                     12/27/2018 21:42:50
00016 suncat0259 pw.x -in pw.inp   Done                     12/27/2018 21:42:50
00017 suncat0259 pw.x -in pw.inp   Done                     12/27/2018 21:42:50
00018 suncat0259 pw.x -in pw.inp   Done                     12/27/2018 21:42:50
00019 suncat0259 pw.x -in pw.inp   Done                     12/27/2018 21:42:50
00020 suncat0259 pw.x -in pw.inp   Done                     12/27/2018 21:42:50
00021 suncat0259 pw.x -in pw.inp   Done                     12/27/2018 21:42:50
00022 suncat0259 pw.x -in pw.inp   Done                     12/27/2018 21:42:50
00023 suncat0259 pw.x -in pw.inp   Done                     12/27/2018 21:42:50
00024 suncat0232 pw.x -in pw.inp   Done                     12/27/2018 21:42:50
00025 suncat0232 pw.x -in pw.inp   Done                     12/27/2018 21:42:50
00026 suncat0232 pw.x -in pw.inp   Done                     12/27/2018 21:42:50
00027 suncat0232 pw.x -in pw.inp   Done                     12/27/2018 21:42:50
00028 suncat0232 pw.x -in pw.inp   Done                     12/27/2018 21:42:50
00029 suncat0232 pw.x -in pw.inp   Done                     12/27/2018 21:42:50
00030 suncat0232 pw.x -in pw.inp   Done                     12/27/2018 21:42:50
00031 suncat0232 pw.x -in pw.inp   Done                     12/27/2018 21:42:50
00032 suncat0220 pw.x -in pw.inp   Done                     12/27/2018 21:42:50
00033 suncat0220 pw.x -in pw.inp   Done                     12/27/2018 21:42:50
00034 suncat0220 pw.x -in pw.inp   Done                     12/27/2018 21:42:50
00035 suncat0220 pw.x -in pw.inp   Done                     12/27/2018 21:42:50
00036 suncat0220 pw.x -in pw.inp   Done                     12/27/2018 21:42:50
00037 suncat0220 pw.x -in pw.inp   Done                     12/27/2018 21:42:50
00038 suncat0220 pw.x -in pw.inp   Done                     12/27/2018 21:42:50
00039 suncat0220 pw.x -in pw.inp   Done                     12/27/2018 21:42:50
00040 suncat0219 pw.x -in pw.inp   Done                     12/27/2018 21:42:50
00041 suncat0219 pw.x -in pw.inp   Done                     12/27/2018 21:42:50
00042 suncat0219 pw.x -in pw.inp   Done                     12/27/2018 21:42:50
00043 suncat0219 pw.x -in pw.inp   Done                     12/27/2018 21:42:50
00044 suncat0219 pw.x -in pw.inp   Done                     12/27/2018 21:42:50
00045 suncat0219 pw.x -in pw.inp   Done                     12/27/2018 21:42:50
00046 suncat0219 pw.x -in pw.inp   Done                     12/27/2018 21:42:50
00047 suncat0219 pw.x -in pw.inp   Done                     12/27/2018 21:42:50
00048 suncat0201 pw.x -in pw.inp   Done                     12/27/2018 21:42:50
00049 suncat0201 pw.x -in pw.inp   Done                     12/27/2018 21:42:50
00050 suncat0201 pw.x -in pw.inp   Done                     12/27/2018 21:42:50
00051 suncat0201 pw.x -in pw.inp   Done                     12/27/2018 21:42:50
00052 suncat0201 pw.x -in pw.inp   Done                     12/27/2018 21:42:50
00053 suncat0201 pw.x -in pw.inp   Done                     12/27/2018 21:42:50
00054 suncat0201 pw.x -in pw.inp   Done                     12/27/2018 21:42:50
00055 suncat0201 pw.x -in pw.inp   Done                     12/27/2018 21:42:50
00056 suncat0200 pw.x -in pw.inp   Done                     12/27/2018 21:42:50
00057 suncat0200 pw.x -in pw.inp   Done                     12/27/2018 21:42:50
00058 suncat0200 pw.x -in pw.inp   Done                     12/27/2018 21:42:50
00059 suncat0200 pw.x -in pw.inp   Done                     12/27/2018 21:42:50
00060 suncat0200 pw.x -in pw.inp   Done                     12/27/2018 21:42:50
00061 suncat0200 pw.x -in pw.inp   Done                     12/27/2018 21:42:50
00062 suncat0200 pw.x -in pw.inp   Done                     12/27/2018 21:42:50
00063 suncat0200 pw.x -in pw.inp   Done                     12/27/2018 21:42:50