     Program PWSCF v.5.1rc2 (svn rev. 11289) starts on 30Dec2018 at  8: 1:39

     Current dimensions of program PWSCF are:
     Max number of different atomic species (ntypx) = 10
     Max number of k-points (npk) =  40000
     Max angular momentum in pseudopotentials (lmaxx) =  3
     Presently stress not available with electric field

     IMPORTANT: XC functional enforced from input :
     Exchange-correlation      = BEEF-VDW ( 1  4 27 13 2)
     Any further DFT definition will be discarded
     Please, verify this is what you really want

     Subspace diagonalization in iterative solution of the eigenvalue problem:
     a serial algorithm will be used

     bravais-lattice index     =            0
     lattice parameter (alat)  =       1.8897  a.u.
     unit-cell volume          =    8472.5527 (a.u.)^3
     number of atoms/cell      =           12
     number of atomic types    =            2
     number of electrons       =       144.00
     number of Kohn-Sham states=          102
     kinetic-energy cutoff     =      36.7493  Ry
     charge density cutoff     =     367.4932  Ry
     convergence threshold     =      1.0E-06
     mixing beta               =       0.1000
     number of iterations used =           10  plain     mixing
     Exchange-correlation      = BEEF-VDW ( 1  4 27 13 2)
     nstep                     =           50

     celldm(1)=   1.889726  celldm(2)=   0.000000  celldm(3)=   0.000000
     celldm(4)=   0.000000  celldm(5)=   0.000000  celldm(6)=   0.000000

     crystal axes: (cart. coord. in units of alat)
               a(1) = (   7.454753   0.000000   0.000000 )
               a(2) = (  -3.727377   6.456006   0.000000 )
               a(3) = (   0.000000   0.000000  26.086781 )

     reciprocal axes: (cart. coord. in units 2 pi/alat)
               b(1) = (  0.134143  0.077447  0.000000 )
               b(2) = (  0.000000  0.154895  0.000000 )
               b(3) = (  0.000000  0.000000  0.038334 )

     PseudoPot. # 1 for Hg read from file:
     /afs/slac.stanford.edu/u/if/mamunm/psp/gbrv1.5pbe/Hg.UPF
     MD5 check sum: 8f42caffe07f7fd9c0a564347f8c5498
     Pseudo is Ultrasoft + core correction, Zval = 12.0
     Generated by new atomic code, or converted to UPF format
     Using radial grid of  985 points,  6 beta functions with:
                l(1) =   0
                l(2) =   0
                l(3) =   1
                l(4) =   1
                l(5) =   2
                l(6) =   2
     Q(r) pseudized with  8 coefficients,  rinner =    2.000   2.000   2.000
                                                       2.000   2.000

     PseudoPot. # 2 for Cd read from file:
     /afs/slac.stanford.edu/u/if/mamunm/psp/gbrv1.5pbe/Cd.UPF
     MD5 check sum: 17164a7926edb8e0dc231208abae86a6
     Pseudo is Ultrasoft + core correction, Zval = 12.0
     Generated by new atomic code, or converted to UPF format
     Using radial grid of  889 points,  6 beta functions with:
                l(1) =   0
                l(2) =   0
                l(3) =   1
                l(4) =   1
                l(5) =   2
                l(6) =   2
     Q(r) pseudized with  6 coefficients,  rinner =    1.000   1.000   1.000
                                                       1.000   1.000

     vdW kernel table read from file vdW_kernel_table
     MD5 check sum: 095c7af220d748ca6e76c0b4c6cfb241

     atomic species   valence    mass     pseudopotential
        Hg1           12.00   200.59200     Hg( 1.00)
        Cd1           12.00   112.41400     Cd( 1.00)

     No symmetry found

   Cartesian axes

     site n.     atom                  positions (alat units)
         1           Hg1 tau(   1) = (   0.0000000   0.0000000  10.0000000  )
         2           Hg1 tau(   2) = (  -1.8636883   3.2280029  10.0000000  )
         3           Hg1 tau(   3) = (   1.8636883   3.2280029  10.0000000  )
         4           Cd1 tau(   4) = (   3.7273767   0.0000000  10.0000000  )
         5           Hg1 tau(   5) = (   3.7273767   2.1520019  13.0433903  )
         6           Hg1 tau(   6) = (   1.8636883   5.3800048  13.0433903  )
         7           Hg1 tau(   7) = (  -1.8636883   5.3800048  13.0433903  )
         8           Cd1 tau(   8) = (   0.0000000   2.1520019  13.0433903  )
         9           Hg1 tau(   9) = (  -0.0000000   4.3040039  16.0867806  )
        10           Hg1 tau(  10) = (   1.8636883   1.0760010  16.0867806  )
        11           Hg1 tau(  11) = (   5.5910650   1.0760010  16.0867806  )
        12           Cd1 tau(  12) = (   3.7273767   4.3040039  16.0867806  )

     number of k points=    20  Fermi-Dirac smearing, width (Ry)=  0.0110
                       cart. coord. in units 2pi/alat
        k(    1) = (   0.0000000   0.0000000   0.0000000), wk =   0.0555556
        k(    2) = (   0.0000000   0.0258158   0.0000000), wk =   0.1111111
        k(    3) = (   0.0000000   0.0516315   0.0000000), wk =   0.1111111
        k(    4) = (   0.0000000  -0.0774473   0.0000000), wk =   0.0555556
        k(    5) = (   0.0223571   0.0129079   0.0000000), wk =   0.1111111
        k(    6) = (   0.0223571   0.0387236   0.0000000), wk =   0.1111111
        k(    7) = (   0.0223571   0.0645394   0.0000000), wk =   0.1111111
        k(    8) = (   0.0223571  -0.0645394   0.0000000), wk =   0.1111111
        k(    9) = (   0.0223571  -0.0387236   0.0000000), wk =   0.1111111
        k(   10) = (   0.0223571  -0.0129079   0.0000000), wk =   0.1111111
        k(   11) = (   0.0447142   0.0258158   0.0000000), wk =   0.1111111
        k(   12) = (   0.0447142   0.0516315   0.0000000), wk =   0.1111111
        k(   13) = (   0.0447142   0.0774473   0.0000000), wk =   0.1111111
        k(   14) = (   0.0447142  -0.0516315   0.0000000), wk =   0.1111111
        k(   15) = (   0.0447142  -0.0258158   0.0000000), wk =   0.1111111
        k(   16) = (   0.0447142   0.0000000   0.0000000), wk =   0.1111111
        k(   17) = (  -0.0670713  -0.0387236   0.0000000), wk =   0.0555556
        k(   18) = (  -0.0670713  -0.0129079   0.0000000), wk =   0.1111111
        k(   19) = (  -0.0670713   0.0129079   0.0000000), wk =   0.1111111
        k(   20) = (  -0.0670713  -0.1161709   0.0000000), wk =   0.0555556

     Largest allocated arrays     est. size (Mb)     dimensions
     Largest temporary arrays     est. size (Mb)     dimensions

     Initial potential from superposition of free atoms
     Check: negative starting charge=   -0.064345

     starting charge  142.49935, renormalised to  144.00000

     negative rho (up, down):  6.502E-02 0.000E+00

     *
     * You are using vdW-DF for exchange-correlation in this calculation.
     * Please cite the following three references that made this development
     * possible:
     *
     *   M. Dion, H. Rydberg, E. Schroder, D. C. Langreth, and
     *   B. I. Lundqvist, Phys. Rev. Lett. 92, 246401 (2004).
     *
     *   T. Thonhauser, V. R. Cooper, S. Li, A. Puzder, P. Hyldgaard, and
     *   D. C. Langreth, Phys. Rev. B 76, 125112 (2007).
     *
     *   G. Roman-Perez and J. M. Soler, Phys. Rev. Lett. 103, 096102 (2009).
     *
     *
     * If you are using vdW-DF2, please also cite:
     *
     *   K. Lee, E. D. Murray, L. Kong, B. I. Lundqvist, and
     *   D. C. Langreth, Phys. Rev. B 82, 081101(R) (2010).
     *
     *
     * If you are calculating the stress with vdW-DF, please also cite:
     *
     *   R. Sabatini, E. Kucukbenli, B. Kolb, T. Thonhauser, and
     *   S. de Gironcoli, J. Phys.: Condens. Matter 24, 424209 (2012).
     *

     Carrying out vdW-DF run using the following parameters:

     Nqs =      20    Nr_points =    1024   r_max =   100.000
     q_mesh =
               0.00001000     0.04494208     0.09755937     0.15916263
               0.23128650     0.31572767     0.41458969     0.53033537
               0.66584808     0.82450364     1.01025438     1.22772762
               1.48234092     1.78043706     2.12944203     2.53805004
               3.01644009     3.57652955     4.23227104     5.00000000

     Gradients computed in reciprocal space

     Adding external electric field

     Computed dipole along edir(3) :
        Dipole               -0.0000 Ry au,         -0.0000 Debye
        Dipole field         -0.0000 Ry au

        Potential amp.        0.0000 Ry
        Total length         48.0644 bohr

     Starting wfc are  108 randomized atomic wfcs

     Self-consistent Calculation

     iteration #  1     ecut=    36.75 Ry     beta=0.10
     Davidson diagonalization with overlap
     ethr =  1.00E-02,  avg # of iterations =  8.3

     Threshold (ethr) on eigenvalues was too large:
     Diagonalizing with lowered threshold

     Davidson diagonalization with overlap
     ethr =  2.78E-04,  avg # of iterations =  6.6

[...]

     total energy              =   -1330.35929925 Ry
     Harris-Foulkes estimate   =   -1330.43197804 Ry
     estimated scf accuracy    <       0.40771309 Ry

[...]

     total energy              =   -1330.27586218 Ry
     Harris-Foulkes estimate   =   -1330.27585892 Ry
     estimated scf accuracy    <       0.00001052 Ry

     iteration # 10     ecut=    36.75 Ry     beta=0.10
     Davidson diagonalization with overlap
     ethr =  7.30E-09,  avg # of iterations =  2.0

[...]

     negative rho (up, down):  6.528E-02 0.000E+00

     Adding external electric field

     Computed dipole along edir(3) :
        Dipole               -0.0001 Ry au,         -0.0001 Debye
        Dipole field         -0.0000 Ry au

        Potential amp.        0.0000 Ry
        Total length         48.0644 bohr

     End of self-consistent calculation

          k = 0.0000 0.0000 0.0000 ( 31889 PWs)   bands (ev):

    -9.0636  -9.0619  -9.0619  -9.0503  -9.0503  -8.9917  -8.9871  -8.9871
    -8.9841  -8.9839  -8.9839  -8.9732  -8.9732  -8.9680  -8.9680  -7.4403
    -7.3957  -7.3715  -7.3713  -7.3636  -7.3387  -7.3257  -7.2775  -7.2774
    -7.2513  -7.2510  -7.2420  -7.2420  -7.1852  -7.1852  -7.1713  -7.1662
    -7.1523  -7.0827  -7.0827  -7.0517  -7.0390  -7.0386  -7.0361  -6.9945
    -6.9942  -6.9653  -6.9653  -6.9567  -6.9440  -6.9440  -6.9175  -6.9175
    -6.9006  -6.9006  -6.8648  -6.8648  -6.8478  -6.8477  -6.8457  -6.8014
    -6.7736  -6.7736  -6.7238  -6.7184  -6.6117  -5.5843  -4.1954  -3.3472
    -3.3471  -3.0284  -3.0284  -2.4366  -2.4366  -2.3255  -2.1332  -1.3977
    -0.5249  -0.5249  -0.4123  -0.3702   0.4241   0.4241   0.5164   0.5164
     0.5624   0.7470   1.4032   2.7698   3.0733   3.4686   3.4757   3.4757
     3.5271   3.5474   3.5474   3.9538   4.0173   5.0382   5.0382   5.1142
     5.1142   5.1381   5.1433   5.6463   5.6610   5.6610

[...]

          k = 0.0447 0.0000 0.0000 ( 31859 PWs)   bands (ev):

[...]

          k =-0.0671-0.0387 0.0000 ( 31842 PWs)   bands (ev):

[...]

          k =-0.0671-0.1162 0.0000 ( 31842 PWs)   bands (ev):

    -9.0603  -9.0520  -9.0507  -9.0426  -9.0400  -8.9855  -8.9849  -8.9775
    -8.9752  -8.9708  -8.9695  -8.9685  -8.9675  -8.9664  -8.9648  -7.3806
    -7.3162  -7.3112  -7.2723  -7.2655  -7.2371  -7.2357  -7.2352  -7.2215
    -7.2206  -7.2108  -7.2004  -7.1745  -7.1402  -7.1402  -7.1082  -7.1082
    -7.0790  -7.0517  -7.0493  -7.0439  -7.0331  -7.0324  -7.0305  -7.0221
    -7.0208  -7.0200  -7.0191  -6.9992  -6.9964  -6.9920  -6.9900  -6.9785
    -6.9783  -6.9722  -6.9548  -6.9368  -6.9345  -6.9314  -6.9296  -6.9035
    -6.8859  -6.8476  -6.7951  -6.7635  -5.6761  -5.5758  -4.7283  -4.5970
    -3.8815  -3.7365  -3.4587  -3.1331  -2.8691  -2.3830  -2.3445  -1.5908
     0.6858   0.6874   1.0814   1.1250   1.1584   1.3041   1.8259   1.9995
     2.0881   2.2115   2.2335   2.2397   3.1638   3.2146   3.2397   3.3272
     3.5568   3.6101   3.7320   3.7670   3.9822   3.9830   4.0199   4.0773
     4.1354   4.2134   4.2267   4.2716   4.7028   4.8003

     the Fermi energy is    -0.9354 ev

!    total energy              =   -1330.27588062 Ry
     Harris-Foulkes estimate   =   -1330.27586439 Ry
     estimated scf accuracy    <       0.00000091 Ry

     The total energy is the sum of the following terms:

     one-electron contribution =   -5854.50694583 Ry
     hartree contribution      =    3014.93846993 Ry
     xc contribution           =    -485.67619745 Ry
     ewald contribution        =    1994.97143376 Ry
     electric field correction =       0.00000000 Ry
     smearing contrib. (-TS)   =      -0.00264104 Ry

     convergence has been achieved in  10 iterations

 BEEF-vdW xc energy contributions
           1 :   -425.161930521933
           2 :    388.856244670900
           3 :   -327.570779045821
           4 :    258.143961547942
           5 :   -195.491501949338
           6 :    147.633246075378
           7 :   -114.974463103231
           8 :    93.1347608606060
           9 :   -76.9548830499263
          10 :    63.2622179582518
          11 :   -51.3326265946952
          12 :    41.6368935912195
          13 :   -34.3505838470613
          14 :    28.7919996352109
          15 :   -23.9181141561578
          16 :    19.1442959276889
          17 :   -14.6807373189129
          18 :    11.1657902717768
          19 :   -9.01446758498929
          20 :    8.05629946896266
          21 :   -7.69949609335589
          22 :    7.38658073932271
          23 :   -6.91363135678927
          24 :    6.37826018215452
          25 :   -5.89007975477034
          26 :    5.37149745991115
          27 :   -4.64851559090181
          28 :    3.72120471354202
          29 :   -2.91335888524185
          30 :    2.69970314126914
          31 :   -39.1689166021293
          32 :   -28.3037802915970

     Forces acting on atoms (Ry/au):

     negative rho (up, down):  6.528E-02 0.000E+00
     atom    1 type  1   force =    -0.00000520    0.00024099   -0.00084913
     atom    2 type  1   force =     0.00020475   -0.00012486   -0.00084226
     atom    3 type  1   force =    -0.00020118   -0.00012696   -0.00083829
     atom    4 type  2   force =    -0.00000203    0.00000555    0.00107303
     atom    5 type  1   force =     0.00000102   -0.00000062   -0.00000217
     atom    6 type  1   force =    -0.00000162   -0.00000062    0.00000147
     atom    7 type  1   force =     0.00000024    0.00000386    0.00000244
     atom    8 type  2   force =    -0.00000163    0.00000462   -0.00000013
     atom    9 type  1   force =    -0.00000147   -0.00024217    0.00084653
     atom   10 type  1   force =    -0.00020037    0.00012266    0.00083766
     atom   11 type  1   force =     0.00020517    0.00012908    0.00083664
     atom   12 type  2   force =     0.00000232   -0.00001152   -0.00106579

     Total force =     0.002624     Total SCF correction =     0.001666
     SCF correction compared to forces is large: reduce conv_thr to get better values

     entering subroutine stress ...

     negative rho (up, down):  6.528E-02 0.000E+00
          total   stress  (Ry/bohr**3)                   (kbar)     P=   -0.18
   0.00000043  -0.00000000  -0.00000000          0.06     -0.00     -0.00
  -0.00000000   0.00000043   0.00000000         -0.00      0.06      0.00
  -0.00000000   0.00000000  -0.00000443         -0.00      0.00     -0.65

 !ASE

     Writing output data file calc.save

     General routines

     Parallel routines

   This run was terminated on:   8:23:46  30Dec2018

   JOB DONE.
Job  /afs/slac/g/suncat/bin/suncat-tsmpirun -x LD_LIBRARY_PATH -wdir /scratch/qe648478_MGq6r pw.x -in pw.inp

TID   HOST_NAME   COMMAND_LINE            STATUS            TERMINATION_TIME
00000 suncat0083 pw.x -in pw.inp   Done                     12/30/2018 08:23:46
00001 suncat0083 pw.x -in pw.inp   Done                     12/30/2018 08:23:46
00002 suncat0083 pw.x -in pw.inp   Done                     12/30/2018 08:23:46
00003 suncat0083 pw.x -in pw.inp   Done                     12/30/2018 08:23:46
00004 suncat0083 pw.x -in pw.inp   Done                     12/30/2018 08:23:46
00005 suncat0083 pw.x -in pw.inp   Done                     12/30/2018 08:23:46
00006 suncat0083 pw.x -in pw.inp   Done                     12/30/2018 08:23:46
00007 suncat0083 pw.x -in pw.inp   Done                     12/30/2018 08:23:46
00008 suncat0082 pw.x -in pw.inp   Done                     12/30/2018 08:23:46
00009 suncat0082 pw.x -in pw.inp   Done                     12/30/2018 08:23:46
00010 suncat0082 pw.x -in pw.inp   Done                     12/30/2018 08:23:46
00011 suncat0082 pw.x -in pw.inp   Done                     12/30/2018 08:23:46
00012 suncat0082 pw.x -in pw.inp   Done                     12/30/2018 08:23:46
00013 suncat0082 pw.x -in pw.inp   Done                     12/30/2018 08:23:46
00014 suncat0082 pw.x -in pw.inp   Done                     12/30/2018 08:23:46
00015 suncat0082 pw.x -in pw.inp   Done                     12/30/2018 08:23:46
00016 suncat0080 pw.x -in pw.inp   Done                     12/30/2018 08:23:46
00017 suncat0080 pw.x -in pw.inp   Done                     12/30/2018 08:23:46
00018 suncat0080 pw.x -in pw.inp   Done                     12/30/2018 08:23:46
00019 suncat0080 pw.x -in pw.inp   Done                     12/30/2018 08:23:46
00020 suncat0080 pw.x -in pw.inp   Done                     12/30/2018 08:23:46
00021 suncat0080 pw.x -in pw.inp   Done                     12/30/2018 08:23:46
00022 suncat0080 pw.x -in pw.inp   Done                     12/30/2018 08:23:46
00023 suncat0080 pw.x -in pw.inp   Done                     12/30/2018 08:23:46
00024 suncat0078 pw.x -in pw.inp   Done                     12/30/2018 08:23:46
00025 suncat0078 pw.x -in pw.inp   Done                     12/30/2018 08:23:46
00026 suncat0078 pw.x -in pw.inp   Done                     12/30/2018 08:23:46
00027 suncat0078 pw.x -in pw.inp   Done                     12/30/2018 08:23:46
00028 suncat0078 pw.x -in pw.inp   Done                     12/30/2018 08:23:46
00029 suncat0078 pw.x -in pw.inp   Done                     12/30/2018 08:23:46
00030 suncat0078 pw.x -in pw.inp   Done                     12/30/2018 08:23:46
00031 suncat0078 pw.x -in pw.inp   Done                     12/30/2018 08:23:46
00032 suncat0241 pw.x -in pw.inp   Done                     12/30/2018 08:23:46
00033 suncat0241 pw.x -in pw.inp   Done                     12/30/2018 08:23:46
00034 suncat0241 pw.x -in pw.inp   Done                     12/30/2018 08:23:46
00035 suncat0241 pw.x -in pw.inp   Done                     12/30/2018 08:23:46
00036 suncat0241 pw.x -in pw.inp   Done                     12/30/2018 08:23:46
00037 suncat0241 pw.x -in pw.inp   Done                     12/30/2018 08:23:46
00038 suncat0241 pw.x -in pw.inp   Done                     12/30/2018 08:23:46
00039 suncat0241 pw.x -in pw.inp   Done                     12/30/2018 08:23:46
00040 suncat0240 pw.x -in pw.inp   Done                     12/30/2018 08:23:46
00041 suncat0240 pw.x -in pw.inp   Done                     12/30/2018 08:23:46
00042 suncat0240 pw.x -in pw.inp   Done                     12/30/2018 08:23:46
00043 suncat0240 pw.x -in pw.inp   Done                     12/30/2018 08:23:46
00044 suncat0240 pw.x -in pw.inp   Done                     12/30/2018 08:23:46
00045 suncat0240 pw.x -in pw.inp   Done                     12/30/2018 08:23:46
00046 suncat0240 pw.x -in pw.inp   Done                     12/30/2018 08:23:46
00047 suncat0240 pw.x -in pw.inp   Done                     12/30/2018 08:23:46
00048 suncat0239 pw.x -in pw.inp   Done                     12/30/2018 08:23:46
00049 suncat0239 pw.x -in pw.inp   Done                     12/30/2018 08:23:46
00050 suncat0239 pw.x -in pw.inp   Done                     12/30/2018 08:23:46
00051 suncat0239 pw.x -in pw.inp   Done                     12/30/2018 08:23:46
00052 suncat0239 pw.x -in pw.inp   Done                     12/30/2018 08:23:46
00053 suncat0239 pw.x -in pw.inp   Done                     12/30/2018 08:23:46
00054 suncat0239 pw.x -in pw.inp   Done                     12/30/2018 08:23:46
00055 suncat0239 pw.x -in pw.inp   Done                     12/30/2018 08:23:46
00056 suncat0098 pw.x -in pw.inp   Done                     12/30/2018 08:23:46
00057 suncat0098 pw.x -in pw.inp   Done                     12/30/2018 08:23:46
00058 suncat0098 pw.x -in pw.inp   Done                     12/30/2018 08:23:46
00059 suncat0098 pw.x -in pw.inp   Done                     12/30/2018 08:23:46
00060 suncat0098 pw.x -in pw.inp   Done                     12/30/2018 08:23:46
00061 suncat0098 pw.x -in pw.inp   Done                     12/30/2018 08:23:46
00062 suncat0098 pw.x -in pw.inp   Done                     12/30/2018 08:23:46
00063 suncat0098 pw.x -in pw.inp   Done                     12/30/2018 08:23:46