     Program PWSCF v.5.1rc2 (svn rev. 11289) starts on 27Dec2018 at 16: 8:50

     Current dimensions of program PWSCF are:
     Max number of different atomic species (ntypx) = 10
     Max number of k-points (npk) =  40000
     Max angular momentum in pseudopotentials (lmaxx) =  3
     Presently stress not available with electric field

     IMPORTANT: XC functional enforced from input :
     Exchange-correlation      = BEEF-VDW ( 1  4 27 13 2)
     Any further DFT definition will be discarded
     Please, verify this is what you really want

     Subspace diagonalization in iterative solution of the eigenvalue problem:
     a serial algorithm will be used

     bravais-lattice index     =            0
     lattice parameter (alat)  =       1.8897  a.u.
     unit-cell volume          =    7777.3999 (a.u.)^3
     number of atoms/cell      =           12
     number of atomic types    =            2
     number of electrons       =       165.00
     number of Kohn-Sham states=          112
     kinetic-energy cutoff     =      36.7493  Ry
     charge density cutoff     =     367.4932  Ry
     convergence threshold     =      1.0E-06
     mixing beta               =       0.1000
     number of iterations used =           10  plain     mixing
     Exchange-correlation      = BEEF-VDW ( 1  4 27 13 2)
     nstep                     =           50

     celldm(1)=   1.889726  celldm(2)=   0.000000  celldm(3)=   0.000000
     celldm(4)=   0.000000  celldm(5)=   0.000000  celldm(6)=   0.000000

     crystal axes: (cart. coord. in units of alat)
               a(1) = (   7.173979   0.000000   0.000000 )
               a(2) = (  -3.586989   6.212848   0.000000 )
               a(3) = (   0.000000   0.000000  25.857529 )

     reciprocal axes: (cart. coord. in units 2 pi/alat)
               b(1) = (  0.139393  0.080478  0.000000 )
               b(2) = (  0.000000  0.160957  0.000000 )
               b(3) = (  0.000000  0.000000  0.038673 )

     PseudoPot. # 1 for Pb read from file:
     /afs/slac.stanford.edu/u/if/mamunm/psp/gbrv1.5pbe/Pb.UPF
     MD5 check sum: 3d1c1779aa92214d1e8f3a7db79003e2
     Pseudo is Ultrasoft + core correction, Zval = 14.0
     Generated by new atomic code, or converted to UPF format
     Using radial grid of  899 points,  6 beta functions with:
                l(1) =   0
                l(2) =   0
                l(3) =   1
                l(4) =   1
                l(5) =   2
                l(6) =   2
     Q(r) pseudized with  6 coefficients,  rinner =    1.000   1.000   1.000
                                                       1.000   1.000

     PseudoPot. # 2 for Tl read from file:
     /afs/slac.stanford.edu/u/if/mamunm/psp/gbrv1.5pbe/Tl.UPF
     MD5 check sum: b76cf1f7e72655a2b2c53cf6385d7059
     Pseudo is Ultrasoft + core correction, Zval = 13.0
     Generated by new atomic code, or converted to UPF format
     Using radial grid of  899 points,  6 beta functions with:
                l(1) =   0
                l(2) =   0
                l(3) =   1
                l(4) =   1
                l(5) =   2
                l(6) =   2
     Q(r) pseudized with  6 coefficients,  rinner =    1.100   1.100   1.100
                                                       1.100   1.100

     vdW kernel table read from file vdW_kernel_table
     MD5 check sum: 095c7af220d748ca6e76c0b4c6cfb241

     atomic species   valence    mass     pseudopotential
        Pb1           14.00   207.20000     Pb( 1.00)
        Tl1           13.00   204.38000     Tl( 1.00)

     No symmetry found

   Cartesian axes

     site n.     atom                  positions (alat units)
         1           Pb1 tau(   1) = (   0.0000000   0.0000000  10.0000000  )
         2           Pb1 tau(   2) = (  -1.7934947   3.1064239  10.0000000  )
         3           Pb1 tau(   3) = (   1.7934947   3.1064239  10.0000000  )
         4           Tl1 tau(   4) = (   3.5869894   0.0000000  10.0000000  )
         5           Pb1 tau(   5) = (   3.5869894   2.0709493  12.9287646  )
         6           Pb1 tau(   6) = (   1.7934947   5.1773732  12.9287646  )
         7           Pb1 tau(   7) = (  -1.7934947   5.1773732  12.9287646  )
         8           Tl1 tau(   8) = (   0.0000000   2.0709493  12.9287646  )
         9           Pb1 tau(   9) = (  -0.0000000   4.1418986  15.8575291  )
        10           Pb1 tau(  10) = (   1.7934947   1.0354746  15.8575291  )
        11           Pb1 tau(  11) = (   5.3804841   1.0354746  15.8575291  )
        12           Tl1 tau(  12) = (   3.5869894   4.1418986  15.8575291  )

     number of k points=    20  Fermi-Dirac smearing, width (Ry)=  0.0110
                       cart. coord. in units 2pi/alat
        k(    1) = (   0.0000000   0.0000000   0.0000000), wk =   0.0555556
        k(    2) = (   0.0000000   0.0268261   0.0000000), wk =   0.1111111
        k(    3) = (   0.0000000   0.0536523   0.0000000), wk =   0.1111111
        k(    4) = (   0.0000000  -0.0804784   0.0000000), wk =   0.0555556
        k(    5) = (   0.0232321   0.0134131   0.0000000), wk =   0.1111111
        k(    6) = (   0.0232321   0.0402392   0.0000000), wk =   0.1111111
        k(    7) = (   0.0232321   0.0670653   0.0000000), wk =   0.1111111
        k(    8) = (   0.0232321  -0.0670653   0.0000000), wk =   0.1111111
        k(    9) = (   0.0232321  -0.0402392   0.0000000), wk =   0.1111111
        k(   10) = (   0.0232321  -0.0134131   0.0000000), wk =   0.1111111
        k(   11) = (   0.0464642   0.0268261   0.0000000), wk =   0.1111111
        k(   12) = (   0.0464642   0.0536523   0.0000000), wk =   0.1111111
        k(   13) = (   0.0464642   0.0804784   0.0000000), wk =   0.1111111
        k(   14) = (   0.0464642  -0.0536523   0.0000000), wk =   0.1111111
        k(   15) = (   0.0464642  -0.0268261   0.0000000), wk =   0.1111111
        k(   16) = (   0.0464642  -0.0000000   0.0000000), wk =   0.1111111
        k(   17) = (  -0.0696963  -0.0402392   0.0000000), wk =   0.0555556
        k(   18) = (  -0.0696963  -0.0134131   0.0000000), wk =   0.1111111
        k(   19) = (  -0.0696963   0.0134131   0.0000000), wk =   0.1111111
        k(   20) = (  -0.0696963  -0.1207176   0.0000000), wk =   0.0555556

     Largest allocated arrays     est. size (Mb)     dimensions
     Largest temporary arrays     est. size (Mb)     dimensions

     Check: negative/imaginary core charge=   -0.000001    0.000000

     Initial potential from superposition of free atoms
     Check: negative starting charge=   -0.301741

     starting charge  164.96424, renormalised to  165.00000

     negative rho (up, down):  3.018E-01 0.000E+00

     *
     * You are using vdW-DF for exchange-correlation in this calculation.
     * Please cite the following three references that made this development
     * possible:
     *
     *   M. Dion, H. Rydberg, E. Schroder, D. C. Langreth, and
     *   B. I. Lundqvist, Phys. Rev. Lett. 92, 246401 (2004).
     *
     *   T. Thonhauser, V. R. Cooper, S. Li, A. Puzder, P. Hyldgaard, and
     *   D. C. Langreth, Phys. Rev. B 76, 125112 (2007).
     *
     *   G. Roman-Perez and J. M. Soler, Phys. Rev. Lett. 103, 096102 (2009).
     *
     *
     * If you are using vdW-DF2, please also cite:
     *
     *   K. Lee, E. D. Murray, L. Kong, B. I. Lundqvist, and
     *   D. C. Langreth, Phys. Rev. B 82, 081101(R) (2010).
     *
     *
     * If you are calculating the stress with vdW-DF, please also cite:
     *
     *   R. Sabatini, E. Kucukbenli, B. Kolb, T. Thonhauser, and
     *   S. de Gironcoli, J. Phys.: Condens. Matter 24, 424209 (2012).
     *

     Carrying out vdW-DF run using the following parameters:

     Nqs =      20    Nr_points =    1024   r_max =   100.000
     q_mesh =
               0.00001000     0.04494208     0.09755937     0.15916263
               0.23128650     0.31572767     0.41458969     0.53033537
               0.66584808     0.82450364     1.01025438     1.22772762
               1.48234092     1.78043706     2.12944203     2.53805004
               3.01644009     3.57652955     4.23227104     5.00000000

     Gradients computed in reciprocal space

     Adding external electric field

     Computed dipole along edir(3) :
        Dipole               -0.0000 Ry au,         -0.0000 Debye
        Dipole field         -0.0000 Ry au

        Potential amp.        0.0000 Ry
        Total length         47.6421 bohr

     Starting wfc are  108 randomized atomic wfcs +    4 random wfc

     Self-consistent Calculation

     iteration #  1     ecut=    36.75 Ry     beta=0.10
     Davidson diagonalization with overlap
     ethr =  1.00E-02,  avg # of iterations =  6.8

     Threshold (ethr) on eigenvalues was too large:
     Diagonalizing with lowered threshold

     Davidson diagonalization with overlap
     ethr =  9.63E-05,  avg # of iterations = 10.0

[...]

     total energy              =   -1934.53307772 Ry
     Harris-Foulkes estimate   =   -1934.55821935 Ry
     estimated scf accuracy    <       0.16589702 Ry

[...]

     iteration #  5     ecut=    36.75 Ry     beta=0.10
     Davidson diagonalization with overlap
     c_bands:  1 eigenvalues not converged
     ethr =  1.63E-06,  avg # of iterations =  8.8

[...]

     End of self-consistent calculation

          k = 0.0000 0.0000 0.0000 ( 29201 PWs)   bands (ev):

   -16.7623 -16.7566 -16.7493 -16.7493 -16.7381 -16.7381 -16.7173 -16.6984
   -16.6959 -16.6954 -16.6953 -16.6879 -16.6758 -16.6758 -16.6626 -16.6555
   -16.6555 -16.6346 -16.6339 -16.6339 -16.6237 -16.6237 -16.6217 -16.6116
   -16.6116 -16.5988 -16.5987 -16.5787 -16.5787 -16.5622 -16.5622 -16.5472
   -16.5207 -16.5135 -16.5112 -16.4978 -16.4977 -16.4802 -16.4802 -16.4553
   -16.4552 -16.4542 -16.4101 -16.4099 -16.3813 -10.9995 -10.9994 -10.9746
   -10.9746 -10.9692 -10.9692 -10.9611 -10.9611 -10.9604 -10.9604 -10.8240
   -10.8239 -10.8239 -10.8027 -10.8027  -9.7972  -8.9193  -7.7391  -7.1069
    -7.1068  -6.7968  -6.7968  -6.2734  -6.2733  -5.0073  -4.8657  -4.2481
    -2.4312  -2.1183  -2.1183  -1.7716  -1.3755  -1.2928  -1.2727  -1.2726
    -1.1225  -1.1225   0.4806   1.9089   1.9089   2.0171   2.0171   2.5032
     2.8083   3.0609   3.2133   3.7335   3.7335   3.8080   3.9919   3.9920
     4.1825   4.4649   4.5842   4.6824   4.6824   4.7744   5.4242   5.7358
     5.7359   5.8520   6.0081   6.1069   6.1069   6.2756   6.7320   6.7320

[...]

          k =-0.0697-0.0402 0.0000 ( 29248 PWs)   bands (ev):

[...]

     the Fermi energy is     0.7476 ev

!    total energy              =   -1934.54438945 Ry
     Harris-Foulkes estimate   =   -1934.54409034 Ry
     estimated scf accuracy    <       0.00000015 Ry

     The total energy is the sum of the following terms:

     one-electron contribution =   -8349.70776961 Ry
     hartree contribution      =    4245.28382325 Ry
     xc contribution           =    -779.36861085 Ry
     ewald contribution        =    2949.29425388 Ry
     electric field correction =       0.00000000 Ry
     smearing contrib. (-TS)   =      -0.04608612 Ry

     convergence has been achieved in  13 iterations

 BEEF-vdW xc energy contributions
           1 :   -694.153616541093
           2 :    644.385696015726
[...]
                l(1) =   0
                l(2) =   0
                l(3) =   1
                l(4) =   1
                l(5) =   2
                l(6) =   2
     Q(r) pseudized with  6 coefficients,  rinner =    1.000   1.000   1.000
                                                       1.000   1.000

     PseudoPot. # 2 for Tl read from file:
     /afs/slac.stanford.edu/u/if/mamunm/psp/gbrv1.5pbe/Tl.UPF
     MD5 check sum: b76cf1f7e72655a2b2c53cf6385d7059
     Pseudo is Ultrasoft + core correction, Zval = 13.0
     Generated by new atomic code, or converted to UPF format
     Using radial grid of  899 points,  6 beta functions with:
                l(1) =   0
                l(2) =   0
                l(3) =   1
                l(4) =   1
                l(5) =   2
                l(6) =   2
     Q(r) pseudized with  6 coefficients,  rinner =    1.100   1.100   1.100
                                                       1.100   1.100

     vdW kernel table read from file vdW_kernel_table
     MD5 check sum: 095c7af220d748ca6e76c0b4c6cfb241

     atomic species   valence    mass     pseudopotential
        Pb1           14.00   207.20000     Pb( 1.00)
        Tl1           13.00   204.38000     Tl( 1.00)

     No symmetry found

   Cartesian axes

     site n.     atom                  positions (alat units)
         1           Pb1 tau(   1) = (   0.0000000   0.0000000  10.0000000  )
         2           Pb1 tau(   2) = (  -1.7934947   3.1064239  10.0000000  )
         3           Pb1 tau(   3) = (   1.7934947   3.1064239  10.0000000  )
         4           Tl1 tau(   4) = (   3.5869894   0.0000000  10.0000000  )
         5           Pb1 tau(   5) = (   3.5869894   2.0709493  12.9287646  )
         6           Pb1 tau(   6) = (   1.7934947   5.1773732  12.9287646  )
         7           Pb1 tau(   7) = (  -1.7934947   5.1773732  12.9287646  )
         8           Tl1 tau(   8) = (   0.0000000   2.0709493  12.9287646  )
         9           Pb1 tau(   9) = (   0.0000339   4.2015265  15.6688042  )
        10           Pb1 tau(  10) = (   1.8451232   1.0056385  15.6686284  )
        11           Pb1 tau(  11) = (   5.3288763   1.0056183  15.6687736  )
        12           Tl1 tau(  12) = (   3.5871657   4.1416866  15.9949535  )

     number of k points=    20  Fermi-Dirac smearing, width (Ry)=  0.0110
                       cart. coord. in units 2pi/alat
        k(    1) = (   0.0000000   0.0000000   0.0000000), wk =   0.0555556
        k(    2) = (   0.0000000   0.0268261   0.0000000), wk =   0.1111111
        k(    3) = (   0.0000000   0.0536523   0.0000000), wk =   0.1111111
        k(    4) = (   0.0000000  -0.0804784   0.0000000), wk =   0.0555556
        k(    5) = (   0.0232321   0.0134131   0.0000000), wk =   0.1111111
        k(    6) = (   0.0232321   0.0402392   0.0000000), wk =   0.1111111
        k(    7) = (   0.0232321   0.0670653   0.0000000), wk =   0.1111111
        k(    8) = (   0.0232321  -0.0670653   0.0000000), wk =   0.1111111
        k(    9) = (   0.0232321  -0.0402392   0.0000000), wk =   0.1111111
        k(   10) = (   0.0232321  -0.0134131   0.0000000), wk =   0.1111111
        k(   11) = (   0.0464642   0.0268261   0.0000000), wk =   0.1111111
        k(   12) = (   0.0464642   0.0536523   0.0000000), wk =   0.1111111
        k(   13) = (   0.0464642   0.0804784   0.0000000), wk =   0.1111111
        k(   14) = (   0.0464642  -0.0536523   0.0000000), wk =   0.1111111
        k(   15) = (   0.0464642  -0.0268261   0.0000000), wk =   0.1111111
        k(   16) = (   0.0464642  -0.0000000   0.0000000), wk =   0.1111111
        k(   17) = (  -0.0696963  -0.0402392   0.0000000), wk =   0.0555556
        k(   18) = (  -0.0696963  -0.0134131   0.0000000), wk =   0.1111111
        k(   19) = (  -0.0696963   0.0134131   0.0000000), wk =   0.1111111
        k(   20) = (  -0.0696963  -0.1207176   0.0000000), wk =   0.0555556

     Largest allocated arrays     est. size (Mb)     dimensions
     Largest temporary arrays     est. size (Mb)     dimensions

     Check: negative/imaginary core charge=   -0.000001    0.000000

     Initial potential from superposition of free atoms
     Check: negative starting charge=   -0.302574

     starting charge  164.96424, renormalised to  165.00000

[...]

     *
     * You are using vdW-DF for exchange-correlation in this calculation.
     * Please cite the following three references that made this development
     * possible:
     *
     *   M. Dion, H. Rydberg, E. Schroder, D. C. Langreth, and
     *   B. I. Lundqvist, Phys. Rev. Lett. 92, 246401 (2004).
     *
     *   T. Thonhauser, V. R. Cooper, S. Li, A. Puzder, P. Hyldgaard, and
     *   D. C. Langreth, Phys. Rev. B 76, 125112 (2007).
     *
     *   G. Roman-Perez and J. M. Soler, Phys. Rev. Lett. 103, 096102 (2009).
     *
     *
     * If you are using vdW-DF2, please also cite:
     *
     *   K. Lee, E. D. Murray, L. Kong, B. I. Lundqvist, and
     *   D. C. Langreth, Phys. Rev. B 82, 081101(R) (2010).
     *
     *
     * If you are calculating the stress with vdW-DF, please also cite:
     *
     *   R. Sabatini, E. Kucukbenli, B. Kolb, T. Thonhauser, and
     *   S. de Gironcoli, J. Phys.: Condens. Matter 24, 424209 (2012).
     *

     Carrying out vdW-DF run using the following parameters:

     Nqs =      20    Nr_points =    1024   r_max =   100.000
     q_mesh =
               0.00001000     0.04494208     0.09755937     0.15916263
               0.23128650     0.31572767     0.41458969     0.53033537
               0.66584808     0.82450364     1.01025438     1.22772762
               1.48234092     1.78043706     2.12944203     2.53805004
               3.01644009     3.57652955     4.23227104     5.00000000

     Gradients computed in reciprocal space

[...]

     Starting wfc are  108 randomized atomic wfcs +    4 random wfc

     Self-consistent Calculation

[...]

     Threshold (ethr) on eigenvalues was too large:
     Diagonalizing with lowered threshold

     Davidson diagonalization with overlap
     ethr =  1.07E-04,  avg # of iterations =  9.4

[...]

     total energy              =   -1934.56734636 Ry
     Harris-Foulkes estimate   =   -1934.56720505 Ry
     estimated scf accuracy    <       0.00000135 Ry

     iteration # 12     ecut=    36.75 Ry     beta=0.10
     Davidson diagonalization with overlap
     ethr =  8.17E-10,  avg # of iterations =  3.2

[...]

     negative rho (up, down):  3.162E-01 0.000E+00

     Adding external electric field

     Computed dipole along edir(3) :
        Dipole                0.0055 Ry au,          0.0140 Debye
        Dipole field          0.0000 Ry au

        Potential amp.       -0.0008 Ry
        Total length         47.6421 bohr

     End of self-consistent calculation

[...]

          k = 0.0465-0.0000 0.0000 ( 29257 PWs)   bands (ev):

[...]

          k =-0.0697-0.1207 0.0000 ( 29248 PWs)   bands (ev):

   -16.7313 -16.6985 -16.6863 -16.6741 -16.6712 -16.6629 -16.6603 -16.6571
   -16.6569 -16.6558 -16.6440 -16.6432 -16.6354 -16.6336 -16.6255 -16.6236
   -16.6222 -16.6187 -16.6182 -16.6103 -16.6098 -16.6052 -16.5900 -16.5876
   -16.5833 -16.5773 -16.5619 -16.5482 -16.5391 -16.5357 -16.5032 -16.4971
   -16.4791 -16.4759 -16.4746 -16.4576 -16.4566 -16.4466 -16.4408 -16.4349
   -16.4287 -16.4235 -16.4114 -16.3992 -16.3589 -11.0396 -11.0216 -11.0166
   -11.0091 -11.0029 -10.9556 -10.9382 -10.9326 -10.9258 -10.9202 -10.8379
   -10.8308 -10.8219 -10.8120 -10.8068  -9.1173  -8.8533  -8.1069  -7.9301
    -7.5175  -7.0779  -6.9695  -6.8427  -6.1110  -5.4200  -5.0535  -4.5021
    -1.0152  -0.9236  -0.7019  -0.6561  -0.5629  -0.5502  -0.1638   0.1918
     0.3445   0.7042   0.7968   0.9716   1.4726   1.5355   1.6283   1.9310
     1.9434   2.0751   2.4602   2.5342   2.8555   2.8995   3.2545   3.2860
     3.5398   3.5728   4.0486   4.2385   4.4513   4.7001   4.7533   4.8073
     4.8149   5.2156   5.3749   5.4515   5.4710   5.5111   5.6457   5.9031

     the Fermi energy is     0.7757 ev

!    total energy              =   -1934.56773949 Ry
     Harris-Foulkes estimate   =   -1934.56734660 Ry
     estimated scf accuracy    <       0.00000087 Ry

     The total energy is the sum of the following terms:

     one-electron contribution =   -8481.14531699 Ry
     hartree contribution      =    4311.19059828 Ry
     xc contribution           =    -779.47772527 Ry
     ewald contribution        =    3014.90899265 Ry
     electric field correction =       0.00000005 Ry
     smearing contrib. (-TS)   =      -0.04428820 Ry

     convergence has been achieved in  12 iterations

 BEEF-vdW xc energy contributions
           1 :   -694.806802697684
           2 :    645.086733893641
           3 :   -557.731252199654
           4 :    452.124135405229
           5 :   -348.033398429325
           6 :    259.577913131489
           7 :   -192.277868483815
           8 :    143.795227351265
           9 :   -107.458814219911
          10 :    76.6051002038115
          11 :   -47.7018857700550
          12 :    21.0733232478899
          13 :   0.592086176093062
          14 :   -14.7182507786218
          15 :    20.7830800511618
          16 :   -20.7727600410462
          17 :    18.1384432577419
          18 :   -16.0538993965907
          19 :    16.0186601497774
          20 :   -17.5290412024467
          21 :    18.8597103878258
          22 :   -18.3924074329975
          23 :    15.6808534272545
          24 :   -11.6830387093569
          25 :    8.11930953212288
          26 :   -6.42330089329823
          27 :    6.93285443091520
          28 :   -8.77148688842851
          29 :    10.4317733660621
          30 :   -10.6753579231137
          31 :   -55.5179448544669
          32 :   -40.5960817510987

     Forces acting on atoms (Ry/au):

     negative rho (up, down):  3.162E-01 0.000E+00
     atom    1 type  1   force =    -0.00000056   -0.00106931    0.00743975
     atom    2 type  1   force =    -0.00092677    0.00053532    0.00744143
     atom    3 type  1   force =     0.00092629    0.00053476    0.00744069
     atom    4 type  2   force =    -0.00000246   -0.00000249   -0.00437017
     atom    5 type  1   force =     0.00000036    0.00215668   -0.00528569
     atom    6 type  1   force =     0.00186979   -0.00107948   -0.00527979
     atom    7 type  1   force =    -0.00186551   -0.00107997   -0.00528412
     atom    8 type  2   force =    -0.00000036    0.00000172   -0.00717304
     atom    9 type  1   force =     0.00000403   -0.00105270    0.00104294
     atom   10 type  1   force =    -0.00090896    0.00052389    0.00105655
     atom   11 type  1   force =     0.00091284    0.00052105    0.00104378
     atom   12 type  2   force =    -0.00000869    0.00001053    0.00192769

     Total force =     0.018657     Total SCF correction =     0.003554
     SCF correction compared to forces is large: reduce conv_thr to get better values

     entering subroutine stress ...

     negative rho (up, down):  3.162E-01 0.000E+00
          total   stress  (Ry/bohr**3)                   (kbar)     P=   -2.36
  -0.00001954   0.00000000  -0.00000000         -2.87      0.00     -0.00
   0.00000000  -0.00001953   0.00000000          0.00     -2.87      0.00
  -0.00000000   0.00000000  -0.00000898         -0.00      0.00     -1.32

 !ASE

     Writing output data file calc.save

     General routines

     Parallel routines

   This run was terminated on:   0:17: 2  28Dec2018

   JOB DONE.
Job  /afs/slac/g/suncat/bin/suncat-tsmpirun -x LD_LIBRARY_PATH -wdir /scratch/qe110420_vJO79 pw.x -in pw.inp

TID   HOST_NAME   COMMAND_LINE            STATUS            TERMINATION_TIME
00000 suncat0075 pw.x -in pw.inp   Done                     12/28/2018 00:17:02
00001 suncat0075 pw.x -in pw.inp   Done                     12/28/2018 00:17:02
00002 suncat0075 pw.x -in pw.inp   Done                     12/28/2018 00:17:02
00003 suncat0075 pw.x -in pw.inp   Done                     12/28/2018 00:17:02
00004 suncat0075 pw.x -in pw.inp   Done                     12/28/2018 00:17:02
00005 suncat0075 pw.x -in pw.inp   Done                     12/28/2018 00:17:02
00006 suncat0075 pw.x -in pw.inp   Done                     12/28/2018 00:17:02
00007 suncat0075 pw.x -in pw.inp   Done                     12/28/2018 00:17:02
00008 suncat0074 pw.x -in pw.inp   Done                     12/28/2018 00:17:02
00009 suncat0074 pw.x -in pw.inp   Done                     12/28/2018 00:17:02
00010 suncat0074 pw.x -in pw.inp   Done                     12/28/2018 00:17:02
00011 suncat0074 pw.x -in pw.inp   Done                     12/28/2018 00:17:02
00012 suncat0074 pw.x -in pw.inp   Done                     12/28/2018 00:17:02
00013 suncat0074 pw.x -in pw.inp   Done                     12/28/2018 00:17:02
00014 suncat0074 pw.x -in pw.inp   Done                     12/28/2018 00:17:02
00015 suncat0074 pw.x -in pw.inp   Done                     12/28/2018 00:17:02
00016 suncat0065 pw.x -in pw.inp   Done                     12/28/2018 00:17:02
00017 suncat0065 pw.x -in pw.inp   Done                     12/28/2018 00:17:02
00018 suncat0065 pw.x -in pw.inp   Done                     12/28/2018 00:17:02
00019 suncat0065 pw.x -in pw.inp   Done                     12/28/2018 00:17:02
00020 suncat0065 pw.x -in pw.inp   Done                     12/28/2018 00:17:02
00021 suncat0065 pw.x -in pw.inp   Done                     12/28/2018 00:17:02
00022 suncat0065 pw.x -in pw.inp   Done                     12/28/2018 00:17:02
00023 suncat0065 pw.x -in pw.inp   Done                     12/28/2018 00:17:02
00024 suncat0195 pw.x -in pw.inp   Done                     12/28/2018 00:17:02
00025 suncat0195 pw.x -in pw.inp   Done                     12/28/2018 00:17:02
00026 suncat0195 pw.x -in pw.inp   Done                     12/28/2018 00:17:02
00027 suncat0195 pw.x -in pw.inp   Done                     12/28/2018 00:17:02
00028 suncat0195 pw.x -in pw.inp   Done                     12/28/2018 00:17:02
00029 suncat0195 pw.x -in pw.inp   Done                     12/28/2018 00:17:02
00030 suncat0195 pw.x -in pw.inp   Done                     12/28/2018 00:17:02
00031 suncat0195 pw.x -in pw.inp   Done                     12/28/2018 00:17:02
00032 suncat0003 pw.x -in pw.inp   Done                     12/28/2018 00:17:02
00033 suncat0003 pw.x -in pw.inp   Done                     12/28/2018 00:17:02
00034 suncat0003 pw.x -in pw.inp   Done                     12/28/2018 00:17:02
00035 suncat0003 pw.x -in pw.inp   Done                     12/28/2018 00:17:02
00036 suncat0003 pw.x -in pw.inp   Done                     12/28/2018 00:17:02
00037 suncat0003 pw.x -in pw.inp   Done                     12/28/2018 00:17:02
00038 suncat0003 pw.x -in pw.inp   Done                     12/28/2018 00:17:02
00039 suncat0003 pw.x -in pw.inp   Done                     12/28/2018 00:17:02
00040 suncat0002 pw.x -in pw.inp   Done                     12/28/2018 00:17:02
00041 suncat0002 pw.x -in pw.inp   Done                     12/28/2018 00:17:02
00042 suncat0002 pw.x -in pw.inp   Done                     12/28/2018 00:17:02
00043 suncat0002 pw.x -in pw.inp   Done                     12/28/2018 00:17:02
00044 suncat0002 pw.x -in pw.inp   Done                     12/28/2018 00:17:02
00045 suncat0002 pw.x -in pw.inp   Done                     12/28/2018 00:17:02
00046 suncat0002 pw.x -in pw.inp   Done                     12/28/2018 00:17:02
00047 suncat0002 pw.x -in pw.inp   Done                     12/28/2018 00:17:02
00048 suncat0283 pw.x -in pw.inp   Done                     12/28/2018 00:17:02
00049 suncat0283 pw.x -in pw.inp   Done                     12/28/2018 00:17:02
00050 suncat0283 pw.x -in pw.inp   Done                     12/28/2018 00:17:02
00051 suncat0283 pw.x -in pw.inp   Done                     12/28/2018 00:17:02
00052 suncat0283 pw.x -in pw.inp   Done                     12/28/2018 00:17:02
00053 suncat0283 pw.x -in pw.inp   Done                     12/28/2018 00:17:02
00054 suncat0283 pw.x -in pw.inp   Done                     12/28/2018 00:17:02
00055 suncat0283 pw.x -in pw.inp   Done                     12/28/2018 00:17:02
00056 suncat0282 pw.x -in pw.inp   Done                     12/28/2018 00:17:02
00057 suncat0282 pw.x -in pw.inp   Done                     12/28/2018 00:17:02
00058 suncat0282 pw.x -in pw.inp   Done                     12/28/2018 00:17:02
00059 suncat0282 pw.x -in pw.inp   Done                     12/28/2018 00:17:02
00060 suncat0282 pw.x -in pw.inp   Done                     12/28/2018 00:17:02
00061 suncat0282 pw.x -in pw.inp   Done                     12/28/2018 00:17:02
00062 suncat0282 pw.x -in pw.inp   Done                     12/28/2018 00:17:02
00063 suncat0282 pw.x -in pw.inp   Done                     12/28/2018 00:17:02