     Program PWSCF v.5.1rc2 (svn rev. 11289) starts on 28Dec2018 at 21:59: 0

     Current dimensions of program PWSCF are:
     Max number of different atomic species (ntypx) = 10
     Max number of k-points (npk) =  40000
     Max angular momentum in pseudopotentials (lmaxx) =  3
     Presently stress not available with electric field

     IMPORTANT: XC functional enforced from input :
     Exchange-correlation      = BEEF-VDW ( 1  4 27 13 2)
     Any further DFT definition will be discarded
     Please, verify this is what you really want

     Subspace diagonalization in iterative solution of the eigenvalue problem:
     a serial algorithm will be used

     Generating pointlists ...
     new r_m :   0.4125 (alat units)  0.7795 (a.u.) for type    1
     new r_m :   0.4125 (alat units)  0.7795 (a.u.) for type    2

     bravais-lattice index     =            0
     lattice parameter (alat)  =       1.8897  a.u.
     unit-cell volume          =    5289.0362 (a.u.)^3
     number of atoms/cell      =           12
     number of atomic types    =            2
     number of electrons       =       153.00
     number of Kohn-Sham states=           91
     kinetic-energy cutoff     =      36.7493  Ry
     charge density cutoff     =     367.4932  Ry
     convergence threshold     =      1.0E-05
     mixing beta               =       0.2000
     number of iterations used =           10  plain     mixing
     Exchange-correlation      = BEEF-VDW ( 1  4 27 13 2)
     nstep                     =           50

     celldm(1)=   1.889726  celldm(2)=   0.000000  celldm(3)=   0.000000
     celldm(4)=   0.000000  celldm(5)=   0.000000  celldm(6)=   0.000000

     crystal axes: (cart. coord. in units of alat)
               a(1) = (   6.026249   0.000000   0.000000 )
               a(2) = (  -3.013124   5.218884   0.000000 )
               a(3) = (   0.000000   0.000000  24.920411 )

     reciprocal axes: (cart. coord. in units 2 pi/alat)
               b(1) = (  0.165941  0.095806  0.000000 )
               b(2) = (  0.000000  0.191612  0.000000 )
               b(3) = (  0.000000  0.000000  0.040128 )

     PseudoPot. # 1 for Hf read from file:
     /afs/slac.stanford.edu/u/if/mamunm/psp/gbrv1.5pbe/Hf.UPF
     MD5 check sum: 8ee9378dfe14276e333edf04c5e4aa26
     Pseudo is Ultrasoft + core correction, Zval = 12.0
     Generated by new atomic code, or converted to UPF format
     Using radial grid of  921 points,  8 beta functions with:
                l(1) =   0
                l(2) =   0
                l(3) =   0
                l(4) =   1
                l(5) =   1
                l(6) =   2
                l(7) =   2
                l(8) =   3
     Q(r) pseudized with  6 coefficients,  rinner =    1.200   1.200   1.200
                                                       1.200   1.200   1.200
                                                       1.200

     PseudoPot. # 2 for Mn read from file:
     /afs/slac.stanford.edu/u/if/mamunm/psp/gbrv1.5pbe/Mn.UPF
     MD5 check sum: 82ef2b46521d7a7d9e736dc3972e4928
     Pseudo is Ultrasoft + core correction, Zval = 15.0
     Generated by new atomic code, or converted to UPF format
     Using radial grid of  859 points,  6 beta functions with:
                l(1) =   0
                l(2) =   0
                l(3) =   1
                l(4) =   1
                l(5) =   2
                l(6) =   2
     Q(r) pseudized with  8 coefficients,  rinner =    0.950   0.950   0.950
                                                       0.950   0.950

     vdW kernel table read from file vdW_kernel_table
     MD5 check sum: 095c7af220d748ca6e76c0b4c6cfb241

     atomic species   valence    mass     pseudopotential
        Hf1           12.00   178.49000     Hf( 1.00)
        Mn1           15.00    54.93804     Mn( 1.00)

     Starting magnetic structure
     atomic species   magnetization
        Hf1          0.167
        Mn1          0.133

     No symmetry found

   Cartesian axes

     site n.     atom                  positions (alat units)
         1           Hf1 tau(   1) = (   0.0000000   0.0000000  10.0000000  )
         2           Hf1 tau(   2) = (  -1.5065622   2.6094422  10.0000000  )
         3           Hf1 tau(   3) = (   1.5065622   2.6094422  10.0000000  )
         4           Mn1 tau(   4) = (   3.0131243   0.0000000  10.0000000  )
         5           Hf1 tau(   5) = (   3.0131243   1.7396281  12.4602057  )
         6           Hf1 tau(   6) = (   1.5065622   4.3490704  12.4602057  )
         7           Hf1 tau(   7) = (  -1.5065622   4.3490704  12.4602057  )
         8           Mn1 tau(   8) = (   0.0000000   1.7396281  12.4602057  )
         9           Hf1 tau(   9) = (  -0.0000264   3.4270139  14.9294930  )
        10           Hf1 tau(  10) = (   1.4613332   0.8959257  14.9294822  )
        11           Hf1 tau(  11) = (   4.5649190   0.8959453  14.9294973  )
        12           Mn1 tau(  12) = (   3.0131088   3.4792641  14.8872393  )

     number of k points=    40  Fermi-Dirac smearing, width (Ry)=  0.0110
                       cart. coord. in units 2pi/alat
        k(    1) = (   0.0000000   0.0000000   0.0000000), wk =   0.0277778
        k(    2) = (   0.0000000   0.0319353   0.0000000), wk =   0.0555556
        k(    3) = (   0.0000000   0.0638706   0.0000000), wk =   0.0555556
        k(    4) = (   0.0000000  -0.0958059   0.0000000), wk =   0.0277778
        k(    5) = (   0.0276568   0.0159677   0.0000000), wk =   0.0555556
        k(    6) = (   0.0276568   0.0479030   0.0000000), wk =   0.0555556
        k(    7) = (   0.0276568   0.0798383   0.0000000), wk =   0.0555556
        k(    8) = (   0.0276568  -0.0798383   0.0000000), wk =   0.0555556
        k(    9) = (   0.0276568  -0.0479030   0.0000000), wk =   0.0555556
        k(   10) = (   0.0276568  -0.0159677   0.0000000), wk =   0.0555556
        k(   11) = (   0.0553136   0.0319353   0.0000000), wk =   0.0555556
        k(   12) = (   0.0553136   0.0638706   0.0000000), wk =   0.0555556
        k(   13) = (   0.0553136   0.0958059   0.0000000), wk =   0.0555556
        k(   14) = (   0.0553136  -0.0638706   0.0000000), wk =   0.0555556
        k(   15) = (   0.0553136  -0.0319353   0.0000000), wk =   0.0555556
        k(   16) = (   0.0553136   0.0000000   0.0000000), wk =   0.0555556
        k(   17) = (  -0.0829704  -0.0479030   0.0000000), wk =   0.0277778
        k(   18) = (  -0.0829704  -0.0159677   0.0000000), wk =   0.0555556
        k(   19) = (  -0.0829704   0.0159677   0.0000000), wk =   0.0555556
        k(   20) = (  -0.0829704  -0.1437089   0.0000000), wk =   0.0277778
        k(   21) = (   0.0000000   0.0000000   0.0000000), wk =   0.0277778
        k(   22) = (   0.0000000   0.0319353   0.0000000), wk =   0.0555556
        k(   23) = (   0.0000000   0.0638706   0.0000000), wk =   0.0555556
        k(   24) = (   0.0000000  -0.0958059   0.0000000), wk =   0.0277778
        k(   25) = (   0.0276568   0.0159677   0.0000000), wk =   0.0555556
        k(   26) = (   0.0276568   0.0479030   0.0000000), wk =   0.0555556
        k(   27) = (   0.0276568   0.0798383   0.0000000), wk =   0.0555556
        k(   28) = (   0.0276568  -0.0798383   0.0000000), wk =   0.0555556
        k(   29) = (   0.0276568  -0.0479030   0.0000000), wk =   0.0555556
        k(   30) = (   0.0276568  -0.0159677   0.0000000), wk =   0.0555556
        k(   31) = (   0.0553136   0.0319353   0.0000000), wk =   0.0555556
        k(   32) = (   0.0553136   0.0638706   0.0000000), wk =   0.0555556
        k(   33) = (   0.0553136   0.0958059   0.0000000), wk =   0.0555556
        k(   34) = (   0.0553136  -0.0638706   0.0000000), wk =   0.0555556
        k(   35) = (   0.0553136  -0.0319353   0.0000000), wk =   0.0555556
        k(   36) = (   0.0553136   0.0000000   0.0000000), wk =   0.0555556
        k(   37) = (  -0.0829704  -0.0479030   0.0000000), wk =   0.0277778
        k(   38) = (  -0.0829704  -0.0159677   0.0000000), wk =   0.0555556
        k(   39) = (  -0.0829704   0.0159677   0.0000000), wk =   0.0555556
        k(   40) = (  -0.0829704  -0.1437089   0.0000000), wk =   0.0277778

     Largest allocated arrays     est. size (Mb)     dimensions
     Largest temporary arrays     est. size (Mb)     dimensions

     Check: negative/imaginary core charge=   -0.000004    0.000000

     Initial potential from superposition of free atoms
     Check: negative starting charge=(component1):   -0.563883
     Check: negative starting charge=(component2):   -0.402791

     starting charge  133.49973, renormalised to  153.00000

     negative rho (up, down):  6.462E-01 4.616E-01

     *
     * You are using vdW-DF for exchange-correlation in this calculation.
     * Please cite the following three references that made this development
     * possible:
     *
     *   M. Dion, H. Rydberg, E. Schroder, D. C. Langreth, and
     *   B. I. Lundqvist, Phys. Rev. Lett. 92, 246401 (2004).
     *
     *   T. Thonhauser, V. R. Cooper, S. Li, A. Puzder, P. Hyldgaard, and
     *   D. C. Langreth, Phys. Rev. B 76, 125112 (2007).
     *
     *   G. Roman-Perez and J. M. Soler, Phys. Rev. Lett. 103, 096102 (2009).
     *
     *
     * If you are using vdW-DF2, please also cite:
     *
     *   K. Lee, E. D. Murray, L. Kong, B. I. Lundqvist, and
     *   D. C. Langreth, Phys. Rev. B 82, 081101(R) (2010).
     *
     *
     * If you are calculating the stress with vdW-DF, please also cite:
     *
     *   R. Sabatini, E. Kucukbenli, B. Kolb, T. Thonhauser, and
     *   S. de Gironcoli, J. Phys.: Condens. Matter 24, 424209 (2012).
     *

     Carrying out vdW-DF run using the following parameters:

     Nqs =      20    Nr_points =    1024   r_max =   100.000
     q_mesh =
               0.00001000     0.04494208     0.09755937     0.15916263
               0.23128650     0.31572767     0.41458969     0.53033537
               0.66584808     0.82450364     1.01025438     1.22772762
               1.48234092     1.78043706     2.12944203     2.53805004
               3.01644009     3.57652955     4.23227104     5.00000000

     Gradients computed in reciprocal space

     Adding external electric field

     Computed dipole along edir(3) :
        Dipole                0.1292 Ry au,          0.3284 Debye
        Dipole field          0.0003 Ry au

        Potential amp.       -0.0282 Ry
        Total length         45.9154 bohr

[...]

     Starting wfc are  156 randomized atomic wfcs

     Self-consistent Calculation

     iteration #  1     ecut=    36.75 Ry     beta=0.20
     Davidson diagonalization with overlap
     ethr =  1.00E-02,  avg # of iterations =  7.8

[...]

     Magnetic moment per site:
     atom:    1    charge:    1.2184    magn:    0.1711    constr:    0.0000
     atom:    2    charge:    1.2184    magn:    0.1711    constr:    0.0000
     atom:    3    charge:    1.2184    magn:    0.1711    constr:    0.0000
     atom:    4    charge:    6.1675    magn:    0.7351    constr:    0.0000
     atom:    5    charge:    1.2255    magn:    0.1723    constr:    0.0000
     atom:    6    charge:    1.2255    magn:    0.1723    constr:    0.0000
[...]
                       cart. coord. in units 2pi/alat
        k(    1) = (   0.0000000   0.0000000   0.0000000), wk =   0.0277778
        k(    2) = (   0.0000000   0.0319353   0.0000000), wk =   0.0555556
        k(    3) = (   0.0000000   0.0638706   0.0000000), wk =   0.0555556
        k(    4) = (   0.0000000  -0.0958059   0.0000000), wk =   0.0277778
        k(    5) = (   0.0276568   0.0159677   0.0000000), wk =   0.0555556
        k(    6) = (   0.0276568   0.0479030   0.0000000), wk =   0.0555556
        k(    7) = (   0.0276568   0.0798383   0.0000000), wk =   0.0555556
        k(    8) = (   0.0276568  -0.0798383   0.0000000), wk =   0.0555556
        k(    9) = (   0.0276568  -0.0479030   0.0000000), wk =   0.0555556
        k(   10) = (   0.0276568  -0.0159677   0.0000000), wk =   0.0555556
        k(   11) = (   0.0553136   0.0319353   0.0000000), wk =   0.0555556
        k(   12) = (   0.0553136   0.0638706   0.0000000), wk =   0.0555556
        k(   13) = (   0.0553136   0.0958059   0.0000000), wk =   0.0555556
        k(   14) = (   0.0553136  -0.0638706   0.0000000), wk =   0.0555556
        k(   15) = (   0.0553136  -0.0319353   0.0000000), wk =   0.0555556
        k(   16) = (   0.0553136   0.0000000   0.0000000), wk =   0.0555556
        k(   17) = (  -0.0829704  -0.0479030   0.0000000), wk =   0.0277778
        k(   18) = (  -0.0829704  -0.0159677   0.0000000), wk =   0.0555556
        k(   19) = (  -0.0829704   0.0159677   0.0000000), wk =   0.0555556
        k(   20) = (  -0.0829704  -0.1437089   0.0000000), wk =   0.0277778
        k(   21) = (   0.0000000   0.0000000   0.0000000), wk =   0.0277778
        k(   22) = (   0.0000000   0.0319353   0.0000000), wk =   0.0555556
        k(   23) = (   0.0000000   0.0638706   0.0000000), wk =   0.0555556
        k(   24) = (   0.0000000  -0.0958059   0.0000000), wk =   0.0277778
        k(   25) = (   0.0276568   0.0159677   0.0000000), wk =   0.0555556
        k(   26) = (   0.0276568   0.0479030   0.0000000), wk =   0.0555556
        k(   27) = (   0.0276568   0.0798383   0.0000000), wk =   0.0555556
        k(   28) = (   0.0276568  -0.0798383   0.0000000), wk =   0.0555556
        k(   29) = (   0.0276568  -0.0479030   0.0000000), wk =   0.0555556
        k(   30) = (   0.0276568  -0.0159677   0.0000000), wk =   0.0555556
        k(   31) = (   0.0553136   0.0319353   0.0000000), wk =   0.0555556
        k(   32) = (   0.0553136   0.0638706   0.0000000), wk =   0.0555556
        k(   33) = (   0.0553136   0.0958059   0.0000000), wk =   0.0555556
        k(   34) = (   0.0553136  -0.0638706   0.0000000), wk =   0.0555556
        k(   35) = (   0.0553136  -0.0319353   0.0000000), wk =   0.0555556
        k(   36) = (   0.0553136   0.0000000   0.0000000), wk =   0.0555556
        k(   37) = (  -0.0829704  -0.0479030   0.0000000), wk =   0.0277778
        k(   38) = (  -0.0829704  -0.0159677   0.0000000), wk =   0.0555556
        k(   39) = (  -0.0829704   0.0159677   0.0000000), wk =   0.0555556
        k(   40) = (  -0.0829704  -0.1437089   0.0000000), wk =   0.0277778

     Largest allocated arrays     est. size (Mb)     dimensions
     Largest temporary arrays     est. size (Mb)     dimensions

     Check: negative/imaginary core charge=   -0.000004    0.000000

     Initial potential from superposition of free atoms
     Check: negative starting charge=(component1):   -0.563670
     Check: negative starting charge=(component2):   -0.402639

     starting charge  133.49973, renormalised to  153.00000

[...]

     *
     * You are using vdW-DF for exchange-correlation in this calculation.
     * Please cite the following three references that made this development
     * possible:
     *
     *   M. Dion, H. Rydberg, E. Schroder, D. C. Langreth, and
     *   B. I. Lundqvist, Phys. Rev. Lett. 92, 246401 (2004).
     *
     *   T. Thonhauser, V. R. Cooper, S. Li, A. Puzder, P. Hyldgaard, and
     *   D. C. Langreth, Phys. Rev. B 76, 125112 (2007).
     *
     *   G. Roman-Perez and J. M. Soler, Phys. Rev. Lett. 103, 096102 (2009).
     *
     *
     * If you are using vdW-DF2, please also cite:
     *
     *   K. Lee, E. D. Murray, L. Kong, B. I. Lundqvist, and
     *   D. C. Langreth, Phys. Rev. B 82, 081101(R) (2010).
     *
     *
     * If you are calculating the stress with vdW-DF, please also cite:
     *
     *   R. Sabatini, E. Kucukbenli, B. Kolb, T. Thonhauser, and
     *   S. de Gironcoli, J. Phys.: Condens. Matter 24, 424209 (2012).
     *

     Carrying out vdW-DF run using the following parameters:

     Nqs =      20    Nr_points =    1024   r_max =   100.000
     q_mesh =
               0.00001000     0.04494208     0.09755937     0.15916263
               0.23128650     0.31572767     0.41458969     0.53033537
               0.66584808     0.82450364     1.01025438     1.22772762
               1.48234092     1.78043706     2.12944203     2.53805004
               3.01644009     3.57652955     4.23227104     5.00000000

     Gradients computed in reciprocal space

[...]

     Starting wfc are  156 randomized atomic wfcs

     Self-consistent Calculation

[...]

     total energy              =   -2081.24546850 Ry
     Harris-Foulkes estimate   =   -2081.24546280 Ry
     estimated scf accuracy    <       0.00001439 Ry

[...]

     iteration # 33     ecut=    36.75 Ry     beta=0.20
     Davidson diagonalization with overlap
     ethr =  9.41E-09,  avg # of iterations =  3.6

[...]

     negative rho (up, down):  5.112E-01 5.080E-01

[...]

     Adding external electric field

     Computed dipole along edir(3) :
        Dipole                0.0074 Ry au,          0.0189 Debye
        Dipole field          0.0000 Ry au

        Potential amp.       -0.0016 Ry
        Total length         45.9154 bohr

     Magnetic moment per site:
     atom:    1    charge:    1.1377    magn:   -0.0022    constr:    0.0000
     atom:    2    charge:    1.1377    magn:   -0.0022    constr:    0.0000
     atom:    3    charge:    1.1377    magn:   -0.0022    constr:    0.0000
     atom:    4    charge:    5.9946    magn:    1.3828    constr:    0.0000
     atom:    5    charge:    1.1455    magn:   -0.0031    constr:    0.0000
     atom:    6    charge:    1.1455    magn:   -0.0031    constr:    0.0000
     atom:    7    charge:    1.1455    magn:   -0.0031    constr:    0.0000
     atom:    8    charge:    5.9931    magn:    1.2351    constr:    0.0000
     atom:    9    charge:    1.1414    magn:   -0.0025    constr:    0.0000
     atom:   10    charge:    1.1414    magn:   -0.0025    constr:    0.0000
     atom:   11    charge:    1.1414    magn:   -0.0025    constr:    0.0000
     atom:   12    charge:    5.9988    magn:    1.3366    constr:    0.0000

     End of self-consistent calculation

 ------ SPIN UP ------------

[...]

 ------ SPIN DOWN ----------

[...]

          k = 0.0553 0.0000 0.0000 ( 19911 PWs)   bands (ev):

[...]

          k =-0.0830-0.1437 0.0000 ( 19930 PWs)   bands (ev):

   -75.9416 -75.8492 -75.8307 -60.8997 -60.8766 -60.8755 -60.8584 -60.8578
   -60.8390 -60.4158 -60.3972 -60.3785 -44.7006 -44.6988 -44.6986 -44.6246
   -44.6245 -44.6243 -44.6112 -44.6110 -44.5938 -29.7515 -29.7088 -29.6585
   -29.6080 -29.5923 -29.5425 -29.5121 -29.5117 -29.5017 -29.4746 -29.4537
   -29.4353 -29.3875 -29.3783 -29.3708 -29.3495 -29.2795 -29.0732 -29.0526
   -29.0264 -28.9826 -28.9436 -28.9191 -28.8857 -28.8825 -28.8564 -28.6584
    -3.5780  -3.4158  -2.3171  -1.9701  -1.2587  -1.1020  -0.9042  -0.7716
    -0.6671  -0.4428  -0.0015   0.3070   0.4533   0.5256   0.5748   0.6149
     0.7361   0.7936   0.8036   0.8968   1.0672   1.1200   1.2230   1.3212
     1.3405   1.3750   1.4394   1.6023   1.6236   1.7285   1.8214   1.8830
     2.1701   2.3070   2.3553   2.4015   2.4685   2.5356   2.9791   3.0068
     3.0786   3.3357   3.3615

     the Fermi energy is     1.4905 ev

!    total energy              =   -2081.24547726 Ry
     Harris-Foulkes estimate   =   -2081.24547113 Ry
     estimated scf accuracy    <       0.00000300 Ry

     The total energy is the sum of the following terms:

     one-electron contribution =  -11054.17427092 Ry
     hartree contribution      =    5514.95714877 Ry
     xc contribution           =    -779.25842258 Ry
     ewald contribution        =    4237.33037189 Ry
     electric field correction =       0.00000013 Ry
     smearing contrib. (-TS)   =      -0.10030455 Ry

     total magnetization       =     9.14 Bohr mag/cell
     absolute magnetization    =    12.59 Bohr mag/cell

     convergence has been achieved in  33 iterations

 BEEF-vdW xc energy contributions
           1 :   -702.274573046399
           2 :    651.127338930368
           3 :   -561.072227032382
           4 :    451.569908514324
           5 :   -342.315363695821
           6 :    247.534421378691
           7 :   -173.797661907441
           8 :    121.175886189027
           9 :   -86.1343828500789
          10 :    64.2081317713014
          11 :   -51.4466016988641
          12 :    44.5900849914766
          13 :   -40.7081090598995
          14 :    36.9922715554678
          15 :   -31.0782997936874
          16 :    21.6873759569201
          17 :   -9.15620321534050
          18 :   -4.59224053817513
          19 :    16.7123627970724
          20 :   -24.5214646595689
          21 :    26.5262925071307
          22 :   -22.9802435414293
          23 :    15.7249229057622
          24 :   -7.44489442477447
          25 :   0.684890555560969
          26 :    2.90707664243075
          27 :   -2.86160358101358
          28 :  -0.304480954661130
          29 :    5.49137504696523
          30 :   -11.3848423176644
          31 :   -51.6829267537552
          32 :   -37.1264363530257

     Forces acting on atoms (Ry/au):

     negative rho (up, down):  5.112E-01 5.080E-01
     atom    1 type  1   force =     0.00000067    0.02017212   -0.00372827
     atom    2 type  1   force =     0.01746730   -0.01008653   -0.00373011
     atom    3 type  1   force =    -0.01746702   -0.01008787   -0.00373077
     atom    4 type  2   force =    -0.00000038   -0.00000087    0.01232324
     atom    5 type  1   force =    -0.00000672   -0.00239535    0.00061962
     atom    6 type  1   force =    -0.00208022    0.00119157    0.00062708
     atom    7 type  1   force =     0.00208281    0.00119931    0.00063742
     atom    8 type  2   force =    -0.00000067    0.00000295   -0.00095045
     atom    9 type  1   force =    -0.00000802    0.00054115   -0.00037815
     atom   10 type  1   force =     0.00046686   -0.00027643   -0.00036577
     atom   11 type  1   force =    -0.00045599   -0.00026047   -0.00035840
     atom   12 type  2   force =     0.00000137    0.00000041   -0.00096543

     Total force =     0.037891     Total SCF correction =     0.003852
     SCF correction compared to forces is large: reduce conv_thr to get better values

     entering subroutine stress ...

     negative rho (up, down):  5.112E-01 5.080E-01
          total   stress  (Ry/bohr**3)                   (kbar)     P=   -2.78
  -0.00001434  -0.00000000   0.00000000         -2.11     -0.00      0.00
  -0.00000000  -0.00001433   0.00000000         -0.00     -2.11      0.00
   0.00000000   0.00000000  -0.00002798          0.00      0.00     -4.12

 !ASE

     Writing output data file calc.save

     General routines

     Parallel routines

   This run was terminated on:  16:14:32  29Dec2018

   JOB DONE.
Job  /afs/slac/g/suncat/bin/suncat-tsmpirun -x LD_LIBRARY_PATH -wdir /scratch/qe304858_IQGr6 pw.x -in pw.inp

TID   HOST_NAME   COMMAND_LINE            STATUS            TERMINATION_TIME
00000 suncat0068 pw.x -in pw.inp   Done                     12/29/2018 16:14:32
00001 suncat0068 pw.x -in pw.inp   Done                     12/29/2018 16:14:32
00002 suncat0068 pw.x -in pw.inp   Done                     12/29/2018 16:14:32
00003 suncat0068 pw.x -in pw.inp   Done                     12/29/2018 16:14:32
00004 suncat0068 pw.x -in pw.inp   Done                     12/29/2018 16:14:32
00005 suncat0068 pw.x -in pw.inp   Done                     12/29/2018 16:14:32
00006 suncat0068 pw.x -in pw.inp   Done                     12/29/2018 16:14:32
00007 suncat0068 pw.x -in pw.inp   Done                     12/29/2018 16:14:32
00008 suncat0059 pw.x -in pw.inp   Done                     12/29/2018 16:14:32
00009 suncat0059 pw.x -in pw.inp   Done                     12/29/2018 16:14:32
00010 suncat0059 pw.x -in pw.inp   Done                     12/29/2018 16:14:32
00011 suncat0059 pw.x -in pw.inp   Done                     12/29/2018 16:14:32
00012 suncat0059 pw.x -in pw.inp   Done                     12/29/2018 16:14:32
00013 suncat0059 pw.x -in pw.inp   Done                     12/29/2018 16:14:32
00014 suncat0059 pw.x -in pw.inp   Done                     12/29/2018 16:14:32
00015 suncat0059 pw.x -in pw.inp   Done                     12/29/2018 16:14:32
00016 suncat0031 pw.x -in pw.inp   Done                     12/29/2018 16:14:32
00017 suncat0031 pw.x -in pw.inp   Done                     12/29/2018 16:14:32
00018 suncat0031 pw.x -in pw.inp   Done                     12/29/2018 16:14:32
00019 suncat0031 pw.x -in pw.inp   Done                     12/29/2018 16:14:32
00020 suncat0031 pw.x -in pw.inp   Done                     12/29/2018 16:14:32
00021 suncat0031 pw.x -in pw.inp   Done                     12/29/2018 16:14:32
00022 suncat0031 pw.x -in pw.inp   Done                     12/29/2018 16:14:32
00023 suncat0031 pw.x -in pw.inp   Done                     12/29/2018 16:14:32
00024 suncat0030 pw.x -in pw.inp   Done                     12/29/2018 16:14:32
00025 suncat0030 pw.x -in pw.inp   Done                     12/29/2018 16:14:32
00026 suncat0030 pw.x -in pw.inp   Done                     12/29/2018 16:14:32
00027 suncat0030 pw.x -in pw.inp   Done                     12/29/2018 16:14:32
00028 suncat0030 pw.x -in pw.inp   Done                     12/29/2018 16:14:32
00029 suncat0030 pw.x -in pw.inp   Done                     12/29/2018 16:14:32
00030 suncat0030 pw.x -in pw.inp   Done                     12/29/2018 16:14:32
00031 suncat0030 pw.x -in pw.inp   Done                     12/29/2018 16:14:32
00032 suncat0280 pw.x -in pw.inp   Done                     12/29/2018 16:14:32
00033 suncat0280 pw.x -in pw.inp   Done                     12/29/2018 16:14:32
00034 suncat0280 pw.x -in pw.inp   Done                     12/29/2018 16:14:32
00035 suncat0280 pw.x -in pw.inp   Done                     12/29/2018 16:14:32
00036 suncat0280 pw.x -in pw.inp   Done                     12/29/2018 16:14:32
00037 suncat0280 pw.x -in pw.inp   Done                     12/29/2018 16:14:32
00038 suncat0280 pw.x -in pw.inp   Done                     12/29/2018 16:14:32
00039 suncat0280 pw.x -in pw.inp   Done                     12/29/2018 16:14:32
00040 suncat0279 pw.x -in pw.inp   Done                     12/29/2018 16:14:32
00041 suncat0279 pw.x -in pw.inp   Done                     12/29/2018 16:14:32
00042 suncat0279 pw.x -in pw.inp   Done                     12/29/2018 16:14:32
00043 suncat0279 pw.x -in pw.inp   Done                     12/29/2018 16:14:32
00044 suncat0279 pw.x -in pw.inp   Done                     12/29/2018 16:14:32
00045 suncat0279 pw.x -in pw.inp   Done                     12/29/2018 16:14:32
00046 suncat0279 pw.x -in pw.inp   Done                     12/29/2018 16:14:32
00047 suncat0279 pw.x -in pw.inp   Done                     12/29/2018 16:14:32
00048 suncat0278 pw.x -in pw.inp   Done                     12/29/2018 16:14:32
00049 suncat0278 pw.x -in pw.inp   Done                     12/29/2018 16:14:32
00050 suncat0278 pw.x -in pw.inp   Done                     12/29/2018 16:14:32
00051 suncat0278 pw.x -in pw.inp   Done                     12/29/2018 16:14:32
00052 suncat0278 pw.x -in pw.inp   Done                     12/29/2018 16:14:32
00053 suncat0278 pw.x -in pw.inp   Done                     12/29/2018 16:14:32
00054 suncat0278 pw.x -in pw.inp   Done                     12/29/2018 16:14:32
00055 suncat0278 pw.x -in pw.inp   Done                     12/29/2018 16:14:32
00056 suncat0099 pw.x -in pw.inp   Done                     12/29/2018 16:14:32
00057 suncat0099 pw.x -in pw.inp   Done                     12/29/2018 16:14:32
00058 suncat0099 pw.x -in pw.inp   Done                     12/29/2018 16:14:32
00059 suncat0099 pw.x -in pw.inp   Done                     12/29/2018 16:14:32
00060 suncat0099 pw.x -in pw.inp   Done                     12/29/2018 16:14:32
00061 suncat0099 pw.x -in pw.inp   Done                     12/29/2018 16:14:32
00062 suncat0099 pw.x -in pw.inp   Done                     12/29/2018 16:14:32
00063 suncat0099 pw.x -in pw.inp   Done                     12/29/2018 16:14:32