     Program PWSCF v.5.1rc2 (svn rev. 11289) starts on  1Jan2019 at 15:47:22

     Current dimensions of program PWSCF are:
     Max number of different atomic species (ntypx) = 10
     Max number of k-points (npk) =  40000
     Max angular momentum in pseudopotentials (lmaxx) =  3
     Presently stress not available with electric field

     IMPORTANT: XC functional enforced from input :
     Exchange-correlation      = BEEF-VDW ( 1  4 27 13 2)
     Any further DFT definition will be discarded
     Please, verify this is what you really want

     Subspace diagonalization in iterative solution of the eigenvalue problem:
     a serial algorithm will be used

     bravais-lattice index     =            0
     lattice parameter (alat)  =       1.8897  a.u.
     unit-cell volume          =    5151.8393 (a.u.)^3
     number of atoms/cell      =           12
     number of atomic types    =            2
     number of electrons       =       153.00
     number of Kohn-Sham states=          106
     kinetic-energy cutoff     =      36.7493  Ry
     charge density cutoff     =     367.4932  Ry
     convergence threshold     =      1.0E-06
     mixing beta               =       0.1000
     number of iterations used =           10  plain     mixing
     Exchange-correlation      = BEEF-VDW ( 1  4 27 13 2)
     nstep                     =           50

     celldm(1)=   1.889726  celldm(2)=   0.000000  celldm(3)=   0.000000
     celldm(4)=   0.000000  celldm(5)=   0.000000  celldm(6)=   0.000000

     crystal axes: (cart. coord. in units of alat)
               a(1) = (   5.954571   0.000000   0.000000 )
               a(2) = (  -2.977286   5.156810   0.000000 )
               a(3) = (   0.000000   0.000000  24.861887 )

     reciprocal axes: (cart. coord. in units 2 pi/alat)
               b(1) = (  0.167938  0.096959  0.000000 )
               b(2) = (  0.000000  0.193918  0.000000 )
               b(3) = (  0.000000  0.000000  0.040222 )

     PseudoPot. # 1 for Ta read from file:
     /afs/slac.stanford.edu/u/if/mamunm/psp/gbrv1.5pbe/Ta.UPF
     MD5 check sum: f8bbe9446314a3b8ea5d9f3e3836c939
     Pseudo is Ultrasoft + core correction, Zval = 13.0
     Generated by new atomic code, or converted to UPF format
     Using radial grid of  921 points,  7 beta functions with:
                l(1) =   0
                l(2) =   0
                l(3) =   1
                l(4) =   1
                l(5) =   2
                l(6) =   2
                l(7) =   3
     Q(r) pseudized with  6 coefficients,  rinner =    1.300   1.300   1.300
                                                       1.300   1.300   1.300
                                                       1.300

     PseudoPot. # 2 for Cd read from file:
     /afs/slac.stanford.edu/u/if/mamunm/psp/gbrv1.5pbe/Cd.UPF
     MD5 check sum: 17164a7926edb8e0dc231208abae86a6
     Pseudo is Ultrasoft + core correction, Zval = 12.0
     Generated by new atomic code, or converted to UPF format
     Using radial grid of  889 points,  6 beta functions with:
                l(1) =   0
                l(2) =   0
                l(3) =   1
                l(4) =   1
                l(5) =   2
                l(6) =   2
     Q(r) pseudized with  6 coefficients,  rinner =    1.000   1.000   1.000
                                                       1.000   1.000

     vdW kernel table read from file vdW_kernel_table
     MD5 check sum: 095c7af220d748ca6e76c0b4c6cfb241

     atomic species   valence    mass     pseudopotential
        Ta1           13.00   180.94788     Ta( 1.00)
        Cd1           12.00   112.41400     Cd( 1.00)

     No symmetry found

   Cartesian axes

     site n.     atom                  positions (alat units)
         1           Ta1 tau(   1) = (   0.0000000   0.0000000  10.0000000  )
         2           Ta1 tau(   2) = (  -1.4886428   2.5784050  10.0000000  )
         3           Ta1 tau(   3) = (   1.4886428   2.5784050  10.0000000  )
         4           Cd1 tau(   4) = (   2.9772856   0.0000000  10.0000000  )
         5           Ta1 tau(   5) = (   2.9772856   1.7189367  12.4309435  )
         6           Ta1 tau(   6) = (   1.4886428   4.2973416  12.4309435  )
         7           Ta1 tau(   7) = (  -1.4886428   4.2973416  12.4309435  )
         8           Cd1 tau(   8) = (   0.0000000   1.7189367  12.4309435  )
         9           Ta1 tau(   9) = (  -0.0000000   3.4378733  14.8618871  )
        10           Ta1 tau(  10) = (   1.4886428   0.8594683  14.8618871  )
        11           Ta1 tau(  11) = (   4.4659284   0.8594683  14.8618871  )
        12           Cd1 tau(  12) = (   2.9772856   3.4378733  14.8618871  )

     number of k points=    20  Fermi-Dirac smearing, width (Ry)=  0.0110
                       cart. coord. in units 2pi/alat
        k(    1) = (   0.0000000   0.0000000   0.0000000), wk =   0.0555556
        k(    2) = (   0.0000000   0.0323197   0.0000000), wk =   0.1111111
        k(    3) = (   0.0000000   0.0646394   0.0000000), wk =   0.1111111
        k(    4) = (   0.0000000  -0.0969592   0.0000000), wk =   0.0555556
        k(    5) = (   0.0279897   0.0161599   0.0000000), wk =   0.1111111
        k(    6) = (   0.0279897   0.0484796   0.0000000), wk =   0.1111111
        k(    7) = (   0.0279897   0.0807993   0.0000000), wk =   0.1111111
        k(    8) = (   0.0279897  -0.0807993   0.0000000), wk =   0.1111111
        k(    9) = (   0.0279897  -0.0484796   0.0000000), wk =   0.1111111
        k(   10) = (   0.0279897  -0.0161599   0.0000000), wk =   0.1111111
        k(   11) = (   0.0559794   0.0323197   0.0000000), wk =   0.1111111
        k(   12) = (   0.0559794   0.0646394   0.0000000), wk =   0.1111111
        k(   13) = (   0.0559794   0.0969592   0.0000000), wk =   0.1111111
        k(   14) = (   0.0559794  -0.0646394   0.0000000), wk =   0.1111111
        k(   15) = (   0.0559794  -0.0323197   0.0000000), wk =   0.1111111
        k(   16) = (   0.0559794   0.0000000   0.0000000), wk =   0.1111111
        k(   17) = (  -0.0839691  -0.0484796   0.0000000), wk =   0.0555556
        k(   18) = (  -0.0839691  -0.0161599   0.0000000), wk =   0.1111111
        k(   19) = (  -0.0839691   0.0161599   0.0000000), wk =   0.1111111
        k(   20) = (  -0.0839691  -0.1454388   0.0000000), wk =   0.0555556

     Largest allocated arrays     est. size (Mb)     dimensions
     Largest temporary arrays     est. size (Mb)     dimensions

     Initial potential from superposition of free atoms
     Check: negative starting charge=   -0.910589

     starting charge  151.48987, renormalised to  153.00000

     negative rho (up, down):  9.197E-01 0.000E+00

     *
     * You are using vdW-DF for exchange-correlation in this calculation.
     * Please cite the following three references that made this development
     * possible:
     *
     *   M. Dion, H. Rydberg, E. Schroder, D. C. Langreth, and
     *   B. I. Lundqvist, Phys. Rev. Lett. 92, 246401 (2004).
     *
     *   T. Thonhauser, V. R. Cooper, S. Li, A. Puzder, P. Hyldgaard, and
     *   D. C. Langreth, Phys. Rev. B 76, 125112 (2007).
     *
     *   G. Roman-Perez and J. M. Soler, Phys. Rev. Lett. 103, 096102 (2009).
     *
     *
     * If you are using vdW-DF2, please also cite:
     *
     *   K. Lee, E. D. Murray, L. Kong, B. I. Lundqvist, and
     *   D. C. Langreth, Phys. Rev. B 82, 081101(R) (2010).
     *
     *
     * If you are calculating the stress with vdW-DF, please also cite:
     *
     *   R. Sabatini, E. Kucukbenli, B. Kolb, T. Thonhauser, and
     *   S. de Gironcoli, J. Phys.: Condens. Matter 24, 424209 (2012).
     *

     Carrying out vdW-DF run using the following parameters:

     Nqs =      20    Nr_points =    1024   r_max =   100.000
     q_mesh =
               0.00001000     0.04494208     0.09755937     0.15916263
               0.23128650     0.31572767     0.41458969     0.53033537
               0.66584808     0.82450364     1.01025438     1.22772762
               1.48234092     1.78043706     2.12944203     2.53805004
               3.01644009     3.57652955     4.23227104     5.00000000

     Gradients computed in reciprocal space

     Adding external electric field

     Computed dipole along edir(3) :
        Dipole                0.0000 Ry au,          0.0000 Debye
        Dipole field          0.0000 Ry au

        Potential amp.       -0.0000 Ry
        Total length         45.8076 bohr

     Starting wfc are  144 randomized atomic wfcs

     Self-consistent Calculation

     iteration #  1     ecut=    36.75 Ry     beta=0.10
     Davidson diagonalization with overlap
     ethr =  1.00E-02,  avg # of iterations =  2.0

[...]

     total energy              =   -1636.60243669 Ry
     Harris-Foulkes estimate   =   -1637.03051728 Ry
     estimated scf accuracy    <       2.61780219 Ry

[...]

     End of self-consistent calculation

          k = 0.0000 0.0000 0.0000 ( 19363 PWs)   bands (ev):

   -66.7898 -66.7881 -66.7461 -66.7461 -66.7457 -66.7457 -66.5543 -66.5123
   -66.5123 -33.4075 -33.3695 -33.3316 -33.2938 -33.2938 -33.2668 -33.2607
   -33.2607 -33.2421 -33.2420 -33.2120 -33.1338 -33.1338 -32.9873 -32.9872
   -32.9502 -32.9227 -32.7663 -32.7663 -32.7330 -32.7047 -32.7047 -32.7033
   -32.6965 -32.6965 -32.5316 -32.5316  -7.1987  -7.1987  -7.1815  -7.1815
    -7.1724  -7.1267  -7.1267  -7.0789  -7.0708  -7.0708  -7.0564  -6.9224
    -6.9224  -6.8747  -6.8747  -6.1861  -4.4498  -3.4948  -2.4252  -2.1287
    -1.9423  -1.0732  -1.0732  -0.4561  -0.3829  -0.3829  -0.3765  -0.3765
    -0.3131  -0.0397  -0.0397   0.6480   0.6480   0.9943   1.1145   1.5028
     1.5028   1.6541   1.7284   1.7284   2.0030   2.1153   2.1153   2.3520
     2.4507   2.4507   2.5009   3.0662   3.9554   3.9606   3.9606   4.1625
     4.1897   4.1897   4.3923   4.3923   4.6465   4.6465   4.7239   4.7239
     4.9719   5.2890   5.2890   5.3483   5.3483   5.4726   5.4726   5.6431
     5.7526   6.1450

[...]

          k =-0.0840-0.0485 0.0000 ( 19396 PWs)   bands (ev):

[...]

     the Fermi energy is     1.6640 ev

!    total energy              =   -1636.74786537 Ry
     Harris-Foulkes estimate   =   -1636.74787393 Ry
     estimated scf accuracy    <       0.00000018 Ry

     The total energy is the sum of the following terms:

     one-electron contribution =  -10992.69085851 Ry
     hartree contribution      =    5506.41625648 Ry
     xc contribution           =    -514.42548728 Ry
     ewald contribution        =    4364.04425985 Ry
     electric field correction =       0.00000000 Ry
     smearing contrib. (-TS)   =      -0.09203590 Ry

     convergence has been achieved in  16 iterations

 BEEF-vdW xc energy contributions
           1 :   -452.328490378577
           2 :    416.970304894488
           3 :   -355.525885270822
           4 :    282.747344284444
           5 :   -213.345420828951
           6 :    157.277139605485
           7 :   -117.663362097563
           8 :    91.7796093208577
           9 :   -74.1040121318364
          10 :    59.6345350918726
          11 :   -45.9067693570553
          12 :    33.1041246683434
          13 :   -22.7372639988203
          14 :    15.9844510675062
[...]

     PseudoPot. # 1 for Ta read from file:
     /afs/slac.stanford.edu/u/if/mamunm/psp/gbrv1.5pbe/Ta.UPF
     MD5 check sum: f8bbe9446314a3b8ea5d9f3e3836c939
     Pseudo is Ultrasoft + core correction, Zval = 13.0
     Generated by new atomic code, or converted to UPF format
     Using radial grid of  921 points,  7 beta functions with:
                l(1) =   0
                l(2) =   0
                l(3) =   1
                l(4) =   1
                l(5) =   2
                l(6) =   2
                l(7) =   3
     Q(r) pseudized with  6 coefficients,  rinner =    1.300   1.300   1.300
                                                       1.300   1.300   1.300
                                                       1.300

     PseudoPot. # 2 for Cd read from file:
     /afs/slac.stanford.edu/u/if/mamunm/psp/gbrv1.5pbe/Cd.UPF
     MD5 check sum: 17164a7926edb8e0dc231208abae86a6
     Pseudo is Ultrasoft + core correction, Zval = 12.0
     Generated by new atomic code, or converted to UPF format
     Using radial grid of  889 points,  6 beta functions with:
                l(1) =   0
                l(2) =   0
                l(3) =   1
                l(4) =   1
                l(5) =   2
                l(6) =   2
     Q(r) pseudized with  6 coefficients,  rinner =    1.000   1.000   1.000
                                                       1.000   1.000

     vdW kernel table read from file vdW_kernel_table
     MD5 check sum: 095c7af220d748ca6e76c0b4c6cfb241

     atomic species   valence    mass     pseudopotential
        Ta1           13.00   180.94788     Ta( 1.00)
        Cd1           12.00   112.41400     Cd( 1.00)

     No symmetry found

   Cartesian axes

     site n.     atom                  positions (alat units)
         1           Ta1 tau(   1) = (   0.0000000   0.0000000  10.0000000  )
         2           Ta1 tau(   2) = (  -1.4886428   2.5784050  10.0000000  )
         3           Ta1 tau(   3) = (   1.4886428   2.5784050  10.0000000  )
         4           Cd1 tau(   4) = (   2.9772856   0.0000000  10.0000000  )
         5           Ta1 tau(   5) = (   2.9772856   1.7189367  12.4309435  )
         6           Ta1 tau(   6) = (   1.4886428   4.2973416  12.4309435  )
         7           Ta1 tau(   7) = (  -1.4886428   4.2973416  12.4309435  )
         8           Cd1 tau(   8) = (   0.0000000   1.7189367  12.4309435  )
         9           Ta1 tau(   9) = (  -0.0000265   3.4671746  14.7156574  )
        10           Ta1 tau(  10) = (   1.5140183   0.8447815  14.7156487  )
        11           Ta1 tau(  11) = (   4.4405450   0.8448078  14.7156651  )
        12           Cd1 tau(  12) = (   2.9772755   3.4378332  15.2642310  )

     number of k points=    20  Fermi-Dirac smearing, width (Ry)=  0.0110
                       cart. coord. in units 2pi/alat
        k(    1) = (   0.0000000   0.0000000   0.0000000), wk =   0.0555556
        k(    2) = (   0.0000000   0.0323197   0.0000000), wk =   0.1111111
        k(    3) = (   0.0000000   0.0646394   0.0000000), wk =   0.1111111
        k(    4) = (   0.0000000  -0.0969592   0.0000000), wk =   0.0555556
        k(    5) = (   0.0279897   0.0161599   0.0000000), wk =   0.1111111
        k(    6) = (   0.0279897   0.0484796   0.0000000), wk =   0.1111111
        k(    7) = (   0.0279897   0.0807993   0.0000000), wk =   0.1111111
        k(    8) = (   0.0279897  -0.0807993   0.0000000), wk =   0.1111111
        k(    9) = (   0.0279897  -0.0484796   0.0000000), wk =   0.1111111
        k(   10) = (   0.0279897  -0.0161599   0.0000000), wk =   0.1111111
        k(   11) = (   0.0559794   0.0323197   0.0000000), wk =   0.1111111
        k(   12) = (   0.0559794   0.0646394   0.0000000), wk =   0.1111111
        k(   13) = (   0.0559794   0.0969592   0.0000000), wk =   0.1111111
        k(   14) = (   0.0559794  -0.0646394   0.0000000), wk =   0.1111111
        k(   15) = (   0.0559794  -0.0323197   0.0000000), wk =   0.1111111
        k(   16) = (   0.0559794   0.0000000   0.0000000), wk =   0.1111111
        k(   17) = (  -0.0839691  -0.0484796   0.0000000), wk =   0.0555556
        k(   18) = (  -0.0839691  -0.0161599   0.0000000), wk =   0.1111111
        k(   19) = (  -0.0839691   0.0161599   0.0000000), wk =   0.1111111
        k(   20) = (  -0.0839691  -0.1454388   0.0000000), wk =   0.0555556

     Largest allocated arrays     est. size (Mb)     dimensions
     Largest temporary arrays     est. size (Mb)     dimensions

     Initial potential from superposition of free atoms
     Check: negative starting charge=   -0.911451

     starting charge  151.48987, renormalised to  153.00000

[...]

     *
     * You are using vdW-DF for exchange-correlation in this calculation.
     * Please cite the following three references that made this development
     * possible:
     *
     *   M. Dion, H. Rydberg, E. Schroder, D. C. Langreth, and
     *   B. I. Lundqvist, Phys. Rev. Lett. 92, 246401 (2004).
     *
     *   T. Thonhauser, V. R. Cooper, S. Li, A. Puzder, P. Hyldgaard, and
     *   D. C. Langreth, Phys. Rev. B 76, 125112 (2007).
     *
     *   G. Roman-Perez and J. M. Soler, Phys. Rev. Lett. 103, 096102 (2009).
     *
     *
     * If you are using vdW-DF2, please also cite:
     *
     *   K. Lee, E. D. Murray, L. Kong, B. I. Lundqvist, and
     *   D. C. Langreth, Phys. Rev. B 82, 081101(R) (2010).
     *
     *
     * If you are calculating the stress with vdW-DF, please also cite:
     *
     *   R. Sabatini, E. Kucukbenli, B. Kolb, T. Thonhauser, and
     *   S. de Gironcoli, J. Phys.: Condens. Matter 24, 424209 (2012).
     *

     Carrying out vdW-DF run using the following parameters:

     Nqs =      20    Nr_points =    1024   r_max =   100.000
     q_mesh =
               0.00001000     0.04494208     0.09755937     0.15916263
               0.23128650     0.31572767     0.41458969     0.53033537
               0.66584808     0.82450364     1.01025438     1.22772762
               1.48234092     1.78043706     2.12944203     2.53805004
               3.01644009     3.57652955     4.23227104     5.00000000

     Gradients computed in reciprocal space

[...]

     Starting wfc are  144 randomized atomic wfcs

     Self-consistent Calculation

[...]

     total energy              =   -1636.78593572 Ry
     Harris-Foulkes estimate   =   -1636.78593785 Ry
     estimated scf accuracy    <       0.00000351 Ry

     iteration # 15     ecut=    36.75 Ry     beta=0.10
     Davidson diagonalization with overlap
     ethr =  2.30E-09,  avg # of iterations =  2.4

[...]

     negative rho (up, down):  9.512E-01 0.000E+00

     Adding external electric field

     Computed dipole along edir(3) :
        Dipole               -0.0356 Ry au,         -0.0905 Debye
        Dipole field         -0.0001 Ry au

        Potential amp.        0.0080 Ry
        Total length         45.8076 bohr

     End of self-consistent calculation

[...]

          k = 0.0560 0.0000 0.0000 ( 19381 PWs)   bands (ev):

[...]

          k =-0.0840-0.1454 0.0000 ( 19396 PWs)   bands (ev):

   -66.8332 -66.8190 -66.8046 -66.6817 -66.6624 -66.6486 -66.5330 -66.5200
   -66.5066 -33.3706 -33.3514 -33.3252 -33.2539 -33.2461 -33.2239 -33.2055
   -33.1735 -33.1701 -33.1427 -33.1016 -33.0990 -33.0753 -33.0657 -33.0317
   -32.9926 -32.9362 -32.9099 -32.8340 -32.8288 -32.8221 -32.7785 -32.6980
   -32.6623 -32.6455 -32.6113 -32.5368  -7.2495  -7.1952  -7.1766  -7.1531
    -7.1233  -7.1197  -7.0617  -7.0314  -7.0002  -6.9711  -6.7888  -6.7295
    -6.6686  -6.6640  -6.6364  -4.4831  -4.2967  -2.9658  -2.8046  -2.2041
    -1.8734  -1.7686  -1.2160  -0.6937  -0.5104  -0.3305  -0.1518  -0.0300
     0.0572   0.0698   0.2946   0.5340   0.6373   0.6943   0.7005   0.8515
     0.9189   1.0204   1.0897   1.3455   1.3975   1.5538   1.9047   1.9949
     2.0216   2.2516   2.3321   2.4371   2.9631   3.5484   3.5529   3.6217
     3.6824   3.8490   3.8612   4.0652   4.0768   4.1546   4.2422   4.4465
     4.6069   4.6389   4.8112   4.8581   5.5850   5.6440   5.7131   5.8099
     6.5420   6.6929

     the Fermi energy is     1.6130 ev

!    total energy              =   -1636.78592885 Ry
     Harris-Foulkes estimate   =   -1636.78593614 Ry
     estimated scf accuracy    <       0.00000073 Ry

     The total energy is the sum of the following terms:

     one-electron contribution =  -11008.77830851 Ry
     hartree contribution      =    5514.51727074 Ry
     xc contribution           =    -514.55651531 Ry
     ewald contribution        =    4372.11934849 Ry
     electric field correction =       0.00000310 Ry
     smearing contrib. (-TS)   =      -0.08772737 Ry

     convergence has been achieved in  15 iterations

 BEEF-vdW xc energy contributions
           1 :   -452.703775514787
           2 :    417.351862793512
           3 :   -355.915819593059
           4 :    283.133747329377
           5 :   -213.696996493788
           6 :    157.553104744888
           7 :   -117.835692527415
           8 :    91.8534938264044
           9 :   -74.1219044354127
          10 :    59.6588912751087
          11 :   -45.9892253634446
          12 :    33.2574840642516
          13 :   -22.9268959193763
          14 :    16.1464490867316
          15 :   -12.7746275359079
          16 :    11.4530717254619
          17 :   -10.4534406870977
          18 :    8.64684489706758
          19 :   -6.00075516446475
          20 :    3.37870965540975
          21 :   -1.84790658097927
          22 :    1.95174376313639
          23 :   -3.37142010907286
          24 :    5.13339397552818
          25 :   -6.18924468544060
          26 :    5.99656186159143
          27 :   -4.76587230449280
          28 :    3.26362656970946
          29 :   -2.32677578115204
          30 :    2.39334124329167
          31 :   -40.4312646522363
          32 :   -29.9403867866420

     Forces acting on atoms (Ry/au):

     negative rho (up, down):  9.512E-01 0.000E+00
     atom    1 type  1   force =    -0.00000058   -0.00575717    0.02594050
     atom    2 type  1   force =    -0.00498277    0.00287932    0.02593883
     atom    3 type  1   force =     0.00498397    0.00288020    0.02593908
     atom    4 type  2   force =    -0.00000086    0.00000512   -0.04621666
     atom    5 type  1   force =     0.00000195    0.01937714   -0.00008335
     atom    6 type  1   force =     0.01678161   -0.00968917   -0.00008268
     atom    7 type  1   force =    -0.01678206   -0.00969101   -0.00008798
     atom    8 type  2   force =    -0.00000409   -0.00000034   -0.03294076
     atom    9 type  1   force =     0.00000555    0.00126130    0.00014081
     atom   10 type  1   force =     0.00109102   -0.00063057    0.00014569
     atom   11 type  1   force =    -0.00109155   -0.00063818    0.00013966
     atom   12 type  2   force =    -0.00000221    0.00000334    0.00116686

     Total force =     0.080447     Total SCF correction =     0.002488

     entering subroutine stress ...

     negative rho (up, down):  9.512E-01 0.000E+00
          total   stress  (Ry/bohr**3)                   (kbar)     P=  -19.20
  -0.00016105  -0.00000000   0.00000000        -23.69     -0.00      0.00
  -0.00000000  -0.00016104   0.00000000         -0.00    -23.69      0.00
   0.00000000   0.00000000  -0.00006948          0.00      0.00    -10.22

 !ASE

     Writing output data file calc.save

     General routines

     Parallel routines

   This run was terminated on:  17:26:23   1Jan2019

   JOB DONE.
Job  /afs/slac/g/suncat/bin/suncat-tsmpirun -x LD_LIBRARY_PATH -wdir /scratch/qe649074_zphch pw.x -in pw.inp

TID   HOST_NAME   COMMAND_LINE            STATUS            TERMINATION_TIME
00000 suncat0238 pw.x -in pw.inp   Done                     01/01/2019 17:26:23
00001 suncat0238 pw.x -in pw.inp   Done                     01/01/2019 17:26:23
00002 suncat0238 pw.x -in pw.inp   Done                     01/01/2019 17:26:23
00003 suncat0238 pw.x -in pw.inp   Done                     01/01/2019 17:26:23
00004 suncat0238 pw.x -in pw.inp   Done                     01/01/2019 17:26:23
00005 suncat0238 pw.x -in pw.inp   Done                     01/01/2019 17:26:23
00006 suncat0238 pw.x -in pw.inp   Done                     01/01/2019 17:26:23
00007 suncat0238 pw.x -in pw.inp   Done                     01/01/2019 17:26:23
00008 suncat0237 pw.x -in pw.inp   Done                     01/01/2019 17:26:23
00009 suncat0237 pw.x -in pw.inp   Done                     01/01/2019 17:26:23
00010 suncat0237 pw.x -in pw.inp   Done                     01/01/2019 17:26:23
00011 suncat0237 pw.x -in pw.inp   Done                     01/01/2019 17:26:23
00012 suncat0237 pw.x -in pw.inp   Done                     01/01/2019 17:26:23
00013 suncat0237 pw.x -in pw.inp   Done                     01/01/2019 17:26:23
00014 suncat0237 pw.x -in pw.inp   Done                     01/01/2019 17:26:23
00015 suncat0237 pw.x -in pw.inp   Done                     01/01/2019 17:26:23
00016 suncat0236 pw.x -in pw.inp   Done                     01/01/2019 17:26:24
00017 suncat0236 pw.x -in pw.inp   Done                     01/01/2019 17:26:24
00018 suncat0236 pw.x -in pw.inp   Done                     01/01/2019 17:26:24
00019 suncat0236 pw.x -in pw.inp   Done                     01/01/2019 17:26:24
00020 suncat0236 pw.x -in pw.inp   Done                     01/01/2019 17:26:24
00021 suncat0236 pw.x -in pw.inp   Done                     01/01/2019 17:26:24
00022 suncat0236 pw.x -in pw.inp   Done                     01/01/2019 17:26:24
00023 suncat0236 pw.x -in pw.inp   Done                     01/01/2019 17:26:24
00024 suncat0235 pw.x -in pw.inp   Done                     01/01/2019 17:26:23
00025 suncat0235 pw.x -in pw.inp   Done                     01/01/2019 17:26:23
00026 suncat0235 pw.x -in pw.inp   Done                     01/01/2019 17:26:23
00027 suncat0235 pw.x -in pw.inp   Done                     01/01/2019 17:26:23
00028 suncat0235 pw.x -in pw.inp   Done                     01/01/2019 17:26:23
00029 suncat0235 pw.x -in pw.inp   Done                     01/01/2019 17:26:23
00030 suncat0235 pw.x -in pw.inp   Done                     01/01/2019 17:26:23
00031 suncat0235 pw.x -in pw.inp   Done                     01/01/2019 17:26:23
00032 suncat0218 pw.x -in pw.inp   Done                     01/01/2019 17:26:23
00033 suncat0218 pw.x -in pw.inp   Done                     01/01/2019 17:26:23
00034 suncat0218 pw.x -in pw.inp   Done                     01/01/2019 17:26:23
00035 suncat0218 pw.x -in pw.inp   Done                     01/01/2019 17:26:23
00036 suncat0218 pw.x -in pw.inp   Done                     01/01/2019 17:26:23
00037 suncat0218 pw.x -in pw.inp   Done                     01/01/2019 17:26:23
00038 suncat0218 pw.x -in pw.inp   Done                     01/01/2019 17:26:23
00039 suncat0218 pw.x -in pw.inp   Done                     01/01/2019 17:26:23
00040 suncat0212 pw.x -in pw.inp   Done                     01/01/2019 17:26:23
00041 suncat0212 pw.x -in pw.inp   Done                     01/01/2019 17:26:23
00042 suncat0212 pw.x -in pw.inp   Done                     01/01/2019 17:26:23
00043 suncat0212 pw.x -in pw.inp   Done                     01/01/2019 17:26:23
00044 suncat0212 pw.x -in pw.inp   Done                     01/01/2019 17:26:23
00045 suncat0212 pw.x -in pw.inp   Done                     01/01/2019 17:26:23
00046 suncat0212 pw.x -in pw.inp   Done                     01/01/2019 17:26:23
00047 suncat0212 pw.x -in pw.inp   Done                     01/01/2019 17:26:23
00048 suncat0211 pw.x -in pw.inp   Done                     01/01/2019 17:26:23
00049 suncat0211 pw.x -in pw.inp   Done                     01/01/2019 17:26:23
00050 suncat0211 pw.x -in pw.inp   Done                     01/01/2019 17:26:23
00051 suncat0211 pw.x -in pw.inp   Done                     01/01/2019 17:26:23
00052 suncat0211 pw.x -in pw.inp   Done                     01/01/2019 17:26:23
00053 suncat0211 pw.x -in pw.inp   Done                     01/01/2019 17:26:23
00054 suncat0211 pw.x -in pw.inp   Done                     01/01/2019 17:26:23
00055 suncat0211 pw.x -in pw.inp   Done                     01/01/2019 17:26:23
00056 suncat0208 pw.x -in pw.inp   Done                     01/01/2019 17:26:23
00057 suncat0208 pw.x -in pw.inp   Done                     01/01/2019 17:26:23
00058 suncat0208 pw.x -in pw.inp   Done                     01/01/2019 17:26:23
00059 suncat0208 pw.x -in pw.inp   Done                     01/01/2019 17:26:23
00060 suncat0208 pw.x -in pw.inp   Done                     01/01/2019 17:26:23
00061 suncat0208 pw.x -in pw.inp   Done                     01/01/2019 17:26:23
00062 suncat0208 pw.x -in pw.inp   Done                     01/01/2019 17:26:23
00063 suncat0208 pw.x -in pw.inp   Done                     01/01/2019 17:26:23