     Program PWSCF v.5.1rc2 (svn rev. 11289) starts on 26Dec2018 at  5:31:19

     Current dimensions of program PWSCF are:
     Max number of different atomic species (ntypx) = 10
     Max number of k-points (npk) =  40000
     Max angular momentum in pseudopotentials (lmaxx) =  3
     Presently stress not available with electric field

     IMPORTANT: XC functional enforced from input :
     Exchange-correlation      = BEEF-VDW ( 1  4 27 13 2)
     Any further DFT definition will be discarded
     Please, verify this is what you really want

     Subspace diagonalization in iterative solution of the eigenvalue problem:
     a serial algorithm will be used

     bravais-lattice index     =            0
     lattice parameter (alat)  =       1.8897  a.u.
     unit-cell volume          =    4961.6979 (a.u.)^3
     number of atoms/cell      =           12
     number of atomic types    =            2
     number of electrons       =       207.00
     number of Kohn-Sham states=          133
     kinetic-energy cutoff     =      36.7493  Ry
     charge density cutoff     =     367.4932  Ry
     convergence threshold     =      1.0E-06
     mixing beta               =       0.1000
     number of iterations used =           10  plain     mixing
     Exchange-correlation      = BEEF-VDW ( 1  4 27 13 2)
     nstep                     =           50

     celldm(1)=   1.889726  celldm(2)=   0.000000  celldm(3)=   0.000000
     celldm(4)=   0.000000  celldm(5)=   0.000000  celldm(6)=   0.000000

     crystal axes: (cart. coord. in units of alat)
               a(1) = (   5.853388   0.000000   0.000000 )
               a(2) = (  -2.926694   5.069182   0.000000 )
               a(3) = (   0.000000   0.000000  24.779271 )

     reciprocal axes: (cart. coord. in units 2 pi/alat)
               b(1) = (  0.170841  0.098635  0.000000 )
               b(2) = (  0.000000  0.197270  0.000000 )
               b(3) = (  0.000000  0.000000  0.040356 )

     PseudoPot. # 1 for Ga read from file:
     /afs/slac.stanford.edu/u/if/mamunm/psp/gbrv1.5pbe/Ga.UPF
     MD5 check sum: ccd671392a58a050fbb373893b4fcd66
     Pseudo is Ultrasoft + core correction, Zval = 19.0
     Generated by new atomic code, or converted to UPF format
     Using radial grid of  871 points,  6 beta functions with:
                l(1) =   0
                l(2) =   0
                l(3) =   1
                l(4) =   1
                l(5) =   2
                l(6) =   2
     Q(r) pseudized with  8 coefficients,  rinner =    1.250   1.250   1.250
                                                       1.250   1.250

     PseudoPot. # 2 for Zr read from file:
     /afs/slac.stanford.edu/u/if/mamunm/psp/gbrv1.5pbe/Zr.UPF
     MD5 check sum: 5db81b1e868ab7776c4564c113de050b
     Pseudo is Ultrasoft + core correction, Zval = 12.0
     Generated by new atomic code, or converted to UPF format
     Using radial grid of  887 points,  6 beta functions with:
                l(1) =   0
                l(2) =   0
                l(3) =   1
                l(4) =   1
                l(5) =   2
                l(6) =   2
     Q(r) pseudized with  6 coefficients,  rinner =    1.200   1.200   1.200
                                                       1.200   1.200

     vdW kernel table read from file vdW_kernel_table
     MD5 check sum: 095c7af220d748ca6e76c0b4c6cfb241

     atomic species   valence    mass     pseudopotential
        Ga1           19.00    69.72300     Ga( 1.00)
        Zr1           12.00    91.22400     Zr( 1.00)

     No symmetry found

   Cartesian axes

     site n.     atom                  positions (alat units)
         1           Ga1 tau(   1) = (   0.0000000   0.0000000  10.0000000  )
         2           Ga1 tau(   2) = (  -1.4633469   2.5345912  10.0000000  )
         3           Ga1 tau(   3) = (   1.4633469   2.5345912  10.0000000  )
         4           Zr1 tau(   4) = (   2.9266938   0.0000000  10.0000000  )
         5           Ga1 tau(   5) = (   2.9266938   1.6897274  12.3896355  )
         6           Ga1 tau(   6) = (   1.4633469   4.2243186  12.3896355  )
         7           Ga1 tau(   7) = (  -1.4633469   4.2243186  12.3896355  )
         8           Zr1 tau(   8) = (   0.0000000   1.6897274  12.3896355  )
         9           Ga1 tau(   9) = (  -0.0000000   3.3794549  14.7792709  )
        10           Ga1 tau(  10) = (   1.4633469   0.8448637  14.7792709  )
        11           Ga1 tau(  11) = (   4.3900407   0.8448637  14.7792709  )
        12           Zr1 tau(  12) = (   2.9266938   3.3794549  14.7792709  )

     number of k points=    20  Fermi-Dirac smearing, width (Ry)=  0.0110
                       cart. coord. in units 2pi/alat
        k(    1) = (   0.0000000   0.0000000   0.0000000), wk =   0.0555556
        k(    2) = (   0.0000000   0.0328784   0.0000000), wk =   0.1111111
        k(    3) = (   0.0000000   0.0657568   0.0000000), wk =   0.1111111
        k(    4) = (   0.0000000  -0.0986352   0.0000000), wk =   0.0555556
        k(    5) = (   0.0284735   0.0164392   0.0000000), wk =   0.1111111
        k(    6) = (   0.0284735   0.0493176   0.0000000), wk =   0.1111111
        k(    7) = (   0.0284735   0.0821960   0.0000000), wk =   0.1111111
        k(    8) = (   0.0284735  -0.0821960   0.0000000), wk =   0.1111111
        k(    9) = (   0.0284735  -0.0493176   0.0000000), wk =   0.1111111
        k(   10) = (   0.0284735  -0.0164392   0.0000000), wk =   0.1111111
        k(   11) = (   0.0569471   0.0328784   0.0000000), wk =   0.1111111
        k(   12) = (   0.0569471   0.0657568   0.0000000), wk =   0.1111111
        k(   13) = (   0.0569471   0.0986352   0.0000000), wk =   0.1111111
        k(   14) = (   0.0569471  -0.0657568   0.0000000), wk =   0.1111111
        k(   15) = (   0.0569471  -0.0328784   0.0000000), wk =   0.1111111
        k(   16) = (   0.0569471   0.0000000   0.0000000), wk =   0.1111111
        k(   17) = (  -0.0854206  -0.0493176   0.0000000), wk =   0.0555556
        k(   18) = (  -0.0854206  -0.0164392   0.0000000), wk =   0.1111111
        k(   19) = (  -0.0854206   0.0164392   0.0000000), wk =   0.1111111
        k(   20) = (  -0.0854206  -0.1479529   0.0000000), wk =   0.0555556

     Largest allocated arrays     est. size (Mb)     dimensions
     Largest temporary arrays     est. size (Mb)     dimensions

     Initial potential from superposition of free atoms
     Check: negative starting charge=   -0.183857

     starting charge  197.99354, renormalised to  207.00000

     negative rho (up, down):  1.922E-01 0.000E+00

     *
     * You are using vdW-DF for exchange-correlation in this calculation.
     * Please cite the following three references that made this development
     * possible:
     *
     *   M. Dion, H. Rydberg, E. Schroder, D. C. Langreth, and
     *   B. I. Lundqvist, Phys. Rev. Lett. 92, 246401 (2004).
     *
     *   T. Thonhauser, V. R. Cooper, S. Li, A. Puzder, P. Hyldgaard, and
     *   D. C. Langreth, Phys. Rev. B 76, 125112 (2007).
     *
     *   G. Roman-Perez and J. M. Soler, Phys. Rev. Lett. 103, 096102 (2009).
     *
     *
     * If you are using vdW-DF2, please also cite:
     *
     *   K. Lee, E. D. Murray, L. Kong, B. I. Lundqvist, and
     *   D. C. Langreth, Phys. Rev. B 82, 081101(R) (2010).
     *
     *
     * If you are calculating the stress with vdW-DF, please also cite:
     *
     *   R. Sabatini, E. Kucukbenli, B. Kolb, T. Thonhauser, and
     *   S. de Gironcoli, J. Phys.: Condens. Matter 24, 424209 (2012).
     *

     Carrying out vdW-DF run using the following parameters:

     Nqs =      20    Nr_points =    1024   r_max =   100.000
     q_mesh =
               0.00001000     0.04494208     0.09755937     0.15916263
               0.23128650     0.31572767     0.41458969     0.53033537
               0.66584808     0.82450364     1.01025438     1.22772762
               1.48234092     1.78043706     2.12944203     2.53805004
               3.01644009     3.57652955     4.23227104     5.00000000

     Gradients computed in reciprocal space

     Adding external electric field

     Computed dipole along edir(3) :
        Dipole                0.0000 Ry au,          0.0000 Debye
        Dipole field          0.0000 Ry au

        Potential amp.       -0.0000 Ry
        Total length         45.6554 bohr

     Starting wfc are  147 randomized atomic wfcs

     Self-consistent Calculation

     iteration #  1     ecut=    36.75 Ry     beta=0.10
     Davidson diagonalization with overlap
     ethr =  1.00E-02,  avg # of iterations =  7.8

[...]

     total energy              =   -4049.58846224 Ry
     Harris-Foulkes estimate   =   -4060.96801105 Ry
     estimated scf accuracy    <      63.60915578 Ry

[...]

     End of self-consistent calculation

          k = 0.0000 0.0000 0.0000 ( 18787 PWs)   bands (ev):

   -93.8307 -93.8290 -93.8290 -93.7864 -93.7864 -93.7854 -93.7775 -93.7768
   -93.7767 -93.6095 -93.6094 -93.6082 -93.6082 -93.6082 -93.6082 -93.5774
   -93.5773 -93.5762 -93.5761 -93.5761 -93.5761 -93.5418 -93.5418 -93.5417
   -93.5417 -93.5408 -93.5408 -48.6831 -48.6830 -48.3599 -26.7882 -26.7853
   -26.5907 -26.5907 -26.5906 -26.5906 -26.3935 -26.3935 -26.3652 -14.3399
   -14.3002 -14.3001 -14.2821 -14.2080 -14.1998 -14.1998 -14.1497 -14.1497
   -14.1219 -14.1015 -14.1005 -14.1004 -14.1000 -14.0919 -14.0919 -14.0378
   -14.0378 -14.0151 -14.0151 -14.0143 -13.9914 -13.9647 -13.9541 -13.9458
   -13.9408 -13.9408 -13.9006 -13.9006 -13.8744 -13.8744 -13.8649 -13.8649
   -13.8603 -13.8603 -13.8548 -13.8521 -13.8521 -13.8318 -13.8318 -13.8194
   -13.8047 -13.8047 -13.7220 -13.7218  -9.2622  -7.6042  -5.7495  -4.6877
    -4.6877  -3.7647  -3.7647  -2.9187  -2.9187  -2.8123  -1.9331  -1.5139
    -1.2474  -1.2474  -0.8047   0.3935   0.3987   0.3987   0.4566   0.4566
     1.3874   1.3874   1.4130   1.4130   2.1578   2.2973   2.8979   2.8979
     3.6027   3.6027   3.7529   3.7529   3.8655   3.9357   4.2416   4.4581
     4.5069   4.5069   4.7795   5.0997   5.6522   5.6522   5.9956   6.0640
     6.0889   6.3371   6.3371   6.4840   6.6342

[...]

          k =-0.0854-0.0493 0.0000 ( 18632 PWs)   bands (ev):

[...]

     the Fermi energy is     0.8822 ev

!    total energy              =   -4048.81267547 Ry
     Harris-Foulkes estimate   =   -4048.81267180 Ry
     estimated scf accuracy    <       0.00000020 Ry

     The total energy is the sum of the following terms:

     one-electron contribution =  -23798.54090512 Ry
     hartree contribution      =   11904.59521190 Ry
     xc contribution           =    -503.20699756 Ry
     ewald contribution        =    8348.37360722 Ry
     electric field correction =       0.00000000 Ry
     smearing contrib. (-TS)   =      -0.03359190 Ry

     convergence has been achieved in  16 iterations

 BEEF-vdW xc energy contributions
           1 :   -447.421016721941
           2 :    406.630317728570
           3 :   -337.986229950837
           4 :    261.103793045192
           5 :   -193.542054348491
           6 :    144.279027330437
           7 :   -112.355230915976
           8 :    90.5266203600297
           9 :   -71.1328815481547
          10 :    50.5871696957003
[...]
     Pseudo is Ultrasoft + core correction, Zval = 19.0
     Generated by new atomic code, or converted to UPF format
     Using radial grid of  871 points,  6 beta functions with:
                l(1) =   0
                l(2) =   0
                l(3) =   1
                l(4) =   1
                l(5) =   2
                l(6) =   2
     Q(r) pseudized with  8 coefficients,  rinner =    1.250   1.250   1.250
                                                       1.250   1.250

     PseudoPot. # 2 for Zr read from file:
     /afs/slac.stanford.edu/u/if/mamunm/psp/gbrv1.5pbe/Zr.UPF
     MD5 check sum: 5db81b1e868ab7776c4564c113de050b
     Pseudo is Ultrasoft + core correction, Zval = 12.0
     Generated by new atomic code, or converted to UPF format
     Using radial grid of  887 points,  6 beta functions with:
                l(1) =   0
                l(2) =   0
                l(3) =   1
                l(4) =   1
                l(5) =   2
                l(6) =   2
     Q(r) pseudized with  6 coefficients,  rinner =    1.200   1.200   1.200
                                                       1.200   1.200

     vdW kernel table read from file vdW_kernel_table
     MD5 check sum: 095c7af220d748ca6e76c0b4c6cfb241

     atomic species   valence    mass     pseudopotential
        Ga1           19.00    69.72300     Ga( 1.00)
        Zr1           12.00    91.22400     Zr( 1.00)

     No symmetry found

   Cartesian axes

     site n.     atom                  positions (alat units)
         1           Ga1 tau(   1) = (   0.0000000   0.0000000  10.0000000  )
         2           Ga1 tau(   2) = (  -1.4633469   2.5345912  10.0000000  )
         3           Ga1 tau(   3) = (   1.4633469   2.5345912  10.0000000  )
         4           Zr1 tau(   4) = (   2.9266938   0.0000000  10.0000000  )
         5           Ga1 tau(   5) = (   2.9266938   1.6897274  12.3896355  )
         6           Ga1 tau(   6) = (   1.4633469   4.2243186  12.3896355  )
         7           Ga1 tau(   7) = (  -1.4633469   4.2243186  12.3896355  )
         8           Zr1 tau(   8) = (   0.0000000   1.6897274  12.3896355  )
         9           Ga1 tau(   9) = (   0.0000156   3.4072566  15.0048319  )
        10           Ga1 tau(  10) = (   1.4874129   0.8309663  15.0048233  )
        11           Ga1 tau(  11) = (   4.3660037   0.8310090  15.0048323  )
        12           Zr1 tau(  12) = (   2.9266990   3.3794608  14.6294860  )

     number of k points=    20  Fermi-Dirac smearing, width (Ry)=  0.0110
                       cart. coord. in units 2pi/alat
        k(    1) = (   0.0000000   0.0000000   0.0000000), wk =   0.0555556
        k(    2) = (   0.0000000   0.0328784   0.0000000), wk =   0.1111111
        k(    3) = (   0.0000000   0.0657568   0.0000000), wk =   0.1111111
        k(    4) = (   0.0000000  -0.0986352   0.0000000), wk =   0.0555556
        k(    5) = (   0.0284735   0.0164392   0.0000000), wk =   0.1111111
        k(    6) = (   0.0284735   0.0493176   0.0000000), wk =   0.1111111
        k(    7) = (   0.0284735   0.0821960   0.0000000), wk =   0.1111111
        k(    8) = (   0.0284735  -0.0821960   0.0000000), wk =   0.1111111
        k(    9) = (   0.0284735  -0.0493176   0.0000000), wk =   0.1111111
        k(   10) = (   0.0284735  -0.0164392   0.0000000), wk =   0.1111111
        k(   11) = (   0.0569471   0.0328784   0.0000000), wk =   0.1111111
        k(   12) = (   0.0569471   0.0657568   0.0000000), wk =   0.1111111
        k(   13) = (   0.0569471   0.0986352   0.0000000), wk =   0.1111111
        k(   14) = (   0.0569471  -0.0657568   0.0000000), wk =   0.1111111
        k(   15) = (   0.0569471  -0.0328784   0.0000000), wk =   0.1111111
        k(   16) = (   0.0569471   0.0000000   0.0000000), wk =   0.1111111
        k(   17) = (  -0.0854206  -0.0493176   0.0000000), wk =   0.0555556
        k(   18) = (  -0.0854206  -0.0164392   0.0000000), wk =   0.1111111
        k(   19) = (  -0.0854206   0.0164392   0.0000000), wk =   0.1111111
        k(   20) = (  -0.0854206  -0.1479529   0.0000000), wk =   0.0555556

     Largest allocated arrays     est. size (Mb)     dimensions
     Largest temporary arrays     est. size (Mb)     dimensions

     Initial potential from superposition of free atoms
     Check: negative starting charge=   -0.184143

     starting charge  197.99354, renormalised to  207.00000

[...]

     *
     * You are using vdW-DF for exchange-correlation in this calculation.
     * Please cite the following three references that made this development
     * possible:
     *
     *   M. Dion, H. Rydberg, E. Schroder, D. C. Langreth, and
     *   B. I. Lundqvist, Phys. Rev. Lett. 92, 246401 (2004).
     *
     *   T. Thonhauser, V. R. Cooper, S. Li, A. Puzder, P. Hyldgaard, and
     *   D. C. Langreth, Phys. Rev. B 76, 125112 (2007).
     *
     *   G. Roman-Perez and J. M. Soler, Phys. Rev. Lett. 103, 096102 (2009).
     *
     *
     * If you are using vdW-DF2, please also cite:
     *
     *   K. Lee, E. D. Murray, L. Kong, B. I. Lundqvist, and
     *   D. C. Langreth, Phys. Rev. B 82, 081101(R) (2010).
     *
     *
     * If you are calculating the stress with vdW-DF, please also cite:
     *
     *   R. Sabatini, E. Kucukbenli, B. Kolb, T. Thonhauser, and
     *   S. de Gironcoli, J. Phys.: Condens. Matter 24, 424209 (2012).
     *

     Carrying out vdW-DF run using the following parameters:

     Nqs =      20    Nr_points =    1024   r_max =   100.000
     q_mesh =
               0.00001000     0.04494208     0.09755937     0.15916263
               0.23128650     0.31572767     0.41458969     0.53033537
               0.66584808     0.82450364     1.01025438     1.22772762
               1.48234092     1.78043706     2.12944203     2.53805004
               3.01644009     3.57652955     4.23227104     5.00000000

     Gradients computed in reciprocal space

[...]

     Starting wfc are  147 randomized atomic wfcs

     Self-consistent Calculation

[...]

     total energy              =   -4048.86094721 Ry
     Harris-Foulkes estimate   =   -4048.86094628 Ry
     estimated scf accuracy    <       0.00000347 Ry

     iteration # 17     ecut=    36.75 Ry     beta=0.10
     Davidson diagonalization with overlap
     ethr =  1.68E-09,  avg # of iterations =  2.0

[...]

     negative rho (up, down):  1.847E-01 0.000E+00

     Adding external electric field

     Computed dipole along edir(3) :
        Dipole               -0.0103 Ry au,         -0.0263 Debye
        Dipole field         -0.0000 Ry au

        Potential amp.        0.0024 Ry
        Total length         45.6554 bohr

     End of self-consistent calculation

[...]

          k = 0.0569 0.0000 0.0000 ( 18665 PWs)   bands (ev):

[...]

          k =-0.0854-0.1480 0.0000 ( 18632 PWs)   bands (ev):

   -93.7894 -93.7889 -93.7883 -93.7458 -93.7454 -93.7452 -93.7342 -93.7339
   -93.7336 -93.6852 -93.6848 -93.6845 -93.6555 -93.6548 -93.6543 -93.6332
   -93.6328 -93.6324 -93.6075 -93.6072 -93.6068 -93.6033 -93.6029 -93.6025
   -93.5668 -93.5665 -93.5662 -48.6742 -48.5224 -48.4969 -26.7730 -26.6181
   -26.5905 -26.5873 -26.5086 -26.5079 -26.4893 -26.4532 -26.4530 -14.2538
   -14.1970 -14.1849 -14.1607 -14.1490 -14.1402 -14.1318 -14.1288 -14.1218
   -14.1211 -14.1156 -14.0997 -14.0894 -14.0628 -14.0610 -14.0563 -14.0403
   -14.0298 -14.0125 -14.0028 -14.0004 -13.9902 -13.9810 -13.9782 -13.9700
   -13.9691 -13.9637 -13.9599 -13.9584 -13.9551 -13.9436 -13.9432 -13.9276
   -13.9267 -13.9236 -13.9227 -13.9164 -13.9092 -13.9070 -13.9061 -13.8806
   -13.8725 -13.8685 -13.8458 -13.8065  -7.8034  -7.4544  -6.1951  -5.9755
    -5.1458  -4.8286  -4.4441  -3.5592  -2.6851  -1.9995  -1.9646  -1.3010
    -0.7831  -0.5377  -0.4412  -0.1848  -0.0193   0.3801   0.7728   1.1835
     1.5563   2.1087   2.3888   2.3917   2.5494   2.7798   2.8246   3.0417
     3.0628   3.3966   3.5808   3.7461   3.8790   4.1656   4.2787   4.2812
     4.5219   4.7669   5.1467   5.1974   5.2597   5.6501   5.7714   5.8625
     6.0132   6.0775   6.4162   6.7151   6.7489

     the Fermi energy is     0.8355 ev

!    total energy              =   -4048.86095085 Ry
     Harris-Foulkes estimate   =   -4048.86094774 Ry
     estimated scf accuracy    <       0.00000050 Ry

     The total energy is the sum of the following terms:

     one-electron contribution =  -23314.33448752 Ry
     hartree contribution      =   11662.37993714 Ry
     xc contribution           =    -503.12857939 Ry
     ewald contribution        =    8106.25502066 Ry
     electric field correction =       0.00000027 Ry
     smearing contrib. (-TS)   =      -0.03284200 Ry

     convergence has been achieved in  17 iterations

 BEEF-vdW xc energy contributions
           1 :   -447.971352897515
           2 :    407.126352311786
           3 :   -338.413285940971
           4 :    261.499848333894
           5 :   -193.974563278471
           6 :    144.797569626217
           7 :   -112.953449682615
           8 :    91.1465839287956
           9 :   -71.7112327515856
          10 :    51.1048590327826
          11 :   -30.7450627444716
          12 :    14.4717689643655
          13 :   -4.93836920596817
          14 :    1.51862779543865
          15 :  -0.897318995128160
          16 :  -0.485747585791160
          17 :    4.11632707907239
          18 :   -8.83317786860187
          19 :    12.1859611851381
          20 :   -12.5266220041152
          21 :    10.2534665314650
          22 :   -7.40787003784232
          23 :    6.08724271309268
          24 :   -6.94942981330138
          25 :    8.89521823993351
          26 :   -10.0608406491439
          27 :    9.28089568746930
          28 :   -6.91065611123685
          29 :    4.45717226055291
          30 :   -3.38980514443620
          31 :   -34.9508356255854
          32 :   -24.2266140756913

     Forces acting on atoms (Ry/au):

     negative rho (up, down):  1.847E-01 0.000E+00
     atom    1 type  1   force =    -0.00000293   -0.00807891   -0.02661574
     atom    2 type  1   force =    -0.00699726    0.00404148   -0.02662225
     atom    3 type  1   force =     0.00699726    0.00404043   -0.02662230
     atom    4 type  2   force =     0.00000031   -0.00000035    0.06316069
     atom    5 type  1   force =    -0.00000232   -0.00974809   -0.00254526
     atom    6 type  1   force =    -0.00844493    0.00486801   -0.00255294
     atom    7 type  1   force =     0.00844909    0.00487992   -0.00255809
     atom    8 type  2   force =     0.00000024   -0.00000026    0.02400470
     atom    9 type  1   force =     0.00000147   -0.00124162    0.00015026
     atom   10 type  1   force =    -0.00107511    0.00061779    0.00015313
     atom   11 type  1   force =     0.00107508    0.00062206    0.00015176
     atom   12 type  2   force =    -0.00000090   -0.00000048   -0.00010395

     Total force =     0.084833     Total SCF correction =     0.005002

     entering subroutine stress ...

     negative rho (up, down):  1.847E-01 0.000E+00
          total   stress  (Ry/bohr**3)                   (kbar)     P=  -13.71
  -0.00014669  -0.00000000  -0.00000000        -21.58     -0.00     -0.00
  -0.00000000  -0.00014669  -0.00000000         -0.00    -21.58     -0.00
  -0.00000000  -0.00000000   0.00001388         -0.00     -0.00      2.04

 !ASE

     Writing output data file calc.save

     General routines

     Parallel routines

   This run was terminated on:   7:45:53  26Dec2018

   JOB DONE.
Job  /afs/slac/g/suncat/bin/suncat-tsmpirun -x LD_LIBRARY_PATH -wdir /scratch/qe109721_QM1PY pw.x -in pw.inp

TID   HOST_NAME   COMMAND_LINE            STATUS            TERMINATION_TIME
00000 suncat0025 pw.x -in pw.inp   Done                     12/26/2018 07:45:53
00001 suncat0025 pw.x -in pw.inp   Done                     12/26/2018 07:45:53
00002 suncat0025 pw.x -in pw.inp   Done                     12/26/2018 07:45:53
00003 suncat0025 pw.x -in pw.inp   Done                     12/26/2018 07:45:53
00004 suncat0025 pw.x -in pw.inp   Done                     12/26/2018 07:45:53
00005 suncat0025 pw.x -in pw.inp   Done                     12/26/2018 07:45:53
00006 suncat0025 pw.x -in pw.inp   Done                     12/26/2018 07:45:53
00007 suncat0025 pw.x -in pw.inp   Done                     12/26/2018 07:45:53
00008 suncat0013 pw.x -in pw.inp   Done                     12/26/2018 07:45:53
00009 suncat0013 pw.x -in pw.inp   Done                     12/26/2018 07:45:53
00010 suncat0013 pw.x -in pw.inp   Done                     12/26/2018 07:45:53
00011 suncat0013 pw.x -in pw.inp   Done                     12/26/2018 07:45:53
00012 suncat0013 pw.x -in pw.inp   Done                     12/26/2018 07:45:53
00013 suncat0013 pw.x -in pw.inp   Done                     12/26/2018 07:45:53
00014 suncat0013 pw.x -in pw.inp   Done                     12/26/2018 07:45:53
00015 suncat0013 pw.x -in pw.inp   Done                     12/26/2018 07:45:53
00016 suncat0008 pw.x -in pw.inp   Done                     12/26/2018 07:45:53
00017 suncat0008 pw.x -in pw.inp   Done                     12/26/2018 07:45:53
00018 suncat0008 pw.x -in pw.inp   Done                     12/26/2018 07:45:53
00019 suncat0008 pw.x -in pw.inp   Done                     12/26/2018 07:45:53
00020 suncat0008 pw.x -in pw.inp   Done                     12/26/2018 07:45:53
00021 suncat0008 pw.x -in pw.inp   Done                     12/26/2018 07:45:53
00022 suncat0008 pw.x -in pw.inp   Done                     12/26/2018 07:45:53
00023 suncat0008 pw.x -in pw.inp   Done                     12/26/2018 07:45:53
00024 suncat0001 pw.x -in pw.inp   Done                     12/26/2018 07:45:53
00025 suncat0001 pw.x -in pw.inp   Done                     12/26/2018 07:45:53
00026 suncat0001 pw.x -in pw.inp   Done                     12/26/2018 07:45:53
00027 suncat0001 pw.x -in pw.inp   Done                     12/26/2018 07:45:53
00028 suncat0001 pw.x -in pw.inp   Done                     12/26/2018 07:45:53
00029 suncat0001 pw.x -in pw.inp   Done                     12/26/2018 07:45:53
00030 suncat0001 pw.x -in pw.inp   Done                     12/26/2018 07:45:53
00031 suncat0001 pw.x -in pw.inp   Done                     12/26/2018 07:45:53
00032 suncat0184 pw.x -in pw.inp   Done                     12/26/2018 07:45:53
00033 suncat0184 pw.x -in pw.inp   Done                     12/26/2018 07:45:53
00034 suncat0184 pw.x -in pw.inp   Done                     12/26/2018 07:45:53
00035 suncat0184 pw.x -in pw.inp   Done                     12/26/2018 07:45:53
00036 suncat0184 pw.x -in pw.inp   Done                     12/26/2018 07:45:53
00037 suncat0184 pw.x -in pw.inp   Done                     12/26/2018 07:45:53
00038 suncat0184 pw.x -in pw.inp   Done                     12/26/2018 07:45:53
00039 suncat0184 pw.x -in pw.inp   Done                     12/26/2018 07:45:53
00040 suncat0142 pw.x -in pw.inp   Done                     12/26/2018 07:45:53
00041 suncat0142 pw.x -in pw.inp   Done                     12/26/2018 07:45:53
00042 suncat0142 pw.x -in pw.inp   Done                     12/26/2018 07:45:53
00043 suncat0142 pw.x -in pw.inp   Done                     12/26/2018 07:45:53
00044 suncat0142 pw.x -in pw.inp   Done                     12/26/2018 07:45:53
00045 suncat0142 pw.x -in pw.inp   Done                     12/26/2018 07:45:53
00046 suncat0142 pw.x -in pw.inp   Done                     12/26/2018 07:45:53
00047 suncat0142 pw.x -in pw.inp   Done                     12/26/2018 07:45:53
00048 suncat0117 pw.x -in pw.inp   Done                     12/26/2018 07:45:53
00049 suncat0117 pw.x -in pw.inp   Done                     12/26/2018 07:45:53
00050 suncat0117 pw.x -in pw.inp   Done                     12/26/2018 07:45:53
00051 suncat0117 pw.x -in pw.inp   Done                     12/26/2018 07:45:53
00052 suncat0117 pw.x -in pw.inp   Done                     12/26/2018 07:45:53
00053 suncat0117 pw.x -in pw.inp   Done                     12/26/2018 07:45:53
00054 suncat0117 pw.x -in pw.inp   Done                     12/26/2018 07:45:53
00055 suncat0117 pw.x -in pw.inp   Done                     12/26/2018 07:45:53
00056 suncat0116 pw.x -in pw.inp   Done                     12/26/2018 07:45:53
00057 suncat0116 pw.x -in pw.inp   Done                     12/26/2018 07:45:53
00058 suncat0116 pw.x -in pw.inp   Done                     12/26/2018 07:45:53
00059 suncat0116 pw.x -in pw.inp   Done                     12/26/2018 07:45:53
00060 suncat0116 pw.x -in pw.inp   Done                     12/26/2018 07:45:53
00061 suncat0116 pw.x -in pw.inp   Done                     12/26/2018 07:45:53
00062 suncat0116 pw.x -in pw.inp   Done                     12/26/2018 07:45:53
00063 suncat0116 pw.x -in pw.inp   Done                     12/26/2018 07:45:53