     Program PWSCF v.5.1rc2 (svn rev. 11289) starts on 27Dec2018 at 21:10:14

     Current dimensions of program PWSCF are:
     Max number of different atomic species (ntypx) = 10
     Max number of k-points (npk) =  40000
     Max angular momentum in pseudopotentials (lmaxx) =  3
     Presently stress not available with electric field

     IMPORTANT: XC functional enforced from input :
     Exchange-correlation      = BEEF-VDW ( 1  4 27 13 2)
     Any further DFT definition will be discarded
     Please, verify this is what you really want

     Subspace diagonalization in iterative solution of the eigenvalue problem:
     a serial algorithm will be used

     bravais-lattice index     =            0
     lattice parameter (alat)  =       1.8897  a.u.
     unit-cell volume          =    4664.2406 (a.u.)^3
     number of atoms/cell      =           12
     number of atomic types    =            2
     number of electrons       =       174.00
     number of Kohn-Sham states=          117
     kinetic-energy cutoff     =      36.7493  Ry
     charge density cutoff     =     367.4932  Ry
     convergence threshold     =      1.0E-06
     mixing beta               =       0.1000
     number of iterations used =           10  plain     mixing
     Exchange-correlation      = BEEF-VDW ( 1  4 27 13 2)
     nstep                     =           50

     celldm(1)=   1.889726  celldm(2)=   0.000000  celldm(3)=   0.000000
     celldm(4)=   0.000000  celldm(5)=   0.000000  celldm(6)=   0.000000

     crystal axes: (cart. coord. in units of alat)
               a(1) = (   5.690509   0.000000   0.000000 )
               a(2) = (  -2.845255   4.928126   0.000000 )
               a(3) = (   0.000000   0.000000  24.646282 )

     reciprocal axes: (cart. coord. in units 2 pi/alat)
               b(1) = (  0.175731  0.101458  0.000000 )
               b(2) = (  0.000000  0.202917  0.000000 )
               b(3) = (  0.000000  0.000000  0.040574 )

     PseudoPot. # 1 for Rh read from file:
     /afs/slac.stanford.edu/u/if/mamunm/psp/gbrv1.5pbe/Rh.UPF
     MD5 check sum: 761627e959a2e3a1f56b0b5fe687810e
     Pseudo is Ultrasoft + core correction, Zval = 15.0
     Generated by new atomic code, or converted to UPF format
     Using radial grid of  969 points,  7 beta functions with:
                l(1) =   0
                l(2) =   0
                l(3) =   1
                l(4) =   1
                l(5) =   2
                l(6) =   2
                l(7) =   2
     Q(r) pseudized with  8 coefficients,  rinner =    1.200   1.200   1.200
                                                       1.200   1.200

     PseudoPot. # 2 for Tl read from file:
     /afs/slac.stanford.edu/u/if/mamunm/psp/gbrv1.5pbe/Tl.UPF
     MD5 check sum: b76cf1f7e72655a2b2c53cf6385d7059
     Pseudo is Ultrasoft + core correction, Zval = 13.0
     Generated by new atomic code, or converted to UPF format
     Using radial grid of  899 points,  6 beta functions with:
                l(1) =   0
                l(2) =   0
                l(3) =   1
                l(4) =   1
                l(5) =   2
                l(6) =   2
     Q(r) pseudized with  6 coefficients,  rinner =    1.100   1.100   1.100
                                                       1.100   1.100

     vdW kernel table read from file vdW_kernel_table
     MD5 check sum: 095c7af220d748ca6e76c0b4c6cfb241

     atomic species   valence    mass     pseudopotential
        Rh1           15.00   102.90550     Rh( 1.00)
        Tl1           13.00   204.38000     Tl( 1.00)

     No symmetry found

   Cartesian axes

     site n.     atom                  positions (alat units)
         1           Rh1 tau(   1) = (   0.0000000   0.0000000  10.0000000  )
         2           Rh1 tau(   2) = (  -1.4226274   2.4640629  10.0000000  )
         3           Rh1 tau(   3) = (   1.4226274   2.4640629  10.0000000  )
         4           Tl1 tau(   4) = (   2.8452547   0.0000000  10.0000000  )
         5           Rh1 tau(   5) = (   2.8452547   1.6427086  12.3231408  )
         6           Rh1 tau(   6) = (   1.4226274   4.1067715  12.3231408  )
         7           Rh1 tau(   7) = (  -1.4226274   4.1067715  12.3231408  )
         8           Tl1 tau(   8) = (   0.0000000   1.6427086  12.3231408  )
         9           Rh1 tau(   9) = (  -0.0000000   3.2854172  14.6462815  )
        10           Rh1 tau(  10) = (   1.4226274   0.8213543  14.6462815  )
        11           Rh1 tau(  11) = (   4.2678821   0.8213543  14.6462815  )
        12           Tl1 tau(  12) = (   2.8452547   3.2854172  14.6462815  )

     number of k points=    20  Fermi-Dirac smearing, width (Ry)=  0.0110
                       cart. coord. in units 2pi/alat
        k(    1) = (   0.0000000   0.0000000   0.0000000), wk =   0.0555556
        k(    2) = (   0.0000000   0.0338195   0.0000000), wk =   0.1111111
        k(    3) = (   0.0000000   0.0676390   0.0000000), wk =   0.1111111
        k(    4) = (   0.0000000  -0.1014584   0.0000000), wk =   0.0555556
        k(    5) = (   0.0292885   0.0169097   0.0000000), wk =   0.1111111
        k(    6) = (   0.0292885   0.0507292   0.0000000), wk =   0.1111111
        k(    7) = (   0.0292885   0.0845487   0.0000000), wk =   0.1111111
        k(    8) = (   0.0292885  -0.0845487   0.0000000), wk =   0.1111111
        k(    9) = (   0.0292885  -0.0507292   0.0000000), wk =   0.1111111
        k(   10) = (   0.0292885  -0.0169097   0.0000000), wk =   0.1111111
        k(   11) = (   0.0585771   0.0338195   0.0000000), wk =   0.1111111
        k(   12) = (   0.0585771   0.0676390   0.0000000), wk =   0.1111111
        k(   13) = (   0.0585771   0.1014584   0.0000000), wk =   0.1111111
        k(   14) = (   0.0585771  -0.0676390   0.0000000), wk =   0.1111111
        k(   15) = (   0.0585771  -0.0338195   0.0000000), wk =   0.1111111
        k(   16) = (   0.0585771   0.0000000   0.0000000), wk =   0.1111111
        k(   17) = (  -0.0878656  -0.0507292   0.0000000), wk =   0.0555556
        k(   18) = (  -0.0878656  -0.0169097   0.0000000), wk =   0.1111111
        k(   19) = (  -0.0878656   0.0169097   0.0000000), wk =   0.1111111
        k(   20) = (  -0.0878656  -0.1521877   0.0000000), wk =   0.0555556

     Largest allocated arrays     est. size (Mb)     dimensions
     Largest temporary arrays     est. size (Mb)     dimensions

     Initial potential from superposition of free atoms
     Check: negative starting charge=   -0.643486

     starting charge  169.48452, renormalised to  174.00000

     negative rho (up, down):  6.606E-01 0.000E+00

     *
     * You are using vdW-DF for exchange-correlation in this calculation.
     * Please cite the following three references that made this development
     * possible:
     *
     *   M. Dion, H. Rydberg, E. Schroder, D. C. Langreth, and
     *   B. I. Lundqvist, Phys. Rev. Lett. 92, 246401 (2004).
     *
     *   T. Thonhauser, V. R. Cooper, S. Li, A. Puzder, P. Hyldgaard, and
     *   D. C. Langreth, Phys. Rev. B 76, 125112 (2007).
     *
     *   G. Roman-Perez and J. M. Soler, Phys. Rev. Lett. 103, 096102 (2009).
     *
     *
     * If you are using vdW-DF2, please also cite:
     *
     *   K. Lee, E. D. Murray, L. Kong, B. I. Lundqvist, and
     *   D. C. Langreth, Phys. Rev. B 82, 081101(R) (2010).
     *
     *
     * If you are calculating the stress with vdW-DF, please also cite:
     *
     *   R. Sabatini, E. Kucukbenli, B. Kolb, T. Thonhauser, and
     *   S. de Gironcoli, J. Phys.: Condens. Matter 24, 424209 (2012).
     *

     Carrying out vdW-DF run using the following parameters:

     Nqs =      20    Nr_points =    1024   r_max =   100.000
     q_mesh =
               0.00001000     0.04494208     0.09755937     0.15916263
               0.23128650     0.31572767     0.41458969     0.53033537
               0.66584808     0.82450364     1.01025438     1.22772762
               1.48234092     1.78043706     2.12944203     2.53805004
               3.01644009     3.57652955     4.23227104     5.00000000

     Gradients computed in reciprocal space

     Adding external electric field

     Computed dipole along edir(3) :
        Dipole                0.0000 Ry au,          0.0000 Debye
        Dipole field          0.0000 Ry au

        Potential amp.       -0.0000 Ry
        Total length         45.4104 bohr

     Starting wfc are  135 randomized atomic wfcs

     Self-consistent Calculation

     iteration #  1     ecut=    36.75 Ry     beta=0.10
     Davidson diagonalization with overlap
     ethr =  1.00E-02,  avg # of iterations =  7.7

[...]

     total energy              =   -1990.40035532 Ry
     Harris-Foulkes estimate   =   -1990.68498974 Ry
     estimated scf accuracy    <       1.95627019 Ry

[...]

     End of self-consistent calculation

          k = 0.0000 0.0000 0.0000 ( 17603 PWs)   bands (ev):

   -44.7932 -44.7610 -44.7609 -44.6957 -44.6776 -44.6774 -44.6275 -44.5589
   -44.5467 -44.4970 -44.4969 -44.4434 -44.4434 -44.4257 -44.4256 -44.2991
   -44.2956 -44.2894 -44.2815 -44.2814 -44.2774 -44.2773 -44.2652 -44.2509
   -44.2508 -44.2413 -44.2411 -10.2143 -10.2143 -10.1797 -10.1526 -10.1526
    -9.9827  -9.9827  -9.9800  -9.9800  -9.9724  -9.9325  -9.8410  -9.8409
    -9.8327  -9.8327  -7.2644  -5.8367  -5.6601  -2.9931  -2.5967  -2.4069
    -1.8888  -1.8693  -1.8692  -1.7298  -1.7297  -1.5651  -1.5651  -1.5043
    -1.3969  -1.3968  -0.8515  -0.8515  -0.7764  -0.7764  -0.5189  -0.5048
    -0.4073  -0.0622  -0.0621   0.0696   0.1623   0.1624   0.6450   0.6450
     0.7796   0.8594   0.8698   0.8699   0.9936   0.9937   1.1173   1.1174
     1.2607   1.2607   1.3769   1.3769   1.5130   1.7140   1.8175   1.8175
     1.8406   1.8407   2.0773   2.3257   2.3663   2.8392   3.1802   3.4776
     3.5684   3.5685   3.6613   3.6613   4.5380   5.1308   5.6111   5.9653
     6.1053   6.4965   7.1391   7.7744   7.7744   7.9100   7.9100   7.9492
     8.6620   8.6620   9.2868   9.5732   9.7278

[...]

          k =-0.0879-0.0507 0.0000 ( 17508 PWs)   bands (ev):

[...]

     the Fermi energy is     1.4389 ev

!    total energy              =   -1990.06629161 Ry
     Harris-Foulkes estimate   =   -1990.06632567 Ry
     estimated scf accuracy    <       0.00000094 Ry

     The total energy is the sum of the following terms:

     one-electron contribution =  -15936.82807153 Ry
     hartree contribution      =    8022.61608081 Ry
     xc contribution           =    -471.66039599 Ry
     ewald contribution        =    6395.90691346 Ry
     electric field correction =       0.00000000 Ry
     smearing contrib. (-TS)   =      -0.10081835 Ry

     convergence has been achieved in  15 iterations

 BEEF-vdW xc energy contributions
           1 :   -414.530218351176
           2 :    382.479725462753
           3 :   -326.668357419834
           4 :    260.351372787648
           5 :   -196.981890437333
           6 :    146.041418974433
           7 :   -110.947848190507
           8 :    89.4762179817575
           9 :   -76.1362904226085
          10 :    65.2356661114856
          11 :   -53.2714225884976
          12 :    39.7759489821689
          13 :   -26.5804415409896
[...]
     /afs/slac.stanford.edu/u/if/mamunm/psp/gbrv1.5pbe/Rh.UPF
     MD5 check sum: 761627e959a2e3a1f56b0b5fe687810e
     Pseudo is Ultrasoft + core correction, Zval = 15.0
     Generated by new atomic code, or converted to UPF format
     Using radial grid of  969 points,  7 beta functions with:
                l(1) =   0
                l(2) =   0
                l(3) =   1
                l(4) =   1
                l(5) =   2
                l(6) =   2
                l(7) =   2
     Q(r) pseudized with  8 coefficients,  rinner =    1.200   1.200   1.200
                                                       1.200   1.200

     PseudoPot. # 2 for Tl read from file:
     /afs/slac.stanford.edu/u/if/mamunm/psp/gbrv1.5pbe/Tl.UPF
     MD5 check sum: b76cf1f7e72655a2b2c53cf6385d7059
     Pseudo is Ultrasoft + core correction, Zval = 13.0
     Generated by new atomic code, or converted to UPF format
     Using radial grid of  899 points,  6 beta functions with:
                l(1) =   0
                l(2) =   0
                l(3) =   1
                l(4) =   1
                l(5) =   2
                l(6) =   2
     Q(r) pseudized with  6 coefficients,  rinner =    1.100   1.100   1.100
                                                       1.100   1.100

     vdW kernel table read from file vdW_kernel_table
     MD5 check sum: 095c7af220d748ca6e76c0b4c6cfb241

     atomic species   valence    mass     pseudopotential
        Rh1           15.00   102.90550     Rh( 1.00)
        Tl1           13.00   204.38000     Tl( 1.00)

     No symmetry found

   Cartesian axes

     site n.     atom                  positions (alat units)
         1           Rh1 tau(   1) = (   0.0000000   0.0000000  10.0000000  )
         2           Rh1 tau(   2) = (  -1.4226274   2.4640629  10.0000000  )
         3           Rh1 tau(   3) = (   1.4226274   2.4640629  10.0000000  )
         4           Tl1 tau(   4) = (   2.8452547   0.0000000  10.0000000  )
         5           Rh1 tau(   5) = (   2.8452547   1.6427086  12.3231408  )
         6           Rh1 tau(   6) = (   1.4226274   4.1067715  12.3231408  )
         7           Rh1 tau(   7) = (  -1.4226274   4.1067715  12.3231408  )
         8           Tl1 tau(   8) = (   0.0000000   1.6427086  12.3231408  )
         9           Rh1 tau(   9) = (   0.0000138   3.3266215  14.5120502  )
        10           Rh1 tau(  10) = (   1.4583169   0.8006083  14.5120674  )
        11           Rh1 tau(  11) = (   4.2323046   0.8006567  14.5120983  )
        12           Tl1 tau(  12) = (   2.8452715   3.2852542  15.0347072  )

     number of k points=    20  Fermi-Dirac smearing, width (Ry)=  0.0110
                       cart. coord. in units 2pi/alat
        k(    1) = (   0.0000000   0.0000000   0.0000000), wk =   0.0555556
        k(    2) = (   0.0000000   0.0338195   0.0000000), wk =   0.1111111
        k(    3) = (   0.0000000   0.0676390   0.0000000), wk =   0.1111111
        k(    4) = (   0.0000000  -0.1014584   0.0000000), wk =   0.0555556
        k(    5) = (   0.0292885   0.0169097   0.0000000), wk =   0.1111111
        k(    6) = (   0.0292885   0.0507292   0.0000000), wk =   0.1111111
        k(    7) = (   0.0292885   0.0845487   0.0000000), wk =   0.1111111
        k(    8) = (   0.0292885  -0.0845487   0.0000000), wk =   0.1111111
        k(    9) = (   0.0292885  -0.0507292   0.0000000), wk =   0.1111111
        k(   10) = (   0.0292885  -0.0169097   0.0000000), wk =   0.1111111
        k(   11) = (   0.0585771   0.0338195   0.0000000), wk =   0.1111111
        k(   12) = (   0.0585771   0.0676390   0.0000000), wk =   0.1111111
        k(   13) = (   0.0585771   0.1014584   0.0000000), wk =   0.1111111
        k(   14) = (   0.0585771  -0.0676390   0.0000000), wk =   0.1111111
        k(   15) = (   0.0585771  -0.0338195   0.0000000), wk =   0.1111111
        k(   16) = (   0.0585771   0.0000000   0.0000000), wk =   0.1111111
        k(   17) = (  -0.0878656  -0.0507292   0.0000000), wk =   0.0555556
        k(   18) = (  -0.0878656  -0.0169097   0.0000000), wk =   0.1111111
        k(   19) = (  -0.0878656   0.0169097   0.0000000), wk =   0.1111111
        k(   20) = (  -0.0878656  -0.1521877   0.0000000), wk =   0.0555556

     Largest allocated arrays     est. size (Mb)     dimensions
     Largest temporary arrays     est. size (Mb)     dimensions

     Initial potential from superposition of free atoms
     Check: negative starting charge=   -0.642540

     starting charge  169.48452, renormalised to  174.00000

[...]

     *
     * You are using vdW-DF for exchange-correlation in this calculation.
     * Please cite the following three references that made this development
     * possible:
     *
     *   M. Dion, H. Rydberg, E. Schroder, D. C. Langreth, and
     *   B. I. Lundqvist, Phys. Rev. Lett. 92, 246401 (2004).
     *
     *   T. Thonhauser, V. R. Cooper, S. Li, A. Puzder, P. Hyldgaard, and
     *   D. C. Langreth, Phys. Rev. B 76, 125112 (2007).
     *
     *   G. Roman-Perez and J. M. Soler, Phys. Rev. Lett. 103, 096102 (2009).
     *
     *
     * If you are using vdW-DF2, please also cite:
     *
     *   K. Lee, E. D. Murray, L. Kong, B. I. Lundqvist, and
     *   D. C. Langreth, Phys. Rev. B 82, 081101(R) (2010).
     *
     *
     * If you are calculating the stress with vdW-DF, please also cite:
     *
     *   R. Sabatini, E. Kucukbenli, B. Kolb, T. Thonhauser, and
     *   S. de Gironcoli, J. Phys.: Condens. Matter 24, 424209 (2012).
     *

     Carrying out vdW-DF run using the following parameters:

     Nqs =      20    Nr_points =    1024   r_max =   100.000
     q_mesh =
               0.00001000     0.04494208     0.09755937     0.15916263
               0.23128650     0.31572767     0.41458969     0.53033537
               0.66584808     0.82450364     1.01025438     1.22772762
               1.48234092     1.78043706     2.12944203     2.53805004
               3.01644009     3.57652955     4.23227104     5.00000000

     Gradients computed in reciprocal space

[...]

     Starting wfc are  135 randomized atomic wfcs

     Self-consistent Calculation

[...]

     total energy              =   -1990.09879617 Ry
     Harris-Foulkes estimate   =   -1990.09879948 Ry
     estimated scf accuracy    <       0.00000251 Ry

     iteration # 17     ecut=    36.75 Ry     beta=0.10
     Davidson diagonalization with overlap
     ethr =  1.44E-09,  avg # of iterations =  2.4

[...]

     negative rho (up, down):  6.713E-01 0.000E+00

     Adding external electric field

     Computed dipole along edir(3) :
        Dipole                0.0696 Ry au,          0.1770 Debye
        Dipole field          0.0002 Ry au

        Potential amp.       -0.0170 Ry
        Total length         45.4104 bohr

     End of self-consistent calculation

[...]

          k = 0.0586 0.0000 0.0000 ( 17569 PWs)   bands (ev):

[...]

          k =-0.0879-0.1522 0.0000 ( 17508 PWs)   bands (ev):

   -44.7482 -44.7024 -44.6875 -44.6759 -44.6620 -44.6272 -44.5601 -44.5057
   -44.4729 -44.4250 -44.3908 -44.3788 -44.3454 -44.3355 -44.3164 -44.2938
   -44.2887 -44.2769 -44.2746 -44.2668 -44.2629 -44.2570 -44.2473 -44.1791
   -44.1642 -44.1539 -44.1441 -10.1180 -10.0715 -10.0513 -10.0240 -10.0145
    -9.8615  -9.7932  -9.7802  -9.7745  -9.7499  -9.7387  -9.7292  -9.7254
    -9.7094  -9.6850  -6.0872  -5.4016  -4.8660  -3.0741  -2.5734  -2.4686
    -2.2195  -2.0569  -1.7026  -1.5787  -1.5482  -1.5446  -1.4122  -1.3088
    -1.2637  -1.2528  -1.1539  -0.9645  -0.9393  -0.8185  -0.6064  -0.6011
    -0.3541  -0.3037  -0.2397  -0.2308  -0.1652  -0.0583  -0.0307   0.0490
     0.1516   0.1815   0.2385   0.4400   0.5860   0.6330   0.6331   0.7057
     0.7264   0.8688   0.9416   0.9727   0.9868   1.0949   1.1376   1.3902
     1.5862   1.8914   1.9216   2.2507   2.4981   2.8001   3.6897   3.7439
     4.1179   4.2992   5.0816   5.3759   5.5759   6.6328   6.7819   7.3338
     7.3791   7.4847   7.5313   7.7132   8.0250   8.4358   8.5561   8.5776
     8.6875   8.9002   9.1168   9.2569   9.5973

     the Fermi energy is     1.5333 ev

!    total energy              =   -1990.09877572 Ry
     Harris-Foulkes estimate   =   -1990.09879610 Ry
     estimated scf accuracy    <       0.00000072 Ry

     The total energy is the sum of the following terms:

     one-electron contribution =  -15962.07481963 Ry
     hartree contribution      =    8035.59468660 Ry
     xc contribution           =    -471.64632500 Ry
     ewald contribution        =    6408.12359830 Ry
     electric field correction =       0.00001306 Ry
     smearing contrib. (-TS)   =      -0.09592905 Ry

     convergence has been achieved in  17 iterations

 BEEF-vdW xc energy contributions
           1 :   -414.714610175478
           2 :    382.662301919707
           3 :   -326.845586388928
           4 :    260.515976883584
           5 :   -197.123819615765
           6 :    146.151655962736
           7 :   -111.021923662154
           8 :    89.5166054971417
           9 :   -76.1546971997321
          10 :    65.2541977669500
          11 :   -53.3190595000210
          12 :    39.8784576847168
          13 :   -26.7471608504344
          14 :    16.3785221654527
          15 :   -10.2776140099533
          16 :    8.22053857701604
          17 :   -8.51204290977245
          18 :    8.97024094859665
          19 :   -8.03156447027067
          20 :    5.38902907568053
          21 :   -1.89725115770148
          22 :   -1.10983686618516
          23 :    2.64346263697786
          24 :   -2.56984335712434
          25 :    1.57758249278510
          26 :  -0.698853808646277
          27 :   0.698826365676723
          28 :   -1.68276512987973
          29 :    3.11260497496534
          30 :   -4.18591971347809
          31 :   -37.7395879688231
          32 :   -28.0616165277745

     Forces acting on atoms (Ry/au):

     negative rho (up, down):  6.713E-01 0.000E+00
     atom    1 type  1   force =    -0.00000466   -0.01015052    0.02123178
     atom    2 type  1   force =    -0.00878767    0.00506633    0.02123682
     atom    3 type  1   force =     0.00877799    0.00506576    0.02123912
     atom    4 type  2   force =    -0.00000119   -0.00001866   -0.04726899
     atom    5 type  1   force =    -0.00000088    0.01724554    0.00153888
     atom    6 type  1   force =     0.01494107   -0.00863369    0.00153144
     atom    7 type  1   force =    -0.01495202   -0.00863877    0.00152914
     atom    8 type  2   force =     0.00005798    0.00007309   -0.02578167
     atom    9 type  1   force =    -0.00000305    0.00140740    0.00114150
     atom   10 type  1   force =     0.00122506   -0.00070463    0.00114106
     atom   11 type  1   force =    -0.00124459   -0.00071213    0.00116242
     atom   12 type  2   force =    -0.00000804    0.00000029    0.00129852

     Total force =     0.073978     Total SCF correction =     0.002893

     entering subroutine stress ...

     negative rho (up, down):  6.713E-01 0.000E+00
          total   stress  (Ry/bohr**3)                   (kbar)     P=  -29.86
  -0.00023459  -0.00000001  -0.00000002        -34.51     -0.00     -0.00
  -0.00000001  -0.00023457   0.00000001         -0.00    -34.51      0.00
  -0.00000002   0.00000001  -0.00013988         -0.00      0.00    -20.58

 !ASE

     Writing output data file calc.save

     General routines

     Parallel routines

   This run was terminated on:  22:53:17  27Dec2018

   JOB DONE.
Job  /afs/slac/g/suncat/bin/suncat-tsmpirun -x LD_LIBRARY_PATH -wdir /scratch/qe110735_27l0Z pw.x -in pw.inp

TID   HOST_NAME   COMMAND_LINE            STATUS            TERMINATION_TIME
00000 suncat0108 pw.x -in pw.inp   Done                     12/27/2018 22:53:17
00001 suncat0108 pw.x -in pw.inp   Done                     12/27/2018 22:53:17
00002 suncat0108 pw.x -in pw.inp   Done                     12/27/2018 22:53:17
00003 suncat0108 pw.x -in pw.inp   Done                     12/27/2018 22:53:17
00004 suncat0108 pw.x -in pw.inp   Done                     12/27/2018 22:53:17
00005 suncat0108 pw.x -in pw.inp   Done                     12/27/2018 22:53:17
00006 suncat0108 pw.x -in pw.inp   Done                     12/27/2018 22:53:17
00007 suncat0108 pw.x -in pw.inp   Done                     12/27/2018 22:53:17
00008 suncat0107 pw.x -in pw.inp   Done                     12/27/2018 22:53:17
00009 suncat0107 pw.x -in pw.inp   Done                     12/27/2018 22:53:17
00010 suncat0107 pw.x -in pw.inp   Done                     12/27/2018 22:53:17
00011 suncat0107 pw.x -in pw.inp   Done                     12/27/2018 22:53:17
00012 suncat0107 pw.x -in pw.inp   Done                     12/27/2018 22:53:17
00013 suncat0107 pw.x -in pw.inp   Done                     12/27/2018 22:53:17
00014 suncat0107 pw.x -in pw.inp   Done                     12/27/2018 22:53:17
00015 suncat0107 pw.x -in pw.inp   Done                     12/27/2018 22:53:17
00016 suncat0106 pw.x -in pw.inp   Done                     12/27/2018 22:53:17
00017 suncat0106 pw.x -in pw.inp   Done                     12/27/2018 22:53:17
00018 suncat0106 pw.x -in pw.inp   Done                     12/27/2018 22:53:17
00019 suncat0106 pw.x -in pw.inp   Done                     12/27/2018 22:53:17
00020 suncat0106 pw.x -in pw.inp   Done                     12/27/2018 22:53:17
00021 suncat0106 pw.x -in pw.inp   Done                     12/27/2018 22:53:17
00022 suncat0106 pw.x -in pw.inp   Done                     12/27/2018 22:53:17
00023 suncat0106 pw.x -in pw.inp   Done                     12/27/2018 22:53:17
00024 suncat0105 pw.x -in pw.inp   Done                     12/27/2018 22:53:17
00025 suncat0105 pw.x -in pw.inp   Done                     12/27/2018 22:53:17
00026 suncat0105 pw.x -in pw.inp   Done                     12/27/2018 22:53:17
00027 suncat0105 pw.x -in pw.inp   Done                     12/27/2018 22:53:17
00028 suncat0105 pw.x -in pw.inp   Done                     12/27/2018 22:53:17
00029 suncat0105 pw.x -in pw.inp   Done                     12/27/2018 22:53:17
00030 suncat0105 pw.x -in pw.inp   Done                     12/27/2018 22:53:17
00031 suncat0105 pw.x -in pw.inp   Done                     12/27/2018 22:53:17
00032 suncat0238 pw.x -in pw.inp   Done                     12/27/2018 22:53:17
00033 suncat0238 pw.x -in pw.inp   Done                     12/27/2018 22:53:17
00034 suncat0238 pw.x -in pw.inp   Done                     12/27/2018 22:53:17
00035 suncat0238 pw.x -in pw.inp   Done                     12/27/2018 22:53:17
00036 suncat0238 pw.x -in pw.inp   Done                     12/27/2018 22:53:17
00037 suncat0238 pw.x -in pw.inp   Done                     12/27/2018 22:53:17
00038 suncat0238 pw.x -in pw.inp   Done                     12/27/2018 22:53:17
00039 suncat0238 pw.x -in pw.inp   Done                     12/27/2018 22:53:17
00040 suncat0237 pw.x -in pw.inp   Done                     12/27/2018 22:53:17
00041 suncat0237 pw.x -in pw.inp   Done                     12/27/2018 22:53:17
00042 suncat0237 pw.x -in pw.inp   Done                     12/27/2018 22:53:17
00043 suncat0237 pw.x -in pw.inp   Done                     12/27/2018 22:53:17
00044 suncat0237 pw.x -in pw.inp   Done                     12/27/2018 22:53:17
00045 suncat0237 pw.x -in pw.inp   Done                     12/27/2018 22:53:17
00046 suncat0237 pw.x -in pw.inp   Done                     12/27/2018 22:53:17
00047 suncat0237 pw.x -in pw.inp   Done                     12/27/2018 22:53:17
00048 suncat0236 pw.x -in pw.inp   Done                     12/27/2018 22:53:17
00049 suncat0236 pw.x -in pw.inp   Done                     12/27/2018 22:53:17
00050 suncat0236 pw.x -in pw.inp   Done                     12/27/2018 22:53:17
00051 suncat0236 pw.x -in pw.inp   Done                     12/27/2018 22:53:17
00052 suncat0236 pw.x -in pw.inp   Done                     12/27/2018 22:53:17
00053 suncat0236 pw.x -in pw.inp   Done                     12/27/2018 22:53:17
00054 suncat0236 pw.x -in pw.inp   Done                     12/27/2018 22:53:17
00055 suncat0236 pw.x -in pw.inp   Done                     12/27/2018 22:53:17
00056 suncat0235 pw.x -in pw.inp   Done                     12/27/2018 22:53:17
00057 suncat0235 pw.x -in pw.inp   Done                     12/27/2018 22:53:17
00058 suncat0235 pw.x -in pw.inp   Done                     12/27/2018 22:53:17
00059 suncat0235 pw.x -in pw.inp   Done                     12/27/2018 22:53:17
00060 suncat0235 pw.x -in pw.inp   Done                     12/27/2018 22:53:17
00061 suncat0235 pw.x -in pw.inp   Done                     12/27/2018 22:53:17
00062 suncat0235 pw.x -in pw.inp   Done                     12/27/2018 22:53:17
00063 suncat0235 pw.x -in pw.inp   Done                     12/27/2018 22:53:17