     Program PWSCF v.5.1rc2 (svn rev. 11289) starts on 27Dec2018 at 23:28:18

     Current dimensions of program PWSCF are:
     Max number of different atomic species (ntypx) = 10
     Max number of k-points (npk) =  40000
     Max angular momentum in pseudopotentials (lmaxx) =  3
     Presently stress not available with electric field

     IMPORTANT: XC functional enforced from input :
     Exchange-correlation      = BEEF-VDW ( 1  4 27 13 2)
     Any further DFT definition will be discarded
     Please, verify this is what you really want

     Subspace diagonalization in iterative solution of the eigenvalue problem:
     a serial algorithm will be used

     bravais-lattice index     =            0
     lattice parameter (alat)  =       1.8897  a.u.
     unit-cell volume          =    5852.6280 (a.u.)^3
     number of atoms/cell      =           12
     number of atomic types    =            2
     number of electrons       =       171.00
     number of Kohn-Sham states=          115
     kinetic-energy cutoff     =      36.7493  Ry
     charge density cutoff     =     367.4932  Ry
     convergence threshold     =      1.0E-06
     mixing beta               =       0.1000
     number of iterations used =           10  plain     mixing
     Exchange-correlation      = BEEF-VDW ( 1  4 27 13 2)
     nstep                     =           50

     celldm(1)=   1.889726  celldm(2)=   0.000000  celldm(3)=   0.000000
     celldm(4)=   0.000000  celldm(5)=   0.000000  celldm(6)=   0.000000

     crystal axes: (cart. coord. in units of alat)
               a(1) = (   6.309940   0.000000   0.000000 )
               a(2) = (  -3.154970   5.464568   0.000000 )
               a(3) = (   0.000000   0.000000  25.152044 )

     reciprocal axes: (cart. coord. in units 2 pi/alat)
               b(1) = (  0.158480  0.091499  0.000000 )
               b(2) = (  0.000000  0.182997  0.000000 )
               b(3) = (  0.000000  0.000000  0.039758 )

     PseudoPot. # 1 for Sn read from file:
     /afs/slac.stanford.edu/u/if/mamunm/psp/gbrv1.5pbe/Sn.UPF
     MD5 check sum: 469debedee59599fedebd795477fea03
     Pseudo is Ultrasoft + core correction, Zval = 14.0
     Generated by new atomic code, or converted to UPF format
     Using radial grid of  891 points,  6 beta functions with:
                l(1) =   0
                l(2) =   0
                l(3) =   1
                l(4) =   1
                l(5) =   2
                l(6) =   2
     Q(r) pseudized with  8 coefficients,  rinner =    1.350   1.350   1.350
                                                       1.350   1.350

     PseudoPot. # 2 for Tc read from file:
     /afs/slac.stanford.edu/u/if/mamunm/psp/gbrv1.5pbe/Tc.UPF
     MD5 check sum: 9eb49e5b028550b2339a02317eb7b844
     Pseudo is Ultrasoft + core correction, Zval = 15.0
     Generated by new atomic code, or converted to UPF format
     Using radial grid of  965 points,  6 beta functions with:
                l(1) =   0
                l(2) =   0
                l(3) =   1
                l(4) =   1
                l(5) =   2
                l(6) =   2
     Q(r) pseudized with  8 coefficients,  rinner =    1.300   1.300   1.300
                                                       1.300   1.300

     vdW kernel table read from file vdW_kernel_table
     MD5 check sum: 095c7af220d748ca6e76c0b4c6cfb241

     atomic species   valence    mass     pseudopotential
        Sn1           14.00   118.71000     Sn( 1.00)
        Tc1           15.00    97.90721     Tc( 1.00)

     No symmetry found

   Cartesian axes

     site n.     atom                  positions (alat units)
         1           Sn1 tau(   1) = (   0.0000000   0.0000000  10.0000000  )
         2           Sn1 tau(   2) = (  -1.5774849   2.7322840  10.0000000  )
         3           Sn1 tau(   3) = (   1.5774849   2.7322840  10.0000000  )
         4           Tc1 tau(   4) = (   3.1549698   0.0000000  10.0000000  )
         5           Sn1 tau(   5) = (   3.1549698   1.8215227  12.5760220  )
         6           Sn1 tau(   6) = (   1.5774849   4.5538066  12.5760220  )
         7           Sn1 tau(   7) = (  -1.5774849   4.5538066  12.5760220  )
         8           Tc1 tau(   8) = (   0.0000000   1.8215227  12.5760220  )
         9           Sn1 tau(   9) = (  -0.0000000   3.6430453  15.1520441  )
        10           Sn1 tau(  10) = (   1.5774849   0.9107613  15.1520441  )
        11           Sn1 tau(  11) = (   4.7324547   0.9107613  15.1520441  )
        12           Tc1 tau(  12) = (   3.1549698   3.6430453  15.1520441  )

     number of k points=    20  Fermi-Dirac smearing, width (Ry)=  0.0110
                       cart. coord. in units 2pi/alat
        k(    1) = (   0.0000000   0.0000000   0.0000000), wk =   0.0555556
        k(    2) = (   0.0000000   0.0304995   0.0000000), wk =   0.1111111
        k(    3) = (   0.0000000   0.0609990   0.0000000), wk =   0.1111111
        k(    4) = (   0.0000000  -0.0914985   0.0000000), wk =   0.0555556
        k(    5) = (   0.0264134   0.0152498   0.0000000), wk =   0.1111111
        k(    6) = (   0.0264134   0.0457493   0.0000000), wk =   0.1111111
        k(    7) = (   0.0264134   0.0762488   0.0000000), wk =   0.1111111
        k(    8) = (   0.0264134  -0.0762488   0.0000000), wk =   0.1111111
        k(    9) = (   0.0264134  -0.0457493   0.0000000), wk =   0.1111111
        k(   10) = (   0.0264134  -0.0152498   0.0000000), wk =   0.1111111
        k(   11) = (   0.0528267   0.0304995   0.0000000), wk =   0.1111111
        k(   12) = (   0.0528267   0.0609990   0.0000000), wk =   0.1111111
        k(   13) = (   0.0528267   0.0914985   0.0000000), wk =   0.1111111
        k(   14) = (   0.0528267  -0.0609990   0.0000000), wk =   0.1111111
        k(   15) = (   0.0528267  -0.0304995   0.0000000), wk =   0.1111111
        k(   16) = (   0.0528267   0.0000000   0.0000000), wk =   0.1111111
        k(   17) = (  -0.0792401  -0.0457493   0.0000000), wk =   0.0555556
        k(   18) = (  -0.0792401  -0.0152498   0.0000000), wk =   0.1111111
        k(   19) = (  -0.0792401   0.0152498   0.0000000), wk =   0.1111111
        k(   20) = (  -0.0792401  -0.1372478   0.0000000), wk =   0.0555556

     Largest allocated arrays     est. size (Mb)     dimensions
     Largest temporary arrays     est. size (Mb)     dimensions

     Check: negative/imaginary core charge=   -0.000007    0.000000

     Initial potential from superposition of free atoms
     Check: negative starting charge=   -0.377299

     starting charge  158.99951, renormalised to  171.00000

     negative rho (up, down):  4.058E-01 0.000E+00

     *
     * You are using vdW-DF for exchange-correlation in this calculation.
     * Please cite the following three references that made this development
     * possible:
     *
     *   M. Dion, H. Rydberg, E. Schroder, D. C. Langreth, and
     *   B. I. Lundqvist, Phys. Rev. Lett. 92, 246401 (2004).
     *
     *   T. Thonhauser, V. R. Cooper, S. Li, A. Puzder, P. Hyldgaard, and
     *   D. C. Langreth, Phys. Rev. B 76, 125112 (2007).
     *
     *   G. Roman-Perez and J. M. Soler, Phys. Rev. Lett. 103, 096102 (2009).
     *
     *
     * If you are using vdW-DF2, please also cite:
     *
     *   K. Lee, E. D. Murray, L. Kong, B. I. Lundqvist, and
     *   D. C. Langreth, Phys. Rev. B 82, 081101(R) (2010).
     *
     *
     * If you are calculating the stress with vdW-DF, please also cite:
     *
     *   R. Sabatini, E. Kucukbenli, B. Kolb, T. Thonhauser, and
     *   S. de Gironcoli, J. Phys.: Condens. Matter 24, 424209 (2012).
     *

     Carrying out vdW-DF run using the following parameters:

     Nqs =      20    Nr_points =    1024   r_max =   100.000
     q_mesh =
               0.00001000     0.04494208     0.09755937     0.15916263
               0.23128650     0.31572767     0.41458969     0.53033537
               0.66584808     0.82450364     1.01025438     1.22772762
               1.48234092     1.78043706     2.12944203     2.53805004
               3.01644009     3.57652955     4.23227104     5.00000000

     Gradients computed in reciprocal space

     Adding external electric field

     Computed dipole along edir(3) :
        Dipole               -0.0000 Ry au,         -0.0000 Debye
        Dipole field         -0.0000 Ry au

        Potential amp.        0.0000 Ry
        Total length         46.3422 bohr

     Starting wfc are  120 randomized atomic wfcs

     Self-consistent Calculation

     iteration #  1     ecut=    36.75 Ry     beta=0.10
     Davidson diagonalization with overlap
     ethr =  1.00E-02,  avg # of iterations =  8.2

[...]

     total energy              =   -1972.18053951 Ry
     Harris-Foulkes estimate   =   -1977.38697199 Ry
     estimated scf accuracy    <      30.97605592 Ry

[...]

     End of self-consistent calculation

          k = 0.0000 0.0000 0.0000 ( 22039 PWs)   bands (ev):

   -65.2333 -65.2046 -65.2045 -37.3067 -37.3067 -37.2908 -37.2908 -37.2907
   -37.2907 -37.1844 -37.1567 -37.1565 -20.9722 -20.9357 -20.9355 -20.9163
   -20.8399 -20.8347 -20.8282 -20.8280 -20.8020 -20.8019 -20.7813 -20.7813
   -20.7732 -20.7675 -20.7470 -20.7358 -20.7357 -20.7257 -20.7256 -20.7019
   -20.6843 -20.6840 -20.6705 -20.6705 -20.6497 -20.6357 -20.6313 -20.6313
   -20.6125 -20.6125 -20.6011 -20.5936 -20.5829 -20.5829 -20.5782 -20.5782
   -20.5705 -20.5704 -20.5689 -20.5689 -20.5413 -20.5413 -20.5393 -20.4768
   -20.4766  -9.8327  -8.4467  -6.6685  -5.6773  -5.6771  -4.9064  -4.9064
    -3.8927  -3.8927  -3.7048  -2.9246  -2.4306  -2.1633  -2.1633  -1.8581
    -0.7661  -0.7660  -0.6673  -0.6673  -0.3322   0.3491   0.3492   0.3898
     0.3898   0.7458   0.9086   0.9087   0.9951   1.2331   1.2331   1.2552
     1.2552   1.5723   1.6868   1.6869   2.2740   2.5442   3.3274   3.7298
     3.7298   3.8784   3.8784   4.4657   4.4981   4.6627   4.8945   4.9612
     5.6820   5.8781   5.8782   5.9135   6.1872   6.7707   6.7707   6.9350
     7.2079   7.7000   7.7001

[...]

          k =-0.0792-0.0457 0.0000 ( 21944 PWs)   bands (ev):

[...]

     the Fermi energy is     1.1938 ev

!    total energy              =   -1971.71205364 Ry
     Harris-Foulkes estimate   =   -1971.71205065 Ry
     estimated scf accuracy    <       0.00000023 Ry

     The total energy is the sum of the following terms:

     one-electron contribution =  -12296.95486689 Ry
     hartree contribution      =    6196.84966731 Ry
     xc contribution           =    -499.95474992 Ry
     ewald contribution        =    4628.43370574 Ry
     electric field correction =       0.00000000 Ry
     smearing contrib. (-TS)   =      -0.08580988 Ry

     convergence has been achieved in  21 iterations

 BEEF-vdW xc energy contributions
           1 :   -439.101297489538
           2 :    402.389053058797
           3 :   -339.560150969426
           4 :    267.180670118759
           5 :   -201.281377833374
           6 :    151.818008123254
           7 :   -120.477081235053
           8 :    102.276583598162
           9 :   -89.7063556959119
          10 :    77.0217211870195
          11 :   -62.6193249099718
          12 :    48.6482983029198
[...]
     MD5 check sum: 469debedee59599fedebd795477fea03
     Pseudo is Ultrasoft + core correction, Zval = 14.0
     Generated by new atomic code, or converted to UPF format
     Using radial grid of  891 points,  6 beta functions with:
                l(1) =   0
                l(2) =   0
                l(3) =   1
                l(4) =   1
                l(5) =   2
                l(6) =   2
     Q(r) pseudized with  8 coefficients,  rinner =    1.350   1.350   1.350
                                                       1.350   1.350

     PseudoPot. # 2 for Tc read from file:
     /afs/slac.stanford.edu/u/if/mamunm/psp/gbrv1.5pbe/Tc.UPF
     MD5 check sum: 9eb49e5b028550b2339a02317eb7b844
     Pseudo is Ultrasoft + core correction, Zval = 15.0
     Generated by new atomic code, or converted to UPF format
     Using radial grid of  965 points,  6 beta functions with:
                l(1) =   0
                l(2) =   0
                l(3) =   1
                l(4) =   1
                l(5) =   2
                l(6) =   2
     Q(r) pseudized with  8 coefficients,  rinner =    1.300   1.300   1.300
                                                       1.300   1.300

     vdW kernel table read from file vdW_kernel_table
     MD5 check sum: 095c7af220d748ca6e76c0b4c6cfb241

     atomic species   valence    mass     pseudopotential
        Sn1           14.00   118.71000     Sn( 1.00)
        Tc1           15.00    97.90721     Tc( 1.00)

     No symmetry found

   Cartesian axes

     site n.     atom                  positions (alat units)
         1           Sn1 tau(   1) = (   0.0000000   0.0000000  10.0000000  )
         2           Sn1 tau(   2) = (  -1.5774849   2.7322840  10.0000000  )
         3           Sn1 tau(   3) = (   1.5774849   2.7322840  10.0000000  )
         4           Tc1 tau(   4) = (   3.1549698   0.0000000  10.0000000  )
         5           Sn1 tau(   5) = (   3.1549698   1.8215227  12.5760220  )
         6           Sn1 tau(   6) = (   1.5774849   4.5538066  12.5760220  )
         7           Sn1 tau(   7) = (  -1.5774849   4.5538066  12.5760220  )
         8           Tc1 tau(   8) = (   0.0000000   1.8215227  12.5760220  )
         9           Sn1 tau(   9) = (  -0.0000025   3.5903405  15.2759382  )
        10           Sn1 tau(  10) = (   1.5318200   0.9372115  15.2758671  )
        11           Sn1 tau(  11) = (   4.7781433   0.9371708  15.2758428  )
        12           Tc1 tau(  12) = (   3.1549794   3.6435471  14.5715197  )

     number of k points=    20  Fermi-Dirac smearing, width (Ry)=  0.0110
                       cart. coord. in units 2pi/alat
        k(    1) = (   0.0000000   0.0000000   0.0000000), wk =   0.0555556
        k(    2) = (   0.0000000   0.0304995   0.0000000), wk =   0.1111111
        k(    3) = (   0.0000000   0.0609990   0.0000000), wk =   0.1111111
        k(    4) = (   0.0000000  -0.0914985   0.0000000), wk =   0.0555556
        k(    5) = (   0.0264134   0.0152498   0.0000000), wk =   0.1111111
        k(    6) = (   0.0264134   0.0457493   0.0000000), wk =   0.1111111
        k(    7) = (   0.0264134   0.0762488   0.0000000), wk =   0.1111111
        k(    8) = (   0.0264134  -0.0762488   0.0000000), wk =   0.1111111
        k(    9) = (   0.0264134  -0.0457493   0.0000000), wk =   0.1111111
        k(   10) = (   0.0264134  -0.0152498   0.0000000), wk =   0.1111111
        k(   11) = (   0.0528267   0.0304995   0.0000000), wk =   0.1111111
        k(   12) = (   0.0528267   0.0609990   0.0000000), wk =   0.1111111
        k(   13) = (   0.0528267   0.0914985   0.0000000), wk =   0.1111111
        k(   14) = (   0.0528267  -0.0609990   0.0000000), wk =   0.1111111
        k(   15) = (   0.0528267  -0.0304995   0.0000000), wk =   0.1111111
        k(   16) = (   0.0528267   0.0000000   0.0000000), wk =   0.1111111
        k(   17) = (  -0.0792401  -0.0457493   0.0000000), wk =   0.0555556
        k(   18) = (  -0.0792401  -0.0152498   0.0000000), wk =   0.1111111
        k(   19) = (  -0.0792401   0.0152498   0.0000000), wk =   0.1111111
        k(   20) = (  -0.0792401  -0.1372478   0.0000000), wk =   0.0555556

     Largest allocated arrays     est. size (Mb)     dimensions
     Largest temporary arrays     est. size (Mb)     dimensions

     Check: negative/imaginary core charge=   -0.000007    0.000000

     Initial potential from superposition of free atoms
     Check: negative starting charge=   -0.376868

     starting charge  158.99951, renormalised to  171.00000

[...]

     *
     * You are using vdW-DF for exchange-correlation in this calculation.
     * Please cite the following three references that made this development
     * possible:
     *
     *   M. Dion, H. Rydberg, E. Schroder, D. C. Langreth, and
     *   B. I. Lundqvist, Phys. Rev. Lett. 92, 246401 (2004).
     *
     *   T. Thonhauser, V. R. Cooper, S. Li, A. Puzder, P. Hyldgaard, and
     *   D. C. Langreth, Phys. Rev. B 76, 125112 (2007).
     *
     *   G. Roman-Perez and J. M. Soler, Phys. Rev. Lett. 103, 096102 (2009).
     *
     *
     * If you are using vdW-DF2, please also cite:
     *
     *   K. Lee, E. D. Murray, L. Kong, B. I. Lundqvist, and
     *   D. C. Langreth, Phys. Rev. B 82, 081101(R) (2010).
     *
     *
     * If you are calculating the stress with vdW-DF, please also cite:
     *
     *   R. Sabatini, E. Kucukbenli, B. Kolb, T. Thonhauser, and
     *   S. de Gironcoli, J. Phys.: Condens. Matter 24, 424209 (2012).
     *

     Carrying out vdW-DF run using the following parameters:

     Nqs =      20    Nr_points =    1024   r_max =   100.000
     q_mesh =
               0.00001000     0.04494208     0.09755937     0.15916263
               0.23128650     0.31572767     0.41458969     0.53033537
               0.66584808     0.82450364     1.01025438     1.22772762
               1.48234092     1.78043706     2.12944203     2.53805004
               3.01644009     3.57652955     4.23227104     5.00000000

     Gradients computed in reciprocal space

[...]

     Starting wfc are  120 randomized atomic wfcs

     Self-consistent Calculation

[...]

     total energy              =   -1971.76417859 Ry
     Harris-Foulkes estimate   =   -1971.76417787 Ry
     estimated scf accuracy    <       0.00000231 Ry

     iteration # 20     ecut=    36.75 Ry     beta=0.10
     Davidson diagonalization with overlap
     ethr =  1.35E-09,  avg # of iterations =  2.5

[...]

     negative rho (up, down):  3.802E-01 0.000E+00

     Adding external electric field

     Computed dipole along edir(3) :
        Dipole                0.0551 Ry au,          0.1400 Debye
        Dipole field          0.0001 Ry au

        Potential amp.       -0.0110 Ry
        Total length         46.3422 bohr

     End of self-consistent calculation

[...]

          k = 0.0528 0.0000 0.0000 ( 22045 PWs)   bands (ev):

[...]

          k =-0.0792-0.1372 0.0000 ( 21944 PWs)   bands (ev):

   -65.2869 -65.2608 -65.2197 -37.3544 -37.3543 -37.3243 -37.3242 -37.3024
   -37.3022 -37.2728 -37.2710 -37.2302 -20.9720 -20.9058 -20.8883 -20.8735
   -20.8702 -20.8481 -20.8433 -20.8398 -20.8030 -20.7772 -20.7763 -20.7761
   -20.7599 -20.7488 -20.7468 -20.7271 -20.6952 -20.6889 -20.6788 -20.6743
   -20.6581 -20.6544 -20.6483 -20.6403 -20.6271 -20.6254 -20.6158 -20.6143
   -20.6119 -20.6017 -20.5971 -20.5899 -20.5884 -20.5881 -20.5819 -20.5778
   -20.5769 -20.5709 -20.5574 -20.5547 -20.5532 -20.5469 -20.5462 -20.5026
   -20.4917  -8.7649  -8.3375  -7.2357  -6.9165  -6.1599  -6.1263  -5.4613
    -4.8264  -3.4847  -3.2872  -2.7447  -2.0570  -1.3802  -1.2319  -0.9914
    -0.9666  -0.9346  -0.3949  -0.2615  -0.0627   0.0825   0.5172   0.7217
     0.7328   0.8287   0.8447   0.9738   1.1044   1.1772   1.4426   1.7401
     1.7746   1.9393   2.1876   2.4771   2.5173   2.8111   2.8577   3.1331
     3.5358   3.6961   3.9717   4.1020   4.1682   4.7466   4.9654   5.3996
     5.5252   5.6883   5.8236   5.9619   6.1231   6.3312   6.5583   6.6063
     6.6573   6.7423   6.9031

     the Fermi energy is     1.1869 ev

!    total energy              =   -1971.76418243 Ry
     Harris-Foulkes estimate   =   -1971.76417889 Ry
     estimated scf accuracy    <       0.00000046 Ry

     The total energy is the sum of the following terms:

     one-electron contribution =  -12383.06747957 Ry
     hartree contribution      =    6239.84123305 Ry
     xc contribution           =    -500.04803250 Ry
     ewald contribution        =    4671.58695982 Ry
     electric field correction =       0.00000651 Ry
     smearing contrib. (-TS)   =      -0.07686974 Ry

     convergence has been achieved in  20 iterations

 BEEF-vdW xc energy contributions
           1 :   -439.241550832334
           2 :    402.564312143351
           3 :   -339.775157648822
           4 :    267.398828020049
           5 :   -201.438136131773
           6 :    151.858637373890
           7 :   -120.391550627310
           8 :    102.108996309791
           9 :   -89.5328430308080
          10 :    76.9117653646043
          11 :   -62.6029903662637
          12 :    48.7055233855518
          13 :   -38.7027525066385
          14 :    34.7770717311800
          15 :   -36.3936592963894
          16 :    40.7421990635394
          17 :   -44.4923370005645
          18 :    45.6145416724312
          19 :   -44.1828967758196
          20 :    41.8152907034541
          21 :   -40.2884693562590
          22 :    40.2831814964450
          23 :   -41.0291013375573
          24 :    40.9564841725542
          25 :   -38.8327367763426
          26 :    34.6030270037400
          27 :   -29.4301800698320
          28 :    24.9737426052726
          29 :   -22.4297094750478
          30 :    21.9432930139924
          31 :   -39.0069732795806
          32 :   -28.4733287081706

     Forces acting on atoms (Ry/au):

     negative rho (up, down):  3.802E-01 0.000E+00
     atom    1 type  1   force =     0.00000168    0.02031858   -0.01160066
     atom    2 type  1   force =     0.01758292   -0.01014704   -0.01160460
     atom    3 type  1   force =    -0.01758489   -0.01015129   -0.01161160
     atom    4 type  2   force =    -0.00000040   -0.00004211    0.06821324
     atom    5 type  1   force =     0.00000262   -0.02745813   -0.01648255
     atom    6 type  1   force =    -0.02383630    0.01375928   -0.01655443
     atom    7 type  1   force =     0.02383619    0.01375496   -0.01655162
     atom    8 type  2   force =    -0.00000066   -0.00003523    0.00988538
     atom    9 type  1   force =     0.00000063    0.00002501    0.00175801
     atom   10 type  1   force =     0.00001987   -0.00001208    0.00177083
     atom   11 type  1   force =    -0.00002158   -0.00001335    0.00177310
     atom   12 type  2   force =    -0.00000009    0.00000140    0.00100490

     Total force =     0.097421     Total SCF correction =     0.002075

     entering subroutine stress ...

     negative rho (up, down):  3.802E-01 0.000E+00
          total   stress  (Ry/bohr**3)                   (kbar)     P=  -10.37
  -0.00008696  -0.00000000  -0.00000000        -12.79     -0.00     -0.00
  -0.00000000  -0.00008696  -0.00000002         -0.00    -12.79     -0.00
  -0.00000000  -0.00000002  -0.00003765         -0.00     -0.00     -5.54

 !ASE

     Writing output data file calc.save

     General routines

     Parallel routines

   This run was terminated on:   1:52:35  28Dec2018

   JOB DONE.
Job  /afs/slac/g/suncat/bin/suncat-tsmpirun -x LD_LIBRARY_PATH -wdir /scratch/qe110952_fqZ4Y pw.x -in pw.inp

TID   HOST_NAME   COMMAND_LINE            STATUS            TERMINATION_TIME
00000 suncat0080 pw.x -in pw.inp   Done                     12/28/2018 01:52:35
00001 suncat0080 pw.x -in pw.inp   Done                     12/28/2018 01:52:35
00002 suncat0080 pw.x -in pw.inp   Done                     12/28/2018 01:52:35
00003 suncat0080 pw.x -in pw.inp   Done                     12/28/2018 01:52:35
00004 suncat0080 pw.x -in pw.inp   Done                     12/28/2018 01:52:35
00005 suncat0080 pw.x -in pw.inp   Done                     12/28/2018 01:52:35
00006 suncat0080 pw.x -in pw.inp   Done                     12/28/2018 01:52:35
00007 suncat0080 pw.x -in pw.inp   Done                     12/28/2018 01:52:35
00008 suncat0078 pw.x -in pw.inp   Done                     12/28/2018 01:52:35
00009 suncat0078 pw.x -in pw.inp   Done                     12/28/2018 01:52:35
00010 suncat0078 pw.x -in pw.inp   Done                     12/28/2018 01:52:35
00011 suncat0078 pw.x -in pw.inp   Done                     12/28/2018 01:52:35
00012 suncat0078 pw.x -in pw.inp   Done                     12/28/2018 01:52:35
00013 suncat0078 pw.x -in pw.inp   Done                     12/28/2018 01:52:35
00014 suncat0078 pw.x -in pw.inp   Done                     12/28/2018 01:52:35
00015 suncat0078 pw.x -in pw.inp   Done                     12/28/2018 01:52:35
00016 suncat0165 pw.x -in pw.inp   Done                     12/28/2018 01:52:35
00017 suncat0165 pw.x -in pw.inp   Done                     12/28/2018 01:52:35
00018 suncat0165 pw.x -in pw.inp   Done                     12/28/2018 01:52:35
00019 suncat0165 pw.x -in pw.inp   Done                     12/28/2018 01:52:35
00020 suncat0165 pw.x -in pw.inp   Done                     12/28/2018 01:52:35
00021 suncat0165 pw.x -in pw.inp   Done                     12/28/2018 01:52:35
00022 suncat0165 pw.x -in pw.inp   Done                     12/28/2018 01:52:35
00023 suncat0165 pw.x -in pw.inp   Done                     12/28/2018 01:52:35
00024 suncat0164 pw.x -in pw.inp   Done                     12/28/2018 01:52:35
00025 suncat0164 pw.x -in pw.inp   Done                     12/28/2018 01:52:35
00026 suncat0164 pw.x -in pw.inp   Done                     12/28/2018 01:52:35
00027 suncat0164 pw.x -in pw.inp   Done                     12/28/2018 01:52:35
00028 suncat0164 pw.x -in pw.inp   Done                     12/28/2018 01:52:35
00029 suncat0164 pw.x -in pw.inp   Done                     12/28/2018 01:52:35
00030 suncat0164 pw.x -in pw.inp   Done                     12/28/2018 01:52:35
00031 suncat0164 pw.x -in pw.inp   Done                     12/28/2018 01:52:35
00032 suncat0143 pw.x -in pw.inp   Done                     12/28/2018 01:52:35
00033 suncat0143 pw.x -in pw.inp   Done                     12/28/2018 01:52:35
00034 suncat0143 pw.x -in pw.inp   Done                     12/28/2018 01:52:35
00035 suncat0143 pw.x -in pw.inp   Done                     12/28/2018 01:52:35
00036 suncat0143 pw.x -in pw.inp   Done                     12/28/2018 01:52:35
00037 suncat0143 pw.x -in pw.inp   Done                     12/28/2018 01:52:35
00038 suncat0143 pw.x -in pw.inp   Done                     12/28/2018 01:52:35
00039 suncat0143 pw.x -in pw.inp   Done                     12/28/2018 01:52:35
00040 suncat0135 pw.x -in pw.inp   Done                     12/28/2018 01:52:35
00041 suncat0135 pw.x -in pw.inp   Done                     12/28/2018 01:52:35
00042 suncat0135 pw.x -in pw.inp   Done                     12/28/2018 01:52:35
00043 suncat0135 pw.x -in pw.inp   Done                     12/28/2018 01:52:35
00044 suncat0135 pw.x -in pw.inp   Done                     12/28/2018 01:52:35
00045 suncat0135 pw.x -in pw.inp   Done                     12/28/2018 01:52:35
00046 suncat0135 pw.x -in pw.inp   Done                     12/28/2018 01:52:35
00047 suncat0135 pw.x -in pw.inp   Done                     12/28/2018 01:52:35
00048 suncat0134 pw.x -in pw.inp   Done                     12/28/2018 01:52:35
00049 suncat0134 pw.x -in pw.inp   Done                     12/28/2018 01:52:35
00050 suncat0134 pw.x -in pw.inp   Done                     12/28/2018 01:52:35
00051 suncat0134 pw.x -in pw.inp   Done                     12/28/2018 01:52:35
00052 suncat0134 pw.x -in pw.inp   Done                     12/28/2018 01:52:35
00053 suncat0134 pw.x -in pw.inp   Done                     12/28/2018 01:52:35
00054 suncat0134 pw.x -in pw.inp   Done                     12/28/2018 01:52:35
00055 suncat0134 pw.x -in pw.inp   Done                     12/28/2018 01:52:35
00056 suncat0272 pw.x -in pw.inp   Done                     12/28/2018 01:52:35
00057 suncat0272 pw.x -in pw.inp   Done                     12/28/2018 01:52:35
00058 suncat0272 pw.x -in pw.inp   Done                     12/28/2018 01:52:35
00059 suncat0272 pw.x -in pw.inp   Done                     12/28/2018 01:52:35
00060 suncat0272 pw.x -in pw.inp   Done                     12/28/2018 01:52:35
00061 suncat0272 pw.x -in pw.inp   Done                     12/28/2018 01:52:35
00062 suncat0272 pw.x -in pw.inp   Done                     12/28/2018 01:52:35
00063 suncat0272 pw.x -in pw.inp   Done                     12/28/2018 01:52:35