     Program PWSCF v.5.1rc2 (svn rev. 11289) starts on  1Jan2019 at  6:40:17

     Current dimensions of program PWSCF are:
     Max number of different atomic species (ntypx) = 10
     Max number of k-points (npk) =  40000
     Max angular momentum in pseudopotentials (lmaxx) =  3
     Presently stress not available with electric field

     IMPORTANT: XC functional enforced from input :
     Exchange-correlation      = BEEF-VDW ( 1  4 27 13 2)
     Any further DFT definition will be discarded
     Please, verify this is what you really want

     Subspace diagonalization in iterative solution of the eigenvalue problem:
     a serial algorithm will be used

     bravais-lattice index     =            0
     lattice parameter (alat)  =       1.8897  a.u.
     unit-cell volume          =    5615.1489 (a.u.)^3
     number of atoms/cell      =           12
     number of atomic types    =            2
     number of electrons       =       156.00
     number of Kohn-Sham states=          108
     kinetic-energy cutoff     =      36.7493  Ry
     charge density cutoff     =     367.4932  Ry
     convergence threshold     =      1.0E-06
     mixing beta               =       0.1000
     number of iterations used =           10  plain     mixing
     Exchange-correlation      = BEEF-VDW ( 1  4 27 13 2)
     nstep                     =           50

     celldm(1)=   1.889726  celldm(2)=   0.000000  celldm(3)=   0.000000
     celldm(4)=   0.000000  celldm(5)=   0.000000  celldm(6)=   0.000000

     crystal axes: (cart. coord. in units of alat)
               a(1) = (   6.192420   0.000000   0.000000 )
               a(2) = (  -3.096210   5.362793   0.000000 )
               a(3) = (   0.000000   0.000000  25.056089 )

     reciprocal axes: (cart. coord. in units 2 pi/alat)
               b(1) = (  0.161488  0.093235  0.000000 )
               b(2) = (  0.000000  0.186470  0.000000 )
               b(3) = (  0.000000  0.000000  0.039910 )

     PseudoPot. # 1 for Sc read from file:
     /afs/slac.stanford.edu/u/if/mamunm/psp/gbrv1.5pbe/Sc.UPF
     MD5 check sum: db30a2753ba66ef00f23801d899b7e7f
     Pseudo is Ultrasoft + core correction, Zval = 11.0
     Generated by new atomic code, or converted to UPF format
     Using radial grid of  849 points,  6 beta functions with:
                l(1) =   0
                l(2) =   0
                l(3) =   1
                l(4) =   1
                l(5) =   2
                l(6) =   2
     Q(r) pseudized with  6 coefficients,  rinner =    1.200   1.200   1.200
                                                       1.200   1.200

     PseudoPot. # 2 for Ga read from file:
     /afs/slac.stanford.edu/u/if/mamunm/psp/gbrv1.5pbe/Ga.UPF
     MD5 check sum: ccd671392a58a050fbb373893b4fcd66
     Pseudo is Ultrasoft + core correction, Zval = 19.0
     Generated by new atomic code, or converted to UPF format
     Using radial grid of  871 points,  6 beta functions with:
                l(1) =   0
                l(2) =   0
                l(3) =   1
                l(4) =   1
                l(5) =   2
                l(6) =   2
     Q(r) pseudized with  8 coefficients,  rinner =    1.250   1.250   1.250
                                                       1.250   1.250

     vdW kernel table read from file vdW_kernel_table
     MD5 check sum: 095c7af220d748ca6e76c0b4c6cfb241

     atomic species   valence    mass     pseudopotential
        Sc1           11.00    44.95591     Sc( 1.00)
        Ga1           19.00    69.72300     Ga( 1.00)

     No symmetry found

   Cartesian axes

     site n.     atom                  positions (alat units)
         1           Sc1 tau(   1) = (   0.0000000   0.0000000  10.0000000  )
         2           Sc1 tau(   2) = (  -1.5481049   2.6813964  10.0000000  )
         3           Sc1 tau(   3) = (   1.5481049   2.6813964  10.0000000  )
         4           Ga1 tau(   4) = (   3.0962098   0.0000000  10.0000000  )
         5           Sc1 tau(   5) = (   3.0962098   1.7875976  12.5280447  )
         6           Sc1 tau(   6) = (   1.5481049   4.4689939  12.5280447  )
         7           Sc1 tau(   7) = (  -1.5481049   4.4689939  12.5280447  )
         8           Ga1 tau(   8) = (   0.0000000   1.7875976  12.5280447  )
         9           Sc1 tau(   9) = (  -0.0000000   3.5751951  15.0560894  )
        10           Sc1 tau(  10) = (   1.5481049   0.8937988  15.0560894  )
        11           Sc1 tau(  11) = (   4.6443147   0.8937988  15.0560894  )
        12           Ga1 tau(  12) = (   3.0962098   3.5751951  15.0560894  )

     number of k points=    20  Fermi-Dirac smearing, width (Ry)=  0.0110
                       cart. coord. in units 2pi/alat
        k(    1) = (   0.0000000   0.0000000   0.0000000), wk =   0.0555556
        k(    2) = (   0.0000000   0.0310783   0.0000000), wk =   0.1111111
        k(    3) = (   0.0000000   0.0621567   0.0000000), wk =   0.1111111
        k(    4) = (   0.0000000  -0.0932350   0.0000000), wk =   0.0555556
        k(    5) = (   0.0269146   0.0155392   0.0000000), wk =   0.1111111
        k(    6) = (   0.0269146   0.0466175   0.0000000), wk =   0.1111111
        k(    7) = (   0.0269146   0.0776958   0.0000000), wk =   0.1111111
        k(    8) = (   0.0269146  -0.0776958   0.0000000), wk =   0.1111111
        k(    9) = (   0.0269146  -0.0466175   0.0000000), wk =   0.1111111
        k(   10) = (   0.0269146  -0.0155392   0.0000000), wk =   0.1111111
        k(   11) = (   0.0538293   0.0310783   0.0000000), wk =   0.1111111
        k(   12) = (   0.0538293   0.0621567   0.0000000), wk =   0.1111111
        k(   13) = (   0.0538293   0.0932350   0.0000000), wk =   0.1111111
        k(   14) = (   0.0538293  -0.0621567   0.0000000), wk =   0.1111111
        k(   15) = (   0.0538293  -0.0310783   0.0000000), wk =   0.1111111
        k(   16) = (   0.0538293  -0.0000000   0.0000000), wk =   0.1111111
        k(   17) = (  -0.0807439  -0.0466175   0.0000000), wk =   0.0555556
        k(   18) = (  -0.0807439  -0.0155392   0.0000000), wk =   0.1111111
        k(   19) = (  -0.0807439   0.0155392   0.0000000), wk =   0.1111111
        k(   20) = (  -0.0807439  -0.1398525   0.0000000), wk =   0.0555556

     Largest allocated arrays     est. size (Mb)     dimensions
     Largest temporary arrays     est. size (Mb)     dimensions

     Initial potential from superposition of free atoms
     Check: negative starting charge=   -0.000564

     starting charge  152.97838, renormalised to  156.00000

     negative rho (up, down):  5.754E-04 0.000E+00

     *
     * You are using vdW-DF for exchange-correlation in this calculation.
     * Please cite the following three references that made this development
     * possible:
     *
     *   M. Dion, H. Rydberg, E. Schroder, D. C. Langreth, and
     *   B. I. Lundqvist, Phys. Rev. Lett. 92, 246401 (2004).
     *
     *   T. Thonhauser, V. R. Cooper, S. Li, A. Puzder, P. Hyldgaard, and
     *   D. C. Langreth, Phys. Rev. B 76, 125112 (2007).
     *
     *   G. Roman-Perez and J. M. Soler, Phys. Rev. Lett. 103, 096102 (2009).
     *
     *
     * If you are using vdW-DF2, please also cite:
     *
     *   K. Lee, E. D. Murray, L. Kong, B. I. Lundqvist, and
     *   D. C. Langreth, Phys. Rev. B 82, 081101(R) (2010).
     *
     *
     * If you are calculating the stress with vdW-DF, please also cite:
     *
     *   R. Sabatini, E. Kucukbenli, B. Kolb, T. Thonhauser, and
     *   S. de Gironcoli, J. Phys.: Condens. Matter 24, 424209 (2012).
     *

     Carrying out vdW-DF run using the following parameters:

     Nqs =      20    Nr_points =    1024   r_max =   100.000
     q_mesh =
               0.00001000     0.04494208     0.09755937     0.15916263
               0.23128650     0.31572767     0.41458969     0.53033537
               0.66584808     0.82450364     1.01025438     1.22772762
               1.48234092     1.78043706     2.12944203     2.53805004
               3.01644009     3.57652955     4.23227104     5.00000000

     Gradients computed in reciprocal space

     Adding external electric field

     Computed dipole along edir(3) :
        Dipole               -0.0000 Ry au,         -0.0000 Debye
        Dipole field         -0.0000 Ry au

        Potential amp.        0.0000 Ry
        Total length         46.1654 bohr

     Starting wfc are  153 randomized atomic wfcs

     Self-consistent Calculation

     iteration #  1     ecut=    36.75 Ry     beta=0.10
     Davidson diagonalization with overlap
     ethr =  1.00E-02,  avg # of iterations =  2.0

[...]

     total energy              =   -2103.36570946 Ry
     Harris-Foulkes estimate   =   -2104.31336301 Ry
     estimated scf accuracy    <       5.57293913 Ry

[...]

     End of self-consistent calculation

          k = 0.0000 0.0000 0.0000 ( 21139 PWs)   bands (ev):

   -93.4306 -93.4306 -93.4112 -93.4112 -93.4112 -93.4112 -93.3484 -93.3480
   -93.3480 -49.4137 -49.4122 -49.3587 -49.3586 -49.3583 -49.3583 -49.0054
   -48.9516 -48.9516 -28.1819 -28.1592 -28.1308 -28.0935 -28.0853 -28.0853
   -28.0647 -28.0647 -28.0604 -28.0604 -28.0382 -28.0382 -27.8607 -27.8549
   -27.8338 -27.7409 -27.7409 -27.7340 -27.7339 -27.6556 -27.6555 -27.5771
   -27.5426 -27.5425 -27.4571 -27.3982 -27.3981 -13.7505 -13.7485 -13.7417
   -13.7417 -13.7393 -13.7393 -13.7368 -13.7368 -13.7355 -13.7355 -13.6818
   -13.6818 -13.6807 -13.6706 -13.6706  -6.4855  -5.5318  -5.0407  -1.8771
    -1.8757  -1.5301  -0.8002  -0.8002  -0.7777  -0.7777  -0.4407  -0.1736
    -0.1735  -0.0496   0.2976   0.3116   0.3116   0.3219   0.3219   0.6541
     0.8338   0.8878   0.8878   1.0354   1.0354   1.2351   1.4411   1.4411
     1.6271   1.6633   1.7773   1.7773   2.2097   2.2607   2.9069   2.9069
     2.9281   2.9281   2.9680   3.0048   3.0048   3.1961   3.2009   3.2010
     3.3977   3.4240   3.4241   3.5672

[...]

          k =-0.0807-0.0466 0.0000 ( 21136 PWs)   bands (ev):

[...]

     the Fermi energy is     0.5692 ev

!    total energy              =   -2103.21070036 Ry
     Harris-Foulkes estimate   =   -2103.21069971 Ry
     estimated scf accuracy    <       0.00000088 Ry

     The total energy is the sum of the following terms:

     one-electron contribution =  -11691.59894636 Ry
     hartree contribution      =    5835.99682697 Ry
     xc contribution           =    -274.29481185 Ry
     ewald contribution        =    4026.78464956 Ry
     electric field correction =       0.00000000 Ry
     smearing contrib. (-TS)   =      -0.09841867 Ry

     convergence has been achieved in  17 iterations

 BEEF-vdW xc energy contributions
           1 :   -239.293572550366
           2 :    214.523791213758
           3 :   -174.381889800472
           4 :    132.302559517607
           5 :   -98.8625885282660
           6 :    77.6683279878110
           7 :   -65.8775918828119
           8 :    57.9798380754985
           9 :   -49.8300062596983
          10 :    40.5364173224009
          11 :   -31.7121198890015
          12 :    25.3178171596118
          13 :   -21.9049156093157
          14 :    20.3679490921731
          15 :   -19.0209453791661
          16 :    16.8929960398594
[...]
     Generated by new atomic code, or converted to UPF format
     Using radial grid of  849 points,  6 beta functions with:
                l(1) =   0
                l(2) =   0
                l(3) =   1
                l(4) =   1
                l(5) =   2
                l(6) =   2
     Q(r) pseudized with  6 coefficients,  rinner =    1.200   1.200   1.200
                                                       1.200   1.200

     PseudoPot. # 2 for Ga read from file:
     /afs/slac.stanford.edu/u/if/mamunm/psp/gbrv1.5pbe/Ga.UPF
     MD5 check sum: ccd671392a58a050fbb373893b4fcd66
     Pseudo is Ultrasoft + core correction, Zval = 19.0
     Generated by new atomic code, or converted to UPF format
     Using radial grid of  871 points,  6 beta functions with:
                l(1) =   0
                l(2) =   0
                l(3) =   1
                l(4) =   1
                l(5) =   2
                l(6) =   2
     Q(r) pseudized with  8 coefficients,  rinner =    1.250   1.250   1.250
                                                       1.250   1.250

     vdW kernel table read from file vdW_kernel_table
     MD5 check sum: 095c7af220d748ca6e76c0b4c6cfb241

     atomic species   valence    mass     pseudopotential
        Sc1           11.00    44.95591     Sc( 1.00)
        Ga1           19.00    69.72300     Ga( 1.00)

     No symmetry found

   Cartesian axes

     site n.     atom                  positions (alat units)
         1           Sc1 tau(   1) = (   0.0000000   0.0000000  10.0000000  )
         2           Sc1 tau(   2) = (  -1.5481049   2.6813964  10.0000000  )
         3           Sc1 tau(   3) = (   1.5481049   2.6813964  10.0000000  )
         4           Ga1 tau(   4) = (   3.0962098   0.0000000  10.0000000  )
         5           Sc1 tau(   5) = (   3.0962098   1.7875976  12.5280447  )
         6           Sc1 tau(   6) = (   1.5481049   4.4689939  12.5280447  )
         7           Sc1 tau(   7) = (  -1.5481049   4.4689939  12.5280447  )
         8           Ga1 tau(   8) = (   0.0000000   1.7875976  12.5280447  )
         9           Sc1 tau(   9) = (  -0.0000023   3.5440917  15.1026096  )
        10           Sc1 tau(  10) = (   1.5212039   0.9093333  15.1025447  )
        11           Sc1 tau(  11) = (   4.6712276   0.9093456  15.1025851  )
        12           Ga1 tau(  12) = (   3.0962906   3.5750618  14.9057465  )

     number of k points=    20  Fermi-Dirac smearing, width (Ry)=  0.0110
                       cart. coord. in units 2pi/alat
        k(    1) = (   0.0000000   0.0000000   0.0000000), wk =   0.0555556
        k(    2) = (   0.0000000   0.0310783   0.0000000), wk =   0.1111111
        k(    3) = (   0.0000000   0.0621567   0.0000000), wk =   0.1111111
        k(    4) = (   0.0000000  -0.0932350   0.0000000), wk =   0.0555556
        k(    5) = (   0.0269146   0.0155392   0.0000000), wk =   0.1111111
        k(    6) = (   0.0269146   0.0466175   0.0000000), wk =   0.1111111
        k(    7) = (   0.0269146   0.0776958   0.0000000), wk =   0.1111111
        k(    8) = (   0.0269146  -0.0776958   0.0000000), wk =   0.1111111
        k(    9) = (   0.0269146  -0.0466175   0.0000000), wk =   0.1111111
        k(   10) = (   0.0269146  -0.0155392   0.0000000), wk =   0.1111111
        k(   11) = (   0.0538293   0.0310783   0.0000000), wk =   0.1111111
        k(   12) = (   0.0538293   0.0621567   0.0000000), wk =   0.1111111
        k(   13) = (   0.0538293   0.0932350   0.0000000), wk =   0.1111111
        k(   14) = (   0.0538293  -0.0621567   0.0000000), wk =   0.1111111
        k(   15) = (   0.0538293  -0.0310783   0.0000000), wk =   0.1111111
        k(   16) = (   0.0538293  -0.0000000   0.0000000), wk =   0.1111111
        k(   17) = (  -0.0807439  -0.0466175   0.0000000), wk =   0.0555556
        k(   18) = (  -0.0807439  -0.0155392   0.0000000), wk =   0.1111111
        k(   19) = (  -0.0807439   0.0155392   0.0000000), wk =   0.1111111
        k(   20) = (  -0.0807439  -0.1398525   0.0000000), wk =   0.0555556

     Largest allocated arrays     est. size (Mb)     dimensions
     Largest temporary arrays     est. size (Mb)     dimensions

     Initial potential from superposition of free atoms
     Check: negative starting charge=   -0.000556

     starting charge  152.97838, renormalised to  156.00000

[...]

     *
     * You are using vdW-DF for exchange-correlation in this calculation.
     * Please cite the following three references that made this development
     * possible:
     *
     *   M. Dion, H. Rydberg, E. Schroder, D. C. Langreth, and
     *   B. I. Lundqvist, Phys. Rev. Lett. 92, 246401 (2004).
     *
     *   T. Thonhauser, V. R. Cooper, S. Li, A. Puzder, P. Hyldgaard, and
     *   D. C. Langreth, Phys. Rev. B 76, 125112 (2007).
     *
     *   G. Roman-Perez and J. M. Soler, Phys. Rev. Lett. 103, 096102 (2009).
     *
     *
     * If you are using vdW-DF2, please also cite:
     *
     *   K. Lee, E. D. Murray, L. Kong, B. I. Lundqvist, and
     *   D. C. Langreth, Phys. Rev. B 82, 081101(R) (2010).
     *
     *
     * If you are calculating the stress with vdW-DF, please also cite:
     *
     *   R. Sabatini, E. Kucukbenli, B. Kolb, T. Thonhauser, and
     *   S. de Gironcoli, J. Phys.: Condens. Matter 24, 424209 (2012).
     *

     Carrying out vdW-DF run using the following parameters:

     Nqs =      20    Nr_points =    1024   r_max =   100.000
     q_mesh =
               0.00001000     0.04494208     0.09755937     0.15916263
               0.23128650     0.31572767     0.41458969     0.53033537
               0.66584808     0.82450364     1.01025438     1.22772762
               1.48234092     1.78043706     2.12944203     2.53805004
               3.01644009     3.57652955     4.23227104     5.00000000

     Gradients computed in reciprocal space

[...]

     Starting wfc are  153 randomized atomic wfcs

     Self-consistent Calculation

[...]

     iteration # 10     ecut=    36.75 Ry     beta=0.10
     Davidson diagonalization with overlap
     c_bands:  1 eigenvalues not converged
     ethr =  2.03E-06,  avg # of iterations = 10.1

[...]

     total energy              =   -2103.22331890 Ry
     Harris-Foulkes estimate   =   -2103.22331881 Ry
     estimated scf accuracy    <       0.00000106 Ry

     iteration # 18     ecut=    36.75 Ry     beta=0.10
     Davidson diagonalization with overlap
     ethr =  6.78E-10,  avg # of iterations =  1.9

[...]

     negative rho (up, down):  3.829E-04 0.000E+00

     Adding external electric field

     Computed dipole along edir(3) :
        Dipole                0.0339 Ry au,          0.0861 Debye
        Dipole field          0.0001 Ry au

        Potential amp.       -0.0070 Ry
        Total length         46.1654 bohr

     End of self-consistent calculation

[...]

          k = 0.0538-0.0000 0.0000 ( 21095 PWs)   bands (ev):

[...]

          k =-0.0807-0.1399 0.0000 ( 21136 PWs)   bands (ev):

   -93.4077 -93.3952 -93.3868 -93.3868 -93.3750 -93.3749 -93.3256 -93.3256
   -93.3253 -49.4021 -49.3811 -49.3640 -49.3630 -49.3449 -49.3266 -48.9633
   -48.9454 -48.9273 -28.1034 -28.0977 -28.0869 -28.0664 -28.0557 -28.0556
   -28.0373 -28.0214 -27.9853 -27.9809 -27.9468 -27.9392 -27.9359 -27.9083
   -27.8931 -27.8770 -27.7461 -27.7209 -27.7124 -27.5664 -27.5633 -27.5374
   -27.5372 -27.5330 -27.5253 -27.5103 -27.3870 -13.7280 -13.7228 -13.7227
   -13.7120 -13.7105 -13.7085 -13.7035 -13.7035 -13.6980 -13.6961 -13.6572
   -13.6545 -13.6536 -13.6464 -13.6452  -5.6490  -5.3933  -5.0087  -2.7921
    -2.0643  -1.8536  -1.7739  -0.7915  -0.7847  -0.6809  -0.3795  -0.2119
    -0.1630  -0.1518   0.2723   0.3211   0.4614   0.6016   0.7214   0.8475
     1.0017   1.0661   1.0761   1.2239   1.2427   1.2471   1.2705   1.5903
     1.6592   1.7600   1.8365   1.9863   2.0824   2.1799   2.5334   2.6405
     2.6956   2.8348   2.8662   2.8950   2.9987   3.0148   3.0469   3.0806
     3.1056   3.1343   3.1940   3.3296

     the Fermi energy is     0.6024 ev

!    total energy              =   -2103.22331964 Ry
     Harris-Foulkes estimate   =   -2103.22331840 Ry
     estimated scf accuracy    <       0.00000050 Ry

     The total energy is the sum of the following terms:

     one-electron contribution =  -11727.60160262 Ry
     hartree contribution      =    5854.13013257 Ry
     xc contribution           =    -274.29520607 Ry
     ewald contribution        =    4044.63994323 Ry
     electric field correction =       0.00000257 Ry
     smearing contrib. (-TS)   =      -0.09658932 Ry

     convergence has been achieved in  18 iterations

 BEEF-vdW xc energy contributions
           1 :   -239.539704032470
           2 :    214.771259518775
           3 :   -174.633360429844
           4 :    132.557978477326
           5 :   -99.1132974302651
           6 :    77.8986894353837
           7 :   -66.0765590519697
           8 :    58.1514783636214
           9 :   -49.9918524628678
          10 :    40.7068393520556
          11 :   -31.8982292446177
          12 :    25.5133518910662
          13 :   -22.0980753785470
          14 :    20.5524559667479
          15 :   -19.2021326667166
          16 :    17.0838366422214
          17 :   -14.4271102455691
          18 :    12.1453766592721
          19 :   -10.9423816382334
          20 :    10.7804615338990
          21 :   -11.0131720415387
          22 :    10.9338483859209
          23 :   -10.2617546754545
          24 :    9.24061891794827
          25 :   -8.36500783809123
          26 :    7.99650385517833
          27 :   -8.14423409013580
          28 :    8.50860544372372
          29 :   -8.70280173397151
          30 :    8.49069198008476
          31 :   -22.2946593890126
          32 :   -15.6558503732795

     Forces acting on atoms (Ry/au):

     negative rho (up, down):  3.829E-04 0.000E+00
     atom    1 type  1   force =     0.00000040    0.01217610   -0.00806258
     atom    2 type  1   force =     0.01054653   -0.00608712   -0.00806203
     atom    3 type  1   force =    -0.01054507   -0.00608745   -0.00806277
     atom    4 type  2   force =    -0.00000472   -0.00000217    0.01662280
     atom    5 type  1   force =     0.00000197   -0.00142266    0.00227804
     atom    6 type  1   force =    -0.00122837    0.00070839    0.00228605
     atom    7 type  1   force =     0.00123229    0.00070738    0.00228122
     atom    8 type  2   force =     0.00000054   -0.00000523    0.00083347
     atom    9 type  1   force =     0.00000286    0.00085615   -0.00036977
     atom   10 type  1   force =     0.00074117   -0.00043027   -0.00036391
     atom   11 type  1   force =    -0.00073927   -0.00043201   -0.00036772
     atom   12 type  2   force =    -0.00000832    0.00001889    0.00098721

     Total force =     0.030693     Total SCF correction =     0.003470
     SCF correction compared to forces is large: reduce conv_thr to get better values

     entering subroutine stress ...

     negative rho (up, down):  3.829E-04 0.000E+00
          total   stress  (Ry/bohr**3)                   (kbar)     P=   -3.84
  -0.00004314   0.00000000  -0.00000000         -6.35      0.00     -0.00
   0.00000000  -0.00004313   0.00000001          0.00     -6.35      0.00
  -0.00000000   0.00000001   0.00000798         -0.00      0.00      1.17

 !ASE

     Writing output data file calc.save

     General routines

     Parallel routines

   This run was terminated on:   8: 4:12   1Jan2019

   JOB DONE.
Job  /afs/slac/g/suncat/bin/suncat-tsmpirun -x LD_LIBRARY_PATH -wdir /scratch/qe648964_KYkOG pw.x -in pw.inp

TID   HOST_NAME   COMMAND_LINE            STATUS            TERMINATION_TIME
00000 suncat0074 pw.x -in pw.inp   Done                     01/01/2019 08:04:12
00001 suncat0074 pw.x -in pw.inp   Done                     01/01/2019 08:04:12
00002 suncat0074 pw.x -in pw.inp   Done                     01/01/2019 08:04:12
00003 suncat0074 pw.x -in pw.inp   Done                     01/01/2019 08:04:12
00004 suncat0074 pw.x -in pw.inp   Done                     01/01/2019 08:04:12
00005 suncat0074 pw.x -in pw.inp   Done                     01/01/2019 08:04:12
00006 suncat0074 pw.x -in pw.inp   Done                     01/01/2019 08:04:12
00007 suncat0074 pw.x -in pw.inp   Done                     01/01/2019 08:04:12
00008 suncat0073 pw.x -in pw.inp   Done                     01/01/2019 08:04:12
00009 suncat0073 pw.x -in pw.inp   Done                     01/01/2019 08:04:12
00010 suncat0073 pw.x -in pw.inp   Done                     01/01/2019 08:04:12
00011 suncat0073 pw.x -in pw.inp   Done                     01/01/2019 08:04:12
00012 suncat0073 pw.x -in pw.inp   Done                     01/01/2019 08:04:12
00013 suncat0073 pw.x -in pw.inp   Done                     01/01/2019 08:04:12
00014 suncat0073 pw.x -in pw.inp   Done                     01/01/2019 08:04:12
00015 suncat0073 pw.x -in pw.inp   Done                     01/01/2019 08:04:12
00016 suncat0068 pw.x -in pw.inp   Done                     01/01/2019 08:04:12
00017 suncat0068 pw.x -in pw.inp   Done                     01/01/2019 08:04:12
00018 suncat0068 pw.x -in pw.inp   Done                     01/01/2019 08:04:12
00019 suncat0068 pw.x -in pw.inp   Done                     01/01/2019 08:04:12
00020 suncat0068 pw.x -in pw.inp   Done                     01/01/2019 08:04:12
00021 suncat0068 pw.x -in pw.inp   Done                     01/01/2019 08:04:12
00022 suncat0068 pw.x -in pw.inp   Done                     01/01/2019 08:04:12
00023 suncat0068 pw.x -in pw.inp   Done                     01/01/2019 08:04:12
00024 suncat0065 pw.x -in pw.inp   Done                     01/01/2019 08:04:12
00025 suncat0065 pw.x -in pw.inp   Done                     01/01/2019 08:04:12
00026 suncat0065 pw.x -in pw.inp   Done                     01/01/2019 08:04:12
00027 suncat0065 pw.x -in pw.inp   Done                     01/01/2019 08:04:12
00028 suncat0065 pw.x -in pw.inp   Done                     01/01/2019 08:04:12
00029 suncat0065 pw.x -in pw.inp   Done                     01/01/2019 08:04:12
00030 suncat0065 pw.x -in pw.inp   Done                     01/01/2019 08:04:12
00031 suncat0065 pw.x -in pw.inp   Done                     01/01/2019 08:04:12
00032 suncat0064 pw.x -in pw.inp   Done                     01/01/2019 08:04:12
00033 suncat0064 pw.x -in pw.inp   Done                     01/01/2019 08:04:12
00034 suncat0064 pw.x -in pw.inp   Done                     01/01/2019 08:04:12
00035 suncat0064 pw.x -in pw.inp   Done                     01/01/2019 08:04:12
00036 suncat0064 pw.x -in pw.inp   Done                     01/01/2019 08:04:12
00037 suncat0064 pw.x -in pw.inp   Done                     01/01/2019 08:04:12
00038 suncat0064 pw.x -in pw.inp   Done                     01/01/2019 08:04:12
00039 suncat0064 pw.x -in pw.inp   Done                     01/01/2019 08:04:12
00040 suncat0059 pw.x -in pw.inp   Done                     01/01/2019 08:04:12
00041 suncat0059 pw.x -in pw.inp   Done                     01/01/2019 08:04:12
00042 suncat0059 pw.x -in pw.inp   Done                     01/01/2019 08:04:12
00043 suncat0059 pw.x -in pw.inp   Done                     01/01/2019 08:04:12
00044 suncat0059 pw.x -in pw.inp   Done                     01/01/2019 08:04:12
00045 suncat0059 pw.x -in pw.inp   Done                     01/01/2019 08:04:12
00046 suncat0059 pw.x -in pw.inp   Done                     01/01/2019 08:04:12
00047 suncat0059 pw.x -in pw.inp   Done                     01/01/2019 08:04:12
00048 suncat0013 pw.x -in pw.inp   Done                     01/01/2019 08:04:12
00049 suncat0013 pw.x -in pw.inp   Done                     01/01/2019 08:04:12
00050 suncat0013 pw.x -in pw.inp   Done                     01/01/2019 08:04:12
00051 suncat0013 pw.x -in pw.inp   Done                     01/01/2019 08:04:12
00052 suncat0013 pw.x -in pw.inp   Done                     01/01/2019 08:04:12
00053 suncat0013 pw.x -in pw.inp   Done                     01/01/2019 08:04:12
00054 suncat0013 pw.x -in pw.inp   Done                     01/01/2019 08:04:12
00055 suncat0013 pw.x -in pw.inp   Done                     01/01/2019 08:04:12
00056 suncat0008 pw.x -in pw.inp   Done                     01/01/2019 08:04:12
00057 suncat0008 pw.x -in pw.inp   Done                     01/01/2019 08:04:12
00058 suncat0008 pw.x -in pw.inp   Done                     01/01/2019 08:04:12
00059 suncat0008 pw.x -in pw.inp   Done                     01/01/2019 08:04:12
00060 suncat0008 pw.x -in pw.inp   Done                     01/01/2019 08:04:12
00061 suncat0008 pw.x -in pw.inp   Done                     01/01/2019 08:04:12
00062 suncat0008 pw.x -in pw.inp   Done                     01/01/2019 08:04:12
00063 suncat0008 pw.x -in pw.inp   Done                     01/01/2019 08:04:12