     Program PWSCF v.5.1rc2 (svn rev. 11289) starts on  1Jan2019 at 16:28:22

     Current dimensions of program PWSCF are:
     Max number of different atomic species (ntypx) = 10
     Max number of k-points (npk) =  40000
     Max angular momentum in pseudopotentials (lmaxx) =  3
     Presently stress not available with electric field

     IMPORTANT: XC functional enforced from input :
     Exchange-correlation      = BEEF-VDW ( 1  4 27 13 2)
     Any further DFT definition will be discarded
     Please, verify this is what you really want

     Subspace diagonalization in iterative solution of the eigenvalue problem:
     a serial algorithm will be used

     bravais-lattice index     =            0
     lattice parameter (alat)  =       1.8897  a.u.
     unit-cell volume          =    5145.4515 (a.u.)^3
     number of atoms/cell      =           12
     number of atomic types    =            2
     number of electrons       =       153.00
     number of Kohn-Sham states=          106
     kinetic-energy cutoff     =      36.7493  Ry
     charge density cutoff     =     367.4932  Ry
     convergence threshold     =      1.0E-06
     mixing beta               =       0.1000
     number of iterations used =           10  plain     mixing
     Exchange-correlation      = BEEF-VDW ( 1  4 27 13 2)
     nstep                     =           50

     celldm(1)=   1.889726  celldm(2)=   0.000000  celldm(3)=   0.000000
     celldm(4)=   0.000000  celldm(5)=   0.000000  celldm(6)=   0.000000

     crystal axes: (cart. coord. in units of alat)
               a(1) = (   5.951207   0.000000   0.000000 )
               a(2) = (  -2.975604   5.153897   0.000000 )
               a(3) = (   0.000000   0.000000  24.859140 )

     reciprocal axes: (cart. coord. in units 2 pi/alat)
               b(1) = (  0.168033  0.097014  0.000000 )
               b(2) = (  0.000000  0.194028  0.000000 )
               b(3) = (  0.000000  0.000000  0.040227 )

     PseudoPot. # 1 for Ta read from file:
     /afs/slac.stanford.edu/u/if/mamunm/psp/gbrv1.5pbe/Ta.UPF
     MD5 check sum: f8bbe9446314a3b8ea5d9f3e3836c939
     Pseudo is Ultrasoft + core correction, Zval = 13.0
     Generated by new atomic code, or converted to UPF format
     Using radial grid of  921 points,  7 beta functions with:
                l(1) =   0
                l(2) =   0
                l(3) =   1
                l(4) =   1
                l(5) =   2
                l(6) =   2
                l(7) =   3
     Q(r) pseudized with  6 coefficients,  rinner =    1.300   1.300   1.300
                                                       1.300   1.300   1.300
                                                       1.300

     PseudoPot. # 2 for Hg read from file:
     /afs/slac.stanford.edu/u/if/mamunm/psp/gbrv1.5pbe/Hg.UPF
     MD5 check sum: 8f42caffe07f7fd9c0a564347f8c5498
     Pseudo is Ultrasoft + core correction, Zval = 12.0
     Generated by new atomic code, or converted to UPF format
     Using radial grid of  985 points,  6 beta functions with:
                l(1) =   0
                l(2) =   0
                l(3) =   1
                l(4) =   1
                l(5) =   2
                l(6) =   2
     Q(r) pseudized with  8 coefficients,  rinner =    2.000   2.000   2.000
                                                       2.000   2.000

     vdW kernel table read from file vdW_kernel_table
     MD5 check sum: 095c7af220d748ca6e76c0b4c6cfb241

     atomic species   valence    mass     pseudopotential
        Ta1           13.00   180.94788     Ta( 1.00)
        Hg1           12.00   200.59200     Hg( 1.00)

     No symmetry found

   Cartesian axes

     site n.     atom                  positions (alat units)
         1           Ta1 tau(   1) = (   0.0000000   0.0000000  10.0000000  )
         2           Ta1 tau(   2) = (  -1.4878018   2.5769483  10.0000000  )
         3           Ta1 tau(   3) = (   1.4878018   2.5769483  10.0000000  )
         4           Hg1 tau(   4) = (   2.9756036   0.0000000  10.0000000  )
         5           Ta1 tau(   5) = (   2.9756036   1.7179655  12.4295702  )
         6           Ta1 tau(   6) = (   1.4878018   4.2949139  12.4295702  )
         7           Ta1 tau(   7) = (  -1.4878018   4.2949139  12.4295702  )
         8           Hg1 tau(   8) = (   0.0000000   1.7179655  12.4295702  )
         9           Ta1 tau(   9) = (  -0.0000000   3.4359311  14.8591404  )
        10           Ta1 tau(  10) = (   1.4878018   0.8589828  14.8591404  )
        11           Ta1 tau(  11) = (   4.4634054   0.8589828  14.8591404  )
        12           Hg1 tau(  12) = (   2.9756036   3.4359311  14.8591404  )

     number of k points=    20  Fermi-Dirac smearing, width (Ry)=  0.0110
                       cart. coord. in units 2pi/alat
        k(    1) = (   0.0000000   0.0000000   0.0000000), wk =   0.0555556
        k(    2) = (   0.0000000   0.0323380   0.0000000), wk =   0.1111111
        k(    3) = (   0.0000000   0.0646760   0.0000000), wk =   0.1111111
        k(    4) = (   0.0000000  -0.0970140   0.0000000), wk =   0.0555556
        k(    5) = (   0.0280055   0.0161690   0.0000000), wk =   0.1111111
        k(    6) = (   0.0280055   0.0485070   0.0000000), wk =   0.1111111
        k(    7) = (   0.0280055   0.0808450   0.0000000), wk =   0.1111111
        k(    8) = (   0.0280055  -0.0808450   0.0000000), wk =   0.1111111
        k(    9) = (   0.0280055  -0.0485070   0.0000000), wk =   0.1111111
        k(   10) = (   0.0280055  -0.0161690   0.0000000), wk =   0.1111111
        k(   11) = (   0.0560110   0.0323380   0.0000000), wk =   0.1111111
        k(   12) = (   0.0560110   0.0646760   0.0000000), wk =   0.1111111
        k(   13) = (   0.0560110   0.0970140   0.0000000), wk =   0.1111111
        k(   14) = (   0.0560110  -0.0646760   0.0000000), wk =   0.1111111
        k(   15) = (   0.0560110  -0.0323380   0.0000000), wk =   0.1111111
        k(   16) = (   0.0560110   0.0000000   0.0000000), wk =   0.1111111
        k(   17) = (  -0.0840166  -0.0485070   0.0000000), wk =   0.0555556
        k(   18) = (  -0.0840166  -0.0161690   0.0000000), wk =   0.1111111
        k(   19) = (  -0.0840166   0.0161690   0.0000000), wk =   0.1111111
        k(   20) = (  -0.0840166  -0.1455210   0.0000000), wk =   0.0555556

     Largest allocated arrays     est. size (Mb)     dimensions
     Largest temporary arrays     est. size (Mb)     dimensions

     Initial potential from superposition of free atoms
     Check: negative starting charge=   -0.844890

     starting charge  152.98982, renormalised to  153.00000

     negative rho (up, down):  8.449E-01 0.000E+00

     *
     * You are using vdW-DF for exchange-correlation in this calculation.
     * Please cite the following three references that made this development
     * possible:
     *
     *   M. Dion, H. Rydberg, E. Schroder, D. C. Langreth, and
     *   B. I. Lundqvist, Phys. Rev. Lett. 92, 246401 (2004).
     *
     *   T. Thonhauser, V. R. Cooper, S. Li, A. Puzder, P. Hyldgaard, and
     *   D. C. Langreth, Phys. Rev. B 76, 125112 (2007).
     *
     *   G. Roman-Perez and J. M. Soler, Phys. Rev. Lett. 103, 096102 (2009).
     *
     *
     * If you are using vdW-DF2, please also cite:
     *
     *   K. Lee, E. D. Murray, L. Kong, B. I. Lundqvist, and
     *   D. C. Langreth, Phys. Rev. B 82, 081101(R) (2010).
     *
     *
     * If you are calculating the stress with vdW-DF, please also cite:
     *
     *   R. Sabatini, E. Kucukbenli, B. Kolb, T. Thonhauser, and
     *   S. de Gironcoli, J. Phys.: Condens. Matter 24, 424209 (2012).
     *

     Carrying out vdW-DF run using the following parameters:

     Nqs =      20    Nr_points =    1024   r_max =   100.000
     q_mesh =
               0.00001000     0.04494208     0.09755937     0.15916263
               0.23128650     0.31572767     0.41458969     0.53033537
               0.66584808     0.82450364     1.01025438     1.22772762
               1.48234092     1.78043706     2.12944203     2.53805004
               3.01644009     3.57652955     4.23227104     5.00000000

     Gradients computed in reciprocal space

     Adding external electric field

     Computed dipole along edir(3) :
        Dipole                0.0000 Ry au,          0.0000 Debye
        Dipole field          0.0000 Ry au

        Potential amp.       -0.0000 Ry
        Total length         45.8025 bohr

     Starting wfc are  144 randomized atomic wfcs

     Self-consistent Calculation

     iteration #  1     ecut=    36.75 Ry     beta=0.10
     Davidson diagonalization with overlap
     ethr =  1.00E-02,  avg # of iterations =  2.1

[...]

     total energy              =   -1615.65099973 Ry
     Harris-Foulkes estimate   =   -1616.11799535 Ry
     estimated scf accuracy    <       2.81964855 Ry

[...]

     End of self-consistent calculation

          k = 0.0000 0.0000 0.0000 ( 19339 PWs)   bands (ev):

   -66.6492 -66.6477 -66.6054 -66.6054 -66.6050 -66.6050 -66.3859 -66.3434
   -66.3433 -33.2459 -33.2185 -33.1991 -33.1542 -33.1542 -33.1248 -33.1248
   -33.1153 -33.1058 -33.1058 -33.0791 -33.0057 -33.0057 -32.8427 -32.8427
   -32.8129 -32.7868 -32.6127 -32.6127 -32.5648 -32.5512 -32.5468 -32.5468
   -32.5372 -32.5372 -32.3557 -32.3557  -6.7445  -6.2057  -6.2057  -6.1548
    -6.1295  -6.1295  -5.9727  -5.9273  -5.9273  -5.8963  -5.8963  -5.8240
    -5.5426  -5.5426  -5.5250  -5.5250  -4.6638  -4.3578  -2.4578  -2.1074
    -1.7294  -0.6213  -0.6213  -0.1880  -0.1802  -0.0724  -0.0724   0.1823
     0.1824   0.3093   0.3094   0.8937   0.8937   1.0998   1.2408   1.6468
     1.6468   1.7973   1.9240   1.9240   2.1886   2.2897   2.2897   2.4691
     2.5921   2.5921   2.6771   3.2532   4.0789   4.2648   4.2649   4.4246
     4.5648   4.5648   4.7516   4.7516   4.8282   4.8282   5.0171   5.0171
     5.3296   5.4307   5.4307   5.5878   5.5878   5.6744   5.6744   5.7892
     5.9156   6.2842

[...]

          k =-0.0840-0.0485 0.0000 ( 19380 PWs)   bands (ev):

[...]

     the Fermi energy is     1.8511 ev

!    total energy              =   -1615.77568572 Ry
     Harris-Foulkes estimate   =   -1615.77568600 Ry
     estimated scf accuracy    <       0.00000065 Ry

     The total energy is the sum of the following terms:

     one-electron contribution =  -10965.47960345 Ry
     hartree contribution      =    5492.25770002 Ry
     xc contribution           =    -513.38872871 Ry
     ewald contribution        =    4370.92445857 Ry
     electric field correction =       0.00000000 Ry
     smearing contrib. (-TS)   =      -0.08951215 Ry

     convergence has been achieved in  15 iterations

 BEEF-vdW xc energy contributions
           1 :   -451.497563953822
           2 :    416.941401159603
           3 :   -356.380266764255
           4 :    283.551603789976
           5 :   -212.479333032317
           6 :    153.220636266826
           7 :   -109.809045323428
           8 :    80.8012314023969
           9 :   -61.6599249001191
          10 :    47.5561646918840
          11 :   -35.3121371086752
          12 :    23.9130195689846
          13 :   -13.8345643891227
          14 :    5.91701201872900
[...]

     PseudoPot. # 1 for Ta read from file:
     /afs/slac.stanford.edu/u/if/mamunm/psp/gbrv1.5pbe/Ta.UPF
     MD5 check sum: f8bbe9446314a3b8ea5d9f3e3836c939
     Pseudo is Ultrasoft + core correction, Zval = 13.0
     Generated by new atomic code, or converted to UPF format
     Using radial grid of  921 points,  7 beta functions with:
                l(1) =   0
                l(2) =   0
                l(3) =   1
                l(4) =   1
                l(5) =   2
                l(6) =   2
                l(7) =   3
     Q(r) pseudized with  6 coefficients,  rinner =    1.300   1.300   1.300
                                                       1.300   1.300   1.300
                                                       1.300

     PseudoPot. # 2 for Hg read from file:
     /afs/slac.stanford.edu/u/if/mamunm/psp/gbrv1.5pbe/Hg.UPF
     MD5 check sum: 8f42caffe07f7fd9c0a564347f8c5498
     Pseudo is Ultrasoft + core correction, Zval = 12.0
     Generated by new atomic code, or converted to UPF format
     Using radial grid of  985 points,  6 beta functions with:
                l(1) =   0
                l(2) =   0
                l(3) =   1
                l(4) =   1
                l(5) =   2
                l(6) =   2
     Q(r) pseudized with  8 coefficients,  rinner =    2.000   2.000   2.000
                                                       2.000   2.000

     vdW kernel table read from file vdW_kernel_table
     MD5 check sum: 095c7af220d748ca6e76c0b4c6cfb241

     atomic species   valence    mass     pseudopotential
        Ta1           13.00   180.94788     Ta( 1.00)
        Hg1           12.00   200.59200     Hg( 1.00)

     No symmetry found

   Cartesian axes

     site n.     atom                  positions (alat units)
         1           Ta1 tau(   1) = (   0.0000000   0.0000000  10.0000000  )
         2           Ta1 tau(   2) = (  -1.4878018   2.5769483  10.0000000  )
         3           Ta1 tau(   3) = (   1.4878018   2.5769483  10.0000000  )
         4           Hg1 tau(   4) = (   2.9756036   0.0000000  10.0000000  )
         5           Ta1 tau(   5) = (   2.9756036   1.7179655  12.4295702  )
         6           Ta1 tau(   6) = (   1.4878018   4.2949139  12.4295702  )
         7           Ta1 tau(   7) = (  -1.4878018   4.2949139  12.4295702  )
         8           Hg1 tau(   8) = (   0.0000000   1.7179655  12.4295702  )
         9           Ta1 tau(   9) = (   0.0000084   3.4711386  14.7315296  )
        10           Ta1 tau(  10) = (   1.5183238   0.8413532  14.7315158  )
        11           Ta1 tau(  11) = (   4.4329129   0.8413596  14.7315265  )
        12           Hg1 tau(  12) = (   2.9756081   3.4359132  15.2505908  )

     number of k points=    20  Fermi-Dirac smearing, width (Ry)=  0.0110
                       cart. coord. in units 2pi/alat
        k(    1) = (   0.0000000   0.0000000   0.0000000), wk =   0.0555556
        k(    2) = (   0.0000000   0.0323380   0.0000000), wk =   0.1111111
        k(    3) = (   0.0000000   0.0646760   0.0000000), wk =   0.1111111
        k(    4) = (   0.0000000  -0.0970140   0.0000000), wk =   0.0555556
        k(    5) = (   0.0280055   0.0161690   0.0000000), wk =   0.1111111
        k(    6) = (   0.0280055   0.0485070   0.0000000), wk =   0.1111111
        k(    7) = (   0.0280055   0.0808450   0.0000000), wk =   0.1111111
        k(    8) = (   0.0280055  -0.0808450   0.0000000), wk =   0.1111111
        k(    9) = (   0.0280055  -0.0485070   0.0000000), wk =   0.1111111
        k(   10) = (   0.0280055  -0.0161690   0.0000000), wk =   0.1111111
        k(   11) = (   0.0560110   0.0323380   0.0000000), wk =   0.1111111
        k(   12) = (   0.0560110   0.0646760   0.0000000), wk =   0.1111111
        k(   13) = (   0.0560110   0.0970140   0.0000000), wk =   0.1111111
        k(   14) = (   0.0560110  -0.0646760   0.0000000), wk =   0.1111111
        k(   15) = (   0.0560110  -0.0323380   0.0000000), wk =   0.1111111
        k(   16) = (   0.0560110   0.0000000   0.0000000), wk =   0.1111111
        k(   17) = (  -0.0840166  -0.0485070   0.0000000), wk =   0.0555556
        k(   18) = (  -0.0840166  -0.0161690   0.0000000), wk =   0.1111111
        k(   19) = (  -0.0840166   0.0161690   0.0000000), wk =   0.1111111
        k(   20) = (  -0.0840166  -0.1455210   0.0000000), wk =   0.0555556

     Largest allocated arrays     est. size (Mb)     dimensions
     Largest temporary arrays     est. size (Mb)     dimensions

     Initial potential from superposition of free atoms
     Check: negative starting charge=   -0.846186

     starting charge  152.98982, renormalised to  153.00000

[...]

     *
     * You are using vdW-DF for exchange-correlation in this calculation.
     * Please cite the following three references that made this development
     * possible:
     *
     *   M. Dion, H. Rydberg, E. Schroder, D. C. Langreth, and
     *   B. I. Lundqvist, Phys. Rev. Lett. 92, 246401 (2004).
     *
     *   T. Thonhauser, V. R. Cooper, S. Li, A. Puzder, P. Hyldgaard, and
     *   D. C. Langreth, Phys. Rev. B 76, 125112 (2007).
     *
     *   G. Roman-Perez and J. M. Soler, Phys. Rev. Lett. 103, 096102 (2009).
     *
     *
     * If you are using vdW-DF2, please also cite:
     *
     *   K. Lee, E. D. Murray, L. Kong, B. I. Lundqvist, and
     *   D. C. Langreth, Phys. Rev. B 82, 081101(R) (2010).
     *
     *
     * If you are calculating the stress with vdW-DF, please also cite:
     *
     *   R. Sabatini, E. Kucukbenli, B. Kolb, T. Thonhauser, and
     *   S. de Gironcoli, J. Phys.: Condens. Matter 24, 424209 (2012).
     *

     Carrying out vdW-DF run using the following parameters:

     Nqs =      20    Nr_points =    1024   r_max =   100.000
     q_mesh =
               0.00001000     0.04494208     0.09755937     0.15916263
               0.23128650     0.31572767     0.41458969     0.53033537
               0.66584808     0.82450364     1.01025438     1.22772762
               1.48234092     1.78043706     2.12944203     2.53805004
               3.01644009     3.57652955     4.23227104     5.00000000

     Gradients computed in reciprocal space

[...]

     Starting wfc are  144 randomized atomic wfcs

     Self-consistent Calculation

[...]

     total energy              =   -1615.81112884 Ry
     Harris-Foulkes estimate   =   -1615.81112860 Ry
     estimated scf accuracy    <       0.00000160 Ry

     iteration # 16     ecut=    36.75 Ry     beta=0.10
     Davidson diagonalization with overlap
     ethr =  1.04E-09,  avg # of iterations =  3.1

[...]

     negative rho (up, down):  8.827E-01 0.000E+00

     Adding external electric field

     Computed dipole along edir(3) :
        Dipole               -0.0520 Ry au,         -0.1322 Debye
        Dipole field         -0.0001 Ry au

        Potential amp.        0.0116 Ry
        Total length         45.8025 bohr

     End of self-consistent calculation

[...]

          k = 0.0560 0.0000 0.0000 ( 19349 PWs)   bands (ev):

[...]

          k =-0.0840-0.1455 0.0000 ( 19380 PWs)   bands (ev):

   -66.7172 -66.7029 -66.6884 -66.5702 -66.5502 -66.5368 -66.3819 -66.3684
   -66.3545 -33.2466 -33.2287 -33.2146 -33.1424 -33.1201 -33.1121 -33.0888
   -33.0635 -33.0566 -33.0241 -32.9883 -32.9714 -32.9601 -32.9459 -32.8969
   -32.8688 -32.7973 -32.7722 -32.7081 -32.7000 -32.6972 -32.6454 -32.5688
   -32.5306 -32.4996 -32.4704 -32.3819  -6.2600  -6.1429  -6.1215  -6.0825
    -6.0188  -5.9569  -5.7609  -5.7202  -5.6840  -5.6306  -5.4381  -5.2894
    -5.2788  -5.1351  -5.0956  -4.8981  -4.5809  -3.5597  -2.9962  -2.2491
    -2.0124  -1.6078  -1.0765  -0.4721  -0.3401  -0.0881   0.0115   0.1226
     0.1988   0.2192   0.4393   0.6720   0.7567   0.8622   0.8650   1.0432
     1.1223   1.1976   1.2247   1.4795   1.7026   1.7455   2.0676   2.1412
     2.2767   2.4810   2.5189   2.6636   3.1007   3.6565   3.6950   3.7347
     3.9678   4.0333   4.0549   4.2197   4.2504   4.4123   4.5552   4.6059
     4.7414   4.8704   5.0236   5.0472   5.7341   5.7838   5.8761   6.0576
     6.4391   6.9517

     the Fermi energy is     1.7825 ev

!    total energy              =   -1615.81112923 Ry
     Harris-Foulkes estimate   =   -1615.81112884 Ry
     estimated scf accuracy    <       0.00000053 Ry

     The total energy is the sum of the following terms:

     one-electron contribution =  -10964.26413833 Ry
     hartree contribution      =    5491.65804137 Ry
     xc contribution           =    -513.49543400 Ry
     ewald contribution        =    4370.37642614 Ry
     electric field correction =       0.00000660 Ry
     smearing contrib. (-TS)   =      -0.08603102 Ry

     convergence has been achieved in  16 iterations

 BEEF-vdW xc energy contributions
           1 :   -451.858158184609
           2 :    417.290915065072
           3 :   -356.716181552132
           4 :    283.874061758954
           5 :   -212.782973165204
           6 :    153.497321710058
           7 :   -110.056274217611
           8 :    81.0244461114954
           9 :   -61.8651462135448
          10 :    47.7407470243511
          11 :   -35.4640219956311
          12 :    24.0210057827306
          13 :   -13.9020473634178
          14 :    5.96806847723212
          15 :  -0.577883977368174
          16 :   -2.66120299193983
          17 :    4.59190136108259
          18 :   -5.99848192922400
          19 :    7.24845484047648
          20 :   -8.26383939030609
          21 :    8.76978939783857
          22 :   -8.61522419566927
          23 :    7.94870057763586
          24 :   -7.15589070399375
          25 :    6.63088194312900
          26 :   -6.55259764213793
          27 :    6.81057350058825
          28 :   -7.10948348715169
          29 :    7.16473312602079
          30 :   -6.85861688701004
          31 :   -40.6765940544349
          32 :   -30.2169035167141

     Forces acting on atoms (Ry/au):

     negative rho (up, down):  8.827E-01 0.000E+00
     atom    1 type  1   force =    -0.00000036   -0.00748284    0.02351369
     atom    2 type  1   force =    -0.00648080    0.00374143    0.02351415
     atom    3 type  1   force =     0.00648068    0.00374167    0.02351447
     atom    4 type  2   force =    -0.00000059   -0.00000038   -0.04660235
     atom    5 type  1   force =     0.00000069    0.02155543    0.00112780
     atom    6 type  1   force =     0.01866664   -0.01077860    0.00112901
     atom    7 type  1   force =    -0.01866626   -0.01077938    0.00112837
     atom    8 type  2   force =    -0.00000010   -0.00000074   -0.02843351
     atom    9 type  1   force =     0.00000088    0.00117509    0.00009277
     atom   10 type  1   force =     0.00101523   -0.00058601    0.00009569
     atom   11 type  1   force =    -0.00101712   -0.00058788    0.00009344
     atom   12 type  2   force =     0.00000110    0.00000221    0.00082647

     Total force =     0.078801     Total SCF correction =     0.002265

     entering subroutine stress ...

     negative rho (up, down):  8.827E-01 0.000E+00
          total   stress  (Ry/bohr**3)                   (kbar)     P=  -19.30
  -0.00016912   0.00000000   0.00000000        -24.88      0.00      0.00
   0.00000000  -0.00016912   0.00000000          0.00    -24.88      0.00
   0.00000000   0.00000000  -0.00005526          0.00      0.00     -8.13

 !ASE

     Writing output data file calc.save

     General routines

     Parallel routines

   This run was terminated on:  17:47:52   1Jan2019

   JOB DONE.
Job  /afs/slac/g/suncat/bin/suncat-tsmpirun -x LD_LIBRARY_PATH -wdir /scratch/qe649102_SJ1Jx pw.x -in pw.inp

TID   HOST_NAME   COMMAND_LINE            STATUS            TERMINATION_TIME
00000 suncat0154 pw.x -in pw.inp   Done                     01/01/2019 17:47:52
00001 suncat0154 pw.x -in pw.inp   Done                     01/01/2019 17:47:52
00002 suncat0154 pw.x -in pw.inp   Done                     01/01/2019 17:47:52
00003 suncat0154 pw.x -in pw.inp   Done                     01/01/2019 17:47:52
00004 suncat0154 pw.x -in pw.inp   Done                     01/01/2019 17:47:52
00005 suncat0154 pw.x -in pw.inp   Done                     01/01/2019 17:47:52
00006 suncat0154 pw.x -in pw.inp   Done                     01/01/2019 17:47:52
00007 suncat0154 pw.x -in pw.inp   Done                     01/01/2019 17:47:52
00008 suncat0143 pw.x -in pw.inp   Done                     01/01/2019 17:47:52
00009 suncat0143 pw.x -in pw.inp   Done                     01/01/2019 17:47:52
00010 suncat0143 pw.x -in pw.inp   Done                     01/01/2019 17:47:52
00011 suncat0143 pw.x -in pw.inp   Done                     01/01/2019 17:47:52
00012 suncat0143 pw.x -in pw.inp   Done                     01/01/2019 17:47:52
00013 suncat0143 pw.x -in pw.inp   Done                     01/01/2019 17:47:52
00014 suncat0143 pw.x -in pw.inp   Done                     01/01/2019 17:47:52
00015 suncat0143 pw.x -in pw.inp   Done                     01/01/2019 17:47:52
00016 suncat0108 pw.x -in pw.inp   Done                     01/01/2019 17:47:52
00017 suncat0108 pw.x -in pw.inp   Done                     01/01/2019 17:47:52
00018 suncat0108 pw.x -in pw.inp   Done                     01/01/2019 17:47:52
00019 suncat0108 pw.x -in pw.inp   Done                     01/01/2019 17:47:52
00020 suncat0108 pw.x -in pw.inp   Done                     01/01/2019 17:47:52
00021 suncat0108 pw.x -in pw.inp   Done                     01/01/2019 17:47:52
00022 suncat0108 pw.x -in pw.inp   Done                     01/01/2019 17:47:52
00023 suncat0108 pw.x -in pw.inp   Done                     01/01/2019 17:47:52
00024 suncat0252 pw.x -in pw.inp   Done                     01/01/2019 17:47:52
00025 suncat0252 pw.x -in pw.inp   Done                     01/01/2019 17:47:52
00026 suncat0252 pw.x -in pw.inp   Done                     01/01/2019 17:47:52
00027 suncat0252 pw.x -in pw.inp   Done                     01/01/2019 17:47:52
00028 suncat0252 pw.x -in pw.inp   Done                     01/01/2019 17:47:52
00029 suncat0252 pw.x -in pw.inp   Done                     01/01/2019 17:47:52
00030 suncat0252 pw.x -in pw.inp   Done                     01/01/2019 17:47:52
00031 suncat0252 pw.x -in pw.inp   Done                     01/01/2019 17:47:52
00032 suncat0226 pw.x -in pw.inp   Done                     01/01/2019 17:47:52
00033 suncat0226 pw.x -in pw.inp   Done                     01/01/2019 17:47:52
00034 suncat0226 pw.x -in pw.inp   Done                     01/01/2019 17:47:52
00035 suncat0226 pw.x -in pw.inp   Done                     01/01/2019 17:47:52
00036 suncat0226 pw.x -in pw.inp   Done                     01/01/2019 17:47:52
00037 suncat0226 pw.x -in pw.inp   Done                     01/01/2019 17:47:52
00038 suncat0226 pw.x -in pw.inp   Done                     01/01/2019 17:47:52
00039 suncat0226 pw.x -in pw.inp   Done                     01/01/2019 17:47:52
00040 suncat0225 pw.x -in pw.inp   Done                     01/01/2019 17:47:52
00041 suncat0225 pw.x -in pw.inp   Done                     01/01/2019 17:47:52
00042 suncat0225 pw.x -in pw.inp   Done                     01/01/2019 17:47:52
00043 suncat0225 pw.x -in pw.inp   Done                     01/01/2019 17:47:52
00044 suncat0225 pw.x -in pw.inp   Done                     01/01/2019 17:47:52
00045 suncat0225 pw.x -in pw.inp   Done                     01/01/2019 17:47:52
00046 suncat0225 pw.x -in pw.inp   Done                     01/01/2019 17:47:52
00047 suncat0225 pw.x -in pw.inp   Done                     01/01/2019 17:47:52
00048 suncat0224 pw.x -in pw.inp   Done                     01/01/2019 17:47:52
00049 suncat0224 pw.x -in pw.inp   Done                     01/01/2019 17:47:52
00050 suncat0224 pw.x -in pw.inp   Done                     01/01/2019 17:47:52
00051 suncat0224 pw.x -in pw.inp   Done                     01/01/2019 17:47:52
00052 suncat0224 pw.x -in pw.inp   Done                     01/01/2019 17:47:52
00053 suncat0224 pw.x -in pw.inp   Done                     01/01/2019 17:47:52
00054 suncat0224 pw.x -in pw.inp   Done                     01/01/2019 17:47:52
00055 suncat0224 pw.x -in pw.inp   Done                     01/01/2019 17:47:52
00056 suncat0223 pw.x -in pw.inp   Done                     01/01/2019 17:47:52
00057 suncat0223 pw.x -in pw.inp   Done                     01/01/2019 17:47:52
00058 suncat0223 pw.x -in pw.inp   Done                     01/01/2019 17:47:52
00059 suncat0223 pw.x -in pw.inp   Done                     01/01/2019 17:47:52
00060 suncat0223 pw.x -in pw.inp   Done                     01/01/2019 17:47:52
00061 suncat0223 pw.x -in pw.inp   Done                     01/01/2019 17:47:52
00062 suncat0223 pw.x -in pw.inp   Done                     01/01/2019 17:47:52
00063 suncat0223 pw.x -in pw.inp   Done                     01/01/2019 17:47:52