     Program PWSCF v.5.1rc2 (svn rev. 11289) starts on 31Dec2018 at 21:38:57

     Current dimensions of program PWSCF are:
     Max number of different atomic species (ntypx) = 10
     Max number of k-points (npk) =  40000
     Max angular momentum in pseudopotentials (lmaxx) =  3
     Presently stress not available with electric field

     IMPORTANT: XC functional enforced from input :
     Exchange-correlation      = BEEF-VDW ( 1  4 27 13 2)
     Any further DFT definition will be discarded
     Please, verify this is what you really want

     Subspace diagonalization in iterative solution of the eigenvalue problem:
     a serial algorithm will be used

     bravais-lattice index     =            0
     lattice parameter (alat)  =       1.8897  a.u.
     unit-cell volume          =    4534.2348 (a.u.)^3
     number of atoms/cell      =           12
     number of atomic types    =            2
     number of electrons       =       171.00
     number of Kohn-Sham states=          115
     kinetic-energy cutoff     =      36.7493  Ry
     charge density cutoff     =     367.4932  Ry
     convergence threshold     =      1.0E-06
     mixing beta               =       0.1000
     number of iterations used =           10  plain     mixing
     Exchange-correlation      = BEEF-VDW ( 1  4 27 13 2)
     nstep                     =           50

     celldm(1)=   1.889726  celldm(2)=   0.000000  celldm(3)=   0.000000
     celldm(4)=   0.000000  celldm(5)=   0.000000  celldm(6)=   0.000000

     crystal axes: (cart. coord. in units of alat)
               a(1) = (   5.617446   0.000000   0.000000 )
               a(2) = (  -2.808723   4.864851   0.000000 )
               a(3) = (   0.000000   0.000000  24.586626 )

     reciprocal axes: (cart. coord. in units 2 pi/alat)
               b(1) = (  0.178017  0.102778  0.000000 )
               b(2) = (  0.000000  0.205556  0.000000 )
               b(3) = (  0.000000  0.000000  0.040673 )

     PseudoPot. # 1 for Rh read from file:
     /afs/slac.stanford.edu/u/if/mamunm/psp/gbrv1.5pbe/Rh.UPF
     MD5 check sum: 761627e959a2e3a1f56b0b5fe687810e
     Pseudo is Ultrasoft + core correction, Zval = 15.0
     Generated by new atomic code, or converted to UPF format
     Using radial grid of  969 points,  7 beta functions with:
                l(1) =   0
                l(2) =   0
                l(3) =   1
                l(4) =   1
                l(5) =   2
                l(6) =   2
                l(7) =   2
     Q(r) pseudized with  8 coefficients,  rinner =    1.200   1.200   1.200
                                                       1.200   1.200

     PseudoPot. # 2 for Cd read from file:
     /afs/slac.stanford.edu/u/if/mamunm/psp/gbrv1.5pbe/Cd.UPF
     MD5 check sum: 17164a7926edb8e0dc231208abae86a6
     Pseudo is Ultrasoft + core correction, Zval = 12.0
     Generated by new atomic code, or converted to UPF format
     Using radial grid of  889 points,  6 beta functions with:
                l(1) =   0
                l(2) =   0
                l(3) =   1
                l(4) =   1
                l(5) =   2
                l(6) =   2
     Q(r) pseudized with  6 coefficients,  rinner =    1.000   1.000   1.000
                                                       1.000   1.000

     vdW kernel table read from file vdW_kernel_table
     MD5 check sum: 095c7af220d748ca6e76c0b4c6cfb241

     atomic species   valence    mass     pseudopotential
        Rh1           15.00   102.90550     Rh( 1.00)
        Cd1           12.00   112.41400     Cd( 1.00)

     No symmetry found

   Cartesian axes

     site n.     atom                  positions (alat units)
         1           Rh1 tau(   1) = (   0.0000000   0.0000000  10.0000000  )
         2           Rh1 tau(   2) = (  -1.4043615   2.4324256  10.0000000  )
         3           Rh1 tau(   3) = (   1.4043615   2.4324256  10.0000000  )
         4           Cd1 tau(   4) = (   2.8087231   0.0000000  10.0000000  )
         5           Rh1 tau(   5) = (   2.8087231   1.6216170  12.2933128  )
         6           Rh1 tau(   6) = (   1.4043615   4.0540426  12.2933128  )
         7           Rh1 tau(   7) = (  -1.4043615   4.0540426  12.2933128  )
         8           Cd1 tau(   8) = (   0.0000000   1.6216170  12.2933128  )
         9           Rh1 tau(   9) = (  -0.0000000   3.2432341  14.5866256  )
        10           Rh1 tau(  10) = (   1.4043615   0.8108085  14.5866256  )
        11           Rh1 tau(  11) = (   4.2130846   0.8108085  14.5866256  )
        12           Cd1 tau(  12) = (   2.8087231   3.2432341  14.5866256  )

     number of k points=    20  Fermi-Dirac smearing, width (Ry)=  0.0110
                       cart. coord. in units 2pi/alat
        k(    1) = (   0.0000000   0.0000000   0.0000000), wk =   0.0555556
        k(    2) = (   0.0000000   0.0342594   0.0000000), wk =   0.1111111
        k(    3) = (   0.0000000   0.0685187   0.0000000), wk =   0.1111111
        k(    4) = (   0.0000000  -0.1027781   0.0000000), wk =   0.0555556
        k(    5) = (   0.0296695   0.0171297   0.0000000), wk =   0.1111111
        k(    6) = (   0.0296695   0.0513890   0.0000000), wk =   0.1111111
        k(    7) = (   0.0296695   0.0856484   0.0000000), wk =   0.1111111
        k(    8) = (   0.0296695  -0.0856484   0.0000000), wk =   0.1111111
        k(    9) = (   0.0296695  -0.0513890   0.0000000), wk =   0.1111111
        k(   10) = (   0.0296695  -0.0171297   0.0000000), wk =   0.1111111
        k(   11) = (   0.0593389   0.0342594   0.0000000), wk =   0.1111111
        k(   12) = (   0.0593389   0.0685187   0.0000000), wk =   0.1111111
        k(   13) = (   0.0593389   0.1027781   0.0000000), wk =   0.1111111
        k(   14) = (   0.0593389  -0.0685187   0.0000000), wk =   0.1111111
        k(   15) = (   0.0593389  -0.0342594   0.0000000), wk =   0.1111111
        k(   16) = (   0.0593389   0.0000000   0.0000000), wk =   0.1111111
        k(   17) = (  -0.0890084  -0.0513890   0.0000000), wk =   0.0555556
        k(   18) = (  -0.0890084  -0.0171297   0.0000000), wk =   0.1111111
        k(   19) = (  -0.0890084   0.0171297   0.0000000), wk =   0.1111111
        k(   20) = (  -0.0890084  -0.1541671   0.0000000), wk =   0.0555556

     Largest allocated arrays     est. size (Mb)     dimensions
     Largest temporary arrays     est. size (Mb)     dimensions

     Initial potential from superposition of free atoms
     Check: negative starting charge=   -0.556629

     starting charge  164.99899, renormalised to  171.00000

     negative rho (up, down):  5.769E-01 0.000E+00

     *
     * You are using vdW-DF for exchange-correlation in this calculation.
     * Please cite the following three references that made this development
     * possible:
     *
     *   M. Dion, H. Rydberg, E. Schroder, D. C. Langreth, and
     *   B. I. Lundqvist, Phys. Rev. Lett. 92, 246401 (2004).
     *
     *   T. Thonhauser, V. R. Cooper, S. Li, A. Puzder, P. Hyldgaard, and
     *   D. C. Langreth, Phys. Rev. B 76, 125112 (2007).
     *
     *   G. Roman-Perez and J. M. Soler, Phys. Rev. Lett. 103, 096102 (2009).
     *
     *
     * If you are using vdW-DF2, please also cite:
     *
     *   K. Lee, E. D. Murray, L. Kong, B. I. Lundqvist, and
     *   D. C. Langreth, Phys. Rev. B 82, 081101(R) (2010).
     *
     *
     * If you are calculating the stress with vdW-DF, please also cite:
     *
     *   R. Sabatini, E. Kucukbenli, B. Kolb, T. Thonhauser, and
     *   S. de Gironcoli, J. Phys.: Condens. Matter 24, 424209 (2012).
     *

     Carrying out vdW-DF run using the following parameters:

     Nqs =      20    Nr_points =    1024   r_max =   100.000
     q_mesh =
               0.00001000     0.04494208     0.09755937     0.15916263
               0.23128650     0.31572767     0.41458969     0.53033537
               0.66584808     0.82450364     1.01025438     1.22772762
               1.48234092     1.78043706     2.12944203     2.53805004
               3.01644009     3.57652955     4.23227104     5.00000000

     Gradients computed in reciprocal space

     Adding external electric field

     Computed dipole along edir(3) :
        Dipole               -0.0000 Ry au,         -0.0000 Debye
        Dipole field         -0.0000 Ry au

        Potential amp.        0.0000 Ry
        Total length         45.3004 bohr

     Starting wfc are  135 randomized atomic wfcs

     Self-consistent Calculation

     iteration #  1     ecut=    36.75 Ry     beta=0.10
     Davidson diagonalization with overlap
     ethr =  1.00E-02,  avg # of iterations =  7.7

[...]

     total energy              =   -1898.37174779 Ry
     Harris-Foulkes estimate   =   -1899.23287681 Ry
     estimated scf accuracy    <       5.42303536 Ry

[...]

     End of self-consistent calculation

          k = 0.0000 0.0000 0.0000 ( 17063 PWs)   bands (ev):

   -45.1533 -45.0632 -45.0631 -44.9869 -44.9840 -44.9839 -44.8981 -44.8901
   -44.8711 -44.7808 -44.7806 -44.7349 -44.7349 -44.7135 -44.7135 -44.5830
   -44.5738 -44.5737 -44.5659 -44.5659 -44.5614 -44.5569 -44.5541 -44.5294
   -44.5293 -44.5194 -44.5193  -7.3482  -7.3482  -7.2871  -7.2871  -7.2730
    -7.2237  -7.2237  -7.1965  -7.1917  -7.1917  -7.1518  -7.0207  -7.0207
    -6.9348  -6.9348  -5.7519  -4.0880  -4.0320  -3.3544  -2.7802  -2.6371
    -2.1914  -2.1135  -2.1134  -1.9746  -1.9745  -1.7423  -1.6413  -1.6412
    -1.6111  -1.6110  -1.0373  -1.0373  -0.9061  -0.9060  -0.6825  -0.6462
    -0.4644  -0.1629  -0.1628  -0.0824   0.1310   0.1310   0.5018   0.5019
     0.5892   0.7410   0.7411   0.8728   0.8762   0.8763   0.9216   0.9217
     1.0904   1.0904   1.2497   1.2497   1.5794   1.6789   1.6790   1.8726
     1.9414   2.2002   2.2411   2.3941   2.3941   3.0625   4.0219   4.0261
     4.0261   4.0774   4.2363   4.2363   5.4020   5.6600   6.2371   6.6142
     6.7465   7.2212   7.8010   7.8932   7.8932   7.9937   7.9937   8.1713
     8.8960   8.8960   9.5077

[...]

          k =-0.0890-0.0514 0.0000 ( 17096 PWs)   bands (ev):

[...]

     the Fermi energy is     1.1868 ev

!    total energy              =   -1897.99448977 Ry
     Harris-Foulkes estimate   =   -1897.99449393 Ry
     estimated scf accuracy    <       0.00000048 Ry

     The total energy is the sum of the following terms:

     one-electron contribution =  -15895.92005870 Ry
     hartree contribution      =    8004.00027501 Ry
     xc contribution           =    -401.80362553 Ry
     ewald contribution        =    6395.82886786 Ry
     electric field correction =       0.00000000 Ry
     smearing contrib. (-TS)   =      -0.09994841 Ry

     convergence has been achieved in  16 iterations

 BEEF-vdW xc energy contributions
           1 :   -350.549390239813
           2 :    321.469761379068
           3 :   -271.567627202498
           4 :    213.860535759417
           5 :   -161.128792009742
           6 :    121.708273448354
           7 :   -97.6222527253270
           8 :    85.4428689455652
           9 :   -79.0751973673088
          10 :    72.9620846053747
          11 :   -64.2652435357659
          12 :    53.2804925983646
          13 :   -42.2905802207004
          14 :    33.7490565695284
[...]
     /afs/slac.stanford.edu/u/if/mamunm/psp/gbrv1.5pbe/Rh.UPF
     MD5 check sum: 761627e959a2e3a1f56b0b5fe687810e
     Pseudo is Ultrasoft + core correction, Zval = 15.0
     Generated by new atomic code, or converted to UPF format
     Using radial grid of  969 points,  7 beta functions with:
                l(1) =   0
                l(2) =   0
                l(3) =   1
                l(4) =   1
                l(5) =   2
                l(6) =   2
                l(7) =   2
     Q(r) pseudized with  8 coefficients,  rinner =    1.200   1.200   1.200
                                                       1.200   1.200

     PseudoPot. # 2 for Cd read from file:
     /afs/slac.stanford.edu/u/if/mamunm/psp/gbrv1.5pbe/Cd.UPF
     MD5 check sum: 17164a7926edb8e0dc231208abae86a6
     Pseudo is Ultrasoft + core correction, Zval = 12.0
     Generated by new atomic code, or converted to UPF format
     Using radial grid of  889 points,  6 beta functions with:
                l(1) =   0
                l(2) =   0
                l(3) =   1
                l(4) =   1
                l(5) =   2
                l(6) =   2
     Q(r) pseudized with  6 coefficients,  rinner =    1.000   1.000   1.000
                                                       1.000   1.000

     vdW kernel table read from file vdW_kernel_table
     MD5 check sum: 095c7af220d748ca6e76c0b4c6cfb241

     atomic species   valence    mass     pseudopotential
        Rh1           15.00   102.90550     Rh( 1.00)
        Cd1           12.00   112.41400     Cd( 1.00)

     No symmetry found

   Cartesian axes

     site n.     atom                  positions (alat units)
         1           Rh1 tau(   1) = (   0.0000000   0.0000000  10.0000000  )
         2           Rh1 tau(   2) = (  -1.4043615   2.4324256  10.0000000  )
         3           Rh1 tau(   3) = (   1.4043615   2.4324256  10.0000000  )
         4           Cd1 tau(   4) = (   2.8087231   0.0000000  10.0000000  )
         5           Rh1 tau(   5) = (   2.8087231   1.6216170  12.2933128  )
         6           Rh1 tau(   6) = (   1.4043615   4.0540426  12.2933128  )
         7           Rh1 tau(   7) = (  -1.4043615   4.0540426  12.2933128  )
         8           Cd1 tau(   8) = (   0.0000000   1.6216170  12.2933128  )
         9           Rh1 tau(   9) = (  -0.0000098   3.2758454  14.4889413  )
        10           Rh1 tau(  10) = (   1.4326455   0.7944377  14.4889311  )
        11           Rh1 tau(  11) = (   4.1848381   0.7944716  14.4889467  )
        12           Cd1 tau(  12) = (   2.8087124   3.2431626  14.8412105  )

     number of k points=    20  Fermi-Dirac smearing, width (Ry)=  0.0110
                       cart. coord. in units 2pi/alat
        k(    1) = (   0.0000000   0.0000000   0.0000000), wk =   0.0555556
        k(    2) = (   0.0000000   0.0342594   0.0000000), wk =   0.1111111
        k(    3) = (   0.0000000   0.0685187   0.0000000), wk =   0.1111111
        k(    4) = (   0.0000000  -0.1027781   0.0000000), wk =   0.0555556
        k(    5) = (   0.0296695   0.0171297   0.0000000), wk =   0.1111111
        k(    6) = (   0.0296695   0.0513890   0.0000000), wk =   0.1111111
        k(    7) = (   0.0296695   0.0856484   0.0000000), wk =   0.1111111
        k(    8) = (   0.0296695  -0.0856484   0.0000000), wk =   0.1111111
        k(    9) = (   0.0296695  -0.0513890   0.0000000), wk =   0.1111111
        k(   10) = (   0.0296695  -0.0171297   0.0000000), wk =   0.1111111
        k(   11) = (   0.0593389   0.0342594   0.0000000), wk =   0.1111111
        k(   12) = (   0.0593389   0.0685187   0.0000000), wk =   0.1111111
        k(   13) = (   0.0593389   0.1027781   0.0000000), wk =   0.1111111
        k(   14) = (   0.0593389  -0.0685187   0.0000000), wk =   0.1111111
        k(   15) = (   0.0593389  -0.0342594   0.0000000), wk =   0.1111111
        k(   16) = (   0.0593389   0.0000000   0.0000000), wk =   0.1111111
        k(   17) = (  -0.0890084  -0.0513890   0.0000000), wk =   0.0555556
        k(   18) = (  -0.0890084  -0.0171297   0.0000000), wk =   0.1111111
        k(   19) = (  -0.0890084   0.0171297   0.0000000), wk =   0.1111111
        k(   20) = (  -0.0890084  -0.1541671   0.0000000), wk =   0.0555556

     Largest allocated arrays     est. size (Mb)     dimensions
     Largest temporary arrays     est. size (Mb)     dimensions

     Initial potential from superposition of free atoms
     Check: negative starting charge=   -0.557596

     starting charge  164.99899, renormalised to  171.00000

[...]

     *
     * You are using vdW-DF for exchange-correlation in this calculation.
     * Please cite the following three references that made this development
     * possible:
     *
     *   M. Dion, H. Rydberg, E. Schroder, D. C. Langreth, and
     *   B. I. Lundqvist, Phys. Rev. Lett. 92, 246401 (2004).
     *
     *   T. Thonhauser, V. R. Cooper, S. Li, A. Puzder, P. Hyldgaard, and
     *   D. C. Langreth, Phys. Rev. B 76, 125112 (2007).
     *
     *   G. Roman-Perez and J. M. Soler, Phys. Rev. Lett. 103, 096102 (2009).
     *
     *
     * If you are using vdW-DF2, please also cite:
     *
     *   K. Lee, E. D. Murray, L. Kong, B. I. Lundqvist, and
     *   D. C. Langreth, Phys. Rev. B 82, 081101(R) (2010).
     *
     *
     * If you are calculating the stress with vdW-DF, please also cite:
     *
     *   R. Sabatini, E. Kucukbenli, B. Kolb, T. Thonhauser, and
     *   S. de Gironcoli, J. Phys.: Condens. Matter 24, 424209 (2012).
     *

     Carrying out vdW-DF run using the following parameters:

     Nqs =      20    Nr_points =    1024   r_max =   100.000
     q_mesh =
               0.00001000     0.04494208     0.09755937     0.15916263
               0.23128650     0.31572767     0.41458969     0.53033537
               0.66584808     0.82450364     1.01025438     1.22772762
               1.48234092     1.78043706     2.12944203     2.53805004
               3.01644009     3.57652955     4.23227104     5.00000000

     Gradients computed in reciprocal space

[...]

     Starting wfc are  135 randomized atomic wfcs

     Self-consistent Calculation

[...]

     total energy              =   -1898.01133290 Ry
     Harris-Foulkes estimate   =   -1898.01133361 Ry
     estimated scf accuracy    <       0.00000126 Ry

     iteration # 18     ecut=    36.75 Ry     beta=0.10
     Davidson diagonalization with overlap
     ethr =  7.37E-10,  avg # of iterations =  2.0

[...]

     negative rho (up, down):  5.749E-01 0.000E+00

     Adding external electric field

     Computed dipole along edir(3) :
        Dipole                0.0259 Ry au,          0.0659 Debye
        Dipole field          0.0001 Ry au

        Potential amp.       -0.0065 Ry
        Total length         45.3004 bohr

     End of self-consistent calculation

[...]

          k = 0.0593 0.0000 0.0000 ( 17028 PWs)   bands (ev):

[...]

          k =-0.0890-0.1542 0.0000 ( 17096 PWs)   bands (ev):

   -45.1236 -45.0662 -45.0305 -45.0283 -44.9913 -44.9530 -44.9098 -44.8584
   -44.8250 -44.7689 -44.7626 -44.7225 -44.6785 -44.6753 -44.6588 -44.6517
   -44.6202 -44.6080 -44.6000 -44.5988 -44.5947 -44.5865 -44.5642 -44.5175
   -44.5089 -44.4967 -44.4801  -7.2332  -7.1869  -7.1406  -7.1277  -7.1209
    -7.0872  -7.0828  -7.0474  -7.0238  -6.9927  -6.9911  -6.9796  -6.9600
    -6.9518  -6.8690  -4.1855  -3.9185  -2.9990  -2.9151  -2.6804  -2.6223
    -2.4718  -2.0169  -2.0040  -1.8682  -1.8036  -1.6938  -1.6014  -1.5904
    -1.4854  -1.4784  -1.4163  -1.0974  -1.0422  -0.8996  -0.7725  -0.7128
    -0.5787  -0.5524  -0.4828  -0.4324  -0.3857  -0.3402  -0.2835  -0.2084
    -0.1259  -0.1094   0.0231   0.1874   0.3400   0.3651   0.4414   0.4963
     0.5216   0.6324   0.7403   0.7616   0.7925   0.9213   1.0733   1.1342
     1.3696   1.6656   2.0328   2.4731   2.8186   2.9881   3.8966   3.9005
     4.4305   4.8494   5.2648   6.0185   6.0752   6.8339   6.8547   7.4485
     7.4894   7.7818   7.8117   8.2128   8.5762   8.8127   8.8530   9.2000
     9.2994   9.4355   9.4629

     the Fermi energy is     1.2228 ev

!    total energy              =   -1898.01133201 Ry
     Harris-Foulkes estimate   =   -1898.01133293 Ry
     estimated scf accuracy    <       0.00000020 Ry

     The total energy is the sum of the following terms:

     one-electron contribution =  -15942.85055882 Ry
     hartree contribution      =    8027.50821462 Ry
     xc contribution           =    -401.81287940 Ry
     ewald contribution        =    6419.24178113 Ry
     electric field correction =       0.00000186 Ry
     smearing contrib. (-TS)   =      -0.09789140 Ry

     convergence has been achieved in  18 iterations

 BEEF-vdW xc energy contributions
           1 :   -350.656313990502
           2 :    321.590302707798
           3 :   -271.704804472618
           4 :    214.002344025311
           5 :   -161.251056410469
           6 :    121.783820668205
           7 :   -97.6344810508237
           8 :    85.3986039543020
           9 :   -79.0086860582866
          10 :    72.9239487190409
          11 :   -64.2985211858260
          12 :    53.3959789102754
          13 :   -42.4574036887997
          14 :    33.9095767969628
          15 :   -28.9288913944699
          16 :    26.9903552407922
          17 :   -26.4161486988751
          18 :    25.4352526500439
          19 :   -23.1039115856353
          20 :    19.6295878770777
          21 :   -16.0230536952446
          22 :    13.3698646061140
          23 :   -12.1807474356563
          24 :    12.1680221669300
          25 :   -12.5057375071599
          26 :    12.3582481883086
          27 :   -11.3470799221013
          28 :    9.70367391171050
          29 :   -8.05977942048679
          30 :    7.03412640408015
          31 :   -33.6513505679405
          32 :   -25.0147037133925

     Forces acting on atoms (Ry/au):

     negative rho (up, down):  5.749E-01 0.000E+00
     atom    1 type  1   force =    -0.00000052   -0.00929023    0.01578316
     atom    2 type  1   force =    -0.00804428    0.00464367    0.01578043
     atom    3 type  1   force =     0.00804531    0.00464488    0.01578115
     atom    4 type  2   force =     0.00000448    0.00000634   -0.03541679
     atom    5 type  1   force =     0.00000005    0.01681290    0.00076023
     atom    6 type  1   force =     0.01456208   -0.00840776    0.00076346
     atom    7 type  1   force =    -0.01456392   -0.00840890    0.00076272
     atom    8 type  2   force =     0.00000303   -0.00000388   -0.01853990
     atom    9 type  1   force =     0.00000145    0.00065132    0.00091042
     atom   10 type  1   force =     0.00055840   -0.00032571    0.00090986
     atom   11 type  1   force =    -0.00056222   -0.00032984    0.00090835
     atom   12 type  2   force =    -0.00000386    0.00000721    0.00159690

     Total force =     0.058825     Total SCF correction =     0.001659

     entering subroutine stress ...

     negative rho (up, down):  5.749E-01 0.000E+00
          total   stress  (Ry/bohr**3)                   (kbar)     P=  -28.45
  -0.00022526  -0.00000000  -0.00000000        -33.14     -0.00     -0.00
  -0.00000000  -0.00022525   0.00000000         -0.00    -33.14      0.00
  -0.00000000   0.00000000  -0.00012964         -0.00      0.00    -19.07

 !ASE

     Writing output data file calc.save

     General routines

     Parallel routines

   This run was terminated on:  22:56:12  31Dec2018

   JOB DONE.
Job  /afs/slac/g/suncat/bin/suncat-tsmpirun -x LD_LIBRARY_PATH -wdir /scratch/qe648865_7T4mV pw.x -in pw.inp

TID   HOST_NAME   COMMAND_LINE            STATUS            TERMINATION_TIME
00000 suncat0056 pw.x -in pw.inp   Done                     12/31/2018 22:56:12
00001 suncat0056 pw.x -in pw.inp   Done                     12/31/2018 22:56:12
00002 suncat0056 pw.x -in pw.inp   Done                     12/31/2018 22:56:12
00003 suncat0056 pw.x -in pw.inp   Done                     12/31/2018 22:56:12
00004 suncat0056 pw.x -in pw.inp   Done                     12/31/2018 22:56:12
00005 suncat0056 pw.x -in pw.inp   Done                     12/31/2018 22:56:12
00006 suncat0056 pw.x -in pw.inp   Done                     12/31/2018 22:56:12
00007 suncat0056 pw.x -in pw.inp   Done                     12/31/2018 22:56:12
00008 suncat0052 pw.x -in pw.inp   Done                     12/31/2018 22:56:12
00009 suncat0052 pw.x -in pw.inp   Done                     12/31/2018 22:56:12
00010 suncat0052 pw.x -in pw.inp   Done                     12/31/2018 22:56:12
00011 suncat0052 pw.x -in pw.inp   Done                     12/31/2018 22:56:12
00012 suncat0052 pw.x -in pw.inp   Done                     12/31/2018 22:56:12
00013 suncat0052 pw.x -in pw.inp   Done                     12/31/2018 22:56:12
00014 suncat0052 pw.x -in pw.inp   Done                     12/31/2018 22:56:12
00015 suncat0052 pw.x -in pw.inp   Done                     12/31/2018 22:56:12
00016 suncat0048 pw.x -in pw.inp   Done                     12/31/2018 22:56:12
00017 suncat0048 pw.x -in pw.inp   Done                     12/31/2018 22:56:12
00018 suncat0048 pw.x -in pw.inp   Done                     12/31/2018 22:56:12
00019 suncat0048 pw.x -in pw.inp   Done                     12/31/2018 22:56:12
00020 suncat0048 pw.x -in pw.inp   Done                     12/31/2018 22:56:12
00021 suncat0048 pw.x -in pw.inp   Done                     12/31/2018 22:56:12
00022 suncat0048 pw.x -in pw.inp   Done                     12/31/2018 22:56:12
00023 suncat0048 pw.x -in pw.inp   Done                     12/31/2018 22:56:12
00024 suncat0047 pw.x -in pw.inp   Done                     12/31/2018 22:56:12
00025 suncat0047 pw.x -in pw.inp   Done                     12/31/2018 22:56:12
00026 suncat0047 pw.x -in pw.inp   Done                     12/31/2018 22:56:12
00027 suncat0047 pw.x -in pw.inp   Done                     12/31/2018 22:56:12
00028 suncat0047 pw.x -in pw.inp   Done                     12/31/2018 22:56:12
00029 suncat0047 pw.x -in pw.inp   Done                     12/31/2018 22:56:12
00030 suncat0047 pw.x -in pw.inp   Done                     12/31/2018 22:56:12
00031 suncat0047 pw.x -in pw.inp   Done                     12/31/2018 22:56:12
00032 suncat0041 pw.x -in pw.inp   Done                     12/31/2018 22:56:12
00033 suncat0041 pw.x -in pw.inp   Done                     12/31/2018 22:56:12
00034 suncat0041 pw.x -in pw.inp   Done                     12/31/2018 22:56:12
00035 suncat0041 pw.x -in pw.inp   Done                     12/31/2018 22:56:12
00036 suncat0041 pw.x -in pw.inp   Done                     12/31/2018 22:56:12
00037 suncat0041 pw.x -in pw.inp   Done                     12/31/2018 22:56:12
00038 suncat0041 pw.x -in pw.inp   Done                     12/31/2018 22:56:12
00039 suncat0041 pw.x -in pw.inp   Done                     12/31/2018 22:56:12
00040 suncat0039 pw.x -in pw.inp   Done                     12/31/2018 22:56:12
00041 suncat0039 pw.x -in pw.inp   Done                     12/31/2018 22:56:12
00042 suncat0039 pw.x -in pw.inp   Done                     12/31/2018 22:56:12
00043 suncat0039 pw.x -in pw.inp   Done                     12/31/2018 22:56:12
00044 suncat0039 pw.x -in pw.inp   Done                     12/31/2018 22:56:12
00045 suncat0039 pw.x -in pw.inp   Done                     12/31/2018 22:56:12
00046 suncat0039 pw.x -in pw.inp   Done                     12/31/2018 22:56:12
00047 suncat0039 pw.x -in pw.inp   Done                     12/31/2018 22:56:12
00048 suncat0207 pw.x -in pw.inp   Done                     12/31/2018 22:56:12
00049 suncat0207 pw.x -in pw.inp   Done                     12/31/2018 22:56:12
00050 suncat0207 pw.x -in pw.inp   Done                     12/31/2018 22:56:12
00051 suncat0207 pw.x -in pw.inp   Done                     12/31/2018 22:56:12
00052 suncat0207 pw.x -in pw.inp   Done                     12/31/2018 22:56:12
00053 suncat0207 pw.x -in pw.inp   Done                     12/31/2018 22:56:12
00054 suncat0207 pw.x -in pw.inp   Done                     12/31/2018 22:56:12
00055 suncat0207 pw.x -in pw.inp   Done                     12/31/2018 22:56:12
00056 suncat0206 pw.x -in pw.inp   Done                     12/31/2018 22:56:12
00057 suncat0206 pw.x -in pw.inp   Done                     12/31/2018 22:56:12
00058 suncat0206 pw.x -in pw.inp   Done                     12/31/2018 22:56:12
00059 suncat0206 pw.x -in pw.inp   Done                     12/31/2018 22:56:12
00060 suncat0206 pw.x -in pw.inp   Done                     12/31/2018 22:56:12
00061 suncat0206 pw.x -in pw.inp   Done                     12/31/2018 22:56:12
00062 suncat0206 pw.x -in pw.inp   Done                     12/31/2018 22:56:12
00063 suncat0206 pw.x -in pw.inp   Done                     12/31/2018 22:56:12