     Program PWSCF v.5.1rc2 (svn rev. 11289) starts on  1Jan2019 at 16:33:38

     Current dimensions of program PWSCF are:
     Max number of different atomic species (ntypx) = 10
     Max number of k-points (npk) =  40000
     Max angular momentum in pseudopotentials (lmaxx) =  3
     Presently stress not available with electric field

     IMPORTANT: XC functional enforced from input :
     Exchange-correlation      = BEEF-VDW ( 1  4 27 13 2)
     Any further DFT definition will be discarded
     Please, verify this is what you really want

     Subspace diagonalization in iterative solution of the eigenvalue problem:
     a serial algorithm will be used

     bravais-lattice index     =            0
     lattice parameter (alat)  =       1.8897  a.u.
     unit-cell volume          =    5196.5624 (a.u.)^3
     number of atoms/cell      =           12
     number of atomic types    =            2
     number of electrons       =       156.00
     number of Kohn-Sham states=          108
     kinetic-energy cutoff     =      36.7493  Ry
     charge density cutoff     =     367.4932  Ry
     convergence threshold     =      1.0E-06
     mixing beta               =       0.1000
     number of iterations used =           10  plain     mixing
     Exchange-correlation      = BEEF-VDW ( 1  4 27 13 2)
     nstep                     =           50

     celldm(1)=   1.889726  celldm(2)=   0.000000  celldm(3)=   0.000000
     celldm(4)=   0.000000  celldm(5)=   0.000000  celldm(6)=   0.000000

     crystal axes: (cart. coord. in units of alat)
               a(1) = (   5.978056   0.000000   0.000000 )
               a(2) = (  -2.989028   5.177149   0.000000 )
               a(3) = (   0.000000   0.000000  24.881062 )

     reciprocal axes: (cart. coord. in units 2 pi/alat)
               b(1) = (  0.167278  0.096578  0.000000 )
               b(2) = (  0.000000  0.193157  0.000000 )
               b(3) = (  0.000000  0.000000  0.040191 )

     PseudoPot. # 1 for Ta read from file:
     /afs/slac.stanford.edu/u/if/mamunm/psp/gbrv1.5pbe/Ta.UPF
     MD5 check sum: f8bbe9446314a3b8ea5d9f3e3836c939
     Pseudo is Ultrasoft + core correction, Zval = 13.0
     Generated by new atomic code, or converted to UPF format
     Using radial grid of  921 points,  7 beta functions with:
                l(1) =   0
                l(2) =   0
                l(3) =   1
                l(4) =   1
                l(5) =   2
                l(6) =   2
                l(7) =   3
     Q(r) pseudized with  6 coefficients,  rinner =    1.300   1.300   1.300
                                                       1.300   1.300   1.300
                                                       1.300

     PseudoPot. # 2 for In read from file:
     /afs/slac.stanford.edu/u/if/mamunm/psp/gbrv1.5pbe/In.UPF
     MD5 check sum: 90777abd96fbb83f2e67db2a40c566b9
     Pseudo is Ultrasoft + core correction, Zval = 13.0
     Generated by new atomic code, or converted to UPF format
     Using radial grid of  889 points,  6 beta functions with:
                l(1) =   0
                l(2) =   0
                l(3) =   1
                l(4) =   1
                l(5) =   2
                l(6) =   2
     Q(r) pseudized with  6 coefficients,  rinner =    1.400   1.400   1.400
                                                       1.400   1.400

     vdW kernel table read from file vdW_kernel_table
     MD5 check sum: 095c7af220d748ca6e76c0b4c6cfb241

     atomic species   valence    mass     pseudopotential
        Ta1           13.00   180.94788     Ta( 1.00)
        In1           13.00   114.81800     In( 1.00)

     No symmetry found

   Cartesian axes

     site n.     atom                  positions (alat units)
         1           Ta1 tau(   1) = (   0.0000000   0.0000000  10.0000000  )
         2           Ta1 tau(   2) = (  -1.4945141   2.5885743  10.0000000  )
         3           Ta1 tau(   3) = (   1.4945141   2.5885743  10.0000000  )
         4           In1 tau(   4) = (   2.9890281   0.0000000  10.0000000  )
         5           Ta1 tau(   5) = (   2.9890281   1.7257162  12.4405312  )
         6           Ta1 tau(   6) = (   1.4945141   4.3142905  12.4405312  )
         7           Ta1 tau(   7) = (  -1.4945141   4.3142905  12.4405312  )
         8           In1 tau(   8) = (   0.0000000   1.7257162  12.4405312  )
         9           Ta1 tau(   9) = (  -0.0000000   3.4514324  14.8810625  )
        10           Ta1 tau(  10) = (   1.4945141   0.8628581  14.8810625  )
        11           Ta1 tau(  11) = (   4.4835422   0.8628581  14.8810625  )
        12           In1 tau(  12) = (   2.9890281   3.4514324  14.8810625  )

     number of k points=    20  Fermi-Dirac smearing, width (Ry)=  0.0110
                       cart. coord. in units 2pi/alat
        k(    1) = (   0.0000000   0.0000000   0.0000000), wk =   0.0555556
        k(    2) = (   0.0000000   0.0321928   0.0000000), wk =   0.1111111
        k(    3) = (   0.0000000   0.0643855   0.0000000), wk =   0.1111111
        k(    4) = (   0.0000000  -0.0965783   0.0000000), wk =   0.0555556
        k(    5) = (   0.0278797   0.0160964   0.0000000), wk =   0.1111111
        k(    6) = (   0.0278797   0.0482891   0.0000000), wk =   0.1111111
        k(    7) = (   0.0278797   0.0804819   0.0000000), wk =   0.1111111
        k(    8) = (   0.0278797  -0.0804819   0.0000000), wk =   0.1111111
        k(    9) = (   0.0278797  -0.0482891   0.0000000), wk =   0.1111111
        k(   10) = (   0.0278797  -0.0160964   0.0000000), wk =   0.1111111
        k(   11) = (   0.0557595   0.0321928   0.0000000), wk =   0.1111111
        k(   12) = (   0.0557595   0.0643855   0.0000000), wk =   0.1111111
        k(   13) = (   0.0557595   0.0965783   0.0000000), wk =   0.1111111
        k(   14) = (   0.0557595  -0.0643855   0.0000000), wk =   0.1111111
        k(   15) = (   0.0557595  -0.0321928   0.0000000), wk =   0.1111111
        k(   16) = (   0.0557595   0.0000000   0.0000000), wk =   0.1111111
        k(   17) = (  -0.0836392  -0.0482891   0.0000000), wk =   0.0555556
        k(   18) = (  -0.0836392  -0.0160964   0.0000000), wk =   0.1111111
        k(   19) = (  -0.0836392   0.0160964   0.0000000), wk =   0.1111111
        k(   20) = (  -0.0836392  -0.1448674   0.0000000), wk =   0.0555556

     Largest allocated arrays     est. size (Mb)     dimensions
     Largest temporary arrays     est. size (Mb)     dimensions

     Initial potential from superposition of free atoms
     Check: negative starting charge=   -0.843684

     starting charge  151.48999, renormalised to  156.00000

     negative rho (up, down):  8.688E-01 0.000E+00

     *
     * You are using vdW-DF for exchange-correlation in this calculation.
     * Please cite the following three references that made this development
     * possible:
     *
     *   M. Dion, H. Rydberg, E. Schroder, D. C. Langreth, and
     *   B. I. Lundqvist, Phys. Rev. Lett. 92, 246401 (2004).
     *
     *   T. Thonhauser, V. R. Cooper, S. Li, A. Puzder, P. Hyldgaard, and
     *   D. C. Langreth, Phys. Rev. B 76, 125112 (2007).
     *
     *   G. Roman-Perez and J. M. Soler, Phys. Rev. Lett. 103, 096102 (2009).
     *
     *
     * If you are using vdW-DF2, please also cite:
     *
     *   K. Lee, E. D. Murray, L. Kong, B. I. Lundqvist, and
     *   D. C. Langreth, Phys. Rev. B 82, 081101(R) (2010).
     *
     *
     * If you are calculating the stress with vdW-DF, please also cite:
     *
     *   R. Sabatini, E. Kucukbenli, B. Kolb, T. Thonhauser, and
     *   S. de Gironcoli, J. Phys.: Condens. Matter 24, 424209 (2012).
     *

     Carrying out vdW-DF run using the following parameters:

     Nqs =      20    Nr_points =    1024   r_max =   100.000
     q_mesh =
               0.00001000     0.04494208     0.09755937     0.15916263
               0.23128650     0.31572767     0.41458969     0.53033537
               0.66584808     0.82450364     1.01025438     1.22772762
               1.48234092     1.78043706     2.12944203     2.53805004
               3.01644009     3.57652955     4.23227104     5.00000000

     Gradients computed in reciprocal space

     Adding external electric field

     Computed dipole along edir(3) :
        Dipole                0.0000 Ry au,          0.0000 Debye
        Dipole field          0.0000 Ry au

        Potential amp.       -0.0000 Ry
        Total length         45.8429 bohr

     Starting wfc are  144 randomized atomic wfcs

     Self-consistent Calculation

     iteration #  1     ecut=    36.75 Ry     beta=0.10
     Davidson diagonalization with overlap
     ethr =  1.00E-02,  avg # of iterations =  3.2

[...]

     total energy              =   -1693.32488165 Ry
     Harris-Foulkes estimate   =   -1693.82906826 Ry
     estimated scf accuracy    <       3.35843369 Ry

[...]

     End of self-consistent calculation

          k = 0.0000 0.0000 0.0000 ( 19507 PWs)   bands (ev):

   -66.7440 -66.7424 -66.7025 -66.7025 -66.7021 -66.7021 -66.5191 -66.4792
   -66.4792 -33.3360 -33.3073 -33.2899 -33.2428 -33.2428 -33.2298 -33.2298
   -33.1965 -33.1936 -33.1936 -33.1662 -33.0970 -33.0970 -32.9636 -32.9636
   -32.9175 -32.8860 -32.7327 -32.7327 -32.7067 -32.7016 -32.6617 -32.6617
   -32.6540 -32.6540 -32.5019 -32.5019 -12.7767 -12.7767 -12.7658 -12.7238
   -12.7238 -12.5278 -12.5105 -12.5092 -12.5092 -12.5012 -12.5012 -12.4661
   -12.4661 -12.4552 -12.4552  -6.9292  -5.2811  -4.6696  -2.5626  -2.3542
    -2.3172  -1.4244  -1.4244  -0.8331  -0.8331  -0.8317  -0.8317  -0.5883
    -0.5119  -0.2474  -0.2474   0.3048   0.3048   0.8813   0.9134   1.2721
     1.4379   1.4379   1.5966   1.5966   1.7665   1.7665   1.7934   1.7934
     1.9948   2.3121   2.3343   3.0113   3.5925   3.7387   3.7387   3.9438
     3.9751   3.9752   4.1621   4.1621   4.4690   4.5349   4.5349   4.5370
     4.5370   4.9714   4.9714   5.2503   5.2503   5.4153   5.4153   5.6714
     5.7096   5.8735   5.8784   6.1047

[...]

          k =-0.0836-0.0483 0.0000 ( 19556 PWs)   bands (ev):

[...]

     the Fermi energy is     1.6995 ev

!    total energy              =   -1692.94844653 Ry
     Harris-Foulkes estimate   =   -1692.94844486 Ry
     estimated scf accuracy    <       0.00000030 Ry

     The total energy is the sum of the following terms:

     one-electron contribution =  -11356.94123978 Ry
     hartree contribution      =    5685.82441660 Ry
     xc contribution           =    -509.67673228 Ry
     ewald contribution        =    4487.93644606 Ry
     electric field correction =       0.00000000 Ry
     smearing contrib. (-TS)   =      -0.09133713 Ry

     convergence has been achieved in  16 iterations

 BEEF-vdW xc energy contributions
           1 :   -448.127813320488
           2 :    413.133698015240
           3 :   -352.325603514934
           4 :    280.265188578292
           5 :   -211.395410259559
           6 :    155.384839114355
           7 :   -115.138013255764
           8 :    87.8748931934005
           9 :   -68.2282286230495
          10 :    51.5294572049765
          11 :   -35.7142288665493
          12 :    21.2831878753896
          13 :   -9.86825155667594
          14 :    2.55348120430813
[...]
     /afs/slac.stanford.edu/u/if/mamunm/psp/gbrv1.5pbe/Ta.UPF
     MD5 check sum: f8bbe9446314a3b8ea5d9f3e3836c939
     Pseudo is Ultrasoft + core correction, Zval = 13.0
     Generated by new atomic code, or converted to UPF format
     Using radial grid of  921 points,  7 beta functions with:
                l(1) =   0
                l(2) =   0
                l(3) =   1
                l(4) =   1
                l(5) =   2
                l(6) =   2
                l(7) =   3
     Q(r) pseudized with  6 coefficients,  rinner =    1.300   1.300   1.300
                                                       1.300   1.300   1.300
                                                       1.300

     PseudoPot. # 2 for In read from file:
     /afs/slac.stanford.edu/u/if/mamunm/psp/gbrv1.5pbe/In.UPF
     MD5 check sum: 90777abd96fbb83f2e67db2a40c566b9
     Pseudo is Ultrasoft + core correction, Zval = 13.0
     Generated by new atomic code, or converted to UPF format
     Using radial grid of  889 points,  6 beta functions with:
                l(1) =   0
                l(2) =   0
                l(3) =   1
                l(4) =   1
                l(5) =   2
                l(6) =   2
     Q(r) pseudized with  6 coefficients,  rinner =    1.400   1.400   1.400
                                                       1.400   1.400

     vdW kernel table read from file vdW_kernel_table
     MD5 check sum: 095c7af220d748ca6e76c0b4c6cfb241

     atomic species   valence    mass     pseudopotential
        Ta1           13.00   180.94788     Ta( 1.00)
        In1           13.00   114.81800     In( 1.00)

     No symmetry found

   Cartesian axes

     site n.     atom                  positions (alat units)
         1           Ta1 tau(   1) = (   0.0000000   0.0000000  10.0000000  )
         2           Ta1 tau(   2) = (  -1.4945141   2.5885743  10.0000000  )
         3           Ta1 tau(   3) = (   1.4945141   2.5885743  10.0000000  )
         4           In1 tau(   4) = (   2.9890281   0.0000000  10.0000000  )
         5           Ta1 tau(   5) = (   2.9890281   1.7257162  12.4405312  )
         6           Ta1 tau(   6) = (   1.4945141   4.3142905  12.4405312  )
         7           Ta1 tau(   7) = (  -1.4945141   4.3142905  12.4405312  )
         8           In1 tau(   8) = (   0.0000000   1.7257162  12.4405312  )
         9           Ta1 tau(   9) = (   0.0000021   3.4964505  14.7346056  )
        10           Ta1 tau(  10) = (   1.5334943   0.8403511  14.7346096  )
        11           Ta1 tau(  11) = (   4.4445736   0.8403551  14.7346163  )
        12           In1 tau(  12) = (   2.9890361   3.4514350  15.3199045  )

     number of k points=    20  Fermi-Dirac smearing, width (Ry)=  0.0110
                       cart. coord. in units 2pi/alat
        k(    1) = (   0.0000000   0.0000000   0.0000000), wk =   0.0555556
        k(    2) = (   0.0000000   0.0321928   0.0000000), wk =   0.1111111
        k(    3) = (   0.0000000   0.0643855   0.0000000), wk =   0.1111111
        k(    4) = (   0.0000000  -0.0965783   0.0000000), wk =   0.0555556
        k(    5) = (   0.0278797   0.0160964   0.0000000), wk =   0.1111111
        k(    6) = (   0.0278797   0.0482891   0.0000000), wk =   0.1111111
        k(    7) = (   0.0278797   0.0804819   0.0000000), wk =   0.1111111
        k(    8) = (   0.0278797  -0.0804819   0.0000000), wk =   0.1111111
        k(    9) = (   0.0278797  -0.0482891   0.0000000), wk =   0.1111111
        k(   10) = (   0.0278797  -0.0160964   0.0000000), wk =   0.1111111
        k(   11) = (   0.0557595   0.0321928   0.0000000), wk =   0.1111111
        k(   12) = (   0.0557595   0.0643855   0.0000000), wk =   0.1111111
        k(   13) = (   0.0557595   0.0965783   0.0000000), wk =   0.1111111
        k(   14) = (   0.0557595  -0.0643855   0.0000000), wk =   0.1111111
        k(   15) = (   0.0557595  -0.0321928   0.0000000), wk =   0.1111111
        k(   16) = (   0.0557595   0.0000000   0.0000000), wk =   0.1111111
        k(   17) = (  -0.0836392  -0.0482891   0.0000000), wk =   0.0555556
        k(   18) = (  -0.0836392  -0.0160964   0.0000000), wk =   0.1111111
        k(   19) = (  -0.0836392   0.0160964   0.0000000), wk =   0.1111111
        k(   20) = (  -0.0836392  -0.1448674   0.0000000), wk =   0.0555556

     Largest allocated arrays     est. size (Mb)     dimensions
     Largest temporary arrays     est. size (Mb)     dimensions

     Initial potential from superposition of free atoms
     Check: negative starting charge=   -0.845666

     starting charge  151.48999, renormalised to  156.00000

[...]

     *
     * You are using vdW-DF for exchange-correlation in this calculation.
     * Please cite the following three references that made this development
     * possible:
     *
     *   M. Dion, H. Rydberg, E. Schroder, D. C. Langreth, and
     *   B. I. Lundqvist, Phys. Rev. Lett. 92, 246401 (2004).
     *
     *   T. Thonhauser, V. R. Cooper, S. Li, A. Puzder, P. Hyldgaard, and
     *   D. C. Langreth, Phys. Rev. B 76, 125112 (2007).
     *
     *   G. Roman-Perez and J. M. Soler, Phys. Rev. Lett. 103, 096102 (2009).
     *
     *
     * If you are using vdW-DF2, please also cite:
     *
     *   K. Lee, E. D. Murray, L. Kong, B. I. Lundqvist, and
     *   D. C. Langreth, Phys. Rev. B 82, 081101(R) (2010).
     *
     *
     * If you are calculating the stress with vdW-DF, please also cite:
     *
     *   R. Sabatini, E. Kucukbenli, B. Kolb, T. Thonhauser, and
     *   S. de Gironcoli, J. Phys.: Condens. Matter 24, 424209 (2012).
     *

     Carrying out vdW-DF run using the following parameters:

     Nqs =      20    Nr_points =    1024   r_max =   100.000
     q_mesh =
               0.00001000     0.04494208     0.09755937     0.15916263
               0.23128650     0.31572767     0.41458969     0.53033537
               0.66584808     0.82450364     1.01025438     1.22772762
               1.48234092     1.78043706     2.12944203     2.53805004
               3.01644009     3.57652955     4.23227104     5.00000000

     Gradients computed in reciprocal space

[...]

     Starting wfc are  144 randomized atomic wfcs

     Self-consistent Calculation

[...]

     total energy              =   -1692.99803797 Ry
     Harris-Foulkes estimate   =   -1692.99803678 Ry
     estimated scf accuracy    <       0.00000133 Ry

     iteration # 17     ecut=    36.75 Ry     beta=0.10
     Davidson diagonalization with overlap
     ethr =  8.52E-10,  avg # of iterations =  2.0

[...]

     negative rho (up, down):  8.823E-01 0.000E+00

     Adding external electric field

     Computed dipole along edir(3) :
        Dipole               -0.0198 Ry au,         -0.0503 Debye
        Dipole field         -0.0000 Ry au

        Potential amp.        0.0044 Ry
        Total length         45.8429 bohr

     End of self-consistent calculation

[...]

          k = 0.0558 0.0000 0.0000 ( 19539 PWs)   bands (ev):

[...]

          k =-0.0836-0.1449 0.0000 ( 19556 PWs)   bands (ev):

   -66.7711 -66.7576 -66.7439 -66.6496 -66.6278 -66.6157 -66.5026 -66.4902
   -66.4776 -33.3069 -33.3006 -33.2766 -33.2022 -33.1971 -33.1829 -33.1672
   -33.1296 -33.1267 -33.0874 -33.0562 -33.0481 -33.0403 -33.0320 -32.9630
   -32.9602 -32.8825 -32.8591 -32.8188 -32.8025 -32.7972 -32.7236 -32.6773
   -32.6266 -32.6140 -32.5811 -32.5093 -12.8303 -12.8093 -12.8037 -12.7744
   -12.7704 -12.5586 -12.5285 -12.5231 -12.5071 -12.5004 -12.4042 -12.3691
   -12.3643 -12.3578 -12.3457  -5.5293  -4.9684  -3.9533  -3.4068  -2.5731
    -2.4238  -2.2122  -1.3940  -0.9326  -0.7614  -0.7527  -0.4044  -0.3102
    -0.3066  -0.0507   0.1736   0.4144   0.4724   0.5524   0.6165   0.6671
     0.8118   0.9453   1.0501   1.1690   1.3318   1.4534   1.7962   1.8890
     1.9352   2.1260   2.2890   2.3559   2.8823   3.3206   3.4012   3.4982
     3.6101   3.7504   3.7931   3.8097   3.9761   4.0545   4.1658   4.2890
     4.4027   4.4477   4.5735   4.7547   5.3536   5.4975   5.5132   5.6390
     5.7919   6.5368   6.7778   6.9338

     the Fermi energy is     1.6671 ev

!    total energy              =   -1692.99804012 Ry
     Harris-Foulkes estimate   =   -1692.99803800 Ry
     estimated scf accuracy    <       0.00000038 Ry

     The total energy is the sum of the following terms:

     one-electron contribution =  -11344.27157419 Ry
     hartree contribution      =    5679.49908706 Ry
     xc contribution           =    -509.76933127 Ry
     ewald contribution        =    4481.62524101 Ry
     electric field correction =       0.00000095 Ry
     smearing contrib. (-TS)   =      -0.08146367 Ry

     convergence has been achieved in  17 iterations

 BEEF-vdW xc energy contributions
           1 :   -448.488747764052
           2 :    413.496131422437
           3 :   -352.687724542434
           4 :    280.615508449460
           5 :   -211.710772992288
           6 :    155.638087699112
           7 :   -115.311916314277
           8 :    87.9746989322416
           9 :   -68.2854598522539
          10 :    51.5924303457184
          11 :   -35.8262205468960
          12 :    21.4569736011521
          13 :   -10.0724689043047
          14 :    2.72449671616204
          15 :   0.955858088444074
          16 :   -2.53849116766639
          17 :    3.83390681918974
          18 :   -5.90793195005438
          19 :    8.66373710002892
          20 :   -11.1549176536997
          21 :    12.3456516762296
          22 :   -11.8186694994750
          23 :    10.0255126434384
          24 :   -7.99006860413772
          25 :    6.70279153624608
          26 :   -6.59409512553123
          27 :    7.37963018293550
          28 :   -8.31996085081846
          29 :    8.69350194676986
          30 :   -8.18855669414972
          31 :   -40.1193829428474
          32 :   -29.7100934005218

     Forces acting on atoms (Ry/au):

     negative rho (up, down):  8.823E-01 0.000E+00
     atom    1 type  1   force =     0.00000091   -0.00965296    0.03016251
     atom    2 type  1   force =    -0.00835895    0.00482739    0.03016330
     atom    3 type  1   force =     0.00835934    0.00482657    0.03016163
     atom    4 type  2   force =     0.00000120    0.00000095   -0.05987365
     atom    5 type  1   force =     0.00000112    0.01956098    0.00057130
     atom    6 type  1   force =     0.01694124   -0.00977972    0.00057064
     atom    7 type  1   force =    -0.01694063   -0.00978058    0.00056974
     atom    8 type  2   force =     0.00000045    0.00000016   -0.03258079
     atom    9 type  1   force =    -0.00000012    0.00047557    0.00005560
     atom   10 type  1   force =     0.00041389   -0.00023807    0.00005422
     atom   11 type  1   force =    -0.00041462   -0.00023821    0.00005362
     atom   12 type  2   force =    -0.00000382   -0.00000207    0.00009188

     Total force =     0.093834     Total SCF correction =     0.002305

     entering subroutine stress ...

     negative rho (up, down):  8.823E-01 0.000E+00
          total   stress  (Ry/bohr**3)                   (kbar)     P=  -20.50
  -0.00017732  -0.00000000  -0.00000000        -26.08     -0.00     -0.00
  -0.00000000  -0.00017732  -0.00000000         -0.00    -26.08     -0.00
  -0.00000000  -0.00000000  -0.00006339         -0.00     -0.00     -9.32

 !ASE

     Writing output data file calc.save

     General routines

     Parallel routines

   This run was terminated on:  17:59:43   1Jan2019

   JOB DONE.
Job  /afs/slac/g/suncat/bin/suncat-tsmpirun -x LD_LIBRARY_PATH -wdir /scratch/qe649104_YIuct pw.x -in pw.inp

TID   HOST_NAME   COMMAND_LINE            STATUS            TERMINATION_TIME
00000 suncat0058 pw.x -in pw.inp   Done                     01/01/2019 17:59:43
00001 suncat0058 pw.x -in pw.inp   Done                     01/01/2019 17:59:43
00002 suncat0058 pw.x -in pw.inp   Done                     01/01/2019 17:59:43
00003 suncat0058 pw.x -in pw.inp   Done                     01/01/2019 17:59:43
00004 suncat0058 pw.x -in pw.inp   Done                     01/01/2019 17:59:43
00005 suncat0058 pw.x -in pw.inp   Done                     01/01/2019 17:59:43
00006 suncat0058 pw.x -in pw.inp   Done                     01/01/2019 17:59:43
00007 suncat0058 pw.x -in pw.inp   Done                     01/01/2019 17:59:43
00008 suncat0056 pw.x -in pw.inp   Done                     01/01/2019 17:59:43
00009 suncat0056 pw.x -in pw.inp   Done                     01/01/2019 17:59:43
00010 suncat0056 pw.x -in pw.inp   Done                     01/01/2019 17:59:43
00011 suncat0056 pw.x -in pw.inp   Done                     01/01/2019 17:59:43
00012 suncat0056 pw.x -in pw.inp   Done                     01/01/2019 17:59:43
00013 suncat0056 pw.x -in pw.inp   Done                     01/01/2019 17:59:43
00014 suncat0056 pw.x -in pw.inp   Done                     01/01/2019 17:59:43
00015 suncat0056 pw.x -in pw.inp   Done                     01/01/2019 17:59:43
00016 suncat0054 pw.x -in pw.inp   Done                     01/01/2019 17:59:43
00017 suncat0054 pw.x -in pw.inp   Done                     01/01/2019 17:59:43
00018 suncat0054 pw.x -in pw.inp   Done                     01/01/2019 17:59:43
00019 suncat0054 pw.x -in pw.inp   Done                     01/01/2019 17:59:43
00020 suncat0054 pw.x -in pw.inp   Done                     01/01/2019 17:59:43
00021 suncat0054 pw.x -in pw.inp   Done                     01/01/2019 17:59:43
00022 suncat0054 pw.x -in pw.inp   Done                     01/01/2019 17:59:43
00023 suncat0054 pw.x -in pw.inp   Done                     01/01/2019 17:59:43
00024 suncat0052 pw.x -in pw.inp   Done                     01/01/2019 17:59:43
00025 suncat0052 pw.x -in pw.inp   Done                     01/01/2019 17:59:43
00026 suncat0052 pw.x -in pw.inp   Done                     01/01/2019 17:59:43
00027 suncat0052 pw.x -in pw.inp   Done                     01/01/2019 17:59:43
00028 suncat0052 pw.x -in pw.inp   Done                     01/01/2019 17:59:43
00029 suncat0052 pw.x -in pw.inp   Done                     01/01/2019 17:59:43
00030 suncat0052 pw.x -in pw.inp   Done                     01/01/2019 17:59:43
00031 suncat0052 pw.x -in pw.inp   Done                     01/01/2019 17:59:43
00032 suncat0048 pw.x -in pw.inp   Done                     01/01/2019 17:59:43
00033 suncat0048 pw.x -in pw.inp   Done                     01/01/2019 17:59:43
00034 suncat0048 pw.x -in pw.inp   Done                     01/01/2019 17:59:43
00035 suncat0048 pw.x -in pw.inp   Done                     01/01/2019 17:59:43
00036 suncat0048 pw.x -in pw.inp   Done                     01/01/2019 17:59:43
00037 suncat0048 pw.x -in pw.inp   Done                     01/01/2019 17:59:43
00038 suncat0048 pw.x -in pw.inp   Done                     01/01/2019 17:59:43
00039 suncat0048 pw.x -in pw.inp   Done                     01/01/2019 17:59:43
00040 suncat0047 pw.x -in pw.inp   Done                     01/01/2019 17:59:43
00041 suncat0047 pw.x -in pw.inp   Done                     01/01/2019 17:59:43
00042 suncat0047 pw.x -in pw.inp   Done                     01/01/2019 17:59:43
00043 suncat0047 pw.x -in pw.inp   Done                     01/01/2019 17:59:43
00044 suncat0047 pw.x -in pw.inp   Done                     01/01/2019 17:59:43
00045 suncat0047 pw.x -in pw.inp   Done                     01/01/2019 17:59:43
00046 suncat0047 pw.x -in pw.inp   Done                     01/01/2019 17:59:43
00047 suncat0047 pw.x -in pw.inp   Done                     01/01/2019 17:59:43
00048 suncat0121 pw.x -in pw.inp   Done                     01/01/2019 17:59:43
00049 suncat0121 pw.x -in pw.inp   Done                     01/01/2019 17:59:43
00050 suncat0121 pw.x -in pw.inp   Done                     01/01/2019 17:59:43
00051 suncat0121 pw.x -in pw.inp   Done                     01/01/2019 17:59:43
00052 suncat0121 pw.x -in pw.inp   Done                     01/01/2019 17:59:43
00053 suncat0121 pw.x -in pw.inp   Done                     01/01/2019 17:59:43
00054 suncat0121 pw.x -in pw.inp   Done                     01/01/2019 17:59:43
00055 suncat0121 pw.x -in pw.inp   Done                     01/01/2019 17:59:43
00056 suncat0115 pw.x -in pw.inp   Done                     01/01/2019 17:59:43
00057 suncat0115 pw.x -in pw.inp   Done                     01/01/2019 17:59:43
00058 suncat0115 pw.x -in pw.inp   Done                     01/01/2019 17:59:43
00059 suncat0115 pw.x -in pw.inp   Done                     01/01/2019 17:59:43
00060 suncat0115 pw.x -in pw.inp   Done                     01/01/2019 17:59:43
00061 suncat0115 pw.x -in pw.inp   Done                     01/01/2019 17:59:43
00062 suncat0115 pw.x -in pw.inp   Done                     01/01/2019 17:59:43
00063 suncat0115 pw.x -in pw.inp   Done                     01/01/2019 17:59:43