     Program PWSCF v.5.1rc2 (svn rev. 11289) starts on 25Dec2018 at 20:28:20

     Current dimensions of program PWSCF are:
     Max number of different atomic species (ntypx) = 10
     Max number of k-points (npk) =  40000
     Max angular momentum in pseudopotentials (lmaxx) =  3
     Presently stress not available with electric field

     IMPORTANT: XC functional enforced from input :
     Exchange-correlation      = BEEF-VDW ( 1  4 27 13 2)
     Any further DFT definition will be discarded
     Please, verify this is what you really want

     Subspace diagonalization in iterative solution of the eigenvalue problem:
     a serial algorithm will be used

     Generating pointlists ...
     new r_m :   0.4125 (alat units)  0.7795 (a.u.) for type    1
     new r_m :   0.4125 (alat units)  0.7795 (a.u.) for type    2

     bravais-lattice index     =            0
     lattice parameter (alat)  =       1.8897  a.u.
     unit-cell volume          =    4418.1288 (a.u.)^3
     number of atoms/cell      =           12
     number of atomic types    =            2
     number of electrons       =       186.00
     number of Kohn-Sham states=          123
     kinetic-energy cutoff     =      36.7493  Ry
     charge density cutoff     =     367.4932  Ry
     convergence threshold     =      1.0E-06
     mixing beta               =       0.1000
     number of iterations used =           10  plain     mixing
     Exchange-correlation      = BEEF-VDW ( 1  4 27 13 2)
     nstep                     =           50

     celldm(1)=   1.889726  celldm(2)=   0.000000  celldm(3)=   0.000000
     celldm(4)=   0.000000  celldm(5)=   0.000000  celldm(6)=   0.000000

     crystal axes: (cart. coord. in units of alat)
               a(1) = (   5.551170   0.000000   0.000000 )
               a(2) = (  -2.775585   4.807455   0.000000 )
               a(3) = (   0.000000   0.000000  24.532512 )

     reciprocal axes: (cart. coord. in units 2 pi/alat)
               b(1) = (  0.180142  0.104005  0.000000 )
               b(2) = (  0.000000  0.208010  0.000000 )
               b(3) = (  0.000000  0.000000  0.040762 )

     PseudoPot. # 1 for Fe read from file:
     /afs/slac.stanford.edu/u/if/mamunm/psp/gbrv1.5pbe/Fe.UPF
     MD5 check sum: a130daea23fe5165f5d574ae7f82ed95
     Pseudo is Ultrasoft + core correction, Zval = 16.0
     Generated by new atomic code, or converted to UPF format
     Using radial grid of  861 points,  6 beta functions with:
                l(1) =   0
                l(2) =   0
                l(3) =   1
                l(4) =   1
                l(5) =   2
                l(6) =   2
     Q(r) pseudized with  8 coefficients,  rinner =    1.000   1.000   1.000
                                                       1.000   1.000

     PseudoPot. # 2 for Pb read from file:
     /afs/slac.stanford.edu/u/if/mamunm/psp/gbrv1.5pbe/Pb.UPF
     MD5 check sum: 3d1c1779aa92214d1e8f3a7db79003e2
     Pseudo is Ultrasoft + core correction, Zval = 14.0
     Generated by new atomic code, or converted to UPF format
     Using radial grid of  899 points,  6 beta functions with:
                l(1) =   0
                l(2) =   0
                l(3) =   1
                l(4) =   1
                l(5) =   2
                l(6) =   2
     Q(r) pseudized with  6 coefficients,  rinner =    1.000   1.000   1.000
                                                       1.000   1.000

     vdW kernel table read from file vdW_kernel_table
     MD5 check sum: 095c7af220d748ca6e76c0b4c6cfb241

     atomic species   valence    mass     pseudopotential
        Fe1           16.00    55.84500     Fe( 1.00)
        Pb1           14.00   207.20000     Pb( 1.00)

     Starting magnetic structure
     atomic species   magnetization
        Fe1          0.125
        Pb1          0.143

     No symmetry found

   Cartesian axes

     site n.     atom                  positions (alat units)
         1           Fe1 tau(   1) = (   0.0000000   0.0000000  10.0000000  )
         2           Fe1 tau(   2) = (  -1.3877926   2.4037273  10.0000000  )
         3           Fe1 tau(   3) = (   1.3877926   2.4037273  10.0000000  )
         4           Pb1 tau(   4) = (   2.7755852   0.0000000  10.0000000  )
         5           Fe1 tau(   5) = (   2.7755852   1.6024849  12.2662558  )
         6           Fe1 tau(   6) = (   1.3877926   4.0062122  12.2662558  )
         7           Fe1 tau(   7) = (  -1.3877926   4.0062122  12.2662558  )
         8           Pb1 tau(   8) = (   0.0000000   1.6024849  12.2662558  )
         9           Fe1 tau(   9) = (  -0.0000000   3.2049698  14.5325117  )
        10           Fe1 tau(  10) = (   1.3877926   0.8012424  14.5325117  )
        11           Fe1 tau(  11) = (   4.1633778   0.8012424  14.5325117  )
        12           Pb1 tau(  12) = (   2.7755852   3.2049698  14.5325117  )

     number of k points=    40  Fermi-Dirac smearing, width (Ry)=  0.0110
                       cart. coord. in units 2pi/alat
        k(    1) = (   0.0000000   0.0000000   0.0000000), wk =   0.0277778
        k(    2) = (   0.0000000   0.0346684   0.0000000), wk =   0.0555556
        k(    3) = (   0.0000000   0.0693368   0.0000000), wk =   0.0555556
        k(    4) = (   0.0000000  -0.1040051   0.0000000), wk =   0.0277778
        k(    5) = (   0.0300237   0.0173342   0.0000000), wk =   0.0555556
        k(    6) = (   0.0300237   0.0520026   0.0000000), wk =   0.0555556
        k(    7) = (   0.0300237   0.0866710   0.0000000), wk =   0.0555556
        k(    8) = (   0.0300237  -0.0866710   0.0000000), wk =   0.0555556
        k(    9) = (   0.0300237  -0.0520026   0.0000000), wk =   0.0555556
        k(   10) = (   0.0300237  -0.0173342   0.0000000), wk =   0.0555556
        k(   11) = (   0.0600474   0.0346684   0.0000000), wk =   0.0555556
        k(   12) = (   0.0600474   0.0693368   0.0000000), wk =   0.0555556
        k(   13) = (   0.0600474   0.1040051   0.0000000), wk =   0.0555556
        k(   14) = (   0.0600474  -0.0693368   0.0000000), wk =   0.0555556
        k(   15) = (   0.0600474  -0.0346684   0.0000000), wk =   0.0555556
        k(   16) = (   0.0600474   0.0000000   0.0000000), wk =   0.0555556
        k(   17) = (  -0.0900711  -0.0520026   0.0000000), wk =   0.0277778
        k(   18) = (  -0.0900711  -0.0173342   0.0000000), wk =   0.0555556
        k(   19) = (  -0.0900711   0.0173342   0.0000000), wk =   0.0555556
        k(   20) = (  -0.0900711  -0.1560077   0.0000000), wk =   0.0277778
        k(   21) = (   0.0000000   0.0000000   0.0000000), wk =   0.0277778
        k(   22) = (   0.0000000   0.0346684   0.0000000), wk =   0.0555556
        k(   23) = (   0.0000000   0.0693368   0.0000000), wk =   0.0555556
        k(   24) = (   0.0000000  -0.1040051   0.0000000), wk =   0.0277778
        k(   25) = (   0.0300237   0.0173342   0.0000000), wk =   0.0555556
        k(   26) = (   0.0300237   0.0520026   0.0000000), wk =   0.0555556
        k(   27) = (   0.0300237   0.0866710   0.0000000), wk =   0.0555556
        k(   28) = (   0.0300237  -0.0866710   0.0000000), wk =   0.0555556
        k(   29) = (   0.0300237  -0.0520026   0.0000000), wk =   0.0555556
        k(   30) = (   0.0300237  -0.0173342   0.0000000), wk =   0.0555556
        k(   31) = (   0.0600474   0.0346684   0.0000000), wk =   0.0555556
        k(   32) = (   0.0600474   0.0693368   0.0000000), wk =   0.0555556
        k(   33) = (   0.0600474   0.1040051   0.0000000), wk =   0.0555556
        k(   34) = (   0.0600474  -0.0693368   0.0000000), wk =   0.0555556
        k(   35) = (   0.0600474  -0.0346684   0.0000000), wk =   0.0555556
        k(   36) = (   0.0600474   0.0000000   0.0000000), wk =   0.0555556
        k(   37) = (  -0.0900711  -0.0520026   0.0000000), wk =   0.0277778
        k(   38) = (  -0.0900711  -0.0173342   0.0000000), wk =   0.0555556
        k(   39) = (  -0.0900711   0.0173342   0.0000000), wk =   0.0555556
        k(   40) = (  -0.0900711  -0.1560077   0.0000000), wk =   0.0277778

     Largest allocated arrays     est. size (Mb)     dimensions
     Largest temporary arrays     est. size (Mb)     dimensions

     Check: negative/imaginary core charge=   -0.000006    0.000000

     Initial potential from superposition of free atoms
     Check: negative starting charge=(component1):   -0.028306
     Check: negative starting charge=(component2):   -0.021223

     starting charge  176.99289, renormalised to  186.00000

     negative rho (up, down):  2.975E-02 2.230E-02

     *
     * You are using vdW-DF for exchange-correlation in this calculation.
     * Please cite the following three references that made this development
     * possible:
     *
     *   M. Dion, H. Rydberg, E. Schroder, D. C. Langreth, and
     *   B. I. Lundqvist, Phys. Rev. Lett. 92, 246401 (2004).
     *
     *   T. Thonhauser, V. R. Cooper, S. Li, A. Puzder, P. Hyldgaard, and
     *   D. C. Langreth, Phys. Rev. B 76, 125112 (2007).
     *
     *   G. Roman-Perez and J. M. Soler, Phys. Rev. Lett. 103, 096102 (2009).
     *
     *
     * If you are using vdW-DF2, please also cite:
     *
     *   K. Lee, E. D. Murray, L. Kong, B. I. Lundqvist, and
     *   D. C. Langreth, Phys. Rev. B 82, 081101(R) (2010).
     *
     *
     * If you are calculating the stress with vdW-DF, please also cite:
     *
     *   R. Sabatini, E. Kucukbenli, B. Kolb, T. Thonhauser, and
     *   S. de Gironcoli, J. Phys.: Condens. Matter 24, 424209 (2012).
     *

     Carrying out vdW-DF run using the following parameters:

     Nqs =      20    Nr_points =    1024   r_max =   100.000
     q_mesh =
               0.00001000     0.04494208     0.09755937     0.15916263
               0.23128650     0.31572767     0.41458969     0.53033537
               0.66584808     0.82450364     1.01025438     1.22772762
               1.48234092     1.78043706     2.12944203     2.53805004
               3.01644009     3.57652955     4.23227104     5.00000000

     Gradients computed in reciprocal space

     Adding external electric field

     Computed dipole along edir(3) :
        Dipole               -0.0000 Ry au,         -0.0000 Debye
        Dipole field         -0.0000 Ry au

        Potential amp.        0.0000 Ry
        Total length         45.2007 bohr

[...]

     Starting wfc are  144 randomized atomic wfcs

     Self-consistent Calculation

     iteration #  1     ecut=    36.75 Ry     beta=0.10
     Davidson diagonalization with overlap
     ethr =  1.00E-02,  avg # of iterations =  8.9

[...]

     Magnetic moment per site:
     atom:    1    charge:    7.2612    magn:    0.9202    constr:    0.0000
     atom:    2    charge:    7.2612    magn:    0.9202    constr:    0.0000
     atom:    3    charge:    7.2612    magn:    0.9201    constr:    0.0000
     atom:    4    charge:    1.8146    magn:    0.2369    constr:    0.0000
     atom:    5    charge:    7.2463    magn:    0.9147    constr:    0.0000
     atom:    6    charge:    7.2463    magn:    0.9146    constr:    0.0000
     atom:    7    charge:    7.2463    magn:    0.9147    constr:    0.0000
     atom:    8    charge:    1.8110    magn:    0.2364    constr:    0.0000
[...]
        k(    3) = (   0.0000000   0.0693368   0.0000000), wk =   0.0555556
        k(    4) = (   0.0000000  -0.1040051   0.0000000), wk =   0.0277778
        k(    5) = (   0.0300237   0.0173342   0.0000000), wk =   0.0555556
        k(    6) = (   0.0300237   0.0520026   0.0000000), wk =   0.0555556
        k(    7) = (   0.0300237   0.0866710   0.0000000), wk =   0.0555556
        k(    8) = (   0.0300237  -0.0866710   0.0000000), wk =   0.0555556
        k(    9) = (   0.0300237  -0.0520026   0.0000000), wk =   0.0555556
        k(   10) = (   0.0300237  -0.0173342   0.0000000), wk =   0.0555556
        k(   11) = (   0.0600474   0.0346684   0.0000000), wk =   0.0555556
        k(   12) = (   0.0600474   0.0693368   0.0000000), wk =   0.0555556
        k(   13) = (   0.0600474   0.1040051   0.0000000), wk =   0.0555556
        k(   14) = (   0.0600474  -0.0693368   0.0000000), wk =   0.0555556
        k(   15) = (   0.0600474  -0.0346684   0.0000000), wk =   0.0555556
        k(   16) = (   0.0600474   0.0000000   0.0000000), wk =   0.0555556
        k(   17) = (  -0.0900711  -0.0520026   0.0000000), wk =   0.0277778
        k(   18) = (  -0.0900711  -0.0173342   0.0000000), wk =   0.0555556
        k(   19) = (  -0.0900711   0.0173342   0.0000000), wk =   0.0555556
        k(   20) = (  -0.0900711  -0.1560077   0.0000000), wk =   0.0277778
        k(   21) = (   0.0000000   0.0000000   0.0000000), wk =   0.0277778
        k(   22) = (   0.0000000   0.0346684   0.0000000), wk =   0.0555556
        k(   23) = (   0.0000000   0.0693368   0.0000000), wk =   0.0555556
        k(   24) = (   0.0000000  -0.1040051   0.0000000), wk =   0.0277778
        k(   25) = (   0.0300237   0.0173342   0.0000000), wk =   0.0555556
        k(   26) = (   0.0300237   0.0520026   0.0000000), wk =   0.0555556
        k(   27) = (   0.0300237   0.0866710   0.0000000), wk =   0.0555556
        k(   28) = (   0.0300237  -0.0866710   0.0000000), wk =   0.0555556
        k(   29) = (   0.0300237  -0.0520026   0.0000000), wk =   0.0555556
        k(   30) = (   0.0300237  -0.0173342   0.0000000), wk =   0.0555556
        k(   31) = (   0.0600474   0.0346684   0.0000000), wk =   0.0555556
        k(   32) = (   0.0600474   0.0693368   0.0000000), wk =   0.0555556
        k(   33) = (   0.0600474   0.1040051   0.0000000), wk =   0.0555556
        k(   34) = (   0.0600474  -0.0693368   0.0000000), wk =   0.0555556
        k(   35) = (   0.0600474  -0.0346684   0.0000000), wk =   0.0555556
        k(   36) = (   0.0600474   0.0000000   0.0000000), wk =   0.0555556
        k(   37) = (  -0.0900711  -0.0520026   0.0000000), wk =   0.0277778
        k(   38) = (  -0.0900711  -0.0173342   0.0000000), wk =   0.0555556
        k(   39) = (  -0.0900711   0.0173342   0.0000000), wk =   0.0555556
        k(   40) = (  -0.0900711  -0.1560077   0.0000000), wk =   0.0277778

     Largest allocated arrays     est. size (Mb)     dimensions
     Largest temporary arrays     est. size (Mb)     dimensions

     Check: negative/imaginary core charge=   -0.000006    0.000000

     Initial potential from superposition of free atoms
     Check: negative starting charge=(component1):   -0.028296
     Check: negative starting charge=(component2):   -0.021217

     starting charge  176.99289, renormalised to  186.00000

[...]

     *
     * You are using vdW-DF for exchange-correlation in this calculation.
     * Please cite the following three references that made this development
     * possible:
     *
     *   M. Dion, H. Rydberg, E. Schroder, D. C. Langreth, and
     *   B. I. Lundqvist, Phys. Rev. Lett. 92, 246401 (2004).
     *
     *   T. Thonhauser, V. R. Cooper, S. Li, A. Puzder, P. Hyldgaard, and
     *   D. C. Langreth, Phys. Rev. B 76, 125112 (2007).
     *
     *   G. Roman-Perez and J. M. Soler, Phys. Rev. Lett. 103, 096102 (2009).
     *
     *
     * If you are using vdW-DF2, please also cite:
     *
     *   K. Lee, E. D. Murray, L. Kong, B. I. Lundqvist, and
     *   D. C. Langreth, Phys. Rev. B 82, 081101(R) (2010).
     *
     *
     * If you are calculating the stress with vdW-DF, please also cite:
     *
     *   R. Sabatini, E. Kucukbenli, B. Kolb, T. Thonhauser, and
     *   S. de Gironcoli, J. Phys.: Condens. Matter 24, 424209 (2012).
     *

     Carrying out vdW-DF run using the following parameters:

     Nqs =      20    Nr_points =    1024   r_max =   100.000
     q_mesh =
               0.00001000     0.04494208     0.09755937     0.15916263
               0.23128650     0.31572767     0.41458969     0.53033537
               0.66584808     0.82450364     1.01025438     1.22772762
               1.48234092     1.78043706     2.12944203     2.53805004
               3.01644009     3.57652955     4.23227104     5.00000000

     Gradients computed in reciprocal space

[...]

     Starting wfc are  144 randomized atomic wfcs

     Self-consistent Calculation

[...]

     total energy              =   -2759.82338917 Ry
     Harris-Foulkes estimate   =   -2759.82338701 Ry
     estimated scf accuracy    <       0.00000272 Ry

[...]

     iteration # 30     ecut=    36.75 Ry     beta=0.10
     Davidson diagonalization with overlap
     ethr =  1.46E-09,  avg # of iterations =  1.0

[...]

     negative rho (up, down):  2.739E-02 3.013E-02

[...]

     Adding external electric field

     Computed dipole along edir(3) :
        Dipole                0.0382 Ry au,          0.0972 Debye
        Dipole field          0.0001 Ry au

        Potential amp.       -0.0098 Ry
        Total length         45.2007 bohr

     Magnetic moment per site:
     atom:    1    charge:    7.1077    magn:    1.3098    constr:    0.0000
     atom:    2    charge:    7.1076    magn:    1.3099    constr:    0.0000
     atom:    3    charge:    7.1077    magn:    1.3099    constr:    0.0000
     atom:    4    charge:    1.7572    magn:   -0.0051    constr:    0.0000
     atom:    5    charge:    7.0879    magn:    1.2501    constr:    0.0000
     atom:    6    charge:    7.0879    magn:    1.2502    constr:    0.0000
     atom:    7    charge:    7.0879    magn:    1.2501    constr:    0.0000
     atom:    8    charge:    1.7548    magn:   -0.0044    constr:    0.0000
     atom:    9    charge:    7.0920    magn:    1.2620    constr:    0.0000
     atom:   10    charge:    7.0920    magn:    1.2619    constr:    0.0000
     atom:   11    charge:    7.0922    magn:    1.2618    constr:    0.0000
     atom:   12    charge:    1.7535    magn:   -0.0044    constr:    0.0000

     End of self-consistent calculation

 ------ SPIN UP ------------

[...]

 ------ SPIN DOWN ----------

[...]

          k = 0.0600 0.0000 0.0000 ( 16572 PWs)   bands (ev):

[...]

          k =-0.0901-0.1560 0.0000 ( 16632 PWs)   bands (ev):

   -84.1267 -84.1223 -84.1181 -84.0788 -84.0751 -84.0714 -84.0423 -84.0129
   -84.0120 -50.3207 -50.2994 -50.2859 -50.2762 -50.2723 -50.2616 -50.2557
   -50.2511 -50.2328 -50.2321 -50.2264 -50.2229 -50.2170 -50.2114 -50.2091
   -50.1979 -50.1609 -50.1419 -50.1259 -50.1070 -50.1015 -50.0905 -50.0895
   -50.0820 -50.0668 -50.0375 -50.0262 -16.1063 -16.0955 -16.0734 -16.0562
   -16.0536 -15.7872 -15.7689 -15.7626 -15.7463 -15.7386 -15.6674 -15.6415
   -15.6367 -15.6186 -15.6128  -8.7362  -7.9584  -7.3340  -4.2822  -3.1708
    -3.0313  -2.8781  -1.3590  -1.3450  -1.2515  -0.7588  -0.7147  -0.5580
    -0.4681  -0.0160   0.0373   0.0984   0.2041   0.2427   0.3431   0.3969
     0.4572   0.6391   0.6781   0.6972   0.8350   0.8963   1.0457   1.1604
     1.2204   1.2891   1.3311   1.4843   1.7257   1.8414   1.8510   1.9095
     2.0323   2.0594   2.0848   2.1803   2.2124   2.3068   2.3205   2.3911
     2.4152   2.5327   2.5789   2.6794   2.7039   2.8203   2.9327   3.0397
     3.2436   3.4536   3.5104   3.9416   4.0416   4.2392   5.2679   5.7576
     6.0879   6.1958   6.4037   6.5724   6.6792   6.8647   6.9835   6.9935
     7.3800   7.3950   7.6572

     the Fermi energy is     1.2981 ev

!    total energy              =   -2759.82339799 Ry
     Harris-Foulkes estimate   =   -2759.82338927 Ry
     estimated scf accuracy    <       0.00000081 Ry

     The total energy is the sum of the following terms:

     one-electron contribution =  -20335.24900438 Ry
     hartree contribution      =   10186.61875352 Ry
     xc contribution           =    -469.04410098 Ry
     ewald contribution        =    7857.92016146 Ry
     electric field correction =       0.00000416 Ry
     smearing contrib. (-TS)   =      -0.06921177 Ry

     total magnetization       =    23.36 Bohr mag/cell
     absolute magnetization    =    25.78 Bohr mag/cell

     convergence has been achieved in  30 iterations

 BEEF-vdW xc energy contributions
           1 :   -413.798581467878
           2 :    378.590315069569
           3 :   -318.697386174843
           4 :    250.209725070778
           5 :   -187.986748567978
           6 :    140.541194958913
           7 :   -108.738396036764
           8 :    88.0504192223553
           9 :   -72.4574193269914
          10 :    57.7129153952164
          11 :   -42.6329120687619
          12 :    28.3857663665516
          13 :   -16.8093813687049
          14 :    8.95704171029377
          15 :   -4.59425752036913
          16 :    2.58030353131028
          17 :   -1.61639796442574
          18 :   0.813358394118211
          19 :   0.135630296265276
          20 :   -1.11405016945628
          21 :    1.85865089926892
          22 :   -2.19485855628955
          23 :    2.13911345483541
          24 :   -1.87591588469451
          25 :    1.64424642841300
          26 :   -1.61198379655502
          27 :    1.79812064523736
          28 :   -2.09144638484486
          29 :    2.34381849723860
          30 :   -2.48056169631695
          31 :   -34.9598996689227
          32 :   -25.0825635909454

     Forces acting on atoms (Ry/au):

     negative rho (up, down):  2.739E-02 3.013E-02
     atom    1 type  1   force =    -0.00000433   -0.02068003    0.01921595
     atom    2 type  1   force =    -0.01790251    0.01034357    0.01921189
     atom    3 type  1   force =     0.01790950    0.01035208    0.01922639
     atom    4 type  2   force =     0.00001850   -0.00000073   -0.06620115
     atom    5 type  1   force =    -0.00001711    0.01936285    0.00290223
     atom    6 type  1   force =     0.01674286   -0.00970502    0.00291279
     atom    7 type  1   force =    -0.01672819   -0.00967782    0.00296442
     atom    8 type  2   force =     0.00003800    0.00002914    0.00350001
     atom    9 type  1   force =    -0.00003830   -0.00127985   -0.00120200
     atom   10 type  1   force =    -0.00115048    0.00061774   -0.00121149
     atom   11 type  1   force =     0.00108955    0.00062646   -0.00122589
     atom   12 type  2   force =     0.00004250    0.00001162   -0.00009317

     Total force =     0.089128     Total SCF correction =     0.003167

     entering subroutine stress ...

     negative rho (up, down):  2.739E-02 3.013E-02
          total   stress  (Ry/bohr**3)                   (kbar)     P=  -10.46
  -0.00010408   0.00000002   0.00000001        -15.31      0.00      0.00
   0.00000002  -0.00010408   0.00000000          0.00    -15.31      0.00
   0.00000001   0.00000000  -0.00000509          0.00      0.00     -0.75

 !ASE

     Writing output data file calc.save

     General routines

     Parallel routines

   This run was terminated on:   4: 0: 8  26Dec2018

   JOB DONE.
Job  /afs/slac/g/suncat/bin/suncat-tsmpirun -x LD_LIBRARY_PATH -wdir /scratch/qe109634_GsJrC pw.x -in pw.inp

TID   HOST_NAME   COMMAND_LINE            STATUS            TERMINATION_TIME
00000 suncat0152 pw.x -in pw.inp   Done                     12/26/2018 04:00:08
00001 suncat0152 pw.x -in pw.inp   Done                     12/26/2018 04:00:08
00002 suncat0152 pw.x -in pw.inp   Done                     12/26/2018 04:00:08
00003 suncat0152 pw.x -in pw.inp   Done                     12/26/2018 04:00:08
00004 suncat0152 pw.x -in pw.inp   Done                     12/26/2018 04:00:08
00005 suncat0152 pw.x -in pw.inp   Done                     12/26/2018 04:00:08
00006 suncat0152 pw.x -in pw.inp   Done                     12/26/2018 04:00:08
00007 suncat0152 pw.x -in pw.inp   Done                     12/26/2018 04:00:08
00008 suncat0150 pw.x -in pw.inp   Done                     12/26/2018 04:00:08
00009 suncat0150 pw.x -in pw.inp   Done                     12/26/2018 04:00:08
00010 suncat0150 pw.x -in pw.inp   Done                     12/26/2018 04:00:08
00011 suncat0150 pw.x -in pw.inp   Done                     12/26/2018 04:00:08
00012 suncat0150 pw.x -in pw.inp   Done                     12/26/2018 04:00:08
00013 suncat0150 pw.x -in pw.inp   Done                     12/26/2018 04:00:08
00014 suncat0150 pw.x -in pw.inp   Done                     12/26/2018 04:00:08
00015 suncat0150 pw.x -in pw.inp   Done                     12/26/2018 04:00:08
00016 suncat0248 pw.x -in pw.inp   Done                     12/26/2018 04:00:08
00017 suncat0248 pw.x -in pw.inp   Done                     12/26/2018 04:00:08
00018 suncat0248 pw.x -in pw.inp   Done                     12/26/2018 04:00:08
00019 suncat0248 pw.x -in pw.inp   Done                     12/26/2018 04:00:08
00020 suncat0248 pw.x -in pw.inp   Done                     12/26/2018 04:00:08
00021 suncat0248 pw.x -in pw.inp   Done                     12/26/2018 04:00:08
00022 suncat0248 pw.x -in pw.inp   Done                     12/26/2018 04:00:08
00023 suncat0248 pw.x -in pw.inp   Done                     12/26/2018 04:00:08
00024 suncat0247 pw.x -in pw.inp   Done                     12/26/2018 04:00:08
00025 suncat0247 pw.x -in pw.inp   Done                     12/26/2018 04:00:08
00026 suncat0247 pw.x -in pw.inp   Done                     12/26/2018 04:00:08
00027 suncat0247 pw.x -in pw.inp   Done                     12/26/2018 04:00:08
00028 suncat0247 pw.x -in pw.inp   Done                     12/26/2018 04:00:08
00029 suncat0247 pw.x -in pw.inp   Done                     12/26/2018 04:00:08
00030 suncat0247 pw.x -in pw.inp   Done                     12/26/2018 04:00:08
00031 suncat0247 pw.x -in pw.inp   Done                     12/26/2018 04:00:08
00032 suncat0246 pw.x -in pw.inp   Done                     12/26/2018 04:00:08
00033 suncat0246 pw.x -in pw.inp   Done                     12/26/2018 04:00:08
00034 suncat0246 pw.x -in pw.inp   Done                     12/26/2018 04:00:08
00035 suncat0246 pw.x -in pw.inp   Done                     12/26/2018 04:00:08
00036 suncat0246 pw.x -in pw.inp   Done                     12/26/2018 04:00:08
00037 suncat0246 pw.x -in pw.inp   Done                     12/26/2018 04:00:08
00038 suncat0246 pw.x -in pw.inp   Done                     12/26/2018 04:00:08
00039 suncat0246 pw.x -in pw.inp   Done                     12/26/2018 04:00:08
00040 suncat0245 pw.x -in pw.inp   Done                     12/26/2018 04:00:08
00041 suncat0245 pw.x -in pw.inp   Done                     12/26/2018 04:00:08
00042 suncat0245 pw.x -in pw.inp   Done                     12/26/2018 04:00:08
00043 suncat0245 pw.x -in pw.inp   Done                     12/26/2018 04:00:08
00044 suncat0245 pw.x -in pw.inp   Done                     12/26/2018 04:00:08
00045 suncat0245 pw.x -in pw.inp   Done                     12/26/2018 04:00:08
00046 suncat0245 pw.x -in pw.inp   Done                     12/26/2018 04:00:08
00047 suncat0245 pw.x -in pw.inp   Done                     12/26/2018 04:00:08
00048 suncat0214 pw.x -in pw.inp   Done                     12/26/2018 04:00:08
00049 suncat0214 pw.x -in pw.inp   Done                     12/26/2018 04:00:08
00050 suncat0214 pw.x -in pw.inp   Done                     12/26/2018 04:00:08
00051 suncat0214 pw.x -in pw.inp   Done                     12/26/2018 04:00:08
00052 suncat0214 pw.x -in pw.inp   Done                     12/26/2018 04:00:08
00053 suncat0214 pw.x -in pw.inp   Done                     12/26/2018 04:00:08
00054 suncat0214 pw.x -in pw.inp   Done                     12/26/2018 04:00:08
00055 suncat0214 pw.x -in pw.inp   Done                     12/26/2018 04:00:08
00056 suncat0213 pw.x -in pw.inp   Done                     12/26/2018 04:00:08
00057 suncat0213 pw.x -in pw.inp   Done                     12/26/2018 04:00:08
00058 suncat0213 pw.x -in pw.inp   Done                     12/26/2018 04:00:08
00059 suncat0213 pw.x -in pw.inp   Done                     12/26/2018 04:00:08
00060 suncat0213 pw.x -in pw.inp   Done                     12/26/2018 04:00:08
00061 suncat0213 pw.x -in pw.inp   Done                     12/26/2018 04:00:08
00062 suncat0213 pw.x -in pw.inp   Done                     12/26/2018 04:00:08
00063 suncat0213 pw.x -in pw.inp   Done                     12/26/2018 04:00:08