     Program PWSCF v.5.1rc2 (svn rev. 11289) starts on 31Dec2018 at  7: 5:46

     Current dimensions of program PWSCF are:
     Max number of different atomic species (ntypx) = 10
     Max number of k-points (npk) =  40000
     Max angular momentum in pseudopotentials (lmaxx) =  3
     Presently stress not available with electric field

     IMPORTANT: XC functional enforced from input :
     Exchange-correlation      = BEEF-VDW ( 1  4 27 13 2)
     Any further DFT definition will be discarded
     Please, verify this is what you really want

     Subspace diagonalization in iterative solution of the eigenvalue problem:
     a serial algorithm will be used

     bravais-lattice index     =            0
     lattice parameter (alat)  =       1.8897  a.u.
     unit-cell volume          =    5017.6908 (a.u.)^3
     number of atoms/cell      =           12
     number of atomic types    =            2
     number of electrons       =       177.00
     number of Kohn-Sham states=          118
     kinetic-energy cutoff     =      36.7493  Ry
     charge density cutoff     =     367.4932  Ry
     convergence threshold     =      1.0E-06
     mixing beta               =       0.1000
     number of iterations used =           10  plain     mixing
     Exchange-correlation      = BEEF-VDW ( 1  4 27 13 2)
     nstep                     =           50

     celldm(1)=   1.889726  celldm(2)=   0.000000  celldm(3)=   0.000000
     celldm(4)=   0.000000  celldm(5)=   0.000000  celldm(6)=   0.000000

     crystal axes: (cart. coord. in units of alat)
               a(1) = (   5.883413   0.000000   0.000000 )
               a(2) = (  -2.941707   5.095185   0.000000 )
               a(3) = (   0.000000   0.000000  24.803787 )

     reciprocal axes: (cart. coord. in units 2 pi/alat)
               b(1) = (  0.169969  0.098132  0.000000 )
               b(2) = (  0.000000  0.196264  0.000000 )
               b(3) = (  0.000000  0.000000  0.040316 )

     PseudoPot. # 1 for Os read from file:
     /afs/slac.stanford.edu/u/if/mamunm/psp/gbrv1.5pbe/Os.UPF
     MD5 check sum: a3fb40a04f0c37c25c34bbc47164c9a8
     Pseudo is Ultrasoft + core correction, Zval = 16.0
     Generated by new atomic code, or converted to UPF format
     Using radial grid of  983 points,  8 beta functions with:
                l(1) =   0
                l(2) =   0
                l(3) =   1
                l(4) =   1
                l(5) =   2
                l(6) =   2
                l(7) =   3
                l(8) =   3
     Q(r) pseudized with  8 coefficients,  rinner =    1.150   1.150   1.150
                                                       1.150   1.150   1.150
                                                       1.150

     PseudoPot. # 2 for La read from file:
     /afs/slac.stanford.edu/u/if/mamunm/psp/gbrv1.5pbe/La.UPF
     MD5 check sum: 5937b0c7494ba0601a847275249473aa
     Pseudo is Ultrasoft + core correction, Zval = 11.0
     Generated by new atomic code, or converted to UPF format
     Using radial grid of  995 points,  8 beta functions with:
                l(1) =   0
                l(2) =   0
                l(3) =   1
                l(4) =   1
                l(5) =   2
                l(6) =   2
                l(7) =   3
                l(8) =   3
     Q(r) pseudized with  8 coefficients,  rinner =    1.700   1.700   1.700
                                                       1.700   1.700   1.700
                                                       1.700

     vdW kernel table read from file vdW_kernel_table
     MD5 check sum: 095c7af220d748ca6e76c0b4c6cfb241

     atomic species   valence    mass     pseudopotential
        Os1           16.00   190.23000     Os( 1.00)
        La1           11.00   138.90547     La( 1.00)

     No symmetry found

   Cartesian axes

     site n.     atom                  positions (alat units)
         1           Os1 tau(   1) = (   0.0000000   0.0000000  10.0000000  )
         2           Os1 tau(   2) = (  -1.4708533   2.5475926  10.0000000  )
         3           Os1 tau(   3) = (   1.4708533   2.5475926  10.0000000  )
         4           La1 tau(   4) = (   2.9417065   0.0000000  10.0000000  )
         5           Os1 tau(   5) = (   2.9417065   1.6983950  12.4018933  )
         6           Os1 tau(   6) = (   1.4708533   4.2459876  12.4018933  )
         7           Os1 tau(   7) = (  -1.4708533   4.2459876  12.4018933  )
         8           La1 tau(   8) = (   0.0000000   1.6983950  12.4018933  )
         9           Os1 tau(   9) = (  -0.0000000   3.3967901  14.8037866  )
        10           Os1 tau(  10) = (   1.4708533   0.8491975  14.8037866  )
        11           Os1 tau(  11) = (   4.4125598   0.8491975  14.8037866  )
        12           La1 tau(  12) = (   2.9417065   3.3967901  14.8037866  )

     number of k points=    20  Fermi-Dirac smearing, width (Ry)=  0.0110
                       cart. coord. in units 2pi/alat
        k(    1) = (   0.0000000   0.0000000   0.0000000), wk =   0.0555556
        k(    2) = (   0.0000000   0.0327106   0.0000000), wk =   0.1111111
        k(    3) = (   0.0000000   0.0654212   0.0000000), wk =   0.1111111
        k(    4) = (   0.0000000  -0.0981319   0.0000000), wk =   0.0555556
        k(    5) = (   0.0283282   0.0163553   0.0000000), wk =   0.1111111
        k(    6) = (   0.0283282   0.0490659   0.0000000), wk =   0.1111111
        k(    7) = (   0.0283282   0.0817766   0.0000000), wk =   0.1111111
        k(    8) = (   0.0283282  -0.0817766   0.0000000), wk =   0.1111111
        k(    9) = (   0.0283282  -0.0490659   0.0000000), wk =   0.1111111
        k(   10) = (   0.0283282  -0.0163553   0.0000000), wk =   0.1111111
        k(   11) = (   0.0566565   0.0327106   0.0000000), wk =   0.1111111
        k(   12) = (   0.0566565   0.0654212   0.0000000), wk =   0.1111111
        k(   13) = (   0.0566565   0.0981319   0.0000000), wk =   0.1111111
        k(   14) = (   0.0566565  -0.0654212   0.0000000), wk =   0.1111111
        k(   15) = (   0.0566565  -0.0327106   0.0000000), wk =   0.1111111
        k(   16) = (   0.0566565   0.0000000   0.0000000), wk =   0.1111111
        k(   17) = (  -0.0849847  -0.0490659   0.0000000), wk =   0.0555556
        k(   18) = (  -0.0849847  -0.0163553   0.0000000), wk =   0.1111111
        k(   19) = (  -0.0849847   0.0163553   0.0000000), wk =   0.1111111
        k(   20) = (  -0.0849847  -0.1471978   0.0000000), wk =   0.0555556

     Largest allocated arrays     est. size (Mb)     dimensions
     Largest temporary arrays     est. size (Mb)     dimensions

     Initial potential from superposition of free atoms
     Check: negative starting charge=   -1.337326

     starting charge  172.40347, renormalised to  177.00000

     negative rho (up, down):  1.373E+00 0.000E+00

     *
     * You are using vdW-DF for exchange-correlation in this calculation.
     * Please cite the following three references that made this development
     * possible:
     *
     *   M. Dion, H. Rydberg, E. Schroder, D. C. Langreth, and
     *   B. I. Lundqvist, Phys. Rev. Lett. 92, 246401 (2004).
     *
     *   T. Thonhauser, V. R. Cooper, S. Li, A. Puzder, P. Hyldgaard, and
     *   D. C. Langreth, Phys. Rev. B 76, 125112 (2007).
     *
     *   G. Roman-Perez and J. M. Soler, Phys. Rev. Lett. 103, 096102 (2009).
     *
     *
     * If you are using vdW-DF2, please also cite:
     *
     *   K. Lee, E. D. Murray, L. Kong, B. I. Lundqvist, and
     *   D. C. Langreth, Phys. Rev. B 82, 081101(R) (2010).
     *
     *
     * If you are calculating the stress with vdW-DF, please also cite:
     *
     *   R. Sabatini, E. Kucukbenli, B. Kolb, T. Thonhauser, and
     *   S. de Gironcoli, J. Phys.: Condens. Matter 24, 424209 (2012).
     *

     Carrying out vdW-DF run using the following parameters:

     Nqs =      20    Nr_points =    1024   r_max =   100.000
     q_mesh =
               0.00001000     0.04494208     0.09755937     0.15916263
               0.23128650     0.31572767     0.41458969     0.53033537
               0.66584808     0.82450364     1.01025438     1.22772762
               1.48234092     1.78043706     2.12944203     2.53805004
               3.01644009     3.57652955     4.23227104     5.00000000

     Gradients computed in reciprocal space

     Adding external electric field

     Computed dipole along edir(3) :
        Dipole                0.0000 Ry au,          0.0000 Debye
        Dipole field          0.0000 Ry au

        Potential amp.       -0.0000 Ry
        Total length         45.7006 bohr

     Starting wfc are  177 randomized atomic wfcs

     Self-consistent Calculation

     iteration #  1     ecut=    36.75 Ry     beta=0.10
     Davidson diagonalization with overlap
     ethr =  1.00E-02,  avg # of iterations =  2.0

[...]

     total energy              =   -2109.34869760 Ry
     Harris-Foulkes estimate   =   -2110.38482305 Ry
     estimated scf accuracy    <       6.03688349 Ry

[...]

     iteration #  8     ecut=    36.75 Ry     beta=0.10
     Davidson diagonalization with overlap
     c_bands:  1 eigenvalues not converged
     c_bands:  1 eigenvalues not converged
     c_bands:  1 eigenvalues not converged
     c_bands:  1 eigenvalues not converged
     ethr =  7.41E-06,  avg # of iterations = 15.4

[...]

     End of self-consistent calculation

          k = 0.0000 0.0000 0.0000 ( 18955 PWs)   bands (ev):

   -83.3555 -83.3403 -83.3403 -83.1172 -83.1170 -83.1021 -83.1021 -83.1021
   -83.1021 -42.8907 -42.7610 -42.7610 -42.6819 -42.6641 -42.6481 -42.6481
   -42.6228 -42.5114 -42.4736 -42.4735 -42.4713 -42.4713 -42.4406 -42.4329
   -42.4329 -42.4074 -42.3927 -42.3927 -42.3770 -42.3770 -42.2699 -42.2699
   -42.2634 -42.2634 -42.2152 -42.2106 -28.6439 -28.6296 -27.9425 -12.6568
   -12.5467 -12.5467 -12.5157 -12.5157 -12.5095 -12.1194 -11.9792 -11.9792
    -3.8965  -2.5825  -2.4671  -2.0870  -2.0870  -1.8640  -1.8640  -1.2476
    -1.2028  -1.2028  -1.1448  -1.1448  -1.0031  -0.3749  -0.1512   0.0614
     0.2640   0.2640   0.5681   0.5681   0.9937   1.1683   1.2258   1.2720
     1.5818   1.5818   1.7141   1.7141   1.8119   1.8119   2.0154   2.0154
     2.1834   2.1834   2.3427   2.5645   2.9310   2.9310   2.9813   3.1812
     3.1812   3.4321   3.4321   3.7489   3.7489   3.8852   3.9937   4.5984
     4.6728   4.9070   4.9547   4.9788   5.9363   6.0910   6.0910   6.1883
     6.4427   6.4427   6.4942   6.4942   6.5336   6.5579   6.5579   6.6433
     6.6904   6.6904   6.7268   6.7890   6.7893   6.8473

[...]

          k =-0.0850-0.0491 0.0000 ( 18868 PWs)   bands (ev):

[...]

     the Fermi energy is     2.6230 ev

!    total energy              =   -2109.54664265 Ry
     Harris-Foulkes estimate   =   -2109.54664399 Ry
     estimated scf accuracy    <       0.00000033 Ry

     The total energy is the sum of the following terms:

     one-electron contribution =  -15256.80986640 Ry
     hartree contribution      =    7623.94073642 Ry
     xc contribution           =    -501.05766036 Ry
     ewald contribution        =    6024.47381206 Ry
     electric field correction =       0.00000000 Ry
     smearing contrib. (-TS)   =      -0.09366437 Ry

[...]
                                                       1.150   1.150   1.150
                                                       1.150

     PseudoPot. # 2 for La read from file:
     /afs/slac.stanford.edu/u/if/mamunm/psp/gbrv1.5pbe/La.UPF
     MD5 check sum: 5937b0c7494ba0601a847275249473aa
     Pseudo is Ultrasoft + core correction, Zval = 11.0
     Generated by new atomic code, or converted to UPF format
     Using radial grid of  995 points,  8 beta functions with:
                l(1) =   0
                l(2) =   0
                l(3) =   1
                l(4) =   1
                l(5) =   2
                l(6) =   2
                l(7) =   3
                l(8) =   3
     Q(r) pseudized with  8 coefficients,  rinner =    1.700   1.700   1.700
                                                       1.700   1.700   1.700
                                                       1.700

     vdW kernel table read from file vdW_kernel_table
     MD5 check sum: 095c7af220d748ca6e76c0b4c6cfb241

     atomic species   valence    mass     pseudopotential
        Os1           16.00   190.23000     Os( 1.00)
        La1           11.00   138.90547     La( 1.00)

     No symmetry found

   Cartesian axes

     site n.     atom                  positions (alat units)
         1           Os1 tau(   1) = (   0.0000000   0.0000000  10.0000000  )
         2           Os1 tau(   2) = (  -1.4708533   2.5475926  10.0000000  )
         3           Os1 tau(   3) = (   1.4708533   2.5475926  10.0000000  )
         4           La1 tau(   4) = (   2.9417065   0.0000000  10.0000000  )
         5           Os1 tau(   5) = (   2.9417065   1.6983950  12.4018933  )
         6           Os1 tau(   6) = (   1.4708533   4.2459876  12.4018933  )
         7           Os1 tau(   7) = (  -1.4708533   4.2459876  12.4018933  )
         8           La1 tau(   8) = (   0.0000000   1.6983950  12.4018933  )
         9           Os1 tau(   9) = (   0.0000032   3.5768219  14.5177243  )
        10           Os1 tau(  10) = (   1.6267736   0.7592229  14.5177175  )
        11           Os1 tau(  11) = (   4.2566571   0.7592199  14.5177324  )
        12           La1 tau(  12) = (   2.9416931   3.3967888  15.2540982  )

     number of k points=    20  Fermi-Dirac smearing, width (Ry)=  0.0110
                       cart. coord. in units 2pi/alat
        k(    1) = (   0.0000000   0.0000000   0.0000000), wk =   0.0555556
        k(    2) = (   0.0000000   0.0327106   0.0000000), wk =   0.1111111
        k(    3) = (   0.0000000   0.0654212   0.0000000), wk =   0.1111111
        k(    4) = (   0.0000000  -0.0981319   0.0000000), wk =   0.0555556
        k(    5) = (   0.0283282   0.0163553   0.0000000), wk =   0.1111111
        k(    6) = (   0.0283282   0.0490659   0.0000000), wk =   0.1111111
        k(    7) = (   0.0283282   0.0817766   0.0000000), wk =   0.1111111
        k(    8) = (   0.0283282  -0.0817766   0.0000000), wk =   0.1111111
        k(    9) = (   0.0283282  -0.0490659   0.0000000), wk =   0.1111111
        k(   10) = (   0.0283282  -0.0163553   0.0000000), wk =   0.1111111
        k(   11) = (   0.0566565   0.0327106   0.0000000), wk =   0.1111111
        k(   12) = (   0.0566565   0.0654212   0.0000000), wk =   0.1111111
        k(   13) = (   0.0566565   0.0981319   0.0000000), wk =   0.1111111
        k(   14) = (   0.0566565  -0.0654212   0.0000000), wk =   0.1111111
        k(   15) = (   0.0566565  -0.0327106   0.0000000), wk =   0.1111111
        k(   16) = (   0.0566565   0.0000000   0.0000000), wk =   0.1111111
        k(   17) = (  -0.0849847  -0.0490659   0.0000000), wk =   0.0555556
        k(   18) = (  -0.0849847  -0.0163553   0.0000000), wk =   0.1111111
        k(   19) = (  -0.0849847   0.0163553   0.0000000), wk =   0.1111111
        k(   20) = (  -0.0849847  -0.1471978   0.0000000), wk =   0.0555556

     Largest allocated arrays     est. size (Mb)     dimensions
     Largest temporary arrays     est. size (Mb)     dimensions

     Initial potential from superposition of free atoms
     Check: negative starting charge=   -1.335127

     starting charge  172.40347, renormalised to  177.00000

[...]

     *
     * You are using vdW-DF for exchange-correlation in this calculation.
     * Please cite the following three references that made this development
     * possible:
     *
     *   M. Dion, H. Rydberg, E. Schroder, D. C. Langreth, and
     *   B. I. Lundqvist, Phys. Rev. Lett. 92, 246401 (2004).
     *
     *   T. Thonhauser, V. R. Cooper, S. Li, A. Puzder, P. Hyldgaard, and
     *   D. C. Langreth, Phys. Rev. B 76, 125112 (2007).
     *
     *   G. Roman-Perez and J. M. Soler, Phys. Rev. Lett. 103, 096102 (2009).
     *
     *
     * If you are using vdW-DF2, please also cite:
     *
     *   K. Lee, E. D. Murray, L. Kong, B. I. Lundqvist, and
     *   D. C. Langreth, Phys. Rev. B 82, 081101(R) (2010).
     *
     *
     * If you are calculating the stress with vdW-DF, please also cite:
     *
     *   R. Sabatini, E. Kucukbenli, B. Kolb, T. Thonhauser, and
     *   S. de Gironcoli, J. Phys.: Condens. Matter 24, 424209 (2012).
     *

     Carrying out vdW-DF run using the following parameters:

     Nqs =      20    Nr_points =    1024   r_max =   100.000
     q_mesh =
               0.00001000     0.04494208     0.09755937     0.15916263
               0.23128650     0.31572767     0.41458969     0.53033537
               0.66584808     0.82450364     1.01025438     1.22772762
               1.48234092     1.78043706     2.12944203     2.53805004
               3.01644009     3.57652955     4.23227104     5.00000000

     Gradients computed in reciprocal space

[...]

     Starting wfc are  177 randomized atomic wfcs

     Self-consistent Calculation

[...]

     iteration # 13     ecut=    36.75 Ry     beta=0.10
     Davidson diagonalization with overlap
     c_bands:  1 eigenvalues not converged
     c_bands:  1 eigenvalues not converged
     c_bands:  1 eigenvalues not converged
     c_bands:  1 eigenvalues not converged
     ethr =  2.21E-07,  avg # of iterations = 10.4

[...]

     total energy              =   -2109.66007841 Ry
     Harris-Foulkes estimate   =   -2109.66007828 Ry
     estimated scf accuracy    <       0.00000180 Ry

     iteration # 18     ecut=    36.75 Ry     beta=0.10
     Davidson diagonalization with overlap
     ethr =  1.02E-09,  avg # of iterations =  2.6

[...]

     negative rho (up, down):  1.207E+00 0.000E+00

     Adding external electric field

     Computed dipole along edir(3) :
        Dipole                0.3863 Ry au,          0.9818 Debye
        Dipole field          0.0010 Ry au

        Potential amp.       -0.0884 Ry
        Total length         45.7006 bohr

     End of self-consistent calculation

[...]

          k = 0.0567 0.0000 0.0000 ( 18901 PWs)   bands (ev):

[...]

          k =-0.0850-0.1472 0.0000 ( 18868 PWs)   bands (ev):

   -83.0954 -83.0891 -83.0835 -82.9624 -82.9309 -82.9294 -82.6147 -82.6097
   -82.6047 -42.7539 -42.6472 -42.6040 -42.5207 -42.4401 -42.3934 -42.3702
   -42.3308 -42.3222 -42.2609 -42.2587 -42.2162 -42.1662 -42.1566 -42.1318
   -42.0958 -42.0728 -42.0651 -42.0430 -42.0011 -41.9418 -41.9176 -41.8999
   -41.8750 -41.8230 -41.7928 -41.7409 -29.3144 -28.1381 -27.5578 -13.1518
   -13.0795 -13.0740 -12.3134 -12.1690 -12.1536 -11.8882 -11.8215 -11.7519
    -2.8262  -2.1763  -1.1493  -1.1227  -0.9229  -0.8899  -0.7199  -0.6942
    -0.6239  -0.4432  -0.3040  -0.2279   0.1111   0.1418   0.2347   0.3675
     0.5117   0.5587   0.8094   1.0199   1.0500   1.2180   1.2633   1.2765
     1.4321   1.4542   1.6124   1.6884   1.7691   1.8816   2.1057   2.1641
     2.1791   2.3832   2.4287   2.4793   2.6300   2.7042   2.8241   2.8734
     2.8921   2.9418   3.1233   3.1895   3.2351   3.5186   3.7097   3.7550
     4.1605   4.3385   4.4745   4.5029   4.7883   5.0997   5.3956   5.6768
     5.7471   5.8317   5.8502   5.8823   5.9866   6.0940   6.1661   6.5365
     6.6027   6.7741   6.8738   6.9987   7.0325   7.0715

     the Fermi energy is     3.0944 ev

!    total energy              =   -2109.66007807 Ry
     Harris-Foulkes estimate   =   -2109.66007707 Ry
     estimated scf accuracy    <       0.00000049 Ry

     The total energy is the sum of the following terms:

     one-electron contribution =  -15577.44396509 Ry
     hartree contribution      =    7785.67101266 Ry
     xc contribution           =    -501.23139911 Ry
     ewald contribution        =    6183.43882745 Ry
     electric field correction =       0.00037368 Ry
     smearing contrib. (-TS)   =      -0.09492766 Ry

     convergence has been achieved in  18 iterations

 BEEF-vdW xc energy contributions
           1 :   -440.783241404839
           2 :    407.513632165175
           3 :   -348.581293868809
           4 :    276.537806395732
           5 :   -205.006711908214
           6 :    145.045178284348
           7 :   -102.766467278230
           8 :    78.6754379428882
           9 :   -68.7186335872514
          10 :    66.5046538210146
          11 :   -65.7991674302889
          12 :    62.3993895510318
          13 :   -54.8913378877433
          14 :    44.2794302218368
          15 :   -32.8871563912541
          16 :    23.0878815085914
          17 :   -16.3656458701580
          18 :    12.9597227241690
          19 :   -12.0762950231532
          20 :    12.4346924228988
          21 :   -12.8488878792034
          22 :    12.6040127209275
          23 :   -11.5413258599718
          24 :    9.90439082479412
          25 :   -8.08671068138153
          26 :    6.41566703459313
          27 :   -5.05200877571741
          28 :    4.00407539268957
          29 :   -3.20589952858091
          30 :    2.59101215939580
          31 :   -40.3567834610384
          32 :   -30.2067324898528

     Forces acting on atoms (Ry/au):

     negative rho (up, down):  1.207E+00 0.000E+00
     atom    1 type  1   force =     0.00000103   -0.03110964    0.03444739
     atom    2 type  1   force =    -0.02694007    0.01555722    0.03445461
     atom    3 type  1   force =     0.02693767    0.01556062    0.03446488
     atom    4 type  2   force =     0.00000083   -0.00000173   -0.08949707
     atom    5 type  1   force =    -0.00000203    0.03591670    0.00785916
     atom    6 type  1   force =     0.03110260   -0.01795678    0.00786451
     atom    7 type  1   force =    -0.03110333   -0.01795621    0.00787054
     atom    8 type  2   force =     0.00000018    0.00000068   -0.03692843
     atom    9 type  1   force =     0.00000016    0.00025979   -0.00030591
     atom   10 type  1   force =     0.00022487   -0.00014030   -0.00030581
     atom   11 type  1   force =    -0.00022471   -0.00013878   -0.00031251
     atom   12 type  2   force =     0.00000279    0.00000844    0.00038864

     Total force =     0.141047     Total SCF correction =     0.001945

     entering subroutine stress ...

     negative rho (up, down):  1.207E+00 0.000E+00
          total   stress  (Ry/bohr**3)                   (kbar)     P=  -12.34
  -0.00011477  -0.00000000   0.00000000        -16.88     -0.00      0.00
  -0.00000000  -0.00011478  -0.00000000         -0.00    -16.88     -0.00
   0.00000000  -0.00000000  -0.00002213          0.00     -0.00     -3.26

 !ASE

     Writing output data file calc.save

     General routines

     Parallel routines

   This run was terminated on:   9:36: 7  31Dec2018

   JOB DONE.
Job  /afs/slac/g/suncat/bin/suncat-tsmpirun -x LD_LIBRARY_PATH -wdir /scratch/qe648700_Z4z4R pw.x -in pw.inp

TID   HOST_NAME   COMMAND_LINE            STATUS            TERMINATION_TIME
00000 suncat0271 pw.x -in pw.inp   Done                     12/31/2018 09:36:07
00001 suncat0271 pw.x -in pw.inp   Done                     12/31/2018 09:36:07
00002 suncat0271 pw.x -in pw.inp   Done                     12/31/2018 09:36:07
00003 suncat0271 pw.x -in pw.inp   Done                     12/31/2018 09:36:07
00004 suncat0271 pw.x -in pw.inp   Done                     12/31/2018 09:36:07
00005 suncat0271 pw.x -in pw.inp   Done                     12/31/2018 09:36:07
00006 suncat0271 pw.x -in pw.inp   Done                     12/31/2018 09:36:07
00007 suncat0271 pw.x -in pw.inp   Done                     12/31/2018 09:36:07
00008 suncat0266 pw.x -in pw.inp   Done                     12/31/2018 09:36:07
00009 suncat0266 pw.x -in pw.inp   Done                     12/31/2018 09:36:07
00010 suncat0266 pw.x -in pw.inp   Done                     12/31/2018 09:36:07
00011 suncat0266 pw.x -in pw.inp   Done                     12/31/2018 09:36:07
00012 suncat0266 pw.x -in pw.inp   Done                     12/31/2018 09:36:07
00013 suncat0266 pw.x -in pw.inp   Done                     12/31/2018 09:36:07
00014 suncat0266 pw.x -in pw.inp   Done                     12/31/2018 09:36:07
00015 suncat0266 pw.x -in pw.inp   Done                     12/31/2018 09:36:07
00016 suncat0264 pw.x -in pw.inp   Done                     12/31/2018 09:36:07
00017 suncat0264 pw.x -in pw.inp   Done                     12/31/2018 09:36:07
00018 suncat0264 pw.x -in pw.inp   Done                     12/31/2018 09:36:07
00019 suncat0264 pw.x -in pw.inp   Done                     12/31/2018 09:36:07
00020 suncat0264 pw.x -in pw.inp   Done                     12/31/2018 09:36:07
00021 suncat0264 pw.x -in pw.inp   Done                     12/31/2018 09:36:07
00022 suncat0264 pw.x -in pw.inp   Done                     12/31/2018 09:36:07
00023 suncat0264 pw.x -in pw.inp   Done                     12/31/2018 09:36:07
00024 suncat0260 pw.x -in pw.inp   Done                     12/31/2018 09:36:07
00025 suncat0260 pw.x -in pw.inp   Done                     12/31/2018 09:36:07
00026 suncat0260 pw.x -in pw.inp   Done                     12/31/2018 09:36:07
00027 suncat0260 pw.x -in pw.inp   Done                     12/31/2018 09:36:07
00028 suncat0260 pw.x -in pw.inp   Done                     12/31/2018 09:36:07
00029 suncat0260 pw.x -in pw.inp   Done                     12/31/2018 09:36:07
00030 suncat0260 pw.x -in pw.inp   Done                     12/31/2018 09:36:07
00031 suncat0260 pw.x -in pw.inp   Done                     12/31/2018 09:36:07
00032 suncat0241 pw.x -in pw.inp   Done                     12/31/2018 09:36:07
00033 suncat0241 pw.x -in pw.inp   Done                     12/31/2018 09:36:07
00034 suncat0241 pw.x -in pw.inp   Done                     12/31/2018 09:36:07
00035 suncat0241 pw.x -in pw.inp   Done                     12/31/2018 09:36:07
00036 suncat0241 pw.x -in pw.inp   Done                     12/31/2018 09:36:07
00037 suncat0241 pw.x -in pw.inp   Done                     12/31/2018 09:36:07
00038 suncat0241 pw.x -in pw.inp   Done                     12/31/2018 09:36:07
00039 suncat0241 pw.x -in pw.inp   Done                     12/31/2018 09:36:07
00040 suncat0240 pw.x -in pw.inp   Done                     12/31/2018 09:36:07
00041 suncat0240 pw.x -in pw.inp   Done                     12/31/2018 09:36:07
00042 suncat0240 pw.x -in pw.inp   Done                     12/31/2018 09:36:07
00043 suncat0240 pw.x -in pw.inp   Done                     12/31/2018 09:36:07
00044 suncat0240 pw.x -in pw.inp   Done                     12/31/2018 09:36:07
00045 suncat0240 pw.x -in pw.inp   Done                     12/31/2018 09:36:07
00046 suncat0240 pw.x -in pw.inp   Done                     12/31/2018 09:36:07
00047 suncat0240 pw.x -in pw.inp   Done                     12/31/2018 09:36:07
00048 suncat0239 pw.x -in pw.inp   Done                     12/31/2018 09:36:07
00049 suncat0239 pw.x -in pw.inp   Done                     12/31/2018 09:36:07
00050 suncat0239 pw.x -in pw.inp   Done                     12/31/2018 09:36:07
00051 suncat0239 pw.x -in pw.inp   Done                     12/31/2018 09:36:07
00052 suncat0239 pw.x -in pw.inp   Done                     12/31/2018 09:36:07
00053 suncat0239 pw.x -in pw.inp   Done                     12/31/2018 09:36:07
00054 suncat0239 pw.x -in pw.inp   Done                     12/31/2018 09:36:07
00055 suncat0239 pw.x -in pw.inp   Done                     12/31/2018 09:36:07
00056 suncat0098 pw.x -in pw.inp   Done                     12/31/2018 09:36:07
00057 suncat0098 pw.x -in pw.inp   Done                     12/31/2018 09:36:07
00058 suncat0098 pw.x -in pw.inp   Done                     12/31/2018 09:36:07
00059 suncat0098 pw.x -in pw.inp   Done                     12/31/2018 09:36:07
00060 suncat0098 pw.x -in pw.inp   Done                     12/31/2018 09:36:07
00061 suncat0098 pw.x -in pw.inp   Done                     12/31/2018 09:36:07
00062 suncat0098 pw.x -in pw.inp   Done                     12/31/2018 09:36:07
00063 suncat0098 pw.x -in pw.inp   Done                     12/31/2018 09:36:07