     Program PWSCF v.5.1rc2 (svn rev. 11289) starts on  2Jan2019 at 15:12:26

     Current dimensions of program PWSCF are:
     Max number of different atomic species (ntypx) = 10
     Max number of k-points (npk) =  40000
     Max angular momentum in pseudopotentials (lmaxx) =  3
     Presently stress not available with electric field

     IMPORTANT: XC functional enforced from input :
     Exchange-correlation      = BEEF-VDW ( 1  4 27 13 2)
     Any further DFT definition will be discarded
     Please, verify this is what you really want

     Subspace diagonalization in iterative solution of the eigenvalue problem:
     a serial algorithm will be used

     bravais-lattice index     =            0
     lattice parameter (alat)  =       1.8897  a.u.
     unit-cell volume          =    4991.9530 (a.u.)^3
     number of atoms/cell      =           12
     number of atomic types    =            2
     number of electrons       =       216.00
     number of Kohn-Sham states=          138
     kinetic-energy cutoff     =      36.7493  Ry
     charge density cutoff     =     367.4932  Ry
     convergence threshold     =      1.0E-06
     mixing beta               =       0.1000
     number of iterations used =           10  plain     mixing
     Exchange-correlation      = BEEF-VDW ( 1  4 27 13 2)
     nstep                     =           50

     celldm(1)=   1.889726  celldm(2)=   0.000000  celldm(3)=   0.000000
     celldm(4)=   0.000000  celldm(5)=   0.000000  celldm(6)=   0.000000

     crystal axes: (cart. coord. in units of alat)
               a(1) = (   5.869636   0.000000   0.000000 )
               a(2) = (  -2.934818   5.083254   0.000000 )
               a(3) = (   0.000000   0.000000  24.792537 )

     reciprocal axes: (cart. coord. in units 2 pi/alat)
               b(1) = (  0.170368  0.098362  0.000000 )
               b(2) = (  0.000000  0.196724  0.000000 )
               b(3) = (  0.000000  0.000000  0.040335 )

     PseudoPot. # 1 for Zn read from file:
     /afs/slac.stanford.edu/u/if/mamunm/psp/gbrv1.5pbe/Zn.UPF
     MD5 check sum: df62231357ef9e81f77b2b3087fa5675
     Pseudo is Ultrasoft, Zval = 20.0
     Generated by new atomic code, or converted to UPF format
     Using radial grid of  943 points,  6 beta functions with:
                l(1) =   0
                l(2) =   0
                l(3) =   1
                l(4) =   1
                l(5) =   2
                l(6) =   2
     Q(r) pseudized with  8 coefficients,  rinner =    1.100   1.100   1.100
                                                       1.100   1.100

     PseudoPot. # 2 for Cd read from file:
     /afs/slac.stanford.edu/u/if/mamunm/psp/gbrv1.5pbe/Cd.UPF
     MD5 check sum: 17164a7926edb8e0dc231208abae86a6
     Pseudo is Ultrasoft + core correction, Zval = 12.0
     Generated by new atomic code, or converted to UPF format
     Using radial grid of  889 points,  6 beta functions with:
                l(1) =   0
                l(2) =   0
                l(3) =   1
                l(4) =   1
                l(5) =   2
                l(6) =   2
     Q(r) pseudized with  6 coefficients,  rinner =    1.000   1.000   1.000
                                                       1.000   1.000

     vdW kernel table read from file vdW_kernel_table
     MD5 check sum: 095c7af220d748ca6e76c0b4c6cfb241

     atomic species   valence    mass     pseudopotential
        Zn1           20.00    65.38000     Zn( 1.00)
        Cd1           12.00   112.41400     Cd( 1.00)

     No symmetry found

   Cartesian axes

     site n.     atom                  positions (alat units)
         1           Zn1 tau(   1) = (   0.0000000   0.0000000  10.0000000  )
         2           Zn1 tau(   2) = (  -1.4674089   2.5416268  10.0000000  )
         3           Zn1 tau(   3) = (   1.4674089   2.5416268  10.0000000  )
         4           Cd1 tau(   4) = (   2.9348178   0.0000000  10.0000000  )
         5           Zn1 tau(   5) = (   2.9348178   1.6944178  12.3962687  )
         6           Zn1 tau(   6) = (   1.4674089   4.2360446  12.3962687  )
         7           Zn1 tau(   7) = (  -1.4674089   4.2360446  12.3962687  )
         8           Cd1 tau(   8) = (   0.0000000   1.6944178  12.3962687  )
         9           Zn1 tau(   9) = (  -0.0000000   3.3888357  14.7925374  )
        10           Zn1 tau(  10) = (   1.4674089   0.8472089  14.7925374  )
        11           Zn1 tau(  11) = (   4.4022267   0.8472089  14.7925374  )
        12           Cd1 tau(  12) = (   2.9348178   3.3888357  14.7925374  )

     number of k points=    20  Fermi-Dirac smearing, width (Ry)=  0.0110
                       cart. coord. in units 2pi/alat
        k(    1) = (   0.0000000   0.0000000   0.0000000), wk =   0.0555556
        k(    2) = (   0.0000000   0.0327874   0.0000000), wk =   0.1111111
        k(    3) = (   0.0000000   0.0655748   0.0000000), wk =   0.1111111
        k(    4) = (   0.0000000  -0.0983622   0.0000000), wk =   0.0555556
        k(    5) = (   0.0283947   0.0163937   0.0000000), wk =   0.1111111
        k(    6) = (   0.0283947   0.0491811   0.0000000), wk =   0.1111111
        k(    7) = (   0.0283947   0.0819685   0.0000000), wk =   0.1111111
        k(    8) = (   0.0283947  -0.0819685   0.0000000), wk =   0.1111111
        k(    9) = (   0.0283947  -0.0491811   0.0000000), wk =   0.1111111
        k(   10) = (   0.0283947  -0.0163937   0.0000000), wk =   0.1111111
        k(   11) = (   0.0567894   0.0327874   0.0000000), wk =   0.1111111
        k(   12) = (   0.0567894   0.0655748   0.0000000), wk =   0.1111111
        k(   13) = (   0.0567894   0.0983622   0.0000000), wk =   0.1111111
        k(   14) = (   0.0567894  -0.0655748   0.0000000), wk =   0.1111111
        k(   15) = (   0.0567894  -0.0327874   0.0000000), wk =   0.1111111
        k(   16) = (   0.0567894   0.0000000   0.0000000), wk =   0.1111111
        k(   17) = (  -0.0851842  -0.0491811   0.0000000), wk =   0.0555556
        k(   18) = (  -0.0851842  -0.0163937   0.0000000), wk =   0.1111111
        k(   19) = (  -0.0851842   0.0163937   0.0000000), wk =   0.1111111
        k(   20) = (  -0.0851842  -0.1475433   0.0000000), wk =   0.0555556

     Largest allocated arrays     est. size (Mb)     dimensions
     Largest temporary arrays     est. size (Mb)     dimensions

     Initial potential from superposition of free atoms
     Check: negative starting charge=   -0.066835

     starting charge  214.49861, renormalised to  216.00000

     negative rho (up, down):  6.730E-02 0.000E+00

     *
     * You are using vdW-DF for exchange-correlation in this calculation.
     * Please cite the following three references that made this development
     * possible:
     *
     *   M. Dion, H. Rydberg, E. Schroder, D. C. Langreth, and
     *   B. I. Lundqvist, Phys. Rev. Lett. 92, 246401 (2004).
     *
     *   T. Thonhauser, V. R. Cooper, S. Li, A. Puzder, P. Hyldgaard, and
     *   D. C. Langreth, Phys. Rev. B 76, 125112 (2007).
     *
     *   G. Roman-Perez and J. M. Soler, Phys. Rev. Lett. 103, 096102 (2009).
     *
     *
     * If you are using vdW-DF2, please also cite:
     *
     *   K. Lee, E. D. Murray, L. Kong, B. I. Lundqvist, and
     *   D. C. Langreth, Phys. Rev. B 82, 081101(R) (2010).
     *
     *
     * If you are calculating the stress with vdW-DF, please also cite:
     *
     *   R. Sabatini, E. Kucukbenli, B. Kolb, T. Thonhauser, and
     *   S. de Gironcoli, J. Phys.: Condens. Matter 24, 424209 (2012).
     *

     Carrying out vdW-DF run using the following parameters:

     Nqs =      20    Nr_points =    1024   r_max =   100.000
     q_mesh =
               0.00001000     0.04494208     0.09755937     0.15916263
               0.23128650     0.31572767     0.41458969     0.53033537
               0.66584808     0.82450364     1.01025438     1.22772762
               1.48234092     1.78043706     2.12944203     2.53805004
               3.01644009     3.57652955     4.23227104     5.00000000

     Gradients computed in reciprocal space

     Adding external electric field

     Computed dipole along edir(3) :
        Dipole                0.0000 Ry au,          0.0000 Debye
        Dipole field          0.0000 Ry au

        Potential amp.       -0.0000 Ry
        Total length         45.6798 bohr

     Starting wfc are  144 randomized atomic wfcs

     Self-consistent Calculation

     iteration #  1     ecut=    36.75 Ry     beta=0.10
     Davidson diagonalization with overlap
     ethr =  1.00E-02,  avg # of iterations =  8.3

[...]

     total energy              =   -4513.27942839 Ry
     Harris-Foulkes estimate   =   -4513.74490805 Ry
     estimated scf accuracy    <       2.70904139 Ry

[...]

     End of self-consistent calculation

          k = 0.0000 0.0000 0.0000 ( 18871 PWs)   bands (ev):

  -126.3578-126.3534-126.3532-126.1594-126.1594-126.1590-126.1590-126.1590
  -126.1589 -80.5442 -80.5401 -80.5396 -80.5378 -80.5348 -80.5329 -80.5293
   -80.5242 -80.5223 -80.3515 -80.3513 -80.3508 -80.3508 -80.3506 -80.3506
   -80.3378 -80.3378 -80.3377 -80.3377 -80.3351 -80.3350 -80.3337 -80.3336
   -80.3272 -80.3272 -80.3271 -80.3271  -9.0555  -9.0555  -9.0548  -8.9999
    -8.9998  -8.8297  -8.8116  -8.8115  -8.8046  -8.8046  -8.7917  -8.6556
    -8.6556  -8.6515  -8.6514  -8.4825  -7.6887  -7.6493  -7.5166  -7.4779
    -7.4650  -7.4634  -7.3788  -7.3545  -7.3541  -7.3162  -7.3152  -7.2840
    -7.2495  -7.2464  -7.2364  -7.2364  -7.1812  -7.1811  -7.0925  -7.0925
    -7.0775  -7.0754  -7.0214  -7.0014  -6.9994  -6.9959  -6.9663  -6.9662
    -6.9459  -6.9020  -6.9014  -6.8916  -6.8916  -6.8912  -6.8545  -6.8543
    -6.8383  -6.8382  -6.8313  -6.7903  -6.7903  -6.7552  -6.7552  -6.6822
    -6.6793  -6.4634  -3.7208  -2.0865  -2.0864  -1.9175  -1.8567  -1.8565
    -1.5716  -0.8718  -0.7243  -0.7242  -0.6352   0.0198   0.0198   0.4062
     1.7495   1.7495   2.1493   2.1574   2.1576   2.5279   2.6843   3.6880
     4.2916   5.0262   5.2646   5.4540   5.4542   5.5509   5.5510   5.7464
     5.8045   6.8303   7.2393   7.9880   7.9880   8.0553   8.2728   8.4965
     8.4965   8.6561

[...]

          k =-0.0852-0.0492 0.0000 ( 18736 PWs)   bands (ev):

[...]

     the Fermi energy is     0.3326 ev

!    total energy              =   -4513.12764903 Ry
     Harris-Foulkes estimate   =   -4513.12764809 Ry
     estimated scf accuracy    <       0.00000093 Ry

     The total energy is the sum of the following terms:

     one-electron contribution =  -26041.05327991 Ry
     hartree contribution      =   13027.01737487 Ry
     xc contribution           =    -512.88177318 Ry
     ewald contribution        =    9013.81707258 Ry
     electric field correction =       0.00000000 Ry
     smearing contrib. (-TS)   =      -0.02704339 Ry

     convergence has been achieved in  14 iterations

 BEEF-vdW xc energy contributions
           1 :   -453.763672544355
           2 :    412.015691670557
           3 :   -341.959826396496
           4 :    263.927804837656
           5 :   -196.014307420918
           6 :    147.306297748719
           7 :   -116.583934567961
           8 :    96.2701563082175
           9 :   -78.5601741684272
[...]
     Generated by new atomic code, or converted to UPF format
     Using radial grid of  943 points,  6 beta functions with:
                l(1) =   0
                l(2) =   0
                l(3) =   1
                l(4) =   1
                l(5) =   2
                l(6) =   2
     Q(r) pseudized with  8 coefficients,  rinner =    1.100   1.100   1.100
                                                       1.100   1.100

     PseudoPot. # 2 for Cd read from file:
     /afs/slac.stanford.edu/u/if/mamunm/psp/gbrv1.5pbe/Cd.UPF
     MD5 check sum: 17164a7926edb8e0dc231208abae86a6
     Pseudo is Ultrasoft + core correction, Zval = 12.0
     Generated by new atomic code, or converted to UPF format
     Using radial grid of  889 points,  6 beta functions with:
                l(1) =   0
                l(2) =   0
                l(3) =   1
                l(4) =   1
                l(5) =   2
                l(6) =   2
     Q(r) pseudized with  6 coefficients,  rinner =    1.000   1.000   1.000
                                                       1.000   1.000

     vdW kernel table read from file vdW_kernel_table
     MD5 check sum: 095c7af220d748ca6e76c0b4c6cfb241

     atomic species   valence    mass     pseudopotential
        Zn1           20.00    65.38000     Zn( 1.00)
        Cd1           12.00   112.41400     Cd( 1.00)

     No symmetry found

   Cartesian axes

     site n.     atom                  positions (alat units)
         1           Zn1 tau(   1) = (   0.0000000   0.0000000  10.0000000  )
         2           Zn1 tau(   2) = (  -1.4674089   2.5416268  10.0000000  )
         3           Zn1 tau(   3) = (   1.4674089   2.5416268  10.0000000  )
         4           Cd1 tau(   4) = (   2.9348178   0.0000000  10.0000000  )
         5           Zn1 tau(   5) = (   2.9348178   1.6944178  12.3962687  )
         6           Zn1 tau(   6) = (   1.4674089   4.2360446  12.3962687  )
         7           Zn1 tau(   7) = (  -1.4674089   4.2360446  12.3962687  )
         8           Cd1 tau(   8) = (   0.0000000   1.6944178  12.3962687  )
         9           Zn1 tau(   9) = (   0.0000838   3.4312101  14.8627643  )
        10           Zn1 tau(  10) = (   1.5041402   0.8260762  14.8627336  )
        11           Zn1 tau(  11) = (   4.3651938   0.8258091  14.8620441  )
        12           Cd1 tau(  12) = (   2.9356140   3.3892840  15.2179535  )

     number of k points=    20  Fermi-Dirac smearing, width (Ry)=  0.0110
                       cart. coord. in units 2pi/alat
        k(    1) = (   0.0000000   0.0000000   0.0000000), wk =   0.0555556
        k(    2) = (   0.0000000   0.0327874   0.0000000), wk =   0.1111111
        k(    3) = (   0.0000000   0.0655748   0.0000000), wk =   0.1111111
        k(    4) = (   0.0000000  -0.0983622   0.0000000), wk =   0.0555556
        k(    5) = (   0.0283947   0.0163937   0.0000000), wk =   0.1111111
        k(    6) = (   0.0283947   0.0491811   0.0000000), wk =   0.1111111
        k(    7) = (   0.0283947   0.0819685   0.0000000), wk =   0.1111111
        k(    8) = (   0.0283947  -0.0819685   0.0000000), wk =   0.1111111
        k(    9) = (   0.0283947  -0.0491811   0.0000000), wk =   0.1111111
        k(   10) = (   0.0283947  -0.0163937   0.0000000), wk =   0.1111111
        k(   11) = (   0.0567894   0.0327874   0.0000000), wk =   0.1111111
        k(   12) = (   0.0567894   0.0655748   0.0000000), wk =   0.1111111
        k(   13) = (   0.0567894   0.0983622   0.0000000), wk =   0.1111111
        k(   14) = (   0.0567894  -0.0655748   0.0000000), wk =   0.1111111
        k(   15) = (   0.0567894  -0.0327874   0.0000000), wk =   0.1111111
        k(   16) = (   0.0567894   0.0000000   0.0000000), wk =   0.1111111
        k(   17) = (  -0.0851842  -0.0491811   0.0000000), wk =   0.0555556
        k(   18) = (  -0.0851842  -0.0163937   0.0000000), wk =   0.1111111
        k(   19) = (  -0.0851842   0.0163937   0.0000000), wk =   0.1111111
        k(   20) = (  -0.0851842  -0.1475433   0.0000000), wk =   0.0555556

     Largest allocated arrays     est. size (Mb)     dimensions
     Largest temporary arrays     est. size (Mb)     dimensions

     Initial potential from superposition of free atoms
     Check: negative starting charge=   -0.066531

     starting charge  214.49861, renormalised to  216.00000

[...]

     *
     * You are using vdW-DF for exchange-correlation in this calculation.
     * Please cite the following three references that made this development
     * possible:
     *
     *   M. Dion, H. Rydberg, E. Schroder, D. C. Langreth, and
     *   B. I. Lundqvist, Phys. Rev. Lett. 92, 246401 (2004).
     *
     *   T. Thonhauser, V. R. Cooper, S. Li, A. Puzder, P. Hyldgaard, and
     *   D. C. Langreth, Phys. Rev. B 76, 125112 (2007).
     *
     *   G. Roman-Perez and J. M. Soler, Phys. Rev. Lett. 103, 096102 (2009).
     *
     *
     * If you are using vdW-DF2, please also cite:
     *
     *   K. Lee, E. D. Murray, L. Kong, B. I. Lundqvist, and
     *   D. C. Langreth, Phys. Rev. B 82, 081101(R) (2010).
     *
     *
     * If you are calculating the stress with vdW-DF, please also cite:
     *
     *   R. Sabatini, E. Kucukbenli, B. Kolb, T. Thonhauser, and
     *   S. de Gironcoli, J. Phys.: Condens. Matter 24, 424209 (2012).
     *

     Carrying out vdW-DF run using the following parameters:

     Nqs =      20    Nr_points =    1024   r_max =   100.000
     q_mesh =
               0.00001000     0.04494208     0.09755937     0.15916263
               0.23128650     0.31572767     0.41458969     0.53033537
               0.66584808     0.82450364     1.01025438     1.22772762
               1.48234092     1.78043706     2.12944203     2.53805004
               3.01644009     3.57652955     4.23227104     5.00000000

     Gradients computed in reciprocal space

[...]

     Starting wfc are  144 randomized atomic wfcs

     Self-consistent Calculation

[...]

     total energy              =   -4513.15132176 Ry
     Harris-Foulkes estimate   =   -4513.15132018 Ry
     estimated scf accuracy    <       0.00000271 Ry

     iteration # 13     ecut=    36.75 Ry     beta=0.10
     Davidson diagonalization with overlap
     ethr =  1.26E-09,  avg # of iterations =  3.0

[...]

     negative rho (up, down):  6.903E-02 0.000E+00

     Adding external electric field

     Computed dipole along edir(3) :
        Dipole                0.0178 Ry au,          0.0452 Debye
        Dipole field          0.0000 Ry au

        Potential amp.       -0.0041 Ry
        Total length         45.6798 bohr

     End of self-consistent calculation

[...]

          k = 0.0568 0.0000 0.0000 ( 18777 PWs)   bands (ev):

[...]

          k =-0.0852-0.1475 0.0000 ( 18736 PWs)   bands (ev):

  -126.2790-126.2789-126.2787-126.1385-126.1384-126.1382-126.0829-126.0826
  -126.0825 -80.4635 -80.4627 -80.4621 -80.4608 -80.4600 -80.4590 -80.4520
   -80.4505 -80.4487 -80.3305 -80.3303 -80.3300 -80.3159 -80.3148 -80.3140
   -80.3113 -80.3095 -80.3074 -80.2735 -80.2731 -80.2729 -80.2601 -80.2590
   -80.2578 -80.2577 -80.2548 -80.2531  -8.9661  -8.8960  -8.8768  -8.8537
    -8.8423  -8.7679  -8.6913  -8.6896  -8.6587  -8.6205  -8.5745  -8.4963
    -8.4888  -8.4688  -8.4502  -7.5091  -7.4095  -7.3913  -7.3783  -7.3510
    -7.3323  -7.3141  -7.2798  -7.2606  -7.2591  -7.2540  -7.2384  -7.2259
    -7.1681  -7.1590  -7.1584  -7.1380  -7.1014  -7.0713  -7.0486  -7.0481
    -7.0266  -7.0138  -7.0026  -6.9922  -6.9860  -6.9799  -6.9715  -6.9658
    -6.9617  -6.9476  -6.9419  -6.9345  -6.9287  -6.9029  -6.8924  -6.8919
    -6.8802  -6.8719  -6.8543  -6.8203  -6.8131  -6.7924  -6.7462  -6.7077
    -6.4867  -6.4226  -4.9215  -4.8463  -3.4140  -3.1250  -2.5378  -2.4210
    -1.8267  -1.6175   0.3171   0.6421   0.8251   0.8954   2.4902   2.8935
     2.9222   3.0279   3.4697   3.7065   3.8199   3.8945   4.3143   4.5642
     4.8430   4.8660   5.0641   5.0927   5.6536   5.6963   5.8884   6.0679
     6.3429   6.3441   6.4191   6.4960   6.5160   6.6530   6.6878   6.7869
     6.7970   6.9857

     the Fermi energy is     0.3676 ev

!    total energy              =   -4513.15132588 Ry
     Harris-Foulkes estimate   =   -4513.15132250 Ry
     estimated scf accuracy    <       0.00000070 Ry

     The total energy is the sum of the following terms:

     one-electron contribution =  -25616.86443316 Ry
     hartree contribution      =   12815.33216937 Ry
     xc contribution           =    -512.81248510 Ry
     ewald contribution        =    8801.22142586 Ry
     electric field correction =       0.00000080 Ry
     smearing contrib. (-TS)   =      -0.02800364 Ry

     convergence has been achieved in  13 iterations

 BEEF-vdW xc energy contributions
           1 :   -454.175045200107
           2 :    412.346833247156
           3 :   -342.198923292767
           4 :    264.142859879981
           5 :   -196.300419680195
           6 :    147.712848894854
           7 :   -117.079216196800
           8 :    96.7692854173101
           9 :   -78.9923501255278
          10 :    60.2656984846017
          11 :   -41.9971529867992
          12 :    27.7435307796272
          13 :   -19.6811302703766
          14 :    16.8390885879375
          15 :   -15.9848272263526
          16 :    14.0571556690844
          17 :   -10.1397973083924
          18 :    5.61016764840485
          19 :   -2.62239356572343
          20 :    2.26849607986935
          21 :   -3.81203162031181
          22 :    5.41146664419500
          23 :   -5.59678580316341
          24 :    4.29127872346930
          25 :   -2.65985579622799
          26 :    2.03531279819674
          27 :   -2.84827402473411
          28 :    4.38102612164926
          29 :   -5.44620945338210
          30 :    5.36597383704765
          31 :   -36.4089452884336
          32 :   -25.2307045273182

     Forces acting on atoms (Ry/au):

     negative rho (up, down):  6.903E-02 0.000E+00
     atom    1 type  1   force =    -0.00000106   -0.00459835   -0.00480499
     atom    2 type  1   force =    -0.00398040    0.00229874   -0.00480369
     atom    3 type  1   force =     0.00398292    0.00230010   -0.00480435
     atom    4 type  2   force =    -0.00000103    0.00000260   -0.01992422
     atom    5 type  1   force =    -0.00000270    0.00474436    0.00792318
     atom    6 type  1   force =     0.00410497   -0.00237694    0.00792193
     atom    7 type  1   force =    -0.00410387   -0.00237240    0.00791175
     atom    8 type  2   force =     0.00000649    0.00000532    0.01243184
     atom    9 type  1   force =     0.00004622   -0.00134478   -0.00058688
     atom   10 type  1   force =    -0.00114222    0.00071222   -0.00058668
     atom   11 type  1   force =     0.00115710    0.00066965   -0.00055549
     atom   12 type  2   force =    -0.00006642   -0.00004051   -0.00012241

     Total force =     0.030761     Total SCF correction =     0.003055

     entering subroutine stress ...

     negative rho (up, down):  6.903E-02 0.000E+00
          total   stress  (Ry/bohr**3)                   (kbar)     P=  -17.02
  -0.00015878   0.00000000  -0.00000001        -23.36      0.00     -0.00
   0.00000000  -0.00015878  -0.00000001          0.00    -23.36     -0.00
  -0.00000001  -0.00000001  -0.00002963         -0.00     -0.00     -4.36

 !ASE

     Writing output data file calc.save

     General routines

     Parallel routines

   This run was terminated on:  17:55:23   2Jan2019

   JOB DONE.
Job  /afs/slac/g/suncat/bin/suncat-tsmpirun -x LD_LIBRARY_PATH -wdir /scratch/qe649465_8DrEB pw.x -in pw.inp

TID   HOST_NAME   COMMAND_LINE            STATUS            TERMINATION_TIME
00000 suncat0146 pw.x -in pw.inp   Done                     01/02/2019 17:55:23
00001 suncat0146 pw.x -in pw.inp   Done                     01/02/2019 17:55:23
00002 suncat0146 pw.x -in pw.inp   Done                     01/02/2019 17:55:23
00003 suncat0146 pw.x -in pw.inp   Done                     01/02/2019 17:55:23
00004 suncat0146 pw.x -in pw.inp   Done                     01/02/2019 17:55:23
00005 suncat0146 pw.x -in pw.inp   Done                     01/02/2019 17:55:23
00006 suncat0146 pw.x -in pw.inp   Done                     01/02/2019 17:55:23
00007 suncat0146 pw.x -in pw.inp   Done                     01/02/2019 17:55:23
00008 suncat0136 pw.x -in pw.inp   Done                     01/02/2019 17:55:23
00009 suncat0136 pw.x -in pw.inp   Done                     01/02/2019 17:55:23
00010 suncat0136 pw.x -in pw.inp   Done                     01/02/2019 17:55:23
00011 suncat0136 pw.x -in pw.inp   Done                     01/02/2019 17:55:23
00012 suncat0136 pw.x -in pw.inp   Done                     01/02/2019 17:55:23
00013 suncat0136 pw.x -in pw.inp   Done                     01/02/2019 17:55:23
00014 suncat0136 pw.x -in pw.inp   Done                     01/02/2019 17:55:23
00015 suncat0136 pw.x -in pw.inp   Done                     01/02/2019 17:55:23
00016 suncat0248 pw.x -in pw.inp   Done                     01/02/2019 17:55:23
00017 suncat0248 pw.x -in pw.inp   Done                     01/02/2019 17:55:23
00018 suncat0248 pw.x -in pw.inp   Done                     01/02/2019 17:55:23
00019 suncat0248 pw.x -in pw.inp   Done                     01/02/2019 17:55:23
00020 suncat0248 pw.x -in pw.inp   Done                     01/02/2019 17:55:23
00021 suncat0248 pw.x -in pw.inp   Done                     01/02/2019 17:55:23
00022 suncat0248 pw.x -in pw.inp   Done                     01/02/2019 17:55:23
00023 suncat0248 pw.x -in pw.inp   Done                     01/02/2019 17:55:23
00024 suncat0247 pw.x -in pw.inp   Done                     01/02/2019 17:55:23
00025 suncat0247 pw.x -in pw.inp   Done                     01/02/2019 17:55:23
00026 suncat0247 pw.x -in pw.inp   Done                     01/02/2019 17:55:23
00027 suncat0247 pw.x -in pw.inp   Done                     01/02/2019 17:55:23
00028 suncat0247 pw.x -in pw.inp   Done                     01/02/2019 17:55:23
00029 suncat0247 pw.x -in pw.inp   Done                     01/02/2019 17:55:23
00030 suncat0247 pw.x -in pw.inp   Done                     01/02/2019 17:55:23
00031 suncat0247 pw.x -in pw.inp   Done                     01/02/2019 17:55:23
00032 suncat0246 pw.x -in pw.inp   Done                     01/02/2019 17:55:23
00033 suncat0246 pw.x -in pw.inp   Done                     01/02/2019 17:55:23
00034 suncat0246 pw.x -in pw.inp   Done                     01/02/2019 17:55:23
00035 suncat0246 pw.x -in pw.inp   Done                     01/02/2019 17:55:23
00036 suncat0246 pw.x -in pw.inp   Done                     01/02/2019 17:55:23
00037 suncat0246 pw.x -in pw.inp   Done                     01/02/2019 17:55:23
00038 suncat0246 pw.x -in pw.inp   Done                     01/02/2019 17:55:23
00039 suncat0246 pw.x -in pw.inp   Done                     01/02/2019 17:55:23
00040 suncat0245 pw.x -in pw.inp   Done                     01/02/2019 17:55:23
00041 suncat0245 pw.x -in pw.inp   Done                     01/02/2019 17:55:23
00042 suncat0245 pw.x -in pw.inp   Done                     01/02/2019 17:55:23
00043 suncat0245 pw.x -in pw.inp   Done                     01/02/2019 17:55:23
00044 suncat0245 pw.x -in pw.inp   Done                     01/02/2019 17:55:23
00045 suncat0245 pw.x -in pw.inp   Done                     01/02/2019 17:55:23
00046 suncat0245 pw.x -in pw.inp   Done                     01/02/2019 17:55:23
00047 suncat0245 pw.x -in pw.inp   Done                     01/02/2019 17:55:23
00048 suncat0214 pw.x -in pw.inp   Done                     01/02/2019 17:55:23
00049 suncat0214 pw.x -in pw.inp   Done                     01/02/2019 17:55:23
00050 suncat0214 pw.x -in pw.inp   Done                     01/02/2019 17:55:23
00051 suncat0214 pw.x -in pw.inp   Done                     01/02/2019 17:55:23
00052 suncat0214 pw.x -in pw.inp   Done                     01/02/2019 17:55:23
00053 suncat0214 pw.x -in pw.inp   Done                     01/02/2019 17:55:23
00054 suncat0214 pw.x -in pw.inp   Done                     01/02/2019 17:55:23
00055 suncat0214 pw.x -in pw.inp   Done                     01/02/2019 17:55:23
00056 suncat0213 pw.x -in pw.inp   Done                     01/02/2019 17:55:23
00057 suncat0213 pw.x -in pw.inp   Done                     01/02/2019 17:55:23
00058 suncat0213 pw.x -in pw.inp   Done                     01/02/2019 17:55:23
00059 suncat0213 pw.x -in pw.inp   Done                     01/02/2019 17:55:23
00060 suncat0213 pw.x -in pw.inp   Done                     01/02/2019 17:55:23
00061 suncat0213 pw.x -in pw.inp   Done                     01/02/2019 17:55:23
00062 suncat0213 pw.x -in pw.inp   Done                     01/02/2019 17:55:23
00063 suncat0213 pw.x -in pw.inp   Done                     01/02/2019 17:55:23