     Program PWSCF v.5.1rc2 (svn rev. 11289) starts on  1Jan2019 at 18:21: 5

     Current dimensions of program PWSCF are:
     Max number of different atomic species (ntypx) = 10
     Max number of k-points (npk) =  40000
     Max angular momentum in pseudopotentials (lmaxx) =  3
     Presently stress not available with electric field

     IMPORTANT: XC functional enforced from input :
     Exchange-correlation      = BEEF-VDW ( 1  4 27 13 2)
     Any further DFT definition will be discarded
     Please, verify this is what you really want

     Subspace diagonalization in iterative solution of the eigenvalue problem:
     a serial algorithm will be used

     bravais-lattice index     =            0
     lattice parameter (alat)  =       1.8897  a.u.
     unit-cell volume          =    4295.7694 (a.u.)^3
     number of atoms/cell      =           12
     number of atomic types    =            2
     number of electrons       =       144.00
     number of Kohn-Sham states=          102
     kinetic-energy cutoff     =      36.7493  Ry
     charge density cutoff     =     367.4932  Ry
     convergence threshold     =      1.0E-06
     mixing beta               =       0.1000
     number of iterations used =           10  plain     mixing
     Exchange-correlation      = BEEF-VDW ( 1  4 27 13 2)
     nstep                     =           50

     celldm(1)=   1.889726  celldm(2)=   0.000000  celldm(3)=   0.000000
     celldm(4)=   0.000000  celldm(5)=   0.000000  celldm(6)=   0.000000

     crystal axes: (cart. coord. in units of alat)
               a(1) = (   5.480234   0.000000   0.000000 )
               a(2) = (  -2.740117   4.746022   0.000000 )
               a(3) = (   0.000000   0.000000  24.474593 )

     reciprocal axes: (cart. coord. in units 2 pi/alat)
               b(1) = (  0.182474  0.105351  0.000000 )
               b(2) = (  0.000000  0.210703  0.000000 )
               b(3) = (  0.000000  0.000000  0.040859 )

     PseudoPot. # 1 for Tc read from file:
     /afs/slac.stanford.edu/u/if/mamunm/psp/gbrv1.5pbe/Tc.UPF
     MD5 check sum: 9eb49e5b028550b2339a02317eb7b844
     Pseudo is Ultrasoft + core correction, Zval = 15.0
     Generated by new atomic code, or converted to UPF format
     Using radial grid of  965 points,  6 beta functions with:
                l(1) =   0
                l(2) =   0
                l(3) =   1
                l(4) =   1
                l(5) =   2
                l(6) =   2
     Q(r) pseudized with  8 coefficients,  rinner =    1.300   1.300   1.300
                                                       1.300   1.300

     PseudoPot. # 2 for Al read from file:
     /afs/slac.stanford.edu/u/if/mamunm/psp/gbrv1.5pbe/Al.UPF
     MD5 check sum: 0a6289f5291fc8f409219462bc851e1f
     Pseudo is Ultrasoft + core correction, Zval =  3.0
     Generated by new atomic code, or converted to UPF format
     Using radial grid of  893 points,  3 beta functions with:
                l(1) =   0
                l(2) =   1
                l(3) =   2
     Q(r) pseudized with  8 coefficients,  rinner =    0.900   0.900   0.900
                                                       0.900   0.900

     vdW kernel table read from file vdW_kernel_table
     MD5 check sum: 095c7af220d748ca6e76c0b4c6cfb241

     atomic species   valence    mass     pseudopotential
        Tc1           15.00    97.90721     Tc( 1.00)
        Al1            3.00    26.98154     Al( 1.00)

     No symmetry found

   Cartesian axes

     site n.     atom                  positions (alat units)
         1           Tc1 tau(   1) = (   0.0000000   0.0000000  10.0000000  )
         2           Tc1 tau(   2) = (  -1.3700586   2.3730111  10.0000000  )
         3           Tc1 tau(   3) = (   1.3700586   2.3730111  10.0000000  )
         4           Al1 tau(   4) = (   2.7401172   0.0000000  10.0000000  )
         5           Tc1 tau(   5) = (   2.7401172   1.5820074  12.2372963  )
         6           Tc1 tau(   6) = (   1.3700586   3.9550185  12.2372963  )
         7           Tc1 tau(   7) = (  -1.3700586   3.9550185  12.2372963  )
         8           Al1 tau(   8) = (   0.0000000   1.5820074  12.2372963  )
         9           Tc1 tau(   9) = (  -0.0000000   3.1640148  14.4745926  )
        10           Tc1 tau(  10) = (   1.3700586   0.7910037  14.4745926  )
        11           Tc1 tau(  11) = (   4.1101758   0.7910037  14.4745926  )
        12           Al1 tau(  12) = (   2.7401172   3.1640148  14.4745926  )

     number of k points=    20  Fermi-Dirac smearing, width (Ry)=  0.0110
                       cart. coord. in units 2pi/alat
        k(    1) = (   0.0000000   0.0000000   0.0000000), wk =   0.0555556
        k(    2) = (   0.0000000   0.0351171   0.0000000), wk =   0.1111111
        k(    3) = (   0.0000000   0.0702343   0.0000000), wk =   0.1111111
        k(    4) = (   0.0000000  -0.1053514   0.0000000), wk =   0.0555556
        k(    5) = (   0.0304123   0.0175586   0.0000000), wk =   0.1111111
        k(    6) = (   0.0304123   0.0526757   0.0000000), wk =   0.1111111
        k(    7) = (   0.0304123   0.0877928   0.0000000), wk =   0.1111111
        k(    8) = (   0.0304123  -0.0877928   0.0000000), wk =   0.1111111
        k(    9) = (   0.0304123  -0.0526757   0.0000000), wk =   0.1111111
        k(   10) = (   0.0304123  -0.0175586   0.0000000), wk =   0.1111111
        k(   11) = (   0.0608246   0.0351171   0.0000000), wk =   0.1111111
        k(   12) = (   0.0608246   0.0702343   0.0000000), wk =   0.1111111
        k(   13) = (   0.0608246   0.1053514   0.0000000), wk =   0.1111111
        k(   14) = (   0.0608246  -0.0702343   0.0000000), wk =   0.1111111
        k(   15) = (   0.0608246  -0.0351171   0.0000000), wk =   0.1111111
        k(   16) = (   0.0608246   0.0000000   0.0000000), wk =   0.1111111
        k(   17) = (  -0.0912370  -0.0526757   0.0000000), wk =   0.0555556
        k(   18) = (  -0.0912370  -0.0175586   0.0000000), wk =   0.1111111
        k(   19) = (  -0.0912370   0.0175586   0.0000000), wk =   0.1111111
        k(   20) = (  -0.0912370  -0.1580271   0.0000000), wk =   0.0555556

     Largest allocated arrays     est. size (Mb)     dimensions
     Largest temporary arrays     est. size (Mb)     dimensions

     Check: negative/imaginary core charge=   -0.000018    0.000000

     Initial potential from superposition of free atoms
     Check: negative starting charge=   -1.126712

     starting charge  134.99235, renormalised to  144.00000

     negative rho (up, down):  1.202E+00 0.000E+00

     *
     * You are using vdW-DF for exchange-correlation in this calculation.
     * Please cite the following three references that made this development
     * possible:
     *
     *   M. Dion, H. Rydberg, E. Schroder, D. C. Langreth, and
     *   B. I. Lundqvist, Phys. Rev. Lett. 92, 246401 (2004).
     *
     *   T. Thonhauser, V. R. Cooper, S. Li, A. Puzder, P. Hyldgaard, and
     *   D. C. Langreth, Phys. Rev. B 76, 125112 (2007).
     *
     *   G. Roman-Perez and J. M. Soler, Phys. Rev. Lett. 103, 096102 (2009).
     *
     *
     * If you are using vdW-DF2, please also cite:
     *
     *   K. Lee, E. D. Murray, L. Kong, B. I. Lundqvist, and
     *   D. C. Langreth, Phys. Rev. B 82, 081101(R) (2010).
     *
     *
     * If you are calculating the stress with vdW-DF, please also cite:
     *
     *   R. Sabatini, E. Kucukbenli, B. Kolb, T. Thonhauser, and
     *   S. de Gironcoli, J. Phys.: Condens. Matter 24, 424209 (2012).
     *

     Carrying out vdW-DF run using the following parameters:

     Nqs =      20    Nr_points =    1024   r_max =   100.000
     q_mesh =
               0.00001000     0.04494208     0.09755937     0.15916263
               0.23128650     0.31572767     0.41458969     0.53033537
               0.66584808     0.82450364     1.01025438     1.22772762
               1.48234092     1.78043706     2.12944203     2.53805004
               3.01644009     3.57652955     4.23227104     5.00000000

     Gradients computed in reciprocal space

     Adding external electric field

     Computed dipole along edir(3) :
        Dipole                0.0000 Ry au,          0.0000 Debye
        Dipole field          0.0000 Ry au

        Potential amp.       -0.0000 Ry
        Total length         45.0940 bohr

     Starting wfc are  129 randomized atomic wfcs

     Self-consistent Calculation

     iteration #  1     ecut=    36.75 Ry     beta=0.10
     Davidson diagonalization with overlap
     ethr =  1.00E-02,  avg # of iterations =  8.0

[...]

     total energy              =   -1599.79035782 Ry
     Harris-Foulkes estimate   =   -1602.38430668 Ry
     estimated scf accuracy    <      16.06705560 Ry

[...]

     End of self-consistent calculation

          k = 0.0000 0.0000 0.0000 ( 16073 PWs)   bands (ev):

   -65.7404 -65.6311 -65.6311 -65.5055 -65.4953 -65.4042 -65.4041 -65.4016
   -65.4016 -38.2118 -37.9882 -37.9400 -37.9400 -37.9366 -37.8494 -37.8437
   -37.8437 -37.6454 -37.6454 -37.5122 -37.5121 -37.5026 -37.4889 -37.4016
   -37.4015 -37.3301 -37.3301 -37.2979 -37.2769 -37.2769 -37.2335 -37.1980
   -37.1187 -37.1187 -37.1132 -37.1132  -6.6917  -5.2172  -5.1110  -3.8878
    -3.1497  -3.1302  -2.6213  -2.6213  -2.5260  -2.3242  -2.3242  -2.2981
    -2.2981  -1.9495  -1.8441  -1.8441  -1.0719  -1.0719  -0.4804  -0.4804
    -0.4218  -0.4162   0.2151   0.2451   0.2451   0.4207   0.5949   0.5949
     1.0819   1.1873   1.2772   1.2773   1.6225   1.6225   1.7015   1.7015
     1.8323   1.8323   1.8815   2.3442   2.3442   2.3660   2.3660   2.7623
     2.7623   3.1804   3.4539   3.4539   3.5495   3.7537   4.0576   4.2499
     4.3391   4.3392   4.5171   4.6133   4.8943   4.8943   5.2704   5.4630
     5.8338   6.1896   6.3325   6.9585   7.4452   8.0692

[...]

          k =-0.0912-0.0527 0.0000 ( 16164 PWs)   bands (ev):

[...]

     the Fermi energy is     1.4874 ev

!    total energy              =   -1598.19243451 Ry
     Harris-Foulkes estimate   =   -1598.19243103 Ry
     estimated scf accuracy    <       0.00000080 Ry

     The total energy is the sum of the following terms:

     one-electron contribution =  -12085.20774417 Ry
     hartree contribution      =    6039.46990344 Ry
     xc contribution           =    -311.19837944 Ry
     ewald contribution        =    4758.82331434 Ry
     electric field correction =       0.00000013 Ry
     smearing contrib. (-TS)   =      -0.07952881 Ry

     convergence has been achieved in  19 iterations

 BEEF-vdW xc energy contributions
           1 :   -271.991219821588
           2 :    249.375067352756
           3 :   -209.518470675024
           4 :    160.913610345400
           5 :   -112.275690575145
           6 :    69.9965863728758
           7 :   -37.0283021625401
           8 :    13.1969800759823
           9 :    3.49791145219405
          10 :   -15.4301592444990
          11 :    24.2712681627374
          12 :   -30.5816389024889
          13 :    33.9684590550283
          14 :   -33.6389838859665
          15 :    29.0706696799484
          16 :   -20.5617540927553
          17 :    9.42059143886070
          18 :    2.28577203833743
[...]
               b(2) = (  0.000000  0.210703  0.000000 )
               b(3) = (  0.000000  0.000000  0.040859 )

     PseudoPot. # 1 for Tc read from file:
     /afs/slac.stanford.edu/u/if/mamunm/psp/gbrv1.5pbe/Tc.UPF
     MD5 check sum: 9eb49e5b028550b2339a02317eb7b844
     Pseudo is Ultrasoft + core correction, Zval = 15.0
     Generated by new atomic code, or converted to UPF format
     Using radial grid of  965 points,  6 beta functions with:
                l(1) =   0
                l(2) =   0
                l(3) =   1
                l(4) =   1
                l(5) =   2
                l(6) =   2
     Q(r) pseudized with  8 coefficients,  rinner =    1.300   1.300   1.300
                                                       1.300   1.300

     PseudoPot. # 2 for Al read from file:
     /afs/slac.stanford.edu/u/if/mamunm/psp/gbrv1.5pbe/Al.UPF
     MD5 check sum: 0a6289f5291fc8f409219462bc851e1f
     Pseudo is Ultrasoft + core correction, Zval =  3.0
     Generated by new atomic code, or converted to UPF format
     Using radial grid of  893 points,  3 beta functions with:
                l(1) =   0
                l(2) =   1
                l(3) =   2
     Q(r) pseudized with  8 coefficients,  rinner =    0.900   0.900   0.900
                                                       0.900   0.900

     vdW kernel table read from file vdW_kernel_table
     MD5 check sum: 095c7af220d748ca6e76c0b4c6cfb241

     atomic species   valence    mass     pseudopotential
        Tc1           15.00    97.90721     Tc( 1.00)
        Al1            3.00    26.98154     Al( 1.00)

     No symmetry found

   Cartesian axes

     site n.     atom                  positions (alat units)
         1           Tc1 tau(   1) = (   0.0000000   0.0000000  10.0000000  )
         2           Tc1 tau(   2) = (  -1.3700586   2.3730111  10.0000000  )
         3           Tc1 tau(   3) = (   1.3700586   2.3730111  10.0000000  )
         4           Al1 tau(   4) = (   2.7401172   0.0000000  10.0000000  )
         5           Tc1 tau(   5) = (   2.7401172   1.5820074  12.2372963  )
         6           Tc1 tau(   6) = (   1.3700586   3.9550185  12.2372963  )
         7           Tc1 tau(   7) = (  -1.3700586   3.9550185  12.2372963  )
         8           Al1 tau(   8) = (   0.0000000   1.5820074  12.2372963  )
         9           Tc1 tau(   9) = (   0.0000014   3.2239848  14.4194055  )
        10           Tc1 tau(  10) = (   1.4219912   0.7610210  14.4193796  )
        11           Tc1 tau(  11) = (   4.0582496   0.7610231  14.4194031  )
        12           Al1 tau(  12) = (   2.7401216   3.1640130  14.6053786  )

     number of k points=    20  Fermi-Dirac smearing, width (Ry)=  0.0110
                       cart. coord. in units 2pi/alat
        k(    1) = (   0.0000000   0.0000000   0.0000000), wk =   0.0555556
        k(    2) = (   0.0000000   0.0351171   0.0000000), wk =   0.1111111
        k(    3) = (   0.0000000   0.0702343   0.0000000), wk =   0.1111111
        k(    4) = (   0.0000000  -0.1053514   0.0000000), wk =   0.0555556
        k(    5) = (   0.0304123   0.0175586   0.0000000), wk =   0.1111111
        k(    6) = (   0.0304123   0.0526757   0.0000000), wk =   0.1111111
        k(    7) = (   0.0304123   0.0877928   0.0000000), wk =   0.1111111
        k(    8) = (   0.0304123  -0.0877928   0.0000000), wk =   0.1111111
        k(    9) = (   0.0304123  -0.0526757   0.0000000), wk =   0.1111111
        k(   10) = (   0.0304123  -0.0175586   0.0000000), wk =   0.1111111
        k(   11) = (   0.0608246   0.0351171   0.0000000), wk =   0.1111111
        k(   12) = (   0.0608246   0.0702343   0.0000000), wk =   0.1111111
        k(   13) = (   0.0608246   0.1053514   0.0000000), wk =   0.1111111
        k(   14) = (   0.0608246  -0.0702343   0.0000000), wk =   0.1111111
        k(   15) = (   0.0608246  -0.0351171   0.0000000), wk =   0.1111111
        k(   16) = (   0.0608246   0.0000000   0.0000000), wk =   0.1111111
        k(   17) = (  -0.0912370  -0.0526757   0.0000000), wk =   0.0555556
        k(   18) = (  -0.0912370  -0.0175586   0.0000000), wk =   0.1111111
        k(   19) = (  -0.0912370   0.0175586   0.0000000), wk =   0.1111111
        k(   20) = (  -0.0912370  -0.1580271   0.0000000), wk =   0.0555556

     Largest allocated arrays     est. size (Mb)     dimensions
     Largest temporary arrays     est. size (Mb)     dimensions

     Check: negative/imaginary core charge=   -0.000018    0.000000

     Initial potential from superposition of free atoms
     Check: negative starting charge=   -1.125676

     starting charge  134.99235, renormalised to  144.00000

[...]

     *
     * You are using vdW-DF for exchange-correlation in this calculation.
     * Please cite the following three references that made this development
     * possible:
     *
     *   M. Dion, H. Rydberg, E. Schroder, D. C. Langreth, and
     *   B. I. Lundqvist, Phys. Rev. Lett. 92, 246401 (2004).
     *
     *   T. Thonhauser, V. R. Cooper, S. Li, A. Puzder, P. Hyldgaard, and
     *   D. C. Langreth, Phys. Rev. B 76, 125112 (2007).
     *
     *   G. Roman-Perez and J. M. Soler, Phys. Rev. Lett. 103, 096102 (2009).
     *
     *
     * If you are using vdW-DF2, please also cite:
     *
     *   K. Lee, E. D. Murray, L. Kong, B. I. Lundqvist, and
     *   D. C. Langreth, Phys. Rev. B 82, 081101(R) (2010).
     *
     *
     * If you are calculating the stress with vdW-DF, please also cite:
     *
     *   R. Sabatini, E. Kucukbenli, B. Kolb, T. Thonhauser, and
     *   S. de Gironcoli, J. Phys.: Condens. Matter 24, 424209 (2012).
     *

     Carrying out vdW-DF run using the following parameters:

     Nqs =      20    Nr_points =    1024   r_max =   100.000
     q_mesh =
               0.00001000     0.04494208     0.09755937     0.15916263
               0.23128650     0.31572767     0.41458969     0.53033537
               0.66584808     0.82450364     1.01025438     1.22772762
               1.48234092     1.78043706     2.12944203     2.53805004
               3.01644009     3.57652955     4.23227104     5.00000000

     Gradients computed in reciprocal space

[...]

     Starting wfc are  129 randomized atomic wfcs

     Self-consistent Calculation

[...]

     total energy              =   -1598.20061026 Ry
     Harris-Foulkes estimate   =   -1598.20060937 Ry
     estimated scf accuracy    <       0.00000456 Ry

     iteration # 18     ecut=    36.75 Ry     beta=0.10
     Davidson diagonalization with overlap
     ethr =  3.17E-09,  avg # of iterations =  1.0

[...]

     negative rho (up, down):  1.183E+00 0.000E+00

     Adding external electric field

     Computed dipole along edir(3) :
        Dipole                0.0284 Ry au,          0.0722 Debye
        Dipole field          0.0001 Ry au

        Potential amp.       -0.0075 Ry
        Total length         45.0940 bohr

     End of self-consistent calculation

[...]

          k = 0.0608 0.0000 0.0000 ( 16172 PWs)   bands (ev):

[...]

          k =-0.0912-0.1580 0.0000 ( 16164 PWs)   bands (ev):

   -65.6876 -65.6515 -65.6126 -65.4796 -65.4339 -65.4278 -65.4023 -65.4000
   -65.3672 -38.0532 -37.9580 -37.8951 -37.8354 -37.7670 -37.7582 -37.7306
   -37.6850 -37.6729 -37.6699 -37.5460 -37.4787 -37.4537 -37.4293 -37.4191
   -37.3989 -37.3849 -37.3759 -37.3678 -37.3251 -37.3106 -37.2888 -37.2728
   -37.2312 -37.2228 -37.1225 -37.1027  -5.2516  -4.8747  -4.0849  -3.4713
    -3.0969  -3.0035  -2.7600  -2.4869  -2.0716  -1.9361  -1.9114  -1.7839
    -1.6792  -1.6729  -1.6668  -1.3166  -1.1102  -1.0350  -0.9917  -0.9258
    -0.5760  -0.4112  -0.2757  -0.0447  -0.0334   0.0583   0.1184   0.1813
     0.2557   0.3094   0.4503   0.5024   0.5963   1.0855   1.2931   1.3473
     1.4172   1.5488   1.6925   1.8029   1.9332   1.9755   2.0211   2.1661
     2.2274   2.5303   2.7531   3.0466   3.1699   3.4416   3.4467   4.1898
     4.2934   4.9034   5.5330   5.6372   5.7640   5.8308   6.4764   6.8618
     6.9003   7.2638   7.2992   7.4529   7.4681   7.9264

     the Fermi energy is     1.5271 ev

!    total energy              =   -1598.20061507 Ry
     Harris-Foulkes estimate   =   -1598.20061079 Ry
     estimated scf accuracy    <       0.00000035 Ry

     The total energy is the sum of the following terms:

     one-electron contribution =  -12162.54705654 Ry
     hartree contribution      =    6078.20891565 Ry
     xc contribution           =    -311.25182156 Ry
     ewald contribution        =    4797.46718622 Ry
     electric field correction =       0.00000236 Ry
     smearing contrib. (-TS)   =      -0.07784120 Ry

     convergence has been achieved in  18 iterations

 BEEF-vdW xc energy contributions
           1 :   -272.049226874751
           2 :    249.460182389112
           3 :   -209.638941560568
           4 :    161.048939238143
           5 :   -112.383539788519
           6 :    70.0323985256571
           7 :   -36.9678266928031
           8 :    13.0514869831464
           9 :    3.68393312497295
          10 :   -15.5995447549975
          11 :    24.3812801869344
          12 :   -30.6216418194897
          13 :    33.9609772729339
          14 :   -33.6273465395574
          15 :    29.0988710930394
          16 :   -20.6566484951629
          17 :    9.58139382010791
          18 :    2.08825039388256
          19 :   -12.1585747585148
          20 :    18.9632317385517
          21 :   -21.8197242671372
          22 :    21.0549534048521
          23 :   -17.6453530359654
          24 :    12.6966850079170
          25 :   -7.05236520112652
          26 :    1.18780711499642
          27 :    4.63115560476598
          28 :   -10.1041500995258
          29 :    14.7489571557431
          30 :   -17.9430791134142
          31 :   -26.4133836450658
          32 :   -19.3579762517570

     Forces acting on atoms (Ry/au):

     negative rho (up, down):  1.183E+00 0.000E+00
     atom    1 type  1   force =     0.00000042   -0.01609434    0.01020008
     atom    2 type  1   force =    -0.01393673    0.00804835    0.01019810
     atom    3 type  1   force =     0.01393542    0.00804713    0.01018811
     atom    4 type  2   force =     0.00000059    0.00000016   -0.02414637
     atom    5 type  1   force =     0.00000083    0.00800824   -0.00123652
     atom    6 type  1   force =     0.00693310   -0.00400438   -0.00123463
     atom    7 type  1   force =    -0.00693465   -0.00400681   -0.00123724
     atom    8 type  2   force =     0.00000003    0.00000278   -0.00371884
     atom    9 type  1   force =     0.00000138    0.00006415    0.00012814
     atom   10 type  1   force =     0.00005728   -0.00003252    0.00013001
     atom   11 type  1   force =    -0.00005740   -0.00003411    0.00012128
     atom   12 type  2   force =    -0.00000027    0.00000134    0.00060788

     Total force =     0.043395     Total SCF correction =     0.001900

     entering subroutine stress ...

     negative rho (up, down):  1.183E+00 0.000E+00
          total   stress  (Ry/bohr**3)                   (kbar)     P=  -28.80
  -0.00028641  -0.00000001  -0.00000000        -42.13     -0.00     -0.00
  -0.00000001  -0.00028641  -0.00000000         -0.00    -42.13     -0.00
  -0.00000000  -0.00000000  -0.00001459         -0.00     -0.00     -2.15

 !ASE

     Writing output data file calc.save

     General routines

     Parallel routines

   This run was terminated on:  19:10:30   1Jan2019

   JOB DONE.
Job  /afs/slac/g/suncat/bin/suncat-tsmpirun -x LD_LIBRARY_PATH -wdir /scratch/qe649135_37BY5 pw.x -in pw.inp

TID   HOST_NAME   COMMAND_LINE            STATUS            TERMINATION_TIME
00000 suncat0182 pw.x -in pw.inp   Done                     01/01/2019 19:10:30
00001 suncat0182 pw.x -in pw.inp   Done                     01/01/2019 19:10:30
00002 suncat0182 pw.x -in pw.inp   Done                     01/01/2019 19:10:30
00003 suncat0182 pw.x -in pw.inp   Done                     01/01/2019 19:10:30
00004 suncat0182 pw.x -in pw.inp   Done                     01/01/2019 19:10:30
00005 suncat0182 pw.x -in pw.inp   Done                     01/01/2019 19:10:30
00006 suncat0182 pw.x -in pw.inp   Done                     01/01/2019 19:10:30
00007 suncat0182 pw.x -in pw.inp   Done                     01/01/2019 19:10:30
00008 suncat0181 pw.x -in pw.inp   Done                     01/01/2019 19:10:30
00009 suncat0181 pw.x -in pw.inp   Done                     01/01/2019 19:10:30
00010 suncat0181 pw.x -in pw.inp   Done                     01/01/2019 19:10:30
00011 suncat0181 pw.x -in pw.inp   Done                     01/01/2019 19:10:30
00012 suncat0181 pw.x -in pw.inp   Done                     01/01/2019 19:10:30
00013 suncat0181 pw.x -in pw.inp   Done                     01/01/2019 19:10:30
00014 suncat0181 pw.x -in pw.inp   Done                     01/01/2019 19:10:30
00015 suncat0181 pw.x -in pw.inp   Done                     01/01/2019 19:10:30
00016 suncat0132 pw.x -in pw.inp   Done                     01/01/2019 19:10:30
00017 suncat0132 pw.x -in pw.inp   Done                     01/01/2019 19:10:30
00018 suncat0132 pw.x -in pw.inp   Done                     01/01/2019 19:10:30
00019 suncat0132 pw.x -in pw.inp   Done                     01/01/2019 19:10:30
00020 suncat0132 pw.x -in pw.inp   Done                     01/01/2019 19:10:30
00021 suncat0132 pw.x -in pw.inp   Done                     01/01/2019 19:10:30
00022 suncat0132 pw.x -in pw.inp   Done                     01/01/2019 19:10:30
00023 suncat0132 pw.x -in pw.inp   Done                     01/01/2019 19:10:30
00024 suncat0131 pw.x -in pw.inp   Done                     01/01/2019 19:10:30
00025 suncat0131 pw.x -in pw.inp   Done                     01/01/2019 19:10:30
00026 suncat0131 pw.x -in pw.inp   Done                     01/01/2019 19:10:30
00027 suncat0131 pw.x -in pw.inp   Done                     01/01/2019 19:10:30
00028 suncat0131 pw.x -in pw.inp   Done                     01/01/2019 19:10:30
00029 suncat0131 pw.x -in pw.inp   Done                     01/01/2019 19:10:30
00030 suncat0131 pw.x -in pw.inp   Done                     01/01/2019 19:10:30
00031 suncat0131 pw.x -in pw.inp   Done                     01/01/2019 19:10:30
00032 suncat0130 pw.x -in pw.inp   Done                     01/01/2019 19:10:30
00033 suncat0130 pw.x -in pw.inp   Done                     01/01/2019 19:10:30
00034 suncat0130 pw.x -in pw.inp   Done                     01/01/2019 19:10:30
00035 suncat0130 pw.x -in pw.inp   Done                     01/01/2019 19:10:30
00036 suncat0130 pw.x -in pw.inp   Done                     01/01/2019 19:10:30
00037 suncat0130 pw.x -in pw.inp   Done                     01/01/2019 19:10:30
00038 suncat0130 pw.x -in pw.inp   Done                     01/01/2019 19:10:30
00039 suncat0130 pw.x -in pw.inp   Done                     01/01/2019 19:10:30
00040 suncat0124 pw.x -in pw.inp   Done                     01/01/2019 19:10:30
00041 suncat0124 pw.x -in pw.inp   Done                     01/01/2019 19:10:30
00042 suncat0124 pw.x -in pw.inp   Done                     01/01/2019 19:10:30
00043 suncat0124 pw.x -in pw.inp   Done                     01/01/2019 19:10:30
00044 suncat0124 pw.x -in pw.inp   Done                     01/01/2019 19:10:30
00045 suncat0124 pw.x -in pw.inp   Done                     01/01/2019 19:10:30
00046 suncat0124 pw.x -in pw.inp   Done                     01/01/2019 19:10:30
00047 suncat0124 pw.x -in pw.inp   Done                     01/01/2019 19:10:30
00048 suncat0280 pw.x -in pw.inp   Done                     01/01/2019 19:10:30
00049 suncat0280 pw.x -in pw.inp   Done                     01/01/2019 19:10:30
00050 suncat0280 pw.x -in pw.inp   Done                     01/01/2019 19:10:30
00051 suncat0280 pw.x -in pw.inp   Done                     01/01/2019 19:10:30
00052 suncat0280 pw.x -in pw.inp   Done                     01/01/2019 19:10:30
00053 suncat0280 pw.x -in pw.inp   Done                     01/01/2019 19:10:30
00054 suncat0280 pw.x -in pw.inp   Done                     01/01/2019 19:10:30
00055 suncat0280 pw.x -in pw.inp   Done                     01/01/2019 19:10:30
00056 suncat0279 pw.x -in pw.inp   Done                     01/01/2019 19:10:30
00057 suncat0279 pw.x -in pw.inp   Done                     01/01/2019 19:10:30
00058 suncat0279 pw.x -in pw.inp   Done                     01/01/2019 19:10:30
00059 suncat0279 pw.x -in pw.inp   Done                     01/01/2019 19:10:30
00060 suncat0279 pw.x -in pw.inp   Done                     01/01/2019 19:10:30
00061 suncat0279 pw.x -in pw.inp   Done                     01/01/2019 19:10:30
00062 suncat0279 pw.x -in pw.inp   Done                     01/01/2019 19:10:30
00063 suncat0279 pw.x -in pw.inp   Done                     01/01/2019 19:10:30