     Program PWSCF v.5.1rc2 (svn rev. 11289) starts on 31Dec2018 at 13: 4:11

     Current dimensions of program PWSCF are:
     Max number of different atomic species (ntypx) = 10
     Max number of k-points (npk) =  40000
     Max angular momentum in pseudopotentials (lmaxx) =  3
     Presently stress not available with electric field

     IMPORTANT: XC functional enforced from input :
     Exchange-correlation      = BEEF-VDW ( 1  4 27 13 2)
     Any further DFT definition will be discarded
     Please, verify this is what you really want

     Subspace diagonalization in iterative solution of the eigenvalue problem:
     a serial algorithm will be used

     bravais-lattice index     =            0
     lattice parameter (alat)  =       1.8897  a.u.
     unit-cell volume          =    4459.8595 (a.u.)^3
     number of atoms/cell      =           12
     number of atomic types    =            2
     number of electrons       =       189.00
     number of Kohn-Sham states=          124
     kinetic-energy cutoff     =      36.7493  Ry
     charge density cutoff     =     367.4932  Ry
     convergence threshold     =      1.0E-06
     mixing beta               =       0.1000
     number of iterations used =           10  plain     mixing
     Exchange-correlation      = BEEF-VDW ( 1  4 27 13 2)
     nstep                     =           50

     celldm(1)=   1.889726  celldm(2)=   0.000000  celldm(3)=   0.000000
     celldm(4)=   0.000000  celldm(5)=   0.000000  celldm(6)=   0.000000

     crystal axes: (cart. coord. in units of alat)
               a(1) = (   5.575105   0.000000   0.000000 )
               a(2) = (  -2.787553   4.828183   0.000000 )
               a(3) = (   0.000000   0.000000  24.552054 )

     reciprocal axes: (cart. coord. in units 2 pi/alat)
               b(1) = (  0.179369  0.103559  0.000000 )
               b(2) = (  0.000000  0.207117  0.000000 )
               b(3) = (  0.000000  0.000000  0.040730 )

     PseudoPot. # 1 for Pd read from file:
     /afs/slac.stanford.edu/u/if/mamunm/psp/gbrv1.5pbe/Pd.UPF
     MD5 check sum: 2d733d2bc2cbfd217af676df1668a4bc
     Pseudo is Ultrasoft + core correction, Zval = 16.0
     Generated by new atomic code, or converted to UPF format
     Using radial grid of  887 points,  6 beta functions with:
                l(1) =   0
                l(2) =   0
                l(3) =   1
                l(4) =   1
                l(5) =   2
                l(6) =   2
     Q(r) pseudized with  8 coefficients,  rinner =    1.130   1.130   1.130
                                                       1.130   1.130

     PseudoPot. # 2 for Ir read from file:
     /afs/slac.stanford.edu/u/if/mamunm/psp/gbrv1.5pbe/Ir.UPF
     MD5 check sum: 8836f839c3459d2b385c504ce6d91f2c
     Pseudo is Ultrasoft + core correction, Zval = 15.0
     Generated by new atomic code, or converted to UPF format
     Using radial grid of  983 points,  7 beta functions with:
                l(1) =   0
                l(2) =   0
                l(3) =   1
                l(4) =   1
                l(5) =   1
                l(6) =   2
                l(7) =   2
     Q(r) pseudized with  8 coefficients,  rinner =    1.400   1.400   1.400
                                                       1.400   1.400

     vdW kernel table read from file vdW_kernel_table
     MD5 check sum: 095c7af220d748ca6e76c0b4c6cfb241

     atomic species   valence    mass     pseudopotential
        Pd1           16.00   106.42000     Pd( 1.00)
        Ir1           15.00   192.21700     Ir( 1.00)

     No symmetry found

   Cartesian axes

     site n.     atom                  positions (alat units)
         1           Pd1 tau(   1) = (   0.0000000   0.0000000  10.0000000  )
         2           Pd1 tau(   2) = (  -1.3937763   2.4140913  10.0000000  )
         3           Pd1 tau(   3) = (   1.3937763   2.4140913  10.0000000  )
         4           Ir1 tau(   4) = (   2.7875525   0.0000000  10.0000000  )
         5           Pd1 tau(   5) = (   2.7875525   1.6093942  12.2760271  )
         6           Pd1 tau(   6) = (   1.3937763   4.0234855  12.2760271  )
         7           Pd1 tau(   7) = (  -1.3937763   4.0234855  12.2760271  )
         8           Ir1 tau(   8) = (   0.0000000   1.6093942  12.2760271  )
         9           Pd1 tau(   9) = (  -0.0000000   3.2187884  14.5520542  )
        10           Pd1 tau(  10) = (   1.3937763   0.8046971  14.5520542  )
        11           Pd1 tau(  11) = (   4.1813288   0.8046971  14.5520542  )
        12           Ir1 tau(  12) = (   2.7875525   3.2187884  14.5520542  )

     number of k points=    20  Fermi-Dirac smearing, width (Ry)=  0.0110
                       cart. coord. in units 2pi/alat
        k(    1) = (   0.0000000   0.0000000   0.0000000), wk =   0.0555556
        k(    2) = (   0.0000000   0.0345195   0.0000000), wk =   0.1111111
        k(    3) = (   0.0000000   0.0690391   0.0000000), wk =   0.1111111
        k(    4) = (   0.0000000  -0.1035586   0.0000000), wk =   0.0555556
        k(    5) = (   0.0298948   0.0172598   0.0000000), wk =   0.1111111
        k(    6) = (   0.0298948   0.0517793   0.0000000), wk =   0.1111111
        k(    7) = (   0.0298948   0.0862989   0.0000000), wk =   0.1111111
        k(    8) = (   0.0298948  -0.0862989   0.0000000), wk =   0.1111111
        k(    9) = (   0.0298948  -0.0517793   0.0000000), wk =   0.1111111
        k(   10) = (   0.0298948  -0.0172598   0.0000000), wk =   0.1111111
        k(   11) = (   0.0597896   0.0345195   0.0000000), wk =   0.1111111
        k(   12) = (   0.0597896   0.0690391   0.0000000), wk =   0.1111111
        k(   13) = (   0.0597896   0.1035586   0.0000000), wk =   0.1111111
        k(   14) = (   0.0597896  -0.0690391   0.0000000), wk =   0.1111111
        k(   15) = (   0.0597896  -0.0345195   0.0000000), wk =   0.1111111
        k(   16) = (   0.0597896   0.0000000   0.0000000), wk =   0.1111111
        k(   17) = (  -0.0896844  -0.0517793   0.0000000), wk =   0.0555556
        k(   18) = (  -0.0896844  -0.0172598   0.0000000), wk =   0.1111111
        k(   19) = (  -0.0896844   0.0172598   0.0000000), wk =   0.1111111
        k(   20) = (  -0.0896844  -0.1553380   0.0000000), wk =   0.0555556

     Largest allocated arrays     est. size (Mb)     dimensions
     Largest temporary arrays     est. size (Mb)     dimensions

     Initial potential from superposition of free atoms
     Check: negative starting charge=   -1.783697

     starting charge  182.99984, renormalised to  189.00000

     negative rho (up, down):  1.842E+00 0.000E+00

     *
     * You are using vdW-DF for exchange-correlation in this calculation.
     * Please cite the following three references that made this development
     * possible:
     *
     *   M. Dion, H. Rydberg, E. Schroder, D. C. Langreth, and
     *   B. I. Lundqvist, Phys. Rev. Lett. 92, 246401 (2004).
     *
     *   T. Thonhauser, V. R. Cooper, S. Li, A. Puzder, P. Hyldgaard, and
     *   D. C. Langreth, Phys. Rev. B 76, 125112 (2007).
     *
     *   G. Roman-Perez and J. M. Soler, Phys. Rev. Lett. 103, 096102 (2009).
     *
     *
     * If you are using vdW-DF2, please also cite:
     *
     *   K. Lee, E. D. Murray, L. Kong, B. I. Lundqvist, and
     *   D. C. Langreth, Phys. Rev. B 82, 081101(R) (2010).
     *
     *
     * If you are calculating the stress with vdW-DF, please also cite:
     *
     *   R. Sabatini, E. Kucukbenli, B. Kolb, T. Thonhauser, and
     *   S. de Gironcoli, J. Phys.: Condens. Matter 24, 424209 (2012).
     *

     Carrying out vdW-DF run using the following parameters:

     Nqs =      20    Nr_points =    1024   r_max =   100.000
     q_mesh =
               0.00001000     0.04494208     0.09755937     0.15916263
               0.23128650     0.31572767     0.41458969     0.53033537
               0.66584808     0.82450364     1.01025438     1.22772762
               1.48234092     1.78043706     2.12944203     2.53805004
               3.01644009     3.57652955     4.23227104     5.00000000

     Gradients computed in reciprocal space

     Adding external electric field

     Computed dipole along edir(3) :
        Dipole                0.0000 Ry au,          0.0000 Debye
        Dipole field          0.0000 Ry au

        Potential amp.       -0.0000 Ry
        Total length         45.2367 bohr

     Starting wfc are  144 randomized atomic wfcs

     Self-consistent Calculation

     iteration #  1     ecut=    36.75 Ry     beta=0.10
     Davidson diagonalization with overlap
     ethr =  1.00E-02,  avg # of iterations =  7.5

[...]

     total energy              =   -2346.55786253 Ry
     Harris-Foulkes estimate   =   -2351.83301851 Ry
     estimated scf accuracy    <      31.36175702 Ry

[...]

     End of self-consistent calculation

          k = 0.0000 0.0000 0.0000 ( 16763 PWs)   bands (ev):

   -49.0626 -49.0280 -49.0280 -48.9493 -48.9493 -48.9212 -48.8996 -48.7833
   -48.7833 -48.7494 -48.7494 -48.7420 -48.7376 -48.7168 -48.7168 -48.6304
   -48.6274 -48.5217 -48.5217 -48.5210 -48.5210 -48.4579 -48.4444 -48.4192
   -48.4192 -48.4113 -48.4113 -47.6608 -47.6090 -47.6090 -47.2566 -47.2566
   -47.2546 -47.2546 -47.1189 -47.1108  -5.5569  -4.1446  -4.1086  -3.8213
    -3.8213  -3.7079  -3.5601  -3.5467  -3.5467  -3.3445  -3.3445  -3.3285
    -3.1035  -3.1035  -3.0715  -2.0812  -2.0812  -2.0352  -1.7527  -1.7527
    -1.6963  -1.5749  -1.4971  -1.4971  -1.2579  -1.2579  -1.2507  -1.1374
    -1.0907  -1.0907  -1.0774  -1.0774  -0.5350  -0.5350  -0.2300  -0.1352
     0.0379   0.0379   0.0792   0.0792   0.1881   0.1881   0.5205   0.6760
     0.8389   0.8389   0.8583   0.8583   0.9864   1.0741   1.2238   1.2300
     1.2300   1.2709   1.4492   1.4492   1.5209   1.6490   1.6490   1.8952
     1.8952   2.0216   2.0216   2.5641   3.2117   3.2117   3.4528   4.7025
     4.7025   4.8375   4.9187   4.9187   5.0107   5.8642   6.1592   6.4754
     7.4196   7.4573   7.7942   8.3180   8.4848   8.4848   8.5266   8.5266
     8.8091   9.7353   9.7353   9.8077

[...]

          k =-0.0897-0.0518 0.0000 ( 16808 PWs)   bands (ev):

[...]

     the Fermi energy is     1.2848 ev

!    total energy              =   -2347.83470997 Ry
     Harris-Foulkes estimate   =   -2347.83471667 Ry
     estimated scf accuracy    <       0.00000099 Ry

     The total energy is the sum of the following terms:

     one-electron contribution =  -19850.59921746 Ry
     hartree contribution      =    9968.96599066 Ry
     xc contribution           =    -448.32548753 Ry
     ewald contribution        =    7982.24005618 Ry
     electric field correction =       0.00000007 Ry
     smearing contrib. (-TS)   =      -0.11605190 Ry

     convergence has been achieved in  18 iterations

 BEEF-vdW xc energy contributions
           1 :   -392.655196332084
           2 :    361.149911613845
           3 :   -306.535586319008
           4 :    242.190634169301
           5 :   -181.607179309151
           6 :    134.194027834898
           7 :   -103.210810898270
           8 :    86.2432710554776
           9 :   -77.6155448064430
          10 :    71.4419286398436
          11 :   -63.9732887980761
[...]
     Generated by new atomic code, or converted to UPF format
     Using radial grid of  887 points,  6 beta functions with:
                l(1) =   0
                l(2) =   0
                l(3) =   1
                l(4) =   1
                l(5) =   2
                l(6) =   2
     Q(r) pseudized with  8 coefficients,  rinner =    1.130   1.130   1.130
                                                       1.130   1.130

     PseudoPot. # 2 for Ir read from file:
     /afs/slac.stanford.edu/u/if/mamunm/psp/gbrv1.5pbe/Ir.UPF
     MD5 check sum: 8836f839c3459d2b385c504ce6d91f2c
     Pseudo is Ultrasoft + core correction, Zval = 15.0
     Generated by new atomic code, or converted to UPF format
     Using radial grid of  983 points,  7 beta functions with:
                l(1) =   0
                l(2) =   0
                l(3) =   1
                l(4) =   1
                l(5) =   1
                l(6) =   2
                l(7) =   2
     Q(r) pseudized with  8 coefficients,  rinner =    1.400   1.400   1.400
                                                       1.400   1.400

     vdW kernel table read from file vdW_kernel_table
     MD5 check sum: 095c7af220d748ca6e76c0b4c6cfb241

     atomic species   valence    mass     pseudopotential
        Pd1           16.00   106.42000     Pd( 1.00)
        Ir1           15.00   192.21700     Ir( 1.00)

     No symmetry found

   Cartesian axes

     site n.     atom                  positions (alat units)
         1           Pd1 tau(   1) = (   0.0000000   0.0000000  10.0000000  )
         2           Pd1 tau(   2) = (  -1.3937763   2.4140913  10.0000000  )
         3           Pd1 tau(   3) = (   1.3937763   2.4140913  10.0000000  )
         4           Ir1 tau(   4) = (   2.7875525   0.0000000  10.0000000  )
         5           Pd1 tau(   5) = (   2.7875525   1.6093942  12.2760271  )
         6           Pd1 tau(   6) = (   1.3937763   4.0234855  12.2760271  )
         7           Pd1 tau(   7) = (  -1.3937763   4.0234855  12.2760271  )
         8           Ir1 tau(   8) = (   0.0000000   1.6093942  12.2760271  )
         9           Pd1 tau(   9) = (  -0.0000009   3.2056040  14.5870392  )
        10           Pd1 tau(  10) = (   1.3823579   0.8112885  14.5870408  )
        11           Pd1 tau(  11) = (   4.1927466   0.8112889  14.5870409  )
        12           Ir1 tau(  12) = (   2.7875507   3.2187882  14.4341867  )

     number of k points=    20  Fermi-Dirac smearing, width (Ry)=  0.0110
                       cart. coord. in units 2pi/alat
        k(    1) = (   0.0000000   0.0000000   0.0000000), wk =   0.0555556
        k(    2) = (   0.0000000   0.0345195   0.0000000), wk =   0.1111111
        k(    3) = (   0.0000000   0.0690391   0.0000000), wk =   0.1111111
        k(    4) = (   0.0000000  -0.1035586   0.0000000), wk =   0.0555556
        k(    5) = (   0.0298948   0.0172598   0.0000000), wk =   0.1111111
        k(    6) = (   0.0298948   0.0517793   0.0000000), wk =   0.1111111
        k(    7) = (   0.0298948   0.0862989   0.0000000), wk =   0.1111111
        k(    8) = (   0.0298948  -0.0862989   0.0000000), wk =   0.1111111
        k(    9) = (   0.0298948  -0.0517793   0.0000000), wk =   0.1111111
        k(   10) = (   0.0298948  -0.0172598   0.0000000), wk =   0.1111111
        k(   11) = (   0.0597896   0.0345195   0.0000000), wk =   0.1111111
        k(   12) = (   0.0597896   0.0690391   0.0000000), wk =   0.1111111
        k(   13) = (   0.0597896   0.1035586   0.0000000), wk =   0.1111111
        k(   14) = (   0.0597896  -0.0690391   0.0000000), wk =   0.1111111
        k(   15) = (   0.0597896  -0.0345195   0.0000000), wk =   0.1111111
        k(   16) = (   0.0597896   0.0000000   0.0000000), wk =   0.1111111
        k(   17) = (  -0.0896844  -0.0517793   0.0000000), wk =   0.0555556
        k(   18) = (  -0.0896844  -0.0172598   0.0000000), wk =   0.1111111
        k(   19) = (  -0.0896844   0.0172598   0.0000000), wk =   0.1111111
        k(   20) = (  -0.0896844  -0.1553380   0.0000000), wk =   0.0555556

     Largest allocated arrays     est. size (Mb)     dimensions
     Largest temporary arrays     est. size (Mb)     dimensions

     Initial potential from superposition of free atoms
     Check: negative starting charge=   -1.779585

     starting charge  182.99984, renormalised to  189.00000

[...]

     *
     * You are using vdW-DF for exchange-correlation in this calculation.
     * Please cite the following three references that made this development
     * possible:
     *
     *   M. Dion, H. Rydberg, E. Schroder, D. C. Langreth, and
     *   B. I. Lundqvist, Phys. Rev. Lett. 92, 246401 (2004).
     *
     *   T. Thonhauser, V. R. Cooper, S. Li, A. Puzder, P. Hyldgaard, and
     *   D. C. Langreth, Phys. Rev. B 76, 125112 (2007).
     *
     *   G. Roman-Perez and J. M. Soler, Phys. Rev. Lett. 103, 096102 (2009).
     *
     *
     * If you are using vdW-DF2, please also cite:
     *
     *   K. Lee, E. D. Murray, L. Kong, B. I. Lundqvist, and
     *   D. C. Langreth, Phys. Rev. B 82, 081101(R) (2010).
     *
     *
     * If you are calculating the stress with vdW-DF, please also cite:
     *
     *   R. Sabatini, E. Kucukbenli, B. Kolb, T. Thonhauser, and
     *   S. de Gironcoli, J. Phys.: Condens. Matter 24, 424209 (2012).
     *

     Carrying out vdW-DF run using the following parameters:

     Nqs =      20    Nr_points =    1024   r_max =   100.000
     q_mesh =
               0.00001000     0.04494208     0.09755937     0.15916263
               0.23128650     0.31572767     0.41458969     0.53033537
               0.66584808     0.82450364     1.01025438     1.22772762
               1.48234092     1.78043706     2.12944203     2.53805004
               3.01644009     3.57652955     4.23227104     5.00000000

     Gradients computed in reciprocal space

[...]

     Starting wfc are  144 randomized atomic wfcs

     Self-consistent Calculation

[...]

     total energy              =   -2347.84378913 Ry
     Harris-Foulkes estimate   =   -2347.84379029 Ry
     estimated scf accuracy    <       0.00000271 Ry

     iteration # 18     ecut=    36.75 Ry     beta=0.10
     Davidson diagonalization with overlap
     ethr =  1.44E-09,  avg # of iterations =  2.4

[...]

     negative rho (up, down):  1.703E+00 0.000E+00

     Adding external electric field

     Computed dipole along edir(3) :
        Dipole                0.0102 Ry au,          0.0258 Debye
        Dipole field          0.0000 Ry au

        Potential amp.       -0.0026 Ry
        Total length         45.2367 bohr

     End of self-consistent calculation

[...]

          k = 0.0598 0.0000 0.0000 ( 16760 PWs)   bands (ev):

[...]

          k =-0.0897-0.1553 0.0000 ( 16808 PWs)   bands (ev):

   -49.0725 -49.0250 -49.0007 -48.9900 -48.9731 -48.9353 -48.8796 -48.8446
   -48.7832 -48.7140 -48.6856 -48.6763 -48.6516 -48.6469 -48.6354 -48.6190
   -48.6027 -48.5863 -48.5466 -48.5121 -48.4737 -48.4241 -48.4139 -48.3982
   -48.3863 -48.3724 -48.3606 -47.6185 -47.5827 -47.5723 -47.3361 -47.3253
   -47.2490 -47.2381 -47.2317 -47.0909  -4.2009  -3.9604  -3.2227  -3.1977
    -3.0651  -3.0199  -2.9787  -2.8735  -2.8003  -2.7579  -2.5941  -2.5860
    -2.4544  -2.3449  -2.3436  -2.2214  -2.0215  -1.9572  -1.8895  -1.8755
    -1.8506  -1.7607  -1.5316  -1.4801  -1.2586  -1.2174  -1.1547  -1.1282
    -1.0303  -1.0210  -0.9918  -0.9099  -0.8704  -0.8579  -0.8336  -0.7924
    -0.7670  -0.7105  -0.6780  -0.5928  -0.5239  -0.3853  -0.3317  -0.1796
    -0.0792  -0.0675  -0.0037   0.2018   0.2205   0.3194   0.3520   0.4339
     0.5168   0.6020   0.7652   0.7684   0.9431   0.9880   1.0449   1.1811
     1.3450   1.3610   1.4917   1.8652   3.3744   3.4197   3.5697   4.2233
     4.7177   4.9549   5.7930   5.9378   6.7911   6.9394   7.3819   7.4018
     7.9640   7.9804   8.0298   8.0383   9.1506   9.1827   9.2100   9.3528
     9.6677   9.6839  10.2073  10.2115

     the Fermi energy is     1.3008 ev

!    total energy              =   -2347.84378555 Ry
     Harris-Foulkes estimate   =   -2347.84378912 Ry
     estimated scf accuracy    <       0.00000065 Ry

     The total energy is the sum of the following terms:

     one-electron contribution =  -19853.17517126 Ry
     hartree contribution      =    9970.34150880 Ry
     xc contribution           =    -448.35205553 Ry
     ewald contribution        =    7983.45484663 Ry
     electric field correction =       0.00000029 Ry
     smearing contrib. (-TS)   =      -0.11291447 Ry

     convergence has been achieved in  18 iterations

 BEEF-vdW xc energy contributions
           1 :   -392.796951405408
           2 :    361.297037740602
           3 :   -306.691434466387
           4 :    242.353434064931
           5 :   -181.767778305528
           6 :    134.337902410678
           7 :   -103.325242601824
           8 :    86.3257623732776
           9 :   -77.6777065461760
          10 :    71.5056480666593
          11 :   -64.0605634822114
          12 :    54.5428640200555
          13 :   -44.4181529406280
          14 :    35.8972413293878
          15 :   -30.4894286706946
          16 :    28.2879280508789
          17 :   -28.1525325289513
          18 :    28.4830883630697
          19 :   -28.0601670203968
          20 :    26.5087568478128
          21 :   -24.2371127064337
          22 :    22.0023077164125
          23 :   -20.4106501571738
          24 :    19.6225176075345
          25 :   -19.3698670172705
          26 :    19.2044548361855
          27 :   -18.7891687330876
          28 :    18.0554359106787
          29 :   -17.1639073095257
          30 :    16.3332641728390
          31 :   -36.5800330556506
          32 :   -27.1520213434620

     Forces acting on atoms (Ry/au):

     negative rho (up, down):  1.703E+00 0.000E+00
     atom    1 type  1   force =     0.00000037    0.00810883   -0.00875591
     atom    2 type  1   force =     0.00702281   -0.00405431   -0.00875526
     atom    3 type  1   force =    -0.00702298   -0.00405446   -0.00875609
     atom    4 type  2   force =    -0.00000006   -0.00000082    0.03155458
     atom    5 type  1   force =    -0.00000037   -0.00768627   -0.00344334
     atom    6 type  1   force =    -0.00665639    0.00384353   -0.00344404
     atom    7 type  1   force =     0.00665587    0.00384305   -0.00344364
     atom    8 type  2   force =     0.00000089    0.00000041    0.00366366
     atom    9 type  1   force =    -0.00000002    0.00005788    0.00044379
     atom   10 type  1   force =     0.00005054   -0.00002926    0.00044413
     atom   11 type  1   force =    -0.00005022   -0.00002872    0.00044417
     atom   12 type  2   force =    -0.00000045    0.00000014    0.00004794

     Total force =     0.040618     Total SCF correction =     0.004275
     SCF correction compared to forces is large: reduce conv_thr to get better values

     entering subroutine stress ...

     negative rho (up, down):  1.703E+00 0.000E+00
          total   stress  (Ry/bohr**3)                   (kbar)     P=  -13.26
  -0.00012172  -0.00000000   0.00000000        -17.91     -0.00      0.00
  -0.00000000  -0.00012172   0.00000000         -0.00    -17.91      0.00
   0.00000000   0.00000000  -0.00002690          0.00      0.00     -3.96

 !ASE

     Writing output data file calc.save

     General routines

     Parallel routines

   This run was terminated on:  14:18:58  31Dec2018

   JOB DONE.
Job  /afs/slac/g/suncat/bin/suncat-tsmpirun -x LD_LIBRARY_PATH -wdir /scratch/qe648771_EU7Nr pw.x -in pw.inp

TID   HOST_NAME   COMMAND_LINE            STATUS            TERMINATION_TIME
00000 suncat0062 pw.x -in pw.inp   Done                     12/31/2018 14:18:58
00001 suncat0062 pw.x -in pw.inp   Done                     12/31/2018 14:18:58
00002 suncat0062 pw.x -in pw.inp   Done                     12/31/2018 14:18:58
00003 suncat0062 pw.x -in pw.inp   Done                     12/31/2018 14:18:58
00004 suncat0062 pw.x -in pw.inp   Done                     12/31/2018 14:18:58
00005 suncat0062 pw.x -in pw.inp   Done                     12/31/2018 14:18:58
00006 suncat0062 pw.x -in pw.inp   Done                     12/31/2018 14:18:58
00007 suncat0062 pw.x -in pw.inp   Done                     12/31/2018 14:18:58
00008 suncat0061 pw.x -in pw.inp   Done                     12/31/2018 14:18:58
00009 suncat0061 pw.x -in pw.inp   Done                     12/31/2018 14:18:58
00010 suncat0061 pw.x -in pw.inp   Done                     12/31/2018 14:18:58
00011 suncat0061 pw.x -in pw.inp   Done                     12/31/2018 14:18:58
00012 suncat0061 pw.x -in pw.inp   Done                     12/31/2018 14:18:58
00013 suncat0061 pw.x -in pw.inp   Done                     12/31/2018 14:18:58
00014 suncat0061 pw.x -in pw.inp   Done                     12/31/2018 14:18:58
00015 suncat0061 pw.x -in pw.inp   Done                     12/31/2018 14:18:58
00016 suncat0060 pw.x -in pw.inp   Done                     12/31/2018 14:18:58
00017 suncat0060 pw.x -in pw.inp   Done                     12/31/2018 14:18:58
00018 suncat0060 pw.x -in pw.inp   Done                     12/31/2018 14:18:58
00019 suncat0060 pw.x -in pw.inp   Done                     12/31/2018 14:18:58
00020 suncat0060 pw.x -in pw.inp   Done                     12/31/2018 14:18:58
00021 suncat0060 pw.x -in pw.inp   Done                     12/31/2018 14:18:58
00022 suncat0060 pw.x -in pw.inp   Done                     12/31/2018 14:18:58
00023 suncat0060 pw.x -in pw.inp   Done                     12/31/2018 14:18:58
00024 suncat0057 pw.x -in pw.inp   Done                     12/31/2018 14:18:58
00025 suncat0057 pw.x -in pw.inp   Done                     12/31/2018 14:18:58
00026 suncat0057 pw.x -in pw.inp   Done                     12/31/2018 14:18:58
00027 suncat0057 pw.x -in pw.inp   Done                     12/31/2018 14:18:58
00028 suncat0057 pw.x -in pw.inp   Done                     12/31/2018 14:18:58
00029 suncat0057 pw.x -in pw.inp   Done                     12/31/2018 14:18:58
00030 suncat0057 pw.x -in pw.inp   Done                     12/31/2018 14:18:58
00031 suncat0057 pw.x -in pw.inp   Done                     12/31/2018 14:18:58
00032 suncat0016 pw.x -in pw.inp   Done                     12/31/2018 14:18:58
00033 suncat0016 pw.x -in pw.inp   Done                     12/31/2018 14:18:58
00034 suncat0016 pw.x -in pw.inp   Done                     12/31/2018 14:18:58
00035 suncat0016 pw.x -in pw.inp   Done                     12/31/2018 14:18:58
00036 suncat0016 pw.x -in pw.inp   Done                     12/31/2018 14:18:58
00037 suncat0016 pw.x -in pw.inp   Done                     12/31/2018 14:18:58
00038 suncat0016 pw.x -in pw.inp   Done                     12/31/2018 14:18:58
00039 suncat0016 pw.x -in pw.inp   Done                     12/31/2018 14:18:58
00040 suncat0198 pw.x -in pw.inp   Done                     12/31/2018 14:18:58
00041 suncat0198 pw.x -in pw.inp   Done                     12/31/2018 14:18:58
00042 suncat0198 pw.x -in pw.inp   Done                     12/31/2018 14:18:58
00043 suncat0198 pw.x -in pw.inp   Done                     12/31/2018 14:18:58
00044 suncat0198 pw.x -in pw.inp   Done                     12/31/2018 14:18:58
00045 suncat0198 pw.x -in pw.inp   Done                     12/31/2018 14:18:58
00046 suncat0198 pw.x -in pw.inp   Done                     12/31/2018 14:18:58
00047 suncat0198 pw.x -in pw.inp   Done                     12/31/2018 14:18:58
00048 suncat0194 pw.x -in pw.inp   Done                     12/31/2018 14:18:58
00049 suncat0194 pw.x -in pw.inp   Done                     12/31/2018 14:18:58
00050 suncat0194 pw.x -in pw.inp   Done                     12/31/2018 14:18:58
00051 suncat0194 pw.x -in pw.inp   Done                     12/31/2018 14:18:58
00052 suncat0194 pw.x -in pw.inp   Done                     12/31/2018 14:18:58
00053 suncat0194 pw.x -in pw.inp   Done                     12/31/2018 14:18:58
00054 suncat0194 pw.x -in pw.inp   Done                     12/31/2018 14:18:58
00055 suncat0194 pw.x -in pw.inp   Done                     12/31/2018 14:18:58
00056 suncat0193 pw.x -in pw.inp   Done                     12/31/2018 14:18:58
00057 suncat0193 pw.x -in pw.inp   Done                     12/31/2018 14:18:58
00058 suncat0193 pw.x -in pw.inp   Done                     12/31/2018 14:18:58
00059 suncat0193 pw.x -in pw.inp   Done                     12/31/2018 14:18:58
00060 suncat0193 pw.x -in pw.inp   Done                     12/31/2018 14:18:58
00061 suncat0193 pw.x -in pw.inp   Done                     12/31/2018 14:18:58
00062 suncat0193 pw.x -in pw.inp   Done                     12/31/2018 14:18:58
00063 suncat0193 pw.x -in pw.inp   Done                     12/31/2018 14:18:58