     Program PWSCF v.5.1rc2 (svn rev. 11289) starts on  1Jan2019 at  9: 5:13

     Current dimensions of program PWSCF are:
     Max number of different atomic species (ntypx) = 10
     Max number of k-points (npk) =  40000
     Max angular momentum in pseudopotentials (lmaxx) =  3
     Presently stress not available with electric field

     IMPORTANT: XC functional enforced from input :
     Exchange-correlation      = BEEF-VDW ( 1  4 27 13 2)
     Any further DFT definition will be discarded
     Please, verify this is what you really want

     Subspace diagonalization in iterative solution of the eigenvalue problem:
     a serial algorithm will be used

     bravais-lattice index     =            0
     lattice parameter (alat)  =       1.8897  a.u.
     unit-cell volume          =    6161.2992 (a.u.)^3
     number of atoms/cell      =           12
     number of atomic types    =            2
     number of electrons       =       141.00
     number of Kohn-Sham states=          100
     kinetic-energy cutoff     =      36.7493  Ry
     charge density cutoff     =     367.4932  Ry
     convergence threshold     =      1.0E-06
     mixing beta               =       0.1000
     number of iterations used =           10  plain     mixing
     Exchange-correlation      = BEEF-VDW ( 1  4 27 13 2)
     nstep                     =           50

     celldm(1)=   1.889726  celldm(2)=   0.000000  celldm(3)=   0.000000
     celldm(4)=   0.000000  celldm(5)=   0.000000  celldm(6)=   0.000000

     crystal axes: (cart. coord. in units of alat)
               a(1) = (   6.458628   0.000000   0.000000 )
               a(2) = (  -3.229314   5.593336   0.000000 )
               a(3) = (   0.000000   0.000000  25.273448 )

     reciprocal axes: (cart. coord. in units 2 pi/alat)
               b(1) = (  0.154832  0.089392  0.000000 )
               b(2) = (  0.000000  0.178784  0.000000 )
               b(3) = (  0.000000  0.000000  0.039567 )

     PseudoPot. # 1 for Sc read from file:
     /afs/slac.stanford.edu/u/if/mamunm/psp/gbrv1.5pbe/Sc.UPF
     MD5 check sum: db30a2753ba66ef00f23801d899b7e7f
     Pseudo is Ultrasoft + core correction, Zval = 11.0
     Generated by new atomic code, or converted to UPF format
     Using radial grid of  849 points,  6 beta functions with:
                l(1) =   0
                l(2) =   0
                l(3) =   1
                l(4) =   1
                l(5) =   2
                l(6) =   2
     Q(r) pseudized with  6 coefficients,  rinner =    1.200   1.200   1.200
                                                       1.200   1.200

     PseudoPot. # 2 for Pb read from file:
     /afs/slac.stanford.edu/u/if/mamunm/psp/gbrv1.5pbe/Pb.UPF
     MD5 check sum: 3d1c1779aa92214d1e8f3a7db79003e2
     Pseudo is Ultrasoft + core correction, Zval = 14.0
     Generated by new atomic code, or converted to UPF format
     Using radial grid of  899 points,  6 beta functions with:
                l(1) =   0
                l(2) =   0
                l(3) =   1
                l(4) =   1
                l(5) =   2
                l(6) =   2
     Q(r) pseudized with  6 coefficients,  rinner =    1.000   1.000   1.000
                                                       1.000   1.000

     vdW kernel table read from file vdW_kernel_table
     MD5 check sum: 095c7af220d748ca6e76c0b4c6cfb241

     atomic species   valence    mass     pseudopotential
        Sc1           11.00    44.95591     Sc( 1.00)
        Pb1           14.00   207.20000     Pb( 1.00)

     No symmetry found

   Cartesian axes

     site n.     atom                  positions (alat units)
         1           Sc1 tau(   1) = (   0.0000000   0.0000000  10.0000000  )
         2           Sc1 tau(   2) = (  -1.6146571   2.7966681  10.0000000  )
         3           Sc1 tau(   3) = (   1.6146571   2.7966681  10.0000000  )
         4           Pb1 tau(   4) = (   3.2293141   0.0000000  10.0000000  )
         5           Sc1 tau(   5) = (   3.2293141   1.8644454  12.6367239  )
         6           Sc1 tau(   6) = (   1.6146571   4.6611134  12.6367239  )
         7           Sc1 tau(   7) = (  -1.6146571   4.6611134  12.6367239  )
         8           Pb1 tau(   8) = (   0.0000000   1.8644454  12.6367239  )
         9           Sc1 tau(   9) = (  -0.0000000   3.7288907  15.2734479  )
        10           Sc1 tau(  10) = (   1.6146571   0.9322227  15.2734479  )
        11           Sc1 tau(  11) = (   4.8439712   0.9322227  15.2734479  )
        12           Pb1 tau(  12) = (   3.2293141   3.7288907  15.2734479  )

     number of k points=    20  Fermi-Dirac smearing, width (Ry)=  0.0110
                       cart. coord. in units 2pi/alat
        k(    1) = (   0.0000000   0.0000000   0.0000000), wk =   0.0555556
        k(    2) = (   0.0000000   0.0297974   0.0000000), wk =   0.1111111
        k(    3) = (   0.0000000   0.0595947   0.0000000), wk =   0.1111111
        k(    4) = (   0.0000000  -0.0893921   0.0000000), wk =   0.0555556
        k(    5) = (   0.0258053   0.0148987   0.0000000), wk =   0.1111111
        k(    6) = (   0.0258053   0.0446960   0.0000000), wk =   0.1111111
        k(    7) = (   0.0258053   0.0744934   0.0000000), wk =   0.1111111
        k(    8) = (   0.0258053  -0.0744934   0.0000000), wk =   0.1111111
        k(    9) = (   0.0258053  -0.0446960   0.0000000), wk =   0.1111111
        k(   10) = (   0.0258053  -0.0148987   0.0000000), wk =   0.1111111
        k(   11) = (   0.0516105   0.0297974   0.0000000), wk =   0.1111111
        k(   12) = (   0.0516105   0.0595947   0.0000000), wk =   0.1111111
        k(   13) = (   0.0516105   0.0893921   0.0000000), wk =   0.1111111
        k(   14) = (   0.0516105  -0.0595947   0.0000000), wk =   0.1111111
        k(   15) = (   0.0516105  -0.0297974   0.0000000), wk =   0.1111111
        k(   16) = (   0.0516105   0.0000000   0.0000000), wk =   0.1111111
        k(   17) = (  -0.0774158  -0.0446960   0.0000000), wk =   0.0555556
        k(   18) = (  -0.0774158  -0.0148987   0.0000000), wk =   0.1111111
        k(   19) = (  -0.0774158   0.0148987   0.0000000), wk =   0.1111111
        k(   20) = (  -0.0774158  -0.1340881   0.0000000), wk =   0.0555556

     Largest allocated arrays     est. size (Mb)     dimensions
     Largest temporary arrays     est. size (Mb)     dimensions

     Check: negative/imaginary core charge=   -0.000001    0.000000

     Initial potential from superposition of free atoms
     Check: negative starting charge=   -0.050335

     starting charge  140.97132, renormalised to  141.00000

     negative rho (up, down):  5.035E-02 0.000E+00

     *
     * You are using vdW-DF for exchange-correlation in this calculation.
     * Please cite the following three references that made this development
     * possible:
     *
     *   M. Dion, H. Rydberg, E. Schroder, D. C. Langreth, and
     *   B. I. Lundqvist, Phys. Rev. Lett. 92, 246401 (2004).
     *
     *   T. Thonhauser, V. R. Cooper, S. Li, A. Puzder, P. Hyldgaard, and
     *   D. C. Langreth, Phys. Rev. B 76, 125112 (2007).
     *
     *   G. Roman-Perez and J. M. Soler, Phys. Rev. Lett. 103, 096102 (2009).
     *
     *
     * If you are using vdW-DF2, please also cite:
     *
     *   K. Lee, E. D. Murray, L. Kong, B. I. Lundqvist, and
     *   D. C. Langreth, Phys. Rev. B 82, 081101(R) (2010).
     *
     *
     * If you are calculating the stress with vdW-DF, please also cite:
     *
     *   R. Sabatini, E. Kucukbenli, B. Kolb, T. Thonhauser, and
     *   S. de Gironcoli, J. Phys.: Condens. Matter 24, 424209 (2012).
     *

     Carrying out vdW-DF run using the following parameters:

     Nqs =      20    Nr_points =    1024   r_max =   100.000
     q_mesh =
               0.00001000     0.04494208     0.09755937     0.15916263
               0.23128650     0.31572767     0.41458969     0.53033537
               0.66584808     0.82450364     1.01025438     1.22772762
               1.48234092     1.78043706     2.12944203     2.53805004
               3.01644009     3.57652955     4.23227104     5.00000000

     Gradients computed in reciprocal space

     Adding external electric field

     Computed dipole along edir(3) :
        Dipole               -0.0000 Ry au,         -0.0000 Debye
        Dipole field         -0.0000 Ry au

        Potential amp.        0.0000 Ry
        Total length         46.5659 bohr

     Starting wfc are  144 randomized atomic wfcs

     Self-consistent Calculation

     iteration #  1     ecut=    36.75 Ry     beta=0.10
     Davidson diagonalization with overlap
     ethr =  1.00E-02,  avg # of iterations =  2.0

[...]

     total energy              =   -1351.12714576 Ry
     Harris-Foulkes estimate   =   -1351.79463255 Ry
     estimated scf accuracy    <       3.79450221 Ry

[...]

     iteration # 11     ecut=    36.75 Ry     beta=0.10
     Davidson diagonalization with overlap
     c_bands:  1 eigenvalues not converged
     ethr =  9.32E-07,  avg # of iterations =  7.5

[...]

     End of self-consistent calculation

          k = 0.0000 0.0000 0.0000 ( 23199 PWs)   bands (ev):

   -49.3162 -49.3156 -49.2836 -49.2836 -49.2834 -49.2834 -48.9215 -48.8890
   -48.8889 -28.0197 -28.0059 -27.9776 -27.9776 -27.9713 -27.9713 -27.9700
   -27.9700 -27.9557 -27.9557 -27.9357 -27.9228 -27.8387 -27.8358 -27.6626
   -27.6626 -27.6620 -27.6571 -27.6570 -27.5892 -27.5892 -27.4948 -27.4947
   -27.4774 -27.4580 -27.3285 -27.3284 -15.9882 -15.9882 -15.9847 -15.9688
   -15.9688 -15.8036 -15.8035 -15.8024 -15.8024 -15.8011 -15.7976 -15.7804
   -15.7804 -15.7777 -15.7776  -8.2638  -7.5597  -7.3426  -2.0143  -1.7480
    -1.3405  -1.2370  -1.2370  -0.9740  -0.9739  -0.5575   0.0306   0.0306
     0.0574   0.0574   0.1818   0.3499   0.6016   0.6016   0.8648   0.8648
     0.8699   0.9752   1.0935   1.0935   1.4012   1.5370   1.5370   1.6340
     1.6603   1.8617   1.8617   2.0368   2.2439   2.7501   2.8106   2.8782
     2.8782   2.8987   2.9611   2.9611   2.9687   2.9689   2.9689   3.1439
     3.1440   3.3080   3.3081   3.3853

[...]

          k =-0.0774-0.0447 0.0000 ( 23208 PWs)   bands (ev):

[...]

     the Fermi energy is     0.9107 ev

!    total energy              =   -1351.49972598 Ry
     Harris-Foulkes estimate   =   -1351.49977499 Ry
     estimated scf accuracy    <       0.00000053 Ry

     The total energy is the sum of the following terms:

     one-electron contribution =   -7947.23876103 Ry
     hartree contribution      =    3978.53389012 Ry
     xc contribution           =    -320.98714858 Ry
     ewald contribution        =    2938.30288409 Ry
     electric field correction =       0.00000000 Ry
     smearing contrib. (-TS)   =      -0.11059058 Ry

     convergence has been achieved in  17 iterations

 BEEF-vdW xc energy contributions
           1 :   -280.767917198011
           2 :    255.869334166035
           3 :   -214.515896405121
           4 :    168.922050262641
           5 :   -129.160801584981
           6 :    99.6879911089483
           7 :   -79.6509545584416
           8 :    65.6423928514677
           9 :   -54.5122849379301
          10 :    44.6657966678239
          11 :   -35.8061931170337
[...]

     PseudoPot. # 1 for Sc read from file:
     /afs/slac.stanford.edu/u/if/mamunm/psp/gbrv1.5pbe/Sc.UPF
     MD5 check sum: db30a2753ba66ef00f23801d899b7e7f
     Pseudo is Ultrasoft + core correction, Zval = 11.0
     Generated by new atomic code, or converted to UPF format
     Using radial grid of  849 points,  6 beta functions with:
                l(1) =   0
                l(2) =   0
                l(3) =   1
                l(4) =   1
                l(5) =   2
                l(6) =   2
     Q(r) pseudized with  6 coefficients,  rinner =    1.200   1.200   1.200
                                                       1.200   1.200

     PseudoPot. # 2 for Pb read from file:
     /afs/slac.stanford.edu/u/if/mamunm/psp/gbrv1.5pbe/Pb.UPF
     MD5 check sum: 3d1c1779aa92214d1e8f3a7db79003e2
     Pseudo is Ultrasoft + core correction, Zval = 14.0
     Generated by new atomic code, or converted to UPF format
     Using radial grid of  899 points,  6 beta functions with:
                l(1) =   0
                l(2) =   0
                l(3) =   1
                l(4) =   1
                l(5) =   2
                l(6) =   2
     Q(r) pseudized with  6 coefficients,  rinner =    1.000   1.000   1.000
                                                       1.000   1.000

     vdW kernel table read from file vdW_kernel_table
     MD5 check sum: 095c7af220d748ca6e76c0b4c6cfb241

     atomic species   valence    mass     pseudopotential
        Sc1           11.00    44.95591     Sc( 1.00)
        Pb1           14.00   207.20000     Pb( 1.00)

     No symmetry found

   Cartesian axes

     site n.     atom                  positions (alat units)
         1           Sc1 tau(   1) = (   0.0000000   0.0000000  10.0000000  )
         2           Sc1 tau(   2) = (  -1.6146571   2.7966681  10.0000000  )
         3           Sc1 tau(   3) = (   1.6146571   2.7966681  10.0000000  )
         4           Pb1 tau(   4) = (   3.2293141   0.0000000  10.0000000  )
         5           Sc1 tau(   5) = (   3.2293141   1.8644454  12.6367239  )
         6           Sc1 tau(   6) = (   1.6146571   4.6611134  12.6367239  )
         7           Sc1 tau(   7) = (  -1.6146571   4.6611134  12.6367239  )
         8           Pb1 tau(   8) = (   0.0000000   1.8644454  12.6367239  )
         9           Sc1 tau(   9) = (   0.0000270   3.7313275  15.2701224  )
        10           Sc1 tau(  10) = (   1.6168082   0.9310402  15.2701302  )
        11           Sc1 tau(  11) = (   4.8418231   0.9310003  15.2700963  )
        12           Pb1 tau(  12) = (   3.2293154   3.7290125  15.3420704  )

     number of k points=    20  Fermi-Dirac smearing, width (Ry)=  0.0110
                       cart. coord. in units 2pi/alat
        k(    1) = (   0.0000000   0.0000000   0.0000000), wk =   0.0555556
        k(    2) = (   0.0000000   0.0297974   0.0000000), wk =   0.1111111
        k(    3) = (   0.0000000   0.0595947   0.0000000), wk =   0.1111111
        k(    4) = (   0.0000000  -0.0893921   0.0000000), wk =   0.0555556
        k(    5) = (   0.0258053   0.0148987   0.0000000), wk =   0.1111111
        k(    6) = (   0.0258053   0.0446960   0.0000000), wk =   0.1111111
        k(    7) = (   0.0258053   0.0744934   0.0000000), wk =   0.1111111
        k(    8) = (   0.0258053  -0.0744934   0.0000000), wk =   0.1111111
        k(    9) = (   0.0258053  -0.0446960   0.0000000), wk =   0.1111111
        k(   10) = (   0.0258053  -0.0148987   0.0000000), wk =   0.1111111
        k(   11) = (   0.0516105   0.0297974   0.0000000), wk =   0.1111111
        k(   12) = (   0.0516105   0.0595947   0.0000000), wk =   0.1111111
        k(   13) = (   0.0516105   0.0893921   0.0000000), wk =   0.1111111
        k(   14) = (   0.0516105  -0.0595947   0.0000000), wk =   0.1111111
        k(   15) = (   0.0516105  -0.0297974   0.0000000), wk =   0.1111111
        k(   16) = (   0.0516105   0.0000000   0.0000000), wk =   0.1111111
        k(   17) = (  -0.0774158  -0.0446960   0.0000000), wk =   0.0555556
        k(   18) = (  -0.0774158  -0.0148987   0.0000000), wk =   0.1111111
        k(   19) = (  -0.0774158   0.0148987   0.0000000), wk =   0.1111111
        k(   20) = (  -0.0774158  -0.1340881   0.0000000), wk =   0.0555556

     Largest allocated arrays     est. size (Mb)     dimensions
     Largest temporary arrays     est. size (Mb)     dimensions

     Check: negative/imaginary core charge=   -0.000001    0.000000

     Initial potential from superposition of free atoms
     Check: negative starting charge=   -0.050628

     starting charge  140.97132, renormalised to  141.00000

[...]

     *
     * You are using vdW-DF for exchange-correlation in this calculation.
     * Please cite the following three references that made this development
     * possible:
     *
     *   M. Dion, H. Rydberg, E. Schroder, D. C. Langreth, and
     *   B. I. Lundqvist, Phys. Rev. Lett. 92, 246401 (2004).
     *
     *   T. Thonhauser, V. R. Cooper, S. Li, A. Puzder, P. Hyldgaard, and
     *   D. C. Langreth, Phys. Rev. B 76, 125112 (2007).
     *
     *   G. Roman-Perez and J. M. Soler, Phys. Rev. Lett. 103, 096102 (2009).
     *
     *
     * If you are using vdW-DF2, please also cite:
     *
     *   K. Lee, E. D. Murray, L. Kong, B. I. Lundqvist, and
     *   D. C. Langreth, Phys. Rev. B 82, 081101(R) (2010).
     *
     *
     * If you are calculating the stress with vdW-DF, please also cite:
     *
     *   R. Sabatini, E. Kucukbenli, B. Kolb, T. Thonhauser, and
     *   S. de Gironcoli, J. Phys.: Condens. Matter 24, 424209 (2012).
     *

     Carrying out vdW-DF run using the following parameters:

     Nqs =      20    Nr_points =    1024   r_max =   100.000
     q_mesh =
               0.00001000     0.04494208     0.09755937     0.15916263
               0.23128650     0.31572767     0.41458969     0.53033537
               0.66584808     0.82450364     1.01025438     1.22772762
               1.48234092     1.78043706     2.12944203     2.53805004
               3.01644009     3.57652955     4.23227104     5.00000000

     Gradients computed in reciprocal space

[...]

     Starting wfc are  144 randomized atomic wfcs

     Self-consistent Calculation

[...]

     total energy              =   -1351.50056426 Ry
     Harris-Foulkes estimate   =   -1351.50056298 Ry
     estimated scf accuracy    <       0.00000182 Ry

     iteration # 17     ecut=    36.75 Ry     beta=0.10
     Davidson diagonalization with overlap
     ethr =  1.29E-09,  avg # of iterations =  4.2

[...]

     negative rho (up, down):  5.833E-02 0.000E+00

     Adding external electric field

     Computed dipole along edir(3) :
        Dipole               -0.0102 Ry au,         -0.0260 Debye
        Dipole field         -0.0000 Ry au

        Potential amp.        0.0019 Ry
        Total length         46.5659 bohr

     End of self-consistent calculation

[...]

          k = 0.0516 0.0000 0.0000 ( 23184 PWs)   bands (ev):

[...]

          k =-0.0774-0.1341 0.0000 ( 23208 PWs)   bands (ev):

   -49.3110 -49.3057 -49.3002 -49.2949 -49.2894 -49.2841 -48.9213 -48.9105
   -48.8997 -28.0047 -27.9984 -27.9936 -27.9766 -27.9743 -27.9734 -27.9685
   -27.9617 -27.9205 -27.9104 -27.8904 -27.8829 -27.8409 -27.8355 -27.7730
   -27.7658 -27.6752 -27.6721 -27.6266 -27.5531 -27.5488 -27.5374 -27.5337
   -27.4948 -27.4563 -27.4219 -27.3479 -15.9929 -15.9879 -15.9857 -15.9724
   -15.9719 -15.8091 -15.8024 -15.8013 -15.7953 -15.7884 -15.7880 -15.7860
   -15.7860 -15.7714 -15.7713  -7.8351  -7.4594  -7.3291  -3.0169  -2.2763
    -2.2278  -2.1011  -1.0926  -0.8687  -0.8064  -0.4779  -0.4018  -0.2786
    -0.1330   0.4346   0.5520   0.6622   0.7361   0.9325   1.0205   1.1287
     1.1571   1.1996   1.3235   1.3579   1.3981   1.4413   1.6795   1.7679
     1.8506   1.8845   2.0317   2.0927   2.2410   2.5363   2.5424   2.7230
     2.8074   2.8111   2.8554   2.9300   2.9427   2.9696   2.9708   3.0150
     3.0875   3.1222   3.1447   3.1865

     the Fermi energy is     0.9040 ev

!    total energy              =   -1351.50051216 Ry
     Harris-Foulkes estimate   =   -1351.50056452 Ry
     estimated scf accuracy    <       0.00000067 Ry

     The total energy is the sum of the following terms:

     one-electron contribution =   -7927.09892902 Ry
     hartree contribution      =    3968.43884763 Ry
     xc contribution           =    -320.97549980 Ry
     ewald contribution        =    2928.24606776 Ry
     electric field correction =       0.00000021 Ry
     smearing contrib. (-TS)   =      -0.11099894 Ry

     convergence has been achieved in  17 iterations

 BEEF-vdW xc energy contributions
           1 :   -280.762464950920
           2 :    255.857517700331
           3 :   -214.498309537237
           4 :    168.907608432173
           5 :   -129.161464693232
           6 :    99.7104601436886
           7 :   -79.6913030711453
           8 :    65.6880227423719
           9 :   -54.5498704553573
          10 :    44.6887644634253
          11 :   -35.8162709131382
          12 :    28.0663004806938
          13 :   -21.4564839672723
          14 :    15.9635499288314
          15 :   -11.8073077643589
          16 :    9.39996522128257
          17 :   -8.88136875762945
          18 :    9.69626301988097
          19 :   -10.7131472343917
          20 :    10.8826513467278
          21 :   -9.91240901483786
          22 :    8.40001157577632
          23 :   -7.32637968111055
          24 :    7.32073573522024
          25 :   -8.24955456815269
          26 :    9.38435061949383
          27 :   -9.95302482479843
          28 :    9.63168321912286
          29 :   -8.65436378619438
          30 :    7.55357136177611
          31 :   -26.4228522571318
          32 :   -19.2164878540656

     Forces acting on atoms (Ry/au):

     negative rho (up, down):  5.833E-02 0.000E+00
     atom    1 type  1   force =    -0.00000410   -0.00020670    0.00051728
     atom    2 type  1   force =    -0.00017841    0.00009577    0.00052193
     atom    3 type  1   force =     0.00017933    0.00009998    0.00052088
     atom    4 type  2   force =     0.00000302    0.00000862   -0.00650061
     atom    5 type  1   force =     0.00000360    0.00069373    0.00124817
     atom    6 type  1   force =     0.00060040   -0.00035095    0.00123955
     atom    7 type  1   force =    -0.00059862   -0.00035491    0.00124630
     atom    8 type  2   force =    -0.00000647    0.00000145    0.00009509
     atom    9 type  1   force =    -0.00000810   -0.00071759    0.00040319
     atom   10 type  1   force =    -0.00062514    0.00035650    0.00040749
     atom   11 type  1   force =     0.00062586    0.00036811    0.00040895
     atom   12 type  2   force =     0.00000863    0.00000599   -0.00010823

     Total force =     0.007167     Total SCF correction =     0.002721
     SCF correction compared to forces is large: reduce conv_thr to get better values

     entering subroutine stress ...

     negative rho (up, down):  5.833E-02 0.000E+00
          total   stress  (Ry/bohr**3)                   (kbar)     P=   -5.36
  -0.00005688  -0.00000000   0.00000000         -8.37     -0.00      0.00
  -0.00000000  -0.00005690  -0.00000001         -0.00     -8.37     -0.00
   0.00000000  -0.00000001   0.00000448          0.00     -0.00      0.66

 !ASE

     Writing output data file calc.save

     General routines

     Parallel routines

   This run was terminated on:   9:45:46   1Jan2019

   JOB DONE.
Job  /afs/slac/g/suncat/bin/suncat-tsmpirun -x LD_LIBRARY_PATH -wdir /scratch/qe648980_W1z6P pw.x -in pw.inp

TID   HOST_NAME   COMMAND_LINE            STATUS            TERMINATION_TIME
00000 suncat0020 pw.x -in pw.inp   Done                     01/01/2019 09:45:46
00001 suncat0020 pw.x -in pw.inp   Done                     01/01/2019 09:45:46
00002 suncat0020 pw.x -in pw.inp   Done                     01/01/2019 09:45:46
00003 suncat0020 pw.x -in pw.inp   Done                     01/01/2019 09:45:46
00004 suncat0020 pw.x -in pw.inp   Done                     01/01/2019 09:45:46
00005 suncat0020 pw.x -in pw.inp   Done                     01/01/2019 09:45:46
00006 suncat0020 pw.x -in pw.inp   Done                     01/01/2019 09:45:46
00007 suncat0020 pw.x -in pw.inp   Done                     01/01/2019 09:45:46
00008 suncat0014 pw.x -in pw.inp   Done                     01/01/2019 09:45:46
00009 suncat0014 pw.x -in pw.inp   Done                     01/01/2019 09:45:46
00010 suncat0014 pw.x -in pw.inp   Done                     01/01/2019 09:45:46
00011 suncat0014 pw.x -in pw.inp   Done                     01/01/2019 09:45:46
00012 suncat0014 pw.x -in pw.inp   Done                     01/01/2019 09:45:46
00013 suncat0014 pw.x -in pw.inp   Done                     01/01/2019 09:45:46
00014 suncat0014 pw.x -in pw.inp   Done                     01/01/2019 09:45:46
00015 suncat0014 pw.x -in pw.inp   Done                     01/01/2019 09:45:46
00016 suncat0199 pw.x -in pw.inp   Done                     01/01/2019 09:45:46
00017 suncat0199 pw.x -in pw.inp   Done                     01/01/2019 09:45:46
00018 suncat0199 pw.x -in pw.inp   Done                     01/01/2019 09:45:46
00019 suncat0199 pw.x -in pw.inp   Done                     01/01/2019 09:45:46
00020 suncat0199 pw.x -in pw.inp   Done                     01/01/2019 09:45:46
00021 suncat0199 pw.x -in pw.inp   Done                     01/01/2019 09:45:46
00022 suncat0199 pw.x -in pw.inp   Done                     01/01/2019 09:45:46
00023 suncat0199 pw.x -in pw.inp   Done                     01/01/2019 09:45:46
00024 suncat0006 pw.x -in pw.inp   Done                     01/01/2019 09:45:46
00025 suncat0006 pw.x -in pw.inp   Done                     01/01/2019 09:45:46
00026 suncat0006 pw.x -in pw.inp   Done                     01/01/2019 09:45:46
00027 suncat0006 pw.x -in pw.inp   Done                     01/01/2019 09:45:46
00028 suncat0006 pw.x -in pw.inp   Done                     01/01/2019 09:45:46
00029 suncat0006 pw.x -in pw.inp   Done                     01/01/2019 09:45:46
00030 suncat0006 pw.x -in pw.inp   Done                     01/01/2019 09:45:46
00031 suncat0006 pw.x -in pw.inp   Done                     01/01/2019 09:45:46
00032 suncat0005 pw.x -in pw.inp   Done                     01/01/2019 09:45:46
00033 suncat0005 pw.x -in pw.inp   Done                     01/01/2019 09:45:46
00034 suncat0005 pw.x -in pw.inp   Done                     01/01/2019 09:45:46
00035 suncat0005 pw.x -in pw.inp   Done                     01/01/2019 09:45:46
00036 suncat0005 pw.x -in pw.inp   Done                     01/01/2019 09:45:46
00037 suncat0005 pw.x -in pw.inp   Done                     01/01/2019 09:45:46
00038 suncat0005 pw.x -in pw.inp   Done                     01/01/2019 09:45:46
00039 suncat0005 pw.x -in pw.inp   Done                     01/01/2019 09:45:46
00040 suncat0004 pw.x -in pw.inp   Done                     01/01/2019 09:45:46
00041 suncat0004 pw.x -in pw.inp   Done                     01/01/2019 09:45:46
00042 suncat0004 pw.x -in pw.inp   Done                     01/01/2019 09:45:46
00043 suncat0004 pw.x -in pw.inp   Done                     01/01/2019 09:45:46
00044 suncat0004 pw.x -in pw.inp   Done                     01/01/2019 09:45:46
00045 suncat0004 pw.x -in pw.inp   Done                     01/01/2019 09:45:46
00046 suncat0004 pw.x -in pw.inp   Done                     01/01/2019 09:45:46
00047 suncat0004 pw.x -in pw.inp   Done                     01/01/2019 09:45:46
00048 suncat0187 pw.x -in pw.inp   Done                     01/01/2019 09:45:46
00049 suncat0187 pw.x -in pw.inp   Done                     01/01/2019 09:45:46
00050 suncat0187 pw.x -in pw.inp   Done                     01/01/2019 09:45:46
00051 suncat0187 pw.x -in pw.inp   Done                     01/01/2019 09:45:46
00052 suncat0187 pw.x -in pw.inp   Done                     01/01/2019 09:45:46
00053 suncat0187 pw.x -in pw.inp   Done                     01/01/2019 09:45:46
00054 suncat0187 pw.x -in pw.inp   Done                     01/01/2019 09:45:46
00055 suncat0187 pw.x -in pw.inp   Done                     01/01/2019 09:45:46
00056 suncat0186 pw.x -in pw.inp   Done                     01/01/2019 09:45:46
00057 suncat0186 pw.x -in pw.inp   Done                     01/01/2019 09:45:46
00058 suncat0186 pw.x -in pw.inp   Done                     01/01/2019 09:45:46
00059 suncat0186 pw.x -in pw.inp   Done                     01/01/2019 09:45:46
00060 suncat0186 pw.x -in pw.inp   Done                     01/01/2019 09:45:46
00061 suncat0186 pw.x -in pw.inp   Done                     01/01/2019 09:45:46
00062 suncat0186 pw.x -in pw.inp   Done                     01/01/2019 09:45:46
00063 suncat0186 pw.x -in pw.inp   Done                     01/01/2019 09:45:46