     Program PWSCF v.5.1rc2 (svn rev. 11289) starts on 29Dec2018 at 22:41:50

     Current dimensions of program PWSCF are:
     Max number of different atomic species (ntypx) = 10
     Max number of k-points (npk) =  40000
     Max angular momentum in pseudopotentials (lmaxx) =  3
     Presently stress not available with electric field

     IMPORTANT: XC functional enforced from input :
     Exchange-correlation      = BEEF-VDW ( 1  4 27 13 2)
     Any further DFT definition will be discarded
     Please, verify this is what you really want

     Subspace diagonalization in iterative solution of the eigenvalue problem:
     a serial algorithm will be used

     Found symmetry operation: I + ( -0.5000  0.5000  0.0000)
     This is a supercell, fractional translations are disabled

     bravais-lattice index     =            0
     lattice parameter (alat)  =       1.8897  a.u.
     unit-cell volume          =    4234.6403 (a.u.)^3
     number of atoms/cell      =           12
     number of atomic types    =            2
     number of electrons       =       168.00
     number of Kohn-Sham states=          114
     kinetic-energy cutoff     =      36.7493  Ry
     charge density cutoff     =     367.4932  Ry
     convergence threshold     =      1.0E-06
     mixing beta               =       0.1000
     number of iterations used =           10  plain     mixing
     Exchange-correlation      = BEEF-VDW ( 1  4 27 13 2)
     nstep                     =           50

     celldm(1)=   1.889726  celldm(2)=   0.000000  celldm(3)=   0.000000
     celldm(4)=   0.000000  celldm(5)=   0.000000  celldm(6)=   0.000000

     crystal axes: (cart. coord. in units of alat)
               a(1) = (   5.236695   0.000000   0.000000 )
               a(2) = (   1.749105   4.935950   0.000000 )
               a(3) = (   0.000000   0.000000  24.276823 )

     reciprocal axes: (cart. coord. in units 2 pi/alat)
               b(1) = (  0.190960 -0.067669  0.000000 )
               b(2) = (  0.000000  0.202595  0.000000 )
               b(3) = (  0.000000  0.000000  0.041192 )

     PseudoPot. # 1 for V  read from file:
     /afs/slac.stanford.edu/u/if/mamunm/psp/gbrv1.5pbe/V.UPF
     MD5 check sum: 22b79981416ebb76fdaf5b1b8640f6fb
     Pseudo is Ultrasoft + core correction, Zval = 13.0
     Generated by new atomic code, or converted to UPF format
     Using radial grid of  853 points,  6 beta functions with:
                l(1) =   0
                l(2) =   0
                l(3) =   1
                l(4) =   1
                l(5) =   2
                l(6) =   2
     Q(r) pseudized with  8 coefficients,  rinner =    1.100   1.100   1.100
                                                       1.100   1.100

     PseudoPot. # 2 for Tc read from file:
     /afs/slac.stanford.edu/u/if/mamunm/psp/gbrv1.5pbe/Tc.UPF
     MD5 check sum: 9eb49e5b028550b2339a02317eb7b844
     Pseudo is Ultrasoft + core correction, Zval = 15.0
     Generated by new atomic code, or converted to UPF format
     Using radial grid of  965 points,  6 beta functions with:
                l(1) =   0
                l(2) =   0
                l(3) =   1
                l(4) =   1
                l(5) =   2
                l(6) =   2
     Q(r) pseudized with  8 coefficients,  rinner =    1.300   1.300   1.300
                                                       1.300   1.300

     vdW kernel table read from file vdW_kernel_table
     MD5 check sum: 095c7af220d748ca6e76c0b4c6cfb241

     atomic species   valence    mass     pseudopotential
        V1            13.00    50.94150     V ( 1.00)
        Tc1           15.00    97.90721     Tc( 1.00)

     No symmetry found

   Cartesian axes

     site n.     atom                  positions (alat units)
         1           V1  tau(   1) = (   0.0000000   0.0000000  10.0000000  )
         2           V1  tau(   2) = (   3.4929002   2.4679752  10.0000000  )
         3           Tc1 tau(   3) = (   2.6183476   0.0000000  10.0000000  )
         4           Tc1 tau(   4) = (   0.8745526   2.4679752  10.0000000  )
         5           V1  tau(   5) = (   5.2366951   3.7000867  12.1384113  )
         6           V1  tau(   6) = (   1.7437949   1.2321115  12.1384113  )
         7           Tc1 tau(   7) = (   2.6183476   3.7000867  12.1384113  )
         8           Tc1 tau(   8) = (   4.3621425   1.2321115  12.1384113  )
         9           V1  tau(   9) = (   3.4875898   2.4642231  14.2768225  )
        10           V1  tau(  10) = (   6.9804900   4.9321983  14.2768225  )
        11           Tc1 tau(  11) = (   6.1059374   2.4642231  14.2768225  )
        12           Tc1 tau(  12) = (   4.3621425   4.9321983  14.2768225  )

     number of k points=    20  Fermi-Dirac smearing, width (Ry)=  0.0110
                       cart. coord. in units 2pi/alat
        k(    1) = (   0.0000000   0.0000000   0.0000000), wk =   0.0555556
        k(    2) = (   0.0000000   0.0337659   0.0000000), wk =   0.1111111
        k(    3) = (   0.0000000   0.0675317   0.0000000), wk =   0.1111111
        k(    4) = (   0.0000000  -0.1012976   0.0000000), wk =   0.0555556
        k(    5) = (   0.0318267  -0.0112781   0.0000000), wk =   0.1111111
        k(    6) = (   0.0318267   0.0224878   0.0000000), wk =   0.1111111
        k(    7) = (   0.0318267   0.0562536   0.0000000), wk =   0.1111111
        k(    8) = (   0.0318267  -0.1125757   0.0000000), wk =   0.1111111
        k(    9) = (   0.0318267  -0.0788099   0.0000000), wk =   0.1111111
        k(   10) = (   0.0318267  -0.0450440   0.0000000), wk =   0.1111111
        k(   11) = (   0.0636534  -0.0225562   0.0000000), wk =   0.1111111
        k(   12) = (   0.0636534   0.0112096   0.0000000), wk =   0.1111111
        k(   13) = (   0.0636534   0.0449755   0.0000000), wk =   0.1111111
        k(   14) = (   0.0636534  -0.1238538   0.0000000), wk =   0.1111111
        k(   15) = (   0.0636534  -0.0900880   0.0000000), wk =   0.1111111
        k(   16) = (   0.0636534  -0.0563221   0.0000000), wk =   0.1111111
        k(   17) = (  -0.0954801   0.0338344   0.0000000), wk =   0.0555556
        k(   18) = (  -0.0954801   0.0676002   0.0000000), wk =   0.1111111
        k(   19) = (  -0.0954801   0.1013661   0.0000000), wk =   0.1111111
        k(   20) = (  -0.0954801  -0.0674633   0.0000000), wk =   0.0555556

     Largest allocated arrays     est. size (Mb)     dimensions
     Largest temporary arrays     est. size (Mb)     dimensions

     Check: negative/imaginary core charge=   -0.000016    0.000000

     Initial potential from superposition of free atoms
     Check: negative starting charge=   -0.758302

     starting charge  161.99247, renormalised to  168.00000

     negative rho (up, down):  7.864E-01 0.000E+00

     *
     * You are using vdW-DF for exchange-correlation in this calculation.
     * Please cite the following three references that made this development
     * possible:
     *
     *   M. Dion, H. Rydberg, E. Schroder, D. C. Langreth, and
     *   B. I. Lundqvist, Phys. Rev. Lett. 92, 246401 (2004).
     *
     *   T. Thonhauser, V. R. Cooper, S. Li, A. Puzder, P. Hyldgaard, and
     *   D. C. Langreth, Phys. Rev. B 76, 125112 (2007).
     *
     *   G. Roman-Perez and J. M. Soler, Phys. Rev. Lett. 103, 096102 (2009).
     *
     *
     * If you are using vdW-DF2, please also cite:
     *
     *   K. Lee, E. D. Murray, L. Kong, B. I. Lundqvist, and
     *   D. C. Langreth, Phys. Rev. B 82, 081101(R) (2010).
     *
     *
     * If you are calculating the stress with vdW-DF, please also cite:
     *
     *   R. Sabatini, E. Kucukbenli, B. Kolb, T. Thonhauser, and
     *   S. de Gironcoli, J. Phys.: Condens. Matter 24, 424209 (2012).
     *

     Carrying out vdW-DF run using the following parameters:

     Nqs =      20    Nr_points =    1024   r_max =   100.000
     q_mesh =
               0.00001000     0.04494208     0.09755937     0.15916263
               0.23128650     0.31572767     0.41458969     0.53033537
               0.66584808     0.82450364     1.01025438     1.22772762
               1.48234092     1.78043706     2.12944203     2.53805004
               3.01644009     3.57652955     4.23227104     5.00000000

     Gradients computed in reciprocal space

     Adding external electric field

     Computed dipole along edir(3) :
        Dipole               -0.0000 Ry au,         -0.0000 Debye
        Dipole field         -0.0000 Ry au

        Potential amp.        0.0000 Ry
        Total length         44.7296 bohr

     Starting wfc are  138 randomized atomic wfcs

     Self-consistent Calculation

     iteration #  1     ecut=    36.75 Ry     beta=0.10
     Davidson diagonalization with overlap
     ethr =  1.00E-02,  avg # of iterations =  2.0

[...]

     total energy              =   -1927.13664004 Ry
     Harris-Foulkes estimate   =   -1928.27407593 Ry
     estimated scf accuracy    <       7.20324020 Ry

[...]

     End of self-consistent calculation

          k = 0.0000 0.0000 0.0000 ( 15937 PWs)   bands (ev):

   -65.4385 -65.4121 -65.0446 -65.0438 -65.0199 -65.0198 -63.0128 -63.0049
   -62.8588 -62.8567 -62.8495 -62.8493 -37.7907 -37.7358 -37.7051 -37.6065
   -37.5762 -37.4317 -37.4108 -37.3364 -37.3314 -37.2965 -37.2621 -37.2254
   -37.1192 -37.1088 -37.0891 -37.0666 -36.9949 -36.9791 -36.7561 -36.7495
   -36.7313 -36.6895 -36.6755 -36.6376 -36.6284 -36.6214 -36.6081 -36.5689
   -36.4462 -36.4287 -36.4209 -36.4171 -36.4017 -36.3946 -36.3426 -36.3424
    -4.7474  -3.0643  -2.8948  -2.8882  -2.8022  -2.7105  -2.5346  -2.3477
    -2.3380  -2.1820  -1.8248  -1.7988  -1.1058  -1.0960  -1.0015  -0.9558
    -0.9142  -0.8302  -0.7643  -0.7522  -0.4642  -0.4266  -0.1012   0.2951
     0.3641   0.3896   0.5329   1.1579   1.2041   1.3933   1.4582   1.6322
     1.7520   2.1216   2.4666   2.6159   2.6196   2.6551   2.7742   2.8994
     2.9172   2.9547   3.0154   3.0675   3.0754   3.1278   3.1534   3.1703
     3.2494   3.3239   3.4038   3.5198   3.5886   3.6531   3.7863   3.7934
     3.8038   3.8381   3.8574   3.9603   4.3455   4.4737   4.5009   4.5519
     4.7112   5.1126

[...]

          k =-0.0955 0.0338 0.0000 ( 15968 PWs)   bands (ev):

[...]

     the Fermi energy is     1.7133 ev

!    total energy              =   -1926.36645955 Ry
     Harris-Foulkes estimate   =   -1926.36645423 Ry
     estimated scf accuracy    <       0.00000038 Ry

     The total energy is the sum of the following terms:

     one-electron contribution =  -16736.69407943 Ry
     hartree contribution      =    8359.78546064 Ry
     xc contribution           =    -320.68952296 Ry
     ewald contribution        =    6771.30817931 Ry
     electric field correction =       0.00000000 Ry
     smearing contrib. (-TS)   =      -0.07649711 Ry

     convergence has been achieved in  20 iterations

 BEEF-vdW xc energy contributions
           1 :   -279.311577473693
           2 :    254.584908586556
           3 :   -211.924864868924
           4 :    161.866281783324
           5 :   -114.613609089613
           6 :    76.6976488908210
           7 :   -49.8366209653910
           8 :    31.9626262327639
           9 :   -19.4883160495556
[...]
     /afs/slac.stanford.edu/u/if/mamunm/psp/gbrv1.5pbe/V.UPF
     MD5 check sum: 22b79981416ebb76fdaf5b1b8640f6fb
     Pseudo is Ultrasoft + core correction, Zval = 13.0
     Generated by new atomic code, or converted to UPF format
     Using radial grid of  853 points,  6 beta functions with:
                l(1) =   0
                l(2) =   0
                l(3) =   1
                l(4) =   1
                l(5) =   2
                l(6) =   2
     Q(r) pseudized with  8 coefficients,  rinner =    1.100   1.100   1.100
                                                       1.100   1.100

     PseudoPot. # 2 for Tc read from file:
     /afs/slac.stanford.edu/u/if/mamunm/psp/gbrv1.5pbe/Tc.UPF
     MD5 check sum: 9eb49e5b028550b2339a02317eb7b844
     Pseudo is Ultrasoft + core correction, Zval = 15.0
     Generated by new atomic code, or converted to UPF format
     Using radial grid of  965 points,  6 beta functions with:
                l(1) =   0
                l(2) =   0
                l(3) =   1
                l(4) =   1
                l(5) =   2
                l(6) =   2
     Q(r) pseudized with  8 coefficients,  rinner =    1.300   1.300   1.300
                                                       1.300   1.300

     vdW kernel table read from file vdW_kernel_table
     MD5 check sum: 095c7af220d748ca6e76c0b4c6cfb241

     atomic species   valence    mass     pseudopotential
        V1            13.00    50.94150     V ( 1.00)
        Tc1           15.00    97.90721     Tc( 1.00)

     No symmetry found

   Cartesian axes

     site n.     atom                  positions (alat units)
         1           V1  tau(   1) = (   0.0000000   0.0000000  10.0000000  )
         2           V1  tau(   2) = (   3.4929002   2.4679752  10.0000000  )
         3           Tc1 tau(   3) = (   2.6183476   0.0000000  10.0000000  )
         4           Tc1 tau(   4) = (   0.8745526   2.4679752  10.0000000  )
         5           V1  tau(   5) = (   5.2366951   3.7000867  12.1384113  )
         6           V1  tau(   6) = (   1.7437949   1.2321115  12.1384113  )
         7           Tc1 tau(   7) = (   2.6183476   3.7000867  12.1384113  )
         8           Tc1 tau(   8) = (   4.3621425   1.2321115  12.1384113  )
         9           V1  tau(   9) = (   3.4892762   2.4654135  14.2096401  )
        10           V1  tau(  10) = (   6.9821744   4.9333889  14.2096191  )
        11           Tc1 tau(  11) = (   6.1075554   2.4653702  14.1932823  )
        12           Tc1 tau(  12) = (   4.3637714   4.9333441  14.1932828  )

     number of k points=    20  Fermi-Dirac smearing, width (Ry)=  0.0110
                       cart. coord. in units 2pi/alat
        k(    1) = (   0.0000000   0.0000000   0.0000000), wk =   0.0555556
        k(    2) = (   0.0000000   0.0337659   0.0000000), wk =   0.1111111
        k(    3) = (   0.0000000   0.0675317   0.0000000), wk =   0.1111111
        k(    4) = (   0.0000000  -0.1012976   0.0000000), wk =   0.0555556
        k(    5) = (   0.0318267  -0.0112781   0.0000000), wk =   0.1111111
        k(    6) = (   0.0318267   0.0224878   0.0000000), wk =   0.1111111
        k(    7) = (   0.0318267   0.0562536   0.0000000), wk =   0.1111111
        k(    8) = (   0.0318267  -0.1125757   0.0000000), wk =   0.1111111
        k(    9) = (   0.0318267  -0.0788099   0.0000000), wk =   0.1111111
        k(   10) = (   0.0318267  -0.0450440   0.0000000), wk =   0.1111111
        k(   11) = (   0.0636534  -0.0225562   0.0000000), wk =   0.1111111
        k(   12) = (   0.0636534   0.0112096   0.0000000), wk =   0.1111111
        k(   13) = (   0.0636534   0.0449755   0.0000000), wk =   0.1111111
        k(   14) = (   0.0636534  -0.1238538   0.0000000), wk =   0.1111111
        k(   15) = (   0.0636534  -0.0900880   0.0000000), wk =   0.1111111
        k(   16) = (   0.0636534  -0.0563221   0.0000000), wk =   0.1111111
        k(   17) = (  -0.0954801   0.0338344   0.0000000), wk =   0.0555556
        k(   18) = (  -0.0954801   0.0676002   0.0000000), wk =   0.1111111
        k(   19) = (  -0.0954801   0.1013661   0.0000000), wk =   0.1111111
        k(   20) = (  -0.0954801  -0.0674633   0.0000000), wk =   0.0555556

     Largest allocated arrays     est. size (Mb)     dimensions
     Largest temporary arrays     est. size (Mb)     dimensions

     Check: negative/imaginary core charge=   -0.000016    0.000000

     Initial potential from superposition of free atoms
     Check: negative starting charge=   -0.757942

     starting charge  161.99247, renormalised to  168.00000

[...]

     *
     * You are using vdW-DF for exchange-correlation in this calculation.
     * Please cite the following three references that made this development
     * possible:
     *
     *   M. Dion, H. Rydberg, E. Schroder, D. C. Langreth, and
     *   B. I. Lundqvist, Phys. Rev. Lett. 92, 246401 (2004).
     *
     *   T. Thonhauser, V. R. Cooper, S. Li, A. Puzder, P. Hyldgaard, and
     *   D. C. Langreth, Phys. Rev. B 76, 125112 (2007).
     *
     *   G. Roman-Perez and J. M. Soler, Phys. Rev. Lett. 103, 096102 (2009).
     *
     *
     * If you are using vdW-DF2, please also cite:
     *
     *   K. Lee, E. D. Murray, L. Kong, B. I. Lundqvist, and
     *   D. C. Langreth, Phys. Rev. B 82, 081101(R) (2010).
     *
     *
     * If you are calculating the stress with vdW-DF, please also cite:
     *
     *   R. Sabatini, E. Kucukbenli, B. Kolb, T. Thonhauser, and
     *   S. de Gironcoli, J. Phys.: Condens. Matter 24, 424209 (2012).
     *

     Carrying out vdW-DF run using the following parameters:

     Nqs =      20    Nr_points =    1024   r_max =   100.000
     q_mesh =
               0.00001000     0.04494208     0.09755937     0.15916263
               0.23128650     0.31572767     0.41458969     0.53033537
               0.66584808     0.82450364     1.01025438     1.22772762
               1.48234092     1.78043706     2.12944203     2.53805004
               3.01644009     3.57652955     4.23227104     5.00000000

     Gradients computed in reciprocal space

[...]

     Starting wfc are  138 randomized atomic wfcs

     Self-consistent Calculation

[...]

     total energy              =   -1926.37181647 Ry
     Harris-Foulkes estimate   =   -1926.37181527 Ry
     estimated scf accuracy    <       0.00000183 Ry

     iteration # 20     ecut=    36.75 Ry     beta=0.10
     Davidson diagonalization with overlap
     ethr =  1.09E-09,  avg # of iterations =  1.1

[...]

     negative rho (up, down):  7.988E-01 0.000E+00

     Adding external electric field

     Computed dipole along edir(3) :
        Dipole                0.0238 Ry au,          0.0605 Debye
        Dipole field          0.0001 Ry au

        Potential amp.       -0.0063 Ry
        Total length         44.7296 bohr

     End of self-consistent calculation

[...]

          k = 0.0637-0.0563 0.0000 ( 15961 PWs)   bands (ev):

[...]

          k =-0.0955-0.0675 0.0000 ( 15892 PWs)   bands (ev):

   -65.4351 -65.4128 -65.0292 -65.0263 -65.0059 -65.0052 -62.9829 -62.9727
   -62.8541 -62.8410 -62.8319 -62.8192 -37.6779 -37.5966 -37.5287 -37.5123
   -37.4752 -37.3634 -37.3040 -37.2972 -37.2829 -37.1429 -37.0750 -37.0530
   -37.0429 -37.0402 -37.0320 -37.0135 -36.9930 -36.8983 -36.8392 -36.8212
   -36.7526 -36.7184 -36.6559 -36.6455 -36.6436 -36.6426 -36.6345 -36.6085
   -36.6061 -36.6002 -36.5860 -36.5591 -36.5378 -36.5060 -36.4948 -36.4722
    -3.0310  -2.6677  -2.0485  -2.0132  -1.8965  -1.8643  -1.7334  -1.7281
    -1.5838  -1.3063  -1.2721  -1.0583  -1.0050  -0.8566  -0.7438  -0.6783
    -0.4105  -0.2395  -0.1620  -0.0940  -0.0473   0.1149   0.2082   0.2576
     0.2730   0.4978   0.7489   0.7843   0.9371   0.9372   0.9611   1.0620
     1.1174   1.2093   1.2120   1.2272   1.2333   1.2681   1.3063   1.7717
     1.8567   2.1230   2.1576   2.1702   2.2575   2.2974   2.3590   2.3611
     2.3937   2.4802   2.6022   2.6732   2.7152   2.7298   3.3799   3.3811
     3.3900   3.4417   3.5738   3.6040   3.9924   4.0189   4.2011   4.2982
     4.6637   5.1188

     the Fermi energy is     1.7210 ev

!    total energy              =   -1926.37182190 Ry
     Harris-Foulkes estimate   =   -1926.37181648 Ry
     estimated scf accuracy    <       0.00000061 Ry

     The total energy is the sum of the following terms:

     one-electron contribution =  -16915.72112423 Ry
     hartree contribution      =    8449.36826311 Ry
     xc contribution           =    -320.85171924 Ry
     ewald contribution        =    6860.90712219 Ry
     electric field correction =       0.00000168 Ry
     smearing contrib. (-TS)   =      -0.07436540 Ry

     convergence has been achieved in  20 iterations

 BEEF-vdW xc energy contributions
           1 :   -279.477426094147
           2 :    254.808780588192
           3 :   -212.219068393271
           4 :    162.181824203805
           5 :   -114.867148767157
           6 :    76.8221674779721
           7 :   -49.8240048548906
           8 :    31.8702422897052
           9 :   -19.4051938071519
          10 :    9.43905707417025
          11 :  -0.696464545905826
          12 :   -6.45887254544181
          13 :    10.8955805815039
          14 :   -11.7463023460782
          15 :    9.02316934794322
          16 :   -3.63534005295782
          17 :   -3.03838033091034
          18 :    9.65124997278963
          19 :   -15.1986166976926
          20 :    19.0647456980072
          21 :   -20.9397719131210
          22 :    20.7470594382065
          23 :   -18.6443784782350
          24 :    15.0393284593312
          25 :   -10.5462643763439
          26 :    5.85108729733832
          27 :   -1.53935903672914
          28 :   -2.02711044990428
          29 :    4.71155134117976
          30 :   -6.49171068423425
          31 :   -27.4049681341265
          32 :   -19.9932828225266

     Forces acting on atoms (Ry/au):

     negative rho (up, down):  7.988E-01 0.000E+00
     atom    1 type  1   force =    -0.00021715   -0.00015368    0.01099649
     atom    2 type  1   force =    -0.00021703   -0.00015303    0.01099687
     atom    3 type  2   force =    -0.00018178   -0.00012952    0.01847673
     atom    4 type  2   force =    -0.00018202   -0.00012756    0.01847767
     atom    5 type  1   force =     0.00008845    0.00006249   -0.01197529
     atom    6 type  1   force =     0.00009013    0.00006392   -0.01197500
     atom    7 type  2   force =     0.00013623    0.00008792   -0.01735020
     atom    8 type  2   force =     0.00012796    0.00009880   -0.01735064
     atom    9 type  1   force =     0.00009114    0.00006431   -0.00036871
     atom   10 type  1   force =     0.00009110    0.00006427   -0.00036160
     atom   11 type  2   force =     0.00008699    0.00006059    0.00021697
     atom   12 type  2   force =     0.00008597    0.00006151    0.00021670

     Total force =     0.042594     Total SCF correction =     0.003553

     entering subroutine stress ...

     negative rho (up, down):  7.988E-01 0.000E+00
          total   stress  (Ry/bohr**3)                   (kbar)     P=  -21.69
  -0.00019047  -0.00000768   0.00000135        -28.02     -1.13      0.20
  -0.00000768  -0.00018502   0.00000095         -1.13    -27.22      0.14
   0.00000135   0.00000095  -0.00006680          0.20      0.14     -9.83

 !ASE

     Writing output data file calc.save

     General routines

     Parallel routines

   This run was terminated on:  23:34:38  29Dec2018

   JOB DONE.
Job  /afs/slac/g/suncat/bin/suncat-tsmpirun -x LD_LIBRARY_PATH -wdir /scratch/qe387739_7cYGA pw.x -in pw.inp

TID   HOST_NAME   COMMAND_LINE            STATUS            TERMINATION_TIME
00000 suncat0082 pw.x -in pw.inp   Done                     12/29/2018 23:34:38
00001 suncat0082 pw.x -in pw.inp   Done                     12/29/2018 23:34:38
00002 suncat0082 pw.x -in pw.inp   Done                     12/29/2018 23:34:38
00003 suncat0082 pw.x -in pw.inp   Done                     12/29/2018 23:34:38
00004 suncat0082 pw.x -in pw.inp   Done                     12/29/2018 23:34:38
00005 suncat0082 pw.x -in pw.inp   Done                     12/29/2018 23:34:38
00006 suncat0082 pw.x -in pw.inp   Done                     12/29/2018 23:34:38
00007 suncat0082 pw.x -in pw.inp   Done                     12/29/2018 23:34:38
00008 suncat0077 pw.x -in pw.inp   Done                     12/29/2018 23:34:38
00009 suncat0077 pw.x -in pw.inp   Done                     12/29/2018 23:34:38
00010 suncat0077 pw.x -in pw.inp   Done                     12/29/2018 23:34:38
00011 suncat0077 pw.x -in pw.inp   Done                     12/29/2018 23:34:38
00012 suncat0077 pw.x -in pw.inp   Done                     12/29/2018 23:34:38
00013 suncat0077 pw.x -in pw.inp   Done                     12/29/2018 23:34:38
00014 suncat0077 pw.x -in pw.inp   Done                     12/29/2018 23:34:38
00015 suncat0077 pw.x -in pw.inp   Done                     12/29/2018 23:34:38
00016 suncat0069 pw.x -in pw.inp   Done                     12/29/2018 23:34:38
00017 suncat0069 pw.x -in pw.inp   Done                     12/29/2018 23:34:38
00018 suncat0069 pw.x -in pw.inp   Done                     12/29/2018 23:34:38
00019 suncat0069 pw.x -in pw.inp   Done                     12/29/2018 23:34:38
00020 suncat0069 pw.x -in pw.inp   Done                     12/29/2018 23:34:38
00021 suncat0069 pw.x -in pw.inp   Done                     12/29/2018 23:34:38
00022 suncat0069 pw.x -in pw.inp   Done                     12/29/2018 23:34:38
00023 suncat0069 pw.x -in pw.inp   Done                     12/29/2018 23:34:38
00024 suncat0017 pw.x -in pw.inp   Done                     12/29/2018 23:34:38
00025 suncat0017 pw.x -in pw.inp   Done                     12/29/2018 23:34:38
00026 suncat0017 pw.x -in pw.inp   Done                     12/29/2018 23:34:38
00027 suncat0017 pw.x -in pw.inp   Done                     12/29/2018 23:34:38
00028 suncat0017 pw.x -in pw.inp   Done                     12/29/2018 23:34:38
00029 suncat0017 pw.x -in pw.inp   Done                     12/29/2018 23:34:38
00030 suncat0017 pw.x -in pw.inp   Done                     12/29/2018 23:34:38
00031 suncat0017 pw.x -in pw.inp   Done                     12/29/2018 23:34:38
00032 suncat0016 pw.x -in pw.inp   Done                     12/29/2018 23:34:38
00033 suncat0016 pw.x -in pw.inp   Done                     12/29/2018 23:34:38
00034 suncat0016 pw.x -in pw.inp   Done                     12/29/2018 23:34:38
00035 suncat0016 pw.x -in pw.inp   Done                     12/29/2018 23:34:38
00036 suncat0016 pw.x -in pw.inp   Done                     12/29/2018 23:34:38
00037 suncat0016 pw.x -in pw.inp   Done                     12/29/2018 23:34:38
00038 suncat0016 pw.x -in pw.inp   Done                     12/29/2018 23:34:38
00039 suncat0016 pw.x -in pw.inp   Done                     12/29/2018 23:34:38
00040 suncat0184 pw.x -in pw.inp   Done                     12/29/2018 23:34:38
00041 suncat0184 pw.x -in pw.inp   Done                     12/29/2018 23:34:38
00042 suncat0184 pw.x -in pw.inp   Done                     12/29/2018 23:34:38
00043 suncat0184 pw.x -in pw.inp   Done                     12/29/2018 23:34:38
00044 suncat0184 pw.x -in pw.inp   Done                     12/29/2018 23:34:38
00045 suncat0184 pw.x -in pw.inp   Done                     12/29/2018 23:34:38
00046 suncat0184 pw.x -in pw.inp   Done                     12/29/2018 23:34:38
00047 suncat0184 pw.x -in pw.inp   Done                     12/29/2018 23:34:38
00048 suncat0172 pw.x -in pw.inp   Done                     12/29/2018 23:34:38
00049 suncat0172 pw.x -in pw.inp   Done                     12/29/2018 23:34:38
00050 suncat0172 pw.x -in pw.inp   Done                     12/29/2018 23:34:38
00051 suncat0172 pw.x -in pw.inp   Done                     12/29/2018 23:34:38
00052 suncat0172 pw.x -in pw.inp   Done                     12/29/2018 23:34:38
00053 suncat0172 pw.x -in pw.inp   Done                     12/29/2018 23:34:38
00054 suncat0172 pw.x -in pw.inp   Done                     12/29/2018 23:34:38
00055 suncat0172 pw.x -in pw.inp   Done                     12/29/2018 23:34:38
00056 suncat0171 pw.x -in pw.inp   Done                     12/29/2018 23:34:38
00057 suncat0171 pw.x -in pw.inp   Done                     12/29/2018 23:34:38
00058 suncat0171 pw.x -in pw.inp   Done                     12/29/2018 23:34:38
00059 suncat0171 pw.x -in pw.inp   Done                     12/29/2018 23:34:38
00060 suncat0171 pw.x -in pw.inp   Done                     12/29/2018 23:34:38
00061 suncat0171 pw.x -in pw.inp   Done                     12/29/2018 23:34:38
00062 suncat0171 pw.x -in pw.inp   Done                     12/29/2018 23:34:38
00063 suncat0171 pw.x -in pw.inp   Done                     12/29/2018 23:34:38