     Program PWSCF v.5.1rc2 (svn rev. 11289) starts on 26Dec2018 at  9:45:18

     Current dimensions of program PWSCF are:
     Max number of different atomic species (ntypx) = 10
     Max number of k-points (npk) =  40000
     Max angular momentum in pseudopotentials (lmaxx) =  3
     Presently stress not available with electric field

     IMPORTANT: XC functional enforced from input :
     Exchange-correlation      = BEEF-VDW ( 1  4 27 13 2)
     Any further DFT definition will be discarded
     Please, verify this is what you really want

     Subspace diagonalization in iterative solution of the eigenvalue problem:
     a serial algorithm will be used

     bravais-lattice index     =            0
     lattice parameter (alat)  =       1.8897  a.u.
     unit-cell volume          =    5389.9913 (a.u.)^3
     number of atoms/cell      =           12
     number of atomic types    =            2
     number of electrons       =       156.00
     number of Kohn-Sham states=          108
     kinetic-energy cutoff     =      36.7493  Ry
     charge density cutoff     =     367.4932  Ry
     convergence threshold     =      1.0E-06
     mixing beta               =       0.1000
     number of iterations used =           10  plain     mixing
     Exchange-correlation      = BEEF-VDW ( 1  4 27 13 2)
     nstep                     =           50

     celldm(1)=   1.889726  celldm(2)=   0.000000  celldm(3)=   0.000000
     celldm(4)=   0.000000  celldm(5)=   0.000000  celldm(6)=   0.000000

     crystal axes: (cart. coord. in units of alat)
               a(1) = (   6.078309   0.000000   0.000000 )
               a(2) = (  -3.039154   5.263970   0.000000 )
               a(3) = (   0.000000   0.000000  24.962918 )

     reciprocal axes: (cart. coord. in units 2 pi/alat)
               b(1) = (  0.164519  0.094985  0.000000 )
               b(2) = (  0.000000  0.189971  0.000000 )
               b(3) = (  0.000000  0.000000  0.040059 )

     PseudoPot. # 1 for Hg read from file:
     /afs/slac.stanford.edu/u/if/mamunm/psp/gbrv1.5pbe/Hg.UPF
     MD5 check sum: 8f42caffe07f7fd9c0a564347f8c5498
     Pseudo is Ultrasoft + core correction, Zval = 12.0
     Generated by new atomic code, or converted to UPF format
     Using radial grid of  985 points,  6 beta functions with:
                l(1) =   0
                l(2) =   0
                l(3) =   1
                l(4) =   1
                l(5) =   2
                l(6) =   2
     Q(r) pseudized with  8 coefficients,  rinner =    2.000   2.000   2.000
                                                       2.000   2.000

     PseudoPot. # 2 for Os read from file:
     /afs/slac.stanford.edu/u/if/mamunm/psp/gbrv1.5pbe/Os.UPF
     MD5 check sum: a3fb40a04f0c37c25c34bbc47164c9a8
     Pseudo is Ultrasoft + core correction, Zval = 16.0
     Generated by new atomic code, or converted to UPF format
     Using radial grid of  983 points,  8 beta functions with:
                l(1) =   0
                l(2) =   0
                l(3) =   1
                l(4) =   1
                l(5) =   2
                l(6) =   2
                l(7) =   3
                l(8) =   3
     Q(r) pseudized with  8 coefficients,  rinner =    1.150   1.150   1.150
                                                       1.150   1.150   1.150
                                                       1.150

     vdW kernel table read from file vdW_kernel_table
     MD5 check sum: 095c7af220d748ca6e76c0b4c6cfb241

     atomic species   valence    mass     pseudopotential
        Hg1           12.00   200.59200     Hg( 1.00)
        Os1           16.00   190.23000     Os( 1.00)

     No symmetry found

   Cartesian axes

     site n.     atom                  positions (alat units)
         1           Hg1 tau(   1) = (   0.0000000   0.0000000  10.0000000  )
         2           Hg1 tau(   2) = (  -1.5195771   2.6319848  10.0000000  )
         3           Hg1 tau(   3) = (   1.5195771   2.6319848  10.0000000  )
         4           Os1 tau(   4) = (   3.0391543   0.0000000  10.0000000  )
         5           Hg1 tau(   5) = (   3.0391543   1.7546565  12.4814591  )
         6           Hg1 tau(   6) = (   1.5195771   4.3866413  12.4814591  )
         7           Hg1 tau(   7) = (  -1.5195771   4.3866413  12.4814591  )
         8           Os1 tau(   8) = (   0.0000000   1.7546565  12.4814591  )
         9           Hg1 tau(   9) = (  -0.0000000   3.5093131  14.9629181  )
        10           Hg1 tau(  10) = (   1.5195771   0.8773283  14.9629181  )
        11           Hg1 tau(  11) = (   4.5587314   0.8773283  14.9629181  )
        12           Os1 tau(  12) = (   3.0391543   3.5093131  14.9629181  )

     number of k points=    20  Fermi-Dirac smearing, width (Ry)=  0.0110
                       cart. coord. in units 2pi/alat
        k(    1) = (   0.0000000   0.0000000   0.0000000), wk =   0.0555556
        k(    2) = (   0.0000000   0.0316618   0.0000000), wk =   0.1111111
        k(    3) = (   0.0000000   0.0633236   0.0000000), wk =   0.1111111
        k(    4) = (   0.0000000  -0.0949854   0.0000000), wk =   0.0555556
        k(    5) = (   0.0274199   0.0158309   0.0000000), wk =   0.1111111
        k(    6) = (   0.0274199   0.0474927   0.0000000), wk =   0.1111111
        k(    7) = (   0.0274199   0.0791545   0.0000000), wk =   0.1111111
        k(    8) = (   0.0274199  -0.0791545   0.0000000), wk =   0.1111111
        k(    9) = (   0.0274199  -0.0474927   0.0000000), wk =   0.1111111
        k(   10) = (   0.0274199  -0.0158309   0.0000000), wk =   0.1111111
        k(   11) = (   0.0548398   0.0316618   0.0000000), wk =   0.1111111
        k(   12) = (   0.0548398   0.0633236   0.0000000), wk =   0.1111111
        k(   13) = (   0.0548398   0.0949854   0.0000000), wk =   0.1111111
        k(   14) = (   0.0548398  -0.0633236   0.0000000), wk =   0.1111111
        k(   15) = (   0.0548398  -0.0316618   0.0000000), wk =   0.1111111
        k(   16) = (   0.0548398   0.0000000   0.0000000), wk =   0.1111111
        k(   17) = (  -0.0822597  -0.0474927   0.0000000), wk =   0.0555556
        k(   18) = (  -0.0822597  -0.0158309   0.0000000), wk =   0.1111111
        k(   19) = (  -0.0822597   0.0158309   0.0000000), wk =   0.1111111
        k(   20) = (  -0.0822597  -0.1424780   0.0000000), wk =   0.0555556

     Largest allocated arrays     est. size (Mb)     dimensions
     Largest temporary arrays     est. size (Mb)     dimensions

     Initial potential from superposition of free atoms
     Check: negative starting charge=   -0.380137

     starting charge  154.49937, renormalised to  156.00000

     negative rho (up, down):  3.838E-01 0.000E+00

     *
     * You are using vdW-DF for exchange-correlation in this calculation.
     * Please cite the following three references that made this development
     * possible:
     *
     *   M. Dion, H. Rydberg, E. Schroder, D. C. Langreth, and
     *   B. I. Lundqvist, Phys. Rev. Lett. 92, 246401 (2004).
     *
     *   T. Thonhauser, V. R. Cooper, S. Li, A. Puzder, P. Hyldgaard, and
     *   D. C. Langreth, Phys. Rev. B 76, 125112 (2007).
     *
     *   G. Roman-Perez and J. M. Soler, Phys. Rev. Lett. 103, 096102 (2009).
     *
     *
     * If you are using vdW-DF2, please also cite:
     *
     *   K. Lee, E. D. Murray, L. Kong, B. I. Lundqvist, and
     *   D. C. Langreth, Phys. Rev. B 82, 081101(R) (2010).
     *
     *
     * If you are calculating the stress with vdW-DF, please also cite:
     *
     *   R. Sabatini, E. Kucukbenli, B. Kolb, T. Thonhauser, and
     *   S. de Gironcoli, J. Phys.: Condens. Matter 24, 424209 (2012).
     *

     Carrying out vdW-DF run using the following parameters:

     Nqs =      20    Nr_points =    1024   r_max =   100.000
     q_mesh =
               0.00001000     0.04494208     0.09755937     0.15916263
               0.23128650     0.31572767     0.41458969     0.53033537
               0.66584808     0.82450364     1.01025438     1.22772762
               1.48234092     1.78043706     2.12944203     2.53805004
               3.01644009     3.57652955     4.23227104     5.00000000

     Gradients computed in reciprocal space

     Adding external electric field

     Computed dipole along edir(3) :
        Dipole                0.0000 Ry au,          0.0000 Debye
        Dipole field          0.0000 Ry au

        Potential amp.       -0.0000 Ry
        Total length         45.9938 bohr

     Starting wfc are  120 randomized atomic wfcs

     Self-consistent Calculation

     iteration #  1     ecut=    36.75 Ry     beta=0.10
     Davidson diagonalization with overlap
     ethr =  1.00E-02,  avg # of iterations =  8.2

[...]

     total energy              =   -1580.29022544 Ry
     Harris-Foulkes estimate   =   -1581.55883142 Ry
     estimated scf accuracy    <       7.11398477 Ry

[...]

     End of self-consistent calculation

          k = 0.0000 0.0000 0.0000 ( 20239 PWs)   bands (ev):

   -84.5267 -84.5265 -84.4635 -43.8462 -43.8462 -43.8460 -43.8460 -43.8371
   -43.8371 -43.8187 -43.8185 -43.7599  -8.3847  -7.6606  -7.5781  -7.5104
    -7.5101  -7.5032  -7.4120  -7.2695  -7.2453  -7.2452  -7.0726  -7.0724
    -6.9213  -6.9213  -6.8419  -6.6430  -6.5843  -6.5842  -6.4228  -6.2604
    -6.2604  -6.2480  -6.1507  -6.1494  -6.1490  -6.0639  -6.0636  -5.7958
    -5.7957  -5.7113  -5.7112  -5.6166  -5.6166  -5.6023  -5.5775  -5.5366
    -5.5366  -5.5093  -5.5093  -5.2810  -5.2808  -5.1855  -5.1223  -5.0528
    -5.0527  -4.7881  -4.7776  -3.1634  -1.7619  -1.7618  -1.3825  -1.3825
    -1.2176  -0.7323  -0.7323  -0.6351  -0.0609  -0.0608   0.1622   0.5117
     0.5117   0.7434   0.7434   0.7478   0.7739   1.0096   1.0096   1.6845
     1.6845   1.7393   1.7394   1.7939   1.9129   2.9015   2.9015   3.2867
     3.3122   3.3122   4.0487   4.0487   4.1186   4.4317   4.8387   5.1302
     5.5804   6.5324   6.6992   7.5044   7.5044   7.8136   7.8263   7.8263
     8.1669   8.4478   8.7619   9.4300

[...]

          k =-0.0823-0.0475 0.0000 ( 20292 PWs)   bands (ev):

[...]

     the Fermi energy is     0.9578 ev

!    total energy              =   -1580.51309303 Ry
     Harris-Foulkes estimate   =   -1580.51433023 Ry
     estimated scf accuracy    <       0.00000022 Ry

     The total energy is the sum of the following terms:

     one-electron contribution =  -10876.81282327 Ry
     hartree contribution      =    5502.40059267 Ry
     xc contribution           =    -480.03714309 Ry
     ewald contribution        =    4273.99566313 Ry
     electric field correction =       0.00000001 Ry
     smearing contrib. (-TS)   =      -0.05938247 Ry

     convergence has been achieved in  17 iterations

 BEEF-vdW xc energy contributions
           1 :   -420.666464678591
           2 :    387.864846904787
           3 :   -330.494186344699
           4 :    261.789659343075
           5 :   -195.401543243336
           6 :    141.367179857671
           7 :   -103.928741390426
           8 :    81.6408222975072
           9 :   -69.3810216233885
          10 :    61.1991861061189
          11 :   -52.7628010800391
          12 :    42.5063356922132
          13 :   -31.3079327089315
[...]
     /afs/slac.stanford.edu/u/if/mamunm/psp/gbrv1.5pbe/Hg.UPF
     MD5 check sum: 8f42caffe07f7fd9c0a564347f8c5498
     Pseudo is Ultrasoft + core correction, Zval = 12.0
     Generated by new atomic code, or converted to UPF format
     Using radial grid of  985 points,  6 beta functions with:
                l(1) =   0
                l(2) =   0
                l(3) =   1
                l(4) =   1
                l(5) =   2
                l(6) =   2
     Q(r) pseudized with  8 coefficients,  rinner =    2.000   2.000   2.000
                                                       2.000   2.000

     PseudoPot. # 2 for Os read from file:
     /afs/slac.stanford.edu/u/if/mamunm/psp/gbrv1.5pbe/Os.UPF
     MD5 check sum: a3fb40a04f0c37c25c34bbc47164c9a8
     Pseudo is Ultrasoft + core correction, Zval = 16.0
     Generated by new atomic code, or converted to UPF format
     Using radial grid of  983 points,  8 beta functions with:
                l(1) =   0
                l(2) =   0
                l(3) =   1
                l(4) =   1
                l(5) =   2
                l(6) =   2
                l(7) =   3
                l(8) =   3
     Q(r) pseudized with  8 coefficients,  rinner =    1.150   1.150   1.150
                                                       1.150   1.150   1.150
                                                       1.150

     vdW kernel table read from file vdW_kernel_table
     MD5 check sum: 095c7af220d748ca6e76c0b4c6cfb241

     atomic species   valence    mass     pseudopotential
        Hg1           12.00   200.59200     Hg( 1.00)
        Os1           16.00   190.23000     Os( 1.00)

     No symmetry found

   Cartesian axes

     site n.     atom                  positions (alat units)
         1           Hg1 tau(   1) = (   0.0000000   0.0000000  10.0000000  )
         2           Hg1 tau(   2) = (  -1.5195771   2.6319848  10.0000000  )
         3           Hg1 tau(   3) = (   1.5195771   2.6319848  10.0000000  )
         4           Os1 tau(   4) = (   3.0391543   0.0000000  10.0000000  )
         5           Hg1 tau(   5) = (   3.0391543   1.7546565  12.4814591  )
         6           Hg1 tau(   6) = (   1.5195771   4.3866413  12.4814591  )
         7           Hg1 tau(   7) = (  -1.5195771   4.3866413  12.4814591  )
         8           Os1 tau(   8) = (   0.0000000   1.7546565  12.4814591  )
         9           Hg1 tau(   9) = (   0.0000165   3.5006340  15.2437867  )
        10           Hg1 tau(  10) = (   1.5121622   0.8815856  15.2438620  )
        11           Hg1 tau(  11) = (   4.5661707   0.8815897  15.2438477  )
        12           Os1 tau(  12) = (   3.0391666   3.5092810  14.6871800  )

     number of k points=    20  Fermi-Dirac smearing, width (Ry)=  0.0110
                       cart. coord. in units 2pi/alat
        k(    1) = (   0.0000000   0.0000000   0.0000000), wk =   0.0555556
        k(    2) = (   0.0000000   0.0316618   0.0000000), wk =   0.1111111
        k(    3) = (   0.0000000   0.0633236   0.0000000), wk =   0.1111111
        k(    4) = (   0.0000000  -0.0949854   0.0000000), wk =   0.0555556
        k(    5) = (   0.0274199   0.0158309   0.0000000), wk =   0.1111111
        k(    6) = (   0.0274199   0.0474927   0.0000000), wk =   0.1111111
        k(    7) = (   0.0274199   0.0791545   0.0000000), wk =   0.1111111
        k(    8) = (   0.0274199  -0.0791545   0.0000000), wk =   0.1111111
        k(    9) = (   0.0274199  -0.0474927   0.0000000), wk =   0.1111111
        k(   10) = (   0.0274199  -0.0158309   0.0000000), wk =   0.1111111
        k(   11) = (   0.0548398   0.0316618   0.0000000), wk =   0.1111111
        k(   12) = (   0.0548398   0.0633236   0.0000000), wk =   0.1111111
        k(   13) = (   0.0548398   0.0949854   0.0000000), wk =   0.1111111
        k(   14) = (   0.0548398  -0.0633236   0.0000000), wk =   0.1111111
        k(   15) = (   0.0548398  -0.0316618   0.0000000), wk =   0.1111111
        k(   16) = (   0.0548398   0.0000000   0.0000000), wk =   0.1111111
        k(   17) = (  -0.0822597  -0.0474927   0.0000000), wk =   0.0555556
        k(   18) = (  -0.0822597  -0.0158309   0.0000000), wk =   0.1111111
        k(   19) = (  -0.0822597   0.0158309   0.0000000), wk =   0.1111111
        k(   20) = (  -0.0822597  -0.1424780   0.0000000), wk =   0.0555556

     Largest allocated arrays     est. size (Mb)     dimensions
     Largest temporary arrays     est. size (Mb)     dimensions

     Initial potential from superposition of free atoms
     Check: negative starting charge=   -0.379686

     starting charge  154.49937, renormalised to  156.00000

[...]

     *
     * You are using vdW-DF for exchange-correlation in this calculation.
     * Please cite the following three references that made this development
     * possible:
     *
     *   M. Dion, H. Rydberg, E. Schroder, D. C. Langreth, and
     *   B. I. Lundqvist, Phys. Rev. Lett. 92, 246401 (2004).
     *
     *   T. Thonhauser, V. R. Cooper, S. Li, A. Puzder, P. Hyldgaard, and
     *   D. C. Langreth, Phys. Rev. B 76, 125112 (2007).
     *
     *   G. Roman-Perez and J. M. Soler, Phys. Rev. Lett. 103, 096102 (2009).
     *
     *
     * If you are using vdW-DF2, please also cite:
     *
     *   K. Lee, E. D. Murray, L. Kong, B. I. Lundqvist, and
     *   D. C. Langreth, Phys. Rev. B 82, 081101(R) (2010).
     *
     *
     * If you are calculating the stress with vdW-DF, please also cite:
     *
     *   R. Sabatini, E. Kucukbenli, B. Kolb, T. Thonhauser, and
     *   S. de Gironcoli, J. Phys.: Condens. Matter 24, 424209 (2012).
     *

     Carrying out vdW-DF run using the following parameters:

     Nqs =      20    Nr_points =    1024   r_max =   100.000
     q_mesh =
               0.00001000     0.04494208     0.09755937     0.15916263
               0.23128650     0.31572767     0.41458969     0.53033537
               0.66584808     0.82450364     1.01025438     1.22772762
               1.48234092     1.78043706     2.12944203     2.53805004
               3.01644009     3.57652955     4.23227104     5.00000000

     Gradients computed in reciprocal space

[...]

     Starting wfc are  120 randomized atomic wfcs

     Self-consistent Calculation

[...]

     total energy              =   -1580.56347699 Ry
     Harris-Foulkes estimate   =   -1580.56347523 Ry
     estimated scf accuracy    <       0.00000286 Ry

     iteration # 16     ecut=    36.75 Ry     beta=0.10
     Davidson diagonalization with overlap
     ethr =  1.84E-09,  avg # of iterations =  2.0

[...]

     negative rho (up, down):  3.468E-01 0.000E+00

     Adding external electric field

     Computed dipole along edir(3) :
        Dipole                0.0105 Ry au,          0.0267 Debye
        Dipole field          0.0000 Ry au

        Potential amp.       -0.0023 Ry
        Total length         45.9938 bohr

     End of self-consistent calculation

[...]

          k = 0.0548 0.0000 0.0000 ( 20299 PWs)   bands (ev):

[...]

          k =-0.0823-0.1425 0.0000 ( 20292 PWs)   bands (ev):

   -84.5924 -84.4487 -84.3943 -43.9055 -43.9049 -43.9048 -43.7704 -43.7703
   -43.7684 -43.7681 -43.7413 -43.6636  -7.4129  -7.1311  -7.0451  -6.9119
    -6.8326  -6.8294  -6.7396  -6.7028  -6.6967  -6.6853  -6.6334  -6.5803
    -6.5261  -6.3762  -6.3524  -6.3225  -6.2869  -6.2123  -6.2035  -6.1060
    -6.0568  -6.0362  -5.9552  -5.9441  -5.9233  -5.8974  -5.8882  -5.8816
    -5.8449  -5.8275  -5.7675  -5.7541  -5.7434  -5.7404  -5.6909  -5.6790
    -5.6385  -5.5349  -5.5316  -5.4987  -5.4133  -5.3759  -5.3571  -5.3168
    -5.2335  -5.0425  -4.9410  -4.3955  -3.9324  -3.1201  -2.1242  -2.1186
    -1.6785  -1.1532  -1.0637  -0.3844  -0.3362  -0.2389  -0.0527  -0.0217
     0.0588   0.0761   0.3496   0.4683   0.7526   0.9561   1.1499   1.1991
     1.7482   2.0206   2.3373   2.9275   3.0521   3.4321   4.6728   5.0503
     5.1502   5.2174   5.3368   5.4454   5.9870   6.0899   6.2922   6.3993
     6.5504   6.6723   6.8318   6.8533   7.5952   7.6514   7.6835   7.7450
     7.7902   7.8546   8.1809   8.3038

     the Fermi energy is     1.0134 ev

!    total energy              =   -1580.56347970 Ry
     Harris-Foulkes estimate   =   -1580.56347754 Ry
     estimated scf accuracy    <       0.00000092 Ry

     The total energy is the sum of the following terms:

     one-electron contribution =  -10692.53593218 Ry
     hartree contribution      =    5410.82839366 Ry
     xc contribution           =    -479.94891595 Ry
     ewald contribution        =    4181.15028924 Ry
     electric field correction =       0.00000026 Ry
     smearing contrib. (-TS)   =      -0.05731472 Ry

     convergence has been achieved in  16 iterations

 BEEF-vdW xc energy contributions
           1 :   -420.743215475590
           2 :    387.843421892813
           3 :   -330.358761538741
           4 :    261.625126611718
           5 :   -195.337076143123
           6 :    141.488107224479
           7 :   -104.215465456015
           8 :    81.9734140505417
           9 :   -69.6081558055085
          10 :    61.2307690416084
          11 :   -52.6297177290340
          12 :    42.3488047646451
          13 :   -31.2963354261883
          14 :    21.4153304341954
          15 :   -14.2565265303661
          16 :    10.1446799144995
          17 :   -8.19829847671178
          18 :    6.99458952159580
          19 :   -5.40410052294442
          20 :    3.11534014927724
          21 :  -0.612109024291385
          22 :   -1.30310170472916
          23 :    2.10029776302957
          24 :   -1.87077575550404
          25 :    1.25720400677892
          26 :   -1.05031247829504
          27 :    1.71546281033790
          28 :   -3.13084483801214
          29 :    4.67608933159107
          30 :   -5.60452322080471
          31 :   -39.2722883581323
          32 :   -29.1513455029237

     Forces acting on atoms (Ry/au):

     negative rho (up, down):  3.468E-01 0.000E+00
     atom    1 type  1   force =     0.00000000    0.00878365   -0.03133746
     atom    2 type  1   force =     0.00760389   -0.00439259   -0.03133861
     atom    3 type  1   force =    -0.00760313   -0.00439167   -0.03133800
     atom    4 type  2   force =     0.00000087   -0.00000204    0.06948285
     atom    5 type  1   force =    -0.00000106   -0.02072831    0.00666800
     atom    6 type  1   force =    -0.01794660    0.01036248    0.00667073
     atom    7 type  1   force =     0.01794813    0.01036508    0.00667254
     atom    8 type  2   force =    -0.00000118    0.00000256    0.00504156
     atom    9 type  1   force =    -0.00000019   -0.00184718    0.00015213
     atom   10 type  1   force =    -0.00160601    0.00092185    0.00015395
     atom   11 type  1   force =     0.00160852    0.00092269    0.00015345
     atom   12 type  2   force =    -0.00000324    0.00000349   -0.00098115

     Total force =     0.097285     Total SCF correction =     0.004438

     entering subroutine stress ...

     negative rho (up, down):  3.468E-01 0.000E+00
          total   stress  (Ry/bohr**3)                   (kbar)     P=   -8.65
  -0.00009891   0.00000000   0.00000000        -14.55      0.00      0.00
   0.00000000  -0.00009891   0.00000000          0.00    -14.55      0.00
   0.00000000   0.00000000   0.00002149          0.00      0.00      3.16

 !ASE

     Writing output data file calc.save

     General routines

     Parallel routines

   This run was terminated on:  11:48:52  26Dec2018

   JOB DONE.
Job  /afs/slac/g/suncat/bin/suncat-tsmpirun -x LD_LIBRARY_PATH -wdir /scratch/qe109818_0gCw6 pw.x -in pw.inp

TID   HOST_NAME   COMMAND_LINE            STATUS            TERMINATION_TIME
00000 suncat0025 pw.x -in pw.inp   Done                     12/26/2018 11:48:52
00001 suncat0025 pw.x -in pw.inp   Done                     12/26/2018 11:48:52
00002 suncat0025 pw.x -in pw.inp   Done                     12/26/2018 11:48:52
00003 suncat0025 pw.x -in pw.inp   Done                     12/26/2018 11:48:52
00004 suncat0025 pw.x -in pw.inp   Done                     12/26/2018 11:48:52
00005 suncat0025 pw.x -in pw.inp   Done                     12/26/2018 11:48:52
00006 suncat0025 pw.x -in pw.inp   Done                     12/26/2018 11:48:52
00007 suncat0025 pw.x -in pw.inp   Done                     12/26/2018 11:48:52
00008 suncat0013 pw.x -in pw.inp   Done                     12/26/2018 11:48:52
00009 suncat0013 pw.x -in pw.inp   Done                     12/26/2018 11:48:52
00010 suncat0013 pw.x -in pw.inp   Done                     12/26/2018 11:48:52
00011 suncat0013 pw.x -in pw.inp   Done                     12/26/2018 11:48:52
00012 suncat0013 pw.x -in pw.inp   Done                     12/26/2018 11:48:52
00013 suncat0013 pw.x -in pw.inp   Done                     12/26/2018 11:48:52
00014 suncat0013 pw.x -in pw.inp   Done                     12/26/2018 11:48:52
00015 suncat0013 pw.x -in pw.inp   Done                     12/26/2018 11:48:52
00016 suncat0008 pw.x -in pw.inp   Done                     12/26/2018 11:48:52
00017 suncat0008 pw.x -in pw.inp   Done                     12/26/2018 11:48:52
00018 suncat0008 pw.x -in pw.inp   Done                     12/26/2018 11:48:52
00019 suncat0008 pw.x -in pw.inp   Done                     12/26/2018 11:48:52
00020 suncat0008 pw.x -in pw.inp   Done                     12/26/2018 11:48:52
00021 suncat0008 pw.x -in pw.inp   Done                     12/26/2018 11:48:52
00022 suncat0008 pw.x -in pw.inp   Done                     12/26/2018 11:48:52
00023 suncat0008 pw.x -in pw.inp   Done                     12/26/2018 11:48:52
00024 suncat0001 pw.x -in pw.inp   Done                     12/26/2018 11:48:52
00025 suncat0001 pw.x -in pw.inp   Done                     12/26/2018 11:48:52
00026 suncat0001 pw.x -in pw.inp   Done                     12/26/2018 11:48:52
00027 suncat0001 pw.x -in pw.inp   Done                     12/26/2018 11:48:52
00028 suncat0001 pw.x -in pw.inp   Done                     12/26/2018 11:48:52
00029 suncat0001 pw.x -in pw.inp   Done                     12/26/2018 11:48:52
00030 suncat0001 pw.x -in pw.inp   Done                     12/26/2018 11:48:52
00031 suncat0001 pw.x -in pw.inp   Done                     12/26/2018 11:48:52
00032 suncat0184 pw.x -in pw.inp   Done                     12/26/2018 11:48:52
00033 suncat0184 pw.x -in pw.inp   Done                     12/26/2018 11:48:52
00034 suncat0184 pw.x -in pw.inp   Done                     12/26/2018 11:48:52
00035 suncat0184 pw.x -in pw.inp   Done                     12/26/2018 11:48:52
00036 suncat0184 pw.x -in pw.inp   Done                     12/26/2018 11:48:52
00037 suncat0184 pw.x -in pw.inp   Done                     12/26/2018 11:48:52
00038 suncat0184 pw.x -in pw.inp   Done                     12/26/2018 11:48:52
00039 suncat0184 pw.x -in pw.inp   Done                     12/26/2018 11:48:52
00040 suncat0142 pw.x -in pw.inp   Done                     12/26/2018 11:48:52
00041 suncat0142 pw.x -in pw.inp   Done                     12/26/2018 11:48:52
00042 suncat0142 pw.x -in pw.inp   Done                     12/26/2018 11:48:52
00043 suncat0142 pw.x -in pw.inp   Done                     12/26/2018 11:48:52
00044 suncat0142 pw.x -in pw.inp   Done                     12/26/2018 11:48:52
00045 suncat0142 pw.x -in pw.inp   Done                     12/26/2018 11:48:52
00046 suncat0142 pw.x -in pw.inp   Done                     12/26/2018 11:48:52
00047 suncat0142 pw.x -in pw.inp   Done                     12/26/2018 11:48:52
00048 suncat0117 pw.x -in pw.inp   Done                     12/26/2018 11:48:52
00049 suncat0117 pw.x -in pw.inp   Done                     12/26/2018 11:48:52
00050 suncat0117 pw.x -in pw.inp   Done                     12/26/2018 11:48:52
00051 suncat0117 pw.x -in pw.inp   Done                     12/26/2018 11:48:52
00052 suncat0117 pw.x -in pw.inp   Done                     12/26/2018 11:48:52
00053 suncat0117 pw.x -in pw.inp   Done                     12/26/2018 11:48:52
00054 suncat0117 pw.x -in pw.inp   Done                     12/26/2018 11:48:52
00055 suncat0117 pw.x -in pw.inp   Done                     12/26/2018 11:48:52
00056 suncat0116 pw.x -in pw.inp   Done                     12/26/2018 11:48:52
00057 suncat0116 pw.x -in pw.inp   Done                     12/26/2018 11:48:52
00058 suncat0116 pw.x -in pw.inp   Done                     12/26/2018 11:48:52
00059 suncat0116 pw.x -in pw.inp   Done                     12/26/2018 11:48:52
00060 suncat0116 pw.x -in pw.inp   Done                     12/26/2018 11:48:52
00061 suncat0116 pw.x -in pw.inp   Done                     12/26/2018 11:48:52
00062 suncat0116 pw.x -in pw.inp   Done                     12/26/2018 11:48:52
00063 suncat0116 pw.x -in pw.inp   Done                     12/26/2018 11:48:52