     Program PWSCF v.5.1rc2 (svn rev. 11289) starts on 26Dec2018 at 16:52:27

     Current dimensions of program PWSCF are:
     Max number of different atomic species (ntypx) = 10
     Max number of k-points (npk) =  40000
     Max angular momentum in pseudopotentials (lmaxx) =  3
     Presently stress not available with electric field

     IMPORTANT: XC functional enforced from input :
     Exchange-correlation      = BEEF-VDW ( 1  4 27 13 2)
     Any further DFT definition will be discarded
     Please, verify this is what you really want

     Subspace diagonalization in iterative solution of the eigenvalue problem:
     a serial algorithm will be used

     bravais-lattice index     =            0
     lattice parameter (alat)  =       1.8897  a.u.
     unit-cell volume          =    7144.2676 (a.u.)^3
     number of atoms/cell      =           12
     number of atomic types    =            2
     number of electrons       =       141.00
     number of Kohn-Sham states=          100
     kinetic-energy cutoff     =      36.7493  Ry
     charge density cutoff     =     367.4932  Ry
     convergence threshold     =      1.0E-06
     mixing beta               =       0.1000
     number of iterations used =           10  plain     mixing
     Exchange-correlation      = BEEF-VDW ( 1  4 27 13 2)
     nstep                     =           50

     celldm(1)=   1.889726  celldm(2)=   0.000000  celldm(3)=   0.000000
     celldm(4)=   0.000000  celldm(5)=   0.000000  celldm(6)=   0.000000

     crystal axes: (cart. coord. in units of alat)
               a(1) = (   6.905147   0.000000   0.000000 )
               a(2) = (  -3.452573   5.980033   0.000000 )
               a(3) = (   0.000000   0.000000  25.638029 )

     reciprocal axes: (cart. coord. in units 2 pi/alat)
               b(1) = (  0.144820  0.083612  0.000000 )
               b(2) = (  0.000000  0.167223  0.000000 )
               b(3) = (  0.000000  0.000000  0.039005 )

     PseudoPot. # 1 for La read from file:
     /afs/slac.stanford.edu/u/if/mamunm/psp/gbrv1.5pbe/La.UPF
     MD5 check sum: 5937b0c7494ba0601a847275249473aa
     Pseudo is Ultrasoft + core correction, Zval = 11.0
     Generated by new atomic code, or converted to UPF format
     Using radial grid of  995 points,  8 beta functions with:
                l(1) =   0
                l(2) =   0
                l(3) =   1
                l(4) =   1
                l(5) =   2
                l(6) =   2
                l(7) =   3
                l(8) =   3
     Q(r) pseudized with  8 coefficients,  rinner =    1.700   1.700   1.700
                                                       1.700   1.700   1.700
                                                       1.700

     PseudoPot. # 2 for Mo read from file:
     /afs/slac.stanford.edu/u/if/mamunm/psp/gbrv1.5pbe/Mo.UPF
     MD5 check sum: 30c4dcd161f5d35cd49bb5239c51a633
     Pseudo is Ultrasoft + core correction, Zval = 14.0
     Generated by new atomic code, or converted to UPF format
     Using radial grid of  889 points,  6 beta functions with:
                l(1) =   0
                l(2) =   0
                l(3) =   1
                l(4) =   1
                l(5) =   2
                l(6) =   2
     Q(r) pseudized with  6 coefficients,  rinner =    1.000   1.000   1.000
                                                       1.000   1.000

     vdW kernel table read from file vdW_kernel_table
     MD5 check sum: 095c7af220d748ca6e76c0b4c6cfb241

     atomic species   valence    mass     pseudopotential
        La1           11.00   138.90547     La( 1.00)
        Mo1           14.00    95.95000     Mo( 1.00)

     No symmetry found

   Cartesian axes

     site n.     atom                  positions (alat units)
         1           La1 tau(   1) = (   0.0000000   0.0000000  10.0000000  )
         2           La1 tau(   2) = (  -1.7262867   2.9900163  10.0000000  )
         3           La1 tau(   3) = (   1.7262867   2.9900163  10.0000000  )
         4           Mo1 tau(   4) = (   3.4525735   0.0000000  10.0000000  )
         5           La1 tau(   5) = (   3.4525735   1.9933442  12.8190144  )
         6           La1 tau(   6) = (   1.7262867   4.9833606  12.8190144  )
         7           La1 tau(   7) = (  -1.7262867   4.9833606  12.8190144  )
         8           Mo1 tau(   8) = (   0.0000000   1.9933442  12.8190144  )
         9           La1 tau(   9) = (  -0.0000000   3.9866884  15.6380289  )
        10           La1 tau(  10) = (   1.7262867   0.9966721  15.6380289  )
        11           La1 tau(  11) = (   5.1788602   0.9966721  15.6380289  )
        12           Mo1 tau(  12) = (   3.4525735   3.9866884  15.6380289  )

     number of k points=    20  Fermi-Dirac smearing, width (Ry)=  0.0110
                       cart. coord. in units 2pi/alat
        k(    1) = (   0.0000000   0.0000000   0.0000000), wk =   0.0555556
        k(    2) = (   0.0000000   0.0278705   0.0000000), wk =   0.1111111
        k(    3) = (   0.0000000   0.0557411   0.0000000), wk =   0.1111111
        k(    4) = (   0.0000000  -0.0836116   0.0000000), wk =   0.0555556
        k(    5) = (   0.0241366   0.0139353   0.0000000), wk =   0.1111111
        k(    6) = (   0.0241366   0.0418058   0.0000000), wk =   0.1111111
        k(    7) = (   0.0241366   0.0696763   0.0000000), wk =   0.1111111
        k(    8) = (   0.0241366  -0.0696763   0.0000000), wk =   0.1111111
        k(    9) = (   0.0241366  -0.0418058   0.0000000), wk =   0.1111111
        k(   10) = (   0.0241366  -0.0139353   0.0000000), wk =   0.1111111
        k(   11) = (   0.0482732   0.0278705   0.0000000), wk =   0.1111111
        k(   12) = (   0.0482732   0.0557411   0.0000000), wk =   0.1111111
        k(   13) = (   0.0482732   0.0836116   0.0000000), wk =   0.1111111
        k(   14) = (   0.0482732  -0.0557411   0.0000000), wk =   0.1111111
        k(   15) = (   0.0482732  -0.0278705   0.0000000), wk =   0.1111111
        k(   16) = (   0.0482732   0.0000000   0.0000000), wk =   0.1111111
        k(   17) = (  -0.0724098  -0.0418058   0.0000000), wk =   0.0555556
        k(   18) = (  -0.0724098  -0.0139353   0.0000000), wk =   0.1111111
        k(   19) = (  -0.0724098   0.0139353   0.0000000), wk =   0.1111111
        k(   20) = (  -0.0724098  -0.1254174   0.0000000), wk =   0.0555556

     Largest allocated arrays     est. size (Mb)     dimensions
     Largest temporary arrays     est. size (Mb)     dimensions

     Initial potential from superposition of free atoms
     Check: negative starting charge=   -0.623374

     starting charge  140.70819, renormalised to  141.00000

     negative rho (up, down):  6.247E-01 0.000E+00

     *
     * You are using vdW-DF for exchange-correlation in this calculation.
     * Please cite the following three references that made this development
     * possible:
     *
     *   M. Dion, H. Rydberg, E. Schroder, D. C. Langreth, and
     *   B. I. Lundqvist, Phys. Rev. Lett. 92, 246401 (2004).
     *
     *   T. Thonhauser, V. R. Cooper, S. Li, A. Puzder, P. Hyldgaard, and
     *   D. C. Langreth, Phys. Rev. B 76, 125112 (2007).
     *
     *   G. Roman-Perez and J. M. Soler, Phys. Rev. Lett. 103, 096102 (2009).
     *
     *
     * If you are using vdW-DF2, please also cite:
     *
     *   K. Lee, E. D. Murray, L. Kong, B. I. Lundqvist, and
     *   D. C. Langreth, Phys. Rev. B 82, 081101(R) (2010).
     *
     *
     * If you are calculating the stress with vdW-DF, please also cite:
     *
     *   R. Sabatini, E. Kucukbenli, B. Kolb, T. Thonhauser, and
     *   S. de Gironcoli, J. Phys.: Condens. Matter 24, 424209 (2012).
     *

     Carrying out vdW-DF run using the following parameters:

     Nqs =      20    Nr_points =    1024   r_max =   100.000
     q_mesh =
               0.00001000     0.04494208     0.09755937     0.15916263
               0.23128650     0.31572767     0.41458969     0.53033537
               0.66584808     0.82450364     1.01025438     1.22772762
               1.48234092     1.78043706     2.12944203     2.53805004
               3.01644009     3.57652955     4.23227104     5.00000000

     Gradients computed in reciprocal space

     Adding external electric field

     Computed dipole along edir(3) :
        Dipole               -0.0000 Ry au,         -0.0000 Debye
        Dipole field         -0.0000 Ry au

        Potential amp.        0.0000 Ry
        Total length         47.2376 bohr

     Starting wfc are  219 randomized atomic wfcs

     Self-consistent Calculation

     iteration #  1     ecut=    36.75 Ry     beta=0.10
     Davidson diagonalization with overlap
     ethr =  1.00E-02,  avg # of iterations =  1.8

[...]

     total energy              =   -1354.75285004 Ry
     Harris-Foulkes estimate   =   -1356.55201078 Ry
     estimated scf accuracy    <       9.92125961 Ry

[...]

     iteration #  8     ecut=    36.75 Ry     beta=0.10
     Davidson diagonalization with overlap
     c_bands:  1 eigenvalues not converged
     ethr =  3.30E-05,  avg # of iterations = 13.5

[...]

     End of self-consistent calculation

          k = 0.0000 0.0000 0.0000 ( 27009 PWs)   bands (ev):

   -58.5218 -58.4490 -58.4490 -32.5465 -32.5465 -32.5371 -32.5094 -32.5082
   -32.4748 -32.4748 -32.4745 -32.4745 -31.0077 -30.9810 -30.7571 -30.7570
   -30.7507 -30.7506 -30.5255 -30.3106 -30.3106 -15.7308 -15.5807 -15.2632
   -15.0562 -15.0562 -14.8987 -14.8821 -14.8821 -14.8772 -14.8772 -14.6904
   -14.4286 -14.4286 -14.1420 -14.1419 -14.0233 -13.9395 -13.8064 -13.7983
   -13.7982 -13.7686 -13.7686 -13.6955 -13.6955 -13.4711 -13.3535 -13.3535
    -1.1320  -0.5411  -0.3686  -0.2970   0.1735   0.1735   0.3880   0.3920
     0.5543   0.5596   0.5596   0.6646   0.6647   0.7104   0.7104   1.2943
     1.5191   1.5191   1.9437   2.0061   2.0061   2.1238   2.3442   2.7410
     2.7501   2.9587   2.9587   3.1339   3.1339   3.2116   3.2116   3.3656
     3.3656   3.5277   3.5400   3.5400   3.5694   3.6427   3.7025   3.7316
     3.7316   3.7397   3.7739   3.7739   3.7784   3.8691   3.8692   3.8961
     3.9493   3.9778   3.9783   3.9828

[...]

          k =-0.0724-0.0418 0.0000 ( 26846 PWs)   bands (ev):

[...]

     the Fermi energy is     2.1570 ev

!    total energy              =   -1355.61998641 Ry
     Harris-Foulkes estimate   =   -1355.61998703 Ry
     estimated scf accuracy    <       0.00000055 Ry

     The total energy is the sum of the following terms:

     one-electron contribution =   -6522.23172882 Ry
     hartree contribution      =    3270.47996538 Ry
     xc contribution           =    -516.98907171 Ry
     ewald contribution        =    2413.24334074 Ry
     electric field correction =       0.00000000 Ry
     smearing contrib. (-TS)   =      -0.12249201 Ry

     convergence has been achieved in  21 iterations

 BEEF-vdW xc energy contributions
           1 :   -456.592427544923
           2 :    419.838764635518
           3 :   -354.898565079462
           4 :    275.832617620030
           5 :   -197.685489593706
           6 :    132.338874016684
           7 :   -86.0921523523215
           8 :    59.3384352184784
           9 :   -47.9714305074612
[...]
     Generated by new atomic code, or converted to UPF format
     Using radial grid of  995 points,  8 beta functions with:
                l(1) =   0
                l(2) =   0
                l(3) =   1
                l(4) =   1
                l(5) =   2
                l(6) =   2
                l(7) =   3
                l(8) =   3
     Q(r) pseudized with  8 coefficients,  rinner =    1.700   1.700   1.700
                                                       1.700   1.700   1.700
                                                       1.700

     PseudoPot. # 2 for Mo read from file:
     /afs/slac.stanford.edu/u/if/mamunm/psp/gbrv1.5pbe/Mo.UPF
     MD5 check sum: 30c4dcd161f5d35cd49bb5239c51a633
     Pseudo is Ultrasoft + core correction, Zval = 14.0
     Generated by new atomic code, or converted to UPF format
     Using radial grid of  889 points,  6 beta functions with:
                l(1) =   0
                l(2) =   0
                l(3) =   1
                l(4) =   1
                l(5) =   2
                l(6) =   2
     Q(r) pseudized with  6 coefficients,  rinner =    1.000   1.000   1.000
                                                       1.000   1.000

     vdW kernel table read from file vdW_kernel_table
     MD5 check sum: 095c7af220d748ca6e76c0b4c6cfb241

     atomic species   valence    mass     pseudopotential
        La1           11.00   138.90547     La( 1.00)
        Mo1           14.00    95.95000     Mo( 1.00)

     No symmetry found

   Cartesian axes

     site n.     atom                  positions (alat units)
         1           La1 tau(   1) = (   0.0000000   0.0000000  10.0000000  )
         2           La1 tau(   2) = (  -1.7262867   2.9900163  10.0000000  )
         3           La1 tau(   3) = (   1.7262867   2.9900163  10.0000000  )
         4           Mo1 tau(   4) = (   3.4525735   0.0000000  10.0000000  )
         5           La1 tau(   5) = (   3.4525735   1.9933442  12.8190144  )
         6           La1 tau(   6) = (   1.7262867   4.9833606  12.8190144  )
         7           La1 tau(   7) = (  -1.7262867   4.9833606  12.8190144  )
         8           Mo1 tau(   8) = (   0.0000000   1.9933442  12.8190144  )
         9           La1 tau(   9) = (   0.0000369   3.8844554  15.6422375  )
        10           La1 tau(  10) = (   1.6377456   1.0478059  15.6422452  )
        11           La1 tau(  11) = (   5.2674117   1.0477778  15.6422645  )
        12           Mo1 tau(  12) = (   3.4525867   3.9866871  15.1610414  )

     number of k points=    20  Fermi-Dirac smearing, width (Ry)=  0.0110
                       cart. coord. in units 2pi/alat
        k(    1) = (   0.0000000   0.0000000   0.0000000), wk =   0.0555556
        k(    2) = (   0.0000000   0.0278705   0.0000000), wk =   0.1111111
        k(    3) = (   0.0000000   0.0557411   0.0000000), wk =   0.1111111
        k(    4) = (   0.0000000  -0.0836116   0.0000000), wk =   0.0555556
        k(    5) = (   0.0241366   0.0139353   0.0000000), wk =   0.1111111
        k(    6) = (   0.0241366   0.0418058   0.0000000), wk =   0.1111111
        k(    7) = (   0.0241366   0.0696763   0.0000000), wk =   0.1111111
        k(    8) = (   0.0241366  -0.0696763   0.0000000), wk =   0.1111111
        k(    9) = (   0.0241366  -0.0418058   0.0000000), wk =   0.1111111
        k(   10) = (   0.0241366  -0.0139353   0.0000000), wk =   0.1111111
        k(   11) = (   0.0482732   0.0278705   0.0000000), wk =   0.1111111
        k(   12) = (   0.0482732   0.0557411   0.0000000), wk =   0.1111111
        k(   13) = (   0.0482732   0.0836116   0.0000000), wk =   0.1111111
        k(   14) = (   0.0482732  -0.0557411   0.0000000), wk =   0.1111111
        k(   15) = (   0.0482732  -0.0278705   0.0000000), wk =   0.1111111
        k(   16) = (   0.0482732   0.0000000   0.0000000), wk =   0.1111111
        k(   17) = (  -0.0724098  -0.0418058   0.0000000), wk =   0.0555556
        k(   18) = (  -0.0724098  -0.0139353   0.0000000), wk =   0.1111111
        k(   19) = (  -0.0724098   0.0139353   0.0000000), wk =   0.1111111
        k(   20) = (  -0.0724098  -0.1254174   0.0000000), wk =   0.0555556

     Largest allocated arrays     est. size (Mb)     dimensions
     Largest temporary arrays     est. size (Mb)     dimensions

     Initial potential from superposition of free atoms
     Check: negative starting charge=   -0.621102

     starting charge  140.70819, renormalised to  141.00000

[...]

     *
     * You are using vdW-DF for exchange-correlation in this calculation.
     * Please cite the following three references that made this development
     * possible:
     *
     *   M. Dion, H. Rydberg, E. Schroder, D. C. Langreth, and
     *   B. I. Lundqvist, Phys. Rev. Lett. 92, 246401 (2004).
     *
     *   T. Thonhauser, V. R. Cooper, S. Li, A. Puzder, P. Hyldgaard, and
     *   D. C. Langreth, Phys. Rev. B 76, 125112 (2007).
     *
     *   G. Roman-Perez and J. M. Soler, Phys. Rev. Lett. 103, 096102 (2009).
     *
     *
     * If you are using vdW-DF2, please also cite:
     *
     *   K. Lee, E. D. Murray, L. Kong, B. I. Lundqvist, and
     *   D. C. Langreth, Phys. Rev. B 82, 081101(R) (2010).
     *
     *
     * If you are calculating the stress with vdW-DF, please also cite:
     *
     *   R. Sabatini, E. Kucukbenli, B. Kolb, T. Thonhauser, and
     *   S. de Gironcoli, J. Phys.: Condens. Matter 24, 424209 (2012).
     *

     Carrying out vdW-DF run using the following parameters:

     Nqs =      20    Nr_points =    1024   r_max =   100.000
     q_mesh =
               0.00001000     0.04494208     0.09755937     0.15916263
               0.23128650     0.31572767     0.41458969     0.53033537
               0.66584808     0.82450364     1.01025438     1.22772762
               1.48234092     1.78043706     2.12944203     2.53805004
               3.01644009     3.57652955     4.23227104     5.00000000

     Gradients computed in reciprocal space

[...]

     Starting wfc are  219 randomized atomic wfcs

     Self-consistent Calculation

[...]

     iteration # 12     ecut=    36.75 Ry     beta=0.10
     Davidson diagonalization with overlap
     c_bands:  1 eigenvalues not converged
     ethr =  2.90E-06,  avg # of iterations =  2.2

[...]

     total energy              =   -1355.65021193 Ry
     Harris-Foulkes estimate   =   -1355.65021166 Ry
     estimated scf accuracy    <       0.00000161 Ry

     iteration # 21     ecut=    36.75 Ry     beta=0.10
     Davidson diagonalization with overlap
     ethr =  1.14E-09,  avg # of iterations =  3.1

[...]

     negative rho (up, down):  3.843E-01 0.000E+00

     Adding external electric field

     Computed dipole along edir(3) :
        Dipole                0.1073 Ry au,          0.2726 Debye
        Dipole field          0.0002 Ry au

        Potential amp.       -0.0178 Ry
        Total length         47.2376 bohr

     End of self-consistent calculation

[...]

          k = 0.0483 0.0000 0.0000 ( 26893 PWs)   bands (ev):

[...]

          k =-0.0724-0.1254 0.0000 ( 26846 PWs)   bands (ev):

   -58.4472 -58.3863 -58.2883 -32.4740 -32.4730 -32.4717 -32.4488 -32.4149
   -32.4132 -32.3589 -32.3573 -32.3374 -30.9210 -30.8461 -30.7815 -30.7685
   -30.7142 -30.6882 -30.2645 -30.1978 -30.1211 -15.3304 -15.2016 -15.0333
   -14.8441 -14.7880 -14.6860 -14.6742 -14.6105 -14.5409 -14.5252 -14.5220
   -14.4485 -14.4200 -14.4176 -14.3345 -14.3001 -14.2462 -13.9923 -13.8366
   -13.8255 -13.7596 -13.7412 -13.6538 -13.6327 -13.5927 -13.5394 -13.2322
     0.1114   0.1751   0.6622   0.6898   0.8387   0.9089   0.9465   0.9936
     1.1332   1.1354   1.2275   1.4071   1.4476   1.5167   1.5290   1.6351
     1.6608   1.8319   1.9467   1.9705   1.9912   2.0653   2.1798   2.1798
     2.2135   2.4356   2.5259   2.6559   2.7086   2.7870   2.9132   2.9702
     3.0773   3.0849   3.1430   3.2199   3.2864   3.3826   3.4837   3.5032
     3.5376   3.6345   3.7094   3.7174   3.8448   3.8511   3.8742   3.8744
     3.9330   3.9417   3.9722   3.9852

     the Fermi energy is     2.2216 ev

!    total energy              =   -1355.65021195 Ry
     Harris-Foulkes estimate   =   -1355.65021222 Ry
     estimated scf accuracy    <       0.00000067 Ry

     The total energy is the sum of the following terms:

     one-electron contribution =   -6651.23301500 Ry
     hartree contribution      =    3335.45317027 Ry
     xc contribution           =    -517.15242524 Ry
     ewald contribution        =    2477.40080422 Ry
     electric field correction =       0.00002024 Ry
     smearing contrib. (-TS)   =      -0.11876644 Ry

     convergence has been achieved in  21 iterations

 BEEF-vdW xc energy contributions
           1 :   -456.758470928178
           2 :    420.060776068231
           3 :   -355.189426928054
           4 :    276.143950487674
           5 :   -197.924245358891
           6 :    132.415109207483
           7 :   -85.9744288291119
           8 :    59.0817512951061
           9 :   -47.6941344117521
          10 :    45.5180943858488
          11 :   -46.3332190095136
          12 :    45.6315344808915
          13 :   -41.2458367888443
          14 :    33.0864541139445
          15 :   -22.4193391779023
          16 :    11.0991868133282
          17 :  -0.983760532083750
          18 :   -6.45437497411791
          19 :    10.3703937812630
          20 :   -10.6871070989230
          21 :    8.11446896369006
          22 :   -4.00644238785634
          23 :   1.876739719187981E-002
          24 :    2.38003040786867
          25 :   -2.39081775057451
          26 :   0.147969908652328
          27 :    3.37134184016548
          28 :   -6.77643847484677
          29 :    8.84967675419097
          30 :   -9.03868511096783
          31 :   -40.2091961411238
          32 :   -29.1564983103420

     Forces acting on atoms (Ry/au):

     negative rho (up, down):  3.843E-01 0.000E+00
     atom    1 type  1   force =    -0.00000137    0.02195359   -0.01003427
     atom    2 type  1   force =     0.01901055   -0.01097724   -0.01003783
     atom    3 type  1   force =    -0.01901082   -0.01097807   -0.01003599
     atom    4 type  2   force =    -0.00000137   -0.00000155    0.04404832
     atom    5 type  1   force =     0.00000079   -0.01144624   -0.00565447
     atom    6 type  1   force =    -0.00991135    0.00572233   -0.00565967
     atom    7 type  1   force =     0.00991196    0.00572376   -0.00565973
     atom    8 type  2   force =     0.00000022    0.00000069    0.00284429
     atom    9 type  1   force =    -0.00000293    0.00039277    0.00011296
     atom   10 type  1   force =     0.00034416   -0.00019619    0.00011017
     atom   11 type  1   force =    -0.00033815   -0.00019522    0.00011191
     atom   12 type  2   force =    -0.00000170    0.00000138   -0.00014569

     Total force =     0.064698     Total SCF correction =     0.001661

     entering subroutine stress ...

     negative rho (up, down):  3.843E-01 0.000E+00
          total   stress  (Ry/bohr**3)                   (kbar)     P=   -3.78
  -0.00003292   0.00000000  -0.00000000         -4.84      0.00     -0.00
   0.00000000  -0.00003292  -0.00000000          0.00     -4.84     -0.00
  -0.00000000  -0.00000000  -0.00001128         -0.00     -0.00     -1.66

 !ASE

     Writing output data file calc.save

     General routines

     Parallel routines

   This run was terminated on:  21:42:24  26Dec2018

   JOB DONE.
Job  /afs/slac/g/suncat/bin/suncat-tsmpirun -x LD_LIBRARY_PATH -wdir /scratch/qe110008_FoBPj pw.x -in pw.inp

TID   HOST_NAME   COMMAND_LINE            STATUS            TERMINATION_TIME
00000 suncat0044 pw.x -in pw.inp   Done                     12/26/2018 21:42:24
00001 suncat0044 pw.x -in pw.inp   Done                     12/26/2018 21:42:24
00002 suncat0044 pw.x -in pw.inp   Done                     12/26/2018 21:42:24
00003 suncat0044 pw.x -in pw.inp   Done                     12/26/2018 21:42:24
00004 suncat0044 pw.x -in pw.inp   Done                     12/26/2018 21:42:24
00005 suncat0044 pw.x -in pw.inp   Done                     12/26/2018 21:42:24
00006 suncat0044 pw.x -in pw.inp   Done                     12/26/2018 21:42:24
00007 suncat0044 pw.x -in pw.inp   Done                     12/26/2018 21:42:24
00008 suncat0038 pw.x -in pw.inp   Done                     12/26/2018 21:42:24
00009 suncat0038 pw.x -in pw.inp   Done                     12/26/2018 21:42:24
00010 suncat0038 pw.x -in pw.inp   Done                     12/26/2018 21:42:24
00011 suncat0038 pw.x -in pw.inp   Done                     12/26/2018 21:42:24
00012 suncat0038 pw.x -in pw.inp   Done                     12/26/2018 21:42:24
00013 suncat0038 pw.x -in pw.inp   Done                     12/26/2018 21:42:24
00014 suncat0038 pw.x -in pw.inp   Done                     12/26/2018 21:42:24
00015 suncat0038 pw.x -in pw.inp   Done                     12/26/2018 21:42:24
00016 suncat0037 pw.x -in pw.inp   Done                     12/26/2018 21:42:24
00017 suncat0037 pw.x -in pw.inp   Done                     12/26/2018 21:42:24
00018 suncat0037 pw.x -in pw.inp   Done                     12/26/2018 21:42:24
00019 suncat0037 pw.x -in pw.inp   Done                     12/26/2018 21:42:24
00020 suncat0037 pw.x -in pw.inp   Done                     12/26/2018 21:42:24
00021 suncat0037 pw.x -in pw.inp   Done                     12/26/2018 21:42:24
00022 suncat0037 pw.x -in pw.inp   Done                     12/26/2018 21:42:24
00023 suncat0037 pw.x -in pw.inp   Done                     12/26/2018 21:42:24
00024 suncat0036 pw.x -in pw.inp   Done                     12/26/2018 21:42:24
00025 suncat0036 pw.x -in pw.inp   Done                     12/26/2018 21:42:24
00026 suncat0036 pw.x -in pw.inp   Done                     12/26/2018 21:42:24
00027 suncat0036 pw.x -in pw.inp   Done                     12/26/2018 21:42:24
00028 suncat0036 pw.x -in pw.inp   Done                     12/26/2018 21:42:24
00029 suncat0036 pw.x -in pw.inp   Done                     12/26/2018 21:42:24
00030 suncat0036 pw.x -in pw.inp   Done                     12/26/2018 21:42:24
00031 suncat0036 pw.x -in pw.inp   Done                     12/26/2018 21:42:24
00032 suncat0035 pw.x -in pw.inp   Done                     12/26/2018 21:42:24
00033 suncat0035 pw.x -in pw.inp   Done                     12/26/2018 21:42:24
00034 suncat0035 pw.x -in pw.inp   Done                     12/26/2018 21:42:24
00035 suncat0035 pw.x -in pw.inp   Done                     12/26/2018 21:42:24
00036 suncat0035 pw.x -in pw.inp   Done                     12/26/2018 21:42:24
00037 suncat0035 pw.x -in pw.inp   Done                     12/26/2018 21:42:24
00038 suncat0035 pw.x -in pw.inp   Done                     12/26/2018 21:42:24
00039 suncat0035 pw.x -in pw.inp   Done                     12/26/2018 21:42:24
00040 suncat0033 pw.x -in pw.inp   Done                     12/26/2018 21:42:24
00041 suncat0033 pw.x -in pw.inp   Done                     12/26/2018 21:42:24
00042 suncat0033 pw.x -in pw.inp   Done                     12/26/2018 21:42:24
00043 suncat0033 pw.x -in pw.inp   Done                     12/26/2018 21:42:24
00044 suncat0033 pw.x -in pw.inp   Done                     12/26/2018 21:42:24
00045 suncat0033 pw.x -in pw.inp   Done                     12/26/2018 21:42:24
00046 suncat0033 pw.x -in pw.inp   Done                     12/26/2018 21:42:24
00047 suncat0033 pw.x -in pw.inp   Done                     12/26/2018 21:42:24
00048 suncat0032 pw.x -in pw.inp   Done                     12/26/2018 21:42:24
00049 suncat0032 pw.x -in pw.inp   Done                     12/26/2018 21:42:24
00050 suncat0032 pw.x -in pw.inp   Done                     12/26/2018 21:42:24
00051 suncat0032 pw.x -in pw.inp   Done                     12/26/2018 21:42:24
00052 suncat0032 pw.x -in pw.inp   Done                     12/26/2018 21:42:24
00053 suncat0032 pw.x -in pw.inp   Done                     12/26/2018 21:42:24
00054 suncat0032 pw.x -in pw.inp   Done                     12/26/2018 21:42:24
00055 suncat0032 pw.x -in pw.inp   Done                     12/26/2018 21:42:24
00056 suncat0019 pw.x -in pw.inp   Done                     12/26/2018 21:42:24
00057 suncat0019 pw.x -in pw.inp   Done                     12/26/2018 21:42:24
00058 suncat0019 pw.x -in pw.inp   Done                     12/26/2018 21:42:24
00059 suncat0019 pw.x -in pw.inp   Done                     12/26/2018 21:42:24
00060 suncat0019 pw.x -in pw.inp   Done                     12/26/2018 21:42:24
00061 suncat0019 pw.x -in pw.inp   Done                     12/26/2018 21:42:24
00062 suncat0019 pw.x -in pw.inp   Done                     12/26/2018 21:42:24
00063 suncat0019 pw.x -in pw.inp   Done                     12/26/2018 21:42:24