     Program PWSCF v.5.1rc2 (svn rev. 11289) starts on 18Dec2018 at 18:21:52

     Current dimensions of program PWSCF are:
     Max number of different atomic species (ntypx) = 10
     Max number of k-points (npk) =  40000
     Max angular momentum in pseudopotentials (lmaxx) =  3
     Presently stress not available with electric field

     IMPORTANT: XC functional enforced from input :
     Exchange-correlation      = BEEF-VDW ( 1  4 27 13 2)
     Any further DFT definition will be discarded
     Please, verify this is what you really want

     Subspace diagonalization in iterative solution of the eigenvalue problem:
     a serial algorithm will be used

     Found symmetry operation: I + (  0.5000 -0.5000  0.0000)
     This is a supercell, fractional translations are disabled

     bravais-lattice index     =            0
     lattice parameter (alat)  =       1.8897  a.u.
     unit-cell volume          =    6185.8141 (a.u.)^3
     number of atoms/cell      =           12
     number of atomic types    =            2
     number of electrons       =        84.00
     number of Kohn-Sham states=           72
     kinetic-energy cutoff     =      36.7493  Ry
     charge density cutoff     =     367.4932  Ry
     convergence threshold     =      1.0E-06
     mixing beta               =       0.1000
     number of iterations used =           10  plain     mixing
     Exchange-correlation      = BEEF-VDW ( 1  4 27 13 2)
     nstep                     =           50

     celldm(1)=   1.889726  celldm(2)=   0.000000  celldm(3)=   0.000000
     celldm(4)=   0.000000  celldm(5)=   0.000000  celldm(6)=   0.000000

     crystal axes: (cart. coord. in units of alat)
               a(1) = (   6.224149   0.000000   0.000000 )
               a(2) = (   2.062422   5.872516   0.000000 )
               a(3) = (   0.000000   0.000000  25.078181 )

     reciprocal axes: (cart. coord. in units 2 pi/alat)
               b(1) = (  0.160665 -0.056425  0.000000 )
               b(2) = (  0.000000  0.170285  0.000000 )
               b(3) = (  0.000000  0.000000  0.039875 )

     PseudoPot. # 1 for Al read from file:
     /afs/slac.stanford.edu/u/if/mamunm/psp/gbrv1.5pbe/Al.UPF
     MD5 check sum: 0a6289f5291fc8f409219462bc851e1f
     Pseudo is Ultrasoft + core correction, Zval =  3.0
     Generated by new atomic code, or converted to UPF format
     Using radial grid of  893 points,  3 beta functions with:
                l(1) =   0
                l(2) =   1
                l(3) =   2
     Q(r) pseudized with  8 coefficients,  rinner =    0.900   0.900   0.900
                                                       0.900   0.900

     PseudoPot. # 2 for Y  read from file:
     /afs/slac.stanford.edu/u/if/mamunm/psp/gbrv1.5pbe/Y.UPF
     MD5 check sum: d034151ed7554c50b6e82763ed42c788
     Pseudo is Ultrasoft + core correction, Zval = 11.0
     Generated by new atomic code, or converted to UPF format
     Using radial grid of  885 points,  6 beta functions with:
                l(1) =   0
                l(2) =   0
                l(3) =   1
                l(4) =   1
                l(5) =   2
                l(6) =   2
     Q(r) pseudized with  8 coefficients,  rinner =    1.200   1.200   1.200
                                                       1.200   1.200

     vdW kernel table read from file vdW_kernel_table
     MD5 check sum: 095c7af220d748ca6e76c0b4c6cfb241

     atomic species   valence    mass     pseudopotential
        Al1            3.00    26.98154     Al( 1.00)
        Y1            11.00    88.90584     Y ( 1.00)

     No symmetry found

   Cartesian axes

     site n.     atom                  positions (alat units)
         1           Al1 tau(   1) = (   0.0000000   0.0000000  10.0000000  )
         2           Al1 tau(   2) = (   4.1432859   2.9362582  10.0000000  )
         3           Y1  tau(   3) = (   3.1120747   0.0000000  10.0000000  )
         4           Y1  tau(   4) = (   1.0312112   2.9362582  10.0000000  )
         5           Al1 tau(   5) = (   6.2241493   4.4109216  12.5390903  )
         6           Al1 tau(   6) = (   2.0808634   1.4746635  12.5390903  )
         7           Y1  tau(   7) = (   3.1120747   4.4109216  12.5390903  )
         8           Y1  tau(   8) = (   5.1929381   1.4746635  12.5390903  )
         9           Al1 tau(   9) = (   4.1617269   2.9493269  15.0781807  )
        10           Al1 tau(  10) = (   0.0184410   0.0130687  15.0781807  )
        11           Y1  tau(  11) = (   1.0496522   2.9493269  15.0781807  )
        12           Y1  tau(  12) = (   3.1305156   0.0130687  15.0781807  )

     number of k points=    20  Fermi-Dirac smearing, width (Ry)=  0.0110
                       cart. coord. in units 2pi/alat
        k(    1) = (   0.0000000   0.0000000   0.0000000), wk =   0.0555556
        k(    2) = (   0.0000000   0.0283808   0.0000000), wk =   0.1111111
        k(    3) = (   0.0000000   0.0567616   0.0000000), wk =   0.1111111
        k(    4) = (   0.0000000  -0.0851424   0.0000000), wk =   0.0555556
        k(    5) = (   0.0267774  -0.0094042   0.0000000), wk =   0.1111111
        k(    6) = (   0.0267774   0.0189766   0.0000000), wk =   0.1111111
        k(    7) = (   0.0267774   0.0473574   0.0000000), wk =   0.1111111
        k(    8) = (   0.0267774  -0.0945466   0.0000000), wk =   0.1111111
        k(    9) = (   0.0267774  -0.0661658   0.0000000), wk =   0.1111111
        k(   10) = (   0.0267774  -0.0377850   0.0000000), wk =   0.1111111
        k(   11) = (   0.0535548  -0.0188084   0.0000000), wk =   0.1111111
        k(   12) = (   0.0535548   0.0095724   0.0000000), wk =   0.1111111
        k(   13) = (   0.0535548   0.0379532   0.0000000), wk =   0.1111111
        k(   14) = (   0.0535548  -0.1039508   0.0000000), wk =   0.1111111
        k(   15) = (   0.0535548  -0.0755700   0.0000000), wk =   0.1111111
        k(   16) = (   0.0535548  -0.0471892   0.0000000), wk =   0.1111111
        k(   17) = (  -0.0803323   0.0282126   0.0000000), wk =   0.0555556
        k(   18) = (  -0.0803323   0.0565934   0.0000000), wk =   0.1111111
        k(   19) = (  -0.0803323   0.0849742   0.0000000), wk =   0.1111111
        k(   20) = (  -0.0803323  -0.0569298   0.0000000), wk =   0.0555556

     Largest allocated arrays     est. size (Mb)     dimensions
     Largest temporary arrays     est. size (Mb)     dimensions

     Initial potential from superposition of free atoms
     Check: negative starting charge=   -0.000405

     starting charge   83.95839, renormalised to   84.00000

     negative rho (up, down):  4.048E-04 0.000E+00

     *
     * You are using vdW-DF for exchange-correlation in this calculation.
     * Please cite the following three references that made this development
     * possible:
     *
     *   M. Dion, H. Rydberg, E. Schroder, D. C. Langreth, and
     *   B. I. Lundqvist, Phys. Rev. Lett. 92, 246401 (2004).
     *
     *   T. Thonhauser, V. R. Cooper, S. Li, A. Puzder, P. Hyldgaard, and
     *   D. C. Langreth, Phys. Rev. B 76, 125112 (2007).
     *
     *   G. Roman-Perez and J. M. Soler, Phys. Rev. Lett. 103, 096102 (2009).
     *
     *
     * If you are using vdW-DF2, please also cite:
     *
     *   K. Lee, E. D. Murray, L. Kong, B. I. Lundqvist, and
     *   D. C. Langreth, Phys. Rev. B 82, 081101(R) (2010).
     *
     *
     * If you are calculating the stress with vdW-DF, please also cite:
     *
     *   R. Sabatini, E. Kucukbenli, B. Kolb, T. Thonhauser, and
     *   S. de Gironcoli, J. Phys.: Condens. Matter 24, 424209 (2012).
     *

     Carrying out vdW-DF run using the following parameters:

     Nqs =      20    Nr_points =    1024   r_max =   100.000
     q_mesh =
               0.00001000     0.04494208     0.09755937     0.15916263
               0.23128650     0.31572767     0.41458969     0.53033537
               0.66584808     0.82450364     1.01025438     1.22772762
               1.48234092     1.78043706     2.12944203     2.53805004
               3.01644009     3.57652955     4.23227104     5.00000000

     Gradients computed in reciprocal space

     Adding external electric field

     Computed dipole along edir(3) :
        Dipole                0.0000 Ry au,          0.0000 Debye
        Dipole field          0.0000 Ry au

        Potential amp.       -0.0000 Ry
        Total length         46.2061 bohr

     Starting wfc are  102 randomized atomic wfcs

     Self-consistent Calculation

     iteration #  1     ecut=    36.75 Ry     beta=0.10
     Davidson diagonalization with overlap
     ethr =  1.00E-02,  avg # of iterations =  2.8

[...]

     total energy              =    -603.52232135 Ry
     Harris-Foulkes estimate   =    -603.81422057 Ry
     estimated scf accuracy    <       1.71395401 Ry

[...]

     End of self-consistent calculation

          k = 0.0000 0.0000 0.0000 ( 23241 PWs)   bands (ev):

   -43.0572 -43.0567 -43.0368 -43.0367 -42.5604 -42.5396 -23.1269 -23.1183
   -23.1077 -23.0808 -23.0538 -23.0528 -23.0055 -22.9852 -22.9851 -22.9591
   -22.7735 -22.7722 -22.7014 -22.5588 -22.5278 -22.5241 -22.4724 -22.4004
    -6.9662  -5.6495  -4.6914  -4.5732  -4.1975  -4.0376  -1.9165  -1.7317
    -1.3625  -1.1655  -1.1159  -0.9706  -0.7623  -0.6751  -0.2733  -0.2438
     0.0430   0.1105   0.1612   0.4608   0.4985   0.6022   0.7128   1.0235
     1.2415   1.2716   1.6252   1.7717   2.0852   2.1513   2.1895   2.1914
     2.3277   2.3967   2.5341   2.9271   3.2934   3.4236   3.5503   3.6098
     3.6142   3.6608   3.7627   3.7646   3.9061   4.2648   4.3418   4.3862

[...]

          k =-0.0803 0.0282 0.0000 ( 23286 PWs)   bands (ev):

[...]

     the Fermi energy is     0.2116 ev

!    total energy              =    -603.60048192 Ry
     Harris-Foulkes estimate   =    -603.60048255 Ry
     estimated scf accuracy    <       0.00000025 Ry

     The total energy is the sum of the following terms:

     one-electron contribution =   -2799.91700521 Ry
     hartree contribution      =    1398.27839226 Ry
     xc contribution           =    -196.05714456 Ry
     ewald contribution        =     994.15787504 Ry
     electric field correction =       0.00000000 Ry
     smearing contrib. (-TS)   =      -0.06259944 Ry

     convergence has been achieved in  15 iterations

 BEEF-vdW xc energy contributions
           1 :   -169.702559145149
           2 :    151.593697516888
           3 :   -120.923564565750
           4 :    85.8465822711601
           5 :   -53.4494886934149
           6 :    27.5698239409264
           7 :   -8.87689976931213
           8 :   -3.59991783669562
           9 :    10.9111626985179
          10 :   -13.5697446728658
          11 :    11.9300558564319
          12 :   -6.91732360741702
          13 :   0.333010360416324
          14 :    5.58520049231288
          15 :   -9.03227027044608
          16 :    9.29710679171026
          17 :   -6.81493174504357
          18 :    2.70524504277410
          19 :    1.80257193927730
          20 :   -5.73071996887933
          21 :    8.44472449417043
          22 :   -9.61473539252671
          23 :    9.18460803629048
          24 :   -7.37707055363825
          25 :    4.67329079508335
[...]
00027 suncat0025 pw.x -in pw.inp   Done                     12/18/2018 18:36:42
00028 suncat0025 pw.x -in pw.inp   Done                     12/18/2018 18:36:42
00029 suncat0025 pw.x -in pw.inp   Done                     12/18/2018 18:36:42
00030 suncat0025 pw.x -in pw.inp   Done                     12/18/2018 18:36:42
00031 suncat0025 pw.x -in pw.inp   Done                     12/18/2018 18:36:42

[...]

     Found symmetry operation: I + (  0.5000 -0.5000  0.0000)
     This is a supercell, fractional translations are disabled

[...]

     Total force =     0.014351     Total SCF correction =     0.002402
     SCF correction compared to forces is large: reduce conv_thr to get better values

[...]

   This run was terminated on:  18:52:17  18Dec2018

[...]

     Program PWSCF v.5.1rc2 (svn rev. 11289) starts on 18Dec2018 at 18:52:24

[...]

     Total force =     0.021083     Total SCF correction =     0.001613

[...]

   This run was terminated on:  19: 7:35  18Dec2018

[...]

     Program PWSCF v.5.1rc2 (svn rev. 11289) starts on 18Dec2018 at 19: 7:44

     Current dimensions of program PWSCF are:
     Max number of different atomic species (ntypx) = 10
     Max number of k-points (npk) =  40000
     Max angular momentum in pseudopotentials (lmaxx) =  3
     Presently stress not available with electric field

     IMPORTANT: XC functional enforced from input :
     Exchange-correlation      = BEEF-VDW ( 1  4 27 13 2)
     Any further DFT definition will be discarded
     Please, verify this is what you really want

     Subspace diagonalization in iterative solution of the eigenvalue problem:
     a serial algorithm will be used

     bravais-lattice index     =            0
     lattice parameter (alat)  =       1.8897  a.u.
     unit-cell volume          =    6185.8141 (a.u.)^3
     number of atoms/cell      =           12
     number of atomic types    =            2
     number of electrons       =        84.00
     number of Kohn-Sham states=           72
     kinetic-energy cutoff     =      36.7493  Ry
     charge density cutoff     =     367.4932  Ry
     convergence threshold     =      1.0E-06
     mixing beta               =       0.1000
     number of iterations used =           10  plain     mixing
     Exchange-correlation      = BEEF-VDW ( 1  4 27 13 2)
     nstep                     =           50

     celldm(1)=   1.889726  celldm(2)=   0.000000  celldm(3)=   0.000000
     celldm(4)=   0.000000  celldm(5)=   0.000000  celldm(6)=   0.000000

     crystal axes: (cart. coord. in units of alat)
               a(1) = (   6.224149   0.000000   0.000000 )
               a(2) = (   2.062422   5.872516   0.000000 )
               a(3) = (   0.000000   0.000000  25.078181 )

     reciprocal axes: (cart. coord. in units 2 pi/alat)
               b(1) = (  0.160665 -0.056425  0.000000 )
               b(2) = (  0.000000  0.170285  0.000000 )
               b(3) = (  0.000000  0.000000  0.039875 )

     PseudoPot. # 1 for Al read from file:
     /afs/slac.stanford.edu/u/if/mamunm/psp/gbrv1.5pbe/Al.UPF
     MD5 check sum: 0a6289f5291fc8f409219462bc851e1f
     Pseudo is Ultrasoft + core correction, Zval =  3.0
     Generated by new atomic code, or converted to UPF format
     Using radial grid of  893 points,  3 beta functions with:
                l(1) =   0
                l(2) =   1
                l(3) =   2
     Q(r) pseudized with  8 coefficients,  rinner =    0.900   0.900   0.900
                                                       0.900   0.900

     PseudoPot. # 2 for Y  read from file:
     /afs/slac.stanford.edu/u/if/mamunm/psp/gbrv1.5pbe/Y.UPF
     MD5 check sum: d034151ed7554c50b6e82763ed42c788
     Pseudo is Ultrasoft + core correction, Zval = 11.0
     Generated by new atomic code, or converted to UPF format
     Using radial grid of  885 points,  6 beta functions with:
                l(1) =   0
                l(2) =   0
                l(3) =   1
                l(4) =   1
                l(5) =   2
                l(6) =   2
     Q(r) pseudized with  8 coefficients,  rinner =    1.200   1.200   1.200
                                                       1.200   1.200

     vdW kernel table read from file vdW_kernel_table
     MD5 check sum: 095c7af220d748ca6e76c0b4c6cfb241

     atomic species   valence    mass     pseudopotential
        Al1            3.00    26.98154     Al( 1.00)
        Y1            11.00    88.90584     Y ( 1.00)

     No symmetry found

   Cartesian axes

     site n.     atom                  positions (alat units)
         1           Al1 tau(   1) = (   0.0000000   0.0000000  10.0000000  )
         2           Al1 tau(   2) = (   4.1432859   2.9362582  10.0000000  )
         3           Y1  tau(   3) = (   3.1120747   0.0000000  10.0000000  )
         4           Y1  tau(   4) = (   1.0312112   2.9362582  10.0000000  )
         5           Al1 tau(   5) = (   6.2241493   4.4109216  12.5390903  )
         6           Al1 tau(   6) = (   2.0808634   1.4746635  12.5390903  )
         7           Y1  tau(   7) = (   3.1120747   4.4109216  12.5390903  )
         8           Y1  tau(   8) = (   5.1929381   1.4746635  12.5390903  )
         9           Al1 tau(   9) = (   4.1629249   2.9502016  15.1226672  )
        10           Al1 tau(  10) = (   0.0196657   0.0139011  15.1226654  )
        11           Y1  tau(  11) = (   1.0479095   2.9480688  15.1351420  )
        12           Y1  tau(  12) = (   3.1288792   0.0119016  15.1351378  )

     number of k points=    20  Fermi-Dirac smearing, width (Ry)=  0.0110
                       cart. coord. in units 2pi/alat
        k(    1) = (   0.0000000   0.0000000   0.0000000), wk =   0.0555556
        k(    2) = (   0.0000000   0.0283808   0.0000000), wk =   0.1111111
        k(    3) = (   0.0000000   0.0567616   0.0000000), wk =   0.1111111
        k(    4) = (   0.0000000  -0.0851424   0.0000000), wk =   0.0555556
        k(    5) = (   0.0267774  -0.0094042   0.0000000), wk =   0.1111111
        k(    6) = (   0.0267774   0.0189766   0.0000000), wk =   0.1111111
        k(    7) = (   0.0267774   0.0473574   0.0000000), wk =   0.1111111
        k(    8) = (   0.0267774  -0.0945466   0.0000000), wk =   0.1111111
        k(    9) = (   0.0267774  -0.0661658   0.0000000), wk =   0.1111111
        k(   10) = (   0.0267774  -0.0377850   0.0000000), wk =   0.1111111
        k(   11) = (   0.0535548  -0.0188084   0.0000000), wk =   0.1111111
        k(   12) = (   0.0535548   0.0095724   0.0000000), wk =   0.1111111
        k(   13) = (   0.0535548   0.0379532   0.0000000), wk =   0.1111111
        k(   14) = (   0.0535548  -0.1039508   0.0000000), wk =   0.1111111
        k(   15) = (   0.0535548  -0.0755700   0.0000000), wk =   0.1111111
        k(   16) = (   0.0535548  -0.0471892   0.0000000), wk =   0.1111111
        k(   17) = (  -0.0803323   0.0282126   0.0000000), wk =   0.0555556
        k(   18) = (  -0.0803323   0.0565934   0.0000000), wk =   0.1111111
        k(   19) = (  -0.0803323   0.0849742   0.0000000), wk =   0.1111111
        k(   20) = (  -0.0803323  -0.0569298   0.0000000), wk =   0.0555556

     Largest allocated arrays     est. size (Mb)     dimensions
     Largest temporary arrays     est. size (Mb)     dimensions

     Initial potential from superposition of free atoms
     Check: negative starting charge=   -0.000403

     starting charge   83.95839, renormalised to   84.00000

[...]

     *
     * You are using vdW-DF for exchange-correlation in this calculation.
     * Please cite the following three references that made this development
     * possible:
     *
     *   M. Dion, H. Rydberg, E. Schroder, D. C. Langreth, and
     *   B. I. Lundqvist, Phys. Rev. Lett. 92, 246401 (2004).
     *
     *   T. Thonhauser, V. R. Cooper, S. Li, A. Puzder, P. Hyldgaard, and
     *   D. C. Langreth, Phys. Rev. B 76, 125112 (2007).
     *
     *   G. Roman-Perez and J. M. Soler, Phys. Rev. Lett. 103, 096102 (2009).
     *
     *
     * If you are using vdW-DF2, please also cite:
     *
     *   K. Lee, E. D. Murray, L. Kong, B. I. Lundqvist, and
     *   D. C. Langreth, Phys. Rev. B 82, 081101(R) (2010).
     *
     *
     * If you are calculating the stress with vdW-DF, please also cite:
     *
     *   R. Sabatini, E. Kucukbenli, B. Kolb, T. Thonhauser, and
     *   S. de Gironcoli, J. Phys.: Condens. Matter 24, 424209 (2012).
     *

     Carrying out vdW-DF run using the following parameters:

     Nqs =      20    Nr_points =    1024   r_max =   100.000
     q_mesh =
               0.00001000     0.04494208     0.09755937     0.15916263
               0.23128650     0.31572767     0.41458969     0.53033537
               0.66584808     0.82450364     1.01025438     1.22772762
               1.48234092     1.78043706     2.12944203     2.53805004
               3.01644009     3.57652955     4.23227104     5.00000000

     Gradients computed in reciprocal space

[...]

     Starting wfc are  102 randomized atomic wfcs

     Self-consistent Calculation

[...]

     total energy              =    -603.60143125 Ry
     Harris-Foulkes estimate   =    -603.60143229 Ry
     estimated scf accuracy    <       0.00000317 Ry

     iteration # 15     ecut=    36.75 Ry     beta=0.10
     Davidson diagonalization with overlap
     ethr =  3.78E-09,  avg # of iterations =  2.0

[...]

     negative rho (up, down):  2.399E-04 0.000E+00

     Adding external electric field

     Computed dipole along edir(3) :
        Dipole                0.0028 Ry au,          0.0072 Debye
        Dipole field          0.0000 Ry au

        Potential amp.       -0.0005 Ry
        Total length         46.2061 bohr

     End of self-consistent calculation

[...]

          k = 0.0536-0.0472 0.0000 ( 23272 PWs)   bands (ev):

[...]

          k =-0.0803-0.0569 0.0000 ( 23236 PWs)   bands (ev):

   -43.0829 -43.0635 -43.0455 -43.0261 -42.5676 -42.5464 -23.1532 -23.1126
   -23.1103 -23.0766 -23.0734 -23.0465 -23.0321 -22.9960 -22.9786 -22.9481
   -22.7911 -22.7617 -22.7019 -22.5695 -22.5286 -22.5117 -22.4899 -22.4041
    -5.4991  -5.3834  -4.6404  -4.5893  -3.8957  -3.2989  -3.2848  -2.4340
    -2.3161  -2.0743  -2.0458  -2.0076  -1.7452  -1.0221  -1.0198  -0.5654
     0.1420   0.2743   0.2971   0.8889   1.0686   1.1414   1.3449   1.3503
     1.4591   1.5340   1.5541   1.6068   1.6339   1.8079   1.8593   1.9833
     2.5792   2.7145   3.1338   3.3803   3.6221   3.8527   3.8686   3.9015
     3.9976   4.0002   4.1892   4.6676   4.7049   4.7868   4.8157   4.9526

     the Fermi energy is     0.2167 ev

!    total energy              =    -603.60143098 Ry
     Harris-Foulkes estimate   =    -603.60143163 Ry
     estimated scf accuracy    <       0.00000078 Ry

     The total energy is the sum of the following terms:

     one-electron contribution =   -2779.01731353 Ry
     hartree contribution      =    1387.82186262 Ry
     xc contribution           =    -196.00924999 Ry
     ewald contribution        =     983.66630232 Ry
     electric field correction =       0.00000002 Ry
     smearing contrib. (-TS)   =      -0.06303240 Ry

     convergence has been achieved in  15 iterations

 BEEF-vdW xc energy contributions
           1 :   -169.655444046093
           2 :    151.531171169158
           3 :   -120.847344706711
           4 :    85.7749261896735
           5 :   -53.3994186625887
           6 :    27.5398116083168
           7 :   -8.84630926851128
           8 :   -3.65445549594017
           9 :    10.9969440273641
          10 :   -13.6719444519495
          11 :    12.0233714859835
          12 :   -6.98594748857528
          13 :   0.381696981025556
          14 :    5.53800209531568
          15 :   -8.97214335939316
          16 :    9.22671283188484
          17 :   -6.75215363609493
          18 :    2.66927894977886
          19 :    1.80491203698961
          20 :   -5.70779352608179
          21 :    8.41118834446536
          22 :   -9.57940466363880
          23 :    9.14543150495186
          24 :   -7.32650370032496
          25 :    4.60819507116412
          26 :   -1.64196641312398
          27 :  -0.923597591465523
          28 :    2.60590823644520
          29 :   -3.19086811213907
          30 :    2.76139391047514
          31 :   -17.3718904513425
          32 :   -12.0244143415129

     Forces acting on atoms (Ry/au):

     negative rho (up, down):  2.399E-04 0.000E+00
     atom    1 type  1   force =    -0.00030145   -0.00021201   -0.00466482
     atom    2 type  1   force =    -0.00029985   -0.00021422   -0.00466490
     atom    3 type  2   force =     0.00035850    0.00025181   -0.00735789
     atom    4 type  2   force =     0.00034225    0.00024385   -0.00735350
     atom    5 type  1   force =     0.00000205   -0.00000026    0.00529491
     atom    6 type  1   force =     0.00000074    0.00000091    0.00529410
     atom    7 type  2   force =    -0.00009553   -0.00006574    0.00675101
     atom    8 type  2   force =    -0.00008430   -0.00006163    0.00674523
     atom    9 type  1   force =    -0.00010821   -0.00007000    0.00024339
     atom   10 type  1   force =    -0.00010148   -0.00008016    0.00024328
     atom   11 type  2   force =     0.00014311    0.00010344   -0.00026578
     atom   12 type  2   force =     0.00014417    0.00010400   -0.00026503

     Total force =     0.017317     Total SCF correction =     0.002062
     SCF correction compared to forces is large: reduce conv_thr to get better values

     entering subroutine stress ...

     negative rho (up, down):  2.399E-04 0.000E+00
          total   stress  (Ry/bohr**3)                   (kbar)     P=   -3.57
  -0.00005205  -0.00002122  -0.00000001         -7.66     -3.12     -0.00
  -0.00002122  -0.00003715  -0.00000001         -3.12     -5.46     -0.00
  -0.00000001  -0.00000001   0.00001637         -0.00     -0.00      2.41

 !ASE

     Writing output data file calc.save

     General routines

     Parallel routines

   This run was terminated on:  19:23: 3  18Dec2018

   JOB DONE.
Job  /afs/slac/g/suncat/bin/suncat-tsmpirun -x LD_LIBRARY_PATH -wdir /scratch/qe529627_6pbxs pw.x -in pw.inp

TID   HOST_NAME   COMMAND_LINE            STATUS            TERMINATION_TIME
00000 suncat0028 pw.x -in pw.inp   Done                     12/18/2018 19:23:03
00001 suncat0028 pw.x -in pw.inp   Done                     12/18/2018 19:23:03
00002 suncat0028 pw.x -in pw.inp   Done                     12/18/2018 19:23:03
00003 suncat0028 pw.x -in pw.inp   Done                     12/18/2018 19:23:03
00004 suncat0028 pw.x -in pw.inp   Done                     12/18/2018 19:23:03
00005 suncat0028 pw.x -in pw.inp   Done                     12/18/2018 19:23:03
00006 suncat0028 pw.x -in pw.inp   Done                     12/18/2018 19:23:03
00007 suncat0028 pw.x -in pw.inp   Done                     12/18/2018 19:23:03
00008 suncat0027 pw.x -in pw.inp   Done                     12/18/2018 19:23:03
00009 suncat0027 pw.x -in pw.inp   Done                     12/18/2018 19:23:03
00010 suncat0027 pw.x -in pw.inp   Done                     12/18/2018 19:23:03
00011 suncat0027 pw.x -in pw.inp   Done                     12/18/2018 19:23:03
00012 suncat0027 pw.x -in pw.inp   Done                     12/18/2018 19:23:03
00013 suncat0027 pw.x -in pw.inp   Done                     12/18/2018 19:23:03
00014 suncat0027 pw.x -in pw.inp   Done                     12/18/2018 19:23:03
00015 suncat0027 pw.x -in pw.inp   Done                     12/18/2018 19:23:03
00016 suncat0026 pw.x -in pw.inp   Done                     12/18/2018 19:23:03
00017 suncat0026 pw.x -in pw.inp   Done                     12/18/2018 19:23:03
00018 suncat0026 pw.x -in pw.inp   Done                     12/18/2018 19:23:03
00019 suncat0026 pw.x -in pw.inp   Done                     12/18/2018 19:23:03
00020 suncat0026 pw.x -in pw.inp   Done                     12/18/2018 19:23:03
00021 suncat0026 pw.x -in pw.inp   Done                     12/18/2018 19:23:03
00022 suncat0026 pw.x -in pw.inp   Done                     12/18/2018 19:23:03
00023 suncat0026 pw.x -in pw.inp   Done                     12/18/2018 19:23:03
00024 suncat0025 pw.x -in pw.inp   Done                     12/18/2018 19:23:03
00025 suncat0025 pw.x -in pw.inp   Done                     12/18/2018 19:23:03
00026 suncat0025 pw.x -in pw.inp   Done                     12/18/2018 19:23:03
00027 suncat0025 pw.x -in pw.inp   Done                     12/18/2018 19:23:03
00028 suncat0025 pw.x -in pw.inp   Done                     12/18/2018 19:23:03
00029 suncat0025 pw.x -in pw.inp   Done                     12/18/2018 19:23:03
00030 suncat0025 pw.x -in pw.inp   Done                     12/18/2018 19:23:03
00031 suncat0025 pw.x -in pw.inp   Done                     12/18/2018 19:23:03