     Program PWSCF v.5.1rc2 (svn rev. 11289) starts on 31Dec2018 at 13:50:22

     Current dimensions of program PWSCF are:
     Max number of different atomic species (ntypx) = 10
     Max number of k-points (npk) =  40000
     Max angular momentum in pseudopotentials (lmaxx) =  3
     Presently stress not available with electric field

     IMPORTANT: XC functional enforced from input :
     Exchange-correlation      = BEEF-VDW ( 1  4 27 13 2)
     Any further DFT definition will be discarded
     Please, verify this is what you really want

     Subspace diagonalization in iterative solution of the eigenvalue problem:
     a serial algorithm will be used

     bravais-lattice index     =            0
     lattice parameter (alat)  =       1.8897  a.u.
     unit-cell volume          =    4973.3510 (a.u.)^3
     number of atoms/cell      =           12
     number of atomic types    =            2
     number of electrons       =       186.00
     number of Kohn-Sham states=          123
     kinetic-energy cutoff     =      36.7493  Ry
     charge density cutoff     =     367.4932  Ry
     convergence threshold     =      1.0E-06
     mixing beta               =       0.1000
     number of iterations used =           10  plain     mixing
     Exchange-correlation      = BEEF-VDW ( 1  4 27 13 2)
     nstep                     =           50

     celldm(1)=   1.889726  celldm(2)=   0.000000  celldm(3)=   0.000000
     celldm(4)=   0.000000  celldm(5)=   0.000000  celldm(6)=   0.000000

     crystal axes: (cart. coord. in units of alat)
               a(1) = (   5.859652   0.000000   0.000000 )
               a(2) = (  -2.929826   5.074608   0.000000 )
               a(3) = (   0.000000   0.000000  24.784386 )

     reciprocal axes: (cart. coord. in units 2 pi/alat)
               b(1) = (  0.170659  0.098530  0.000000 )
               b(2) = (  0.000000  0.197060  0.000000 )
               b(3) = (  0.000000  0.000000  0.040348 )

     PseudoPot. # 1 for Pd read from file:
     /afs/slac.stanford.edu/u/if/mamunm/psp/gbrv1.5pbe/Pd.UPF
     MD5 check sum: 2d733d2bc2cbfd217af676df1668a4bc
     Pseudo is Ultrasoft + core correction, Zval = 16.0
     Generated by new atomic code, or converted to UPF format
     Using radial grid of  887 points,  6 beta functions with:
                l(1) =   0
                l(2) =   0
                l(3) =   1
                l(4) =   1
                l(5) =   2
                l(6) =   2
     Q(r) pseudized with  8 coefficients,  rinner =    1.130   1.130   1.130
                                                       1.130   1.130

     PseudoPot. # 2 for Pb read from file:
     /afs/slac.stanford.edu/u/if/mamunm/psp/gbrv1.5pbe/Pb.UPF
     MD5 check sum: 3d1c1779aa92214d1e8f3a7db79003e2
     Pseudo is Ultrasoft + core correction, Zval = 14.0
     Generated by new atomic code, or converted to UPF format
     Using radial grid of  899 points,  6 beta functions with:
                l(1) =   0
                l(2) =   0
                l(3) =   1
                l(4) =   1
                l(5) =   2
                l(6) =   2
     Q(r) pseudized with  6 coefficients,  rinner =    1.000   1.000   1.000
                                                       1.000   1.000

     vdW kernel table read from file vdW_kernel_table
     MD5 check sum: 095c7af220d748ca6e76c0b4c6cfb241

     atomic species   valence    mass     pseudopotential
        Pd1           16.00   106.42000     Pd( 1.00)
        Pb1           14.00   207.20000     Pb( 1.00)

     No symmetry found

   Cartesian axes

     site n.     atom                  positions (alat units)
         1           Pd1 tau(   1) = (   0.0000000   0.0000000  10.0000000  )
         2           Pd1 tau(   2) = (  -1.4649131   2.5373039  10.0000000  )
         3           Pd1 tau(   3) = (   1.4649131   2.5373039  10.0000000  )
         4           Pb1 tau(   4) = (   2.9298262   0.0000000  10.0000000  )
         5           Pd1 tau(   5) = (   2.9298262   1.6915360  12.3921931  )
         6           Pd1 tau(   6) = (   1.4649131   4.2288399  12.3921931  )
         7           Pd1 tau(   7) = (  -1.4649131   4.2288399  12.3921931  )
         8           Pb1 tau(   8) = (   0.0000000   1.6915360  12.3921931  )
         9           Pd1 tau(   9) = (  -0.0000000   3.3830719  14.7843862  )
        10           Pd1 tau(  10) = (   1.4649131   0.8457680  14.7843862  )
        11           Pd1 tau(  11) = (   4.3947393   0.8457680  14.7843862  )
        12           Pb1 tau(  12) = (   2.9298262   3.3830719  14.7843862  )

     number of k points=    20  Fermi-Dirac smearing, width (Ry)=  0.0110
                       cart. coord. in units 2pi/alat
        k(    1) = (   0.0000000   0.0000000   0.0000000), wk =   0.0555556
        k(    2) = (   0.0000000   0.0328433   0.0000000), wk =   0.1111111
        k(    3) = (   0.0000000   0.0656865   0.0000000), wk =   0.1111111
        k(    4) = (   0.0000000  -0.0985298   0.0000000), wk =   0.0555556
        k(    5) = (   0.0284431   0.0164216   0.0000000), wk =   0.1111111
        k(    6) = (   0.0284431   0.0492649   0.0000000), wk =   0.1111111
        k(    7) = (   0.0284431   0.0821082   0.0000000), wk =   0.1111111
        k(    8) = (   0.0284431  -0.0821082   0.0000000), wk =   0.1111111
        k(    9) = (   0.0284431  -0.0492649   0.0000000), wk =   0.1111111
        k(   10) = (   0.0284431  -0.0164216   0.0000000), wk =   0.1111111
        k(   11) = (   0.0568862   0.0328433   0.0000000), wk =   0.1111111
        k(   12) = (   0.0568862   0.0656865   0.0000000), wk =   0.1111111
        k(   13) = (   0.0568862   0.0985298   0.0000000), wk =   0.1111111
        k(   14) = (   0.0568862  -0.0656865   0.0000000), wk =   0.1111111
        k(   15) = (   0.0568862  -0.0328433   0.0000000), wk =   0.1111111
        k(   16) = (   0.0568862  -0.0000000   0.0000000), wk =   0.1111111
        k(   17) = (  -0.0853293  -0.0492649   0.0000000), wk =   0.0555556
        k(   18) = (  -0.0853293  -0.0164216   0.0000000), wk =   0.1111111
        k(   19) = (  -0.0853293   0.0164216   0.0000000), wk =   0.1111111
        k(   20) = (  -0.0853293  -0.1477947   0.0000000), wk =   0.0555556

     Largest allocated arrays     est. size (Mb)     dimensions
     Largest temporary arrays     est. size (Mb)     dimensions

     Initial potential from superposition of free atoms
     Check: negative starting charge=   -0.718460

     starting charge  181.49288, renormalised to  186.00000

     negative rho (up, down):  7.363E-01 0.000E+00

     *
     * You are using vdW-DF for exchange-correlation in this calculation.
     * Please cite the following three references that made this development
     * possible:
     *
     *   M. Dion, H. Rydberg, E. Schroder, D. C. Langreth, and
     *   B. I. Lundqvist, Phys. Rev. Lett. 92, 246401 (2004).
     *
     *   T. Thonhauser, V. R. Cooper, S. Li, A. Puzder, P. Hyldgaard, and
     *   D. C. Langreth, Phys. Rev. B 76, 125112 (2007).
     *
     *   G. Roman-Perez and J. M. Soler, Phys. Rev. Lett. 103, 096102 (2009).
     *
     *
     * If you are using vdW-DF2, please also cite:
     *
     *   K. Lee, E. D. Murray, L. Kong, B. I. Lundqvist, and
     *   D. C. Langreth, Phys. Rev. B 82, 081101(R) (2010).
     *
     *
     * If you are calculating the stress with vdW-DF, please also cite:
     *
     *   R. Sabatini, E. Kucukbenli, B. Kolb, T. Thonhauser, and
     *   S. de Gironcoli, J. Phys.: Condens. Matter 24, 424209 (2012).
     *

     Carrying out vdW-DF run using the following parameters:

     Nqs =      20    Nr_points =    1024   r_max =   100.000
     q_mesh =
               0.00001000     0.04494208     0.09755937     0.15916263
               0.23128650     0.31572767     0.41458969     0.53033537
               0.66584808     0.82450364     1.01025438     1.22772762
               1.48234092     1.78043706     2.12944203     2.53805004
               3.01644009     3.57652955     4.23227104     5.00000000

     Gradients computed in reciprocal space

     Adding external electric field

     Computed dipole along edir(3) :
        Dipole                0.0000 Ry au,          0.0000 Debye
        Dipole field          0.0000 Ry au

        Potential amp.       -0.0000 Ry
        Total length         45.6648 bohr

     Starting wfc are  135 randomized atomic wfcs

     Self-consistent Calculation

     iteration #  1     ecut=    36.75 Ry     beta=0.10
     Davidson diagonalization with overlap
     ethr =  1.00E-02,  avg # of iterations =  7.0

[...]

     total energy              =   -2296.54573701 Ry
     Harris-Foulkes estimate   =   -2298.37908015 Ry
     estimated scf accuracy    <      11.23172064 Ry

[...]

     End of self-consistent calculation

          k = 0.0000 0.0000 0.0000 ( 18847 PWs)   bands (ev):

   -48.6458 -48.5904 -48.5904 -48.5433 -48.5433 -48.4961 -48.4930 -48.4177
   -48.4177 -48.3540 -48.3540 -48.3444 -48.3444 -48.3031 -48.3021 -48.2949
   -48.2934 -48.1812 -48.1812 -48.1808 -48.1808 -48.1466 -48.1378 -48.1232
   -48.1232 -48.1194 -48.1194 -15.8775 -15.8775 -15.8531 -15.8452 -15.8452
   -15.8178 -15.8123 -15.7792 -15.7792 -15.7733 -15.7733 -15.7610 -15.7610
   -15.7498 -15.7498  -8.6269  -7.6357  -7.3567  -2.9612  -2.7959  -2.6937
    -2.3138  -2.3138  -2.1370  -2.1160  -2.1160  -2.0591  -2.0591  -1.8915
    -1.8915  -1.7992  -1.4809  -1.4809  -1.3371  -1.2948  -1.2948  -0.9998
    -0.9929  -0.7457  -0.7457  -0.7299  -0.7299  -0.6371  -0.3043  -0.3043
    -0.1725  -0.1725  -0.0968  -0.0759  -0.0759  -0.0312   0.2180   0.2180
     0.2215   0.2215   0.3552   0.3552   0.5389   0.5567   0.5851   0.5851
     0.7851   0.7851   0.8537   1.0520   1.0905   1.1070   1.3847   1.9807
     1.9807   2.1652   2.1652   2.5017   2.8656   3.7649   4.6645   5.3120
     5.5463   5.8826   6.0613   6.0613   6.6092   6.6092   6.7805   7.1801
     7.2768   7.2768   7.6939   7.9489   9.1107   9.1417   9.1417   9.2167
     9.5560   9.5560  10.0265

[...]

          k =-0.0853-0.0493 0.0000 ( 18680 PWs)   bands (ev):

[...]

     the Fermi energy is     1.2397 ev

!    total energy              =   -2296.32530498 Ry
     Harris-Foulkes estimate   =   -2296.33027128 Ry
     estimated scf accuracy    <       0.00000092 Ry

     The total energy is the sum of the following terms:

     one-electron contribution =  -17212.37377478 Ry
     hartree contribution      =    8662.76909754 Ry
     xc contribution           =    -489.21065709 Ry
     ewald contribution        =    6742.52855387 Ry
     electric field correction =       0.00000000 Ry
     smearing contrib. (-TS)   =      -0.03852451 Ry

     convergence has been achieved in  15 iterations

 BEEF-vdW xc energy contributions
           1 :   -429.942910072051
           2 :    395.688671031311
           3 :   -336.542646702664
           4 :    267.308376405525
           5 :   -202.639223068779
           6 :    152.316859150118
           7 :   -119.133785474398
           8 :    99.7858767972992
           9 :   -87.9079429184306
          10 :    77.5929791355492
          11 :   -65.7923527560501
          12 :    52.7646346402062
[...]
     Pseudo is Ultrasoft + core correction, Zval = 16.0
     Generated by new atomic code, or converted to UPF format
     Using radial grid of  887 points,  6 beta functions with:
                l(1) =   0
                l(2) =   0
                l(3) =   1
                l(4) =   1
                l(5) =   2
                l(6) =   2
     Q(r) pseudized with  8 coefficients,  rinner =    1.130   1.130   1.130
                                                       1.130   1.130

     PseudoPot. # 2 for Pb read from file:
     /afs/slac.stanford.edu/u/if/mamunm/psp/gbrv1.5pbe/Pb.UPF
     MD5 check sum: 3d1c1779aa92214d1e8f3a7db79003e2
     Pseudo is Ultrasoft + core correction, Zval = 14.0
     Generated by new atomic code, or converted to UPF format
     Using radial grid of  899 points,  6 beta functions with:
                l(1) =   0
                l(2) =   0
                l(3) =   1
                l(4) =   1
                l(5) =   2
                l(6) =   2
     Q(r) pseudized with  6 coefficients,  rinner =    1.000   1.000   1.000
                                                       1.000   1.000

     vdW kernel table read from file vdW_kernel_table
     MD5 check sum: 095c7af220d748ca6e76c0b4c6cfb241

     atomic species   valence    mass     pseudopotential
        Pd1           16.00   106.42000     Pd( 1.00)
        Pb1           14.00   207.20000     Pb( 1.00)

     No symmetry found

   Cartesian axes

     site n.     atom                  positions (alat units)
         1           Pd1 tau(   1) = (   0.0000000   0.0000000  10.0000000  )
         2           Pd1 tau(   2) = (  -1.4649131   2.5373039  10.0000000  )
         3           Pd1 tau(   3) = (   1.4649131   2.5373039  10.0000000  )
         4           Pb1 tau(   4) = (   2.9298262   0.0000000  10.0000000  )
         5           Pd1 tau(   5) = (   2.9298262   1.6915360  12.3921931  )
         6           Pd1 tau(   6) = (   1.4649131   4.2288399  12.3921931  )
         7           Pd1 tau(   7) = (  -1.4649131   4.2288399  12.3921931  )
         8           Pb1 tau(   8) = (   0.0000000   1.6915360  12.3921931  )
         9           Pd1 tau(   9) = (  -0.0000158   3.4052247  14.7119415  )
        10           Pd1 tau(  10) = (   1.4841053   0.8346685  14.7119389  )
        11           Pd1 tau(  11) = (   4.3755508   0.8346901  14.7119420  )
        12           Pb1 tau(  12) = (   2.9297935   3.3830671  14.9298488  )

     number of k points=    20  Fermi-Dirac smearing, width (Ry)=  0.0110
                       cart. coord. in units 2pi/alat
        k(    1) = (   0.0000000   0.0000000   0.0000000), wk =   0.0555556
        k(    2) = (   0.0000000   0.0328433   0.0000000), wk =   0.1111111
        k(    3) = (   0.0000000   0.0656865   0.0000000), wk =   0.1111111
        k(    4) = (   0.0000000  -0.0985298   0.0000000), wk =   0.0555556
        k(    5) = (   0.0284431   0.0164216   0.0000000), wk =   0.1111111
        k(    6) = (   0.0284431   0.0492649   0.0000000), wk =   0.1111111
        k(    7) = (   0.0284431   0.0821082   0.0000000), wk =   0.1111111
        k(    8) = (   0.0284431  -0.0821082   0.0000000), wk =   0.1111111
        k(    9) = (   0.0284431  -0.0492649   0.0000000), wk =   0.1111111
        k(   10) = (   0.0284431  -0.0164216   0.0000000), wk =   0.1111111
        k(   11) = (   0.0568862   0.0328433   0.0000000), wk =   0.1111111
        k(   12) = (   0.0568862   0.0656865   0.0000000), wk =   0.1111111
        k(   13) = (   0.0568862   0.0985298   0.0000000), wk =   0.1111111
        k(   14) = (   0.0568862  -0.0656865   0.0000000), wk =   0.1111111
        k(   15) = (   0.0568862  -0.0328433   0.0000000), wk =   0.1111111
        k(   16) = (   0.0568862  -0.0000000   0.0000000), wk =   0.1111111
        k(   17) = (  -0.0853293  -0.0492649   0.0000000), wk =   0.0555556
        k(   18) = (  -0.0853293  -0.0164216   0.0000000), wk =   0.1111111
        k(   19) = (  -0.0853293   0.0164216   0.0000000), wk =   0.1111111
        k(   20) = (  -0.0853293  -0.1477947   0.0000000), wk =   0.0555556

     Largest allocated arrays     est. size (Mb)     dimensions
     Largest temporary arrays     est. size (Mb)     dimensions

     Initial potential from superposition of free atoms
     Check: negative starting charge=   -0.721507

     starting charge  181.49288, renormalised to  186.00000

[...]

     *
     * You are using vdW-DF for exchange-correlation in this calculation.
     * Please cite the following three references that made this development
     * possible:
     *
     *   M. Dion, H. Rydberg, E. Schroder, D. C. Langreth, and
     *   B. I. Lundqvist, Phys. Rev. Lett. 92, 246401 (2004).
     *
     *   T. Thonhauser, V. R. Cooper, S. Li, A. Puzder, P. Hyldgaard, and
     *   D. C. Langreth, Phys. Rev. B 76, 125112 (2007).
     *
     *   G. Roman-Perez and J. M. Soler, Phys. Rev. Lett. 103, 096102 (2009).
     *
     *
     * If you are using vdW-DF2, please also cite:
     *
     *   K. Lee, E. D. Murray, L. Kong, B. I. Lundqvist, and
     *   D. C. Langreth, Phys. Rev. B 82, 081101(R) (2010).
     *
     *
     * If you are calculating the stress with vdW-DF, please also cite:
     *
     *   R. Sabatini, E. Kucukbenli, B. Kolb, T. Thonhauser, and
     *   S. de Gironcoli, J. Phys.: Condens. Matter 24, 424209 (2012).
     *

     Carrying out vdW-DF run using the following parameters:

     Nqs =      20    Nr_points =    1024   r_max =   100.000
     q_mesh =
               0.00001000     0.04494208     0.09755937     0.15916263
               0.23128650     0.31572767     0.41458969     0.53033537
               0.66584808     0.82450364     1.01025438     1.22772762
               1.48234092     1.78043706     2.12944203     2.53805004
               3.01644009     3.57652955     4.23227104     5.00000000

     Gradients computed in reciprocal space

[...]

     Starting wfc are  135 randomized atomic wfcs

     Self-consistent Calculation

[...]

     total energy              =   -2296.33634698 Ry
     Harris-Foulkes estimate   =   -2296.33634739 Ry
     estimated scf accuracy    <       0.00000381 Ry

     iteration # 16     ecut=    36.75 Ry     beta=0.10
     Davidson diagonalization with overlap
     ethr =  2.05E-09,  avg # of iterations =  4.6

[...]

     negative rho (up, down):  7.502E-01 0.000E+00

     Adding external electric field

     Computed dipole along edir(3) :
        Dipole                0.0357 Ry au,          0.0907 Debye
        Dipole field          0.0001 Ry au

        Potential amp.       -0.0082 Ry
        Total length         45.6648 bohr

     End of self-consistent calculation

[...]

          k = 0.0569-0.0000 0.0000 ( 18693 PWs)   bands (ev):

[...]

          k =-0.0853-0.1478 0.0000 ( 18680 PWs)   bands (ev):

   -48.5330 -48.5089 -48.4957 -48.4812 -48.4642 -48.4487 -48.4171 -48.3983
   -48.3647 -48.3461 -48.3248 -48.3166 -48.3012 -48.2792 -48.2715 -48.2669
   -48.2353 -48.2141 -48.1991 -48.1801 -48.1542 -48.1489 -48.1400 -48.1378
   -48.0906 -48.0843 -48.0763 -15.8260 -15.8130 -15.8015 -15.7989 -15.7953
   -15.7906 -15.7577 -15.7546 -15.7512 -15.7266 -15.7198 -15.7177 -15.7143
   -15.6976 -15.6848  -7.8362  -7.3924  -7.1443  -3.5235  -2.9985  -2.8976
    -2.6658  -2.2514  -2.1414  -2.0184  -2.0076  -1.9055  -1.8915  -1.8545
    -1.7607  -1.6525  -1.5269  -1.5010  -1.4670  -1.4105  -1.1948  -1.1740
    -1.0337  -0.9251  -0.8966  -0.8269  -0.7178  -0.7112  -0.6829  -0.6349
    -0.6161  -0.5351  -0.4426  -0.3358  -0.3133  -0.2865  -0.2562  -0.2273
    -0.1819  -0.0866  -0.0341  -0.0169   0.0214   0.0824   0.1540   0.3724
     0.4801   0.5022   0.7549   0.9879   1.2426   1.7028   2.1333   2.4654
     2.4882   2.7550   3.8280   3.8912   4.0387   5.4853   5.8257   6.1959
     6.3807   6.7992   6.8386   6.9139   7.0626   7.2073   7.5240   7.5441
     7.5824   7.7121   7.9215   8.1859   8.2724   8.6000   8.6041   8.7320
     8.8721   9.1192   9.1898

     the Fermi energy is     1.2819 ev

!    total energy              =   -2296.33631409 Ry
     Harris-Foulkes estimate   =   -2296.33634715 Ry
     estimated scf accuracy    <       0.00000055 Ry

     The total energy is the sum of the following terms:

     one-electron contribution =  -17266.69058251 Ry
     hartree contribution      =    8690.16806322 Ry
     xc contribution           =    -489.21066428 Ry
     ewald contribution        =    6769.43619276 Ry
     electric field correction =       0.00000322 Ry
     smearing contrib. (-TS)   =      -0.03932650 Ry

     convergence has been achieved in  16 iterations

 BEEF-vdW xc energy contributions
           1 :   -430.127849676731
           2 :    395.885438101669
           3 :   -336.750564400733
           4 :    267.513472141760
           5 :   -202.825591713779
           6 :    152.478827896787
           7 :   -119.279860764498
           8 :    99.9327255223914
           9 :   -88.0696864125196
          10 :    77.7731825012286
          11 :   -65.9837697641678
          12 :    52.9552315038068
          13 :   -40.9910279596347
          14 :    32.4691392106198
          15 :   -28.3140768228395
          16 :    27.6063264836405
          17 :   -28.2969686738291
          18 :    28.4203849176254
          19 :   -27.0539375875719
          20 :    24.5418095765996
          21 :   -21.9897450380880
          22 :    20.4365518551156
          23 :   -20.2233682181220
          24 :    20.8784658895312
          25 :   -21.4965226637690
          26 :    21.3165054497687
          27 :   -20.1387747197031
          28 :    18.3620741308905
          29 :   -16.6703974445467
          30 :    15.5967406904423
          31 :   -38.7592326571104
          32 :   -28.5941475041376

     Forces acting on atoms (Ry/au):

     negative rho (up, down):  7.502E-01 0.000E+00
     atom    1 type  1   force =    -0.00000031   -0.00608908    0.00899879
     atom    2 type  1   force =    -0.00527338    0.00304204    0.00899949
     atom    3 type  1   force =     0.00527404    0.00304404    0.00899992
     atom    4 type  2   force =    -0.00000630    0.00000837   -0.01522297
     atom    5 type  1   force =    -0.00000030    0.00605250   -0.00210482
     atom    6 type  1   force =     0.00524279   -0.00302754   -0.00210424
     atom    7 type  1   force =    -0.00524381   -0.00302781   -0.00210379
     atom    8 type  2   force =     0.00000123   -0.00000189   -0.00729332
     atom    9 type  1   force =     0.00000114    0.00000880    0.00042915
     atom   10 type  1   force =     0.00000728   -0.00000330    0.00042911
     atom   11 type  1   force =    -0.00000807   -0.00000586    0.00042934
     atom   12 type  2   force =     0.00000568   -0.00000028    0.00054336

     Total force =     0.027626     Total SCF correction =     0.003740
     SCF correction compared to forces is large: reduce conv_thr to get better values

     entering subroutine stress ...

     negative rho (up, down):  7.502E-01 0.000E+00
          total   stress  (Ry/bohr**3)                   (kbar)     P=   -9.22
  -0.00008438  -0.00000000   0.00000000        -12.41     -0.00      0.00
  -0.00000000  -0.00008437   0.00000000         -0.00    -12.41      0.00
   0.00000000   0.00000000  -0.00001937          0.00      0.00     -2.85

 !ASE

     Writing output data file calc.save

     General routines

     Parallel routines

   This run was terminated on:  15:17:48  31Dec2018

   JOB DONE.
Job  /afs/slac/g/suncat/bin/suncat-tsmpirun -x LD_LIBRARY_PATH -wdir /scratch/qe648784_XN20X pw.x -in pw.inp

TID   HOST_NAME   COMMAND_LINE            STATUS            TERMINATION_TIME
00000 suncat0169 pw.x -in pw.inp   Done                     12/31/2018 15:17:48
00001 suncat0169 pw.x -in pw.inp   Done                     12/31/2018 15:17:48
00002 suncat0169 pw.x -in pw.inp   Done                     12/31/2018 15:17:48
00003 suncat0169 pw.x -in pw.inp   Done                     12/31/2018 15:17:48
00004 suncat0169 pw.x -in pw.inp   Done                     12/31/2018 15:17:48
00005 suncat0169 pw.x -in pw.inp   Done                     12/31/2018 15:17:48
00006 suncat0169 pw.x -in pw.inp   Done                     12/31/2018 15:17:48
00007 suncat0169 pw.x -in pw.inp   Done                     12/31/2018 15:17:48
00008 suncat0168 pw.x -in pw.inp   Done                     12/31/2018 15:17:48
00009 suncat0168 pw.x -in pw.inp   Done                     12/31/2018 15:17:48
00010 suncat0168 pw.x -in pw.inp   Done                     12/31/2018 15:17:48
00011 suncat0168 pw.x -in pw.inp   Done                     12/31/2018 15:17:48
00012 suncat0168 pw.x -in pw.inp   Done                     12/31/2018 15:17:48
00013 suncat0168 pw.x -in pw.inp   Done                     12/31/2018 15:17:48
00014 suncat0168 pw.x -in pw.inp   Done                     12/31/2018 15:17:48
00015 suncat0168 pw.x -in pw.inp   Done                     12/31/2018 15:17:48
00016 suncat0161 pw.x -in pw.inp   Done                     12/31/2018 15:17:48
00017 suncat0161 pw.x -in pw.inp   Done                     12/31/2018 15:17:48
00018 suncat0161 pw.x -in pw.inp   Done                     12/31/2018 15:17:48
00019 suncat0161 pw.x -in pw.inp   Done                     12/31/2018 15:17:48
00020 suncat0161 pw.x -in pw.inp   Done                     12/31/2018 15:17:48
00021 suncat0161 pw.x -in pw.inp   Done                     12/31/2018 15:17:48
00022 suncat0161 pw.x -in pw.inp   Done                     12/31/2018 15:17:48
00023 suncat0161 pw.x -in pw.inp   Done                     12/31/2018 15:17:48
00024 suncat0137 pw.x -in pw.inp   Done                     12/31/2018 15:17:48
00025 suncat0137 pw.x -in pw.inp   Done                     12/31/2018 15:17:48
00026 suncat0137 pw.x -in pw.inp   Done                     12/31/2018 15:17:48
00027 suncat0137 pw.x -in pw.inp   Done                     12/31/2018 15:17:48
00028 suncat0137 pw.x -in pw.inp   Done                     12/31/2018 15:17:48
00029 suncat0137 pw.x -in pw.inp   Done                     12/31/2018 15:17:48
00030 suncat0137 pw.x -in pw.inp   Done                     12/31/2018 15:17:48
00031 suncat0137 pw.x -in pw.inp   Done                     12/31/2018 15:17:48
00032 suncat0117 pw.x -in pw.inp   Done                     12/31/2018 15:17:48
00033 suncat0117 pw.x -in pw.inp   Done                     12/31/2018 15:17:48
00034 suncat0117 pw.x -in pw.inp   Done                     12/31/2018 15:17:48
00035 suncat0117 pw.x -in pw.inp   Done                     12/31/2018 15:17:48
00036 suncat0117 pw.x -in pw.inp   Done                     12/31/2018 15:17:48
00037 suncat0117 pw.x -in pw.inp   Done                     12/31/2018 15:17:48
00038 suncat0117 pw.x -in pw.inp   Done                     12/31/2018 15:17:48
00039 suncat0117 pw.x -in pw.inp   Done                     12/31/2018 15:17:48
00040 suncat0250 pw.x -in pw.inp   Done                     12/31/2018 15:17:48
00041 suncat0250 pw.x -in pw.inp   Done                     12/31/2018 15:17:48
00042 suncat0250 pw.x -in pw.inp   Done                     12/31/2018 15:17:48
00043 suncat0250 pw.x -in pw.inp   Done                     12/31/2018 15:17:48
00044 suncat0250 pw.x -in pw.inp   Done                     12/31/2018 15:17:48
00045 suncat0250 pw.x -in pw.inp   Done                     12/31/2018 15:17:48
00046 suncat0250 pw.x -in pw.inp   Done                     12/31/2018 15:17:48
00047 suncat0250 pw.x -in pw.inp   Done                     12/31/2018 15:17:48
00048 suncat0249 pw.x -in pw.inp   Done                     12/31/2018 15:17:48
00049 suncat0249 pw.x -in pw.inp   Done                     12/31/2018 15:17:48
00050 suncat0249 pw.x -in pw.inp   Done                     12/31/2018 15:17:48
00051 suncat0249 pw.x -in pw.inp   Done                     12/31/2018 15:17:48
00052 suncat0249 pw.x -in pw.inp   Done                     12/31/2018 15:17:48
00053 suncat0249 pw.x -in pw.inp   Done                     12/31/2018 15:17:48
00054 suncat0249 pw.x -in pw.inp   Done                     12/31/2018 15:17:48
00055 suncat0249 pw.x -in pw.inp   Done                     12/31/2018 15:17:48
00056 suncat0231 pw.x -in pw.inp   Done                     12/31/2018 15:17:48
00057 suncat0231 pw.x -in pw.inp   Done                     12/31/2018 15:17:48
00058 suncat0231 pw.x -in pw.inp   Done                     12/31/2018 15:17:48
00059 suncat0231 pw.x -in pw.inp   Done                     12/31/2018 15:17:48
00060 suncat0231 pw.x -in pw.inp   Done                     12/31/2018 15:17:48
00061 suncat0231 pw.x -in pw.inp   Done                     12/31/2018 15:17:48
00062 suncat0231 pw.x -in pw.inp   Done                     12/31/2018 15:17:48
00063 suncat0231 pw.x -in pw.inp   Done                     12/31/2018 15:17:48