     Program PWSCF v.5.1rc2 (svn rev. 11289) starts on 19Dec2018 at 15: 8: 4

     Current dimensions of program PWSCF are:
     Max number of different atomic species (ntypx) = 10
     Max number of k-points (npk) =  40000
     Max angular momentum in pseudopotentials (lmaxx) =  3
     Presently stress not available with electric field

     IMPORTANT: XC functional enforced from input :
     Exchange-correlation      = BEEF-VDW ( 1  4 27 13 2)
     Any further DFT definition will be discarded
     Please, verify this is what you really want

     Subspace diagonalization in iterative solution of the eigenvalue problem:
     a serial algorithm will be used

     bravais-lattice index     =            0
     lattice parameter (alat)  =       1.8897  a.u.
     unit-cell volume          =    4939.1463 (a.u.)^3
     number of atoms/cell      =           12
     number of atomic types    =            2
     number of electrons       =       180.00
     number of Kohn-Sham states=          120
     kinetic-energy cutoff     =      36.7493  Ry
     charge density cutoff     =     367.4932  Ry
     convergence threshold     =      1.0E-06
     mixing beta               =       0.1000
     number of iterations used =           10  plain     mixing
     Exchange-correlation      = BEEF-VDW ( 1  4 27 13 2)
     nstep                     =           50

     celldm(1)=   1.889726  celldm(2)=   0.000000  celldm(3)=   0.000000
     celldm(4)=   0.000000  celldm(5)=   0.000000  celldm(6)=   0.000000

     crystal axes: (cart. coord. in units of alat)
               a(1) = (   5.841239   0.000000   0.000000 )
               a(2) = (  -2.920620   5.058662   0.000000 )
               a(3) = (   0.000000   0.000000  24.769352 )

     reciprocal axes: (cart. coord. in units 2 pi/alat)
               b(1) = (  0.171197  0.098840  0.000000 )
               b(2) = (  0.000000  0.197681  0.000000 )
               b(3) = (  0.000000  0.000000  0.040372 )

     PseudoPot. # 1 for Ag read from file:
     /afs/slac.stanford.edu/u/if/mamunm/psp/gbrv1.5pbe/Ag.UPF
     MD5 check sum: d66d668201baa78d5eb5b04ef7011058
     Pseudo is Ultrasoft + core correction, Zval = 19.0
     Generated by new atomic code, or converted to UPF format
     Using radial grid of  887 points,  6 beta functions with:
                l(1) =   0
                l(2) =   0
                l(3) =   1
                l(4) =   1
                l(5) =   2
                l(6) =   2
     Q(r) pseudized with  6 coefficients,  rinner =    1.300   1.300   1.300
                                                       1.300   1.300

     PseudoPot. # 2 for Al read from file:
     /afs/slac.stanford.edu/u/if/mamunm/psp/gbrv1.5pbe/Al.UPF
     MD5 check sum: 0a6289f5291fc8f409219462bc851e1f
     Pseudo is Ultrasoft + core correction, Zval =  3.0
     Generated by new atomic code, or converted to UPF format
     Using radial grid of  893 points,  3 beta functions with:
                l(1) =   0
                l(2) =   1
                l(3) =   2
     Q(r) pseudized with  8 coefficients,  rinner =    0.900   0.900   0.900
                                                       0.900   0.900

     vdW kernel table read from file vdW_kernel_table
     MD5 check sum: 095c7af220d748ca6e76c0b4c6cfb241

     atomic species   valence    mass     pseudopotential
        Ag1           19.00   107.86820     Ag( 1.00)
        Al1            3.00    26.98154     Al( 1.00)

     No symmetry found

   Cartesian axes

     site n.     atom                  positions (alat units)
         1           Ag1 tau(   1) = (   0.0000000   0.0000000  10.0000000  )
         2           Ag1 tau(   2) = (  -1.4603098   2.5293308  10.0000000  )
         3           Ag1 tau(   3) = (   1.4603098   2.5293308  10.0000000  )
         4           Al1 tau(   4) = (   2.9206197   0.0000000  10.0000000  )
         5           Ag1 tau(   5) = (   2.9206197   1.6862206  12.3846760  )
         6           Ag1 tau(   6) = (   1.4603098   4.2155514  12.3846760  )
         7           Ag1 tau(   7) = (  -1.4603098   4.2155514  12.3846760  )
         8           Al1 tau(   8) = (   0.0000000   1.6862206  12.3846760  )
         9           Ag1 tau(   9) = (  -0.0000000   3.3724411  14.7693520  )
        10           Ag1 tau(  10) = (   1.4603098   0.8431103  14.7693520  )
        11           Ag1 tau(  11) = (   4.3809295   0.8431103  14.7693520  )
        12           Al1 tau(  12) = (   2.9206197   3.3724411  14.7693520  )

     number of k points=    20  Fermi-Dirac smearing, width (Ry)=  0.0110
                       cart. coord. in units 2pi/alat
        k(    1) = (   0.0000000   0.0000000   0.0000000), wk =   0.0555556
        k(    2) = (   0.0000000   0.0329468   0.0000000), wk =   0.1111111
        k(    3) = (   0.0000000   0.0658936   0.0000000), wk =   0.1111111
        k(    4) = (   0.0000000  -0.0988404   0.0000000), wk =   0.0555556
        k(    5) = (   0.0285328   0.0164734   0.0000000), wk =   0.1111111
        k(    6) = (   0.0285328   0.0494202   0.0000000), wk =   0.1111111
        k(    7) = (   0.0285328   0.0823670   0.0000000), wk =   0.1111111
        k(    8) = (   0.0285328  -0.0823670   0.0000000), wk =   0.1111111
        k(    9) = (   0.0285328  -0.0494202   0.0000000), wk =   0.1111111
        k(   10) = (   0.0285328  -0.0164734   0.0000000), wk =   0.1111111
        k(   11) = (   0.0570655   0.0329468   0.0000000), wk =   0.1111111
        k(   12) = (   0.0570655   0.0658936   0.0000000), wk =   0.1111111
        k(   13) = (   0.0570655   0.0988404   0.0000000), wk =   0.1111111
        k(   14) = (   0.0570655  -0.0658936   0.0000000), wk =   0.1111111
        k(   15) = (   0.0570655  -0.0329468   0.0000000), wk =   0.1111111
        k(   16) = (   0.0570655   0.0000000   0.0000000), wk =   0.1111111
        k(   17) = (  -0.0855983  -0.0494202   0.0000000), wk =   0.0555556
        k(   18) = (  -0.0855983  -0.0164734   0.0000000), wk =   0.1111111
        k(   19) = (  -0.0855983   0.0164734   0.0000000), wk =   0.1111111
        k(   20) = (  -0.0855983  -0.1482606   0.0000000), wk =   0.0555556

     Largest allocated arrays     est. size (Mb)     dimensions
     Largest temporary arrays     est. size (Mb)     dimensions

     Initial potential from superposition of free atoms
     Check: negative starting charge=   -0.001735

     starting charge  175.49218, renormalised to  180.00000

     negative rho (up, down):  1.780E-03 0.000E+00

     *
     * You are using vdW-DF for exchange-correlation in this calculation.
     * Please cite the following three references that made this development
     * possible:
     *
     *   M. Dion, H. Rydberg, E. Schroder, D. C. Langreth, and
     *   B. I. Lundqvist, Phys. Rev. Lett. 92, 246401 (2004).
     *
     *   T. Thonhauser, V. R. Cooper, S. Li, A. Puzder, P. Hyldgaard, and
     *   D. C. Langreth, Phys. Rev. B 76, 125112 (2007).
     *
     *   G. Roman-Perez and J. M. Soler, Phys. Rev. Lett. 103, 096102 (2009).
     *
     *
     * If you are using vdW-DF2, please also cite:
     *
     *   K. Lee, E. D. Murray, L. Kong, B. I. Lundqvist, and
     *   D. C. Langreth, Phys. Rev. B 82, 081101(R) (2010).
     *
     *
     * If you are calculating the stress with vdW-DF, please also cite:
     *
     *   R. Sabatini, E. Kucukbenli, B. Kolb, T. Thonhauser, and
     *   S. de Gironcoli, J. Phys.: Condens. Matter 24, 424209 (2012).
     *

     Carrying out vdW-DF run using the following parameters:

     Nqs =      20    Nr_points =    1024   r_max =   100.000
     q_mesh =
               0.00001000     0.04494208     0.09755937     0.15916263
               0.23128650     0.31572767     0.41458969     0.53033537
               0.66584808     0.82450364     1.01025438     1.22772762
               1.48234092     1.78043706     2.12944203     2.53805004
               3.01644009     3.57652955     4.23227104     5.00000000

     Gradients computed in reciprocal space

     Adding external electric field

     Computed dipole along edir(3) :
        Dipole               -0.0000 Ry au,         -0.0000 Debye
        Dipole field         -0.0000 Ry au

        Potential amp.        0.0000 Ry
        Total length         45.6371 bohr

     Starting wfc are  129 randomized atomic wfcs

     Self-consistent Calculation

     iteration #  1     ecut=    36.75 Ry     beta=0.10
     Davidson diagonalization with overlap
     ethr =  1.00E-02,  avg # of iterations =  6.8

[...]

     total energy              =   -2690.87920982 Ry
     Harris-Foulkes estimate   =   -2693.51817518 Ry
     estimated scf accuracy    <      15.64562098 Ry

[...]

     End of self-consistent calculation

          k = 0.0000 0.0000 0.0000 ( 18679 PWs)   bands (ev):

   -91.7315 -91.7243 -91.7243 -91.3565 -91.3565 -91.3494 -91.3494 -91.3493
   -91.3493 -55.2780 -55.2544 -55.2544 -55.2189 -55.2189 -55.2086 -55.2052
   -55.1587 -55.1587 -54.8976 -54.8973 -54.8882 -54.8882 -54.8867 -54.8867
   -54.8456 -54.8452 -54.8202 -54.8202 -54.8194 -54.8192 -54.8192 -54.8156
   -54.7956 -54.7956 -54.7946 -54.7946  -7.3221  -6.1845  -5.9795  -5.5344
    -5.2570  -5.0872  -5.0872  -5.0778  -4.9285  -4.8536  -4.8536  -4.8278
    -4.8278  -4.5503  -4.5503  -4.4422  -4.2161  -4.2161  -4.0350  -4.0350
    -4.0264  -3.8971  -3.7431  -3.7181  -3.7181  -3.6347  -3.5455  -3.5455
    -3.4758  -3.4758  -3.2781  -3.2781  -3.1994  -3.1560  -3.1560  -3.0175
    -3.0175  -3.0000  -3.0000  -2.8603  -2.8603  -2.7590  -2.6180  -2.5498
    -2.5498  -2.2989  -2.2818  -1.5547  -0.4871  -0.4871  -0.1957   0.1981
     0.3490   0.4419   0.4419   0.8276   0.8276   1.3529   2.3065   3.3300
     3.3594   3.3594   3.6515   4.3127   4.5925   4.5925   4.7338   5.1532
     5.1985   5.1985   6.0668   6.1650   6.6865   6.8950   7.4134   7.4134
     7.4827   7.4827   7.9621   8.2654   8.8297   8.8297   9.4074   9.4079

[...]

          k =-0.0856-0.0494 0.0000 ( 18584 PWs)   bands (ev):

[...]

     the Fermi energy is     0.8314 ev

!    total energy              =   -2690.45036855 Ry
     Harris-Foulkes estimate   =   -2690.45037228 Ry
     estimated scf accuracy    <       0.00000094 Ry

     The total energy is the sum of the following terms:

     one-electron contribution =  -17219.05454233 Ry
     hartree contribution      =    8599.80507420 Ry
     xc contribution           =    -283.80686278 Ry
     ewald contribution        =    6212.63408086 Ry
     electric field correction =       0.00000000 Ry
     smearing contrib. (-TS)   =      -0.02811851 Ry

     convergence has been achieved in  14 iterations

 BEEF-vdW xc energy contributions
           1 :   -245.422314492200
           2 :    221.984051402546
           3 :   -182.916290507745
           4 :    140.041789389097
           5 :   -104.031430919439
           6 :    80.5553990446031
           7 :   -69.3325162906330
           8 :    65.9253291906180
           9 :   -64.8497161771093
          10 :    62.2385213396687
          11 :   -56.9548839882339
          12 :    50.0812926787622
          13 :   -43.5229638752260
          14 :    38.6677678003288
          15 :   -35.7475944322416
[...]
     /afs/slac.stanford.edu/u/if/mamunm/psp/gbrv1.5pbe/Ag.UPF
     MD5 check sum: d66d668201baa78d5eb5b04ef7011058
     Pseudo is Ultrasoft + core correction, Zval = 19.0
     Generated by new atomic code, or converted to UPF format
     Using radial grid of  887 points,  6 beta functions with:
                l(1) =   0
                l(2) =   0
                l(3) =   1
                l(4) =   1
                l(5) =   2
                l(6) =   2
     Q(r) pseudized with  6 coefficients,  rinner =    1.300   1.300   1.300
                                                       1.300   1.300

     PseudoPot. # 2 for Al read from file:
     /afs/slac.stanford.edu/u/if/mamunm/psp/gbrv1.5pbe/Al.UPF
     MD5 check sum: 0a6289f5291fc8f409219462bc851e1f
     Pseudo is Ultrasoft + core correction, Zval =  3.0
     Generated by new atomic code, or converted to UPF format
     Using radial grid of  893 points,  3 beta functions with:
                l(1) =   0
                l(2) =   1
                l(3) =   2
     Q(r) pseudized with  8 coefficients,  rinner =    0.900   0.900   0.900
                                                       0.900   0.900

     vdW kernel table read from file vdW_kernel_table
     MD5 check sum: 095c7af220d748ca6e76c0b4c6cfb241

     atomic species   valence    mass     pseudopotential
        Ag1           19.00   107.86820     Ag( 1.00)
        Al1            3.00    26.98154     Al( 1.00)

     No symmetry found

   Cartesian axes

     site n.     atom                  positions (alat units)
         1           Ag1 tau(   1) = (   0.0000000   0.0000000  10.0000000  )
         2           Ag1 tau(   2) = (  -1.4603098   2.5293308  10.0000000  )
         3           Ag1 tau(   3) = (   1.4603098   2.5293308  10.0000000  )
         4           Al1 tau(   4) = (   2.9206197   0.0000000  10.0000000  )
         5           Ag1 tau(   5) = (   2.9206197   1.6862206  12.3846760  )
         6           Ag1 tau(   6) = (   1.4603098   4.2155514  12.3846760  )
         7           Ag1 tau(   7) = (  -1.4603098   4.2155514  12.3846760  )
         8           Al1 tau(   8) = (   0.0000000   1.6862206  12.3846760  )
         9           Ag1 tau(   9) = (  -0.0000003   3.3558746  14.8510463  )
        10           Ag1 tau(  10) = (   1.4459631   0.8513927  14.8510490  )
        11           Ag1 tau(  11) = (   4.3952766   0.8513925  14.8510498  )
        12           Al1 tau(  12) = (   2.9206193   3.3724408  14.7429767  )

     number of k points=    20  Fermi-Dirac smearing, width (Ry)=  0.0110
                       cart. coord. in units 2pi/alat
        k(    1) = (   0.0000000   0.0000000   0.0000000), wk =   0.0555556
        k(    2) = (   0.0000000   0.0329468   0.0000000), wk =   0.1111111
        k(    3) = (   0.0000000   0.0658936   0.0000000), wk =   0.1111111
        k(    4) = (   0.0000000  -0.0988404   0.0000000), wk =   0.0555556
        k(    5) = (   0.0285328   0.0164734   0.0000000), wk =   0.1111111
        k(    6) = (   0.0285328   0.0494202   0.0000000), wk =   0.1111111
        k(    7) = (   0.0285328   0.0823670   0.0000000), wk =   0.1111111
        k(    8) = (   0.0285328  -0.0823670   0.0000000), wk =   0.1111111
        k(    9) = (   0.0285328  -0.0494202   0.0000000), wk =   0.1111111
        k(   10) = (   0.0285328  -0.0164734   0.0000000), wk =   0.1111111
        k(   11) = (   0.0570655   0.0329468   0.0000000), wk =   0.1111111
        k(   12) = (   0.0570655   0.0658936   0.0000000), wk =   0.1111111
        k(   13) = (   0.0570655   0.0988404   0.0000000), wk =   0.1111111
        k(   14) = (   0.0570655  -0.0658936   0.0000000), wk =   0.1111111
        k(   15) = (   0.0570655  -0.0329468   0.0000000), wk =   0.1111111
        k(   16) = (   0.0570655   0.0000000   0.0000000), wk =   0.1111111
        k(   17) = (  -0.0855983  -0.0494202   0.0000000), wk =   0.0555556
        k(   18) = (  -0.0855983  -0.0164734   0.0000000), wk =   0.1111111
        k(   19) = (  -0.0855983   0.0164734   0.0000000), wk =   0.1111111
        k(   20) = (  -0.0855983  -0.1482606   0.0000000), wk =   0.0555556

     Largest allocated arrays     est. size (Mb)     dimensions
     Largest temporary arrays     est. size (Mb)     dimensions

     Initial potential from superposition of free atoms
     Check: negative starting charge=   -0.001780

     starting charge  175.49218, renormalised to  180.00000

[...]

     *
     * You are using vdW-DF for exchange-correlation in this calculation.
     * Please cite the following three references that made this development
     * possible:
     *
     *   M. Dion, H. Rydberg, E. Schroder, D. C. Langreth, and
     *   B. I. Lundqvist, Phys. Rev. Lett. 92, 246401 (2004).
     *
     *   T. Thonhauser, V. R. Cooper, S. Li, A. Puzder, P. Hyldgaard, and
     *   D. C. Langreth, Phys. Rev. B 76, 125112 (2007).
     *
     *   G. Roman-Perez and J. M. Soler, Phys. Rev. Lett. 103, 096102 (2009).
     *
     *
     * If you are using vdW-DF2, please also cite:
     *
     *   K. Lee, E. D. Murray, L. Kong, B. I. Lundqvist, and
     *   D. C. Langreth, Phys. Rev. B 82, 081101(R) (2010).
     *
     *
     * If you are calculating the stress with vdW-DF, please also cite:
     *
     *   R. Sabatini, E. Kucukbenli, B. Kolb, T. Thonhauser, and
     *   S. de Gironcoli, J. Phys.: Condens. Matter 24, 424209 (2012).
     *

     Carrying out vdW-DF run using the following parameters:

     Nqs =      20    Nr_points =    1024   r_max =   100.000
     q_mesh =
               0.00001000     0.04494208     0.09755937     0.15916263
               0.23128650     0.31572767     0.41458969     0.53033537
               0.66584808     0.82450364     1.01025438     1.22772762
               1.48234092     1.78043706     2.12944203     2.53805004
               3.01644009     3.57652955     4.23227104     5.00000000

     Gradients computed in reciprocal space

[...]

     Starting wfc are  129 randomized atomic wfcs

     Self-consistent Calculation

[...]

     total energy              =   -2690.45314325 Ry
     Harris-Foulkes estimate   =   -2690.45314498 Ry
     estimated scf accuracy    <       0.00000911 Ry

     iteration # 14     ecut=    36.75 Ry     beta=0.10
     Davidson diagonalization with overlap
     ethr =  5.06E-09,  avg # of iterations =  2.0

[...]

     negative rho (up, down):  1.850E-03 0.000E+00

     Adding external electric field

     Computed dipole along edir(3) :
        Dipole               -0.0058 Ry au,         -0.0147 Debye
        Dipole field         -0.0000 Ry au

        Potential amp.        0.0013 Ry
        Total length         45.6371 bohr

     End of self-consistent calculation

[...]

          k = 0.0571 0.0000 0.0000 ( 18555 PWs)   bands (ev):

[...]

          k =-0.0856-0.1483 0.0000 ( 18584 PWs)   bands (ev):

   -91.7229 -91.7205 -91.7181 -91.3604 -91.3580 -91.3556 -91.2985 -91.2959
   -91.2936 -55.2576 -55.2318 -55.2310 -55.2254 -55.2251 -55.2089 -55.1830
   -55.1714 -55.1512 -54.8959 -54.8740 -54.8674 -54.8673 -54.8522 -54.8371
   -54.8281 -54.8197 -54.8169 -54.8149 -54.8083 -54.8079 -54.8037 -54.7881
   -54.7625 -54.7542 -54.7496 -54.7415  -6.1626  -5.9524  -5.3904  -5.2087
    -4.9814  -4.9090  -4.8677  -4.7984  -4.6108  -4.5701  -4.5102  -4.5005
    -4.4563  -4.4418  -4.4389  -4.3475  -4.3175  -4.2901  -4.0616  -3.9685
    -3.9084  -3.8481  -3.8271  -3.7315  -3.7183  -3.6467  -3.6444  -3.6216
    -3.5890  -3.5798  -3.5512  -3.5124  -3.4959  -3.4605  -3.4521  -3.3953
    -3.3830  -3.3497  -3.2749  -3.2334  -3.1345  -3.0821  -3.0426  -2.9434
    -2.8560  -2.7821  -2.6345  -2.5063  -2.3415  -1.3881  -0.4405  -0.4338
    -0.2124   0.5236   0.5906   1.8534   2.4207   2.4674   2.7783   4.4006
     4.5299   5.1751   5.1991   5.1995   5.3830   5.4590   5.7830   6.0113
     6.0922   6.1828   6.4725   6.5737   6.5932   6.7485   6.7966   7.3804
     7.5005   7.5356   7.5448   7.6783   7.6924   7.9621   8.2520   8.4607

     the Fermi energy is     0.8229 ev

!    total energy              =   -2690.45314191 Ry
     Harris-Foulkes estimate   =   -2690.45314492 Ry
     estimated scf accuracy    <       0.00000034 Ry

     The total energy is the sum of the following terms:

     one-electron contribution =  -17045.50821131 Ry
     hartree contribution      =    8513.10930508 Ry
     xc contribution           =    -283.77232552 Ry
     ewald contribution        =    6125.74660189 Ry
     electric field correction =       0.00000009 Ry
     smearing contrib. (-TS)   =      -0.02851214 Ry

     convergence has been achieved in  14 iterations

 BEEF-vdW xc energy contributions
           1 :   -245.406887721374
           2 :    221.933130212535
           3 :   -182.826501358013
           4 :    139.947065596693
           5 :   -103.978594122352
           6 :    80.5695799028727
           7 :   -69.3979657232796
           8 :    65.9947928056143
           9 :   -64.8747854242435
          10 :    62.2005794082853
          11 :   -56.8761144128199
          12 :    50.0085108363207
          13 :   -43.4960090075108
          14 :    38.6937262641113
          15 :   -35.7979846926013
          16 :    34.0487367219239
          17 :   -32.4221493452652
          18 :    30.3085887602453
          19 :   -27.7871637068825
          20 :    25.3993652562725
          21 :   -23.6470939213396
          22 :    22.5907498924739
          23 :   -21.8252093244718
          24 :    20.8194264879886
          25 :   -19.3422050374501
          26 :    17.6410892268084
          27 :   -16.2456493320098
          28 :    15.5579200066536
          29 :   -15.5515582155073
          30 :    15.7984757678898
          31 :   -24.9811133441788
          32 :   -18.2226609717128

     Forces acting on atoms (Ry/au):

     negative rho (up, down):  1.850E-03 0.000E+00
     atom    1 type  1   force =     0.00000001    0.00527738   -0.00778612
     atom    2 type  1   force =     0.00457035   -0.00263861   -0.00778632
     atom    3 type  1   force =    -0.00457030   -0.00263864   -0.00778611
     atom    4 type  2   force =    -0.00000000   -0.00000000    0.00295276
     atom    5 type  1   force =    -0.00000007   -0.00239753    0.00559369
     atom    6 type  1   force =    -0.00207615    0.00119890    0.00559359
     atom    7 type  1   force =     0.00207618    0.00119872    0.00559359
     atom    8 type  2   force =     0.00000001   -0.00000004    0.00324966
     atom    9 type  1   force =    -0.00000010    0.00179548   -0.00001711
     atom   10 type  1   force =     0.00155503   -0.00089778   -0.00001702
     atom   11 type  1   force =    -0.00155500   -0.00089782   -0.00001719
     atom   12 type  2   force =     0.00000004   -0.00000004    0.00042658

     Total force =     0.020141     Total SCF correction =     0.002035
     SCF correction compared to forces is large: reduce conv_thr to get better values

     entering subroutine stress ...

     negative rho (up, down):  1.850E-03 0.000E+00
          total   stress  (Ry/bohr**3)                   (kbar)     P=   -7.72
  -0.00008043  -0.00000000  -0.00000000        -11.83     -0.00     -0.00
  -0.00000000  -0.00008043   0.00000000         -0.00    -11.83      0.00
  -0.00000000   0.00000000   0.00000350         -0.00      0.00      0.52

 !ASE

     Writing output data file calc.save

     General routines

     Parallel routines

   This run was terminated on:  16:10:47  19Dec2018

   JOB DONE.
Job  /afs/slac/g/suncat/bin/suncat-tsmpirun -x LD_LIBRARY_PATH -wdir /scratch/qe773144_WOshR pw.x -in pw.inp

TID   HOST_NAME   COMMAND_LINE            STATUS            TERMINATION_TIME
00000 suncat0218 pw.x -in pw.inp   Done                     12/19/2018 16:10:47
00001 suncat0218 pw.x -in pw.inp   Done                     12/19/2018 16:10:47
00002 suncat0218 pw.x -in pw.inp   Done                     12/19/2018 16:10:47
00003 suncat0218 pw.x -in pw.inp   Done                     12/19/2018 16:10:47
00004 suncat0218 pw.x -in pw.inp   Done                     12/19/2018 16:10:47
00005 suncat0218 pw.x -in pw.inp   Done                     12/19/2018 16:10:47
00006 suncat0218 pw.x -in pw.inp   Done                     12/19/2018 16:10:47
00007 suncat0218 pw.x -in pw.inp   Done                     12/19/2018 16:10:47
00008 suncat0212 pw.x -in pw.inp   Done                     12/19/2018 16:10:47
00009 suncat0212 pw.x -in pw.inp   Done                     12/19/2018 16:10:47
00010 suncat0212 pw.x -in pw.inp   Done                     12/19/2018 16:10:47
00011 suncat0212 pw.x -in pw.inp   Done                     12/19/2018 16:10:47
00012 suncat0212 pw.x -in pw.inp   Done                     12/19/2018 16:10:47
00013 suncat0212 pw.x -in pw.inp   Done                     12/19/2018 16:10:47
00014 suncat0212 pw.x -in pw.inp   Done                     12/19/2018 16:10:47
00015 suncat0212 pw.x -in pw.inp   Done                     12/19/2018 16:10:47
00016 suncat0211 pw.x -in pw.inp   Done                     12/19/2018 16:10:47
00017 suncat0211 pw.x -in pw.inp   Done                     12/19/2018 16:10:47
00018 suncat0211 pw.x -in pw.inp   Done                     12/19/2018 16:10:47
00019 suncat0211 pw.x -in pw.inp   Done                     12/19/2018 16:10:47
00020 suncat0211 pw.x -in pw.inp   Done                     12/19/2018 16:10:47
00021 suncat0211 pw.x -in pw.inp   Done                     12/19/2018 16:10:47
00022 suncat0211 pw.x -in pw.inp   Done                     12/19/2018 16:10:47
00023 suncat0211 pw.x -in pw.inp   Done                     12/19/2018 16:10:47
00024 suncat0208 pw.x -in pw.inp   Done                     12/19/2018 16:10:47
00025 suncat0208 pw.x -in pw.inp   Done                     12/19/2018 16:10:47
00026 suncat0208 pw.x -in pw.inp   Done                     12/19/2018 16:10:47
00027 suncat0208 pw.x -in pw.inp   Done                     12/19/2018 16:10:47
00028 suncat0208 pw.x -in pw.inp   Done                     12/19/2018 16:10:47
00029 suncat0208 pw.x -in pw.inp   Done                     12/19/2018 16:10:47
00030 suncat0208 pw.x -in pw.inp   Done                     12/19/2018 16:10:47
00031 suncat0208 pw.x -in pw.inp   Done                     12/19/2018 16:10:47
00032 suncat0207 pw.x -in pw.inp   Done                     12/19/2018 16:10:47
00033 suncat0207 pw.x -in pw.inp   Done                     12/19/2018 16:10:47
00034 suncat0207 pw.x -in pw.inp   Done                     12/19/2018 16:10:47
00035 suncat0207 pw.x -in pw.inp   Done                     12/19/2018 16:10:47
00036 suncat0207 pw.x -in pw.inp   Done                     12/19/2018 16:10:47
00037 suncat0207 pw.x -in pw.inp   Done                     12/19/2018 16:10:47
00038 suncat0207 pw.x -in pw.inp   Done                     12/19/2018 16:10:47
00039 suncat0207 pw.x -in pw.inp   Done                     12/19/2018 16:10:47
00040 suncat0206 pw.x -in pw.inp   Done                     12/19/2018 16:10:47
00041 suncat0206 pw.x -in pw.inp   Done                     12/19/2018 16:10:47
00042 suncat0206 pw.x -in pw.inp   Done                     12/19/2018 16:10:47
00043 suncat0206 pw.x -in pw.inp   Done                     12/19/2018 16:10:47
00044 suncat0206 pw.x -in pw.inp   Done                     12/19/2018 16:10:47
00045 suncat0206 pw.x -in pw.inp   Done                     12/19/2018 16:10:47
00046 suncat0206 pw.x -in pw.inp   Done                     12/19/2018 16:10:47
00047 suncat0206 pw.x -in pw.inp   Done                     12/19/2018 16:10:47
00048 suncat0205 pw.x -in pw.inp   Done                     12/19/2018 16:10:47
00049 suncat0205 pw.x -in pw.inp   Done                     12/19/2018 16:10:47
00050 suncat0205 pw.x -in pw.inp   Done                     12/19/2018 16:10:47
00051 suncat0205 pw.x -in pw.inp   Done                     12/19/2018 16:10:47
00052 suncat0205 pw.x -in pw.inp   Done                     12/19/2018 16:10:47
00053 suncat0205 pw.x -in pw.inp   Done                     12/19/2018 16:10:47
00054 suncat0205 pw.x -in pw.inp   Done                     12/19/2018 16:10:47
00055 suncat0205 pw.x -in pw.inp   Done                     12/19/2018 16:10:47
00056 suncat0204 pw.x -in pw.inp   Done                     12/19/2018 16:10:47
00057 suncat0204 pw.x -in pw.inp   Done                     12/19/2018 16:10:47
00058 suncat0204 pw.x -in pw.inp   Done                     12/19/2018 16:10:47
00059 suncat0204 pw.x -in pw.inp   Done                     12/19/2018 16:10:47
00060 suncat0204 pw.x -in pw.inp   Done                     12/19/2018 16:10:47
00061 suncat0204 pw.x -in pw.inp   Done                     12/19/2018 16:10:47
00062 suncat0204 pw.x -in pw.inp   Done                     12/19/2018 16:10:47
00063 suncat0204 pw.x -in pw.inp   Done                     12/19/2018 16:10:47