     Program PWSCF v.5.1rc2 (svn rev. 11289) starts on 28Dec2018 at  0:29: 4

     Current dimensions of program PWSCF are:
     Max number of different atomic species (ntypx) = 10
     Max number of k-points (npk) =  40000
     Max angular momentum in pseudopotentials (lmaxx) =  3
     Presently stress not available with electric field

     IMPORTANT: XC functional enforced from input :
     Exchange-correlation      = BEEF-VDW ( 1  4 27 13 2)
     Any further DFT definition will be discarded
     Please, verify this is what you really want

     Subspace diagonalization in iterative solution of the eigenvalue problem:
     a serial algorithm will be used

     bravais-lattice index     =            0
     lattice parameter (alat)  =       1.8897  a.u.
     unit-cell volume          =    5244.4470 (a.u.)^3
     number of atoms/cell      =           12
     number of atomic types    =            2
     number of electrons       =       156.00
     number of Kohn-Sham states=          108
     kinetic-energy cutoff     =      36.7493  Ry
     charge density cutoff     =     367.4932  Ry
     convergence threshold     =      1.0E-06
     mixing beta               =       0.1000
     number of iterations used =           10  plain     mixing
     Exchange-correlation      = BEEF-VDW ( 1  4 27 13 2)
     nstep                     =           50

     celldm(1)=   1.889726  celldm(2)=   0.000000  celldm(3)=   0.000000
     celldm(4)=   0.000000  celldm(5)=   0.000000  celldm(6)=   0.000000

     crystal axes: (cart. coord. in units of alat)
               a(1) = (   6.003072   0.000000   0.000000 )
               a(2) = (  -3.001536   5.198813   0.000000 )
               a(3) = (   0.000000   0.000000  24.901488 )

     reciprocal axes: (cart. coord. in units 2 pi/alat)
               b(1) = (  0.166581  0.096176  0.000000 )
               b(2) = (  0.000000  0.192352  0.000000 )
               b(3) = (  0.000000  0.000000  0.040158 )

     PseudoPot. # 1 for Ta read from file:
     /afs/slac.stanford.edu/u/if/mamunm/psp/gbrv1.5pbe/Ta.UPF
     MD5 check sum: f8bbe9446314a3b8ea5d9f3e3836c939
     Pseudo is Ultrasoft + core correction, Zval = 13.0
     Generated by new atomic code, or converted to UPF format
     Using radial grid of  921 points,  7 beta functions with:
                l(1) =   0
                l(2) =   0
                l(3) =   1
                l(4) =   1
                l(5) =   2
                l(6) =   2
                l(7) =   3
     Q(r) pseudized with  6 coefficients,  rinner =    1.300   1.300   1.300
                                                       1.300   1.300   1.300
                                                       1.300

     PseudoPot. # 2 for Tl read from file:
     /afs/slac.stanford.edu/u/if/mamunm/psp/gbrv1.5pbe/Tl.UPF
     MD5 check sum: b76cf1f7e72655a2b2c53cf6385d7059
     Pseudo is Ultrasoft + core correction, Zval = 13.0
     Generated by new atomic code, or converted to UPF format
     Using radial grid of  899 points,  6 beta functions with:
                l(1) =   0
                l(2) =   0
                l(3) =   1
                l(4) =   1
                l(5) =   2
                l(6) =   2
     Q(r) pseudized with  6 coefficients,  rinner =    1.100   1.100   1.100
                                                       1.100   1.100

     vdW kernel table read from file vdW_kernel_table
     MD5 check sum: 095c7af220d748ca6e76c0b4c6cfb241

     atomic species   valence    mass     pseudopotential
        Ta1           13.00   180.94788     Ta( 1.00)
        Tl1           13.00   204.38000     Tl( 1.00)

     No symmetry found

   Cartesian axes

     site n.     atom                  positions (alat units)
         1           Ta1 tau(   1) = (   0.0000000   0.0000000  10.0000000  )
         2           Ta1 tau(   2) = (  -1.5007681   2.5994066  10.0000000  )
         3           Ta1 tau(   3) = (   1.5007681   2.5994066  10.0000000  )
         4           Tl1 tau(   4) = (   3.0015362   0.0000000  10.0000000  )
         5           Ta1 tau(   5) = (   3.0015362   1.7329377  12.4507441  )
         6           Ta1 tau(   6) = (   1.5007681   4.3323444  12.4507441  )
         7           Ta1 tau(   7) = (  -1.5007681   4.3323444  12.4507441  )
         8           Tl1 tau(   8) = (   0.0000000   1.7329377  12.4507441  )
         9           Ta1 tau(   9) = (  -0.0000000   3.4658755  14.9014881  )
        10           Ta1 tau(  10) = (   1.5007681   0.8664689  14.9014881  )
        11           Ta1 tau(  11) = (   4.5023043   0.8664689  14.9014881  )
        12           Tl1 tau(  12) = (   3.0015362   3.4658755  14.9014881  )

     number of k points=    20  Fermi-Dirac smearing, width (Ry)=  0.0110
                       cart. coord. in units 2pi/alat
        k(    1) = (   0.0000000   0.0000000   0.0000000), wk =   0.0555556
        k(    2) = (   0.0000000   0.0320586   0.0000000), wk =   0.1111111
        k(    3) = (   0.0000000   0.0641172   0.0000000), wk =   0.1111111
        k(    4) = (   0.0000000  -0.0961758   0.0000000), wk =   0.0555556
        k(    5) = (   0.0277636   0.0160293   0.0000000), wk =   0.1111111
        k(    6) = (   0.0277636   0.0480879   0.0000000), wk =   0.1111111
        k(    7) = (   0.0277636   0.0801465   0.0000000), wk =   0.1111111
        k(    8) = (   0.0277636  -0.0801465   0.0000000), wk =   0.1111111
        k(    9) = (   0.0277636  -0.0480879   0.0000000), wk =   0.1111111
        k(   10) = (   0.0277636  -0.0160293   0.0000000), wk =   0.1111111
        k(   11) = (   0.0555271   0.0320586   0.0000000), wk =   0.1111111
        k(   12) = (   0.0555271   0.0641172   0.0000000), wk =   0.1111111
        k(   13) = (   0.0555271   0.0961758   0.0000000), wk =   0.1111111
        k(   14) = (   0.0555271  -0.0641172   0.0000000), wk =   0.1111111
        k(   15) = (   0.0555271  -0.0320586   0.0000000), wk =   0.1111111
        k(   16) = (   0.0555271   0.0000000   0.0000000), wk =   0.1111111
        k(   17) = (  -0.0832907  -0.0480879   0.0000000), wk =   0.0555556
        k(   18) = (  -0.0832907  -0.0160293   0.0000000), wk =   0.1111111
        k(   19) = (  -0.0832907   0.0160293   0.0000000), wk =   0.1111111
        k(   20) = (  -0.0832907  -0.1442637   0.0000000), wk =   0.0555556

     Largest allocated arrays     est. size (Mb)     dimensions
     Largest temporary arrays     est. size (Mb)     dimensions

     Initial potential from superposition of free atoms
     Check: negative starting charge=   -0.992858

     starting charge  155.97539, renormalised to  156.00000

     negative rho (up, down):  9.930E-01 0.000E+00

     *
     * You are using vdW-DF for exchange-correlation in this calculation.
     * Please cite the following three references that made this development
     * possible:
     *
     *   M. Dion, H. Rydberg, E. Schroder, D. C. Langreth, and
     *   B. I. Lundqvist, Phys. Rev. Lett. 92, 246401 (2004).
     *
     *   T. Thonhauser, V. R. Cooper, S. Li, A. Puzder, P. Hyldgaard, and
     *   D. C. Langreth, Phys. Rev. B 76, 125112 (2007).
     *
     *   G. Roman-Perez and J. M. Soler, Phys. Rev. Lett. 103, 096102 (2009).
     *
     *
     * If you are using vdW-DF2, please also cite:
     *
     *   K. Lee, E. D. Murray, L. Kong, B. I. Lundqvist, and
     *   D. C. Langreth, Phys. Rev. B 82, 081101(R) (2010).
     *
     *
     * If you are calculating the stress with vdW-DF, please also cite:
     *
     *   R. Sabatini, E. Kucukbenli, B. Kolb, T. Thonhauser, and
     *   S. de Gironcoli, J. Phys.: Condens. Matter 24, 424209 (2012).
     *

     Carrying out vdW-DF run using the following parameters:

     Nqs =      20    Nr_points =    1024   r_max =   100.000
     q_mesh =
               0.00001000     0.04494208     0.09755937     0.15916263
               0.23128650     0.31572767     0.41458969     0.53033537
               0.66584808     0.82450364     1.01025438     1.22772762
               1.48234092     1.78043706     2.12944203     2.53805004
               3.01644009     3.57652955     4.23227104     5.00000000

     Gradients computed in reciprocal space

     Adding external electric field

     Computed dipole along edir(3) :
        Dipole                0.0000 Ry au,          0.0000 Debye
        Dipole field          0.0000 Ry au

        Potential amp.       -0.0000 Ry
        Total length         45.8806 bohr

     Starting wfc are  144 randomized atomic wfcs

     Self-consistent Calculation

     iteration #  1     ecut=    36.75 Ry     beta=0.10
     Davidson diagonalization with overlap
     ethr =  1.00E-02,  avg # of iterations =  2.0

[...]

     total energy              =   -1728.60017877 Ry
     Harris-Foulkes estimate   =   -1729.09288328 Ry
     estimated scf accuracy    <       2.94363363 Ry

[...]

     End of self-consistent calculation

          k = 0.0000 0.0000 0.0000 ( 19543 PWs)   bands (ev):

   -66.6170 -66.6157 -66.5780 -66.5780 -66.5777 -66.5777 -66.3611 -66.3233
   -66.3231 -33.1665 -33.1538 -33.1524 -33.1125 -33.1125 -33.0896 -33.0896
   -33.0702 -33.0701 -33.0331 -33.0294 -32.9769 -32.9768 -32.8259 -32.8258
   -32.8039 -32.7785 -32.5935 -32.5934 -32.5738 -32.5489 -32.5280 -32.5280
   -32.5194 -32.5193 -32.3441 -32.3440 -10.0852 -10.0852 -10.0650  -9.9988
    -9.9987  -9.7218  -9.7217  -9.7123  -9.7123  -9.6939  -9.6569  -9.5833
    -9.5833  -9.5579  -9.5579  -7.4475  -5.8734  -5.5315  -2.4930  -2.3376
    -2.0251  -1.0466  -1.0466  -0.5731  -0.5731  -0.3882  -0.3881  -0.3111
    -0.3008   0.0796   0.0796   0.5775   0.5775   1.0227   1.0745   1.4642
     1.6145   1.6145   1.7893   1.7893   1.9504   1.9504   1.9837   1.9837
     2.1532   2.4509   2.4628   3.1628   3.8437   4.0148   4.0148   4.0272
     4.2564   4.2564   4.4453   4.4453   4.6607   4.6715   4.6715   4.7547
     4.7548   5.0934   5.0934   5.4129   5.4129   5.4152   5.4849   5.5464
     5.5465   5.7651   5.9747   6.1658

[...]

          k =-0.0833-0.0481 0.0000 ( 19740 PWs)   bands (ev):

[...]

     the Fermi energy is     1.8929 ev

!    total energy              =   -1728.82348619 Ry
     Harris-Foulkes estimate   =   -1728.82353355 Ry
     estimated scf accuracy    <       0.00000036 Ry

     The total energy is the sum of the following terms:

     one-electron contribution =  -11176.30319213 Ry
     hartree contribution      =    5595.99526449 Ry
     xc contribution           =    -584.28645802 Ry
     ewald contribution        =    4435.86185032 Ry
     electric field correction =       0.00000000 Ry
     smearing contrib. (-TS)   =      -0.09095084 Ry

     convergence has been achieved in  15 iterations

 BEEF-vdW xc energy contributions
           1 :   -516.312651007450
           2 :    478.024498258107
           3 :   -410.735465138262
           4 :    329.393711652743
           5 :   -249.322342098292
           6 :    181.577053224840
           7 :   -130.689254272174
           8 :    95.2445135021084
           9 :   -70.4895787751900
          10 :    51.4123434518719
          11 :   -34.8711491087965
          12 :    20.1055550692901
          13 :   -7.90172098824701
          14 :  -0.754443485237061
[...]
     /afs/slac.stanford.edu/u/if/mamunm/psp/gbrv1.5pbe/Ta.UPF
     MD5 check sum: f8bbe9446314a3b8ea5d9f3e3836c939
     Pseudo is Ultrasoft + core correction, Zval = 13.0
     Generated by new atomic code, or converted to UPF format
     Using radial grid of  921 points,  7 beta functions with:
                l(1) =   0
                l(2) =   0
                l(3) =   1
                l(4) =   1
                l(5) =   2
                l(6) =   2
                l(7) =   3
     Q(r) pseudized with  6 coefficients,  rinner =    1.300   1.300   1.300
                                                       1.300   1.300   1.300
                                                       1.300

     PseudoPot. # 2 for Tl read from file:
     /afs/slac.stanford.edu/u/if/mamunm/psp/gbrv1.5pbe/Tl.UPF
     MD5 check sum: b76cf1f7e72655a2b2c53cf6385d7059
     Pseudo is Ultrasoft + core correction, Zval = 13.0
     Generated by new atomic code, or converted to UPF format
     Using radial grid of  899 points,  6 beta functions with:
                l(1) =   0
                l(2) =   0
                l(3) =   1
                l(4) =   1
                l(5) =   2
                l(6) =   2
     Q(r) pseudized with  6 coefficients,  rinner =    1.100   1.100   1.100
                                                       1.100   1.100

     vdW kernel table read from file vdW_kernel_table
     MD5 check sum: 095c7af220d748ca6e76c0b4c6cfb241

     atomic species   valence    mass     pseudopotential
        Ta1           13.00   180.94788     Ta( 1.00)
        Tl1           13.00   204.38000     Tl( 1.00)

     No symmetry found

   Cartesian axes

     site n.     atom                  positions (alat units)
         1           Ta1 tau(   1) = (   0.0000000   0.0000000  10.0000000  )
         2           Ta1 tau(   2) = (  -1.5007681   2.5994066  10.0000000  )
         3           Ta1 tau(   3) = (   1.5007681   2.5994066  10.0000000  )
         4           Tl1 tau(   4) = (   3.0015362   0.0000000  10.0000000  )
         5           Ta1 tau(   5) = (   3.0015362   1.7329377  12.4507441  )
         6           Ta1 tau(   6) = (   1.5007681   4.3323444  12.4507441  )
         7           Ta1 tau(   7) = (  -1.5007681   4.3323444  12.4507441  )
         8           Tl1 tau(   8) = (   0.0000000   1.7329377  12.4507441  )
         9           Ta1 tau(   9) = (  -0.0000458   3.5343713  14.7541264  )
        10           Ta1 tau(  10) = (   1.5600153   0.8322706  14.7541166  )
        11           Ta1 tau(  11) = (   4.4429133   0.8322406  14.7541005  )
        12           Tl1 tau(  12) = (   3.0015199   3.4659119  15.4526905  )

     number of k points=    20  Fermi-Dirac smearing, width (Ry)=  0.0110
                       cart. coord. in units 2pi/alat
        k(    1) = (   0.0000000   0.0000000   0.0000000), wk =   0.0555556
        k(    2) = (   0.0000000   0.0320586   0.0000000), wk =   0.1111111
        k(    3) = (   0.0000000   0.0641172   0.0000000), wk =   0.1111111
        k(    4) = (   0.0000000  -0.0961758   0.0000000), wk =   0.0555556
        k(    5) = (   0.0277636   0.0160293   0.0000000), wk =   0.1111111
        k(    6) = (   0.0277636   0.0480879   0.0000000), wk =   0.1111111
        k(    7) = (   0.0277636   0.0801465   0.0000000), wk =   0.1111111
        k(    8) = (   0.0277636  -0.0801465   0.0000000), wk =   0.1111111
        k(    9) = (   0.0277636  -0.0480879   0.0000000), wk =   0.1111111
        k(   10) = (   0.0277636  -0.0160293   0.0000000), wk =   0.1111111
        k(   11) = (   0.0555271   0.0320586   0.0000000), wk =   0.1111111
        k(   12) = (   0.0555271   0.0641172   0.0000000), wk =   0.1111111
        k(   13) = (   0.0555271   0.0961758   0.0000000), wk =   0.1111111
        k(   14) = (   0.0555271  -0.0641172   0.0000000), wk =   0.1111111
        k(   15) = (   0.0555271  -0.0320586   0.0000000), wk =   0.1111111
        k(   16) = (   0.0555271   0.0000000   0.0000000), wk =   0.1111111
        k(   17) = (  -0.0832907  -0.0480879   0.0000000), wk =   0.0555556
        k(   18) = (  -0.0832907  -0.0160293   0.0000000), wk =   0.1111111
        k(   19) = (  -0.0832907   0.0160293   0.0000000), wk =   0.1111111
        k(   20) = (  -0.0832907  -0.1442637   0.0000000), wk =   0.0555556

     Largest allocated arrays     est. size (Mb)     dimensions
     Largest temporary arrays     est. size (Mb)     dimensions

     Initial potential from superposition of free atoms
     Check: negative starting charge=   -0.997132

     starting charge  155.97539, renormalised to  156.00000

[...]

     *
     * You are using vdW-DF for exchange-correlation in this calculation.
     * Please cite the following three references that made this development
     * possible:
     *
     *   M. Dion, H. Rydberg, E. Schroder, D. C. Langreth, and
     *   B. I. Lundqvist, Phys. Rev. Lett. 92, 246401 (2004).
     *
     *   T. Thonhauser, V. R. Cooper, S. Li, A. Puzder, P. Hyldgaard, and
     *   D. C. Langreth, Phys. Rev. B 76, 125112 (2007).
     *
     *   G. Roman-Perez and J. M. Soler, Phys. Rev. Lett. 103, 096102 (2009).
     *
     *
     * If you are using vdW-DF2, please also cite:
     *
     *   K. Lee, E. D. Murray, L. Kong, B. I. Lundqvist, and
     *   D. C. Langreth, Phys. Rev. B 82, 081101(R) (2010).
     *
     *
     * If you are calculating the stress with vdW-DF, please also cite:
     *
     *   R. Sabatini, E. Kucukbenli, B. Kolb, T. Thonhauser, and
     *   S. de Gironcoli, J. Phys.: Condens. Matter 24, 424209 (2012).
     *

     Carrying out vdW-DF run using the following parameters:

     Nqs =      20    Nr_points =    1024   r_max =   100.000
     q_mesh =
               0.00001000     0.04494208     0.09755937     0.15916263
               0.23128650     0.31572767     0.41458969     0.53033537
               0.66584808     0.82450364     1.01025438     1.22772762
               1.48234092     1.78043706     2.12944203     2.53805004
               3.01644009     3.57652955     4.23227104     5.00000000

     Gradients computed in reciprocal space

[...]

     Starting wfc are  144 randomized atomic wfcs

     Self-consistent Calculation

[...]

     total energy              =   -1728.88892226 Ry
     Harris-Foulkes estimate   =   -1728.88892556 Ry
     estimated scf accuracy    <       0.00000126 Ry

     iteration # 17     ecut=    36.75 Ry     beta=0.10
     Davidson diagonalization with overlap
     ethr =  8.06E-10,  avg # of iterations =  2.4

[...]

     negative rho (up, down):  1.050E+00 0.000E+00

     Adding external electric field

     Computed dipole along edir(3) :
        Dipole               -0.0116 Ry au,         -0.0294 Debye
        Dipole field         -0.0000 Ry au

        Potential amp.        0.0025 Ry
        Total length         45.8806 bohr

     End of self-consistent calculation

[...]

          k = 0.0555 0.0000 0.0000 ( 19733 PWs)   bands (ev):

[...]

          k =-0.0833-0.1443 0.0000 ( 19740 PWs)   bands (ev):

   -66.6483 -66.6356 -66.6227 -66.4984 -66.4722 -66.4623 -66.3286 -66.3167
   -66.3045 -33.1638 -33.1503 -33.1397 -33.0719 -33.0438 -33.0375 -33.0257
   -32.9977 -32.9948 -32.9496 -32.9303 -32.9151 -32.9100 -32.8612 -32.8137
   -32.8025 -32.7071 -32.6856 -32.6660 -32.6415 -32.6212 -32.5895 -32.5195
   -32.4637 -32.4456 -32.4136 -32.3391 -10.1420 -10.0961 -10.0827 -10.0356
   -10.0281  -9.7454  -9.6780  -9.6569  -9.6222  -9.6191  -9.3259  -9.2943
    -9.2711  -9.2579  -9.2409  -6.2651  -5.5141  -4.6321  -3.4043  -2.4906
    -2.3556  -1.9987  -1.1712  -0.6708  -0.5108  -0.4772  -0.2217  -0.0674
    -0.0505   0.1566   0.3805   0.5606   0.6991   0.7635   0.8265   0.9436
     0.9899   1.1071   1.2284   1.4737   1.4879   1.6674   1.9747   2.0846
     2.1511   2.3611   2.4759   2.5597   3.0279   3.4079   3.6484   3.7384
     3.7393   3.9379   3.9430   4.1449   4.1538   4.2278   4.3369   4.4957
     4.5534   4.6479   4.7184   4.9005   5.4086   5.5142   5.6284   5.7017
     5.7908   6.6722   6.8587   6.9769

     the Fermi energy is     1.8623 ev

!    total energy              =   -1728.88889455 Ry
     Harris-Foulkes estimate   =   -1728.88892253 Ry
     estimated scf accuracy    <       0.00000014 Ry

     The total energy is the sum of the following terms:

     one-electron contribution =  -11115.28838658 Ry
     hartree contribution      =    5565.61391780 Ry
     xc contribution           =    -584.36329911 Ry
     ewald contribution        =    4405.23080764 Ry
     electric field correction =       0.00000032 Ry
     smearing contrib. (-TS)   =      -0.08193463 Ry

     convergence has been achieved in  17 iterations

 BEEF-vdW xc energy contributions
           1 :   -516.746193684861
           2 :    478.431270131576
           3 :   -411.108210216807
           4 :    329.741691349708
           5 :   -249.656603233530
           6 :    181.899822949648
           7 :   -130.991819579004
           8 :    95.5093724567850
           9 :   -70.6962774045170
          10 :    51.5481336313725
          11 :   -34.9425248398139
          12 :    20.1414298121880
          13 :   -7.94267420301480
          14 :  -0.675209222206718
          15 :    5.55119950005417
          16 :   -7.55874457169273
          17 :    8.13575118095787
          18 :   -8.56342415235611
          19 :    9.44587268236501
          20 :   -10.6373041262057
          21 :    11.5691547319938
          22 :   -11.7301872465875
          23 :    11.0100607809659
          24 :   -9.74467730619210
          25 :    8.48996148243157
          26 :   -7.70032310137788
          27 :    7.50695561950022
          28 :   -7.70376152452536
          29 :    7.91084982490929
          30 :   -7.79737118408605
          31 :   -44.5201570350335
          32 :   -32.9962127199726

     Forces acting on atoms (Ry/au):

     negative rho (up, down):  1.050E+00 0.000E+00
     atom    1 type  1   force =    -0.00000000   -0.01283761    0.02925396
     atom    2 type  1   force =    -0.01111516    0.00641815    0.02925306
     atom    3 type  1   force =     0.01111793    0.00641928    0.02925446
     atom    4 type  2   force =    -0.00000082   -0.00000062   -0.07008490
     atom    5 type  1   force =    -0.00000476    0.02441976    0.00350464
     atom    6 type  1   force =     0.02114500   -0.01221086    0.00350946
     atom    7 type  1   force =    -0.02114712   -0.01220645    0.00350965
     atom    8 type  2   force =    -0.00000351    0.00000151   -0.02971077
     atom    9 type  1   force =     0.00000166    0.00033156    0.00021194
     atom   10 type  1   force =     0.00028895   -0.00016964    0.00021981
     atom   11 type  1   force =    -0.00027588   -0.00016355    0.00021989
     atom   12 type  2   force =    -0.00000629   -0.00000151    0.00085880

     Total force =     0.103360     Total SCF correction =     0.001217

     entering subroutine stress ...

     negative rho (up, down):  1.050E+00 0.000E+00
          total   stress  (Ry/bohr**3)                   (kbar)     P=  -21.85
  -0.00019022  -0.00000001   0.00000000        -27.98     -0.00      0.00
  -0.00000001  -0.00019023  -0.00000000         -0.00    -27.98     -0.00
   0.00000000  -0.00000000  -0.00006518          0.00     -0.00     -9.59

 !ASE

     Writing output data file calc.save

     General routines

     Parallel routines

   This run was terminated on:   1:44: 6  28Dec2018

   JOB DONE.
Job  /afs/slac/g/suncat/bin/suncat-tsmpirun -x LD_LIBRARY_PATH -wdir /scratch/qe111027_0A2TD pw.x -in pw.inp

TID   HOST_NAME   COMMAND_LINE            STATUS            TERMINATION_TIME
00000 suncat0042 pw.x -in pw.inp   Done                     12/28/2018 01:44:06
00001 suncat0042 pw.x -in pw.inp   Done                     12/28/2018 01:44:06
00002 suncat0042 pw.x -in pw.inp   Done                     12/28/2018 01:44:06
00003 suncat0042 pw.x -in pw.inp   Done                     12/28/2018 01:44:06
00004 suncat0042 pw.x -in pw.inp   Done                     12/28/2018 01:44:06
00005 suncat0042 pw.x -in pw.inp   Done                     12/28/2018 01:44:06
00006 suncat0042 pw.x -in pw.inp   Done                     12/28/2018 01:44:06
00007 suncat0042 pw.x -in pw.inp   Done                     12/28/2018 01:44:06
00008 suncat0034 pw.x -in pw.inp   Done                     12/28/2018 01:44:06
00009 suncat0034 pw.x -in pw.inp   Done                     12/28/2018 01:44:06
00010 suncat0034 pw.x -in pw.inp   Done                     12/28/2018 01:44:06
00011 suncat0034 pw.x -in pw.inp   Done                     12/28/2018 01:44:06
00012 suncat0034 pw.x -in pw.inp   Done                     12/28/2018 01:44:06
00013 suncat0034 pw.x -in pw.inp   Done                     12/28/2018 01:44:06
00014 suncat0034 pw.x -in pw.inp   Done                     12/28/2018 01:44:06
00015 suncat0034 pw.x -in pw.inp   Done                     12/28/2018 01:44:06
00016 suncat0152 pw.x -in pw.inp   Done                     12/28/2018 01:44:06
00017 suncat0152 pw.x -in pw.inp   Done                     12/28/2018 01:44:06
00018 suncat0152 pw.x -in pw.inp   Done                     12/28/2018 01:44:06
00019 suncat0152 pw.x -in pw.inp   Done                     12/28/2018 01:44:06
00020 suncat0152 pw.x -in pw.inp   Done                     12/28/2018 01:44:06
00021 suncat0152 pw.x -in pw.inp   Done                     12/28/2018 01:44:06
00022 suncat0152 pw.x -in pw.inp   Done                     12/28/2018 01:44:06
00023 suncat0152 pw.x -in pw.inp   Done                     12/28/2018 01:44:06
00024 suncat0150 pw.x -in pw.inp   Done                     12/28/2018 01:44:06
00025 suncat0150 pw.x -in pw.inp   Done                     12/28/2018 01:44:06
00026 suncat0150 pw.x -in pw.inp   Done                     12/28/2018 01:44:06
00027 suncat0150 pw.x -in pw.inp   Done                     12/28/2018 01:44:06
00028 suncat0150 pw.x -in pw.inp   Done                     12/28/2018 01:44:06
00029 suncat0150 pw.x -in pw.inp   Done                     12/28/2018 01:44:06
00030 suncat0150 pw.x -in pw.inp   Done                     12/28/2018 01:44:06
00031 suncat0150 pw.x -in pw.inp   Done                     12/28/2018 01:44:06
00032 suncat0147 pw.x -in pw.inp   Done                     12/28/2018 01:44:06
00033 suncat0147 pw.x -in pw.inp   Done                     12/28/2018 01:44:06
00034 suncat0147 pw.x -in pw.inp   Done                     12/28/2018 01:44:06
00035 suncat0147 pw.x -in pw.inp   Done                     12/28/2018 01:44:06
00036 suncat0147 pw.x -in pw.inp   Done                     12/28/2018 01:44:06
00037 suncat0147 pw.x -in pw.inp   Done                     12/28/2018 01:44:06
00038 suncat0147 pw.x -in pw.inp   Done                     12/28/2018 01:44:06
00039 suncat0147 pw.x -in pw.inp   Done                     12/28/2018 01:44:06
00040 suncat0138 pw.x -in pw.inp   Done                     12/28/2018 01:44:06
00041 suncat0138 pw.x -in pw.inp   Done                     12/28/2018 01:44:06
00042 suncat0138 pw.x -in pw.inp   Done                     12/28/2018 01:44:06
00043 suncat0138 pw.x -in pw.inp   Done                     12/28/2018 01:44:06
00044 suncat0138 pw.x -in pw.inp   Done                     12/28/2018 01:44:06
00045 suncat0138 pw.x -in pw.inp   Done                     12/28/2018 01:44:06
00046 suncat0138 pw.x -in pw.inp   Done                     12/28/2018 01:44:06
00047 suncat0138 pw.x -in pw.inp   Done                     12/28/2018 01:44:06
00048 suncat0113 pw.x -in pw.inp   Done                     12/28/2018 01:44:06
00049 suncat0113 pw.x -in pw.inp   Done                     12/28/2018 01:44:06
00050 suncat0113 pw.x -in pw.inp   Done                     12/28/2018 01:44:06
00051 suncat0113 pw.x -in pw.inp   Done                     12/28/2018 01:44:06
00052 suncat0113 pw.x -in pw.inp   Done                     12/28/2018 01:44:06
00053 suncat0113 pw.x -in pw.inp   Done                     12/28/2018 01:44:06
00054 suncat0113 pw.x -in pw.inp   Done                     12/28/2018 01:44:06
00055 suncat0113 pw.x -in pw.inp   Done                     12/28/2018 01:44:06
00056 suncat0110 pw.x -in pw.inp   Done                     12/28/2018 01:44:06
00057 suncat0110 pw.x -in pw.inp   Done                     12/28/2018 01:44:06
00058 suncat0110 pw.x -in pw.inp   Done                     12/28/2018 01:44:06
00059 suncat0110 pw.x -in pw.inp   Done                     12/28/2018 01:44:06
00060 suncat0110 pw.x -in pw.inp   Done                     12/28/2018 01:44:06
00061 suncat0110 pw.x -in pw.inp   Done                     12/28/2018 01:44:06
00062 suncat0110 pw.x -in pw.inp   Done                     12/28/2018 01:44:06
00063 suncat0110 pw.x -in pw.inp   Done                     12/28/2018 01:44:06