     Program PWSCF v.5.1rc2 (svn rev. 11289) starts on 31Dec2018 at 19: 1:18

     Current dimensions of program PWSCF are:
     Max number of different atomic species (ntypx) = 10
     Max number of k-points (npk) =  40000
     Max angular momentum in pseudopotentials (lmaxx) =  3
     Presently stress not available with electric field

     IMPORTANT: XC functional enforced from input :
     Exchange-correlation      = BEEF-VDW ( 1  4 27 13 2)
     Any further DFT definition will be discarded
     Please, verify this is what you really want

     Subspace diagonalization in iterative solution of the eigenvalue problem:
     a serial algorithm will be used

     bravais-lattice index     =            0
     lattice parameter (alat)  =       1.8897  a.u.
     unit-cell volume          =    4355.2518 (a.u.)^3
     number of atoms/cell      =           12
     number of atomic types    =            2
     number of electrons       =       180.00
     number of Kohn-Sham states=          120
     kinetic-energy cutoff     =      36.7493  Ry
     charge density cutoff     =     367.4932  Ry
     convergence threshold     =      1.0E-06
     mixing beta               =       0.1000
     number of iterations used =           10  plain     mixing
     Exchange-correlation      = BEEF-VDW ( 1  4 27 13 2)
     nstep                     =           50

     celldm(1)=   1.889726  celldm(2)=   0.000000  celldm(3)=   0.000000
     celldm(4)=   0.000000  celldm(5)=   0.000000  celldm(6)=   0.000000

     crystal axes: (cart. coord. in units of alat)
               a(1) = (   5.514861   0.000000   0.000000 )
               a(2) = (  -2.757431   4.776010   0.000000 )
               a(3) = (   0.000000   0.000000  24.502865 )

     reciprocal axes: (cart. coord. in units 2 pi/alat)
               b(1) = (  0.181328  0.104690  0.000000 )
               b(2) = (  0.000000  0.209380  0.000000 )
               b(3) = (  0.000000  0.000000  0.040812 )

     PseudoPot. # 1 for Re read from file:
     /afs/slac.stanford.edu/u/if/mamunm/psp/gbrv1.5pbe/Re.UPF
     MD5 check sum: 85f993410f3e006da9d71c142b4ad953
     Pseudo is Ultrasoft + core correction, Zval = 15.0
     Generated by new atomic code, or converted to UPF format
     Using radial grid of  981 points,  8 beta functions with:
                l(1) =   0
                l(2) =   0
                l(3) =   1
                l(4) =   1
                l(5) =   2
                l(6) =   2
                l(7) =   3
                l(8) =   3
     Q(r) pseudized with  8 coefficients,  rinner =    1.150   1.150   1.150
                                                       1.150   1.150   1.150
                                                       1.150

     PseudoPot. # 2 for Ir read from file:
     /afs/slac.stanford.edu/u/if/mamunm/psp/gbrv1.5pbe/Ir.UPF
     MD5 check sum: 8836f839c3459d2b385c504ce6d91f2c
     Pseudo is Ultrasoft + core correction, Zval = 15.0
     Generated by new atomic code, or converted to UPF format
     Using radial grid of  983 points,  7 beta functions with:
                l(1) =   0
                l(2) =   0
                l(3) =   1
                l(4) =   1
                l(5) =   1
                l(6) =   2
                l(7) =   2
     Q(r) pseudized with  8 coefficients,  rinner =    1.400   1.400   1.400
                                                       1.400   1.400

     vdW kernel table read from file vdW_kernel_table
     MD5 check sum: 095c7af220d748ca6e76c0b4c6cfb241

     atomic species   valence    mass     pseudopotential
        Re1           15.00   186.20700     Re( 1.00)
        Ir1           15.00   192.21700     Ir( 1.00)

     No symmetry found

   Cartesian axes

     site n.     atom                  positions (alat units)
         1           Re1 tau(   1) = (   0.0000000   0.0000000  10.0000000  )
         2           Re1 tau(   2) = (  -1.3787153   2.3880049  10.0000000  )
         3           Re1 tau(   3) = (   1.3787153   2.3880049  10.0000000  )
         4           Ir1 tau(   4) = (   2.7574306   0.0000000  10.0000000  )
         5           Re1 tau(   5) = (   2.7574306   1.5920033  12.2514326  )
         6           Re1 tau(   6) = (   1.3787153   3.9800082  12.2514326  )
         7           Re1 tau(   7) = (  -1.3787153   3.9800082  12.2514326  )
         8           Ir1 tau(   8) = (   0.0000000   1.5920033  12.2514326  )
         9           Re1 tau(   9) = (  -0.0000000   3.1840066  14.5028652  )
        10           Re1 tau(  10) = (   1.3787153   0.7960016  14.5028652  )
        11           Re1 tau(  11) = (   4.1361458   0.7960016  14.5028652  )
        12           Ir1 tau(  12) = (   2.7574306   3.1840066  14.5028652  )

     number of k points=    20  Fermi-Dirac smearing, width (Ry)=  0.0110
                       cart. coord. in units 2pi/alat
        k(    1) = (   0.0000000   0.0000000   0.0000000), wk =   0.0555556
        k(    2) = (   0.0000000   0.0348966   0.0000000), wk =   0.1111111
        k(    3) = (   0.0000000   0.0697933   0.0000000), wk =   0.1111111
        k(    4) = (   0.0000000  -0.1046899   0.0000000), wk =   0.0555556
        k(    5) = (   0.0302214   0.0174483   0.0000000), wk =   0.1111111
        k(    6) = (   0.0302214   0.0523450   0.0000000), wk =   0.1111111
        k(    7) = (   0.0302214   0.0872416   0.0000000), wk =   0.1111111
        k(    8) = (   0.0302214  -0.0872416   0.0000000), wk =   0.1111111
        k(    9) = (   0.0302214  -0.0523450   0.0000000), wk =   0.1111111
        k(   10) = (   0.0302214  -0.0174483   0.0000000), wk =   0.1111111
        k(   11) = (   0.0604427   0.0348966   0.0000000), wk =   0.1111111
        k(   12) = (   0.0604427   0.0697933   0.0000000), wk =   0.1111111
        k(   13) = (   0.0604427   0.1046899   0.0000000), wk =   0.1111111
        k(   14) = (   0.0604427  -0.0697933   0.0000000), wk =   0.1111111
        k(   15) = (   0.0604427  -0.0348966   0.0000000), wk =   0.1111111
        k(   16) = (   0.0604427  -0.0000000   0.0000000), wk =   0.1111111
        k(   17) = (  -0.0906641  -0.0523450   0.0000000), wk =   0.0555556
        k(   18) = (  -0.0906641  -0.0174483   0.0000000), wk =   0.1111111
        k(   19) = (  -0.0906641   0.0174483   0.0000000), wk =   0.1111111
        k(   20) = (  -0.0906641  -0.1570349   0.0000000), wk =   0.0555556

     Largest allocated arrays     est. size (Mb)     dimensions
     Largest temporary arrays     est. size (Mb)     dimensions

     Initial potential from superposition of free atoms
     Check: negative starting charge=   -2.240979

     starting charge  173.99950, renormalised to  180.00000

     negative rho (up, down):  2.318E+00 0.000E+00

     *
     * You are using vdW-DF for exchange-correlation in this calculation.
     * Please cite the following three references that made this development
     * possible:
     *
     *   M. Dion, H. Rydberg, E. Schroder, D. C. Langreth, and
     *   B. I. Lundqvist, Phys. Rev. Lett. 92, 246401 (2004).
     *
     *   T. Thonhauser, V. R. Cooper, S. Li, A. Puzder, P. Hyldgaard, and
     *   D. C. Langreth, Phys. Rev. B 76, 125112 (2007).
     *
     *   G. Roman-Perez and J. M. Soler, Phys. Rev. Lett. 103, 096102 (2009).
     *
     *
     * If you are using vdW-DF2, please also cite:
     *
     *   K. Lee, E. D. Murray, L. Kong, B. I. Lundqvist, and
     *   D. C. Langreth, Phys. Rev. B 82, 081101(R) (2010).
     *
     *
     * If you are calculating the stress with vdW-DF, please also cite:
     *
     *   R. Sabatini, E. Kucukbenli, B. Kolb, T. Thonhauser, and
     *   S. de Gironcoli, J. Phys.: Condens. Matter 24, 424209 (2012).
     *

     Carrying out vdW-DF run using the following parameters:

     Nqs =      20    Nr_points =    1024   r_max =   100.000
     q_mesh =
               0.00001000     0.04494208     0.09755937     0.15916263
               0.23128650     0.31572767     0.41458969     0.53033537
               0.66584808     0.82450364     1.01025438     1.22772762
               1.48234092     1.78043706     2.12944203     2.53805004
               3.01644009     3.57652955     4.23227104     5.00000000

     Gradients computed in reciprocal space

     Adding external electric field

     Computed dipole along edir(3) :
        Dipole                0.0000 Ry au,          0.0000 Debye
        Dipole field          0.0000 Ry au

        Potential amp.       -0.0000 Ry
        Total length         45.1461 bohr

     Starting wfc are  153 randomized atomic wfcs

     Self-consistent Calculation

     iteration #  1     ecut=    36.75 Ry     beta=0.10
     Davidson diagonalization with overlap
     ethr =  1.00E-02,  avg # of iterations =  6.5

[...]

     total energy              =   -2278.81930870 Ry
     Harris-Foulkes estimate   =   -2281.92679906 Ry
     estimated scf accuracy    <      18.14246071 Ry

[...]

     End of self-consistent calculation

          k = 0.0000 0.0000 0.0000 ( 16283 PWs)   bands (ev):

   -78.1753 -78.1194 -78.1193 -77.8999 -77.8975 -77.8465 -77.8465 -77.8460
   -77.8460 -47.0779 -47.0769 -47.0769 -46.5123 -46.5123 -46.5108 -46.5108
   -46.4646 -46.4591 -40.3159 -40.0851 -40.0851 -40.0664 -39.9294 -39.9294
   -39.9200 -39.8920 -39.6941 -39.6941 -39.6730 -39.6679 -39.6318 -39.6318
   -39.5803 -39.5803 -39.4800 -39.4800 -39.4466 -39.4399 -39.4399 -39.3304
   -39.3052 -39.1417 -39.1417 -39.1369 -39.1369  -6.5836  -4.6157  -4.1310
    -3.8100  -3.8100  -3.6954  -3.4881  -3.4881  -3.3482  -2.8330  -2.8330
    -2.8247  -2.6303  -2.6303  -2.4552  -1.1957  -1.1957  -0.8892  -0.4677
    -0.4677  -0.2578  -0.0945   0.0644   0.3732   0.3732   0.7067   0.7067
     0.8323   0.8465   0.8465   1.0984   1.0984   1.2542   1.2542   1.2747
     1.8312   2.4841   2.4841   2.4894   2.6367   2.6367   2.9819   2.9819
     3.0643   3.2924   3.8727   4.1146   4.1146   4.2419   4.2419   4.2894
     4.4943   4.4943   4.8340   4.8340   5.1711   5.1711   5.3990   5.3990
     5.4240   5.8194   5.8194   5.9821   5.9821   6.3511   6.4827   6.7049
     6.7049   6.8017   6.9107   7.1471   7.2314   7.3813   7.7626   7.7626

[...]

          k =-0.0907-0.0523 0.0000 ( 16392 PWs)   bands (ev):

[...]

     the Fermi energy is     2.6783 ev

!    total energy              =   -2279.35571248 Ry
     Harris-Foulkes estimate   =   -2279.35572050 Ry
     estimated scf accuracy    <       0.00000022 Ry

     The total energy is the sum of the following terms:

     one-electron contribution =  -18176.61431973 Ry
     hartree contribution      =    9082.77835762 Ry
     xc contribution           =    -642.54340249 Ry
     ewald contribution        =    7457.09850345 Ry
     electric field correction =       0.00000000 Ry
     smearing contrib. (-TS)   =      -0.07485134 Ry

     convergence has been achieved in  17 iterations

 BEEF-vdW xc energy contributions
           1 :   -570.894033443879
           2 :    530.905965946779
           3 :   -459.126360931117
           4 :    369.261526681075
           5 :   -276.491192054198
           6 :    193.545818171749
           7 :   -128.062687598259
           8 :    81.8482255554057
           9 :   -51.9919399665403
[...]
     Generated by new atomic code, or converted to UPF format
     Using radial grid of  981 points,  8 beta functions with:
                l(1) =   0
                l(2) =   0
                l(3) =   1
                l(4) =   1
                l(5) =   2
                l(6) =   2
                l(7) =   3
                l(8) =   3
     Q(r) pseudized with  8 coefficients,  rinner =    1.150   1.150   1.150
                                                       1.150   1.150   1.150
                                                       1.150

     PseudoPot. # 2 for Ir read from file:
     /afs/slac.stanford.edu/u/if/mamunm/psp/gbrv1.5pbe/Ir.UPF
     MD5 check sum: 8836f839c3459d2b385c504ce6d91f2c
     Pseudo is Ultrasoft + core correction, Zval = 15.0
     Generated by new atomic code, or converted to UPF format
     Using radial grid of  983 points,  7 beta functions with:
                l(1) =   0
                l(2) =   0
                l(3) =   1
                l(4) =   1
                l(5) =   1
                l(6) =   2
                l(7) =   2
     Q(r) pseudized with  8 coefficients,  rinner =    1.400   1.400   1.400
                                                       1.400   1.400

     vdW kernel table read from file vdW_kernel_table
     MD5 check sum: 095c7af220d748ca6e76c0b4c6cfb241

     atomic species   valence    mass     pseudopotential
        Re1           15.00   186.20700     Re( 1.00)
        Ir1           15.00   192.21700     Ir( 1.00)

     No symmetry found

   Cartesian axes

     site n.     atom                  positions (alat units)
         1           Re1 tau(   1) = (   0.0000000   0.0000000  10.0000000  )
         2           Re1 tau(   2) = (  -1.3787153   2.3880049  10.0000000  )
         3           Re1 tau(   3) = (   1.3787153   2.3880049  10.0000000  )
         4           Ir1 tau(   4) = (   2.7574306   0.0000000  10.0000000  )
         5           Re1 tau(   5) = (   2.7574306   1.5920033  12.2514326  )
         6           Re1 tau(   6) = (   1.3787153   3.9800082  12.2514326  )
         7           Re1 tau(   7) = (  -1.3787153   3.9800082  12.2514326  )
         8           Ir1 tau(   8) = (   0.0000000   1.5920033  12.2514326  )
         9           Re1 tau(   9) = (   0.0000024   3.2120838  14.3946695  )
        10           Re1 tau(  10) = (   1.4030320   0.7819689  14.3946714  )
        11           Re1 tau(  11) = (   4.1118392   0.7819670  14.3946679  )
        12           Ir1 tau(  12) = (   2.7574332   3.1840117  14.4213524  )

     number of k points=    20  Fermi-Dirac smearing, width (Ry)=  0.0110
                       cart. coord. in units 2pi/alat
        k(    1) = (   0.0000000   0.0000000   0.0000000), wk =   0.0555556
        k(    2) = (   0.0000000   0.0348966   0.0000000), wk =   0.1111111
        k(    3) = (   0.0000000   0.0697933   0.0000000), wk =   0.1111111
        k(    4) = (   0.0000000  -0.1046899   0.0000000), wk =   0.0555556
        k(    5) = (   0.0302214   0.0174483   0.0000000), wk =   0.1111111
        k(    6) = (   0.0302214   0.0523450   0.0000000), wk =   0.1111111
        k(    7) = (   0.0302214   0.0872416   0.0000000), wk =   0.1111111
        k(    8) = (   0.0302214  -0.0872416   0.0000000), wk =   0.1111111
        k(    9) = (   0.0302214  -0.0523450   0.0000000), wk =   0.1111111
        k(   10) = (   0.0302214  -0.0174483   0.0000000), wk =   0.1111111
        k(   11) = (   0.0604427   0.0348966   0.0000000), wk =   0.1111111
        k(   12) = (   0.0604427   0.0697933   0.0000000), wk =   0.1111111
        k(   13) = (   0.0604427   0.1046899   0.0000000), wk =   0.1111111
        k(   14) = (   0.0604427  -0.0697933   0.0000000), wk =   0.1111111
        k(   15) = (   0.0604427  -0.0348966   0.0000000), wk =   0.1111111
        k(   16) = (   0.0604427  -0.0000000   0.0000000), wk =   0.1111111
        k(   17) = (  -0.0906641  -0.0523450   0.0000000), wk =   0.0555556
        k(   18) = (  -0.0906641  -0.0174483   0.0000000), wk =   0.1111111
        k(   19) = (  -0.0906641   0.0174483   0.0000000), wk =   0.1111111
        k(   20) = (  -0.0906641  -0.1570349   0.0000000), wk =   0.0555556

     Largest allocated arrays     est. size (Mb)     dimensions
     Largest temporary arrays     est. size (Mb)     dimensions

     Initial potential from superposition of free atoms
     Check: negative starting charge=   -2.243073

     starting charge  173.99950, renormalised to  180.00000

[...]

     *
     * You are using vdW-DF for exchange-correlation in this calculation.
     * Please cite the following three references that made this development
     * possible:
     *
     *   M. Dion, H. Rydberg, E. Schroder, D. C. Langreth, and
     *   B. I. Lundqvist, Phys. Rev. Lett. 92, 246401 (2004).
     *
     *   T. Thonhauser, V. R. Cooper, S. Li, A. Puzder, P. Hyldgaard, and
     *   D. C. Langreth, Phys. Rev. B 76, 125112 (2007).
     *
     *   G. Roman-Perez and J. M. Soler, Phys. Rev. Lett. 103, 096102 (2009).
     *
     *
     * If you are using vdW-DF2, please also cite:
     *
     *   K. Lee, E. D. Murray, L. Kong, B. I. Lundqvist, and
     *   D. C. Langreth, Phys. Rev. B 82, 081101(R) (2010).
     *
     *
     * If you are calculating the stress with vdW-DF, please also cite:
     *
     *   R. Sabatini, E. Kucukbenli, B. Kolb, T. Thonhauser, and
     *   S. de Gironcoli, J. Phys.: Condens. Matter 24, 424209 (2012).
     *

     Carrying out vdW-DF run using the following parameters:

     Nqs =      20    Nr_points =    1024   r_max =   100.000
     q_mesh =
               0.00001000     0.04494208     0.09755937     0.15916263
               0.23128650     0.31572767     0.41458969     0.53033537
               0.66584808     0.82450364     1.01025438     1.22772762
               1.48234092     1.78043706     2.12944203     2.53805004
               3.01644009     3.57652955     4.23227104     5.00000000

     Gradients computed in reciprocal space

[...]

     Starting wfc are  153 randomized atomic wfcs

     Self-consistent Calculation

[...]

     total energy              =   -2279.37132163 Ry
     Harris-Foulkes estimate   =   -2279.37132137 Ry
     estimated scf accuracy    <       0.00000164 Ry

     iteration # 16     ecut=    36.75 Ry     beta=0.10
     Davidson diagonalization with overlap
     ethr =  9.09E-10,  avg # of iterations =  2.5

[...]

     negative rho (up, down):  2.169E+00 0.000E+00

     Adding external electric field

     Computed dipole along edir(3) :
        Dipole                0.0275 Ry au,          0.0700 Debye
        Dipole field          0.0001 Ry au

        Potential amp.       -0.0072 Ry
        Total length         45.1461 bohr

     End of self-consistent calculation

[...]

          k = 0.0604-0.0000 0.0000 ( 16390 PWs)   bands (ev):

[...]

          k =-0.0907-0.1570 0.0000 ( 16392 PWs)   bands (ev):

   -78.1308 -78.1118 -78.0925 -77.8641 -77.8467 -77.8292 -77.8199 -77.7996
   -77.7831 -47.1174 -47.1127 -47.1118 -46.5215 -46.5168 -46.4811 -46.4716
   -46.4667 -46.4164 -40.1931 -40.0486 -40.0221 -39.9513 -39.9355 -39.9162
   -39.8573 -39.8258 -39.7540 -39.7162 -39.5891 -39.5838 -39.5488 -39.5307
   -39.5249 -39.5045 -39.4909 -39.4799 -39.4428 -39.4424 -39.3896 -39.3888
   -39.3733 -39.3181 -39.3019 -39.1484 -39.1253  -4.7613  -4.6660  -3.1643
    -3.1017  -2.8417  -2.7817  -2.6637  -2.6238  -2.5455  -2.4543  -2.1782
    -1.8343  -1.7964  -1.5971  -1.4656  -1.3410  -1.2730  -1.0432  -0.9052
    -0.9010  -0.7632  -0.3090  -0.1124  -0.0398   0.0334   0.0792   0.2210
     0.4330   0.5061   0.6027   0.6769   0.7400   0.8278   0.8668   0.9332
     1.0150   1.0702   1.1282   1.2448   1.2572   1.7901   2.0486   2.1785
     2.3545   2.4262   2.6418   2.8089   2.8569   3.0218   3.0854   3.3079
     3.3601   3.5515   3.6651   3.7507   3.9441   4.0917   4.4886   4.5606
     4.6939   5.2113   5.4542   5.5834   5.8450   6.0365   6.2955   7.0101
     7.5198   7.8994   8.1403   8.1977   8.2778   8.7933   8.8326   9.0919

     the Fermi energy is     2.6974 ev

!    total energy              =   -2279.37131330 Ry
     Harris-Foulkes estimate   =   -2279.37132191 Ry
     estimated scf accuracy    <       0.00000066 Ry

     The total energy is the sum of the following terms:

     one-electron contribution =  -18443.70684774 Ry
     hartree contribution      =    9216.41313238 Ry
     xc contribution           =    -642.84810483 Ry
     ewald contribution        =    7590.84447041 Ry
     electric field correction =       0.00000219 Ry
     smearing contrib. (-TS)   =      -0.07396571 Ry

     convergence has been achieved in  16 iterations

 BEEF-vdW xc energy contributions
           1 :   -571.200253409110
           2 :    531.310480428840
           3 :   -459.668644995912
           4 :    369.893260477055
           5 :   -277.091929184670
           6 :    193.977189968437
           7 :   -128.236080732738
           8 :    81.7725458690117
           9 :   -51.7762861996379
          10 :    32.9479180249130
          11 :   -19.9171160323210
          12 :    8.99142635469127
          13 :    1.20538994333299
          14 :   -10.1546098659145
          15 :    16.4981631991096
          16 :   -19.1726674127102
          17 :    18.1547620679286
          18 :   -14.5870314352288
          19 :    10.3265115119012
          20 :   -7.18964479175406
          21 :    6.25816113047642
          22 :   -7.54177247912105
          23 :    10.1060874748721
          24 :   -12.5705250430057
          25 :    13.7345868741882
          26 :   -13.0600482923701
          27 :    10.8201230130810
          28 :   -7.88930124891897
          29 :    5.30422235450931
          30 :   -3.81309069644828
          31 :   -47.7462799828362
          32 :   -35.5410023569536

     Forces acting on atoms (Ry/au):

     negative rho (up, down):  2.169E+00 0.000E+00
     atom    1 type  1   force =    -0.00000194   -0.01334623    0.02349523
     atom    2 type  1   force =    -0.01155537    0.00667369    0.02349130
     atom    3 type  1   force =     0.01155659    0.00667204    0.02349221
     atom    4 type  2   force =    -0.00000070   -0.00000015    0.02005937
     atom    5 type  1   force =    -0.00000021   -0.00451363   -0.02331722
     atom    6 type  1   force =    -0.00390856    0.00225891   -0.02331861
     atom    7 type  1   force =     0.00390833    0.00225628   -0.02331773
     atom    8 type  2   force =     0.00000077    0.00000078   -0.02566589
     atom    9 type  1   force =    -0.00000003    0.00059527    0.00137369
     atom   10 type  1   force =     0.00051551   -0.00029903    0.00137495
     atom   11 type  1   force =    -0.00051609   -0.00029677    0.00137419
     atom   12 type  2   force =     0.00000170   -0.00000116    0.00095851

     Total force =     0.070364     Total SCF correction =     0.002506

     entering subroutine stress ...

     negative rho (up, down):  2.169E+00 0.000E+00
          total   stress  (Ry/bohr**3)                   (kbar)     P=  -32.64
  -0.00027311   0.00000000  -0.00000000        -40.18      0.00     -0.00
   0.00000000  -0.00027312  -0.00000000          0.00    -40.18     -0.00
  -0.00000000  -0.00000000  -0.00011949         -0.00     -0.00    -17.58

 !ASE

     Writing output data file calc.save

     General routines

     Parallel routines

   This run was terminated on:  19:55:48  31Dec2018

   JOB DONE.
Job  /afs/slac/g/suncat/bin/suncat-tsmpirun -x LD_LIBRARY_PATH -wdir /scratch/qe648844_CKc2A pw.x -in pw.inp

TID   HOST_NAME   COMMAND_LINE            STATUS            TERMINATION_TIME
00000 suncat0056 pw.x -in pw.inp   Done                     12/31/2018 19:55:48
00001 suncat0056 pw.x -in pw.inp   Done                     12/31/2018 19:55:48
00002 suncat0056 pw.x -in pw.inp   Done                     12/31/2018 19:55:48
00003 suncat0056 pw.x -in pw.inp   Done                     12/31/2018 19:55:48
00004 suncat0056 pw.x -in pw.inp   Done                     12/31/2018 19:55:48
00005 suncat0056 pw.x -in pw.inp   Done                     12/31/2018 19:55:48
00006 suncat0056 pw.x -in pw.inp   Done                     12/31/2018 19:55:48
00007 suncat0056 pw.x -in pw.inp   Done                     12/31/2018 19:55:48
00008 suncat0052 pw.x -in pw.inp   Done                     12/31/2018 19:55:48
00009 suncat0052 pw.x -in pw.inp   Done                     12/31/2018 19:55:48
00010 suncat0052 pw.x -in pw.inp   Done                     12/31/2018 19:55:48
00011 suncat0052 pw.x -in pw.inp   Done                     12/31/2018 19:55:48
00012 suncat0052 pw.x -in pw.inp   Done                     12/31/2018 19:55:48
00013 suncat0052 pw.x -in pw.inp   Done                     12/31/2018 19:55:48
00014 suncat0052 pw.x -in pw.inp   Done                     12/31/2018 19:55:48
00015 suncat0052 pw.x -in pw.inp   Done                     12/31/2018 19:55:48
00016 suncat0048 pw.x -in pw.inp   Done                     12/31/2018 19:55:48
00017 suncat0048 pw.x -in pw.inp   Done                     12/31/2018 19:55:48
00018 suncat0048 pw.x -in pw.inp   Done                     12/31/2018 19:55:48
00019 suncat0048 pw.x -in pw.inp   Done                     12/31/2018 19:55:48
00020 suncat0048 pw.x -in pw.inp   Done                     12/31/2018 19:55:48
00021 suncat0048 pw.x -in pw.inp   Done                     12/31/2018 19:55:48
00022 suncat0048 pw.x -in pw.inp   Done                     12/31/2018 19:55:48
00023 suncat0048 pw.x -in pw.inp   Done                     12/31/2018 19:55:48
00024 suncat0047 pw.x -in pw.inp   Done                     12/31/2018 19:55:48
00025 suncat0047 pw.x -in pw.inp   Done                     12/31/2018 19:55:48
00026 suncat0047 pw.x -in pw.inp   Done                     12/31/2018 19:55:48
00027 suncat0047 pw.x -in pw.inp   Done                     12/31/2018 19:55:48
00028 suncat0047 pw.x -in pw.inp   Done                     12/31/2018 19:55:48
00029 suncat0047 pw.x -in pw.inp   Done                     12/31/2018 19:55:48
00030 suncat0047 pw.x -in pw.inp   Done                     12/31/2018 19:55:48
00031 suncat0047 pw.x -in pw.inp   Done                     12/31/2018 19:55:48
00032 suncat0041 pw.x -in pw.inp   Done                     12/31/2018 19:55:48
00033 suncat0041 pw.x -in pw.inp   Done                     12/31/2018 19:55:48
00034 suncat0041 pw.x -in pw.inp   Done                     12/31/2018 19:55:48
00035 suncat0041 pw.x -in pw.inp   Done                     12/31/2018 19:55:48
00036 suncat0041 pw.x -in pw.inp   Done                     12/31/2018 19:55:48
00037 suncat0041 pw.x -in pw.inp   Done                     12/31/2018 19:55:48
00038 suncat0041 pw.x -in pw.inp   Done                     12/31/2018 19:55:48
00039 suncat0041 pw.x -in pw.inp   Done                     12/31/2018 19:55:48
00040 suncat0039 pw.x -in pw.inp   Done                     12/31/2018 19:55:48
00041 suncat0039 pw.x -in pw.inp   Done                     12/31/2018 19:55:48
00042 suncat0039 pw.x -in pw.inp   Done                     12/31/2018 19:55:48
00043 suncat0039 pw.x -in pw.inp   Done                     12/31/2018 19:55:48
00044 suncat0039 pw.x -in pw.inp   Done                     12/31/2018 19:55:48
00045 suncat0039 pw.x -in pw.inp   Done                     12/31/2018 19:55:48
00046 suncat0039 pw.x -in pw.inp   Done                     12/31/2018 19:55:48
00047 suncat0039 pw.x -in pw.inp   Done                     12/31/2018 19:55:48
00048 suncat0207 pw.x -in pw.inp   Done                     12/31/2018 19:55:48
00049 suncat0207 pw.x -in pw.inp   Done                     12/31/2018 19:55:48
00050 suncat0207 pw.x -in pw.inp   Done                     12/31/2018 19:55:48
00051 suncat0207 pw.x -in pw.inp   Done                     12/31/2018 19:55:48
00052 suncat0207 pw.x -in pw.inp   Done                     12/31/2018 19:55:48
00053 suncat0207 pw.x -in pw.inp   Done                     12/31/2018 19:55:48
00054 suncat0207 pw.x -in pw.inp   Done                     12/31/2018 19:55:48
00055 suncat0207 pw.x -in pw.inp   Done                     12/31/2018 19:55:48
00056 suncat0206 pw.x -in pw.inp   Done                     12/31/2018 19:55:48
00057 suncat0206 pw.x -in pw.inp   Done                     12/31/2018 19:55:48
00058 suncat0206 pw.x -in pw.inp   Done                     12/31/2018 19:55:48
00059 suncat0206 pw.x -in pw.inp   Done                     12/31/2018 19:55:48
00060 suncat0206 pw.x -in pw.inp   Done                     12/31/2018 19:55:48
00061 suncat0206 pw.x -in pw.inp   Done                     12/31/2018 19:55:48
00062 suncat0206 pw.x -in pw.inp   Done                     12/31/2018 19:55:48
00063 suncat0206 pw.x -in pw.inp   Done                     12/31/2018 19:55:48