     Program PWSCF v.5.1rc2 (svn rev. 11289) starts on  1Jan2019 at 21: 8: 9

     Current dimensions of program PWSCF are:
     Max number of different atomic species (ntypx) = 10
     Max number of k-points (npk) =  40000
     Max angular momentum in pseudopotentials (lmaxx) =  3
     Presently stress not available with electric field

     IMPORTANT: XC functional enforced from input :
     Exchange-correlation      = BEEF-VDW ( 1  4 27 13 2)
     Any further DFT definition will be discarded
     Please, verify this is what you really want

     Subspace diagonalization in iterative solution of the eigenvalue problem:
     a serial algorithm will be used

     bravais-lattice index     =            0
     lattice parameter (alat)  =       1.8897  a.u.
     unit-cell volume          =    4510.0601 (a.u.)^3
     number of atoms/cell      =           12
     number of atomic types    =            2
     number of electrons       =       174.00
     number of Kohn-Sham states=          117
     kinetic-energy cutoff     =      36.7493  Ry
     charge density cutoff     =     367.4932  Ry
     convergence threshold     =      1.0E-06
     mixing beta               =       0.1000
     number of iterations used =           10  plain     mixing
     Exchange-correlation      = BEEF-VDW ( 1  4 27 13 2)
     nstep                     =           50

     celldm(1)=   1.889726  celldm(2)=   0.000000  celldm(3)=   0.000000
     celldm(4)=   0.000000  celldm(5)=   0.000000  celldm(6)=   0.000000

     crystal axes: (cart. coord. in units of alat)
               a(1) = (   5.603728   0.000000   0.000000 )
               a(2) = (  -2.801864   4.852971   0.000000 )
               a(3) = (   0.000000   0.000000  24.575425 )

     reciprocal axes: (cart. coord. in units 2 pi/alat)
               b(1) = (  0.178453  0.103030  0.000000 )
               b(2) = (  0.000000  0.206059  0.000000 )
               b(3) = (  0.000000  0.000000  0.040691 )

     PseudoPot. # 1 for Tc read from file:
     /afs/slac.stanford.edu/u/if/mamunm/psp/gbrv1.5pbe/Tc.UPF
     MD5 check sum: 9eb49e5b028550b2339a02317eb7b844
     Pseudo is Ultrasoft + core correction, Zval = 15.0
     Generated by new atomic code, or converted to UPF format
     Using radial grid of  965 points,  6 beta functions with:
                l(1) =   0
                l(2) =   0
                l(3) =   1
                l(4) =   1
                l(5) =   2
                l(6) =   2
     Q(r) pseudized with  8 coefficients,  rinner =    1.300   1.300   1.300
                                                       1.300   1.300

     PseudoPot. # 2 for Ta read from file:
     /afs/slac.stanford.edu/u/if/mamunm/psp/gbrv1.5pbe/Ta.UPF
     MD5 check sum: f8bbe9446314a3b8ea5d9f3e3836c939
     Pseudo is Ultrasoft + core correction, Zval = 13.0
     Generated by new atomic code, or converted to UPF format
     Using radial grid of  921 points,  7 beta functions with:
                l(1) =   0
                l(2) =   0
                l(3) =   1
                l(4) =   1
                l(5) =   2
                l(6) =   2
                l(7) =   3
     Q(r) pseudized with  6 coefficients,  rinner =    1.300   1.300   1.300
                                                       1.300   1.300   1.300
                                                       1.300

     vdW kernel table read from file vdW_kernel_table
     MD5 check sum: 095c7af220d748ca6e76c0b4c6cfb241

     atomic species   valence    mass     pseudopotential
        Tc1           15.00    97.90721     Tc( 1.00)
        Ta1           13.00   180.94788     Ta( 1.00)

     No symmetry found

   Cartesian axes

     site n.     atom                  positions (alat units)
         1           Tc1 tau(   1) = (   0.0000000   0.0000000  10.0000000  )
         2           Tc1 tau(   2) = (  -1.4009320   2.4264853  10.0000000  )
         3           Tc1 tau(   3) = (   1.4009320   2.4264853  10.0000000  )
         4           Ta1 tau(   4) = (   2.8018639   0.0000000  10.0000000  )
         5           Tc1 tau(   5) = (   2.8018639   1.6176569  12.2877123  )
         6           Tc1 tau(   6) = (   1.4009320   4.0441422  12.2877123  )
         7           Tc1 tau(   7) = (  -1.4009320   4.0441422  12.2877123  )
         8           Ta1 tau(   8) = (   0.0000000   1.6176569  12.2877123  )
         9           Tc1 tau(   9) = (  -0.0000000   3.2353138  14.5754246  )
        10           Tc1 tau(  10) = (   1.4009320   0.8088284  14.5754246  )
        11           Tc1 tau(  11) = (   4.2027959   0.8088284  14.5754246  )
        12           Ta1 tau(  12) = (   2.8018639   3.2353138  14.5754246  )

     number of k points=    20  Fermi-Dirac smearing, width (Ry)=  0.0110
                       cart. coord. in units 2pi/alat
        k(    1) = (   0.0000000   0.0000000   0.0000000), wk =   0.0555556
        k(    2) = (   0.0000000   0.0343432   0.0000000), wk =   0.1111111
        k(    3) = (   0.0000000   0.0686865   0.0000000), wk =   0.1111111
        k(    4) = (   0.0000000  -0.1030297   0.0000000), wk =   0.0555556
        k(    5) = (   0.0297421   0.0171716   0.0000000), wk =   0.1111111
        k(    6) = (   0.0297421   0.0515148   0.0000000), wk =   0.1111111
        k(    7) = (   0.0297421   0.0858581   0.0000000), wk =   0.1111111
        k(    8) = (   0.0297421  -0.0858581   0.0000000), wk =   0.1111111
        k(    9) = (   0.0297421  -0.0515148   0.0000000), wk =   0.1111111
        k(   10) = (   0.0297421  -0.0171716   0.0000000), wk =   0.1111111
        k(   11) = (   0.0594842   0.0343432   0.0000000), wk =   0.1111111
        k(   12) = (   0.0594842   0.0686865   0.0000000), wk =   0.1111111
        k(   13) = (   0.0594842   0.1030297   0.0000000), wk =   0.1111111
        k(   14) = (   0.0594842  -0.0686865   0.0000000), wk =   0.1111111
        k(   15) = (   0.0594842  -0.0343432   0.0000000), wk =   0.1111111
        k(   16) = (   0.0594842   0.0000000   0.0000000), wk =   0.1111111
        k(   17) = (  -0.0892263  -0.0515148   0.0000000), wk =   0.0555556
        k(   18) = (  -0.0892263  -0.0171716   0.0000000), wk =   0.1111111
        k(   19) = (  -0.0892263   0.0171716   0.0000000), wk =   0.1111111
        k(   20) = (  -0.0892263  -0.1545445   0.0000000), wk =   0.0555556

     Largest allocated arrays     est. size (Mb)     dimensions
     Largest temporary arrays     est. size (Mb)     dimensions

     Check: negative/imaginary core charge=   -0.000016    0.000000

     Initial potential from superposition of free atoms
     Check: negative starting charge=   -1.400608

     starting charge  164.99641, renormalised to  174.00000

     negative rho (up, down):  1.477E+00 0.000E+00

     *
     * You are using vdW-DF for exchange-correlation in this calculation.
     * Please cite the following three references that made this development
     * possible:
     *
     *   M. Dion, H. Rydberg, E. Schroder, D. C. Langreth, and
     *   B. I. Lundqvist, Phys. Rev. Lett. 92, 246401 (2004).
     *
     *   T. Thonhauser, V. R. Cooper, S. Li, A. Puzder, P. Hyldgaard, and
     *   D. C. Langreth, Phys. Rev. B 76, 125112 (2007).
     *
     *   G. Roman-Perez and J. M. Soler, Phys. Rev. Lett. 103, 096102 (2009).
     *
     *
     * If you are using vdW-DF2, please also cite:
     *
     *   K. Lee, E. D. Murray, L. Kong, B. I. Lundqvist, and
     *   D. C. Langreth, Phys. Rev. B 82, 081101(R) (2010).
     *
     *
     * If you are calculating the stress with vdW-DF, please also cite:
     *
     *   R. Sabatini, E. Kucukbenli, B. Kolb, T. Thonhauser, and
     *   S. de Gironcoli, J. Phys.: Condens. Matter 24, 424209 (2012).
     *

     Carrying out vdW-DF run using the following parameters:

     Nqs =      20    Nr_points =    1024   r_max =   100.000
     q_mesh =
               0.00001000     0.04494208     0.09755937     0.15916263
               0.23128650     0.31572767     0.41458969     0.53033537
               0.66584808     0.82450364     1.01025438     1.22772762
               1.48234092     1.78043706     2.12944203     2.53805004
               3.01644009     3.57652955     4.23227104     5.00000000

     Gradients computed in reciprocal space

     Adding external electric field

     Computed dipole along edir(3) :
        Dipole                0.0000 Ry au,          0.0000 Debye
        Dipole field          0.0000 Ry au

        Potential amp.       -0.0000 Ry
        Total length         45.2798 bohr

     Starting wfc are  156 randomized atomic wfcs

     Self-consistent Calculation

     iteration #  1     ecut=    36.75 Ry     beta=0.10
     Davidson diagonalization with overlap
     ethr =  1.00E-02,  avg # of iterations =  6.0

[...]

     total energy              =   -2008.52123991 Ry
     Harris-Foulkes estimate   =   -2009.68099626 Ry
     estimated scf accuracy    <       7.83358889 Ry

[...]

     End of self-consistent calculation

          k = 0.0000 0.0000 0.0000 ( 16907 PWs)   bands (ev):

   -66.1022 -66.1015 -65.7574 -64.6063 -64.5260 -64.5260 -64.4546 -64.4457
   -64.3786 -64.3786 -64.3764 -64.3764 -36.9983 -36.8354 -36.8354 -36.8245
   -36.8008 -36.7487 -36.7274 -36.7274 -36.5673 -36.5673 -36.5106 -36.4398
   -36.4398 -36.4312 -36.4305 -36.4305 -36.3200 -36.3097 -36.3097 -36.2590
   -36.2590 -36.1943 -36.1685 -36.1340 -36.1340 -36.1302 -36.1302 -32.5446
   -32.5098 -32.3279 -32.3279 -32.3197 -32.3196 -32.0896 -32.0861 -32.0861
    -4.4034  -2.9481  -2.6859  -2.4189  -2.3991  -2.3991  -2.1411  -1.9686
    -1.9686  -1.7469  -1.7469  -1.7341  -1.5921  -1.4698  -1.4698  -0.3840
    -0.3004  -0.3004   0.4882   0.4882   0.5977   0.7040   0.8629   1.2378
     1.2523   1.2523   1.4669   1.4669   1.6969   1.6969   1.7043   1.7044
     1.7840   1.7840   1.9972   2.3514   2.7360   2.8982   2.8982   3.0805
     3.0805   3.2071   3.4010   3.4010   3.4592   4.1178   4.1178   4.3133
     4.5901   4.5901   4.7909   4.8345   4.8345   5.0153   5.2360   5.2435
     5.3236   5.5149   5.5149   5.9808   5.9808   6.0406   6.3096   6.4396
     6.4396   6.4963   6.4963   6.7636   6.8548

[...]

          k =-0.0892-0.0515 0.0000 ( 17004 PWs)   bands (ev):

[...]

     the Fermi energy is     2.2831 ev

!    total energy              =   -2007.12175070 Ry
     Harris-Foulkes estimate   =   -2007.12174442 Ry
     estimated scf accuracy    <       0.00000086 Ry

     The total energy is the sum of the following terms:

     one-electron contribution =  -16487.63621541 Ry
     hartree contribution      =    8239.14994215 Ry
     xc contribution           =    -428.46330859 Ry
     ewald contribution        =    6669.91780483 Ry
     electric field correction =       0.00000000 Ry
     smearing contrib. (-TS)   =      -0.08997368 Ry

     convergence has been achieved in  17 iterations

 BEEF-vdW xc energy contributions
           1 :   -375.798663065014
           2 :    345.961824663908
           3 :   -293.128026596008
           4 :    228.333340768598
           5 :   -163.209373419387
           6 :    106.602248715639
           7 :   -62.7955672051389
           8 :    31.6247325947234
           9 :   -10.1217911423235
[...]
     Generated by new atomic code, or converted to UPF format
     Using radial grid of  965 points,  6 beta functions with:
                l(1) =   0
                l(2) =   0
                l(3) =   1
                l(4) =   1
                l(5) =   2
                l(6) =   2
     Q(r) pseudized with  8 coefficients,  rinner =    1.300   1.300   1.300
                                                       1.300   1.300

     PseudoPot. # 2 for Ta read from file:
     /afs/slac.stanford.edu/u/if/mamunm/psp/gbrv1.5pbe/Ta.UPF
     MD5 check sum: f8bbe9446314a3b8ea5d9f3e3836c939
     Pseudo is Ultrasoft + core correction, Zval = 13.0
     Generated by new atomic code, or converted to UPF format
     Using radial grid of  921 points,  7 beta functions with:
                l(1) =   0
                l(2) =   0
                l(3) =   1
                l(4) =   1
                l(5) =   2
                l(6) =   2
                l(7) =   3
     Q(r) pseudized with  6 coefficients,  rinner =    1.300   1.300   1.300
                                                       1.300   1.300   1.300
                                                       1.300

     vdW kernel table read from file vdW_kernel_table
     MD5 check sum: 095c7af220d748ca6e76c0b4c6cfb241

     atomic species   valence    mass     pseudopotential
        Tc1           15.00    97.90721     Tc( 1.00)
        Ta1           13.00   180.94788     Ta( 1.00)

     No symmetry found

   Cartesian axes

     site n.     atom                  positions (alat units)
         1           Tc1 tau(   1) = (   0.0000000   0.0000000  10.0000000  )
         2           Tc1 tau(   2) = (  -1.4009320   2.4264853  10.0000000  )
         3           Tc1 tau(   3) = (   1.4009320   2.4264853  10.0000000  )
         4           Ta1 tau(   4) = (   2.8018639   0.0000000  10.0000000  )
         5           Tc1 tau(   5) = (   2.8018639   1.6176569  12.2877123  )
         6           Tc1 tau(   6) = (   1.4009320   4.0441422  12.2877123  )
         7           Tc1 tau(   7) = (  -1.4009320   4.0441422  12.2877123  )
         8           Ta1 tau(   8) = (   0.0000000   1.6176569  12.2877123  )
         9           Tc1 tau(   9) = (  -0.0000004   3.2563978  14.4977836  )
        10           Tc1 tau(  10) = (   1.4191870   0.7982808  14.4977811  )
        11           Tc1 tau(  11) = (   4.1845349   0.7982768  14.4977872  )
        12           Ta1 tau(  12) = (   2.8018624   3.2353197  14.4477588  )

     number of k points=    20  Fermi-Dirac smearing, width (Ry)=  0.0110
                       cart. coord. in units 2pi/alat
        k(    1) = (   0.0000000   0.0000000   0.0000000), wk =   0.0555556
        k(    2) = (   0.0000000   0.0343432   0.0000000), wk =   0.1111111
        k(    3) = (   0.0000000   0.0686865   0.0000000), wk =   0.1111111
        k(    4) = (   0.0000000  -0.1030297   0.0000000), wk =   0.0555556
        k(    5) = (   0.0297421   0.0171716   0.0000000), wk =   0.1111111
        k(    6) = (   0.0297421   0.0515148   0.0000000), wk =   0.1111111
        k(    7) = (   0.0297421   0.0858581   0.0000000), wk =   0.1111111
        k(    8) = (   0.0297421  -0.0858581   0.0000000), wk =   0.1111111
        k(    9) = (   0.0297421  -0.0515148   0.0000000), wk =   0.1111111
        k(   10) = (   0.0297421  -0.0171716   0.0000000), wk =   0.1111111
        k(   11) = (   0.0594842   0.0343432   0.0000000), wk =   0.1111111
        k(   12) = (   0.0594842   0.0686865   0.0000000), wk =   0.1111111
        k(   13) = (   0.0594842   0.1030297   0.0000000), wk =   0.1111111
        k(   14) = (   0.0594842  -0.0686865   0.0000000), wk =   0.1111111
        k(   15) = (   0.0594842  -0.0343432   0.0000000), wk =   0.1111111
        k(   16) = (   0.0594842   0.0000000   0.0000000), wk =   0.1111111
        k(   17) = (  -0.0892263  -0.0515148   0.0000000), wk =   0.0555556
        k(   18) = (  -0.0892263  -0.0171716   0.0000000), wk =   0.1111111
        k(   19) = (  -0.0892263   0.0171716   0.0000000), wk =   0.1111111
        k(   20) = (  -0.0892263  -0.1545445   0.0000000), wk =   0.0555556

     Largest allocated arrays     est. size (Mb)     dimensions
     Largest temporary arrays     est. size (Mb)     dimensions

     Check: negative/imaginary core charge=   -0.000016    0.000000

     Initial potential from superposition of free atoms
     Check: negative starting charge=   -1.404508

     starting charge  164.99641, renormalised to  174.00000

[...]

     *
     * You are using vdW-DF for exchange-correlation in this calculation.
     * Please cite the following three references that made this development
     * possible:
     *
     *   M. Dion, H. Rydberg, E. Schroder, D. C. Langreth, and
     *   B. I. Lundqvist, Phys. Rev. Lett. 92, 246401 (2004).
     *
     *   T. Thonhauser, V. R. Cooper, S. Li, A. Puzder, P. Hyldgaard, and
     *   D. C. Langreth, Phys. Rev. B 76, 125112 (2007).
     *
     *   G. Roman-Perez and J. M. Soler, Phys. Rev. Lett. 103, 096102 (2009).
     *
     *
     * If you are using vdW-DF2, please also cite:
     *
     *   K. Lee, E. D. Murray, L. Kong, B. I. Lundqvist, and
     *   D. C. Langreth, Phys. Rev. B 82, 081101(R) (2010).
     *
     *
     * If you are calculating the stress with vdW-DF, please also cite:
     *
     *   R. Sabatini, E. Kucukbenli, B. Kolb, T. Thonhauser, and
     *   S. de Gironcoli, J. Phys.: Condens. Matter 24, 424209 (2012).
     *

     Carrying out vdW-DF run using the following parameters:

     Nqs =      20    Nr_points =    1024   r_max =   100.000
     q_mesh =
               0.00001000     0.04494208     0.09755937     0.15916263
               0.23128650     0.31572767     0.41458969     0.53033537
               0.66584808     0.82450364     1.01025438     1.22772762
               1.48234092     1.78043706     2.12944203     2.53805004
               3.01644009     3.57652955     4.23227104     5.00000000

     Gradients computed in reciprocal space

[...]

     Starting wfc are  156 randomized atomic wfcs

     Self-consistent Calculation

[...]

     total energy              =   -2007.13934106 Ry
     Harris-Foulkes estimate   =   -2007.13933959 Ry
     estimated scf accuracy    <       0.00000185 Ry

     iteration # 17     ecut=    36.75 Ry     beta=0.10
     Davidson diagonalization with overlap
     ethr =  1.06E-09,  avg # of iterations =  2.9

[...]

     negative rho (up, down):  1.471E+00 0.000E+00

     Adding external electric field

     Computed dipole along edir(3) :
        Dipole                0.0245 Ry au,          0.0623 Debye
        Dipole field          0.0001 Ry au

        Potential amp.       -0.0062 Ry
        Total length         45.2798 bohr

     End of self-consistent calculation

[...]

          k = 0.0595 0.0000 0.0000 ( 16974 PWs)   bands (ev):

[...]

          k =-0.0892-0.1545 0.0000 ( 17004 PWs)   bands (ev):

   -66.1101 -65.9264 -65.6725 -64.5471 -64.5197 -64.4904 -64.4321 -64.4088
   -64.3843 -64.3569 -64.3318 -64.3081 -36.8700 -36.7922 -36.7438 -36.6910
   -36.6652 -36.6499 -36.6295 -36.5803 -36.5760 -36.5210 -36.4498 -36.4252
   -36.4216 -36.4065 -36.3825 -36.3799 -36.3612 -36.3526 -36.3078 -36.2990
   -36.2809 -36.2508 -36.2492 -36.2141 -36.2007 -36.1483 -36.0833 -32.5405
   -32.3865 -32.3474 -32.3460 -32.2379 -32.2026 -32.0670 -32.0335 -32.0096
    -2.8154  -2.6300  -1.7529  -1.6623  -1.5195  -1.4641  -1.3999  -1.2493
    -1.1246  -1.1084  -0.8625  -0.6709  -0.6610  -0.5037  -0.4924  -0.3954
    -0.0813   0.0214   0.0353   0.1520   0.2984   0.4291   0.6845   0.8894
     0.9614   0.9887   1.0674   1.1011   1.1432   1.1690   1.2557   1.2706
     1.3052   1.4988   1.5841   1.6289   1.7328   1.7677   2.0212   2.0481
     2.3337   2.3560   2.4334   2.8232   2.9775   2.9817   3.0113   3.1539
     3.5294   3.5768   3.6531   3.8729   3.9493   4.3369   4.3506   4.5588
     4.6787   4.9757   4.9787   5.1047   5.2349   5.9142   5.9354   6.0372
     6.0613   6.7721   7.1241   7.3244   7.5073

     the Fermi energy is     2.2915 ev

!    total energy              =   -2007.13934734 Ry
     Harris-Foulkes estimate   =   -2007.13934126 Ry
     estimated scf accuracy    <       0.00000090 Ry

     The total energy is the sum of the following terms:

     one-electron contribution =  -16698.41073352 Ry
     hartree contribution      =    8344.76643970 Ry
     xc contribution           =    -428.69853366 Ry
     ewald contribution        =    6775.28987505 Ry
     electric field correction =       0.00000167 Ry
     smearing contrib. (-TS)   =      -0.08639659 Ry

     convergence has been achieved in  17 iterations

 BEEF-vdW xc energy contributions
           1 :   -376.302839447149
           2 :    346.538508097065
           3 :   -293.799193254765
           4 :    229.048946733555
           5 :   -163.867001784773
           6 :    107.098623614578
           7 :   -63.0847631230264
           8 :    31.7488940324693
           9 :   -10.1938985187884
          10 :   -5.19540010102241
          11 :    17.0343071415987
          12 :   -26.2128778578447
          13 :    32.1629964741442
          14 :   -33.7781336713081
          15 :    30.4146006311681
          16 :   -22.5369471127661
          17 :    11.7642969725715
          18 :  -0.398137383758581
          19 :   -9.31479738153877
          20 :    15.8289165851239
          21 :   -18.6103634775762
          22 :    18.0290186452543
          23 :   -14.9689604551559
          24 :    10.3794423513446
          25 :   -4.98468224770301
          26 :  -0.765117591735304
          27 :    6.54988459727622
          28 :   -11.9918148163686
          29 :    16.5585805259467
          30 :   -19.6214444633823
          31 :   -35.0399387572519
          32 :   -25.8016613072363

     Forces acting on atoms (Ry/au):

     negative rho (up, down):  1.471E+00 0.000E+00
     atom    1 type  1   force =    -0.00000365   -0.00754532    0.01389511
     atom    2 type  1   force =    -0.00653434    0.00376952    0.01389479
     atom    3 type  1   force =     0.00653984    0.00377674    0.01389712
     atom    4 type  2   force =     0.00000449    0.00000001    0.03136534
     atom    5 type  1   force =     0.00000945   -0.00560021   -0.01963299
     atom    6 type  1   force =    -0.00485000    0.00280538   -0.01963008
     atom    7 type  1   force =     0.00484912    0.00279389   -0.01963677
     atom    8 type  2   force =    -0.00001498    0.00000030   -0.01360032
     atom    9 type  1   force =     0.00000049    0.00003967   -0.00034907
     atom   10 type  1   force =     0.00003531   -0.00001827   -0.00035205
     atom   11 type  1   force =    -0.00003568   -0.00001945   -0.00034752
     atom   12 type  2   force =    -0.00000005   -0.00000225    0.00049643

     Total force =     0.056303     Total SCF correction =     0.001822

     entering subroutine stress ...

     negative rho (up, down):  1.471E+00 0.000E+00
          total   stress  (Ry/bohr**3)                   (kbar)     P=  -27.82
  -0.00023798   0.00000000   0.00000000        -35.01      0.00      0.00
   0.00000000  -0.00023797   0.00000000          0.00    -35.01      0.00
   0.00000000   0.00000000  -0.00009150          0.00      0.00    -13.46

 !ASE

     Writing output data file calc.save

     General routines

     Parallel routines

   This run was terminated on:  22: 6:12   1Jan2019

   JOB DONE.
Job  /afs/slac/g/suncat/bin/suncat-tsmpirun -x LD_LIBRARY_PATH -wdir /scratch/qe649181_JYmQI pw.x -in pw.inp

TID   HOST_NAME   COMMAND_LINE            STATUS            TERMINATION_TIME
00000 suncat0058 pw.x -in pw.inp   Done                     01/01/2019 22:06:12
00001 suncat0058 pw.x -in pw.inp   Done                     01/01/2019 22:06:12
00002 suncat0058 pw.x -in pw.inp   Done                     01/01/2019 22:06:12
00003 suncat0058 pw.x -in pw.inp   Done                     01/01/2019 22:06:12
00004 suncat0058 pw.x -in pw.inp   Done                     01/01/2019 22:06:12
00005 suncat0058 pw.x -in pw.inp   Done                     01/01/2019 22:06:12
00006 suncat0058 pw.x -in pw.inp   Done                     01/01/2019 22:06:12
00007 suncat0058 pw.x -in pw.inp   Done                     01/01/2019 22:06:12
00008 suncat0056 pw.x -in pw.inp   Done                     01/01/2019 22:06:12
00009 suncat0056 pw.x -in pw.inp   Done                     01/01/2019 22:06:12
00010 suncat0056 pw.x -in pw.inp   Done                     01/01/2019 22:06:12
00011 suncat0056 pw.x -in pw.inp   Done                     01/01/2019 22:06:12
00012 suncat0056 pw.x -in pw.inp   Done                     01/01/2019 22:06:12
00013 suncat0056 pw.x -in pw.inp   Done                     01/01/2019 22:06:12
00014 suncat0056 pw.x -in pw.inp   Done                     01/01/2019 22:06:12
00015 suncat0056 pw.x -in pw.inp   Done                     01/01/2019 22:06:12
00016 suncat0054 pw.x -in pw.inp   Done                     01/01/2019 22:06:12
00017 suncat0054 pw.x -in pw.inp   Done                     01/01/2019 22:06:12
00018 suncat0054 pw.x -in pw.inp   Done                     01/01/2019 22:06:12
00019 suncat0054 pw.x -in pw.inp   Done                     01/01/2019 22:06:12
00020 suncat0054 pw.x -in pw.inp   Done                     01/01/2019 22:06:12
00021 suncat0054 pw.x -in pw.inp   Done                     01/01/2019 22:06:12
00022 suncat0054 pw.x -in pw.inp   Done                     01/01/2019 22:06:12
00023 suncat0054 pw.x -in pw.inp   Done                     01/01/2019 22:06:12
00024 suncat0052 pw.x -in pw.inp   Done                     01/01/2019 22:06:12
00025 suncat0052 pw.x -in pw.inp   Done                     01/01/2019 22:06:12
00026 suncat0052 pw.x -in pw.inp   Done                     01/01/2019 22:06:12
00027 suncat0052 pw.x -in pw.inp   Done                     01/01/2019 22:06:12
00028 suncat0052 pw.x -in pw.inp   Done                     01/01/2019 22:06:12
00029 suncat0052 pw.x -in pw.inp   Done                     01/01/2019 22:06:12
00030 suncat0052 pw.x -in pw.inp   Done                     01/01/2019 22:06:12
00031 suncat0052 pw.x -in pw.inp   Done                     01/01/2019 22:06:12
00032 suncat0048 pw.x -in pw.inp   Done                     01/01/2019 22:06:12
00033 suncat0048 pw.x -in pw.inp   Done                     01/01/2019 22:06:12
00034 suncat0048 pw.x -in pw.inp   Done                     01/01/2019 22:06:12
00035 suncat0048 pw.x -in pw.inp   Done                     01/01/2019 22:06:12
00036 suncat0048 pw.x -in pw.inp   Done                     01/01/2019 22:06:12
00037 suncat0048 pw.x -in pw.inp   Done                     01/01/2019 22:06:12
00038 suncat0048 pw.x -in pw.inp   Done                     01/01/2019 22:06:12
00039 suncat0048 pw.x -in pw.inp   Done                     01/01/2019 22:06:12
00040 suncat0047 pw.x -in pw.inp   Done                     01/01/2019 22:06:12
00041 suncat0047 pw.x -in pw.inp   Done                     01/01/2019 22:06:12
00042 suncat0047 pw.x -in pw.inp   Done                     01/01/2019 22:06:12
00043 suncat0047 pw.x -in pw.inp   Done                     01/01/2019 22:06:12
00044 suncat0047 pw.x -in pw.inp   Done                     01/01/2019 22:06:12
00045 suncat0047 pw.x -in pw.inp   Done                     01/01/2019 22:06:12
00046 suncat0047 pw.x -in pw.inp   Done                     01/01/2019 22:06:12
00047 suncat0047 pw.x -in pw.inp   Done                     01/01/2019 22:06:12
00048 suncat0121 pw.x -in pw.inp   Done                     01/01/2019 22:06:12
00049 suncat0121 pw.x -in pw.inp   Done                     01/01/2019 22:06:12
00050 suncat0121 pw.x -in pw.inp   Done                     01/01/2019 22:06:12
00051 suncat0121 pw.x -in pw.inp   Done                     01/01/2019 22:06:12
00052 suncat0121 pw.x -in pw.inp   Done                     01/01/2019 22:06:12
00053 suncat0121 pw.x -in pw.inp   Done                     01/01/2019 22:06:12
00054 suncat0121 pw.x -in pw.inp   Done                     01/01/2019 22:06:12
00055 suncat0121 pw.x -in pw.inp   Done                     01/01/2019 22:06:12
00056 suncat0115 pw.x -in pw.inp   Done                     01/01/2019 22:06:12
00057 suncat0115 pw.x -in pw.inp   Done                     01/01/2019 22:06:12
00058 suncat0115 pw.x -in pw.inp   Done                     01/01/2019 22:06:12
00059 suncat0115 pw.x -in pw.inp   Done                     01/01/2019 22:06:12
00060 suncat0115 pw.x -in pw.inp   Done                     01/01/2019 22:06:12
00061 suncat0115 pw.x -in pw.inp   Done                     01/01/2019 22:06:12
00062 suncat0115 pw.x -in pw.inp   Done                     01/01/2019 22:06:12
00063 suncat0115 pw.x -in pw.inp   Done                     01/01/2019 22:06:12