     Program PWSCF v.5.1rc2 (svn rev. 11289) starts on 27Dec2018 at 19:28:33

     Current dimensions of program PWSCF are:
     Max number of different atomic species (ntypx) = 10
     Max number of k-points (npk) =  40000
     Max angular momentum in pseudopotentials (lmaxx) =  3
     Presently stress not available with electric field

     IMPORTANT: XC functional enforced from input :
     Exchange-correlation      = BEEF-VDW ( 1  4 27 13 2)
     Any further DFT definition will be discarded
     Please, verify this is what you really want

     Subspace diagonalization in iterative solution of the eigenvalue problem:
     a serial algorithm will be used

     bravais-lattice index     =            0
     lattice parameter (alat)  =       1.8897  a.u.
     unit-cell volume          =    4754.3961 (a.u.)^3
     number of atoms/cell      =           12
     number of atomic types    =            2
     number of electrons       =       180.00
     number of Kohn-Sham states=          120
     kinetic-energy cutoff     =      36.7493  Ry
     charge density cutoff     =     367.4932  Ry
     convergence threshold     =      1.0E-06
     mixing beta               =       0.1000
     number of iterations used =           10  plain     mixing
     Exchange-correlation      = BEEF-VDW ( 1  4 27 13 2)
     nstep                     =           50

     celldm(1)=   1.889726  celldm(2)=   0.000000  celldm(3)=   0.000000
     celldm(4)=   0.000000  celldm(5)=   0.000000  celldm(6)=   0.000000

     crystal axes: (cart. coord. in units of alat)
               a(1) = (   5.740492   0.000000   0.000000 )
               a(2) = (  -2.870246   4.971412   0.000000 )
               a(3) = (   0.000000   0.000000  24.687092 )

     reciprocal axes: (cart. coord. in units 2 pi/alat)
               b(1) = (  0.174201  0.100575  0.000000 )
               b(2) = (  0.000000  0.201150  0.000000 )
               b(3) = (  0.000000  0.000000  0.040507 )

     PseudoPot. # 1 for Pt read from file:
     /afs/slac.stanford.edu/u/if/mamunm/psp/gbrv1.5pbe/Pt.UPF
     MD5 check sum: f09d6de1a584b5a045c4fc126da2d0c4
     Pseudo is Ultrasoft + core correction, Zval = 16.0
     Generated by new atomic code, or converted to UPF format
     Using radial grid of  985 points,  6 beta functions with:
                l(1) =   0
                l(2) =   0
                l(3) =   1
                l(4) =   1
                l(5) =   2
                l(6) =   2
     Q(r) pseudized with  8 coefficients,  rinner =    1.300   1.300   1.300
                                                       1.300   1.300

     PseudoPot. # 2 for Zr read from file:
     /afs/slac.stanford.edu/u/if/mamunm/psp/gbrv1.5pbe/Zr.UPF
     MD5 check sum: 5db81b1e868ab7776c4564c113de050b
     Pseudo is Ultrasoft + core correction, Zval = 12.0
     Generated by new atomic code, or converted to UPF format
     Using radial grid of  887 points,  6 beta functions with:
                l(1) =   0
                l(2) =   0
                l(3) =   1
                l(4) =   1
                l(5) =   2
                l(6) =   2
     Q(r) pseudized with  6 coefficients,  rinner =    1.200   1.200   1.200
                                                       1.200   1.200

     vdW kernel table read from file vdW_kernel_table
     MD5 check sum: 095c7af220d748ca6e76c0b4c6cfb241

     atomic species   valence    mass     pseudopotential
        Pt1           16.00   195.08400     Pt( 1.00)
        Zr1           12.00    91.22400     Zr( 1.00)

     No symmetry found

   Cartesian axes

     site n.     atom                  positions (alat units)
         1           Pt1 tau(   1) = (   0.0000000   0.0000000  10.0000000  )
         2           Pt1 tau(   2) = (  -1.4351229   2.4857058  10.0000000  )
         3           Pt1 tau(   3) = (   1.4351229   2.4857058  10.0000000  )
         4           Zr1 tau(   4) = (   2.8702459   0.0000000  10.0000000  )
         5           Pt1 tau(   5) = (   2.8702459   1.6571372  12.3435459  )
         6           Pt1 tau(   6) = (   1.4351229   4.1428431  12.3435459  )
         7           Pt1 tau(   7) = (  -1.4351229   4.1428431  12.3435459  )
         8           Zr1 tau(   8) = (   0.0000000   1.6571372  12.3435459  )
         9           Pt1 tau(   9) = (  -0.0000000   3.3142745  14.6870919  )
        10           Pt1 tau(  10) = (   1.4351229   0.8285686  14.6870919  )
        11           Pt1 tau(  11) = (   4.3053688   0.8285686  14.6870919  )
        12           Zr1 tau(  12) = (   2.8702459   3.3142745  14.6870919  )

     number of k points=    20  Fermi-Dirac smearing, width (Ry)=  0.0110
                       cart. coord. in units 2pi/alat
        k(    1) = (   0.0000000   0.0000000   0.0000000), wk =   0.0555556
        k(    2) = (   0.0000000   0.0335250   0.0000000), wk =   0.1111111
        k(    3) = (   0.0000000   0.0670500   0.0000000), wk =   0.1111111
        k(    4) = (   0.0000000  -0.1005751   0.0000000), wk =   0.0555556
        k(    5) = (   0.0290335   0.0167625   0.0000000), wk =   0.1111111
        k(    6) = (   0.0290335   0.0502875   0.0000000), wk =   0.1111111
        k(    7) = (   0.0290335   0.0838125   0.0000000), wk =   0.1111111
        k(    8) = (   0.0290335  -0.0838125   0.0000000), wk =   0.1111111
        k(    9) = (   0.0290335  -0.0502875   0.0000000), wk =   0.1111111
        k(   10) = (   0.0290335  -0.0167625   0.0000000), wk =   0.1111111
        k(   11) = (   0.0580670   0.0335250   0.0000000), wk =   0.1111111
        k(   12) = (   0.0580670   0.0670500   0.0000000), wk =   0.1111111
        k(   13) = (   0.0580670   0.1005751   0.0000000), wk =   0.1111111
        k(   14) = (   0.0580670  -0.0670500   0.0000000), wk =   0.1111111
        k(   15) = (   0.0580670  -0.0335250   0.0000000), wk =   0.1111111
        k(   16) = (   0.0580670   0.0000000   0.0000000), wk =   0.1111111
        k(   17) = (  -0.0871006  -0.0502875   0.0000000), wk =   0.0555556
        k(   18) = (  -0.0871006  -0.0167625   0.0000000), wk =   0.1111111
        k(   19) = (  -0.0871006   0.0167625   0.0000000), wk =   0.1111111
        k(   20) = (  -0.0871006  -0.1508626   0.0000000), wk =   0.0555556

     Largest allocated arrays     est. size (Mb)     dimensions
     Largest temporary arrays     est. size (Mb)     dimensions

     Initial potential from superposition of free atoms
     Check: negative starting charge=   -1.824735

     starting charge  175.49345, renormalised to  180.00000

     negative rho (up, down):  1.872E+00 0.000E+00

     *
     * You are using vdW-DF for exchange-correlation in this calculation.
     * Please cite the following three references that made this development
     * possible:
     *
     *   M. Dion, H. Rydberg, E. Schroder, D. C. Langreth, and
     *   B. I. Lundqvist, Phys. Rev. Lett. 92, 246401 (2004).
     *
     *   T. Thonhauser, V. R. Cooper, S. Li, A. Puzder, P. Hyldgaard, and
     *   D. C. Langreth, Phys. Rev. B 76, 125112 (2007).
     *
     *   G. Roman-Perez and J. M. Soler, Phys. Rev. Lett. 103, 096102 (2009).
     *
     *
     * If you are using vdW-DF2, please also cite:
     *
     *   K. Lee, E. D. Murray, L. Kong, B. I. Lundqvist, and
     *   D. C. Langreth, Phys. Rev. B 82, 081101(R) (2010).
     *
     *
     * If you are calculating the stress with vdW-DF, please also cite:
     *
     *   R. Sabatini, E. Kucukbenli, B. Kolb, T. Thonhauser, and
     *   S. de Gironcoli, J. Phys.: Condens. Matter 24, 424209 (2012).
     *

     Carrying out vdW-DF run using the following parameters:

     Nqs =      20    Nr_points =    1024   r_max =   100.000
     q_mesh =
               0.00001000     0.04494208     0.09755937     0.15916263
               0.23128650     0.31572767     0.41458969     0.53033537
               0.66584808     0.82450364     1.01025438     1.22772762
               1.48234092     1.78043706     2.12944203     2.53805004
               3.01644009     3.57652955     4.23227104     5.00000000

     Gradients computed in reciprocal space

     Adding external electric field

     Computed dipole along edir(3) :
        Dipole                0.0000 Ry au,          0.0000 Debye
        Dipole field          0.0000 Ry au

        Potential amp.       -0.0000 Ry
        Total length         45.4855 bohr

     Starting wfc are  147 randomized atomic wfcs

     Self-consistent Calculation

     iteration #  1     ecut=    36.75 Ry     beta=0.10
     Davidson diagonalization with overlap
     ethr =  1.00E-02,  avg # of iterations =  7.8

[...]

     total energy              =   -2211.15101005 Ry
     Harris-Foulkes estimate   =   -2213.70439027 Ry
     estimated scf accuracy    <      15.66506950 Ry

[...]

     End of self-consistent calculation

          k = 0.0000 0.0000 0.0000 ( 17959 PWs)   bands (ev):

   -50.9631 -50.8576 -50.8576 -50.7927 -50.7927 -50.7796 -50.7250 -50.6820
   -50.6819 -50.4941 -50.4941 -50.4836 -50.4836 -50.4550 -50.4512 -50.4007
   -50.3986 -50.2520 -50.2520 -50.2519 -50.2519 -50.2359 -50.2214 -50.2115
   -50.2115 -50.2049 -50.2049 -47.9675 -47.9637 -47.6676 -26.0152 -26.0002
   -25.8217 -25.8217 -25.8184 -25.8184 -25.6489 -25.6489 -25.5489  -5.8906
    -4.2838  -4.0452  -3.7354  -3.7354  -3.4981  -3.4980  -3.4160  -3.2245
    -3.0148  -3.0148  -2.8961  -2.8586  -2.8586  -2.6671  -1.6476  -1.5643
    -1.5643  -1.4616  -1.4615  -1.1444  -0.9662  -0.8793  -0.7928  -0.7700
    -0.7700  -0.5941  -0.5940  -0.3014  -0.3014  -0.1968  -0.1968  -0.1606
    -0.1606   0.4006   0.8275   0.8275   0.8426   0.8426   0.9707   0.9708
     1.1125   1.4480   1.5405   1.6716   1.6716   1.8469   2.2208   2.2691
     2.5774   2.7913   3.3030   3.3030   3.6495   3.7971   3.7972   4.0057
     4.0057   4.0352   4.0352   4.2474   4.2474   4.2731   4.4983   4.4983
     5.1582   5.1582   5.8160   5.8160   5.8556   6.2268   6.4209   6.4209
     6.5159   6.6852   6.9501   7.7831   8.3032   8.3032   8.3596   8.3596

[...]

          k =-0.0871-0.0503 0.0000 ( 17856 PWs)   bands (ev):

[...]

     the Fermi energy is     2.0650 ev

!    total energy              =   -2211.11964483 Ry
     Harris-Foulkes estimate   =   -2211.11963138 Ry
     estimated scf accuracy    <       0.00000074 Ry

     The total energy is the sum of the following terms:

     one-electron contribution =  -16658.75802880 Ry
     hartree contribution      =    8355.59710039 Ry
     xc contribution           =    -582.89634144 Ry
     ewald contribution        =    6674.97519761 Ry
     electric field correction =       0.00000000 Ry
     smearing contrib. (-TS)   =      -0.03757259 Ry

     convergence has been achieved in  15 iterations

 BEEF-vdW xc energy contributions
           1 :   -516.875996223136
           2 :    479.987777460001
           3 :   -414.166762984284
           4 :    332.436546258115
           5 :   -248.773608254710
           6 :    174.389562102060
           7 :   -115.558494770102
           8 :    73.3274645076442
           9 :   -44.8365956038134
          10 :    25.4914642945749
          11 :   -11.0821855046732
          12 :  -0.908350478579678
          13 :    11.0837216270916
[...]
     /afs/slac.stanford.edu/u/if/mamunm/psp/gbrv1.5pbe/Pt.UPF
     MD5 check sum: f09d6de1a584b5a045c4fc126da2d0c4
     Pseudo is Ultrasoft + core correction, Zval = 16.0
     Generated by new atomic code, or converted to UPF format
     Using radial grid of  985 points,  6 beta functions with:
                l(1) =   0
                l(2) =   0
                l(3) =   1
                l(4) =   1
                l(5) =   2
                l(6) =   2
     Q(r) pseudized with  8 coefficients,  rinner =    1.300   1.300   1.300
                                                       1.300   1.300

     PseudoPot. # 2 for Zr read from file:
     /afs/slac.stanford.edu/u/if/mamunm/psp/gbrv1.5pbe/Zr.UPF
     MD5 check sum: 5db81b1e868ab7776c4564c113de050b
     Pseudo is Ultrasoft + core correction, Zval = 12.0
     Generated by new atomic code, or converted to UPF format
     Using radial grid of  887 points,  6 beta functions with:
                l(1) =   0
                l(2) =   0
                l(3) =   1
                l(4) =   1
                l(5) =   2
                l(6) =   2
     Q(r) pseudized with  6 coefficients,  rinner =    1.200   1.200   1.200
                                                       1.200   1.200

     vdW kernel table read from file vdW_kernel_table
     MD5 check sum: 095c7af220d748ca6e76c0b4c6cfb241

     atomic species   valence    mass     pseudopotential
        Pt1           16.00   195.08400     Pt( 1.00)
        Zr1           12.00    91.22400     Zr( 1.00)

     No symmetry found

   Cartesian axes

     site n.     atom                  positions (alat units)
         1           Pt1 tau(   1) = (   0.0000000   0.0000000  10.0000000  )
         2           Pt1 tau(   2) = (  -1.4351229   2.4857058  10.0000000  )
         3           Pt1 tau(   3) = (   1.4351229   2.4857058  10.0000000  )
         4           Zr1 tau(   4) = (   2.8702459   0.0000000  10.0000000  )
         5           Pt1 tau(   5) = (   2.8702459   1.6571372  12.3435459  )
         6           Pt1 tau(   6) = (   1.4351229   4.1428431  12.3435459  )
         7           Pt1 tau(   7) = (  -1.4351229   4.1428431  12.3435459  )
         8           Zr1 tau(   8) = (   0.0000000   1.6571372  12.3435459  )
         9           Pt1 tau(   9) = (   0.0000050   3.2754072  14.6616336  )
        10           Pt1 tau(  10) = (   1.4014641   0.8480083  14.6616337  )
        11           Pt1 tau(  11) = (   4.3390340   0.8480065  14.6616332  )
        12           Zr1 tau(  12) = (   2.8702524   3.3142798  14.6241018  )

     number of k points=    20  Fermi-Dirac smearing, width (Ry)=  0.0110
                       cart. coord. in units 2pi/alat
        k(    1) = (   0.0000000   0.0000000   0.0000000), wk =   0.0555556
        k(    2) = (   0.0000000   0.0335250   0.0000000), wk =   0.1111111
        k(    3) = (   0.0000000   0.0670500   0.0000000), wk =   0.1111111
        k(    4) = (   0.0000000  -0.1005751   0.0000000), wk =   0.0555556
        k(    5) = (   0.0290335   0.0167625   0.0000000), wk =   0.1111111
        k(    6) = (   0.0290335   0.0502875   0.0000000), wk =   0.1111111
        k(    7) = (   0.0290335   0.0838125   0.0000000), wk =   0.1111111
        k(    8) = (   0.0290335  -0.0838125   0.0000000), wk =   0.1111111
        k(    9) = (   0.0290335  -0.0502875   0.0000000), wk =   0.1111111
        k(   10) = (   0.0290335  -0.0167625   0.0000000), wk =   0.1111111
        k(   11) = (   0.0580670   0.0335250   0.0000000), wk =   0.1111111
        k(   12) = (   0.0580670   0.0670500   0.0000000), wk =   0.1111111
        k(   13) = (   0.0580670   0.1005751   0.0000000), wk =   0.1111111
        k(   14) = (   0.0580670  -0.0670500   0.0000000), wk =   0.1111111
        k(   15) = (   0.0580670  -0.0335250   0.0000000), wk =   0.1111111
        k(   16) = (   0.0580670   0.0000000   0.0000000), wk =   0.1111111
        k(   17) = (  -0.0871006  -0.0502875   0.0000000), wk =   0.0555556
        k(   18) = (  -0.0871006  -0.0167625   0.0000000), wk =   0.1111111
        k(   19) = (  -0.0871006   0.0167625   0.0000000), wk =   0.1111111
        k(   20) = (  -0.0871006  -0.1508626   0.0000000), wk =   0.0555556

     Largest allocated arrays     est. size (Mb)     dimensions
     Largest temporary arrays     est. size (Mb)     dimensions

     Initial potential from superposition of free atoms
     Check: negative starting charge=   -1.831806

     starting charge  175.49345, renormalised to  180.00000

[...]

     *
     * You are using vdW-DF for exchange-correlation in this calculation.
     * Please cite the following three references that made this development
     * possible:
     *
     *   M. Dion, H. Rydberg, E. Schroder, D. C. Langreth, and
     *   B. I. Lundqvist, Phys. Rev. Lett. 92, 246401 (2004).
     *
     *   T. Thonhauser, V. R. Cooper, S. Li, A. Puzder, P. Hyldgaard, and
     *   D. C. Langreth, Phys. Rev. B 76, 125112 (2007).
     *
     *   G. Roman-Perez and J. M. Soler, Phys. Rev. Lett. 103, 096102 (2009).
     *
     *
     * If you are using vdW-DF2, please also cite:
     *
     *   K. Lee, E. D. Murray, L. Kong, B. I. Lundqvist, and
     *   D. C. Langreth, Phys. Rev. B 82, 081101(R) (2010).
     *
     *
     * If you are calculating the stress with vdW-DF, please also cite:
     *
     *   R. Sabatini, E. Kucukbenli, B. Kolb, T. Thonhauser, and
     *   S. de Gironcoli, J. Phys.: Condens. Matter 24, 424209 (2012).
     *

     Carrying out vdW-DF run using the following parameters:

     Nqs =      20    Nr_points =    1024   r_max =   100.000
     q_mesh =
               0.00001000     0.04494208     0.09755937     0.15916263
               0.23128650     0.31572767     0.41458969     0.53033537
               0.66584808     0.82450364     1.01025438     1.22772762
               1.48234092     1.78043706     2.12944203     2.53805004
               3.01644009     3.57652955     4.23227104     5.00000000

     Gradients computed in reciprocal space

[...]

     Starting wfc are  147 randomized atomic wfcs

     Self-consistent Calculation

[...]

     total energy              =   -2211.13707350 Ry
     Harris-Foulkes estimate   =   -2211.13706730 Ry
     estimated scf accuracy    <       0.00000144 Ry

     iteration # 16     ecut=    36.75 Ry     beta=0.10
     Davidson diagonalization with overlap
     ethr =  8.01E-10,  avg # of iterations =  2.0

[...]

     negative rho (up, down):  1.769E+00 0.000E+00

     Adding external electric field

     Computed dipole along edir(3) :
        Dipole               -0.0068 Ry au,         -0.0172 Debye
        Dipole field         -0.0000 Ry au

        Potential amp.        0.0016 Ry
        Total length         45.4855 bohr

     End of self-consistent calculation

[...]

          k = 0.0581 0.0000 0.0000 ( 17903 PWs)   bands (ev):

[...]

          k =-0.0871-0.1509 0.0000 ( 17856 PWs)   bands (ev):

   -50.9653 -50.9130 -50.8811 -50.8453 -50.8155 -50.7941 -50.7915 -50.7713
   -50.7215 -50.5222 -50.4976 -50.4882 -50.4600 -50.4533 -50.4392 -50.4345
   -50.3878 -50.3567 -50.3352 -50.2961 -50.2660 -50.2639 -50.2523 -50.2468
   -50.2288 -50.2209 -50.2149 -47.9773 -47.9202 -47.6345 -26.0295 -25.9747
   -25.8582 -25.8441 -25.8160 -25.8015 -25.6525 -25.6368 -25.5313  -4.4299
    -4.1447  -3.1516  -3.0240  -2.9691  -2.8744  -2.7742  -2.7171  -2.5901
    -2.4531  -2.4235  -2.2808  -2.1574  -1.9963  -1.9293  -1.8231  -1.8013
    -1.7755  -1.6260  -1.5064  -1.1470  -1.0547  -1.0463  -0.9204  -0.8997
    -0.8802  -0.7408  -0.6901  -0.6872  -0.6322  -0.6245  -0.5357  -0.5149
    -0.4428  -0.4315  -0.2827  -0.1492  -0.0857   0.0320   0.1054   0.1466
     0.2566   0.4969   0.5545   0.8607   0.9791   0.9801   1.0827   1.4932
     1.5574   1.6000   1.9030   2.5528   2.6712   3.1897   3.2831   3.3993
     3.4227   3.5633   3.7000   3.7785   3.9673   4.1743   4.2806   4.4849
     5.0048   5.3607   5.6331   6.6690   7.0668   7.1297   7.1648   7.3021
     7.6799   7.7155   7.9668   8.2421   8.2989   8.3157   8.3767   9.0814

     the Fermi energy is     2.0560 ev

!    total energy              =   -2211.13708430 Ry
     Harris-Foulkes estimate   =   -2211.13707369 Ry
     estimated scf accuracy    <       0.00000034 Ry

     The total energy is the sum of the following terms:

     one-electron contribution =  -16737.15881468 Ry
     hartree contribution      =    8394.64694825 Ry
     xc contribution           =    -582.97799394 Ry
     ewald contribution        =    6714.38908186 Ry
     electric field correction =       0.00000012 Ry
     smearing contrib. (-TS)   =      -0.03630591 Ry

     convergence has been achieved in  16 iterations

 BEEF-vdW xc energy contributions
           1 :   -517.364636804740
           2 :    480.505733010367
           3 :   -414.723284476229
           4 :    333.012226823810
           5 :   -249.329201049341
           6 :    174.886452683578
           7 :   -115.979277120256
           8 :    73.6856667945692
           9 :   -45.1709152321847
          10 :    25.8474888717644
          11 :   -11.4912302864115
          12 :  -0.442323721816365
          13 :    10.5829802710263
          14 :   -18.2854603925085
          15 :    22.6199031628921
          16 :   -23.2060851042760
          17 :    20.5790796352694
          18 :   -16.0492319030951
          19 :    11.2214384959949
          20 :   -7.44828789891403
          21 :    5.45048501397969
          22 :   -5.22108788775051
          23 :    6.18402798643194
          24 :   -7.50360812301233
          25 :    8.41614925838871
          26 :   -8.47939444683243
          27 :    7.67143198963720
          28 :   -6.32875128200646
          29 :    4.96204895877725
          30 :   -4.02958297074213
          31 :   -43.9377832303830
          32 :   -32.5347027270504

     Forces acting on atoms (Ry/au):

     negative rho (up, down):  1.769E+00 0.000E+00
     atom    1 type  1   force =     0.00000004    0.01860315    0.00310978
     atom    2 type  1   force =     0.01611088   -0.00930157    0.00310967
     atom    3 type  1   force =    -0.01611077   -0.00930156    0.00310965
     atom    4 type  2   force =     0.00000021    0.00000006    0.01237583
     atom    5 type  1   force =     0.00000020   -0.00222218   -0.00435450
     atom    6 type  1   force =    -0.00192446    0.00111141   -0.00435456
     atom    7 type  1   force =     0.00192485    0.00111142   -0.00435420
     atom    8 type  2   force =     0.00000017    0.00000011   -0.00828540
     atom    9 type  1   force =    -0.00000045   -0.00011184   -0.00024313
     atom   10 type  1   force =    -0.00009702    0.00005546   -0.00024313
     atom   11 type  1   force =     0.00009704    0.00005601   -0.00024302
     atom   12 type  2   force =    -0.00000068   -0.00000048    0.00037300

     Total force =     0.036893     Total SCF correction =     0.001846

     entering subroutine stress ...

     negative rho (up, down):  1.769E+00 0.000E+00
          total   stress  (Ry/bohr**3)                   (kbar)     P=  -18.26
  -0.00016978   0.00000000  -0.00000000        -24.98      0.00     -0.00
   0.00000000  -0.00016978  -0.00000000          0.00    -24.98     -0.00
  -0.00000000  -0.00000000  -0.00003285         -0.00     -0.00     -4.83

 !ASE

     Writing output data file calc.save

     General routines

     Parallel routines

   This run was terminated on:  20:23:35  27Dec2018

   JOB DONE.
Job  /afs/slac/g/suncat/bin/suncat-tsmpirun -x LD_LIBRARY_PATH -wdir /scratch/qe110581_05M3u pw.x -in pw.inp

TID   HOST_NAME   COMMAND_LINE            STATUS            TERMINATION_TIME
00000 suncat0138 pw.x -in pw.inp   Done                     12/27/2018 20:23:35
00001 suncat0138 pw.x -in pw.inp   Done                     12/27/2018 20:23:35
00002 suncat0138 pw.x -in pw.inp   Done                     12/27/2018 20:23:35
00003 suncat0138 pw.x -in pw.inp   Done                     12/27/2018 20:23:35
00004 suncat0138 pw.x -in pw.inp   Done                     12/27/2018 20:23:35
00005 suncat0138 pw.x -in pw.inp   Done                     12/27/2018 20:23:35
00006 suncat0138 pw.x -in pw.inp   Done                     12/27/2018 20:23:35
00007 suncat0138 pw.x -in pw.inp   Done                     12/27/2018 20:23:35
00008 suncat0113 pw.x -in pw.inp   Done                     12/27/2018 20:23:35
00009 suncat0113 pw.x -in pw.inp   Done                     12/27/2018 20:23:35
00010 suncat0113 pw.x -in pw.inp   Done                     12/27/2018 20:23:35
00011 suncat0113 pw.x -in pw.inp   Done                     12/27/2018 20:23:35
00012 suncat0113 pw.x -in pw.inp   Done                     12/27/2018 20:23:35
00013 suncat0113 pw.x -in pw.inp   Done                     12/27/2018 20:23:35
00014 suncat0113 pw.x -in pw.inp   Done                     12/27/2018 20:23:35
00015 suncat0113 pw.x -in pw.inp   Done                     12/27/2018 20:23:35
00016 suncat0110 pw.x -in pw.inp   Done                     12/27/2018 20:23:35
00017 suncat0110 pw.x -in pw.inp   Done                     12/27/2018 20:23:35
00018 suncat0110 pw.x -in pw.inp   Done                     12/27/2018 20:23:35
00019 suncat0110 pw.x -in pw.inp   Done                     12/27/2018 20:23:35
00020 suncat0110 pw.x -in pw.inp   Done                     12/27/2018 20:23:35
00021 suncat0110 pw.x -in pw.inp   Done                     12/27/2018 20:23:35
00022 suncat0110 pw.x -in pw.inp   Done                     12/27/2018 20:23:35
00023 suncat0110 pw.x -in pw.inp   Done                     12/27/2018 20:23:35
00024 suncat0109 pw.x -in pw.inp   Done                     12/27/2018 20:23:35
00025 suncat0109 pw.x -in pw.inp   Done                     12/27/2018 20:23:35
00026 suncat0109 pw.x -in pw.inp   Done                     12/27/2018 20:23:35
00027 suncat0109 pw.x -in pw.inp   Done                     12/27/2018 20:23:35
00028 suncat0109 pw.x -in pw.inp   Done                     12/27/2018 20:23:35
00029 suncat0109 pw.x -in pw.inp   Done                     12/27/2018 20:23:35
00030 suncat0109 pw.x -in pw.inp   Done                     12/27/2018 20:23:35
00031 suncat0109 pw.x -in pw.inp   Done                     12/27/2018 20:23:35
00032 suncat0262 pw.x -in pw.inp   Done                     12/27/2018 20:23:35
00033 suncat0262 pw.x -in pw.inp   Done                     12/27/2018 20:23:35
00034 suncat0262 pw.x -in pw.inp   Done                     12/27/2018 20:23:35
00035 suncat0262 pw.x -in pw.inp   Done                     12/27/2018 20:23:35
00036 suncat0262 pw.x -in pw.inp   Done                     12/27/2018 20:23:35
00037 suncat0262 pw.x -in pw.inp   Done                     12/27/2018 20:23:35
00038 suncat0262 pw.x -in pw.inp   Done                     12/27/2018 20:23:35
00039 suncat0262 pw.x -in pw.inp   Done                     12/27/2018 20:23:35
00040 suncat0258 pw.x -in pw.inp   Done                     12/27/2018 20:23:35
00041 suncat0258 pw.x -in pw.inp   Done                     12/27/2018 20:23:35
00042 suncat0258 pw.x -in pw.inp   Done                     12/27/2018 20:23:35
00043 suncat0258 pw.x -in pw.inp   Done                     12/27/2018 20:23:35
00044 suncat0258 pw.x -in pw.inp   Done                     12/27/2018 20:23:35
00045 suncat0258 pw.x -in pw.inp   Done                     12/27/2018 20:23:35
00046 suncat0258 pw.x -in pw.inp   Done                     12/27/2018 20:23:35
00047 suncat0258 pw.x -in pw.inp   Done                     12/27/2018 20:23:35
00048 suncat0257 pw.x -in pw.inp   Done                     12/27/2018 20:23:35
00049 suncat0257 pw.x -in pw.inp   Done                     12/27/2018 20:23:35
00050 suncat0257 pw.x -in pw.inp   Done                     12/27/2018 20:23:35
00051 suncat0257 pw.x -in pw.inp   Done                     12/27/2018 20:23:35
00052 suncat0257 pw.x -in pw.inp   Done                     12/27/2018 20:23:35
00053 suncat0257 pw.x -in pw.inp   Done                     12/27/2018 20:23:35
00054 suncat0257 pw.x -in pw.inp   Done                     12/27/2018 20:23:35
00055 suncat0257 pw.x -in pw.inp   Done                     12/27/2018 20:23:35
00056 suncat0251 pw.x -in pw.inp   Done                     12/27/2018 20:23:35
00057 suncat0251 pw.x -in pw.inp   Done                     12/27/2018 20:23:35
00058 suncat0251 pw.x -in pw.inp   Done                     12/27/2018 20:23:35
00059 suncat0251 pw.x -in pw.inp   Done                     12/27/2018 20:23:35
00060 suncat0251 pw.x -in pw.inp   Done                     12/27/2018 20:23:35
00061 suncat0251 pw.x -in pw.inp   Done                     12/27/2018 20:23:35
00062 suncat0251 pw.x -in pw.inp   Done                     12/27/2018 20:23:35
00063 suncat0251 pw.x -in pw.inp   Done                     12/27/2018 20:23:35