     Program PWSCF v.5.1rc2 (svn rev. 11289) starts on 31Dec2018 at 23:14:34

     Current dimensions of program PWSCF are:
     Max number of different atomic species (ntypx) = 10
     Max number of k-points (npk) =  40000
     Max angular momentum in pseudopotentials (lmaxx) =  3
     Presently stress not available with electric field

     IMPORTANT: XC functional enforced from input :
     Exchange-correlation      = BEEF-VDW ( 1  4 27 13 2)
     Any further DFT definition will be discarded
     Please, verify this is what you really want

     Subspace diagonalization in iterative solution of the eigenvalue problem:
     a serial algorithm will be used

     bravais-lattice index     =            0
     lattice parameter (alat)  =       1.8897  a.u.
     unit-cell volume          =    4317.1415 (a.u.)^3
     number of atoms/cell      =           12
     number of atomic types    =            2
     number of electrons       =       183.00
     number of Kohn-Sham states=          121
     kinetic-energy cutoff     =      36.7493  Ry
     charge density cutoff     =     367.4932  Ry
     convergence threshold     =      1.0E-06
     mixing beta               =       0.1000
     number of iterations used =           10  plain     mixing
     Exchange-correlation      = BEEF-VDW ( 1  4 27 13 2)
     nstep                     =           50

     celldm(1)=   1.889726  celldm(2)=   0.000000  celldm(3)=   0.000000
     celldm(4)=   0.000000  celldm(5)=   0.000000  celldm(6)=   0.000000

     crystal axes: (cart. coord. in units of alat)
               a(1) = (   5.492707   0.000000   0.000000 )
               a(2) = (  -2.746354   4.756824   0.000000 )
               a(3) = (   0.000000   0.000000  24.484777 )

     reciprocal axes: (cart. coord. in units 2 pi/alat)
               b(1) = (  0.182060  0.105112  0.000000 )
               b(2) = (  0.000000  0.210224  0.000000 )
               b(3) = (  0.000000  0.000000  0.040842 )

     PseudoPot. # 1 for Rh read from file:
     /afs/slac.stanford.edu/u/if/mamunm/psp/gbrv1.5pbe/Rh.UPF
     MD5 check sum: 761627e959a2e3a1f56b0b5fe687810e
     Pseudo is Ultrasoft + core correction, Zval = 15.0
     Generated by new atomic code, or converted to UPF format
     Using radial grid of  969 points,  7 beta functions with:
                l(1) =   0
                l(2) =   0
                l(3) =   1
                l(4) =   1
                l(5) =   2
                l(6) =   2
                l(7) =   2
     Q(r) pseudized with  8 coefficients,  rinner =    1.200   1.200   1.200
                                                       1.200   1.200

     PseudoPot. # 2 for Pd read from file:
     /afs/slac.stanford.edu/u/if/mamunm/psp/gbrv1.5pbe/Pd.UPF
     MD5 check sum: 2d733d2bc2cbfd217af676df1668a4bc
     Pseudo is Ultrasoft + core correction, Zval = 16.0
     Generated by new atomic code, or converted to UPF format
     Using radial grid of  887 points,  6 beta functions with:
                l(1) =   0
                l(2) =   0
                l(3) =   1
                l(4) =   1
                l(5) =   2
                l(6) =   2
     Q(r) pseudized with  8 coefficients,  rinner =    1.130   1.130   1.130
                                                       1.130   1.130

     vdW kernel table read from file vdW_kernel_table
     MD5 check sum: 095c7af220d748ca6e76c0b4c6cfb241

     atomic species   valence    mass     pseudopotential
        Rh1           15.00   102.90550     Rh( 1.00)
        Pd1           16.00   106.42000     Pd( 1.00)

     No symmetry found

   Cartesian axes

     site n.     atom                  positions (alat units)
         1           Rh1 tau(   1) = (   0.0000000   0.0000000  10.0000000  )
         2           Rh1 tau(   2) = (  -1.3731768   2.3784120  10.0000000  )
         3           Rh1 tau(   3) = (   1.3731768   2.3784120  10.0000000  )
         4           Pd1 tau(   4) = (   2.7463536   0.0000000  10.0000000  )
         5           Rh1 tau(   5) = (   2.7463536   1.5856080  12.2423883  )
         6           Rh1 tau(   6) = (   1.3731768   3.9640200  12.2423883  )
         7           Rh1 tau(   7) = (  -1.3731768   3.9640200  12.2423883  )
         8           Pd1 tau(   8) = (   0.0000000   1.5856080  12.2423883  )
         9           Rh1 tau(   9) = (  -0.0000000   3.1712160  14.4847767  )
        10           Rh1 tau(  10) = (   1.3731768   0.7928040  14.4847767  )
        11           Rh1 tau(  11) = (   4.1195304   0.7928040  14.4847767  )
        12           Pd1 tau(  12) = (   2.7463536   3.1712160  14.4847767  )

     number of k points=    20  Fermi-Dirac smearing, width (Ry)=  0.0110
                       cart. coord. in units 2pi/alat
        k(    1) = (   0.0000000   0.0000000   0.0000000), wk =   0.0555556
        k(    2) = (   0.0000000   0.0350374   0.0000000), wk =   0.1111111
        k(    3) = (   0.0000000   0.0700748   0.0000000), wk =   0.1111111
        k(    4) = (   0.0000000  -0.1051122   0.0000000), wk =   0.0555556
        k(    5) = (   0.0303433   0.0175187   0.0000000), wk =   0.1111111
        k(    6) = (   0.0303433   0.0525561   0.0000000), wk =   0.1111111
        k(    7) = (   0.0303433   0.0875935   0.0000000), wk =   0.1111111
        k(    8) = (   0.0303433  -0.0875935   0.0000000), wk =   0.1111111
        k(    9) = (   0.0303433  -0.0525561   0.0000000), wk =   0.1111111
        k(   10) = (   0.0303433  -0.0175187   0.0000000), wk =   0.1111111
        k(   11) = (   0.0606865   0.0350374   0.0000000), wk =   0.1111111
        k(   12) = (   0.0606865   0.0700748   0.0000000), wk =   0.1111111
        k(   13) = (   0.0606865   0.1051122   0.0000000), wk =   0.1111111
        k(   14) = (   0.0606865  -0.0700748   0.0000000), wk =   0.1111111
        k(   15) = (   0.0606865  -0.0350374   0.0000000), wk =   0.1111111
        k(   16) = (   0.0606865   0.0000000   0.0000000), wk =   0.1111111
        k(   17) = (  -0.0910298  -0.0525561   0.0000000), wk =   0.0555556
        k(   18) = (  -0.0910298  -0.0175187   0.0000000), wk =   0.1111111
        k(   19) = (  -0.0910298   0.0175187   0.0000000), wk =   0.1111111
        k(   20) = (  -0.0910298  -0.1576682   0.0000000), wk =   0.0555556

     Largest allocated arrays     est. size (Mb)     dimensions
     Largest temporary arrays     est. size (Mb)     dimensions

     Initial potential from superposition of free atoms
     Check: negative starting charge=   -0.721533

     starting charge  176.99909, renormalised to  183.00000

     negative rho (up, down):  7.460E-01 0.000E+00

     *
     * You are using vdW-DF for exchange-correlation in this calculation.
     * Please cite the following three references that made this development
     * possible:
     *
     *   M. Dion, H. Rydberg, E. Schroder, D. C. Langreth, and
     *   B. I. Lundqvist, Phys. Rev. Lett. 92, 246401 (2004).
     *
     *   T. Thonhauser, V. R. Cooper, S. Li, A. Puzder, P. Hyldgaard, and
     *   D. C. Langreth, Phys. Rev. B 76, 125112 (2007).
     *
     *   G. Roman-Perez and J. M. Soler, Phys. Rev. Lett. 103, 096102 (2009).
     *
     *
     * If you are using vdW-DF2, please also cite:
     *
     *   K. Lee, E. D. Murray, L. Kong, B. I. Lundqvist, and
     *   D. C. Langreth, Phys. Rev. B 82, 081101(R) (2010).
     *
     *
     * If you are calculating the stress with vdW-DF, please also cite:
     *
     *   R. Sabatini, E. Kucukbenli, B. Kolb, T. Thonhauser, and
     *   S. de Gironcoli, J. Phys.: Condens. Matter 24, 424209 (2012).
     *

     Carrying out vdW-DF run using the following parameters:

     Nqs =      20    Nr_points =    1024   r_max =   100.000
     q_mesh =
               0.00001000     0.04494208     0.09755937     0.15916263
               0.23128650     0.31572767     0.41458969     0.53033537
               0.66584808     0.82450364     1.01025438     1.22772762
               1.48234092     1.78043706     2.12944203     2.53805004
               3.01644009     3.57652955     4.23227104     5.00000000

     Gradients computed in reciprocal space

     Adding external electric field

     Computed dipole along edir(3) :
        Dipole               -0.0000 Ry au,         -0.0000 Debye
        Dipole field         -0.0000 Ry au

        Potential amp.        0.0000 Ry
        Total length         45.1128 bohr

     Starting wfc are  144 randomized atomic wfcs

     Self-consistent Calculation

     iteration #  1     ecut=    36.75 Ry     beta=0.10
     Davidson diagonalization with overlap
     ethr =  1.00E-02,  avg # of iterations =  7.6

[...]

     total energy              =   -2146.35017116 Ry
     Harris-Foulkes estimate   =   -2152.62121271 Ry
     estimated scf accuracy    <      35.57543204 Ry

[...]

     End of self-consistent calculation

          k = 0.0000 0.0000 0.0000 ( 16103 PWs)   bands (ev):

   -49.1246 -49.1246 -49.1157 -48.7857 -48.7857 -48.7847 -48.7847 -48.5554
   -48.5514 -45.3270 -45.2053 -45.2053 -45.1671 -45.1265 -45.1265 -45.0096
   -45.0029 -44.9825 -44.9072 -44.9071 -44.8223 -44.8222 -44.7967 -44.7967
   -44.6207 -44.6148 -44.6051 -44.5936 -44.5936 -44.5900 -44.5900 -44.5659
   -44.5578 -44.5577 -44.5382 -44.5381  -5.0036  -3.7422  -3.7422  -3.7026
    -3.6515  -3.6268  -3.4922  -3.4922  -3.3762  -3.2493  -3.2493  -3.2290
    -3.0048  -3.0048  -2.8900  -1.9703  -1.9703  -1.7882  -1.6024  -1.6024
    -1.5297  -1.3305  -1.2107  -1.2107  -0.9647  -0.9647  -0.9268  -0.9230
    -0.9230  -0.7615  -0.7615  -0.6682  -0.2956   0.0353   0.0353   0.3097
     0.3097   0.4138   0.4138   0.5267   0.7119   0.7418   0.7418   1.1395
     1.1395   1.2503   1.3920   1.4264   1.4264   1.5803   1.5803   1.7124
     1.7124   1.7703   1.7763   1.7763   2.0186   2.0186   2.1166   2.1166
     2.1270   2.4342   2.4779   2.7081   3.6409   3.6410   3.6572   5.1865
     5.2773   5.2773   5.4160   5.4678   5.4678   5.9964   6.2455   6.7093
     7.6364   8.5289   8.8006   8.8205   8.9309   8.9309   8.9445   8.9445
    10.0190

[...]

          k =-0.0910-0.0526 0.0000 ( 16188 PWs)   bands (ev):

[...]

     the Fermi energy is     1.4378 ev

!    total energy              =   -2149.04891878 Ry
     Harris-Foulkes estimate   =   -2149.04891697 Ry
     estimated scf accuracy    <       0.00000041 Ry

     The total energy is the sum of the following terms:

     one-electron contribution =  -19212.80882074 Ry
     hartree contribution      =    9648.97169557 Ry
     xc contribution           =    -376.46294577 Ry
     ewald contribution        =    7791.38898550 Ry
     electric field correction =       0.00000002 Ry
     smearing contrib. (-TS)   =      -0.13783336 Ry

     convergence has been achieved in  19 iterations

 BEEF-vdW xc energy contributions
           1 :   -327.900512657975
           2 :    300.751482119952
           3 :   -253.955155671436
           4 :    199.422975193352
           5 :   -149.057028357639
           6 :    110.953089114387
           7 :   -87.5551616960573
           8 :    76.1559727602070
           9 :   -71.1843448167773
          10 :    67.0786149287844
          11 :   -60.4888628222751
          12 :    51.0282527560902
[...]
     MD5 check sum: 761627e959a2e3a1f56b0b5fe687810e
     Pseudo is Ultrasoft + core correction, Zval = 15.0
     Generated by new atomic code, or converted to UPF format
     Using radial grid of  969 points,  7 beta functions with:
                l(1) =   0
                l(2) =   0
                l(3) =   1
                l(4) =   1
                l(5) =   2
                l(6) =   2
                l(7) =   2
     Q(r) pseudized with  8 coefficients,  rinner =    1.200   1.200   1.200
                                                       1.200   1.200

     PseudoPot. # 2 for Pd read from file:
     /afs/slac.stanford.edu/u/if/mamunm/psp/gbrv1.5pbe/Pd.UPF
     MD5 check sum: 2d733d2bc2cbfd217af676df1668a4bc
     Pseudo is Ultrasoft + core correction, Zval = 16.0
     Generated by new atomic code, or converted to UPF format
     Using radial grid of  887 points,  6 beta functions with:
                l(1) =   0
                l(2) =   0
                l(3) =   1
                l(4) =   1
                l(5) =   2
                l(6) =   2
     Q(r) pseudized with  8 coefficients,  rinner =    1.130   1.130   1.130
                                                       1.130   1.130

     vdW kernel table read from file vdW_kernel_table
     MD5 check sum: 095c7af220d748ca6e76c0b4c6cfb241

     atomic species   valence    mass     pseudopotential
        Rh1           15.00   102.90550     Rh( 1.00)
        Pd1           16.00   106.42000     Pd( 1.00)

     No symmetry found

   Cartesian axes

     site n.     atom                  positions (alat units)
         1           Rh1 tau(   1) = (   0.0000000   0.0000000  10.0000000  )
         2           Rh1 tau(   2) = (  -1.3731768   2.3784120  10.0000000  )
         3           Rh1 tau(   3) = (   1.3731768   2.3784120  10.0000000  )
         4           Pd1 tau(   4) = (   2.7463536   0.0000000  10.0000000  )
         5           Rh1 tau(   5) = (   2.7463536   1.5856080  12.2423883  )
         6           Rh1 tau(   6) = (   1.3731768   3.9640200  12.2423883  )
         7           Rh1 tau(   7) = (  -1.3731768   3.9640200  12.2423883  )
         8           Pd1 tau(   8) = (   0.0000000   1.5856080  12.2423883  )
         9           Rh1 tau(   9) = (  -0.0000029   3.1951321  14.4224011  )
        10           Rh1 tau(  10) = (   1.3938986   0.7808395  14.4223867  )
        11           Rh1 tau(  11) = (   4.0988251   0.7808523  14.4224055  )
        12           Pd1 tau(  12) = (   2.7463552   3.1712135  14.5426277  )

     number of k points=    20  Fermi-Dirac smearing, width (Ry)=  0.0110
                       cart. coord. in units 2pi/alat
        k(    1) = (   0.0000000   0.0000000   0.0000000), wk =   0.0555556
        k(    2) = (   0.0000000   0.0350374   0.0000000), wk =   0.1111111
        k(    3) = (   0.0000000   0.0700748   0.0000000), wk =   0.1111111
        k(    4) = (   0.0000000  -0.1051122   0.0000000), wk =   0.0555556
        k(    5) = (   0.0303433   0.0175187   0.0000000), wk =   0.1111111
        k(    6) = (   0.0303433   0.0525561   0.0000000), wk =   0.1111111
        k(    7) = (   0.0303433   0.0875935   0.0000000), wk =   0.1111111
        k(    8) = (   0.0303433  -0.0875935   0.0000000), wk =   0.1111111
        k(    9) = (   0.0303433  -0.0525561   0.0000000), wk =   0.1111111
        k(   10) = (   0.0303433  -0.0175187   0.0000000), wk =   0.1111111
        k(   11) = (   0.0606865   0.0350374   0.0000000), wk =   0.1111111
        k(   12) = (   0.0606865   0.0700748   0.0000000), wk =   0.1111111
        k(   13) = (   0.0606865   0.1051122   0.0000000), wk =   0.1111111
        k(   14) = (   0.0606865  -0.0700748   0.0000000), wk =   0.1111111
        k(   15) = (   0.0606865  -0.0350374   0.0000000), wk =   0.1111111
        k(   16) = (   0.0606865   0.0000000   0.0000000), wk =   0.1111111
        k(   17) = (  -0.0910298  -0.0525561   0.0000000), wk =   0.0555556
        k(   18) = (  -0.0910298  -0.0175187   0.0000000), wk =   0.1111111
        k(   19) = (  -0.0910298   0.0175187   0.0000000), wk =   0.1111111
        k(   20) = (  -0.0910298  -0.1576682   0.0000000), wk =   0.0555556

     Largest allocated arrays     est. size (Mb)     dimensions
     Largest temporary arrays     est. size (Mb)     dimensions

     Initial potential from superposition of free atoms
     Check: negative starting charge=   -0.723750

     starting charge  176.99909, renormalised to  183.00000

[...]

     *
     * You are using vdW-DF for exchange-correlation in this calculation.
     * Please cite the following three references that made this development
     * possible:
     *
     *   M. Dion, H. Rydberg, E. Schroder, D. C. Langreth, and
     *   B. I. Lundqvist, Phys. Rev. Lett. 92, 246401 (2004).
     *
     *   T. Thonhauser, V. R. Cooper, S. Li, A. Puzder, P. Hyldgaard, and
     *   D. C. Langreth, Phys. Rev. B 76, 125112 (2007).
     *
     *   G. Roman-Perez and J. M. Soler, Phys. Rev. Lett. 103, 096102 (2009).
     *
     *
     * If you are using vdW-DF2, please also cite:
     *
     *   K. Lee, E. D. Murray, L. Kong, B. I. Lundqvist, and
     *   D. C. Langreth, Phys. Rev. B 82, 081101(R) (2010).
     *
     *
     * If you are calculating the stress with vdW-DF, please also cite:
     *
     *   R. Sabatini, E. Kucukbenli, B. Kolb, T. Thonhauser, and
     *   S. de Gironcoli, J. Phys.: Condens. Matter 24, 424209 (2012).
     *

     Carrying out vdW-DF run using the following parameters:

     Nqs =      20    Nr_points =    1024   r_max =   100.000
     q_mesh =
               0.00001000     0.04494208     0.09755937     0.15916263
               0.23128650     0.31572767     0.41458969     0.53033537
               0.66584808     0.82450364     1.01025438     1.22772762
               1.48234092     1.78043706     2.12944203     2.53805004
               3.01644009     3.57652955     4.23227104     5.00000000

     Gradients computed in reciprocal space

[...]

     Starting wfc are  144 randomized atomic wfcs

     Self-consistent Calculation

[...]

     total energy              =   -2149.05269622 Ry
     Harris-Foulkes estimate   =   -2149.05269811 Ry
     estimated scf accuracy    <       0.00003937 Ry

     iteration # 18     ecut=    36.75 Ry     beta=0.10
     Davidson diagonalization with overlap
     ethr =  3.36E-09,  avg # of iterations =  1.1

[...]

     negative rho (up, down):  7.565E-01 0.000E+00

     Adding external electric field

     Computed dipole along edir(3) :
        Dipole                0.0026 Ry au,          0.0065 Debye
        Dipole field          0.0000 Ry au

        Potential amp.       -0.0007 Ry
        Total length         45.1128 bohr

     End of self-consistent calculation

[...]

          k = 0.0607 0.0000 0.0000 ( 16262 PWs)   bands (ev):

[...]

          k =-0.0910-0.1577 0.0000 ( 16188 PWs)   bands (ev):

   -49.1604 -49.1486 -49.1454 -48.7693 -48.7661 -48.6969 -48.6937 -48.5372
   -48.4455 -45.2808 -45.2085 -45.1834 -45.1706 -45.1284 -45.1007 -45.0971
   -45.0425 -44.9422 -44.9169 -44.8854 -44.8112 -44.7676 -44.7642 -44.7517
   -44.7385 -44.7243 -44.7027 -44.6909 -44.6385 -44.6308 -44.6253 -44.6100
   -44.5842 -44.5560 -44.5415 -44.5308  -3.6207  -3.5535  -3.0684  -3.0302
    -2.9739  -2.8869  -2.7487  -2.7289  -2.7007  -2.6400  -2.5525  -2.4100
    -2.3460  -2.1944  -2.1515  -2.1330  -1.9373  -1.7714  -1.7451  -1.6870
    -1.6060  -1.4873  -1.2891  -1.2327  -1.1225  -1.0392  -1.0090  -0.9399
    -0.7857  -0.7633  -0.7045  -0.6811  -0.5513  -0.4926  -0.4672  -0.4477
    -0.3801  -0.3770  -0.3656  -0.2862  -0.1403   0.0763   0.1185   0.1526
     0.3225   0.3536   0.3991   0.4248   0.4932   0.7010   0.7319   0.7866
     0.8483   0.9098   1.0696   1.2475   1.3794   1.4269   1.5532   1.5954
     1.7014   1.7245   1.8655   2.2040   3.8587   3.9495   4.2712   4.6554
     5.2939   5.4745   6.0582   6.1563   7.3413   7.3633   7.5702   7.5843
     8.1774   8.1937   8.3106   8.3146   9.4152   9.4337   9.5545   9.5813
    10.0212

     the Fermi energy is     1.4476 ev

!    total energy              =   -2149.05269888 Ry
     Harris-Foulkes estimate   =   -2149.05269714 Ry
     estimated scf accuracy    <       0.00000038 Ry

     The total energy is the sum of the following terms:

     one-electron contribution =  -19296.19089840 Ry
     hartree contribution      =    9690.63184651 Ry
     xc contribution           =    -376.51870929 Ry
     ewald contribution        =    7833.16054890 Ry
     electric field correction =       0.00000002 Ry
     smearing contrib. (-TS)   =      -0.13548661 Ry

     convergence has been achieved in  18 iterations

 BEEF-vdW xc energy contributions
           1 :   -327.960397942398
           2 :    300.841856050258
           3 :   -254.085477933884
           4 :    199.572420419212
           5 :   -149.182890901500
           6 :    111.013002404101
           7 :   -87.5314228114345
           8 :    76.0679027986347
           9 :   -71.0810782449303
          10 :    67.0153141582810
          11 :   -60.4988510558151
          12 :    51.1061752353340
          13 :   -40.6603797383714
          14 :    31.6918391256185
          15 :   -25.9304594704788
          16 :    23.5214424421910
          17 :   -23.1898220790980
          18 :    23.0905814287521
          19 :   -21.8085635216055
          20 :    18.9823104091497
          21 :   -15.2900853829856
          22 :    11.9023688767463
          23 :   -9.76935074175128
          24 :    9.13424568041626
          25 :   -9.48733423127345
          26 :    9.92299785485420
          27 :   -9.66638683261175
          28 :    8.47186737556018
          29 :   -6.69270956988709
          30 :    5.01719682532610
          31 :   -32.2441939208019
          32 :   -24.0887726808035

     Forces acting on atoms (Ry/au):

     negative rho (up, down):  7.565E-01 0.000E+00
     atom    1 type  1   force =    -0.00000095   -0.00900141    0.01330401
     atom    2 type  1   force =    -0.00779593    0.00450104    0.01329575
     atom    3 type  1   force =     0.00779466    0.00450130    0.01330500
     atom    4 type  2   force =    -0.00000249    0.00000265   -0.01476093
     atom    5 type  1   force =     0.00000105    0.00672034   -0.00561683
     atom    6 type  1   force =     0.00581678   -0.00335789   -0.00561627
     atom    7 type  1   force =    -0.00581958   -0.00336091   -0.00561713
     atom    8 type  2   force =     0.00000911   -0.00000454   -0.01040574
     atom    9 type  1   force =     0.00000077   -0.00070200    0.00054695
     atom   10 type  1   force =    -0.00060831    0.00035177    0.00053878
     atom   11 type  1   force =     0.00060610    0.00034971    0.00054527
     atom   12 type  2   force =    -0.00000121   -0.00000003    0.00048114

     Total force =     0.036506     Total SCF correction =     0.001482

     entering subroutine stress ...

     negative rho (up, down):  7.565E-01 0.000E+00
          total   stress  (Ry/bohr**3)                   (kbar)     P=  -28.55
  -0.00021778  -0.00000000  -0.00000000        -32.04     -0.00     -0.00
  -0.00000000  -0.00021778   0.00000000         -0.00    -32.04      0.00
  -0.00000000   0.00000000  -0.00014668         -0.00      0.00    -21.58

 !ASE

     Writing output data file calc.save

     General routines

     Parallel routines

   This run was terminated on:   0: 2:52   1Jan2019

   JOB DONE.
Job  /afs/slac/g/suncat/bin/suncat-tsmpirun -x LD_LIBRARY_PATH -wdir /scratch/qe648894_nwQYj pw.x -in pw.inp

TID   HOST_NAME   COMMAND_LINE            STATUS            TERMINATION_TIME
00000 suncat0046 pw.x -in pw.inp   Done                     01/01/2019 00:02:52
00001 suncat0046 pw.x -in pw.inp   Done                     01/01/2019 00:02:52
00002 suncat0046 pw.x -in pw.inp   Done                     01/01/2019 00:02:52
00003 suncat0046 pw.x -in pw.inp   Done                     01/01/2019 00:02:52
00004 suncat0046 pw.x -in pw.inp   Done                     01/01/2019 00:02:52
00005 suncat0046 pw.x -in pw.inp   Done                     01/01/2019 00:02:52
00006 suncat0046 pw.x -in pw.inp   Done                     01/01/2019 00:02:52
00007 suncat0046 pw.x -in pw.inp   Done                     01/01/2019 00:02:52
00008 suncat0044 pw.x -in pw.inp   Done                     01/01/2019 00:02:52
00009 suncat0044 pw.x -in pw.inp   Done                     01/01/2019 00:02:52
00010 suncat0044 pw.x -in pw.inp   Done                     01/01/2019 00:02:52
00011 suncat0044 pw.x -in pw.inp   Done                     01/01/2019 00:02:52
00012 suncat0044 pw.x -in pw.inp   Done                     01/01/2019 00:02:52
00013 suncat0044 pw.x -in pw.inp   Done                     01/01/2019 00:02:52
00014 suncat0044 pw.x -in pw.inp   Done                     01/01/2019 00:02:52
00015 suncat0044 pw.x -in pw.inp   Done                     01/01/2019 00:02:52
00016 suncat0043 pw.x -in pw.inp   Done                     01/01/2019 00:02:52
00017 suncat0043 pw.x -in pw.inp   Done                     01/01/2019 00:02:52
00018 suncat0043 pw.x -in pw.inp   Done                     01/01/2019 00:02:52
00019 suncat0043 pw.x -in pw.inp   Done                     01/01/2019 00:02:52
00020 suncat0043 pw.x -in pw.inp   Done                     01/01/2019 00:02:52
00021 suncat0043 pw.x -in pw.inp   Done                     01/01/2019 00:02:52
00022 suncat0043 pw.x -in pw.inp   Done                     01/01/2019 00:02:52
00023 suncat0043 pw.x -in pw.inp   Done                     01/01/2019 00:02:52
00024 suncat0025 pw.x -in pw.inp   Done                     01/01/2019 00:02:52
00025 suncat0025 pw.x -in pw.inp   Done                     01/01/2019 00:02:52
00026 suncat0025 pw.x -in pw.inp   Done                     01/01/2019 00:02:52
00027 suncat0025 pw.x -in pw.inp   Done                     01/01/2019 00:02:52
00028 suncat0025 pw.x -in pw.inp   Done                     01/01/2019 00:02:52
00029 suncat0025 pw.x -in pw.inp   Done                     01/01/2019 00:02:52
00030 suncat0025 pw.x -in pw.inp   Done                     01/01/2019 00:02:52
00031 suncat0025 pw.x -in pw.inp   Done                     01/01/2019 00:02:52
00032 suncat0013 pw.x -in pw.inp   Done                     01/01/2019 00:02:52
00033 suncat0013 pw.x -in pw.inp   Done                     01/01/2019 00:02:52
00034 suncat0013 pw.x -in pw.inp   Done                     01/01/2019 00:02:52
00035 suncat0013 pw.x -in pw.inp   Done                     01/01/2019 00:02:52
00036 suncat0013 pw.x -in pw.inp   Done                     01/01/2019 00:02:52
00037 suncat0013 pw.x -in pw.inp   Done                     01/01/2019 00:02:52
00038 suncat0013 pw.x -in pw.inp   Done                     01/01/2019 00:02:52
00039 suncat0013 pw.x -in pw.inp   Done                     01/01/2019 00:02:52
00040 suncat0008 pw.x -in pw.inp   Done                     01/01/2019 00:02:52
00041 suncat0008 pw.x -in pw.inp   Done                     01/01/2019 00:02:52
00042 suncat0008 pw.x -in pw.inp   Done                     01/01/2019 00:02:52
00043 suncat0008 pw.x -in pw.inp   Done                     01/01/2019 00:02:52
00044 suncat0008 pw.x -in pw.inp   Done                     01/01/2019 00:02:52
00045 suncat0008 pw.x -in pw.inp   Done                     01/01/2019 00:02:52
00046 suncat0008 pw.x -in pw.inp   Done                     01/01/2019 00:02:52
00047 suncat0008 pw.x -in pw.inp   Done                     01/01/2019 00:02:52
00048 suncat0178 pw.x -in pw.inp   Done                     01/01/2019 00:02:52
00049 suncat0178 pw.x -in pw.inp   Done                     01/01/2019 00:02:52
00050 suncat0178 pw.x -in pw.inp   Done                     01/01/2019 00:02:52
00051 suncat0178 pw.x -in pw.inp   Done                     01/01/2019 00:02:52
00052 suncat0178 pw.x -in pw.inp   Done                     01/01/2019 00:02:52
00053 suncat0178 pw.x -in pw.inp   Done                     01/01/2019 00:02:52
00054 suncat0178 pw.x -in pw.inp   Done                     01/01/2019 00:02:52
00055 suncat0178 pw.x -in pw.inp   Done                     01/01/2019 00:02:52
00056 suncat0177 pw.x -in pw.inp   Done                     01/01/2019 00:02:52
00057 suncat0177 pw.x -in pw.inp   Done                     01/01/2019 00:02:52
00058 suncat0177 pw.x -in pw.inp   Done                     01/01/2019 00:02:52
00059 suncat0177 pw.x -in pw.inp   Done                     01/01/2019 00:02:52
00060 suncat0177 pw.x -in pw.inp   Done                     01/01/2019 00:02:52
00061 suncat0177 pw.x -in pw.inp   Done                     01/01/2019 00:02:52
00062 suncat0177 pw.x -in pw.inp   Done                     01/01/2019 00:02:52
00063 suncat0177 pw.x -in pw.inp   Done                     01/01/2019 00:02:52