     Program PWSCF v.5.1rc2 (svn rev. 11289) starts on 31Dec2018 at  8:55:46

     Current dimensions of program PWSCF are:
     Max number of different atomic species (ntypx) = 10
     Max number of k-points (npk) =  40000
     Max angular momentum in pseudopotentials (lmaxx) =  3
     Presently stress not available with electric field

     IMPORTANT: XC functional enforced from input :
     Exchange-correlation      = BEEF-VDW ( 1  4 27 13 2)
     Any further DFT definition will be discarded
     Please, verify this is what you really want

     Subspace diagonalization in iterative solution of the eigenvalue problem:
     a serial algorithm will be used

     Generating pointlists ...
     new r_m :   0.4125 (alat units)  0.7795 (a.u.) for type    1
     new r_m :   0.4125 (alat units)  0.7795 (a.u.) for type    2

     bravais-lattice index     =            0
     lattice parameter (alat)  =       1.8897  a.u.
     unit-cell volume          =    6872.9616 (a.u.)^3
     number of atoms/cell      =           12
     number of atomic types    =            2
     number of electrons       =       174.00
     number of Kohn-Sham states=          117
     kinetic-energy cutoff     =      36.7493  Ry
     charge density cutoff     =     367.4932  Ry
     convergence threshold     =      1.0E-06
     mixing beta               =       0.1000
     number of iterations used =           10  plain     mixing
     Exchange-correlation      = BEEF-VDW ( 1  4 27 13 2)
     nstep                     =           50

     celldm(1)=   1.889726  celldm(2)=   0.000000  celldm(3)=   0.000000
     celldm(4)=   0.000000  celldm(5)=   0.000000  celldm(6)=   0.000000

     crystal axes: (cart. coord. in units of alat)
               a(1) = (   6.785686   0.000000   0.000000 )
               a(2) = (  -3.392843   5.876576   0.000000 )
               a(3) = (   0.000000   0.000000  25.540489 )

     reciprocal axes: (cart. coord. in units 2 pi/alat)
               b(1) = (  0.147369  0.085084  0.000000 )
               b(2) = (  0.000000  0.170167  0.000000 )
               b(3) = (  0.000000  0.000000  0.039154 )

     PseudoPot. # 1 for Pb read from file:
     /afs/slac.stanford.edu/u/if/mamunm/psp/gbrv1.5pbe/Pb.UPF
     MD5 check sum: 3d1c1779aa92214d1e8f3a7db79003e2
     Pseudo is Ultrasoft + core correction, Zval = 14.0
     Generated by new atomic code, or converted to UPF format
     Using radial grid of  899 points,  6 beta functions with:
                l(1) =   0
                l(2) =   0
                l(3) =   1
                l(4) =   1
                l(5) =   2
                l(6) =   2
     Q(r) pseudized with  6 coefficients,  rinner =    1.000   1.000   1.000
                                                       1.000   1.000

     PseudoPot. # 2 for Fe read from file:
     /afs/slac.stanford.edu/u/if/mamunm/psp/gbrv1.5pbe/Fe.UPF
     MD5 check sum: a130daea23fe5165f5d574ae7f82ed95
     Pseudo is Ultrasoft + core correction, Zval = 16.0
     Generated by new atomic code, or converted to UPF format
     Using radial grid of  861 points,  6 beta functions with:
                l(1) =   0
                l(2) =   0
                l(3) =   1
                l(4) =   1
                l(5) =   2
                l(6) =   2
     Q(r) pseudized with  8 coefficients,  rinner =    1.000   1.000   1.000
                                                       1.000   1.000

     vdW kernel table read from file vdW_kernel_table
     MD5 check sum: 095c7af220d748ca6e76c0b4c6cfb241

     atomic species   valence    mass     pseudopotential
        Pb1           14.00   207.20000     Pb( 1.00)
        Fe1           16.00    55.84500     Fe( 1.00)

     Starting magnetic structure
     atomic species   magnetization
        Pb1          0.143
        Fe1          0.125

     No symmetry found

   Cartesian axes

     site n.     atom                  positions (alat units)
         1           Pb1 tau(   1) = (   0.0000000   0.0000000  10.0000000  )
         2           Pb1 tau(   2) = (  -1.6964214   2.9382881  10.0000000  )
         3           Pb1 tau(   3) = (   1.6964214   2.9382881  10.0000000  )
         4           Fe1 tau(   4) = (   3.3928428   0.0000000  10.0000000  )
         5           Pb1 tau(   5) = (   3.3928428   1.9588587  12.7702446  )
         6           Pb1 tau(   6) = (   1.6964214   4.8971468  12.7702446  )
         7           Pb1 tau(   7) = (  -1.6964214   4.8971468  12.7702446  )
         8           Fe1 tau(   8) = (   0.0000000   1.9588587  12.7702446  )
         9           Pb1 tau(   9) = (  -0.0000000   3.9177174  15.5404891  )
        10           Pb1 tau(  10) = (   1.6964214   0.9794294  15.5404891  )
        11           Pb1 tau(  11) = (   5.0892642   0.9794294  15.5404891  )
        12           Fe1 tau(  12) = (   3.3928428   3.9177174  15.5404891  )

     number of k points=    40  Fermi-Dirac smearing, width (Ry)=  0.0110
                       cart. coord. in units 2pi/alat
        k(    1) = (   0.0000000   0.0000000   0.0000000), wk =   0.0277778
        k(    2) = (   0.0000000   0.0283612   0.0000000), wk =   0.0555556
        k(    3) = (   0.0000000   0.0567224   0.0000000), wk =   0.0555556
        k(    4) = (   0.0000000  -0.0850836   0.0000000), wk =   0.0277778
        k(    5) = (   0.0245615   0.0141806   0.0000000), wk =   0.0555556
        k(    6) = (   0.0245615   0.0425418   0.0000000), wk =   0.0555556
        k(    7) = (   0.0245615   0.0709030   0.0000000), wk =   0.0555556
        k(    8) = (   0.0245615  -0.0709030   0.0000000), wk =   0.0555556
        k(    9) = (   0.0245615  -0.0425418   0.0000000), wk =   0.0555556
        k(   10) = (   0.0245615  -0.0141806   0.0000000), wk =   0.0555556
        k(   11) = (   0.0491230   0.0283612   0.0000000), wk =   0.0555556
        k(   12) = (   0.0491230   0.0567224   0.0000000), wk =   0.0555556
        k(   13) = (   0.0491230   0.0850836   0.0000000), wk =   0.0555556
        k(   14) = (   0.0491230  -0.0567224   0.0000000), wk =   0.0555556
        k(   15) = (   0.0491230  -0.0283612   0.0000000), wk =   0.0555556
        k(   16) = (   0.0491230   0.0000000   0.0000000), wk =   0.0555556
        k(   17) = (  -0.0736845  -0.0425418   0.0000000), wk =   0.0277778
        k(   18) = (  -0.0736845  -0.0141806   0.0000000), wk =   0.0555556
        k(   19) = (  -0.0736845   0.0141806   0.0000000), wk =   0.0555556
        k(   20) = (  -0.0736845  -0.1276253   0.0000000), wk =   0.0277778
        k(   21) = (   0.0000000   0.0000000   0.0000000), wk =   0.0277778
        k(   22) = (   0.0000000   0.0283612   0.0000000), wk =   0.0555556
        k(   23) = (   0.0000000   0.0567224   0.0000000), wk =   0.0555556
        k(   24) = (   0.0000000  -0.0850836   0.0000000), wk =   0.0277778
        k(   25) = (   0.0245615   0.0141806   0.0000000), wk =   0.0555556
        k(   26) = (   0.0245615   0.0425418   0.0000000), wk =   0.0555556
        k(   27) = (   0.0245615   0.0709030   0.0000000), wk =   0.0555556
        k(   28) = (   0.0245615  -0.0709030   0.0000000), wk =   0.0555556
        k(   29) = (   0.0245615  -0.0425418   0.0000000), wk =   0.0555556
        k(   30) = (   0.0245615  -0.0141806   0.0000000), wk =   0.0555556
        k(   31) = (   0.0491230   0.0283612   0.0000000), wk =   0.0555556
        k(   32) = (   0.0491230   0.0567224   0.0000000), wk =   0.0555556
        k(   33) = (   0.0491230   0.0850836   0.0000000), wk =   0.0555556
        k(   34) = (   0.0491230  -0.0567224   0.0000000), wk =   0.0555556
        k(   35) = (   0.0491230  -0.0283612   0.0000000), wk =   0.0555556
        k(   36) = (   0.0491230   0.0000000   0.0000000), wk =   0.0555556
        k(   37) = (  -0.0736845  -0.0425418   0.0000000), wk =   0.0277778
        k(   38) = (  -0.0736845  -0.0141806   0.0000000), wk =   0.0555556
        k(   39) = (  -0.0736845   0.0141806   0.0000000), wk =   0.0555556
        k(   40) = (  -0.0736845  -0.1276253   0.0000000), wk =   0.0277778

     Largest allocated arrays     est. size (Mb)     dimensions
     Largest temporary arrays     est. size (Mb)     dimensions

     Check: negative/imaginary core charge=   -0.000002    0.000000

     Initial potential from superposition of free atoms
     Check: negative starting charge=(component1):   -0.084306
     Check: negative starting charge=(component2):   -0.063229

     starting charge  170.97882, renormalised to  174.00000

     negative rho (up, down):  8.580E-02 6.435E-02

     *
     * You are using vdW-DF for exchange-correlation in this calculation.
     * Please cite the following three references that made this development
     * possible:
     *
     *   M. Dion, H. Rydberg, E. Schroder, D. C. Langreth, and
     *   B. I. Lundqvist, Phys. Rev. Lett. 92, 246401 (2004).
     *
     *   T. Thonhauser, V. R. Cooper, S. Li, A. Puzder, P. Hyldgaard, and
     *   D. C. Langreth, Phys. Rev. B 76, 125112 (2007).
     *
     *   G. Roman-Perez and J. M. Soler, Phys. Rev. Lett. 103, 096102 (2009).
     *
     *
     * If you are using vdW-DF2, please also cite:
     *
     *   K. Lee, E. D. Murray, L. Kong, B. I. Lundqvist, and
     *   D. C. Langreth, Phys. Rev. B 82, 081101(R) (2010).
     *
     *
     * If you are calculating the stress with vdW-DF, please also cite:
     *
     *   R. Sabatini, E. Kucukbenli, B. Kolb, T. Thonhauser, and
     *   S. de Gironcoli, J. Phys.: Condens. Matter 24, 424209 (2012).
     *

     Carrying out vdW-DF run using the following parameters:

     Nqs =      20    Nr_points =    1024   r_max =   100.000
     q_mesh =
               0.00001000     0.04494208     0.09755937     0.15916263
               0.23128650     0.31572767     0.41458969     0.53033537
               0.66584808     0.82450364     1.01025438     1.22772762
               1.48234092     1.78043706     2.12944203     2.53805004
               3.01644009     3.57652955     4.23227104     5.00000000

     Gradients computed in reciprocal space

     Adding external electric field

     Computed dipole along edir(3) :
        Dipole               -0.0000 Ry au,         -0.0000 Debye
        Dipole field         -0.0000 Ry au

        Potential amp.        0.0000 Ry
        Total length         47.0579 bohr

[...]

     Starting wfc are  120 randomized atomic wfcs

     Self-consistent Calculation

     iteration #  1     ecut=    36.75 Ry     beta=0.10
     Davidson diagonalization with overlap
     ethr =  1.00E-02,  avg # of iterations =  5.5

[...]

     Magnetic moment per site:
     atom:    1    charge:    1.7586    magn:    0.2281    constr:    0.0000
     atom:    2    charge:    1.7586    magn:    0.2281    constr:    0.0000
     atom:    3    charge:    1.7586    magn:    0.2281    constr:    0.0000
     atom:    4    charge:    7.2555    magn:    0.8068    constr:    0.0000
     atom:    5    charge:    1.7584    magn:    0.2281    constr:    0.0000
     atom:    6    charge:    1.7584    magn:    0.2281    constr:    0.0000
     atom:    7    charge:    1.7584    magn:    0.2281    constr:    0.0000
     atom:    8    charge:    7.2508    magn:    0.8070    constr:    0.0000
[...]
        k(    2) = (   0.0000000   0.0283612   0.0000000), wk =   0.0555556
        k(    3) = (   0.0000000   0.0567224   0.0000000), wk =   0.0555556
        k(    4) = (   0.0000000  -0.0850836   0.0000000), wk =   0.0277778
        k(    5) = (   0.0245615   0.0141806   0.0000000), wk =   0.0555556
        k(    6) = (   0.0245615   0.0425418   0.0000000), wk =   0.0555556
        k(    7) = (   0.0245615   0.0709030   0.0000000), wk =   0.0555556
        k(    8) = (   0.0245615  -0.0709030   0.0000000), wk =   0.0555556
        k(    9) = (   0.0245615  -0.0425418   0.0000000), wk =   0.0555556
        k(   10) = (   0.0245615  -0.0141806   0.0000000), wk =   0.0555556
        k(   11) = (   0.0491230   0.0283612   0.0000000), wk =   0.0555556
        k(   12) = (   0.0491230   0.0567224   0.0000000), wk =   0.0555556
        k(   13) = (   0.0491230   0.0850836   0.0000000), wk =   0.0555556
        k(   14) = (   0.0491230  -0.0567224   0.0000000), wk =   0.0555556
        k(   15) = (   0.0491230  -0.0283612   0.0000000), wk =   0.0555556
        k(   16) = (   0.0491230   0.0000000   0.0000000), wk =   0.0555556
        k(   17) = (  -0.0736845  -0.0425418   0.0000000), wk =   0.0277778
        k(   18) = (  -0.0736845  -0.0141806   0.0000000), wk =   0.0555556
        k(   19) = (  -0.0736845   0.0141806   0.0000000), wk =   0.0555556
        k(   20) = (  -0.0736845  -0.1276253   0.0000000), wk =   0.0277778
        k(   21) = (   0.0000000   0.0000000   0.0000000), wk =   0.0277778
        k(   22) = (   0.0000000   0.0283612   0.0000000), wk =   0.0555556
        k(   23) = (   0.0000000   0.0567224   0.0000000), wk =   0.0555556
        k(   24) = (   0.0000000  -0.0850836   0.0000000), wk =   0.0277778
        k(   25) = (   0.0245615   0.0141806   0.0000000), wk =   0.0555556
        k(   26) = (   0.0245615   0.0425418   0.0000000), wk =   0.0555556
        k(   27) = (   0.0245615   0.0709030   0.0000000), wk =   0.0555556
        k(   28) = (   0.0245615  -0.0709030   0.0000000), wk =   0.0555556
        k(   29) = (   0.0245615  -0.0425418   0.0000000), wk =   0.0555556
        k(   30) = (   0.0245615  -0.0141806   0.0000000), wk =   0.0555556
        k(   31) = (   0.0491230   0.0283612   0.0000000), wk =   0.0555556
        k(   32) = (   0.0491230   0.0567224   0.0000000), wk =   0.0555556
        k(   33) = (   0.0491230   0.0850836   0.0000000), wk =   0.0555556
        k(   34) = (   0.0491230  -0.0567224   0.0000000), wk =   0.0555556
        k(   35) = (   0.0491230  -0.0283612   0.0000000), wk =   0.0555556
        k(   36) = (   0.0491230   0.0000000   0.0000000), wk =   0.0555556
        k(   37) = (  -0.0736845  -0.0425418   0.0000000), wk =   0.0277778
        k(   38) = (  -0.0736845  -0.0141806   0.0000000), wk =   0.0555556
        k(   39) = (  -0.0736845   0.0141806   0.0000000), wk =   0.0555556
        k(   40) = (  -0.0736845  -0.1276253   0.0000000), wk =   0.0277778

     Largest allocated arrays     est. size (Mb)     dimensions
     Largest temporary arrays     est. size (Mb)     dimensions

     Check: negative/imaginary core charge=   -0.000002    0.000000

     Initial potential from superposition of free atoms
     Check: negative starting charge=(component1):   -0.084321
     Check: negative starting charge=(component2):   -0.063239

     starting charge  170.97882, renormalised to  174.00000

[...]

     *
     * You are using vdW-DF for exchange-correlation in this calculation.
     * Please cite the following three references that made this development
     * possible:
     *
     *   M. Dion, H. Rydberg, E. Schroder, D. C. Langreth, and
     *   B. I. Lundqvist, Phys. Rev. Lett. 92, 246401 (2004).
     *
     *   T. Thonhauser, V. R. Cooper, S. Li, A. Puzder, P. Hyldgaard, and
     *   D. C. Langreth, Phys. Rev. B 76, 125112 (2007).
     *
     *   G. Roman-Perez and J. M. Soler, Phys. Rev. Lett. 103, 096102 (2009).
     *
     *
     * If you are using vdW-DF2, please also cite:
     *
     *   K. Lee, E. D. Murray, L. Kong, B. I. Lundqvist, and
     *   D. C. Langreth, Phys. Rev. B 82, 081101(R) (2010).
     *
     *
     * If you are calculating the stress with vdW-DF, please also cite:
     *
     *   R. Sabatini, E. Kucukbenli, B. Kolb, T. Thonhauser, and
     *   S. de Gironcoli, J. Phys.: Condens. Matter 24, 424209 (2012).
     *

     Carrying out vdW-DF run using the following parameters:

     Nqs =      20    Nr_points =    1024   r_max =   100.000
     q_mesh =
               0.00001000     0.04494208     0.09755937     0.15916263
               0.23128650     0.31572767     0.41458969     0.53033537
               0.66584808     0.82450364     1.01025438     1.22772762
               1.48234092     1.78043706     2.12944203     2.53805004
               3.01644009     3.57652955     4.23227104     5.00000000

     Gradients computed in reciprocal space

[...]

     Starting wfc are  120 randomized atomic wfcs

     Self-consistent Calculation

[...]

     total energy              =   -2247.82312808 Ry
     Harris-Foulkes estimate   =   -2247.82311958 Ry
     estimated scf accuracy    <       0.00000125 Ry

[...]

     iteration # 65     ecut=    36.75 Ry     beta=0.10
     Davidson diagonalization with overlap
     ethr =  7.21E-10,  avg # of iterations =  2.5

[...]

     negative rho (up, down):  7.967E-02 8.115E-02

[...]

     Adding external electric field

     Computed dipole along edir(3) :
        Dipole                0.0170 Ry au,          0.0433 Debye
        Dipole field          0.0000 Ry au

        Potential amp.       -0.0029 Ry
        Total length         47.0579 bohr

     Magnetic moment per site:
     atom:    1    charge:    1.7425    magn:   -0.0011    constr:    0.0000
     atom:    2    charge:    1.7425    magn:   -0.0011    constr:    0.0000
     atom:    3    charge:    1.7425    magn:   -0.0011    constr:    0.0000
     atom:    4    charge:    7.1028    magn:    1.4161    constr:    0.0000
     atom:    5    charge:    1.7429    magn:   -0.0004    constr:    0.0000
     atom:    6    charge:    1.7429    magn:   -0.0004    constr:    0.0000
     atom:    7    charge:    1.7429    magn:   -0.0004    constr:    0.0000
     atom:    8    charge:    7.0957    magn:    1.3838    constr:    0.0000
     atom:    9    charge:    1.7467    magn:   -0.0012    constr:    0.0000
     atom:   10    charge:    1.7467    magn:   -0.0012    constr:    0.0000
     atom:   11    charge:    1.7467    magn:   -0.0012    constr:    0.0000
     atom:   12    charge:    7.1020    magn:    1.3311    constr:    0.0000

     End of self-consistent calculation

 ------ SPIN UP ------------

[...]

 ------ SPIN DOWN ----------

[...]

          k = 0.0491 0.0000 0.0000 ( 25865 PWs)   bands (ev):

[...]

          k =-0.0737-0.1276 0.0000 ( 25866 PWs)   bands (ev):

   -84.7256 -84.6867 -84.6503 -50.8968 -50.8226 -50.8226 -50.8210 -50.8210
   -50.7797 -50.7797 -50.7590 -50.7576 -16.5973 -16.5783 -16.5309 -16.5183
   -16.5044 -16.4860 -16.4840 -16.4760 -16.4741 -16.4635 -16.4615 -16.4416
   -16.4309 -16.4297 -16.4235 -16.4185 -16.4133 -16.4093 -16.4080 -16.4069
   -16.4000 -16.3911 -16.3830 -16.3819 -16.3758 -16.3608 -16.3573 -16.3546
   -16.3337 -16.3257 -16.3136 -16.3108 -16.3028 -16.2937 -16.2840 -16.2742
   -16.2669 -16.2640 -16.2622 -16.2506 -16.2500 -16.2403 -16.2003 -16.1927
   -16.1326  -9.3017  -9.0155  -8.2751  -7.8155  -7.3698  -7.2591  -6.8520
    -6.5415  -5.7007  -2.8681  -2.3341  -1.5744  -0.8189  -0.6177  -0.4966
    -0.3523  -0.3157  -0.2345   0.1639   0.2210   0.2718   0.5502   0.6415
     0.8082   0.8560   0.9475   1.0492   1.0627   1.1086   1.1675   1.2778
     1.3289   1.3629   1.3845   1.5984   1.6951   1.8183   2.0060   2.1668
     2.4102   2.9266   2.9771   2.9964   3.2602   3.8653   3.8998   4.2077
     4.2681   4.3846   4.6224   4.8862   5.0382   5.2023   5.4745   5.5009
     5.6316   5.6556   5.8146   5.8542   5.8842

     the Fermi energy is     0.8902 ev

!    total energy              =   -2247.82316058 Ry
     Harris-Foulkes estimate   =   -2247.82313277 Ry
     estimated scf accuracy    <       0.00000079 Ry

     The total energy is the sum of the following terms:

     one-electron contribution =  -11245.29064132 Ry
     hartree contribution      =    5672.97783278 Ry
     xc contribution           =    -678.52654752 Ry
     ewald contribution        =    4003.09248840 Ry
     electric field correction =       0.00000053 Ry
     smearing contrib. (-TS)   =      -0.07629344 Ry

     total magnetization       =     9.17 Bohr mag/cell
     absolute magnetization    =    10.45 Bohr mag/cell

     convergence has been achieved in  65 iterations

 BEEF-vdW xc energy contributions
           1 :   -603.423161144245
           2 :    558.237993615385
           3 :   -479.660766605978
           4 :    386.199292824751
           5 :   -295.989942576424
           6 :    221.122718525561
           7 :   -165.478138998432
           8 :    126.116103976315
           9 :   -96.7928362708685
          10 :    71.6569207042871
          11 :   -47.6357964869177
          12 :    24.8909354961058
          13 :   -5.64722867062187
          14 :   -7.72930556414713
          15 :    14.3553977889029
          16 :   -15.4203257972035
          17 :    13.5762836779073
          18 :   -11.6032591024994
          19 :    11.1396890815065
          20 :   -12.1711880828256
          21 :    13.4637777538903
          22 :   -13.5896730050786
          23 :    11.8863854599049
          24 :   -8.82832479188880
          25 :    5.68399966006280
          26 :   -3.75561221313978
          27 :    3.66628252909572
          28 :   -5.07896905096800
          29 :    6.94618427395926
          30 :   -8.11502349380908
          31 :   -48.7716368411026
          32 :   -35.4778506514405

     Forces acting on atoms (Ry/au):

     negative rho (up, down):  7.967E-02 8.115E-02
     atom    1 type  1   force =    -0.00000045    0.01206847   -0.00388022
     atom    2 type  1   force =     0.01045378   -0.00603315   -0.00387926
     atom    3 type  1   force =    -0.01045258   -0.00603332   -0.00387982
     atom    4 type  2   force =     0.00000019   -0.00000123    0.02391918
     atom    5 type  1   force =     0.00000017   -0.00632506   -0.00386282
     atom    6 type  1   force =    -0.00547742    0.00316362   -0.00386229
     atom    7 type  1   force =     0.00547658    0.00316315   -0.00386144
     atom    8 type  2   force =     0.00000051   -0.00000111    0.00127711
     atom    9 type  1   force =    -0.00000204   -0.00115229   -0.00081231
     atom   10 type  1   force =    -0.00099895    0.00057447   -0.00081349
     atom   11 type  1   force =     0.00099993    0.00057658   -0.00081413
     atom   12 type  2   force =     0.00000027   -0.00000013    0.00046948

     Total force =     0.035027     Total SCF correction =     0.002070

     entering subroutine stress ...

     negative rho (up, down):  7.967E-02 8.115E-02
          total   stress  (Ry/bohr**3)                   (kbar)     P=   -4.03
  -0.00003459  -0.00000000  -0.00000000         -5.09     -0.00     -0.00
  -0.00000000  -0.00003459   0.00000000         -0.00     -5.09      0.00
  -0.00000000   0.00000000  -0.00001301         -0.00      0.00     -1.91

 !ASE

     Writing output data file calc.save

     General routines

     Parallel routines

   This run was terminated on:  10:10:31   1Jan2019

   JOB DONE.
Job  /afs/slac/g/suncat/bin/suncat-tsmpirun -x LD_LIBRARY_PATH -wdir /scratch/qe648722_4iIQD pw.x -in pw.inp

TID   HOST_NAME   COMMAND_LINE            STATUS            TERMINATION_TIME
00000 suncat0154 pw.x -in pw.inp   Done                     01/01/2019 10:10:31
00001 suncat0154 pw.x -in pw.inp   Done                     01/01/2019 10:10:31
00002 suncat0154 pw.x -in pw.inp   Done                     01/01/2019 10:10:31
00003 suncat0154 pw.x -in pw.inp   Done                     01/01/2019 10:10:31
00004 suncat0154 pw.x -in pw.inp   Done                     01/01/2019 10:10:31
00005 suncat0154 pw.x -in pw.inp   Done                     01/01/2019 10:10:31
00006 suncat0154 pw.x -in pw.inp   Done                     01/01/2019 10:10:31
00007 suncat0154 pw.x -in pw.inp   Done                     01/01/2019 10:10:31
00008 suncat0143 pw.x -in pw.inp   Done                     01/01/2019 10:10:31
00009 suncat0143 pw.x -in pw.inp   Done                     01/01/2019 10:10:31
00010 suncat0143 pw.x -in pw.inp   Done                     01/01/2019 10:10:31
00011 suncat0143 pw.x -in pw.inp   Done                     01/01/2019 10:10:31
00012 suncat0143 pw.x -in pw.inp   Done                     01/01/2019 10:10:31
00013 suncat0143 pw.x -in pw.inp   Done                     01/01/2019 10:10:31
00014 suncat0143 pw.x -in pw.inp   Done                     01/01/2019 10:10:31
00015 suncat0143 pw.x -in pw.inp   Done                     01/01/2019 10:10:31
00016 suncat0108 pw.x -in pw.inp   Done                     01/01/2019 10:10:31
00017 suncat0108 pw.x -in pw.inp   Done                     01/01/2019 10:10:31
00018 suncat0108 pw.x -in pw.inp   Done                     01/01/2019 10:10:31
00019 suncat0108 pw.x -in pw.inp   Done                     01/01/2019 10:10:31
00020 suncat0108 pw.x -in pw.inp   Done                     01/01/2019 10:10:31
00021 suncat0108 pw.x -in pw.inp   Done                     01/01/2019 10:10:31
00022 suncat0108 pw.x -in pw.inp   Done                     01/01/2019 10:10:31
00023 suncat0108 pw.x -in pw.inp   Done                     01/01/2019 10:10:31
00024 suncat0252 pw.x -in pw.inp   Done                     01/01/2019 10:10:31
00025 suncat0252 pw.x -in pw.inp   Done                     01/01/2019 10:10:31
00026 suncat0252 pw.x -in pw.inp   Done                     01/01/2019 10:10:31
00027 suncat0252 pw.x -in pw.inp   Done                     01/01/2019 10:10:31
00028 suncat0252 pw.x -in pw.inp   Done                     01/01/2019 10:10:31
00029 suncat0252 pw.x -in pw.inp   Done                     01/01/2019 10:10:31
00030 suncat0252 pw.x -in pw.inp   Done                     01/01/2019 10:10:31
00031 suncat0252 pw.x -in pw.inp   Done                     01/01/2019 10:10:31
00032 suncat0226 pw.x -in pw.inp   Done                     01/01/2019 10:10:31
00033 suncat0226 pw.x -in pw.inp   Done                     01/01/2019 10:10:31
00034 suncat0226 pw.x -in pw.inp   Done                     01/01/2019 10:10:31
00035 suncat0226 pw.x -in pw.inp   Done                     01/01/2019 10:10:31
00036 suncat0226 pw.x -in pw.inp   Done                     01/01/2019 10:10:31
00037 suncat0226 pw.x -in pw.inp   Done                     01/01/2019 10:10:31
00038 suncat0226 pw.x -in pw.inp   Done                     01/01/2019 10:10:31
00039 suncat0226 pw.x -in pw.inp   Done                     01/01/2019 10:10:31
00040 suncat0225 pw.x -in pw.inp   Done                     01/01/2019 10:10:31
00041 suncat0225 pw.x -in pw.inp   Done                     01/01/2019 10:10:31
00042 suncat0225 pw.x -in pw.inp   Done                     01/01/2019 10:10:31
00043 suncat0225 pw.x -in pw.inp   Done                     01/01/2019 10:10:31
00044 suncat0225 pw.x -in pw.inp   Done                     01/01/2019 10:10:31
00045 suncat0225 pw.x -in pw.inp   Done                     01/01/2019 10:10:31
00046 suncat0225 pw.x -in pw.inp   Done                     01/01/2019 10:10:31
00047 suncat0225 pw.x -in pw.inp   Done                     01/01/2019 10:10:31
00048 suncat0224 pw.x -in pw.inp   Done                     01/01/2019 10:10:31
00049 suncat0224 pw.x -in pw.inp   Done                     01/01/2019 10:10:31
00050 suncat0224 pw.x -in pw.inp   Done                     01/01/2019 10:10:31
00051 suncat0224 pw.x -in pw.inp   Done                     01/01/2019 10:10:31
00052 suncat0224 pw.x -in pw.inp   Done                     01/01/2019 10:10:31
00053 suncat0224 pw.x -in pw.inp   Done                     01/01/2019 10:10:31
00054 suncat0224 pw.x -in pw.inp   Done                     01/01/2019 10:10:31
00055 suncat0224 pw.x -in pw.inp   Done                     01/01/2019 10:10:31
00056 suncat0223 pw.x -in pw.inp   Done                     01/01/2019 10:10:31
00057 suncat0223 pw.x -in pw.inp   Done                     01/01/2019 10:10:31
00058 suncat0223 pw.x -in pw.inp   Done                     01/01/2019 10:10:31
00059 suncat0223 pw.x -in pw.inp   Done                     01/01/2019 10:10:31
00060 suncat0223 pw.x -in pw.inp   Done                     01/01/2019 10:10:31
00061 suncat0223 pw.x -in pw.inp   Done                     01/01/2019 10:10:31
00062 suncat0223 pw.x -in pw.inp   Done                     01/01/2019 10:10:31
00063 suncat0223 pw.x -in pw.inp   Done                     01/01/2019 10:10:31