     Program PWSCF v.5.1rc2 (svn rev. 11289) starts on 27Dec2018 at  5:45:13

     Current dimensions of program PWSCF are:
     Max number of different atomic species (ntypx) = 10
     Max number of k-points (npk) =  40000
     Max angular momentum in pseudopotentials (lmaxx) =  3
     Presently stress not available with electric field

     IMPORTANT: XC functional enforced from input :
     Exchange-correlation      = BEEF-VDW ( 1  4 27 13 2)
     Any further DFT definition will be discarded
     Please, verify this is what you really want

     Subspace diagonalization in iterative solution of the eigenvalue problem:
     a serial algorithm will be used

     bravais-lattice index     =            0
     lattice parameter (alat)  =       1.8897  a.u.
     unit-cell volume          =    5316.4930 (a.u.)^3
     number of atoms/cell      =           12
     number of atomic types    =            2
     number of electrons       =       159.00
     number of Kohn-Sham states=          109
     kinetic-energy cutoff     =      36.7493  Ry
     charge density cutoff     =     367.4932  Ry
     convergence threshold     =      1.0E-06
     mixing beta               =       0.1000
     number of iterations used =           10  plain     mixing
     Exchange-correlation      = BEEF-VDW ( 1  4 27 13 2)
     nstep                     =           50

     celldm(1)=   1.889726  celldm(2)=   0.000000  celldm(3)=   0.000000
     celldm(4)=   0.000000  celldm(5)=   0.000000  celldm(6)=   0.000000

     crystal axes: (cart. coord. in units of alat)
               a(1) = (   6.040464   0.000000   0.000000 )
               a(2) = (  -3.020232   5.231195   0.000000 )
               a(3) = (   0.000000   0.000000  24.932018 )

     reciprocal axes: (cart. coord. in units 2 pi/alat)
               b(1) = (  0.165550  0.095580  0.000000 )
               b(2) = (  0.000000  0.191161  0.000000 )
               b(3) = (  0.000000  0.000000  0.040109 )

     PseudoPot. # 1 for Nb read from file:
     /afs/slac.stanford.edu/u/if/mamunm/psp/gbrv1.5pbe/Nb.UPF
     MD5 check sum: 573aab8a2fa660278ed4a62cd769473f
     Pseudo is Ultrasoft + core correction, Zval = 13.0
     Generated by new atomic code, or converted to UPF format
     Using radial grid of  887 points,  6 beta functions with:
                l(1) =   0
                l(2) =   0
                l(3) =   1
                l(4) =   1
                l(5) =   2
                l(6) =   2
     Q(r) pseudized with  6 coefficients,  rinner =    1.000   1.000   1.000
                                                       1.000   1.000

     PseudoPot. # 2 for Pb read from file:
     /afs/slac.stanford.edu/u/if/mamunm/psp/gbrv1.5pbe/Pb.UPF
     MD5 check sum: 3d1c1779aa92214d1e8f3a7db79003e2
     Pseudo is Ultrasoft + core correction, Zval = 14.0
     Generated by new atomic code, or converted to UPF format
     Using radial grid of  899 points,  6 beta functions with:
                l(1) =   0
                l(2) =   0
                l(3) =   1
                l(4) =   1
                l(5) =   2
                l(6) =   2
     Q(r) pseudized with  6 coefficients,  rinner =    1.000   1.000   1.000
                                                       1.000   1.000

     vdW kernel table read from file vdW_kernel_table
     MD5 check sum: 095c7af220d748ca6e76c0b4c6cfb241

     atomic species   valence    mass     pseudopotential
        Nb1           13.00    92.90637     Nb( 1.00)
        Pb1           14.00   207.20000     Pb( 1.00)

     No symmetry found

   Cartesian axes

     site n.     atom                  positions (alat units)
         1           Nb1 tau(   1) = (   0.0000000   0.0000000  10.0000000  )
         2           Nb1 tau(   2) = (  -1.5101160   2.6155976  10.0000000  )
         3           Nb1 tau(   3) = (   1.5101160   2.6155976  10.0000000  )
         4           Pb1 tau(   4) = (   3.0202319   0.0000000  10.0000000  )
         5           Nb1 tau(   5) = (   3.0202319   1.7437317  12.4660090  )
         6           Nb1 tau(   6) = (   1.5101160   4.3593293  12.4660090  )
         7           Nb1 tau(   7) = (  -1.5101160   4.3593293  12.4660090  )
         8           Pb1 tau(   8) = (   0.0000000   1.7437317  12.4660090  )
         9           Nb1 tau(   9) = (  -0.0000000   3.4874634  14.9320181  )
        10           Nb1 tau(  10) = (   1.5101160   0.8718659  14.9320181  )
        11           Nb1 tau(  11) = (   4.5303479   0.8718659  14.9320181  )
        12           Pb1 tau(  12) = (   3.0202319   3.4874634  14.9320181  )

     number of k points=    20  Fermi-Dirac smearing, width (Ry)=  0.0110
                       cart. coord. in units 2pi/alat
        k(    1) = (   0.0000000   0.0000000   0.0000000), wk =   0.0555556
        k(    2) = (   0.0000000   0.0318602   0.0000000), wk =   0.1111111
        k(    3) = (   0.0000000   0.0637203   0.0000000), wk =   0.1111111
        k(    4) = (   0.0000000  -0.0955805   0.0000000), wk =   0.0555556
        k(    5) = (   0.0275917   0.0159301   0.0000000), wk =   0.1111111
        k(    6) = (   0.0275917   0.0477902   0.0000000), wk =   0.1111111
        k(    7) = (   0.0275917   0.0796504   0.0000000), wk =   0.1111111
        k(    8) = (   0.0275917  -0.0796504   0.0000000), wk =   0.1111111
        k(    9) = (   0.0275917  -0.0477902   0.0000000), wk =   0.1111111
        k(   10) = (   0.0275917  -0.0159301   0.0000000), wk =   0.1111111
        k(   11) = (   0.0551834   0.0318602   0.0000000), wk =   0.1111111
        k(   12) = (   0.0551834   0.0637203   0.0000000), wk =   0.1111111
        k(   13) = (   0.0551834   0.0955805   0.0000000), wk =   0.1111111
        k(   14) = (   0.0551834  -0.0637203   0.0000000), wk =   0.1111111
        k(   15) = (   0.0551834  -0.0318602   0.0000000), wk =   0.1111111
        k(   16) = (   0.0551834   0.0000000   0.0000000), wk =   0.1111111
        k(   17) = (  -0.0827751  -0.0477902   0.0000000), wk =   0.0555556
        k(   18) = (  -0.0827751  -0.0159301   0.0000000), wk =   0.1111111
        k(   19) = (  -0.0827751   0.0159301   0.0000000), wk =   0.1111111
        k(   20) = (  -0.0827751  -0.1433707   0.0000000), wk =   0.0555556

     Largest allocated arrays     est. size (Mb)     dimensions
     Largest temporary arrays     est. size (Mb)     dimensions

     Initial potential from superposition of free atoms
     Check: negative starting charge=   -0.050406

     starting charge  158.96835, renormalised to  159.00000

     negative rho (up, down):  5.042E-02 0.000E+00

     *
     * You are using vdW-DF for exchange-correlation in this calculation.
     * Please cite the following three references that made this development
     * possible:
     *
     *   M. Dion, H. Rydberg, E. Schroder, D. C. Langreth, and
     *   B. I. Lundqvist, Phys. Rev. Lett. 92, 246401 (2004).
     *
     *   T. Thonhauser, V. R. Cooper, S. Li, A. Puzder, P. Hyldgaard, and
     *   D. C. Langreth, Phys. Rev. B 76, 125112 (2007).
     *
     *   G. Roman-Perez and J. M. Soler, Phys. Rev. Lett. 103, 096102 (2009).
     *
     *
     * If you are using vdW-DF2, please also cite:
     *
     *   K. Lee, E. D. Murray, L. Kong, B. I. Lundqvist, and
     *   D. C. Langreth, Phys. Rev. B 82, 081101(R) (2010).
     *
     *
     * If you are calculating the stress with vdW-DF, please also cite:
     *
     *   R. Sabatini, E. Kucukbenli, B. Kolb, T. Thonhauser, and
     *   S. de Gironcoli, J. Phys.: Condens. Matter 24, 424209 (2012).
     *

     Carrying out vdW-DF run using the following parameters:

     Nqs =      20    Nr_points =    1024   r_max =   100.000
     q_mesh =
               0.00001000     0.04494208     0.09755937     0.15916263
               0.23128650     0.31572767     0.41458969     0.53033537
               0.66584808     0.82450364     1.01025438     1.22772762
               1.48234092     1.78043706     2.12944203     2.53805004
               3.01644009     3.57652955     4.23227104     5.00000000

     Gradients computed in reciprocal space

     Adding external electric field

     Computed dipole along edir(3) :
        Dipole               -0.0000 Ry au,         -0.0000 Debye
        Dipole field         -0.0000 Ry au

        Potential amp.        0.0000 Ry
        Total length         45.9368 bohr

     Starting wfc are  144 randomized atomic wfcs

     Self-consistent Calculation

     iteration #  1     ecut=    36.75 Ry     beta=0.10
     Davidson diagonalization with overlap
     ethr =  1.00E-02,  avg # of iterations =  2.0

[...]

     total energy              =   -1564.48126199 Ry
     Harris-Foulkes estimate   =   -1564.95399197 Ry
     estimated scf accuracy    <       2.97443056 Ry

[...]

     End of self-consistent calculation

          k = 0.0000 0.0000 0.0000 ( 19831 PWs)   bands (ev):

   -53.3276 -53.3200 -53.2425 -53.2425 -53.2407 -53.2407 -53.1318 -53.0567
   -53.0567 -29.6178 -29.5879 -29.5709 -29.5409 -29.5409 -29.5129 -29.5129
   -29.4830 -29.4829 -29.4750 -29.4073 -29.3366 -29.3366 -29.2313 -29.2313
   -29.1889 -29.1502 -28.9913 -28.9913 -28.9799 -28.9709 -28.8881 -28.8880
   -28.8795 -28.8794 -28.7648 -28.7647 -15.2861 -15.2861 -15.2809 -15.2393
   -15.2393 -14.8156 -14.8016 -14.7991 -14.7991 -14.7924 -14.7924 -14.7651
   -14.7651 -14.7532 -14.7532  -8.0967  -7.0303  -6.9950  -1.8578  -1.8442
    -1.3615  -0.7718  -0.7718  -0.6271  -0.6271  -0.3698  -0.3665  -0.2503
    -0.2503  -0.0572  -0.0572   0.4584   0.4585   0.7679   1.0273   1.1821
     1.3223   1.3223   1.4673   1.4673   1.6174   1.6174   1.6343   1.6343
     2.0564   2.1407   2.3010   3.4351   3.4351   3.4431   3.5053   3.5893
     3.5893   3.6296   3.7467   3.7467   3.9230   4.0323   4.0323   4.1197
     4.1197   4.3873   4.4180   4.6805   4.6805   4.7549   4.7549   4.9325
     4.9325   5.2630   5.5800   5.8486   6.0198

[...]

          k =-0.0828-0.0478 0.0000 ( 20024 PWs)   bands (ev):

[...]

     the Fermi energy is     1.9182 ev

!    total energy              =   -1564.60703403 Ry
     Harris-Foulkes estimate   =   -1564.61228319 Ry
     estimated scf accuracy    <       0.00000082 Ry

     The total energy is the sum of the following terms:

     one-electron contribution =  -11475.95233033 Ry
     hartree contribution      =    5750.88985634 Ry
     xc contribution           =    -367.51024567 Ry
     ewald contribution        =    4528.05528590 Ry
     electric field correction =       0.00000001 Ry
     smearing contrib. (-TS)   =      -0.08960027 Ry

     convergence has been achieved in  15 iterations

 BEEF-vdW xc energy contributions
           1 :   -321.740021027029
           2 :    296.388597542021
           3 :   -252.313326221561
           4 :    200.046410121809
           5 :   -150.173901181325
           6 :    109.979845490643
           7 :   -81.8808653738056
           8 :    63.9275682906449
           9 :   -51.8076199836797
          10 :    41.2365130715950
          11 :   -29.7086524327433
          12 :    17.0294697406739
          13 :   -4.70060420701435
          14 :   -5.32417745287887
          15 :    11.8084547034401
          16 :   -14.8111133813903
[...]
     Generated by new atomic code, or converted to UPF format
     Using radial grid of  887 points,  6 beta functions with:
                l(1) =   0
                l(2) =   0
                l(3) =   1
                l(4) =   1
                l(5) =   2
                l(6) =   2
     Q(r) pseudized with  6 coefficients,  rinner =    1.000   1.000   1.000
                                                       1.000   1.000

     PseudoPot. # 2 for Pb read from file:
     /afs/slac.stanford.edu/u/if/mamunm/psp/gbrv1.5pbe/Pb.UPF
     MD5 check sum: 3d1c1779aa92214d1e8f3a7db79003e2
     Pseudo is Ultrasoft + core correction, Zval = 14.0
     Generated by new atomic code, or converted to UPF format
     Using radial grid of  899 points,  6 beta functions with:
                l(1) =   0
                l(2) =   0
                l(3) =   1
                l(4) =   1
                l(5) =   2
                l(6) =   2
     Q(r) pseudized with  6 coefficients,  rinner =    1.000   1.000   1.000
                                                       1.000   1.000

     vdW kernel table read from file vdW_kernel_table
     MD5 check sum: 095c7af220d748ca6e76c0b4c6cfb241

     atomic species   valence    mass     pseudopotential
        Nb1           13.00    92.90637     Nb( 1.00)
        Pb1           14.00   207.20000     Pb( 1.00)

     No symmetry found

   Cartesian axes

     site n.     atom                  positions (alat units)
         1           Nb1 tau(   1) = (   0.0000000   0.0000000  10.0000000  )
         2           Nb1 tau(   2) = (  -1.5101160   2.6155976  10.0000000  )
         3           Nb1 tau(   3) = (   1.5101160   2.6155976  10.0000000  )
         4           Pb1 tau(   4) = (   3.0202319   0.0000000  10.0000000  )
         5           Nb1 tau(   5) = (   3.0202319   1.7437317  12.4660090  )
         6           Nb1 tau(   6) = (   1.5101160   4.3593293  12.4660090  )
         7           Nb1 tau(   7) = (  -1.5101160   4.3593293  12.4660090  )
         8           Pb1 tau(   8) = (   0.0000000   1.7437317  12.4660090  )
         9           Nb1 tau(   9) = (  -0.0000150   3.5944696  14.7796640  )
        10           Nb1 tau(  10) = (   1.6027756   0.8183544  14.7796619  )
        11           Nb1 tau(  11) = (   4.4376688   0.8183542  14.7796582  )
        12           Pb1 tau(  12) = (   3.0202309   3.4874573  15.3792332  )

     number of k points=    20  Fermi-Dirac smearing, width (Ry)=  0.0110
                       cart. coord. in units 2pi/alat
        k(    1) = (   0.0000000   0.0000000   0.0000000), wk =   0.0555556
        k(    2) = (   0.0000000   0.0318602   0.0000000), wk =   0.1111111
        k(    3) = (   0.0000000   0.0637203   0.0000000), wk =   0.1111111
        k(    4) = (   0.0000000  -0.0955805   0.0000000), wk =   0.0555556
        k(    5) = (   0.0275917   0.0159301   0.0000000), wk =   0.1111111
        k(    6) = (   0.0275917   0.0477902   0.0000000), wk =   0.1111111
        k(    7) = (   0.0275917   0.0796504   0.0000000), wk =   0.1111111
        k(    8) = (   0.0275917  -0.0796504   0.0000000), wk =   0.1111111
        k(    9) = (   0.0275917  -0.0477902   0.0000000), wk =   0.1111111
        k(   10) = (   0.0275917  -0.0159301   0.0000000), wk =   0.1111111
        k(   11) = (   0.0551834   0.0318602   0.0000000), wk =   0.1111111
        k(   12) = (   0.0551834   0.0637203   0.0000000), wk =   0.1111111
        k(   13) = (   0.0551834   0.0955805   0.0000000), wk =   0.1111111
        k(   14) = (   0.0551834  -0.0637203   0.0000000), wk =   0.1111111
        k(   15) = (   0.0551834  -0.0318602   0.0000000), wk =   0.1111111
        k(   16) = (   0.0551834   0.0000000   0.0000000), wk =   0.1111111
        k(   17) = (  -0.0827751  -0.0477902   0.0000000), wk =   0.0555556
        k(   18) = (  -0.0827751  -0.0159301   0.0000000), wk =   0.1111111
        k(   19) = (  -0.0827751   0.0159301   0.0000000), wk =   0.1111111
        k(   20) = (  -0.0827751  -0.1433707   0.0000000), wk =   0.0555556

     Largest allocated arrays     est. size (Mb)     dimensions
     Largest temporary arrays     est. size (Mb)     dimensions

     Initial potential from superposition of free atoms
     Check: negative starting charge=   -0.051042

     starting charge  158.96835, renormalised to  159.00000

[...]

     *
     * You are using vdW-DF for exchange-correlation in this calculation.
     * Please cite the following three references that made this development
     * possible:
     *
     *   M. Dion, H. Rydberg, E. Schroder, D. C. Langreth, and
     *   B. I. Lundqvist, Phys. Rev. Lett. 92, 246401 (2004).
     *
     *   T. Thonhauser, V. R. Cooper, S. Li, A. Puzder, P. Hyldgaard, and
     *   D. C. Langreth, Phys. Rev. B 76, 125112 (2007).
     *
     *   G. Roman-Perez and J. M. Soler, Phys. Rev. Lett. 103, 096102 (2009).
     *
     *
     * If you are using vdW-DF2, please also cite:
     *
     *   K. Lee, E. D. Murray, L. Kong, B. I. Lundqvist, and
     *   D. C. Langreth, Phys. Rev. B 82, 081101(R) (2010).
     *
     *
     * If you are calculating the stress with vdW-DF, please also cite:
     *
     *   R. Sabatini, E. Kucukbenli, B. Kolb, T. Thonhauser, and
     *   S. de Gironcoli, J. Phys.: Condens. Matter 24, 424209 (2012).
     *

     Carrying out vdW-DF run using the following parameters:

     Nqs =      20    Nr_points =    1024   r_max =   100.000
     q_mesh =
               0.00001000     0.04494208     0.09755937     0.15916263
               0.23128650     0.31572767     0.41458969     0.53033537
               0.66584808     0.82450364     1.01025438     1.22772762
               1.48234092     1.78043706     2.12944203     2.53805004
               3.01644009     3.57652955     4.23227104     5.00000000

     Gradients computed in reciprocal space

[...]

     Starting wfc are  144 randomized atomic wfcs

     Self-consistent Calculation

[...]

     iteration #  9     ecut=    36.75 Ry     beta=0.10
     Davidson diagonalization with overlap
     c_bands:  1 eigenvalues not converged
     c_bands:  1 eigenvalues not converged
     ethr =  1.25E-05,  avg # of iterations =  6.5

[...]

     total energy              =   -1564.66152441 Ry
     Harris-Foulkes estimate   =   -1564.66152271 Ry
     estimated scf accuracy    <       0.00000148 Ry

     iteration # 17     ecut=    36.75 Ry     beta=0.10
     Davidson diagonalization with overlap
     ethr =  9.28E-10,  avg # of iterations =  2.0

[...]

     negative rho (up, down):  6.019E-02 0.000E+00

     Adding external electric field

     Computed dipole along edir(3) :
        Dipole                0.0168 Ry au,          0.0428 Debye
        Dipole field          0.0000 Ry au

        Potential amp.       -0.0037 Ry
        Total length         45.9368 bohr

     End of self-consistent calculation

[...]

          k = 0.0552 0.0000 0.0000 ( 19989 PWs)   bands (ev):

[...]

          k =-0.0828-0.1434 0.0000 ( 20024 PWs)   bands (ev):

   -53.2885 -53.2619 -53.2342 -53.1937 -53.1169 -53.0984 -53.0357 -53.0151
   -52.9916 -29.5710 -29.5454 -29.5212 -29.4412 -29.4395 -29.4207 -29.3948
   -29.3576 -29.3455 -29.3350 -29.3088 -29.2845 -29.2652 -29.2307 -29.1597
   -29.1522 -29.0622 -29.0394 -29.0188 -28.9863 -28.9325 -28.9018 -28.8598
   -28.8206 -28.7859 -28.7775 -28.7157 -15.2933 -15.2735 -15.2665 -15.2429
   -15.2403 -14.8025 -14.7771 -14.7714 -14.7661 -14.7569 -14.7526 -14.7312
   -14.7269 -14.7199 -14.7099  -7.4598  -6.7260  -6.3435  -2.7177  -2.0441
    -1.7703  -1.6394  -0.9035  -0.6750  -0.4989  -0.4248  -0.3794  -0.2515
    -0.1200   0.2210   0.4049   0.5900   0.6566   0.7941   0.8719   0.8925
     1.0480   1.3572   1.3603   1.3922   1.4952   1.5999   1.8134   1.9797
     1.9921   2.2005   2.2143   2.2716   2.7700   3.0406   3.1496   3.2282
     3.3448   3.4904   3.6125   3.6476   3.7372   3.8020   3.8689   3.9726
     4.0609   4.0809   4.1699   4.4121   4.7892   4.9429   4.9693   5.0847
     5.1939   6.0126   6.1191   6.3535   6.4994

     the Fermi energy is     1.9411 ev

!    total energy              =   -1564.66152843 Ry
     Harris-Foulkes estimate   =   -1564.66152459 Ry
     estimated scf accuracy    <       0.00000033 Ry

     The total energy is the sum of the following terms:

     one-electron contribution =  -11454.58714855 Ry
     hartree contribution      =    5740.44301968 Ry
     xc contribution           =    -367.60591773 Ry
     ewald contribution        =    4517.17308794 Ry
     electric field correction =       0.00000067 Ry
     smearing contrib. (-TS)   =      -0.08457044 Ry

     convergence has been achieved in  17 iterations

 BEEF-vdW xc energy contributions
           1 :   -322.038198056055
           2 :    296.679014505552
           3 :   -252.591419602627
           4 :    200.307051187077
           5 :   -150.407038505226
           6 :    110.171444610569
           7 :   -82.0155133798692
           8 :    63.9927228342228
           9 :   -51.8033599690962
          10 :    41.1865154725088
          11 :   -29.6601589065959
          12 :    17.0325468722648
          13 :   -4.77508584035240
          14 :   -5.20716089560119
          15 :    11.7113266323139
          16 :   -14.7873758247897
          17 :    15.5581336242103
          18 :   -15.5411291294312
          19 :    15.8863970026606
          20 :   -16.9271108172121
          21 :    18.2108400427888
          22 :   -18.9202446037974
          23 :    18.4004792991210
          24 :   -16.5156612041993
          25 :    13.6866388035996
          26 :   -10.6531327902077
          27 :    8.11912902779517
          28 :   -6.46883835996226
          29 :    5.66648995146090
          30 :   -5.35556144897771
          31 :   -30.8893077128208
          32 :   -23.1239142828578

     Forces acting on atoms (Ry/au):

     negative rho (up, down):  6.019E-02 0.000E+00
     atom    1 type  1   force =     0.00000019   -0.01175114    0.03021113
     atom    2 type  1   force =    -0.01017844    0.00587693    0.03021225
     atom    3 type  1   force =     0.01017859    0.00587659    0.03021258
     atom    4 type  2   force =     0.00000265   -0.00000226   -0.06971324
     atom    5 type  1   force =    -0.00000099    0.01837602   -0.00149411
     atom    6 type  1   force =     0.01591283   -0.00918852   -0.00149298
     atom    7 type  1   force =    -0.01591288   -0.00918733   -0.00149264
     atom    8 type  2   force =    -0.00000168   -0.00000415   -0.02216974
     atom    9 type  1   force =     0.00000204   -0.00091455    0.00147047
     atom   10 type  1   force =    -0.00079100    0.00045926    0.00147047
     atom   11 type  1   force =     0.00079055    0.00045822    0.00147100
     atom   12 type  2   force =    -0.00000185    0.00000093    0.00131481

     Total force =     0.097645     Total SCF correction =     0.001634

     entering subroutine stress ...

     negative rho (up, down):  6.019E-02 0.000E+00
          total   stress  (Ry/bohr**3)                   (kbar)     P=  -13.28
  -0.00012912  -0.00000000  -0.00000000        -18.99     -0.00     -0.00
  -0.00000000  -0.00012912   0.00000000         -0.00    -18.99      0.00
  -0.00000000   0.00000000  -0.00001262         -0.00      0.00     -1.86

 !ASE

     Writing output data file calc.save

     General routines

     Parallel routines

   This run was terminated on:   7: 6:46  27Dec2018

   JOB DONE.
Job  /afs/slac/g/suncat/bin/suncat-tsmpirun -x LD_LIBRARY_PATH -wdir /scratch/qe110199_YLhrV pw.x -in pw.inp

TID   HOST_NAME   COMMAND_LINE            STATUS            TERMINATION_TIME
00000 suncat0093 pw.x -in pw.inp   Done                     12/27/2018 07:06:46
00001 suncat0093 pw.x -in pw.inp   Done                     12/27/2018 07:06:46
00002 suncat0093 pw.x -in pw.inp   Done                     12/27/2018 07:06:46
00003 suncat0093 pw.x -in pw.inp   Done                     12/27/2018 07:06:46
00004 suncat0093 pw.x -in pw.inp   Done                     12/27/2018 07:06:46
00005 suncat0093 pw.x -in pw.inp   Done                     12/27/2018 07:06:46
00006 suncat0093 pw.x -in pw.inp   Done                     12/27/2018 07:06:46
00007 suncat0093 pw.x -in pw.inp   Done                     12/27/2018 07:06:46
00008 suncat0089 pw.x -in pw.inp   Done                     12/27/2018 07:06:46
00009 suncat0089 pw.x -in pw.inp   Done                     12/27/2018 07:06:46
00010 suncat0089 pw.x -in pw.inp   Done                     12/27/2018 07:06:46
00011 suncat0089 pw.x -in pw.inp   Done                     12/27/2018 07:06:46
00012 suncat0089 pw.x -in pw.inp   Done                     12/27/2018 07:06:46
00013 suncat0089 pw.x -in pw.inp   Done                     12/27/2018 07:06:46
00014 suncat0089 pw.x -in pw.inp   Done                     12/27/2018 07:06:46
00015 suncat0089 pw.x -in pw.inp   Done                     12/27/2018 07:06:46
00016 suncat0088 pw.x -in pw.inp   Done                     12/27/2018 07:06:46
00017 suncat0088 pw.x -in pw.inp   Done                     12/27/2018 07:06:46
00018 suncat0088 pw.x -in pw.inp   Done                     12/27/2018 07:06:46
00019 suncat0088 pw.x -in pw.inp   Done                     12/27/2018 07:06:46
00020 suncat0088 pw.x -in pw.inp   Done                     12/27/2018 07:06:46
00021 suncat0088 pw.x -in pw.inp   Done                     12/27/2018 07:06:46
00022 suncat0088 pw.x -in pw.inp   Done                     12/27/2018 07:06:46
00023 suncat0088 pw.x -in pw.inp   Done                     12/27/2018 07:06:46
00024 suncat0079 pw.x -in pw.inp   Done                     12/27/2018 07:06:46
00025 suncat0079 pw.x -in pw.inp   Done                     12/27/2018 07:06:46
00026 suncat0079 pw.x -in pw.inp   Done                     12/27/2018 07:06:46
00027 suncat0079 pw.x -in pw.inp   Done                     12/27/2018 07:06:46
00028 suncat0079 pw.x -in pw.inp   Done                     12/27/2018 07:06:46
00029 suncat0079 pw.x -in pw.inp   Done                     12/27/2018 07:06:46
00030 suncat0079 pw.x -in pw.inp   Done                     12/27/2018 07:06:46
00031 suncat0079 pw.x -in pw.inp   Done                     12/27/2018 07:06:46
00032 suncat0064 pw.x -in pw.inp   Done                     12/27/2018 07:06:46
00033 suncat0064 pw.x -in pw.inp   Done                     12/27/2018 07:06:46
00034 suncat0064 pw.x -in pw.inp   Done                     12/27/2018 07:06:46
00035 suncat0064 pw.x -in pw.inp   Done                     12/27/2018 07:06:46
00036 suncat0064 pw.x -in pw.inp   Done                     12/27/2018 07:06:46
00037 suncat0064 pw.x -in pw.inp   Done                     12/27/2018 07:06:46
00038 suncat0064 pw.x -in pw.inp   Done                     12/27/2018 07:06:46
00039 suncat0064 pw.x -in pw.inp   Done                     12/27/2018 07:06:46
00040 suncat0129 pw.x -in pw.inp   Done                     12/27/2018 07:06:46
00041 suncat0129 pw.x -in pw.inp   Done                     12/27/2018 07:06:46
00042 suncat0129 pw.x -in pw.inp   Done                     12/27/2018 07:06:46
00043 suncat0129 pw.x -in pw.inp   Done                     12/27/2018 07:06:46
00044 suncat0129 pw.x -in pw.inp   Done                     12/27/2018 07:06:46
00045 suncat0129 pw.x -in pw.inp   Done                     12/27/2018 07:06:46
00046 suncat0129 pw.x -in pw.inp   Done                     12/27/2018 07:06:46
00047 suncat0129 pw.x -in pw.inp   Done                     12/27/2018 07:06:46
00048 suncat0254 pw.x -in pw.inp   Done                     12/27/2018 07:06:46
00049 suncat0254 pw.x -in pw.inp   Done                     12/27/2018 07:06:46
00050 suncat0254 pw.x -in pw.inp   Done                     12/27/2018 07:06:46
00051 suncat0254 pw.x -in pw.inp   Done                     12/27/2018 07:06:46
00052 suncat0254 pw.x -in pw.inp   Done                     12/27/2018 07:06:46
00053 suncat0254 pw.x -in pw.inp   Done                     12/27/2018 07:06:46
00054 suncat0254 pw.x -in pw.inp   Done                     12/27/2018 07:06:46
00055 suncat0254 pw.x -in pw.inp   Done                     12/27/2018 07:06:46
00056 suncat0253 pw.x -in pw.inp   Done                     12/27/2018 07:06:46
00057 suncat0253 pw.x -in pw.inp   Done                     12/27/2018 07:06:46
00058 suncat0253 pw.x -in pw.inp   Done                     12/27/2018 07:06:46
00059 suncat0253 pw.x -in pw.inp   Done                     12/27/2018 07:06:46
00060 suncat0253 pw.x -in pw.inp   Done                     12/27/2018 07:06:46
00061 suncat0253 pw.x -in pw.inp   Done                     12/27/2018 07:06:46
00062 suncat0253 pw.x -in pw.inp   Done                     12/27/2018 07:06:46
00063 suncat0253 pw.x -in pw.inp   Done                     12/27/2018 07:06:46