     Program PWSCF v.5.1rc2 (svn rev. 11289) starts on 27Dec2018 at  9:10:32

     Current dimensions of program PWSCF are:
     Max number of different atomic species (ntypx) = 10
     Max number of k-points (npk) =  40000
     Max angular momentum in pseudopotentials (lmaxx) =  3
     Presently stress not available with electric field

     IMPORTANT: XC functional enforced from input :
     Exchange-correlation      = BEEF-VDW ( 1  4 27 13 2)
     Any further DFT definition will be discarded
     Please, verify this is what you really want

     Subspace diagonalization in iterative solution of the eigenvalue problem:
     a serial algorithm will be used

     Generating pointlists ...
     new r_m :   0.4125 (alat units)  0.7795 (a.u.) for type    1
     new r_m :   0.4125 (alat units)  0.7795 (a.u.) for type    2

     bravais-lattice index     =            0
     lattice parameter (alat)  =       1.8897  a.u.
     unit-cell volume          =    3945.3458 (a.u.)^3
     number of atoms/cell      =           12
     number of atomic types    =            2
     number of electrons       =       195.00
     number of Kohn-Sham states=          127
     kinetic-energy cutoff     =      36.7493  Ry
     charge density cutoff     =     367.4932  Ry
     convergence threshold     =      1.0E-06
     mixing beta               =       0.1000
     number of iterations used =           10  plain     mixing
     Exchange-correlation      = BEEF-VDW ( 1  4 27 13 2)
     nstep                     =           50

     celldm(1)=   1.889726  celldm(2)=   0.000000  celldm(3)=   0.000000
     celldm(4)=   0.000000  celldm(5)=   0.000000  celldm(6)=   0.000000

     crystal axes: (cart. coord. in units of alat)
               a(1) = (   5.270434   0.000000   0.000000 )
               a(2) = (  -2.635217   4.564330   0.000000 )
               a(3) = (   0.000000   0.000000  24.303291 )

     reciprocal axes: (cart. coord. in units 2 pi/alat)
               b(1) = (  0.189738  0.109545  0.000000 )
               b(2) = (  0.000000  0.219090  0.000000 )
               b(3) = (  0.000000  0.000000  0.041147 )

     PseudoPot. # 1 for Ni read from file:
     /afs/slac.stanford.edu/u/if/mamunm/psp/gbrv1.5pbe/Ni.UPF
     MD5 check sum: 1ee80287db30b12d2bc1f57a5b5d6409
     Pseudo is Ultrasoft + core correction, Zval = 18.0
     Generated by new atomic code, or converted to UPF format
     Using radial grid of  865 points,  6 beta functions with:
                l(1) =   0
                l(2) =   0
                l(3) =   1
                l(4) =   1
                l(5) =   2
                l(6) =   2
     Q(r) pseudized with 10 coefficients,  rinner =    0.980   0.980   0.980
                                                       0.980   0.980

     PseudoPot. # 2 for Sc read from file:
     /afs/slac.stanford.edu/u/if/mamunm/psp/gbrv1.5pbe/Sc.UPF
     MD5 check sum: db30a2753ba66ef00f23801d899b7e7f
     Pseudo is Ultrasoft + core correction, Zval = 11.0
     Generated by new atomic code, or converted to UPF format
     Using radial grid of  849 points,  6 beta functions with:
                l(1) =   0
                l(2) =   0
                l(3) =   1
                l(4) =   1
                l(5) =   2
                l(6) =   2
     Q(r) pseudized with  6 coefficients,  rinner =    1.200   1.200   1.200
                                                       1.200   1.200

     vdW kernel table read from file vdW_kernel_table
     MD5 check sum: 095c7af220d748ca6e76c0b4c6cfb241

     atomic species   valence    mass     pseudopotential
        Ni1           18.00    58.69340     Ni( 1.00)
        Sc1           11.00    44.95591     Sc( 1.00)

     Starting magnetic structure
     atomic species   magnetization
        Ni1          0.111
        Sc1          0.182

     No symmetry found

   Cartesian axes

     site n.     atom                  positions (alat units)
         1           Ni1 tau(   1) = (   0.0000000   0.0000000  10.0000000  )
         2           Ni1 tau(   2) = (  -1.3176085   2.2821648  10.0000000  )
         3           Ni1 tau(   3) = (   1.3176085   2.2821648  10.0000000  )
         4           Sc1 tau(   4) = (   2.6352170   0.0000000  10.0000000  )
         5           Ni1 tau(   5) = (   2.6352170   1.5214432  12.1516456  )
         6           Ni1 tau(   6) = (   1.3176085   3.8036081  12.1516456  )
         7           Ni1 tau(   7) = (  -1.3176085   3.8036081  12.1516456  )
         8           Sc1 tau(   8) = (   0.0000000   1.5214432  12.1516456  )
         9           Ni1 tau(   9) = (  -0.0000000   3.0428864  14.3032913  )
        10           Ni1 tau(  10) = (   1.3176085   0.7607216  14.3032913  )
        11           Ni1 tau(  11) = (   3.9528254   0.7607216  14.3032913  )
        12           Sc1 tau(  12) = (   2.6352170   3.0428864  14.3032913  )

     number of k points=    40  Fermi-Dirac smearing, width (Ry)=  0.0110
                       cart. coord. in units 2pi/alat
        k(    1) = (   0.0000000   0.0000000   0.0000000), wk =   0.0277778
        k(    2) = (   0.0000000   0.0365150   0.0000000), wk =   0.0555556
        k(    3) = (   0.0000000   0.0730301   0.0000000), wk =   0.0555556
        k(    4) = (   0.0000000  -0.1095451   0.0000000), wk =   0.0277778
        k(    5) = (   0.0316229   0.0182575   0.0000000), wk =   0.0555556
        k(    6) = (   0.0316229   0.0547726   0.0000000), wk =   0.0555556
        k(    7) = (   0.0316229   0.0912876   0.0000000), wk =   0.0555556
        k(    8) = (   0.0316229  -0.0912876   0.0000000), wk =   0.0555556
        k(    9) = (   0.0316229  -0.0547726   0.0000000), wk =   0.0555556
        k(   10) = (   0.0316229  -0.0182575   0.0000000), wk =   0.0555556
        k(   11) = (   0.0632459   0.0365150   0.0000000), wk =   0.0555556
        k(   12) = (   0.0632459   0.0730301   0.0000000), wk =   0.0555556
        k(   13) = (   0.0632459   0.1095451   0.0000000), wk =   0.0555556
        k(   14) = (   0.0632459  -0.0730301   0.0000000), wk =   0.0555556
        k(   15) = (   0.0632459  -0.0365150   0.0000000), wk =   0.0555556
        k(   16) = (   0.0632459  -0.0000000   0.0000000), wk =   0.0555556
        k(   17) = (  -0.0948688  -0.0547726   0.0000000), wk =   0.0277778
        k(   18) = (  -0.0948688  -0.0182575   0.0000000), wk =   0.0555556
        k(   19) = (  -0.0948688   0.0182575   0.0000000), wk =   0.0555556
        k(   20) = (  -0.0948688  -0.1643177   0.0000000), wk =   0.0277778
        k(   21) = (   0.0000000   0.0000000   0.0000000), wk =   0.0277778
        k(   22) = (   0.0000000   0.0365150   0.0000000), wk =   0.0555556
        k(   23) = (   0.0000000   0.0730301   0.0000000), wk =   0.0555556
        k(   24) = (   0.0000000  -0.1095451   0.0000000), wk =   0.0277778
        k(   25) = (   0.0316229   0.0182575   0.0000000), wk =   0.0555556
        k(   26) = (   0.0316229   0.0547726   0.0000000), wk =   0.0555556
        k(   27) = (   0.0316229   0.0912876   0.0000000), wk =   0.0555556
        k(   28) = (   0.0316229  -0.0912876   0.0000000), wk =   0.0555556
        k(   29) = (   0.0316229  -0.0547726   0.0000000), wk =   0.0555556
        k(   30) = (   0.0316229  -0.0182575   0.0000000), wk =   0.0555556
        k(   31) = (   0.0632459   0.0365150   0.0000000), wk =   0.0555556
        k(   32) = (   0.0632459   0.0730301   0.0000000), wk =   0.0555556
        k(   33) = (   0.0632459   0.1095451   0.0000000), wk =   0.0555556
        k(   34) = (   0.0632459  -0.0730301   0.0000000), wk =   0.0555556
        k(   35) = (   0.0632459  -0.0365150   0.0000000), wk =   0.0555556
        k(   36) = (   0.0632459  -0.0000000   0.0000000), wk =   0.0555556
        k(   37) = (  -0.0948688  -0.0547726   0.0000000), wk =   0.0277778
        k(   38) = (  -0.0948688  -0.0182575   0.0000000), wk =   0.0555556
        k(   39) = (  -0.0948688   0.0182575   0.0000000), wk =   0.0555556
        k(   40) = (  -0.0948688  -0.1643177   0.0000000), wk =   0.0277778

     Largest allocated arrays     est. size (Mb)     dimensions
     Largest temporary arrays     est. size (Mb)     dimensions

     Check: negative/imaginary core charge=   -0.000002    0.000000

     Initial potential from superposition of free atoms
     Check: negative starting charge=(component1):   -0.000341
     Check: negative starting charge=(component2):   -0.000271

     starting charge  176.99279, renormalised to  195.00000

     negative rho (up, down):  3.761E-04 2.983E-04

     *
     * You are using vdW-DF for exchange-correlation in this calculation.
     * Please cite the following three references that made this development
     * possible:
     *
     *   M. Dion, H. Rydberg, E. Schroder, D. C. Langreth, and
     *   B. I. Lundqvist, Phys. Rev. Lett. 92, 246401 (2004).
     *
     *   T. Thonhauser, V. R. Cooper, S. Li, A. Puzder, P. Hyldgaard, and
     *   D. C. Langreth, Phys. Rev. B 76, 125112 (2007).
     *
     *   G. Roman-Perez and J. M. Soler, Phys. Rev. Lett. 103, 096102 (2009).
     *
     *
     * If you are using vdW-DF2, please also cite:
     *
     *   K. Lee, E. D. Murray, L. Kong, B. I. Lundqvist, and
     *   D. C. Langreth, Phys. Rev. B 82, 081101(R) (2010).
     *
     *
     * If you are calculating the stress with vdW-DF, please also cite:
     *
     *   R. Sabatini, E. Kucukbenli, B. Kolb, T. Thonhauser, and
     *   S. de Gironcoli, J. Phys.: Condens. Matter 24, 424209 (2012).
     *

     Carrying out vdW-DF run using the following parameters:

     Nqs =      20    Nr_points =    1024   r_max =   100.000
     q_mesh =
               0.00001000     0.04494208     0.09755937     0.15916263
               0.23128650     0.31572767     0.41458969     0.53033537
               0.66584808     0.82450364     1.01025438     1.22772762
               1.48234092     1.78043706     2.12944203     2.53805004
               3.01644009     3.57652955     4.23227104     5.00000000

     Gradients computed in reciprocal space

     Adding external electric field

     Computed dipole along edir(3) :
        Dipole                0.0000 Ry au,          0.0000 Debye
        Dipole field          0.0000 Ry au

        Potential amp.       -0.0000 Ry
        Total length         44.7784 bohr

[...]

     Starting wfc are  156 randomized atomic wfcs

     Self-consistent Calculation

     iteration #  1     ecut=    36.75 Ry     beta=0.10
     Davidson diagonalization with overlap
     ethr =  1.00E-02,  avg # of iterations =  8.1

[...]

     Magnetic moment per site:
     atom:    1    charge:    9.7910    magn:    1.0370    constr:    0.0000
     atom:    2    charge:    9.7910    magn:    1.0370    constr:    0.0000
     atom:    3    charge:    9.7910    magn:    1.0370    constr:    0.0000
     atom:    4    charge:    2.6558    magn:    0.4435    constr:    0.0000
     atom:    5    charge:    9.7925    magn:    1.0370    constr:    0.0000
     atom:    6    charge:    9.7925    magn:    1.0369    constr:    0.0000
     atom:    7    charge:    9.7925    magn:    1.0370    constr:    0.0000
     atom:    8    charge:    2.6628    magn:    0.4433    constr:    0.0000
[...]
        k(    4) = (   0.0000000  -0.1095451   0.0000000), wk =   0.0277778
        k(    5) = (   0.0316229   0.0182575   0.0000000), wk =   0.0555556
        k(    6) = (   0.0316229   0.0547726   0.0000000), wk =   0.0555556
        k(    7) = (   0.0316229   0.0912876   0.0000000), wk =   0.0555556
        k(    8) = (   0.0316229  -0.0912876   0.0000000), wk =   0.0555556
        k(    9) = (   0.0316229  -0.0547726   0.0000000), wk =   0.0555556
        k(   10) = (   0.0316229  -0.0182575   0.0000000), wk =   0.0555556
        k(   11) = (   0.0632459   0.0365150   0.0000000), wk =   0.0555556
        k(   12) = (   0.0632459   0.0730301   0.0000000), wk =   0.0555556
        k(   13) = (   0.0632459   0.1095451   0.0000000), wk =   0.0555556
        k(   14) = (   0.0632459  -0.0730301   0.0000000), wk =   0.0555556
        k(   15) = (   0.0632459  -0.0365150   0.0000000), wk =   0.0555556
        k(   16) = (   0.0632459  -0.0000000   0.0000000), wk =   0.0555556
        k(   17) = (  -0.0948688  -0.0547726   0.0000000), wk =   0.0277778
        k(   18) = (  -0.0948688  -0.0182575   0.0000000), wk =   0.0555556
        k(   19) = (  -0.0948688   0.0182575   0.0000000), wk =   0.0555556
        k(   20) = (  -0.0948688  -0.1643177   0.0000000), wk =   0.0277778
        k(   21) = (   0.0000000   0.0000000   0.0000000), wk =   0.0277778
        k(   22) = (   0.0000000   0.0365150   0.0000000), wk =   0.0555556
        k(   23) = (   0.0000000   0.0730301   0.0000000), wk =   0.0555556
        k(   24) = (   0.0000000  -0.1095451   0.0000000), wk =   0.0277778
        k(   25) = (   0.0316229   0.0182575   0.0000000), wk =   0.0555556
        k(   26) = (   0.0316229   0.0547726   0.0000000), wk =   0.0555556
        k(   27) = (   0.0316229   0.0912876   0.0000000), wk =   0.0555556
        k(   28) = (   0.0316229  -0.0912876   0.0000000), wk =   0.0555556
        k(   29) = (   0.0316229  -0.0547726   0.0000000), wk =   0.0555556
        k(   30) = (   0.0316229  -0.0182575   0.0000000), wk =   0.0555556
        k(   31) = (   0.0632459   0.0365150   0.0000000), wk =   0.0555556
        k(   32) = (   0.0632459   0.0730301   0.0000000), wk =   0.0555556
        k(   33) = (   0.0632459   0.1095451   0.0000000), wk =   0.0555556
        k(   34) = (   0.0632459  -0.0730301   0.0000000), wk =   0.0555556
        k(   35) = (   0.0632459  -0.0365150   0.0000000), wk =   0.0555556
        k(   36) = (   0.0632459  -0.0000000   0.0000000), wk =   0.0555556
        k(   37) = (  -0.0948688  -0.0547726   0.0000000), wk =   0.0277778
        k(   38) = (  -0.0948688  -0.0182575   0.0000000), wk =   0.0555556
        k(   39) = (  -0.0948688   0.0182575   0.0000000), wk =   0.0555556
        k(   40) = (  -0.0948688  -0.1643177   0.0000000), wk =   0.0277778

     Largest allocated arrays     est. size (Mb)     dimensions
     Largest temporary arrays     est. size (Mb)     dimensions

     Check: negative/imaginary core charge=   -0.000002    0.000000

     Initial potential from superposition of free atoms
     Check: negative starting charge=(component1):   -0.000319
     Check: negative starting charge=(component2):   -0.000253

     starting charge  176.99279, renormalised to  195.00000

[...]

     *
     * You are using vdW-DF for exchange-correlation in this calculation.
     * Please cite the following three references that made this development
     * possible:
     *
     *   M. Dion, H. Rydberg, E. Schroder, D. C. Langreth, and
     *   B. I. Lundqvist, Phys. Rev. Lett. 92, 246401 (2004).
     *
     *   T. Thonhauser, V. R. Cooper, S. Li, A. Puzder, P. Hyldgaard, and
     *   D. C. Langreth, Phys. Rev. B 76, 125112 (2007).
     *
     *   G. Roman-Perez and J. M. Soler, Phys. Rev. Lett. 103, 096102 (2009).
     *
     *
     * If you are using vdW-DF2, please also cite:
     *
     *   K. Lee, E. D. Murray, L. Kong, B. I. Lundqvist, and
     *   D. C. Langreth, Phys. Rev. B 82, 081101(R) (2010).
     *
     *
     * If you are calculating the stress with vdW-DF, please also cite:
     *
     *   R. Sabatini, E. Kucukbenli, B. Kolb, T. Thonhauser, and
     *   S. de Gironcoli, J. Phys.: Condens. Matter 24, 424209 (2012).
     *

     Carrying out vdW-DF run using the following parameters:

     Nqs =      20    Nr_points =    1024   r_max =   100.000
     q_mesh =
               0.00001000     0.04494208     0.09755937     0.15916263
               0.23128650     0.31572767     0.41458969     0.53033537
               0.66584808     0.82450364     1.01025438     1.22772762
               1.48234092     1.78043706     2.12944203     2.53805004
               3.01644009     3.57652955     4.23227104     5.00000000

     Gradients computed in reciprocal space

[...]

     Starting wfc are  156 randomized atomic wfcs

     Self-consistent Calculation

[...]

     total energy              =   -3384.49962679 Ry
     Harris-Foulkes estimate   =   -3384.49962463 Ry
     estimated scf accuracy    <       0.00000114 Ry

[...]

     iteration # 42     ecut=    36.75 Ry     beta=0.10
     Davidson diagonalization with overlap
     ethr =  5.85E-10,  avg # of iterations =  2.0

[...]

     negative rho (up, down):  7.557E-04 7.546E-04

[...]

     Adding external electric field

     Computed dipole along edir(3) :
        Dipole                0.0601 Ry au,          0.1527 Debye
        Dipole field          0.0002 Ry au

        Potential amp.       -0.0171 Ry
        Total length         44.7784 bohr

     Magnetic moment per site:
     atom:    1    charge:    9.3588    magn:    0.0033    constr:    0.0000
     atom:    2    charge:    9.3588    magn:    0.0032    constr:    0.0000
     atom:    3    charge:    9.3586    magn:    0.0033    constr:    0.0000
     atom:    4    charge:    2.4076    magn:   -0.0003    constr:    0.0000
     atom:    5    charge:    9.3508    magn:    0.0033    constr:    0.0000
     atom:    6    charge:    9.3509    magn:    0.0033    constr:    0.0000
     atom:    7    charge:    9.3508    magn:    0.0033    constr:    0.0000
     atom:    8    charge:    2.4084    magn:   -0.0001    constr:    0.0000
     atom:    9    charge:    9.3521    magn:    0.0011    constr:    0.0000
     atom:   10    charge:    9.3522    magn:    0.0011    constr:    0.0000
     atom:   11    charge:    9.3522    magn:    0.0011    constr:    0.0000
     atom:   12    charge:    2.4041    magn:   -0.0002    constr:    0.0000

     End of self-consistent calculation

 ------ SPIN UP ------------

[...]

 ------ SPIN DOWN ----------

[...]

          k = 0.0632-0.0000 0.0000 ( 14853 PWs)   bands (ev):

[...]

          k =-0.0949-0.1643 0.0000 ( 14818 PWs)   bands (ev):

  -102.1585-102.1561-102.1534-101.9720-101.9690-101.9666-101.9171-101.9148
  -101.9121 -62.5999 -62.5888 -62.5809 -62.5474 -62.5356 -62.5279 -62.5190
   -62.5072 -62.4866 -62.4455 -62.4347 -62.4269 -62.4015 -62.3903 -62.3821
   -62.3805 -62.3568 -62.3336 -62.3305 -62.3098 -62.2854 -62.2814 -62.2793
   -62.2767 -62.2165 -62.2139 -62.2111 -48.8806 -48.7096 -48.0162 -27.5763
   -27.4469 -27.4409 -27.4007 -27.2993 -27.2928 -26.6925 -26.6856 -26.6607
    -4.3537  -4.1391  -2.7936  -2.7602  -2.2283  -2.0612  -1.9779  -1.9332
    -1.8407  -1.6806  -1.5401  -1.4633  -1.3968  -1.3748  -1.3523  -1.1876
    -1.1773  -1.1201  -1.0452  -1.0226  -0.9205  -0.8384  -0.7566  -0.7008
    -0.6861  -0.6379  -0.6108  -0.6005  -0.5617  -0.5534  -0.4795  -0.4706
    -0.4509  -0.3596  -0.2467  -0.2430  -0.1622  -0.1242  -0.0826  -0.0749
    -0.0495   0.0548   0.1162   0.1514   0.2984   0.3487   0.3584   0.4050
     0.6038   0.7453   0.8675   1.0979   1.5232   2.1101   2.1339   2.3990
     2.6021   2.6383   2.6712   2.7659   2.9811   3.1452   3.2303   3.2601
     3.4381   3.9467   4.3997   4.8825   5.2776   5.5110   5.6113   5.6845
     6.2807   6.2808   6.3264   6.6691   6.8203   6.9005   6.9624

     the Fermi energy is     0.8406 ev

!    total energy              =   -3384.49964172 Ry
     Harris-Foulkes estimate   =   -3384.49962680 Ry
     estimated scf accuracy    <       0.00000078 Ry

     The total energy is the sum of the following terms:

     one-electron contribution =  -25925.98371297 Ry
     hartree contribution      =   12970.66964178 Ry
     xc contribution           =    -372.93108526 Ry
     ewald contribution        =    9943.82249000 Ry
     electric field correction =       0.00001149 Ry
     smearing contrib. (-TS)   =      -0.07698678 Ry

     total magnetization       =     0.03 Bohr mag/cell
     absolute magnetization    =     0.05 Bohr mag/cell

     convergence has been achieved in  42 iterations

 BEEF-vdW xc energy contributions
           1 :   -327.211443470748
           2 :    295.693749397866
           3 :   -243.050791859980
           4 :    185.024646101848
           5 :   -135.714111794680
           6 :    102.342576904200
           7 :   -84.1028136224656
           8 :    74.8932891890567
           9 :   -67.8442952914426
          10 :    58.9745462969061
          11 :   -48.2834421169241
          12 :    38.2769877114312
          13 :   -31.4039249786293
          14 :    28.2135149972385
          15 :   -27.2386595304418
          16 :    26.2882050222082
          17 :   -23.9974436942964
          18 :    20.5345833833102
          19 :   -17.1445108036904
          20 :    15.0360394477469
          21 :   -14.4874331803063
          22 :    14.7472150882573
          23 :   -14.6848624108477
          24 :    13.6254822549624
          25 :   -11.7653663432426
          26 :    9.92727421382699
          27 :   -8.90894657694520
          28 :    8.91726347172857
          29 :   -9.47242073167274
          30 :    9.79382877427395
          31 :   -28.3552211182545
          32 :   -19.8666581726316

     Forces acting on atoms (Ry/au):

     negative rho (up, down):  7.557E-04 7.546E-04
     atom    1 type  1   force =     0.00001677   -0.00416845    0.01176049
     atom    2 type  1   force =    -0.00362709    0.00209224    0.01177344
     atom    3 type  1   force =     0.00363347    0.00207658    0.01174283
     atom    4 type  2   force =    -0.00000464    0.00000843   -0.01543478
     atom    5 type  1   force =    -0.00004962    0.00705097   -0.00144684
     atom    6 type  1   force =     0.00605400   -0.00358035   -0.00142108
     atom    7 type  1   force =    -0.00604530   -0.00351805   -0.00137299
     atom    8 type  2   force =     0.00002644    0.00002153   -0.01441069
     atom    9 type  1   force =    -0.00002055   -0.00054991   -0.00015111
     atom   10 type  1   force =    -0.00047739    0.00026604   -0.00020645
     atom   11 type  1   force =     0.00048017    0.00029100   -0.00016703
     atom   12 type  2   force =     0.00001374    0.00000997   -0.00066578

     Total force =     0.032691     Total SCF correction =     0.002752

     entering subroutine stress ...

     negative rho (up, down):  7.557E-04 7.546E-04
          total   stress  (Ry/bohr**3)                   (kbar)     P=  -54.85
  -0.00039479   0.00000000   0.00000000        -58.08      0.00      0.00
   0.00000000  -0.00039479   0.00000000          0.00    -58.07      0.00
   0.00000000   0.00000000  -0.00032909          0.00      0.00    -48.41

 !ASE

     Writing output data file calc.save

     General routines

     Parallel routines

   This run was terminated on:  14:22:56  27Dec2018

   JOB DONE.
Job  /afs/slac/g/suncat/bin/suncat-tsmpirun -x LD_LIBRARY_PATH -wdir /scratch/qe110283_AOPTv pw.x -in pw.inp

TID   HOST_NAME   COMMAND_LINE            STATUS            TERMINATION_TIME
00000 suncat0014 pw.x -in pw.inp   Done                     12/27/2018 14:22:56
00001 suncat0014 pw.x -in pw.inp   Done                     12/27/2018 14:22:56
00002 suncat0014 pw.x -in pw.inp   Done                     12/27/2018 14:22:56
00003 suncat0014 pw.x -in pw.inp   Done                     12/27/2018 14:22:56
00004 suncat0014 pw.x -in pw.inp   Done                     12/27/2018 14:22:56
00005 suncat0014 pw.x -in pw.inp   Done                     12/27/2018 14:22:56
00006 suncat0014 pw.x -in pw.inp   Done                     12/27/2018 14:22:56
00007 suncat0014 pw.x -in pw.inp   Done                     12/27/2018 14:22:56
00008 suncat0198 pw.x -in pw.inp   Done                     12/27/2018 14:22:56
00009 suncat0198 pw.x -in pw.inp   Done                     12/27/2018 14:22:56
00010 suncat0198 pw.x -in pw.inp   Done                     12/27/2018 14:22:56
00011 suncat0198 pw.x -in pw.inp   Done                     12/27/2018 14:22:56
00012 suncat0198 pw.x -in pw.inp   Done                     12/27/2018 14:22:56
00013 suncat0198 pw.x -in pw.inp   Done                     12/27/2018 14:22:56
00014 suncat0198 pw.x -in pw.inp   Done                     12/27/2018 14:22:56
00015 suncat0198 pw.x -in pw.inp   Done                     12/27/2018 14:22:56
00016 suncat0193 pw.x -in pw.inp   Done                     12/27/2018 14:22:56
00017 suncat0193 pw.x -in pw.inp   Done                     12/27/2018 14:22:56
00018 suncat0193 pw.x -in pw.inp   Done                     12/27/2018 14:22:56
00019 suncat0193 pw.x -in pw.inp   Done                     12/27/2018 14:22:56
00020 suncat0193 pw.x -in pw.inp   Done                     12/27/2018 14:22:56
00021 suncat0193 pw.x -in pw.inp   Done                     12/27/2018 14:22:56
00022 suncat0193 pw.x -in pw.inp   Done                     12/27/2018 14:22:56
00023 suncat0193 pw.x -in pw.inp   Done                     12/27/2018 14:22:56
00024 suncat0192 pw.x -in pw.inp   Done                     12/27/2018 14:22:56
00025 suncat0192 pw.x -in pw.inp   Done                     12/27/2018 14:22:56
00026 suncat0192 pw.x -in pw.inp   Done                     12/27/2018 14:22:56
00027 suncat0192 pw.x -in pw.inp   Done                     12/27/2018 14:22:56
00028 suncat0192 pw.x -in pw.inp   Done                     12/27/2018 14:22:56
00029 suncat0192 pw.x -in pw.inp   Done                     12/27/2018 14:22:56
00030 suncat0192 pw.x -in pw.inp   Done                     12/27/2018 14:22:56
00031 suncat0192 pw.x -in pw.inp   Done                     12/27/2018 14:22:56
00032 suncat0155 pw.x -in pw.inp   Done                     12/27/2018 14:22:56
00033 suncat0155 pw.x -in pw.inp   Done                     12/27/2018 14:22:56
00034 suncat0155 pw.x -in pw.inp   Done                     12/27/2018 14:22:56
00035 suncat0155 pw.x -in pw.inp   Done                     12/27/2018 14:22:56
00036 suncat0155 pw.x -in pw.inp   Done                     12/27/2018 14:22:56
00037 suncat0155 pw.x -in pw.inp   Done                     12/27/2018 14:22:56
00038 suncat0155 pw.x -in pw.inp   Done                     12/27/2018 14:22:56
00039 suncat0155 pw.x -in pw.inp   Done                     12/27/2018 14:22:56
00040 suncat0154 pw.x -in pw.inp   Done                     12/27/2018 14:22:56
00041 suncat0154 pw.x -in pw.inp   Done                     12/27/2018 14:22:56
00042 suncat0154 pw.x -in pw.inp   Done                     12/27/2018 14:22:56
00043 suncat0154 pw.x -in pw.inp   Done                     12/27/2018 14:22:56
00044 suncat0154 pw.x -in pw.inp   Done                     12/27/2018 14:22:56
00045 suncat0154 pw.x -in pw.inp   Done                     12/27/2018 14:22:56
00046 suncat0154 pw.x -in pw.inp   Done                     12/27/2018 14:22:56
00047 suncat0154 pw.x -in pw.inp   Done                     12/27/2018 14:22:56
00048 suncat0209 pw.x -in pw.inp   Done                     12/27/2018 14:22:56
00049 suncat0209 pw.x -in pw.inp   Done                     12/27/2018 14:22:56
00050 suncat0209 pw.x -in pw.inp   Done                     12/27/2018 14:22:56
00051 suncat0209 pw.x -in pw.inp   Done                     12/27/2018 14:22:56
00052 suncat0209 pw.x -in pw.inp   Done                     12/27/2018 14:22:56
00053 suncat0209 pw.x -in pw.inp   Done                     12/27/2018 14:22:56
00054 suncat0209 pw.x -in pw.inp   Done                     12/27/2018 14:22:56
00055 suncat0209 pw.x -in pw.inp   Done                     12/27/2018 14:22:56
00056 suncat0203 pw.x -in pw.inp   Done                     12/27/2018 14:22:56
00057 suncat0203 pw.x -in pw.inp   Done                     12/27/2018 14:22:56
00058 suncat0203 pw.x -in pw.inp   Done                     12/27/2018 14:22:56
00059 suncat0203 pw.x -in pw.inp   Done                     12/27/2018 14:22:56
00060 suncat0203 pw.x -in pw.inp   Done                     12/27/2018 14:22:56
00061 suncat0203 pw.x -in pw.inp   Done                     12/27/2018 14:22:56
00062 suncat0203 pw.x -in pw.inp   Done                     12/27/2018 14:22:56
00063 suncat0203 pw.x -in pw.inp   Done                     12/27/2018 14:22:56