     Program PWSCF v.5.1rc2 (svn rev. 11289) starts on  1Jan2019 at 21:27: 6

     Current dimensions of program PWSCF are:
     Max number of different atomic species (ntypx) = 10
     Max number of k-points (npk) =  40000
     Max angular momentum in pseudopotentials (lmaxx) =  3
     Presently stress not available with electric field

     IMPORTANT: XC functional enforced from input :
     Exchange-correlation      = BEEF-VDW ( 1  4 27 13 2)
     Any further DFT definition will be discarded
     Please, verify this is what you really want

     Subspace diagonalization in iterative solution of the eigenvalue problem:
     a serial algorithm will be used

     bravais-lattice index     =            0
     lattice parameter (alat)  =       1.8897  a.u.
     unit-cell volume          =    4728.0417 (a.u.)^3
     number of atoms/cell      =           12
     number of atomic types    =            2
     number of electrons       =       117.00
     number of Kohn-Sham states=           88
     kinetic-energy cutoff     =      36.7493  Ry
     charge density cutoff     =     367.4932  Ry
     convergence threshold     =      1.0E-06
     mixing beta               =       0.1000
     number of iterations used =           10  plain     mixing
     Exchange-correlation      = BEEF-VDW ( 1  4 27 13 2)
     nstep                     =           50

     celldm(1)=   1.889726  celldm(2)=   0.000000  celldm(3)=   0.000000
     celldm(4)=   0.000000  celldm(5)=   0.000000  celldm(6)=   0.000000

     crystal axes: (cart. coord. in units of alat)
               a(1) = (   5.725938   0.000000   0.000000 )
               a(2) = (  -2.862969   4.958807   0.000000 )
               a(3) = (   0.000000   0.000000  24.675209 )

     reciprocal axes: (cart. coord. in units 2 pi/alat)
               b(1) = (  0.174644  0.100831  0.000000 )
               b(2) = (  0.000000  0.201661  0.000000 )
               b(3) = (  0.000000  0.000000  0.040527 )

     PseudoPot. # 1 for Ti read from file:
     /afs/slac.stanford.edu/u/if/mamunm/psp/gbrv1.5pbe/Ti.UPF
     MD5 check sum: 88a00a6731bd790ddea75d31a80cb452
     Pseudo is Ultrasoft + core correction, Zval = 12.0
     Generated by new atomic code, or converted to UPF format
     Using radial grid of  851 points,  6 beta functions with:
                l(1) =   0
                l(2) =   0
                l(3) =   1
                l(4) =   1
                l(5) =   2
                l(6) =   2
     Q(r) pseudized with  6 coefficients,  rinner =    1.000   1.000   1.000
                                                       1.000   1.000

     PseudoPot. # 2 for Al read from file:
     /afs/slac.stanford.edu/u/if/mamunm/psp/gbrv1.5pbe/Al.UPF
     MD5 check sum: 0a6289f5291fc8f409219462bc851e1f
     Pseudo is Ultrasoft + core correction, Zval =  3.0
     Generated by new atomic code, or converted to UPF format
     Using radial grid of  893 points,  3 beta functions with:
                l(1) =   0
                l(2) =   1
                l(3) =   2
     Q(r) pseudized with  8 coefficients,  rinner =    0.900   0.900   0.900
                                                       0.900   0.900

     vdW kernel table read from file vdW_kernel_table
     MD5 check sum: 095c7af220d748ca6e76c0b4c6cfb241

     atomic species   valence    mass     pseudopotential
        Ti1           12.00    47.86700     Ti( 1.00)
        Al1            3.00    26.98154     Al( 1.00)

     No symmetry found

   Cartesian axes

     site n.     atom                  positions (alat units)
         1           Ti1 tau(   1) = (   0.0000000   0.0000000  10.0000000  )
         2           Ti1 tau(   2) = (  -1.4314844   2.4794037  10.0000000  )
         3           Ti1 tau(   3) = (   1.4314844   2.4794037  10.0000000  )
         4           Al1 tau(   4) = (   2.8629688   0.0000000  10.0000000  )
         5           Ti1 tau(   5) = (   2.8629688   1.6529358  12.3376043  )
         6           Ti1 tau(   6) = (   1.4314844   4.1323396  12.3376043  )
         7           Ti1 tau(   7) = (  -1.4314844   4.1323396  12.3376043  )
         8           Al1 tau(   8) = (   0.0000000   1.6529358  12.3376043  )
         9           Ti1 tau(   9) = (  -0.0000000   3.3058717  14.6752085  )
        10           Ti1 tau(  10) = (   1.4314844   0.8264679  14.6752085  )
        11           Ti1 tau(  11) = (   4.2944533   0.8264679  14.6752085  )
        12           Al1 tau(  12) = (   2.8629688   3.3058717  14.6752085  )

     number of k points=    20  Fermi-Dirac smearing, width (Ry)=  0.0110
                       cart. coord. in units 2pi/alat
        k(    1) = (   0.0000000   0.0000000   0.0000000), wk =   0.0555556
        k(    2) = (   0.0000000   0.0336102   0.0000000), wk =   0.1111111
        k(    3) = (   0.0000000   0.0672205   0.0000000), wk =   0.1111111
        k(    4) = (   0.0000000  -0.1008307   0.0000000), wk =   0.0555556
        k(    5) = (   0.0291073   0.0168051   0.0000000), wk =   0.1111111
        k(    6) = (   0.0291073   0.0504153   0.0000000), wk =   0.1111111
        k(    7) = (   0.0291073   0.0840256   0.0000000), wk =   0.1111111
        k(    8) = (   0.0291073  -0.0840256   0.0000000), wk =   0.1111111
        k(    9) = (   0.0291073  -0.0504153   0.0000000), wk =   0.1111111
        k(   10) = (   0.0291073  -0.0168051   0.0000000), wk =   0.1111111
        k(   11) = (   0.0582146   0.0336102   0.0000000), wk =   0.1111111
        k(   12) = (   0.0582146   0.0672205   0.0000000), wk =   0.1111111
        k(   13) = (   0.0582146   0.1008307   0.0000000), wk =   0.1111111
        k(   14) = (   0.0582146  -0.0672205   0.0000000), wk =   0.1111111
        k(   15) = (   0.0582146  -0.0336102   0.0000000), wk =   0.1111111
        k(   16) = (   0.0582146  -0.0000000   0.0000000), wk =   0.1111111
        k(   17) = (  -0.0873219  -0.0504153   0.0000000), wk =   0.0555556
        k(   18) = (  -0.0873219  -0.0168051   0.0000000), wk =   0.1111111
        k(   19) = (  -0.0873219   0.0168051   0.0000000), wk =   0.1111111
        k(   20) = (  -0.0873219  -0.1512460   0.0000000), wk =   0.0555556

     Largest allocated arrays     est. size (Mb)     dimensions
     Largest temporary arrays     est. size (Mb)     dimensions

     Check: negative/imaginary core charge=   -0.000005    0.000000

     Initial potential from superposition of free atoms
     Check: negative starting charge=   -0.009265

     starting charge  107.99221, renormalised to  117.00000

     negative rho (up, down):  1.004E-02 0.000E+00

     *
     * You are using vdW-DF for exchange-correlation in this calculation.
     * Please cite the following three references that made this development
     * possible:
     *
     *   M. Dion, H. Rydberg, E. Schroder, D. C. Langreth, and
     *   B. I. Lundqvist, Phys. Rev. Lett. 92, 246401 (2004).
     *
     *   T. Thonhauser, V. R. Cooper, S. Li, A. Puzder, P. Hyldgaard, and
     *   D. C. Langreth, Phys. Rev. B 76, 125112 (2007).
     *
     *   G. Roman-Perez and J. M. Soler, Phys. Rev. Lett. 103, 096102 (2009).
     *
     *
     * If you are using vdW-DF2, please also cite:
     *
     *   K. Lee, E. D. Murray, L. Kong, B. I. Lundqvist, and
     *   D. C. Langreth, Phys. Rev. B 82, 081101(R) (2010).
     *
     *
     * If you are calculating the stress with vdW-DF, please also cite:
     *
     *   R. Sabatini, E. Kucukbenli, B. Kolb, T. Thonhauser, and
     *   S. de Gironcoli, J. Phys.: Condens. Matter 24, 424209 (2012).
     *

     Carrying out vdW-DF run using the following parameters:

     Nqs =      20    Nr_points =    1024   r_max =   100.000
     q_mesh =
               0.00001000     0.04494208     0.09755937     0.15916263
               0.23128650     0.31572767     0.41458969     0.53033537
               0.66584808     0.82450364     1.01025438     1.22772762
               1.48234092     1.78043706     2.12944203     2.53805004
               3.01644009     3.57652955     4.23227104     5.00000000

     Gradients computed in reciprocal space

     Adding external electric field

     Computed dipole along edir(3) :
        Dipole                0.0000 Ry au,          0.0000 Debye
        Dipole field          0.0000 Ry au

        Potential amp.       -0.0000 Ry
        Total length         45.4637 bohr

     Starting wfc are  102 randomized atomic wfcs

     Self-consistent Calculation

     iteration #  1     ecut=    36.75 Ry     beta=0.10
     Davidson diagonalization with overlap
     ethr =  1.00E-02,  avg # of iterations =  4.8

[...]

     total energy              =   -1100.29794428 Ry
     Harris-Foulkes estimate   =   -1101.44321383 Ry
     estimated scf accuracy    <       6.82670316 Ry

[...]

     End of self-consistent calculation

          k = 0.0000 0.0000 0.0000 ( 17837 PWs)   bands (ev):

   -56.6444 -56.6405 -56.5708 -56.5708 -56.5699 -56.5699 -56.3528 -56.2843
   -56.2843 -33.0678 -33.0578 -33.0337 -32.9610 -32.9610 -32.9525 -32.9525
   -32.9518 -32.9300 -32.9300 -32.8917 -32.8917 -32.8462 -32.6914 -32.6786
   -32.6611 -32.6611 -32.5414 -32.5414 -32.5340 -32.5340 -32.4894 -32.4894
   -32.4839 -32.4171 -32.2876 -32.2876  -6.7356  -5.4251  -4.5973  -2.3039
    -2.1958  -2.1863  -1.5254  -1.5254  -1.2871  -1.2871  -1.0410  -1.0410
    -0.9886  -0.8902  -0.5896  -0.5896  -0.3288  -0.3288   0.0005   0.0744
     0.2535   0.4679   0.4679   0.5422   0.5422   0.8518   0.8518   0.8898
     0.9837   0.9837   1.2160   1.4186   1.7528   2.1332   2.1332   2.1874
     2.1874   2.2509   2.2509   2.2775   2.2786   2.5911   2.5912   2.6273
     2.6273   2.9094   3.1163   3.1164   3.2320   3.2320   3.3945   3.3946

[...]

          k =-0.0873-0.0504 0.0000 ( 17780 PWs)   bands (ev):

[...]

     the Fermi energy is     0.3986 ev

!    total energy              =   -1099.66734201 Ry
     Harris-Foulkes estimate   =   -1099.66734026 Ry
     estimated scf accuracy    <       0.00000053 Ry

     The total energy is the sum of the following terms:

     one-electron contribution =   -7399.88647382 Ry
     hartree contribution      =    3689.61710876 Ry
     xc contribution           =    -182.01487742 Ry
     ewald contribution        =    2792.73235358 Ry
     electric field correction =       0.00000004 Ry
     smearing contrib. (-TS)   =      -0.11545314 Ry

     convergence has been achieved in  21 iterations

 BEEF-vdW xc energy contributions
           1 :   -155.894652287014
           2 :    138.958590444811
           3 :   -111.359565479144
           4 :    82.1082154025317
           5 :   -58.4142570863894
           6 :    42.8636346360306
           7 :   -33.6330434707777
           8 :    26.9437650630439
           9 :   -19.8279454155465
          10 :    11.5418513277719
          11 :   -3.20714482454886
          12 :   -3.60326676525551
          13 :    8.15482447294352
          14 :   -10.9154749264241
          15 :    12.9618649487586
          16 :   -15.0552280431737
          17 :    17.1194194282735
          18 :   -18.4452963621758
          19 :    18.3492677912697
          20 :   -16.7275254848860
          21 :    14.1112316346304
          22 :   -11.2671018786529
[...]
               b(1) = (  0.174644  0.100831  0.000000 )
               b(2) = (  0.000000  0.201661  0.000000 )
               b(3) = (  0.000000  0.000000  0.040527 )

     PseudoPot. # 1 for Ti read from file:
     /afs/slac.stanford.edu/u/if/mamunm/psp/gbrv1.5pbe/Ti.UPF
     MD5 check sum: 88a00a6731bd790ddea75d31a80cb452
     Pseudo is Ultrasoft + core correction, Zval = 12.0
     Generated by new atomic code, or converted to UPF format
     Using radial grid of  851 points,  6 beta functions with:
                l(1) =   0
                l(2) =   0
                l(3) =   1
                l(4) =   1
                l(5) =   2
                l(6) =   2
     Q(r) pseudized with  6 coefficients,  rinner =    1.000   1.000   1.000
                                                       1.000   1.000

     PseudoPot. # 2 for Al read from file:
     /afs/slac.stanford.edu/u/if/mamunm/psp/gbrv1.5pbe/Al.UPF
     MD5 check sum: 0a6289f5291fc8f409219462bc851e1f
     Pseudo is Ultrasoft + core correction, Zval =  3.0
     Generated by new atomic code, or converted to UPF format
     Using radial grid of  893 points,  3 beta functions with:
                l(1) =   0
                l(2) =   1
                l(3) =   2
     Q(r) pseudized with  8 coefficients,  rinner =    0.900   0.900   0.900
                                                       0.900   0.900

     vdW kernel table read from file vdW_kernel_table
     MD5 check sum: 095c7af220d748ca6e76c0b4c6cfb241

     atomic species   valence    mass     pseudopotential
        Ti1           12.00    47.86700     Ti( 1.00)
        Al1            3.00    26.98154     Al( 1.00)

     No symmetry found

   Cartesian axes

     site n.     atom                  positions (alat units)
         1           Ti1 tau(   1) = (   0.0000000   0.0000000  10.0000000  )
         2           Ti1 tau(   2) = (  -1.4314844   2.4794037  10.0000000  )
         3           Ti1 tau(   3) = (   1.4314844   2.4794037  10.0000000  )
         4           Al1 tau(   4) = (   2.8629688   0.0000000  10.0000000  )
         5           Ti1 tau(   5) = (   2.8629688   1.6529358  12.3376043  )
         6           Ti1 tau(   6) = (   1.4314844   4.1323396  12.3376043  )
         7           Ti1 tau(   7) = (  -1.4314844   4.1323396  12.3376043  )
         8           Al1 tau(   8) = (   0.0000000   1.6529358  12.3376043  )
         9           Ti1 tau(   9) = (   0.0000016   3.2669153  14.5975353  )
        10           Ti1 tau(  10) = (   1.3977565   0.8459415  14.5975499  )
        11           Ti1 tau(  11) = (   4.3281880   0.8459428  14.5975421  )
        12           Al1 tau(  12) = (   2.8629698   3.3058717  14.7468555  )

     number of k points=    20  Fermi-Dirac smearing, width (Ry)=  0.0110
                       cart. coord. in units 2pi/alat
        k(    1) = (   0.0000000   0.0000000   0.0000000), wk =   0.0555556
        k(    2) = (   0.0000000   0.0336102   0.0000000), wk =   0.1111111
        k(    3) = (   0.0000000   0.0672205   0.0000000), wk =   0.1111111
        k(    4) = (   0.0000000  -0.1008307   0.0000000), wk =   0.0555556
        k(    5) = (   0.0291073   0.0168051   0.0000000), wk =   0.1111111
        k(    6) = (   0.0291073   0.0504153   0.0000000), wk =   0.1111111
        k(    7) = (   0.0291073   0.0840256   0.0000000), wk =   0.1111111
        k(    8) = (   0.0291073  -0.0840256   0.0000000), wk =   0.1111111
        k(    9) = (   0.0291073  -0.0504153   0.0000000), wk =   0.1111111
        k(   10) = (   0.0291073  -0.0168051   0.0000000), wk =   0.1111111
        k(   11) = (   0.0582146   0.0336102   0.0000000), wk =   0.1111111
        k(   12) = (   0.0582146   0.0672205   0.0000000), wk =   0.1111111
        k(   13) = (   0.0582146   0.1008307   0.0000000), wk =   0.1111111
        k(   14) = (   0.0582146  -0.0672205   0.0000000), wk =   0.1111111
        k(   15) = (   0.0582146  -0.0336102   0.0000000), wk =   0.1111111
        k(   16) = (   0.0582146  -0.0000000   0.0000000), wk =   0.1111111
        k(   17) = (  -0.0873219  -0.0504153   0.0000000), wk =   0.0555556
        k(   18) = (  -0.0873219  -0.0168051   0.0000000), wk =   0.1111111
        k(   19) = (  -0.0873219   0.0168051   0.0000000), wk =   0.1111111
        k(   20) = (  -0.0873219  -0.1512460   0.0000000), wk =   0.0555556

     Largest allocated arrays     est. size (Mb)     dimensions
     Largest temporary arrays     est. size (Mb)     dimensions

     Check: negative/imaginary core charge=   -0.000005    0.000000

     Initial potential from superposition of free atoms
     Check: negative starting charge=   -0.011297

     starting charge  107.99221, renormalised to  117.00000

[...]

     *
     * You are using vdW-DF for exchange-correlation in this calculation.
     * Please cite the following three references that made this development
     * possible:
     *
     *   M. Dion, H. Rydberg, E. Schroder, D. C. Langreth, and
     *   B. I. Lundqvist, Phys. Rev. Lett. 92, 246401 (2004).
     *
     *   T. Thonhauser, V. R. Cooper, S. Li, A. Puzder, P. Hyldgaard, and
     *   D. C. Langreth, Phys. Rev. B 76, 125112 (2007).
     *
     *   G. Roman-Perez and J. M. Soler, Phys. Rev. Lett. 103, 096102 (2009).
     *
     *
     * If you are using vdW-DF2, please also cite:
     *
     *   K. Lee, E. D. Murray, L. Kong, B. I. Lundqvist, and
     *   D. C. Langreth, Phys. Rev. B 82, 081101(R) (2010).
     *
     *
     * If you are calculating the stress with vdW-DF, please also cite:
     *
     *   R. Sabatini, E. Kucukbenli, B. Kolb, T. Thonhauser, and
     *   S. de Gironcoli, J. Phys.: Condens. Matter 24, 424209 (2012).
     *

     Carrying out vdW-DF run using the following parameters:

     Nqs =      20    Nr_points =    1024   r_max =   100.000
     q_mesh =
               0.00001000     0.04494208     0.09755937     0.15916263
               0.23128650     0.31572767     0.41458969     0.53033537
               0.66584808     0.82450364     1.01025438     1.22772762
               1.48234092     1.78043706     2.12944203     2.53805004
               3.01644009     3.57652955     4.23227104     5.00000000

     Gradients computed in reciprocal space

[...]

     Starting wfc are  102 randomized atomic wfcs

     Self-consistent Calculation

[...]

     total energy              =   -1099.67431849 Ry
     Harris-Foulkes estimate   =   -1099.67431772 Ry
     estimated scf accuracy    <       0.00000131 Ry

     iteration # 20     ecut=    36.75 Ry     beta=0.10
     Davidson diagonalization with overlap
     ethr =  1.12E-09,  avg # of iterations =  2.0

[...]

     negative rho (up, down):  6.209E-03 0.000E+00

     Adding external electric field

     Computed dipole along edir(3) :
        Dipole               -0.0170 Ry au,         -0.0432 Debye
        Dipole field         -0.0000 Ry au

        Potential amp.        0.0041 Ry
        Total length         45.4637 bohr

     End of self-consistent calculation

[...]

          k = 0.0582-0.0000 0.0000 ( 17807 PWs)   bands (ev):

[...]

          k =-0.0873-0.1512 0.0000 ( 17780 PWs)   bands (ev):

   -56.6503 -56.6265 -56.6023 -56.5811 -56.5512 -56.5279 -56.3318 -56.3098
   -56.2869 -33.0158 -33.0103 -32.9983 -32.9604 -32.9524 -32.9321 -32.9069
   -32.8954 -32.8584 -32.8557 -32.8191 -32.8137 -32.7988 -32.7886 -32.7486
   -32.7325 -32.7160 -32.6040 -32.5955 -32.5590 -32.5576 -32.5415 -32.4979
   -32.4563 -32.4337 -32.4164 -32.3076  -5.5577  -5.1923  -4.5038  -3.3811
    -2.5315  -2.3964  -2.3674  -1.4676  -1.3469  -1.2491  -1.0805  -0.8950
    -0.8225  -0.8127  -0.3258  -0.2810  -0.1756  -0.0201   0.0284   0.1364
     0.2423   0.2767   0.3233   0.3521   0.3819   0.5438   0.5868   0.9021
     0.9549   1.0304   1.1076   1.2205   1.3461   1.6759   1.7606   2.0562
     2.0965   2.1350   2.1696   2.2643   2.3058   2.3089   2.4826   2.4946
     2.5064   2.5457   2.6303   2.7088   2.8726   3.1893   3.2869   3.4724

     the Fermi energy is     0.3681 ev

!    total energy              =   -1099.67431844 Ry
     Harris-Foulkes estimate   =   -1099.67431898 Ry
     estimated scf accuracy    <       0.00000084 Ry

     The total energy is the sum of the following terms:

     one-electron contribution =   -7465.51379940 Ry
     hartree contribution      =    3722.43110461 Ry
     xc contribution           =    -182.08233345 Ry
     ewald contribution        =    2825.60571666 Ry
     electric field correction =       0.00000077 Ry
     smearing contrib. (-TS)   =      -0.11500763 Ry

     convergence has been achieved in  20 iterations

 BEEF-vdW xc energy contributions
           1 :   -156.051002163585
           2 :    139.132847285338
           3 :   -111.546040765881
           4 :    82.2767746806505
           5 :   -58.5358845456771
           6 :    42.9374989382695
           7 :   -33.6911329846790
           8 :    27.0281420329665
           9 :   -19.9608445209027
          10 :    11.7123362466463
          11 :   -3.38158781651535
          12 :   -3.45553963298991
          13 :    8.03951773476817
          14 :   -10.8110820589628
          15 :    12.8375968078562
          16 :   -14.8950527582392
          17 :    16.9336061338679
          18 :   -18.2610927181406
          19 :    18.1889705244082
          20 :   -16.5920717925676
          21 :    13.9821062214398
          22 :   -11.1228792491726
          23 :    8.53290545100401
          24 :   -6.24259741750393
          25 :    3.92714782769502
          26 :   -1.26561247249069
          27 :   -1.75638819768452
          28 :    4.80024796368699
          29 :   -7.38722400715258
          30 :    9.19125869660184
          31 :   -17.0036393390037
          32 :   -12.1545981291191

     Forces acting on atoms (Ry/au):

     negative rho (up, down):  6.209E-03 0.000E+00
     atom    1 type  1   force =     0.00000074    0.00660799    0.00951458
     atom    2 type  1   force =     0.00572217   -0.00330414    0.00951874
     atom    3 type  1   force =    -0.00572214   -0.00330524    0.00951577
     atom    4 type  2   force =     0.00000062   -0.00000070   -0.01024881
     atom    5 type  1   force =    -0.00000225    0.00334130   -0.00097237
     atom    6 type  1   force =     0.00289617   -0.00167113   -0.00097617
     atom    7 type  1   force =    -0.00289597   -0.00166805   -0.00097374
     atom    8 type  2   force =    -0.00000197    0.00000188   -0.01416406
     atom    9 type  1   force =     0.00000082    0.00116978   -0.00057941
     atom   10 type  1   force =     0.00101333   -0.00058519   -0.00057682
     atom   11 type  1   force =    -0.00101215   -0.00058576   -0.00057882
     atom   12 type  2   force =     0.00000063   -0.00000074    0.00052112

     Total force =     0.027388     Total SCF correction =     0.002952
     SCF correction compared to forces is large: reduce conv_thr to get better values

     entering subroutine stress ...

     negative rho (up, down):  6.209E-03 0.000E+00
          total   stress  (Ry/bohr**3)                   (kbar)     P=   -6.43
  -0.00005620  -0.00000000  -0.00000000         -8.27     -0.00     -0.00
  -0.00000000  -0.00005620   0.00000000         -0.00     -8.27      0.00
  -0.00000000   0.00000000  -0.00001869         -0.00      0.00     -2.75

 !ASE

     Writing output data file calc.save

     General routines

     Parallel routines

   This run was terminated on:  22: 8:32   1Jan2019

   JOB DONE.
Job  /afs/slac/g/suncat/bin/suncat-tsmpirun -x LD_LIBRARY_PATH -wdir /scratch/qe649184_pFD8T pw.x -in pw.inp

TID   HOST_NAME   COMMAND_LINE            STATUS            TERMINATION_TIME
00000 suncat0165 pw.x -in pw.inp   Done                     01/01/2019 22:08:32
00001 suncat0165 pw.x -in pw.inp   Done                     01/01/2019 22:08:32
00002 suncat0165 pw.x -in pw.inp   Done                     01/01/2019 22:08:32
00003 suncat0165 pw.x -in pw.inp   Done                     01/01/2019 22:08:32
00004 suncat0165 pw.x -in pw.inp   Done                     01/01/2019 22:08:32
00005 suncat0165 pw.x -in pw.inp   Done                     01/01/2019 22:08:32
00006 suncat0165 pw.x -in pw.inp   Done                     01/01/2019 22:08:32
00007 suncat0165 pw.x -in pw.inp   Done                     01/01/2019 22:08:32
00008 suncat0164 pw.x -in pw.inp   Done                     01/01/2019 22:08:32
00009 suncat0164 pw.x -in pw.inp   Done                     01/01/2019 22:08:32
00010 suncat0164 pw.x -in pw.inp   Done                     01/01/2019 22:08:32
00011 suncat0164 pw.x -in pw.inp   Done                     01/01/2019 22:08:32
00012 suncat0164 pw.x -in pw.inp   Done                     01/01/2019 22:08:32
00013 suncat0164 pw.x -in pw.inp   Done                     01/01/2019 22:08:32
00014 suncat0164 pw.x -in pw.inp   Done                     01/01/2019 22:08:32
00015 suncat0164 pw.x -in pw.inp   Done                     01/01/2019 22:08:32
00016 suncat0159 pw.x -in pw.inp   Done                     01/01/2019 22:08:32
00017 suncat0159 pw.x -in pw.inp   Done                     01/01/2019 22:08:32
00018 suncat0159 pw.x -in pw.inp   Done                     01/01/2019 22:08:32
00019 suncat0159 pw.x -in pw.inp   Done                     01/01/2019 22:08:32
00020 suncat0159 pw.x -in pw.inp   Done                     01/01/2019 22:08:32
00021 suncat0159 pw.x -in pw.inp   Done                     01/01/2019 22:08:32
00022 suncat0159 pw.x -in pw.inp   Done                     01/01/2019 22:08:32
00023 suncat0159 pw.x -in pw.inp   Done                     01/01/2019 22:08:32
00024 suncat0155 pw.x -in pw.inp   Done                     01/01/2019 22:08:32
00025 suncat0155 pw.x -in pw.inp   Done                     01/01/2019 22:08:32
00026 suncat0155 pw.x -in pw.inp   Done                     01/01/2019 22:08:32
00027 suncat0155 pw.x -in pw.inp   Done                     01/01/2019 22:08:32
00028 suncat0155 pw.x -in pw.inp   Done                     01/01/2019 22:08:32
00029 suncat0155 pw.x -in pw.inp   Done                     01/01/2019 22:08:32
00030 suncat0155 pw.x -in pw.inp   Done                     01/01/2019 22:08:32
00031 suncat0155 pw.x -in pw.inp   Done                     01/01/2019 22:08:32
00032 suncat0106 pw.x -in pw.inp   Done                     01/01/2019 22:08:32
00033 suncat0106 pw.x -in pw.inp   Done                     01/01/2019 22:08:32
00034 suncat0106 pw.x -in pw.inp   Done                     01/01/2019 22:08:32
00035 suncat0106 pw.x -in pw.inp   Done                     01/01/2019 22:08:32
00036 suncat0106 pw.x -in pw.inp   Done                     01/01/2019 22:08:32
00037 suncat0106 pw.x -in pw.inp   Done                     01/01/2019 22:08:32
00038 suncat0106 pw.x -in pw.inp   Done                     01/01/2019 22:08:32
00039 suncat0106 pw.x -in pw.inp   Done                     01/01/2019 22:08:32
00040 suncat0105 pw.x -in pw.inp   Done                     01/01/2019 22:08:32
00041 suncat0105 pw.x -in pw.inp   Done                     01/01/2019 22:08:32
00042 suncat0105 pw.x -in pw.inp   Done                     01/01/2019 22:08:32
00043 suncat0105 pw.x -in pw.inp   Done                     01/01/2019 22:08:32
00044 suncat0105 pw.x -in pw.inp   Done                     01/01/2019 22:08:32
00045 suncat0105 pw.x -in pw.inp   Done                     01/01/2019 22:08:32
00046 suncat0105 pw.x -in pw.inp   Done                     01/01/2019 22:08:32
00047 suncat0105 pw.x -in pw.inp   Done                     01/01/2019 22:08:32
00048 suncat0277 pw.x -in pw.inp   Done                     01/01/2019 22:08:32
00049 suncat0277 pw.x -in pw.inp   Done                     01/01/2019 22:08:32
00050 suncat0277 pw.x -in pw.inp   Done                     01/01/2019 22:08:32
00051 suncat0277 pw.x -in pw.inp   Done                     01/01/2019 22:08:32
00052 suncat0277 pw.x -in pw.inp   Done                     01/01/2019 22:08:32
00053 suncat0277 pw.x -in pw.inp   Done                     01/01/2019 22:08:32
00054 suncat0277 pw.x -in pw.inp   Done                     01/01/2019 22:08:32
00055 suncat0277 pw.x -in pw.inp   Done                     01/01/2019 22:08:32
00056 suncat0276 pw.x -in pw.inp   Done                     01/01/2019 22:08:32
00057 suncat0276 pw.x -in pw.inp   Done                     01/01/2019 22:08:32
00058 suncat0276 pw.x -in pw.inp   Done                     01/01/2019 22:08:32
00059 suncat0276 pw.x -in pw.inp   Done                     01/01/2019 22:08:32
00060 suncat0276 pw.x -in pw.inp   Done                     01/01/2019 22:08:32
00061 suncat0276 pw.x -in pw.inp   Done                     01/01/2019 22:08:32
00062 suncat0276 pw.x -in pw.inp   Done                     01/01/2019 22:08:32
00063 suncat0276 pw.x -in pw.inp   Done                     01/01/2019 22:08:32