     Program PWSCF v.5.1rc2 (svn rev. 11289) starts on 29Dec2018 at 23:55: 7

     Current dimensions of program PWSCF are:
     Max number of different atomic species (ntypx) = 10
     Max number of k-points (npk) =  40000
     Max angular momentum in pseudopotentials (lmaxx) =  3
     Presently stress not available with electric field

     IMPORTANT: XC functional enforced from input :
     Exchange-correlation      = BEEF-VDW ( 1  4 27 13 2)
     Any further DFT definition will be discarded
     Please, verify this is what you really want

     Subspace diagonalization in iterative solution of the eigenvalue problem:
     a serial algorithm will be used

     bravais-lattice index     =            0
     lattice parameter (alat)  =       1.8897  a.u.
     unit-cell volume          =    5721.1255 (a.u.)^3
     number of atoms/cell      =           12
     number of atomic types    =            2
     number of electrons       =       165.00
     number of Kohn-Sham states=          112
     kinetic-energy cutoff     =      36.7493  Ry
     charge density cutoff     =     367.4932  Ry
     convergence threshold     =      1.0E-06
     mixing beta               =       0.1000
     number of iterations used =           10  plain     mixing
     Exchange-correlation      = BEEF-VDW ( 1  4 27 13 2)
     nstep                     =           50

     celldm(1)=   1.889726  celldm(2)=   0.000000  celldm(3)=   0.000000
     celldm(4)=   0.000000  celldm(5)=   0.000000  celldm(6)=   0.000000

     crystal axes: (cart. coord. in units of alat)
               a(1) = (   6.245213   0.000000   0.000000 )
               a(2) = (  -3.122606   5.408513   0.000000 )
               a(3) = (   0.000000   0.000000  25.099195 )

     reciprocal axes: (cart. coord. in units 2 pi/alat)
               b(1) = (  0.160123  0.092447  0.000000 )
               b(2) = (  0.000000  0.184894  0.000000 )
               b(3) = (  0.000000  0.000000  0.039842 )

     PseudoPot. # 1 for Cd read from file:
     /afs/slac.stanford.edu/u/if/mamunm/psp/gbrv1.5pbe/Cd.UPF
     MD5 check sum: 17164a7926edb8e0dc231208abae86a6
     Pseudo is Ultrasoft + core correction, Zval = 12.0
     Generated by new atomic code, or converted to UPF format
     Using radial grid of  889 points,  6 beta functions with:
                l(1) =   0
                l(2) =   0
                l(3) =   1
                l(4) =   1
                l(5) =   2
                l(6) =   2
     Q(r) pseudized with  6 coefficients,  rinner =    1.000   1.000   1.000
                                                       1.000   1.000

     PseudoPot. # 2 for Ag read from file:
     /afs/slac.stanford.edu/u/if/mamunm/psp/gbrv1.5pbe/Ag.UPF
     MD5 check sum: d66d668201baa78d5eb5b04ef7011058
     Pseudo is Ultrasoft + core correction, Zval = 19.0
     Generated by new atomic code, or converted to UPF format
     Using radial grid of  887 points,  6 beta functions with:
                l(1) =   0
                l(2) =   0
                l(3) =   1
                l(4) =   1
                l(5) =   2
                l(6) =   2
     Q(r) pseudized with  6 coefficients,  rinner =    1.300   1.300   1.300
                                                       1.300   1.300

     vdW kernel table read from file vdW_kernel_table
     MD5 check sum: 095c7af220d748ca6e76c0b4c6cfb241

     atomic species   valence    mass     pseudopotential
        Cd1           12.00   112.41400     Cd( 1.00)
        Ag1           19.00   107.86820     Ag( 1.00)

     No symmetry found

   Cartesian axes

     site n.     atom                  positions (alat units)
         1           Cd1 tau(   1) = (   0.0000000   0.0000000  10.0000000  )
         2           Cd1 tau(   2) = (  -1.5613031   2.7042564  10.0000000  )
         3           Cd1 tau(   3) = (   1.5613031   2.7042564  10.0000000  )
         4           Ag1 tau(   4) = (   3.1226063   0.0000000  10.0000000  )
         5           Cd1 tau(   5) = (   3.1226063   1.8028376  12.5495974  )
         6           Cd1 tau(   6) = (   1.5613031   4.5070940  12.5495974  )
         7           Cd1 tau(   7) = (  -1.5613031   4.5070940  12.5495974  )
         8           Ag1 tau(   8) = (   0.0000000   1.8028376  12.5495974  )
         9           Cd1 tau(   9) = (  -0.0000000   3.6056752  15.0991947  )
        10           Cd1 tau(  10) = (   1.5613031   0.9014188  15.0991947  )
        11           Cd1 tau(  11) = (   4.6839094   0.9014188  15.0991947  )
        12           Ag1 tau(  12) = (   3.1226063   3.6056752  15.0991947  )

     number of k points=    20  Fermi-Dirac smearing, width (Ry)=  0.0110
                       cart. coord. in units 2pi/alat
        k(    1) = (   0.0000000   0.0000000   0.0000000), wk =   0.0555556
        k(    2) = (   0.0000000   0.0308156   0.0000000), wk =   0.1111111
        k(    3) = (   0.0000000   0.0616312   0.0000000), wk =   0.1111111
        k(    4) = (   0.0000000  -0.0924469   0.0000000), wk =   0.0555556
        k(    5) = (   0.0266871   0.0154078   0.0000000), wk =   0.1111111
        k(    6) = (   0.0266871   0.0462234   0.0000000), wk =   0.1111111
        k(    7) = (   0.0266871   0.0770390   0.0000000), wk =   0.1111111
        k(    8) = (   0.0266871  -0.0770390   0.0000000), wk =   0.1111111
        k(    9) = (   0.0266871  -0.0462234   0.0000000), wk =   0.1111111
        k(   10) = (   0.0266871  -0.0154078   0.0000000), wk =   0.1111111
        k(   11) = (   0.0533742   0.0308156   0.0000000), wk =   0.1111111
        k(   12) = (   0.0533742   0.0616312   0.0000000), wk =   0.1111111
        k(   13) = (   0.0533742   0.0924469   0.0000000), wk =   0.1111111
        k(   14) = (   0.0533742  -0.0616312   0.0000000), wk =   0.1111111
        k(   15) = (   0.0533742  -0.0308156   0.0000000), wk =   0.1111111
        k(   16) = (   0.0533742  -0.0000000   0.0000000), wk =   0.1111111
        k(   17) = (  -0.0800613  -0.0462234   0.0000000), wk =   0.0555556
        k(   18) = (  -0.0800613  -0.0154078   0.0000000), wk =   0.1111111
        k(   19) = (  -0.0800613   0.0154078   0.0000000), wk =   0.1111111
        k(   20) = (  -0.0800613  -0.1386703   0.0000000), wk =   0.0555556

     Largest allocated arrays     est. size (Mb)     dimensions
     Largest temporary arrays     est. size (Mb)     dimensions

     Initial potential from superposition of free atoms
     Check: negative starting charge=   -0.193269

     starting charge  158.99949, renormalised to  165.00000

     negative rho (up, down):  2.006E-01 0.000E+00

     *
     * You are using vdW-DF for exchange-correlation in this calculation.
     * Please cite the following three references that made this development
     * possible:
     *
     *   M. Dion, H. Rydberg, E. Schroder, D. C. Langreth, and
     *   B. I. Lundqvist, Phys. Rev. Lett. 92, 246401 (2004).
     *
     *   T. Thonhauser, V. R. Cooper, S. Li, A. Puzder, P. Hyldgaard, and
     *   D. C. Langreth, Phys. Rev. B 76, 125112 (2007).
     *
     *   G. Roman-Perez and J. M. Soler, Phys. Rev. Lett. 103, 096102 (2009).
     *
     *
     * If you are using vdW-DF2, please also cite:
     *
     *   K. Lee, E. D. Murray, L. Kong, B. I. Lundqvist, and
     *   D. C. Langreth, Phys. Rev. B 82, 081101(R) (2010).
     *
     *
     * If you are calculating the stress with vdW-DF, please also cite:
     *
     *   R. Sabatini, E. Kucukbenli, B. Kolb, T. Thonhauser, and
     *   S. de Gironcoli, J. Phys.: Condens. Matter 24, 424209 (2012).
     *

     Carrying out vdW-DF run using the following parameters:

     Nqs =      20    Nr_points =    1024   r_max =   100.000
     q_mesh =
               0.00001000     0.04494208     0.09755937     0.15916263
               0.23128650     0.31572767     0.41458969     0.53033537
               0.66584808     0.82450364     1.01025438     1.22772762
               1.48234092     1.78043706     2.12944203     2.53805004
               3.01644009     3.57652955     4.23227104     5.00000000

     Gradients computed in reciprocal space

     Adding external electric field

     Computed dipole along edir(3) :
        Dipole               -0.0000 Ry au,         -0.0000 Debye
        Dipole field         -0.0000 Ry au

        Potential amp.        0.0000 Ry
        Total length         46.2448 bohr

     Starting wfc are  120 randomized atomic wfcs

     Self-consistent Calculation

     iteration #  1     ecut=    36.75 Ry     beta=0.10
     Davidson diagonalization with overlap
     ethr =  1.00E-02,  avg # of iterations =  7.8

[...]

     total energy              =   -1932.25529642 Ry
     Harris-Foulkes estimate   =   -1937.76440082 Ry
     estimated scf accuracy    <      30.97932591 Ry

[...]

     End of self-consistent calculation

          k = 0.0000 0.0000 0.0000 ( 21571 PWs)   bands (ev):

   -91.8116 -91.5432 -91.5432 -55.3075 -55.3030 -55.3030 -55.0498 -55.0498
   -55.0498 -55.0498 -55.0131 -55.0131  -9.0720  -8.9852  -8.9580  -8.9579
    -8.8609  -8.8529  -8.8467  -8.7571  -8.7570  -8.7229  -8.7228  -8.6890
    -8.6890  -8.5706  -8.5643  -8.5643  -8.5015  -8.4906  -8.3925  -8.3925
    -8.3491  -8.3273  -8.2911  -8.2910  -8.2335  -8.2334  -8.1553  -8.1553
    -8.1225  -8.1225  -8.1053  -8.0456  -8.0456  -8.0295  -8.0295  -7.9889
    -7.9889  -7.9119  -7.9118  -7.8825  -7.8148  -7.7907  -7.7907  -7.6761
    -7.6685  -7.1022  -5.5225  -4.4146  -4.2251  -4.2251  -4.0988  -4.0988
    -3.8927  -3.8927  -3.7849  -3.7848  -3.7740  -3.7663  -3.7662  -3.7482
    -3.6864  -3.6864  -2.3530  -1.0331  -0.9044  -0.9044  -0.6148  -0.6148
    -0.4011  -0.0787   0.2191   0.2458   0.2458   1.1241   1.1241   1.6876
     2.4877   2.4877   3.0021   3.0021   3.1155   3.1578   3.6349   4.0869
     4.5815   5.4338   5.5681   5.9109   5.9110   6.0329   6.0329   6.2076
     6.4219   7.2046   7.6392   8.0501   8.0501   8.1089   8.3756   8.3788

[...]

          k =-0.0801-0.0462 0.0000 ( 21504 PWs)   bands (ev):

[...]

     the Fermi energy is     0.6071 ev

!    total energy              =   -1934.74179372 Ry
     Harris-Foulkes estimate   =   -1934.74179976 Ry
     estimated scf accuracy    <       0.00000053 Ry

     The total energy is the sum of the following terms:

     one-electron contribution =  -11905.94852599 Ry
     hartree contribution      =    6018.60899308 Ry
     xc contribution           =    -457.36887363 Ry
     ewald contribution        =    4409.98990886 Ry
     electric field correction =       0.00000000 Ry
     smearing contrib. (-TS)   =      -0.02329604 Ry

     convergence has been achieved in  14 iterations

 BEEF-vdW xc energy contributions
           1 :   -399.914082454335
           2 :    365.073032077560
           3 :   -306.467523444045
           4 :    241.060334071292
           5 :   -184.417726516631
           6 :    145.064271812903
           7 :   -122.890761755285
           8 :    111.695978391936
           9 :   -103.881193908097
          10 :    94.5345509463187
          11 :   -82.9667833534681
          12 :    71.5023968830653
          13 :   -62.8933661994809
          14 :    58.2044180919798
          15 :   -56.3343063942600
[...]
     /afs/slac.stanford.edu/u/if/mamunm/psp/gbrv1.5pbe/Cd.UPF
     MD5 check sum: 17164a7926edb8e0dc231208abae86a6
     Pseudo is Ultrasoft + core correction, Zval = 12.0
     Generated by new atomic code, or converted to UPF format
     Using radial grid of  889 points,  6 beta functions with:
                l(1) =   0
                l(2) =   0
                l(3) =   1
                l(4) =   1
                l(5) =   2
                l(6) =   2
     Q(r) pseudized with  6 coefficients,  rinner =    1.000   1.000   1.000
                                                       1.000   1.000

     PseudoPot. # 2 for Ag read from file:
     /afs/slac.stanford.edu/u/if/mamunm/psp/gbrv1.5pbe/Ag.UPF
     MD5 check sum: d66d668201baa78d5eb5b04ef7011058
     Pseudo is Ultrasoft + core correction, Zval = 19.0
     Generated by new atomic code, or converted to UPF format
     Using radial grid of  887 points,  6 beta functions with:
                l(1) =   0
                l(2) =   0
                l(3) =   1
                l(4) =   1
                l(5) =   2
                l(6) =   2
     Q(r) pseudized with  6 coefficients,  rinner =    1.300   1.300   1.300
                                                       1.300   1.300

     vdW kernel table read from file vdW_kernel_table
     MD5 check sum: 095c7af220d748ca6e76c0b4c6cfb241

     atomic species   valence    mass     pseudopotential
        Cd1           12.00   112.41400     Cd( 1.00)
        Ag1           19.00   107.86820     Ag( 1.00)

     No symmetry found

   Cartesian axes

     site n.     atom                  positions (alat units)
         1           Cd1 tau(   1) = (   0.0000000   0.0000000  10.0000000  )
         2           Cd1 tau(   2) = (  -1.5613031   2.7042564  10.0000000  )
         3           Cd1 tau(   3) = (   1.5613031   2.7042564  10.0000000  )
         4           Ag1 tau(   4) = (   3.1226063   0.0000000  10.0000000  )
         5           Cd1 tau(   5) = (   3.1226063   1.8028376  12.5495974  )
         6           Cd1 tau(   6) = (   1.5613031   4.5070940  12.5495974  )
         7           Cd1 tau(   7) = (  -1.5613031   4.5070940  12.5495974  )
         8           Ag1 tau(   8) = (   0.0000000   1.8028376  12.5495974  )
         9           Cd1 tau(   9) = (   0.0000495   3.5993670  15.3769795  )
        10           Cd1 tau(  10) = (   1.5559091   0.9044383  15.3772227  )
        11           Cd1 tau(  11) = (   4.6893110   0.9045019  15.3772294  )
        12           Ag1 tau(  12) = (   3.1226209   3.6056416  15.1067800  )

     number of k points=    20  Fermi-Dirac smearing, width (Ry)=  0.0110
                       cart. coord. in units 2pi/alat
        k(    1) = (   0.0000000   0.0000000   0.0000000), wk =   0.0555556
        k(    2) = (   0.0000000   0.0308156   0.0000000), wk =   0.1111111
        k(    3) = (   0.0000000   0.0616312   0.0000000), wk =   0.1111111
        k(    4) = (   0.0000000  -0.0924469   0.0000000), wk =   0.0555556
        k(    5) = (   0.0266871   0.0154078   0.0000000), wk =   0.1111111
        k(    6) = (   0.0266871   0.0462234   0.0000000), wk =   0.1111111
        k(    7) = (   0.0266871   0.0770390   0.0000000), wk =   0.1111111
        k(    8) = (   0.0266871  -0.0770390   0.0000000), wk =   0.1111111
        k(    9) = (   0.0266871  -0.0462234   0.0000000), wk =   0.1111111
        k(   10) = (   0.0266871  -0.0154078   0.0000000), wk =   0.1111111
        k(   11) = (   0.0533742   0.0308156   0.0000000), wk =   0.1111111
        k(   12) = (   0.0533742   0.0616312   0.0000000), wk =   0.1111111
        k(   13) = (   0.0533742   0.0924469   0.0000000), wk =   0.1111111
        k(   14) = (   0.0533742  -0.0616312   0.0000000), wk =   0.1111111
        k(   15) = (   0.0533742  -0.0308156   0.0000000), wk =   0.1111111
        k(   16) = (   0.0533742  -0.0000000   0.0000000), wk =   0.1111111
        k(   17) = (  -0.0800613  -0.0462234   0.0000000), wk =   0.0555556
        k(   18) = (  -0.0800613  -0.0154078   0.0000000), wk =   0.1111111
        k(   19) = (  -0.0800613   0.0154078   0.0000000), wk =   0.1111111
        k(   20) = (  -0.0800613  -0.1386703   0.0000000), wk =   0.0555556

     Largest allocated arrays     est. size (Mb)     dimensions
     Largest temporary arrays     est. size (Mb)     dimensions

     Initial potential from superposition of free atoms
     Check: negative starting charge=   -0.195381

     starting charge  158.99949, renormalised to  165.00000

[...]

     *
     * You are using vdW-DF for exchange-correlation in this calculation.
     * Please cite the following three references that made this development
     * possible:
     *
     *   M. Dion, H. Rydberg, E. Schroder, D. C. Langreth, and
     *   B. I. Lundqvist, Phys. Rev. Lett. 92, 246401 (2004).
     *
     *   T. Thonhauser, V. R. Cooper, S. Li, A. Puzder, P. Hyldgaard, and
     *   D. C. Langreth, Phys. Rev. B 76, 125112 (2007).
     *
     *   G. Roman-Perez and J. M. Soler, Phys. Rev. Lett. 103, 096102 (2009).
     *
     *
     * If you are using vdW-DF2, please also cite:
     *
     *   K. Lee, E. D. Murray, L. Kong, B. I. Lundqvist, and
     *   D. C. Langreth, Phys. Rev. B 82, 081101(R) (2010).
     *
     *
     * If you are calculating the stress with vdW-DF, please also cite:
     *
     *   R. Sabatini, E. Kucukbenli, B. Kolb, T. Thonhauser, and
     *   S. de Gironcoli, J. Phys.: Condens. Matter 24, 424209 (2012).
     *

     Carrying out vdW-DF run using the following parameters:

     Nqs =      20    Nr_points =    1024   r_max =   100.000
     q_mesh =
               0.00001000     0.04494208     0.09755937     0.15916263
               0.23128650     0.31572767     0.41458969     0.53033537
               0.66584808     0.82450364     1.01025438     1.22772762
               1.48234092     1.78043706     2.12944203     2.53805004
               3.01644009     3.57652955     4.23227104     5.00000000

     Gradients computed in reciprocal space

[...]

     Starting wfc are  120 randomized atomic wfcs

     Self-consistent Calculation

[...]

     total energy              =   -1934.75142527 Ry
     Harris-Foulkes estimate   =   -1934.75142200 Ry
     estimated scf accuracy    <       0.00000577 Ry

     iteration # 13     ecut=    36.75 Ry     beta=0.10
     Davidson diagonalization with overlap
     ethr =  3.50E-09,  avg # of iterations =  2.0

[...]

     negative rho (up, down):  2.010E-01 0.000E+00

     Adding external electric field

     Computed dipole along edir(3) :
        Dipole                0.0375 Ry au,          0.0953 Debye
        Dipole field          0.0001 Ry au

        Potential amp.       -0.0076 Ry
        Total length         46.2448 bohr

     End of self-consistent calculation

[...]

          k = 0.0534-0.0000 0.0000 ( 21541 PWs)   bands (ev):

[...]

          k =-0.0801-0.1387 0.0000 ( 21504 PWs)   bands (ev):

   -91.6505 -91.5094 -91.4914 -55.1460 -55.1459 -55.1373 -55.0150 -55.0150
   -54.9981 -54.9980 -54.9783 -54.9612  -8.8049  -8.7035  -8.6897  -8.6313
    -8.6079  -8.5806  -8.5533  -8.5116  -8.5022  -8.4974  -8.4872  -8.4638
    -8.4192  -8.3943  -8.3682  -8.3546  -8.3029  -8.2737  -8.2499  -8.2355
    -8.2294  -8.2278  -8.2146  -8.2028  -8.1986  -8.1845  -8.1634  -8.1534
    -8.1461  -8.1309  -8.1256  -8.1255  -8.1132  -8.0910  -8.0765  -8.0752
    -8.0689  -8.0145  -7.9934  -7.9665  -7.9456  -7.9383  -7.8755  -7.7722
    -7.7173  -5.5363  -5.3523  -4.5928  -4.1793  -4.0914  -4.0344  -4.0038
    -3.9663  -3.8405  -3.8377  -3.8372  -3.8277  -3.7823  -3.7720  -3.7380
    -3.6954  -3.6950  -3.6427  -3.1362  -2.1548  -1.6769  -1.4538  -1.1569
    -0.7609  -0.3230   1.2296   1.3428   1.6192   1.7979   3.5406   3.7263
     3.8646   3.8838   4.1230   4.1737   4.1860   4.6493   5.1044   5.1590
     5.2930   5.3360   5.5850   5.6508   5.7720   5.8119   6.3767   6.5356
     6.5626   6.6250   6.7048   6.7749   6.8365   6.8810   7.1955   7.2730

     the Fermi energy is     0.6290 ev

!    total energy              =   -1934.75141830 Ry
     Harris-Foulkes estimate   =   -1934.75142658 Ry
     estimated scf accuracy    <       0.00000075 Ry

     The total energy is the sum of the following terms:

     one-electron contribution =  -11601.78259283 Ry
     hartree contribution      =    5866.96857726 Ry
     xc contribution           =    -457.27194977 Ry
     ewald contribution        =    4257.35686305 Ry
     electric field correction =       0.00000309 Ry
     smearing contrib. (-TS)   =      -0.02231910 Ry

     convergence has been achieved in  13 iterations

 BEEF-vdW xc energy contributions
           1 :   -399.833510448044
           2 :    364.887296611840
           3 :   -306.165536591040
           4 :    240.743232394672
           5 :   -184.226049378406
           6 :    145.070907390093
           7 :   -123.042204238141
           8 :    111.847879186469
           9 :   -103.902078470273
          10 :    94.3993315180898
          11 :   -82.7700694769338
          12 :    71.3832726006658
          13 :   -62.9302004450730
          14 :    58.3596389446989
          15 :   -56.4886975379519
          16 :    55.1294355720301
          17 :   -52.6578905790961
          18 :    48.8984681501489
          19 :   -44.8804876919195
          20 :    41.8508313433816
          21 :   -40.3461637448229
          22 :    39.9292707263269
          23 :   -39.6342304557461
          24 :    38.6821583624444
          25 :   -36.9408356354479
          26 :    34.8774292482891
          27 :   -33.1384981072081
          28 :    32.1030951997510
          29 :   -31.7001138591980
          30 :    31.5463136745719
          31 :   -36.7004179991807
          32 :   -26.7284079529516

     Forces acting on atoms (Ry/au):

     negative rho (up, down):  2.010E-01 0.000E+00
     atom    1 type  1   force =     0.00000091    0.00262139   -0.01187947
     atom    2 type  1   force =     0.00226687   -0.00130303   -0.01187474
     atom    3 type  1   force =    -0.00227240   -0.00130716   -0.01188110
     atom    4 type  2   force =    -0.00000131    0.00000257   -0.00014325
     atom    5 type  1   force =    -0.00000141   -0.00421413    0.00980466
     atom    6 type  1   force =    -0.00364584    0.00211102    0.00979892
     atom    7 type  1   force =     0.00365120    0.00210893    0.00979578
     atom    8 type  2   force =    -0.00000005   -0.00000256    0.00673503
     atom    9 type  1   force =    -0.00000026    0.00052564   -0.00006516
     atom   10 type  1   force =     0.00045726   -0.00026823   -0.00005683
     atom   11 type  1   force =    -0.00045462   -0.00026587   -0.00005632
     atom   12 type  2   force =    -0.00000036   -0.00000859   -0.00017754

     Total force =     0.028836     Total SCF correction =     0.003276
     SCF correction compared to forces is large: reduce conv_thr to get better values

     entering subroutine stress ...

     negative rho (up, down):  2.010E-01 0.000E+00
          total   stress  (Ry/bohr**3)                   (kbar)     P=   -9.05
  -0.00009440   0.00000000   0.00000000        -13.89      0.00      0.00
   0.00000000  -0.00009445  -0.00000000          0.00    -13.89     -0.00
   0.00000000  -0.00000000   0.00000427          0.00     -0.00      0.63

 !ASE

     Writing output data file calc.save

     General routines

     Parallel routines

   This run was terminated on:   0:57:20  30Dec2018

   JOB DONE.
Job  /afs/slac/g/suncat/bin/suncat-tsmpirun -x LD_LIBRARY_PATH -wdir /scratch/qe648386_9nMQO pw.x -in pw.inp

TID   HOST_NAME   COMMAND_LINE            STATUS            TERMINATION_TIME
00000 suncat0159 pw.x -in pw.inp   Done                     12/30/2018 00:57:20
00001 suncat0159 pw.x -in pw.inp   Done                     12/30/2018 00:57:20
00002 suncat0159 pw.x -in pw.inp   Done                     12/30/2018 00:57:20
00003 suncat0159 pw.x -in pw.inp   Done                     12/30/2018 00:57:20
00004 suncat0159 pw.x -in pw.inp   Done                     12/30/2018 00:57:20
00005 suncat0159 pw.x -in pw.inp   Done                     12/30/2018 00:57:20
00006 suncat0159 pw.x -in pw.inp   Done                     12/30/2018 00:57:20
00007 suncat0159 pw.x -in pw.inp   Done                     12/30/2018 00:57:20
00008 suncat0155 pw.x -in pw.inp   Done                     12/30/2018 00:57:20
00009 suncat0155 pw.x -in pw.inp   Done                     12/30/2018 00:57:20
00010 suncat0155 pw.x -in pw.inp   Done                     12/30/2018 00:57:20
00011 suncat0155 pw.x -in pw.inp   Done                     12/30/2018 00:57:20
00012 suncat0155 pw.x -in pw.inp   Done                     12/30/2018 00:57:20
00013 suncat0155 pw.x -in pw.inp   Done                     12/30/2018 00:57:20
00014 suncat0155 pw.x -in pw.inp   Done                     12/30/2018 00:57:20
00015 suncat0155 pw.x -in pw.inp   Done                     12/30/2018 00:57:20
00016 suncat0143 pw.x -in pw.inp   Done                     12/30/2018 00:57:20
00017 suncat0143 pw.x -in pw.inp   Done                     12/30/2018 00:57:20
00018 suncat0143 pw.x -in pw.inp   Done                     12/30/2018 00:57:20
00019 suncat0143 pw.x -in pw.inp   Done                     12/30/2018 00:57:20
00020 suncat0143 pw.x -in pw.inp   Done                     12/30/2018 00:57:20
00021 suncat0143 pw.x -in pw.inp   Done                     12/30/2018 00:57:20
00022 suncat0143 pw.x -in pw.inp   Done                     12/30/2018 00:57:20
00023 suncat0143 pw.x -in pw.inp   Done                     12/30/2018 00:57:20
00024 suncat0141 pw.x -in pw.inp   Done                     12/30/2018 00:57:20
00025 suncat0141 pw.x -in pw.inp   Done                     12/30/2018 00:57:20
00026 suncat0141 pw.x -in pw.inp   Done                     12/30/2018 00:57:20
00027 suncat0141 pw.x -in pw.inp   Done                     12/30/2018 00:57:20
00028 suncat0141 pw.x -in pw.inp   Done                     12/30/2018 00:57:20
00029 suncat0141 pw.x -in pw.inp   Done                     12/30/2018 00:57:20
00030 suncat0141 pw.x -in pw.inp   Done                     12/30/2018 00:57:20
00031 suncat0141 pw.x -in pw.inp   Done                     12/30/2018 00:57:20
00032 suncat0140 pw.x -in pw.inp   Done                     12/30/2018 00:57:20
00033 suncat0140 pw.x -in pw.inp   Done                     12/30/2018 00:57:20
00034 suncat0140 pw.x -in pw.inp   Done                     12/30/2018 00:57:20
00035 suncat0140 pw.x -in pw.inp   Done                     12/30/2018 00:57:20
00036 suncat0140 pw.x -in pw.inp   Done                     12/30/2018 00:57:20
00037 suncat0140 pw.x -in pw.inp   Done                     12/30/2018 00:57:20
00038 suncat0140 pw.x -in pw.inp   Done                     12/30/2018 00:57:20
00039 suncat0140 pw.x -in pw.inp   Done                     12/30/2018 00:57:20
00040 suncat0135 pw.x -in pw.inp   Done                     12/30/2018 00:57:20
00041 suncat0135 pw.x -in pw.inp   Done                     12/30/2018 00:57:20
00042 suncat0135 pw.x -in pw.inp   Done                     12/30/2018 00:57:20
00043 suncat0135 pw.x -in pw.inp   Done                     12/30/2018 00:57:20
00044 suncat0135 pw.x -in pw.inp   Done                     12/30/2018 00:57:20
00045 suncat0135 pw.x -in pw.inp   Done                     12/30/2018 00:57:20
00046 suncat0135 pw.x -in pw.inp   Done                     12/30/2018 00:57:20
00047 suncat0135 pw.x -in pw.inp   Done                     12/30/2018 00:57:20
00048 suncat0134 pw.x -in pw.inp   Done                     12/30/2018 00:57:20
00049 suncat0134 pw.x -in pw.inp   Done                     12/30/2018 00:57:20
00050 suncat0134 pw.x -in pw.inp   Done                     12/30/2018 00:57:20
00051 suncat0134 pw.x -in pw.inp   Done                     12/30/2018 00:57:20
00052 suncat0134 pw.x -in pw.inp   Done                     12/30/2018 00:57:20
00053 suncat0134 pw.x -in pw.inp   Done                     12/30/2018 00:57:20
00054 suncat0134 pw.x -in pw.inp   Done                     12/30/2018 00:57:20
00055 suncat0134 pw.x -in pw.inp   Done                     12/30/2018 00:57:20
00056 suncat0272 pw.x -in pw.inp   Done                     12/30/2018 00:57:20
00057 suncat0272 pw.x -in pw.inp   Done                     12/30/2018 00:57:20
00058 suncat0272 pw.x -in pw.inp   Done                     12/30/2018 00:57:20
00059 suncat0272 pw.x -in pw.inp   Done                     12/30/2018 00:57:20
00060 suncat0272 pw.x -in pw.inp   Done                     12/30/2018 00:57:20
00061 suncat0272 pw.x -in pw.inp   Done                     12/30/2018 00:57:20
00062 suncat0272 pw.x -in pw.inp   Done                     12/30/2018 00:57:20
00063 suncat0272 pw.x -in pw.inp   Done                     12/30/2018 00:57:20