     Program PWSCF v.5.1rc2 (svn rev. 11289) starts on 19Dec2018 at 19:34:40

     Current dimensions of program PWSCF are:
     Max number of different atomic species (ntypx) = 10
     Max number of k-points (npk) =  40000
     Max angular momentum in pseudopotentials (lmaxx) =  3
     Presently stress not available with electric field

     IMPORTANT: XC functional enforced from input :
     Exchange-correlation      = BEEF-VDW ( 1  4 27 13 2)
     Any further DFT definition will be discarded
     Please, verify this is what you really want

     Subspace diagonalization in iterative solution of the eigenvalue problem:
     a serial algorithm will be used

     bravais-lattice index     =            0
     lattice parameter (alat)  =       1.8897  a.u.
     unit-cell volume          =    4893.0098 (a.u.)^3
     number of atoms/cell      =           12
     number of atomic types    =            2
     number of electrons       =       144.00
     number of Kohn-Sham states=          102
     kinetic-energy cutoff     =      36.7493  Ry
     charge density cutoff     =     367.4932  Ry
     convergence threshold     =      1.0E-06
     mixing beta               =       0.1000
     number of iterations used =           10  plain     mixing
     Exchange-correlation      = BEEF-VDW ( 1  4 27 13 2)
     nstep                     =           50

     celldm(1)=   1.889726  celldm(2)=   0.000000  celldm(3)=   0.000000
     celldm(4)=   0.000000  celldm(5)=   0.000000  celldm(6)=   0.000000

     crystal axes: (cart. coord. in units of alat)
               a(1) = (   5.816286   0.000000   0.000000 )
               a(2) = (  -2.908143   5.037052   0.000000 )
               a(3) = (   0.000000   0.000000  24.748978 )

     reciprocal axes: (cart. coord. in units 2 pi/alat)
               b(1) = (  0.171931  0.099264  0.000000 )
               b(2) = (  0.000000  0.198529  0.000000 )
               b(3) = (  0.000000  0.000000  0.040406 )

     PseudoPot. # 1 for Au read from file:
     /afs/slac.stanford.edu/u/if/mamunm/psp/gbrv1.5pbe/Au.UPF
     MD5 check sum: 9d7f43293ad2c663164586bc4b293ffc
     Pseudo is Ultrasoft + core correction, Zval = 11.0
     Generated by new atomic code, or converted to UPF format
     Using radial grid of  985 points,  7 beta functions with:
                l(1) =   0
                l(2) =   0
                l(3) =   1
                l(4) =   1
                l(5) =   2
                l(6) =   2
                l(7) =   3
     Q(r) pseudized with  6 coefficients,  rinner =    1.900   1.900   1.900
                                                       1.900   1.900   1.900
                                                       1.900

     PseudoPot. # 2 for Rh read from file:
     /afs/slac.stanford.edu/u/if/mamunm/psp/gbrv1.5pbe/Rh.UPF
     MD5 check sum: 761627e959a2e3a1f56b0b5fe687810e
     Pseudo is Ultrasoft + core correction, Zval = 15.0
     Generated by new atomic code, or converted to UPF format
     Using radial grid of  969 points,  7 beta functions with:
                l(1) =   0
                l(2) =   0
                l(3) =   1
                l(4) =   1
                l(5) =   2
                l(6) =   2
                l(7) =   2
     Q(r) pseudized with  8 coefficients,  rinner =    1.200   1.200   1.200
                                                       1.200   1.200

     vdW kernel table read from file vdW_kernel_table
     MD5 check sum: 095c7af220d748ca6e76c0b4c6cfb241

     atomic species   valence    mass     pseudopotential
        Au1           11.00   196.96657     Au( 1.00)
        Rh1           15.00   102.90550     Rh( 1.00)

     No symmetry found

   Cartesian axes

     site n.     atom                  positions (alat units)
         1           Au1 tau(   1) = (   0.0000000   0.0000000  10.0000000  )
         2           Au1 tau(   2) = (  -1.4540716   2.5185259  10.0000000  )
         3           Au1 tau(   3) = (   1.4540716   2.5185259  10.0000000  )
         4           Rh1 tau(   4) = (   2.9081432   0.0000000  10.0000000  )
         5           Au1 tau(   5) = (   2.9081432   1.6790173  12.3744890  )
         6           Au1 tau(   6) = (   1.4540716   4.1975432  12.3744890  )
         7           Au1 tau(   7) = (  -1.4540716   4.1975432  12.3744890  )
         8           Rh1 tau(   8) = (   0.0000000   1.6790173  12.3744890  )
         9           Au1 tau(   9) = (  -0.0000000   3.3580346  14.7489780  )
        10           Au1 tau(  10) = (   1.4540716   0.8395086  14.7489780  )
        11           Au1 tau(  11) = (   4.3622149   0.8395086  14.7489780  )
        12           Rh1 tau(  12) = (   2.9081432   3.3580346  14.7489780  )

     number of k points=    20  Fermi-Dirac smearing, width (Ry)=  0.0110
                       cart. coord. in units 2pi/alat
        k(    1) = (   0.0000000   0.0000000   0.0000000), wk =   0.0555556
        k(    2) = (   0.0000000   0.0330881   0.0000000), wk =   0.1111111
        k(    3) = (   0.0000000   0.0661763   0.0000000), wk =   0.1111111
        k(    4) = (   0.0000000  -0.0992644   0.0000000), wk =   0.0555556
        k(    5) = (   0.0286552   0.0165441   0.0000000), wk =   0.1111111
        k(    6) = (   0.0286552   0.0496322   0.0000000), wk =   0.1111111
        k(    7) = (   0.0286552   0.0827203   0.0000000), wk =   0.1111111
        k(    8) = (   0.0286552  -0.0827203   0.0000000), wk =   0.1111111
        k(    9) = (   0.0286552  -0.0496322   0.0000000), wk =   0.1111111
        k(   10) = (   0.0286552  -0.0165441   0.0000000), wk =   0.1111111
        k(   11) = (   0.0573103   0.0330881   0.0000000), wk =   0.1111111
        k(   12) = (   0.0573103   0.0661763   0.0000000), wk =   0.1111111
        k(   13) = (   0.0573103   0.0992644   0.0000000), wk =   0.1111111
        k(   14) = (   0.0573103  -0.0661763   0.0000000), wk =   0.1111111
        k(   15) = (   0.0573103  -0.0330881   0.0000000), wk =   0.1111111
        k(   16) = (   0.0573103   0.0000000   0.0000000), wk =   0.1111111
        k(   17) = (  -0.0859655  -0.0496322   0.0000000), wk =   0.0555556
        k(   18) = (  -0.0859655  -0.0165441   0.0000000), wk =   0.1111111
        k(   19) = (  -0.0859655   0.0165441   0.0000000), wk =   0.1111111
        k(   20) = (  -0.0859655  -0.1488966   0.0000000), wk =   0.0555556

     Largest allocated arrays     est. size (Mb)     dimensions
     Largest temporary arrays     est. size (Mb)     dimensions

     Check: negative/imaginary core charge=   -0.000002    0.000000

     Initial potential from superposition of free atoms
     Check: negative starting charge=   -0.165733

     starting charge  142.49860, renormalised to  144.00000

     negative rho (up, down):  1.675E-01 0.000E+00

     *
     * You are using vdW-DF for exchange-correlation in this calculation.
     * Please cite the following three references that made this development
     * possible:
     *
     *   M. Dion, H. Rydberg, E. Schroder, D. C. Langreth, and
     *   B. I. Lundqvist, Phys. Rev. Lett. 92, 246401 (2004).
     *
     *   T. Thonhauser, V. R. Cooper, S. Li, A. Puzder, P. Hyldgaard, and
     *   D. C. Langreth, Phys. Rev. B 76, 125112 (2007).
     *
     *   G. Roman-Perez and J. M. Soler, Phys. Rev. Lett. 103, 096102 (2009).
     *
     *
     * If you are using vdW-DF2, please also cite:
     *
     *   K. Lee, E. D. Murray, L. Kong, B. I. Lundqvist, and
     *   D. C. Langreth, Phys. Rev. B 82, 081101(R) (2010).
     *
     *
     * If you are calculating the stress with vdW-DF, please also cite:
     *
     *   R. Sabatini, E. Kucukbenli, B. Kolb, T. Thonhauser, and
     *   S. de Gironcoli, J. Phys.: Condens. Matter 24, 424209 (2012).
     *

     Carrying out vdW-DF run using the following parameters:

     Nqs =      20    Nr_points =    1024   r_max =   100.000
     q_mesh =
               0.00001000     0.04494208     0.09755937     0.15916263
               0.23128650     0.31572767     0.41458969     0.53033537
               0.66584808     0.82450364     1.01025438     1.22772762
               1.48234092     1.78043706     2.12944203     2.53805004
               3.01644009     3.57652955     4.23227104     5.00000000

     Gradients computed in reciprocal space

     Adding external electric field

     Computed dipole along edir(3) :
        Dipole                0.0000 Ry au,          0.0000 Debye
        Dipole field          0.0000 Ry au

        Potential amp.       -0.0000 Ry
        Total length         45.5996 bohr

     Starting wfc are  117 randomized atomic wfcs

     Self-consistent Calculation

     iteration #  1     ecut=    36.75 Ry     beta=0.10
     Davidson diagonalization with overlap
     ethr =  1.00E-02,  avg # of iterations =  7.8

[...]

     total energy              =   -1566.64734610 Ry
     Harris-Foulkes estimate   =   -1567.40050337 Ry
     estimated scf accuracy    <       4.24890789 Ry

[...]

     End of self-consistent calculation

          k = 0.0000 0.0000 0.0000 ( 18451 PWs)   bands (ev):

   -45.1924 -45.1511 -45.1511 -45.0556 -45.0556 -45.0554 -45.0554 -44.9321
   -44.9317  -7.3241  -5.9896  -5.7056  -5.4090  -5.3281  -5.3280  -5.1693
    -5.1396  -5.1396  -5.0101  -4.8697  -4.8697  -4.7968  -4.7457  -4.7457
    -4.0811  -3.7786  -3.7786  -3.6844  -3.6844  -3.4673  -3.3823  -3.3256
    -3.1829  -3.1372  -3.1372  -3.0613  -3.0613  -2.8793  -2.8793  -2.7268
    -2.7268  -2.7202  -2.7202  -2.3482  -2.1132  -2.1132  -2.0541  -2.0541
    -1.7908  -1.7908  -1.5092  -1.3640  -1.3640  -1.1977  -1.1717  -1.0368
    -0.9795  -0.8503  -0.2636  -0.2636  -0.2592  -0.1436  -0.1436   0.0298
     0.0298   0.1785   0.1785   0.1841   0.1841   0.3618   0.4562   0.4562
     1.2671   1.5043   1.6770   1.6770   2.5334   2.5334   2.7390   2.7390
     2.8191   2.9961   4.4718   4.4718   4.7130   5.0911   5.0911   5.1276
     5.3161   6.0487   6.0488   6.2207   6.2738   6.6538   7.0137   7.4063
     8.6812   9.0181   9.1288   9.1288   9.4971   9.5156

[...]

          k =-0.0860-0.0496 0.0000 ( 18372 PWs)   bands (ev):

[...]

     the Fermi energy is     0.3546 ev

!    total energy              =   -1566.81705039 Ry
     Harris-Foulkes estimate   =   -1566.81704917 Ry
     estimated scf accuracy    <       0.00000041 Ry

     The total energy is the sum of the following terms:

     one-electron contribution =  -10194.62354218 Ry
     hartree contribution      =    5180.35256742 Ry
     xc contribution           =    -669.15738622 Ry
     ewald contribution        =    4116.68215533 Ry
     electric field correction =       0.00000000 Ry
     smearing contrib. (-TS)   =      -0.07084475 Ry

     convergence has been achieved in  16 iterations

 BEEF-vdW xc energy contributions
           1 :   -595.606496559170
           2 :    552.771924436170
           3 :   -476.531587290477
           4 :    382.280966375676
           5 :   -286.468423412016
           6 :    202.172670716658
           7 :   -136.549013296751
           8 :    90.5848259088101
           9 :   -60.8075461569177
          10 :    41.9256470216479
          11 :   -29.2305194408856
          12 :    19.8877990280916
[...]
     MD5 check sum: 9d7f43293ad2c663164586bc4b293ffc
     Pseudo is Ultrasoft + core correction, Zval = 11.0
     Generated by new atomic code, or converted to UPF format
     Using radial grid of  985 points,  7 beta functions with:
                l(1) =   0
                l(2) =   0
                l(3) =   1
                l(4) =   1
                l(5) =   2
                l(6) =   2
                l(7) =   3
     Q(r) pseudized with  6 coefficients,  rinner =    1.900   1.900   1.900
                                                       1.900   1.900   1.900
                                                       1.900

     PseudoPot. # 2 for Rh read from file:
     /afs/slac.stanford.edu/u/if/mamunm/psp/gbrv1.5pbe/Rh.UPF
     MD5 check sum: 761627e959a2e3a1f56b0b5fe687810e
     Pseudo is Ultrasoft + core correction, Zval = 15.0
     Generated by new atomic code, or converted to UPF format
     Using radial grid of  969 points,  7 beta functions with:
                l(1) =   0
                l(2) =   0
                l(3) =   1
                l(4) =   1
                l(5) =   2
                l(6) =   2
                l(7) =   2
     Q(r) pseudized with  8 coefficients,  rinner =    1.200   1.200   1.200
                                                       1.200   1.200

     vdW kernel table read from file vdW_kernel_table
     MD5 check sum: 095c7af220d748ca6e76c0b4c6cfb241

     atomic species   valence    mass     pseudopotential
        Au1           11.00   196.96657     Au( 1.00)
        Rh1           15.00   102.90550     Rh( 1.00)

     No symmetry found

   Cartesian axes

     site n.     atom                  positions (alat units)
         1           Au1 tau(   1) = (   0.0000000   0.0000000  10.0000000  )
         2           Au1 tau(   2) = (  -1.4540716   2.5185259  10.0000000  )
         3           Au1 tau(   3) = (   1.4540716   2.5185259  10.0000000  )
         4           Rh1 tau(   4) = (   2.9081432   0.0000000  10.0000000  )
         5           Au1 tau(   5) = (   2.9081432   1.6790173  12.3744890  )
         6           Au1 tau(   6) = (   1.4540716   4.1975432  12.3744890  )
         7           Au1 tau(   7) = (  -1.4540716   4.1975432  12.3744890  )
         8           Rh1 tau(   8) = (   0.0000000   1.6790173  12.3744890  )
         9           Au1 tau(   9) = (  -0.0000071   3.3479232  14.8191593  )
        10           Au1 tau(  10) = (   1.4453059   0.8445751  14.8191441  )
        11           Au1 tau(  11) = (   4.3709852   0.8445814  14.8191623  )
        12           Rh1 tau(  12) = (   2.9081361   3.3580419  14.6501909  )

     number of k points=    20  Fermi-Dirac smearing, width (Ry)=  0.0110
                       cart. coord. in units 2pi/alat
        k(    1) = (   0.0000000   0.0000000   0.0000000), wk =   0.0555556
        k(    2) = (   0.0000000   0.0330881   0.0000000), wk =   0.1111111
        k(    3) = (   0.0000000   0.0661763   0.0000000), wk =   0.1111111
        k(    4) = (   0.0000000  -0.0992644   0.0000000), wk =   0.0555556
        k(    5) = (   0.0286552   0.0165441   0.0000000), wk =   0.1111111
        k(    6) = (   0.0286552   0.0496322   0.0000000), wk =   0.1111111
        k(    7) = (   0.0286552   0.0827203   0.0000000), wk =   0.1111111
        k(    8) = (   0.0286552  -0.0827203   0.0000000), wk =   0.1111111
        k(    9) = (   0.0286552  -0.0496322   0.0000000), wk =   0.1111111
        k(   10) = (   0.0286552  -0.0165441   0.0000000), wk =   0.1111111
        k(   11) = (   0.0573103   0.0330881   0.0000000), wk =   0.1111111
        k(   12) = (   0.0573103   0.0661763   0.0000000), wk =   0.1111111
        k(   13) = (   0.0573103   0.0992644   0.0000000), wk =   0.1111111
        k(   14) = (   0.0573103  -0.0661763   0.0000000), wk =   0.1111111
        k(   15) = (   0.0573103  -0.0330881   0.0000000), wk =   0.1111111
        k(   16) = (   0.0573103   0.0000000   0.0000000), wk =   0.1111111
        k(   17) = (  -0.0859655  -0.0496322   0.0000000), wk =   0.0555556
        k(   18) = (  -0.0859655  -0.0165441   0.0000000), wk =   0.1111111
        k(   19) = (  -0.0859655   0.0165441   0.0000000), wk =   0.1111111
        k(   20) = (  -0.0859655  -0.1488966   0.0000000), wk =   0.0555556

     Largest allocated arrays     est. size (Mb)     dimensions
     Largest temporary arrays     est. size (Mb)     dimensions

     Check: negative/imaginary core charge=   -0.000002    0.000000

     Initial potential from superposition of free atoms
     Check: negative starting charge=   -0.166294

     starting charge  142.49860, renormalised to  144.00000

[...]

     *
     * You are using vdW-DF for exchange-correlation in this calculation.
     * Please cite the following three references that made this development
     * possible:
     *
     *   M. Dion, H. Rydberg, E. Schroder, D. C. Langreth, and
     *   B. I. Lundqvist, Phys. Rev. Lett. 92, 246401 (2004).
     *
     *   T. Thonhauser, V. R. Cooper, S. Li, A. Puzder, P. Hyldgaard, and
     *   D. C. Langreth, Phys. Rev. B 76, 125112 (2007).
     *
     *   G. Roman-Perez and J. M. Soler, Phys. Rev. Lett. 103, 096102 (2009).
     *
     *
     * If you are using vdW-DF2, please also cite:
     *
     *   K. Lee, E. D. Murray, L. Kong, B. I. Lundqvist, and
     *   D. C. Langreth, Phys. Rev. B 82, 081101(R) (2010).
     *
     *
     * If you are calculating the stress with vdW-DF, please also cite:
     *
     *   R. Sabatini, E. Kucukbenli, B. Kolb, T. Thonhauser, and
     *   S. de Gironcoli, J. Phys.: Condens. Matter 24, 424209 (2012).
     *

     Carrying out vdW-DF run using the following parameters:

     Nqs =      20    Nr_points =    1024   r_max =   100.000
     q_mesh =
               0.00001000     0.04494208     0.09755937     0.15916263
               0.23128650     0.31572767     0.41458969     0.53033537
               0.66584808     0.82450364     1.01025438     1.22772762
               1.48234092     1.78043706     2.12944203     2.53805004
               3.01644009     3.57652955     4.23227104     5.00000000

     Gradients computed in reciprocal space

[...]

     Starting wfc are  117 randomized atomic wfcs

     Self-consistent Calculation

[...]

     total energy              =   -1566.83917399 Ry
     Harris-Foulkes estimate   =   -1566.83917382 Ry
     estimated scf accuracy    <       0.00000144 Ry

     iteration # 17     ecut=    36.75 Ry     beta=0.10
     Davidson diagonalization with overlap
     ethr =  9.98E-10,  avg # of iterations =  1.0

[...]

     negative rho (up, down):  1.680E-01 0.000E+00

     Adding external electric field

     Computed dipole along edir(3) :
        Dipole               -0.0090 Ry au,         -0.0229 Debye
        Dipole field         -0.0000 Ry au

        Potential amp.        0.0021 Ry
        Total length         45.5996 bohr

     End of self-consistent calculation

[...]

          k = 0.0573 0.0000 0.0000 ( 18413 PWs)   bands (ev):

[...]

          k =-0.0860-0.1489 0.0000 ( 18372 PWs)   bands (ev):

   -45.1898 -45.1606 -45.1603 -45.1193 -45.1190 -45.0779 -45.0776 -45.0256
   -44.9546  -5.9926  -5.6816  -4.9741  -4.8096  -4.7956  -4.7379  -4.6280
    -4.5282  -4.4813  -4.4169  -4.3702  -4.3176  -4.0535  -4.0488  -3.9739
    -3.9302  -3.9047  -3.8701  -3.7655  -3.7134  -3.4356  -3.3393  -3.2961
    -3.2764  -3.2566  -3.2186  -3.1993  -3.1850  -3.1276  -3.0638  -3.0310
    -3.0081  -2.9623  -2.9134  -2.8421  -2.8301  -2.7030  -2.6319  -2.6040
    -2.5204  -2.4902  -2.3707  -2.2808  -2.2637  -1.9446  -1.7789  -1.5469
    -1.5075  -1.5005  -1.2113  -1.1283  -1.0604  -0.6673  -0.5837  -0.5417
    -0.5351  -0.4826  -0.4813  -0.2641  -0.1857  -0.1419  -0.0695  -0.0034
     0.4117   0.9760   1.2391   1.5826   2.0822   2.1894   2.8982   4.0756
     4.1832   4.2791   4.7077   6.0396   6.0626   6.7103   6.7212   6.7345
     6.7662   6.7676   7.2222   7.3345   7.4167   7.5804   7.7634   7.9414
     7.9774   8.2270   8.3357   8.6754   8.8457   8.8700

     the Fermi energy is     0.3346 ev

!    total energy              =   -1566.83917514 Ry
     Harris-Foulkes estimate   =   -1566.83917407 Ry
     estimated scf accuracy    <       0.00000032 Ry

     The total energy is the sum of the following terms:

     one-electron contribution =  -10167.20842309 Ry
     hartree contribution      =    5166.59181452 Ry
     xc contribution           =    -669.14041440 Ry
     ewald contribution        =    4102.98834585 Ry
     electric field correction =       0.00000021 Ry
     smearing contrib. (-TS)   =      -0.07049823 Ry

     convergence has been achieved in  17 iterations

 BEEF-vdW xc energy contributions
           1 :   -596.107719625398
           2 :    553.247263526554
           3 :   -476.974351671946
           4 :    382.709169690634
           5 :   -286.915064640655
           6 :    202.666796990212
           7 :   -137.098257118201
           8 :    91.1692636605674
           9 :   -61.3889986067196
          10 :    42.4685565239217
          11 :   -29.7220707344733
          12 :    20.3458459286778
          13 :   -13.3895029685993
          14 :    8.84413855118464
          15 :   -6.58884250838901
          16 :    5.80454875116811
          17 :   -5.09275844144554
          18 :    3.10266338117390
          19 :   0.767342530076462
          20 :   -6.02927104492824
          21 :    11.3179412093803
          22 :   -15.0434500193257
          23 :    16.1372242402530
          24 :   -14.5240347990205
          25 :    11.1042945043106
          26 :   -7.29399768414407
          27 :    4.37910976027752
          28 :   -3.01189517072908
          29 :    3.06801127765607
          30 :   -3.88528857190749
          31 :   -48.6149105424489
          32 :   -35.5813874472241

     Forces acting on atoms (Ry/au):

     negative rho (up, down):  1.680E-01 0.000E+00
     atom    1 type  1   force =    -0.00000135    0.00499974   -0.01130935
     atom    2 type  1   force =     0.00432986   -0.00250148   -0.01130971
     atom    3 type  1   force =    -0.00432923   -0.00249910   -0.01130920
     atom    4 type  2   force =    -0.00000032    0.00000054    0.01749552
     atom    5 type  1   force =     0.00000096   -0.00772782    0.00180425
     atom    6 type  1   force =    -0.00669432    0.00386489    0.00180435
     atom    7 type  1   force =     0.00669529    0.00386545    0.00180191
     atom    8 type  2   force =    -0.00000041    0.00000087    0.00621700
     atom    9 type  1   force =     0.00000238    0.00026145    0.00100795
     atom   10 type  1   force =     0.00022594   -0.00013232    0.00101290
     atom   11 type  1   force =    -0.00022870   -0.00013253    0.00101537
     atom   12 type  2   force =    -0.00000010    0.00000031    0.00176901

     Total force =     0.031605     Total SCF correction =     0.000885

     entering subroutine stress ...

     negative rho (up, down):  1.680E-01 0.000E+00
          total   stress  (Ry/bohr**3)                   (kbar)     P=  -15.30
  -0.00014720  -0.00000000  -0.00000000        -21.65     -0.00     -0.00
  -0.00000000  -0.00014720  -0.00000000         -0.00    -21.65     -0.00
  -0.00000000  -0.00000000  -0.00001765         -0.00     -0.00     -2.60

 !ASE

     Writing output data file calc.save

     General routines

     Parallel routines

   This run was terminated on:  20:16: 5  19Dec2018

   JOB DONE.
Job  /afs/slac/g/suncat/bin/suncat-tsmpirun -x LD_LIBRARY_PATH -wdir /scratch/qe773386_QKONx pw.x -in pw.inp

TID   HOST_NAME   COMMAND_LINE            STATUS            TERMINATION_TIME
00000 suncat0079 pw.x -in pw.inp   Done                     12/19/2018 20:16:05
00001 suncat0079 pw.x -in pw.inp   Done                     12/19/2018 20:16:05
00002 suncat0079 pw.x -in pw.inp   Done                     12/19/2018 20:16:05
00003 suncat0079 pw.x -in pw.inp   Done                     12/19/2018 20:16:05
00004 suncat0079 pw.x -in pw.inp   Done                     12/19/2018 20:16:05
00005 suncat0079 pw.x -in pw.inp   Done                     12/19/2018 20:16:05
00006 suncat0079 pw.x -in pw.inp   Done                     12/19/2018 20:16:05
00007 suncat0079 pw.x -in pw.inp   Done                     12/19/2018 20:16:05
00008 suncat0078 pw.x -in pw.inp   Done                     12/19/2018 20:16:05
00009 suncat0078 pw.x -in pw.inp   Done                     12/19/2018 20:16:05
00010 suncat0078 pw.x -in pw.inp   Done                     12/19/2018 20:16:05
00011 suncat0078 pw.x -in pw.inp   Done                     12/19/2018 20:16:05
00012 suncat0078 pw.x -in pw.inp   Done                     12/19/2018 20:16:05
00013 suncat0078 pw.x -in pw.inp   Done                     12/19/2018 20:16:05
00014 suncat0078 pw.x -in pw.inp   Done                     12/19/2018 20:16:05
00015 suncat0078 pw.x -in pw.inp   Done                     12/19/2018 20:16:05
00016 suncat0077 pw.x -in pw.inp   Done                     12/19/2018 20:16:05
00017 suncat0077 pw.x -in pw.inp   Done                     12/19/2018 20:16:05
00018 suncat0077 pw.x -in pw.inp   Done                     12/19/2018 20:16:05
00019 suncat0077 pw.x -in pw.inp   Done                     12/19/2018 20:16:05
00020 suncat0077 pw.x -in pw.inp   Done                     12/19/2018 20:16:05
00021 suncat0077 pw.x -in pw.inp   Done                     12/19/2018 20:16:05
00022 suncat0077 pw.x -in pw.inp   Done                     12/19/2018 20:16:05
00023 suncat0077 pw.x -in pw.inp   Done                     12/19/2018 20:16:05
00024 suncat0076 pw.x -in pw.inp   Done                     12/19/2018 20:16:05
00025 suncat0076 pw.x -in pw.inp   Done                     12/19/2018 20:16:05
00026 suncat0076 pw.x -in pw.inp   Done                     12/19/2018 20:16:05
00027 suncat0076 pw.x -in pw.inp   Done                     12/19/2018 20:16:05
00028 suncat0076 pw.x -in pw.inp   Done                     12/19/2018 20:16:05
00029 suncat0076 pw.x -in pw.inp   Done                     12/19/2018 20:16:05
00030 suncat0076 pw.x -in pw.inp   Done                     12/19/2018 20:16:05
00031 suncat0076 pw.x -in pw.inp   Done                     12/19/2018 20:16:05
00032 suncat0178 pw.x -in pw.inp   Done                     12/19/2018 20:16:05
00033 suncat0178 pw.x -in pw.inp   Done                     12/19/2018 20:16:05
00034 suncat0178 pw.x -in pw.inp   Done                     12/19/2018 20:16:05
00035 suncat0178 pw.x -in pw.inp   Done                     12/19/2018 20:16:05
00036 suncat0178 pw.x -in pw.inp   Done                     12/19/2018 20:16:05
00037 suncat0178 pw.x -in pw.inp   Done                     12/19/2018 20:16:05
00038 suncat0178 pw.x -in pw.inp   Done                     12/19/2018 20:16:05
00039 suncat0178 pw.x -in pw.inp   Done                     12/19/2018 20:16:05
00040 suncat0177 pw.x -in pw.inp   Done                     12/19/2018 20:16:05
00041 suncat0177 pw.x -in pw.inp   Done                     12/19/2018 20:16:05
00042 suncat0177 pw.x -in pw.inp   Done                     12/19/2018 20:16:05
00043 suncat0177 pw.x -in pw.inp   Done                     12/19/2018 20:16:05
00044 suncat0177 pw.x -in pw.inp   Done                     12/19/2018 20:16:05
00045 suncat0177 pw.x -in pw.inp   Done                     12/19/2018 20:16:05
00046 suncat0177 pw.x -in pw.inp   Done                     12/19/2018 20:16:05
00047 suncat0177 pw.x -in pw.inp   Done                     12/19/2018 20:16:05
00048 suncat0172 pw.x -in pw.inp   Done                     12/19/2018 20:16:05
00049 suncat0172 pw.x -in pw.inp   Done                     12/19/2018 20:16:05
00050 suncat0172 pw.x -in pw.inp   Done                     12/19/2018 20:16:05
00051 suncat0172 pw.x -in pw.inp   Done                     12/19/2018 20:16:05
00052 suncat0172 pw.x -in pw.inp   Done                     12/19/2018 20:16:05
00053 suncat0172 pw.x -in pw.inp   Done                     12/19/2018 20:16:05
00054 suncat0172 pw.x -in pw.inp   Done                     12/19/2018 20:16:05
00055 suncat0172 pw.x -in pw.inp   Done                     12/19/2018 20:16:05
00056 suncat0171 pw.x -in pw.inp   Done                     12/19/2018 20:16:05
00057 suncat0171 pw.x -in pw.inp   Done                     12/19/2018 20:16:05
00058 suncat0171 pw.x -in pw.inp   Done                     12/19/2018 20:16:05
00059 suncat0171 pw.x -in pw.inp   Done                     12/19/2018 20:16:05
00060 suncat0171 pw.x -in pw.inp   Done                     12/19/2018 20:16:05
00061 suncat0171 pw.x -in pw.inp   Done                     12/19/2018 20:16:05
00062 suncat0171 pw.x -in pw.inp   Done                     12/19/2018 20:16:05
00063 suncat0171 pw.x -in pw.inp   Done                     12/19/2018 20:16:05