     Program PWSCF v.5.1rc2 (svn rev. 11289) starts on  2Jan2019 at 19:41:18

     Current dimensions of program PWSCF are:
     Max number of different atomic species (ntypx) = 10
     Max number of k-points (npk) =  40000
     Max angular momentum in pseudopotentials (lmaxx) =  3
     Presently stress not available with electric field

     IMPORTANT: XC functional enforced from input :
     Exchange-correlation      = BEEF-VDW ( 1  4 27 13 2)
     Any further DFT definition will be discarded
     Please, verify this is what you really want

     Subspace diagonalization in iterative solution of the eigenvalue problem:
     a serial algorithm will be used

     bravais-lattice index     =            0
     lattice parameter (alat)  =       1.8897  a.u.
     unit-cell volume          =    5563.3877 (a.u.)^3
     number of atoms/cell      =           12
     number of atomic types    =            2
     number of electrons       =       165.00
     number of Kohn-Sham states=          112
     kinetic-energy cutoff     =      36.7493  Ry
     charge density cutoff     =     367.4932  Ry
     convergence threshold     =      1.0E-06
     mixing beta               =       0.1000
     number of iterations used =           10  plain     mixing
     Exchange-correlation      = BEEF-VDW ( 1  4 27 13 2)
     nstep                     =           50

     celldm(1)=   1.889726  celldm(2)=   0.000000  celldm(3)=   0.000000
     celldm(4)=   0.000000  celldm(5)=   0.000000  celldm(6)=   0.000000

     crystal axes: (cart. coord. in units of alat)
               a(1) = (   6.166425   0.000000   0.000000 )
               a(2) = (  -3.083212   5.340280   0.000000 )
               a(3) = (   0.000000   0.000000  25.034865 )

     reciprocal axes: (cart. coord. in units 2 pi/alat)
               b(1) = (  0.162169  0.093628  0.000000 )
               b(2) = (  0.000000  0.187256  0.000000 )
               b(3) = (  0.000000  0.000000  0.039944 )

     PseudoPot. # 1 for Zr read from file:
     /afs/slac.stanford.edu/u/if/mamunm/psp/gbrv1.5pbe/Zr.UPF
     MD5 check sum: 5db81b1e868ab7776c4564c113de050b
     Pseudo is Ultrasoft + core correction, Zval = 12.0
     Generated by new atomic code, or converted to UPF format
     Using radial grid of  887 points,  6 beta functions with:
                l(1) =   0
                l(2) =   0
                l(3) =   1
                l(4) =   1
                l(5) =   2
                l(6) =   2
     Q(r) pseudized with  6 coefficients,  rinner =    1.200   1.200   1.200
                                                       1.200   1.200

     PseudoPot. # 2 for Ga read from file:
     /afs/slac.stanford.edu/u/if/mamunm/psp/gbrv1.5pbe/Ga.UPF
     MD5 check sum: ccd671392a58a050fbb373893b4fcd66
     Pseudo is Ultrasoft + core correction, Zval = 19.0
     Generated by new atomic code, or converted to UPF format
     Using radial grid of  871 points,  6 beta functions with:
                l(1) =   0
                l(2) =   0
                l(3) =   1
                l(4) =   1
                l(5) =   2
                l(6) =   2
     Q(r) pseudized with  8 coefficients,  rinner =    1.250   1.250   1.250
                                                       1.250   1.250

     vdW kernel table read from file vdW_kernel_table
     MD5 check sum: 095c7af220d748ca6e76c0b4c6cfb241

     atomic species   valence    mass     pseudopotential
        Zr1           12.00    91.22400     Zr( 1.00)
        Ga1           19.00    69.72300     Ga( 1.00)

     No symmetry found

   Cartesian axes

     site n.     atom                  positions (alat units)
         1           Zr1 tau(   1) = (   0.0000000   0.0000000  10.0000000  )
         2           Zr1 tau(   2) = (  -1.5416061   2.6701402  10.0000000  )
         3           Zr1 tau(   3) = (   1.5416061   2.6701402  10.0000000  )
         4           Ga1 tau(   4) = (   3.0832123   0.0000000  10.0000000  )
         5           Zr1 tau(   5) = (   3.0832123   1.7800934  12.5174323  )
         6           Zr1 tau(   6) = (   1.5416061   4.4502336  12.5174323  )
         7           Zr1 tau(   7) = (  -1.5416061   4.4502336  12.5174323  )
         8           Ga1 tau(   8) = (   0.0000000   1.7800934  12.5174323  )
         9           Zr1 tau(   9) = (  -0.0000000   3.5601869  15.0348646  )
        10           Zr1 tau(  10) = (   1.5416061   0.8900467  15.0348646  )
        11           Zr1 tau(  11) = (   4.6248184   0.8900467  15.0348646  )
        12           Ga1 tau(  12) = (   3.0832123   3.5601869  15.0348646  )

     number of k points=    20  Fermi-Dirac smearing, width (Ry)=  0.0110
                       cart. coord. in units 2pi/alat
        k(    1) = (   0.0000000   0.0000000   0.0000000), wk =   0.0555556
        k(    2) = (   0.0000000   0.0312093   0.0000000), wk =   0.1111111
        k(    3) = (   0.0000000   0.0624187   0.0000000), wk =   0.1111111
        k(    4) = (   0.0000000  -0.0936280   0.0000000), wk =   0.0555556
        k(    5) = (   0.0270281   0.0156047   0.0000000), wk =   0.1111111
        k(    6) = (   0.0270281   0.0468140   0.0000000), wk =   0.1111111
        k(    7) = (   0.0270281   0.0780234   0.0000000), wk =   0.1111111
        k(    8) = (   0.0270281  -0.0780234   0.0000000), wk =   0.1111111
        k(    9) = (   0.0270281  -0.0468140   0.0000000), wk =   0.1111111
        k(   10) = (   0.0270281  -0.0156047   0.0000000), wk =   0.1111111
        k(   11) = (   0.0540562   0.0312093   0.0000000), wk =   0.1111111
        k(   12) = (   0.0540562   0.0624187   0.0000000), wk =   0.1111111
        k(   13) = (   0.0540562   0.0936280   0.0000000), wk =   0.1111111
        k(   14) = (   0.0540562  -0.0624187   0.0000000), wk =   0.1111111
        k(   15) = (   0.0540562  -0.0312093   0.0000000), wk =   0.1111111
        k(   16) = (   0.0540562   0.0000000   0.0000000), wk =   0.1111111
        k(   17) = (  -0.0810843  -0.0468140   0.0000000), wk =   0.0555556
        k(   18) = (  -0.0810843  -0.0156047   0.0000000), wk =   0.1111111
        k(   19) = (  -0.0810843   0.0156047   0.0000000), wk =   0.1111111
        k(   20) = (  -0.0810843  -0.1404421   0.0000000), wk =   0.0555556

     Largest allocated arrays     est. size (Mb)     dimensions
     Largest temporary arrays     est. size (Mb)     dimensions

     Initial potential from superposition of free atoms
     Check: negative starting charge=   -0.556192

     starting charge  161.98065, renormalised to  165.00000

     negative rho (up, down):  5.666E-01 0.000E+00

     *
     * You are using vdW-DF for exchange-correlation in this calculation.
     * Please cite the following three references that made this development
     * possible:
     *
     *   M. Dion, H. Rydberg, E. Schroder, D. C. Langreth, and
     *   B. I. Lundqvist, Phys. Rev. Lett. 92, 246401 (2004).
     *
     *   T. Thonhauser, V. R. Cooper, S. Li, A. Puzder, P. Hyldgaard, and
     *   D. C. Langreth, Phys. Rev. B 76, 125112 (2007).
     *
     *   G. Roman-Perez and J. M. Soler, Phys. Rev. Lett. 103, 096102 (2009).
     *
     *
     * If you are using vdW-DF2, please also cite:
     *
     *   K. Lee, E. D. Murray, L. Kong, B. I. Lundqvist, and
     *   D. C. Langreth, Phys. Rev. B 82, 081101(R) (2010).
     *
     *
     * If you are calculating the stress with vdW-DF, please also cite:
     *
     *   R. Sabatini, E. Kucukbenli, B. Kolb, T. Thonhauser, and
     *   S. de Gironcoli, J. Phys.: Condens. Matter 24, 424209 (2012).
     *

     Carrying out vdW-DF run using the following parameters:

     Nqs =      20    Nr_points =    1024   r_max =   100.000
     q_mesh =
               0.00001000     0.04494208     0.09755937     0.15916263
               0.23128650     0.31572767     0.41458969     0.53033537
               0.66584808     0.82450364     1.01025438     1.22772762
               1.48234092     1.78043706     2.12944203     2.53805004
               3.01644009     3.57652955     4.23227104     5.00000000

     Gradients computed in reciprocal space

     Adding external electric field

     Computed dipole along edir(3) :
        Dipole               -0.0000 Ry au,         -0.0000 Debye
        Dipole field         -0.0000 Ry au

        Potential amp.        0.0000 Ry
        Total length         46.1263 bohr

     Starting wfc are  153 randomized atomic wfcs

     Self-consistent Calculation

     iteration #  1     ecut=    36.75 Ry     beta=0.10
     Davidson diagonalization with overlap
     ethr =  1.00E-02,  avg # of iterations =  2.0

[...]

     total energy              =   -2147.60073893 Ry
     Harris-Foulkes estimate   =   -2148.71804389 Ry
     estimated scf accuracy    <       6.42415516 Ry

[...]

     End of self-consistent calculation

          k = 0.0000 0.0000 0.0000 ( 20971 PWs)   bands (ev):

   -92.5876 -92.5876 -92.5626 -92.5626 -92.5626 -92.5626 -92.5599 -92.5599
   -92.5579 -47.7714 -47.7655 -47.6619 -47.6619 -47.6606 -47.6606 -47.3586
   -47.2558 -47.2558 -26.1772 -26.1401 -26.0067 -25.9462 -25.9462 -25.8859
   -25.8859 -25.8688 -25.8688 -25.8398 -25.8192 -25.7241 -25.7241 -25.4730
   -25.4631 -25.4631 -25.4467 -25.2515 -25.2515 -25.2376 -25.2376 -25.1821
   -25.1614 -25.1613 -25.0691 -24.9089 -24.9089 -12.9181 -12.9141 -12.9082
   -12.9082 -12.9045 -12.9042 -12.9042 -12.9015 -12.9015 -12.9001 -12.9001
   -12.8962 -12.8962 -12.8864 -12.8864  -5.8508  -4.8615  -4.7501  -1.8686
    -1.5944  -1.2480  -0.4565  -0.4565  -0.2290  -0.2070  -0.1386  -0.1386
    -0.0845  -0.0845   0.2096   0.2096   0.6983   0.6983   1.0338   1.1656
     1.3745   1.5765   1.5765   1.7123   1.7123   2.0415   2.0415   2.1246
     2.1267   2.1268   2.2342   2.7652   3.3841   3.4277   3.9436   3.9436
     4.0706   4.0706   4.1377   4.2335   4.2335   4.4124   4.4516   4.4516
     4.6136   4.6892   4.7160   4.7160   4.9786   4.9786   5.0661   5.1543

[...]

          k =-0.0811-0.0468 0.0000 ( 20888 PWs)   bands (ev):

[...]

     the Fermi energy is     1.4693 ev

!    total energy              =   -2147.60010922 Ry
     Harris-Foulkes estimate   =   -2147.60010728 Ry
     estimated scf accuracy    <       0.00000067 Ry

     The total energy is the sum of the following terms:

     one-electron contribution =  -12806.83265391 Ry
     hartree contribution      =    6401.89352040 Ry
     xc contribution           =    -315.05011241 Ry
     ewald contribution        =    4572.48597581 Ry
     electric field correction =       0.00000000 Ry
     smearing contrib. (-TS)   =      -0.09683911 Ry

     convergence has been achieved in  16 iterations

 BEEF-vdW xc energy contributions
           1 :   -275.360714942190
           2 :    249.972070813422
           3 :   -207.126619745239
           4 :    158.881053166485
           5 :   -116.136678518672
           6 :    84.6918068687656
           7 :   -64.3491696468572
           8 :    50.9548164330391
           9 :   -39.7547738941360
          10 :    28.0696693518684
          11 :   -16.0622906016916
          12 :    5.65642642206677
          13 :    1.32526196545689
          14 :   -4.52082328318039
          15 :    5.15429502279909
[...]

     PseudoPot. # 1 for Zr read from file:
     /afs/slac.stanford.edu/u/if/mamunm/psp/gbrv1.5pbe/Zr.UPF
     MD5 check sum: 5db81b1e868ab7776c4564c113de050b
     Pseudo is Ultrasoft + core correction, Zval = 12.0
     Generated by new atomic code, or converted to UPF format
     Using radial grid of  887 points,  6 beta functions with:
                l(1) =   0
                l(2) =   0
                l(3) =   1
                l(4) =   1
                l(5) =   2
                l(6) =   2
     Q(r) pseudized with  6 coefficients,  rinner =    1.200   1.200   1.200
                                                       1.200   1.200

     PseudoPot. # 2 for Ga read from file:
     /afs/slac.stanford.edu/u/if/mamunm/psp/gbrv1.5pbe/Ga.UPF
     MD5 check sum: ccd671392a58a050fbb373893b4fcd66
     Pseudo is Ultrasoft + core correction, Zval = 19.0
     Generated by new atomic code, or converted to UPF format
     Using radial grid of  871 points,  6 beta functions with:
                l(1) =   0
                l(2) =   0
                l(3) =   1
                l(4) =   1
                l(5) =   2
                l(6) =   2
     Q(r) pseudized with  8 coefficients,  rinner =    1.250   1.250   1.250
                                                       1.250   1.250

     vdW kernel table read from file vdW_kernel_table
     MD5 check sum: 095c7af220d748ca6e76c0b4c6cfb241

     atomic species   valence    mass     pseudopotential
        Zr1           12.00    91.22400     Zr( 1.00)
        Ga1           19.00    69.72300     Ga( 1.00)

     No symmetry found

   Cartesian axes

     site n.     atom                  positions (alat units)
         1           Zr1 tau(   1) = (   0.0000000   0.0000000  10.0000000  )
         2           Zr1 tau(   2) = (  -1.5416061   2.6701402  10.0000000  )
         3           Zr1 tau(   3) = (   1.5416061   2.6701402  10.0000000  )
         4           Ga1 tau(   4) = (   3.0832123   0.0000000  10.0000000  )
         5           Zr1 tau(   5) = (   3.0832123   1.7800934  12.5174323  )
         6           Zr1 tau(   6) = (   1.5416061   4.4502336  12.5174323  )
         7           Zr1 tau(   7) = (  -1.5416061   4.4502336  12.5174323  )
         8           Ga1 tau(   8) = (   0.0000000   1.7800934  12.5174323  )
         9           Zr1 tau(   9) = (  -0.0000032   3.5058067  14.9759609  )
        10           Zr1 tau(  10) = (   1.4945138   0.9172374  14.9759589  )
        11           Zr1 tau(  11) = (   4.6719074   0.9172379  14.9759602  )
        12           Ga1 tau(  12) = (   3.0832105   3.5601987  15.0400002  )

     number of k points=    20  Fermi-Dirac smearing, width (Ry)=  0.0110
                       cart. coord. in units 2pi/alat
        k(    1) = (   0.0000000   0.0000000   0.0000000), wk =   0.0555556
        k(    2) = (   0.0000000   0.0312093   0.0000000), wk =   0.1111111
        k(    3) = (   0.0000000   0.0624187   0.0000000), wk =   0.1111111
        k(    4) = (   0.0000000  -0.0936280   0.0000000), wk =   0.0555556
        k(    5) = (   0.0270281   0.0156047   0.0000000), wk =   0.1111111
        k(    6) = (   0.0270281   0.0468140   0.0000000), wk =   0.1111111
        k(    7) = (   0.0270281   0.0780234   0.0000000), wk =   0.1111111
        k(    8) = (   0.0270281  -0.0780234   0.0000000), wk =   0.1111111
        k(    9) = (   0.0270281  -0.0468140   0.0000000), wk =   0.1111111
        k(   10) = (   0.0270281  -0.0156047   0.0000000), wk =   0.1111111
        k(   11) = (   0.0540562   0.0312093   0.0000000), wk =   0.1111111
        k(   12) = (   0.0540562   0.0624187   0.0000000), wk =   0.1111111
        k(   13) = (   0.0540562   0.0936280   0.0000000), wk =   0.1111111
        k(   14) = (   0.0540562  -0.0624187   0.0000000), wk =   0.1111111
        k(   15) = (   0.0540562  -0.0312093   0.0000000), wk =   0.1111111
        k(   16) = (   0.0540562   0.0000000   0.0000000), wk =   0.1111111
        k(   17) = (  -0.0810843  -0.0468140   0.0000000), wk =   0.0555556
        k(   18) = (  -0.0810843  -0.0156047   0.0000000), wk =   0.1111111
        k(   19) = (  -0.0810843   0.0156047   0.0000000), wk =   0.1111111
        k(   20) = (  -0.0810843  -0.1404421   0.0000000), wk =   0.0555556

     Largest allocated arrays     est. size (Mb)     dimensions
     Largest temporary arrays     est. size (Mb)     dimensions

     Initial potential from superposition of free atoms
     Check: negative starting charge=   -0.551532

     starting charge  161.98065, renormalised to  165.00000

[...]

     *
     * You are using vdW-DF for exchange-correlation in this calculation.
     * Please cite the following three references that made this development
     * possible:
     *
     *   M. Dion, H. Rydberg, E. Schroder, D. C. Langreth, and
     *   B. I. Lundqvist, Phys. Rev. Lett. 92, 246401 (2004).
     *
     *   T. Thonhauser, V. R. Cooper, S. Li, A. Puzder, P. Hyldgaard, and
     *   D. C. Langreth, Phys. Rev. B 76, 125112 (2007).
     *
     *   G. Roman-Perez and J. M. Soler, Phys. Rev. Lett. 103, 096102 (2009).
     *
     *
     * If you are using vdW-DF2, please also cite:
     *
     *   K. Lee, E. D. Murray, L. Kong, B. I. Lundqvist, and
     *   D. C. Langreth, Phys. Rev. B 82, 081101(R) (2010).
     *
     *
     * If you are calculating the stress with vdW-DF, please also cite:
     *
     *   R. Sabatini, E. Kucukbenli, B. Kolb, T. Thonhauser, and
     *   S. de Gironcoli, J. Phys.: Condens. Matter 24, 424209 (2012).
     *

     Carrying out vdW-DF run using the following parameters:

     Nqs =      20    Nr_points =    1024   r_max =   100.000
     q_mesh =
               0.00001000     0.04494208     0.09755937     0.15916263
               0.23128650     0.31572767     0.41458969     0.53033537
               0.66584808     0.82450364     1.01025438     1.22772762
               1.48234092     1.78043706     2.12944203     2.53805004
               3.01644009     3.57652955     4.23227104     5.00000000

     Gradients computed in reciprocal space

[...]

     Starting wfc are  153 randomized atomic wfcs

     Self-consistent Calculation

[...]

     total energy              =   -2147.61299060 Ry
     Harris-Foulkes estimate   =   -2147.61298991 Ry
     estimated scf accuracy    <       0.00000297 Ry

     iteration # 17     ecut=    36.75 Ry     beta=0.10
     Davidson diagonalization with overlap
     ethr =  1.80E-09,  avg # of iterations =  2.0

[...]

     negative rho (up, down):  5.601E-01 0.000E+00

     Adding external electric field

     Computed dipole along edir(3) :
        Dipole               -0.0046 Ry au,         -0.0117 Debye
        Dipole field         -0.0000 Ry au

        Potential amp.        0.0010 Ry
        Total length         46.1263 bohr

     End of self-consistent calculation

[...]

          k = 0.0541 0.0000 0.0000 ( 20933 PWs)   bands (ev):

[...]

          k =-0.0811-0.1404 0.0000 ( 20888 PWs)   bands (ev):

   -92.5996 -92.5923 -92.5749 -92.5749 -92.5657 -92.5657 -92.5548 -92.5547
   -92.5514 -47.7409 -47.7055 -47.6915 -47.6694 -47.6413 -47.6085 -47.3081
   -47.2749 -47.2402 -26.0189 -25.9804 -25.9322 -25.8778 -25.8539 -25.8034
   -25.7689 -25.7593 -25.7408 -25.7211 -25.7208 -25.6834 -25.6456 -25.6444
   -25.5887 -25.5776 -25.5449 -25.3421 -25.3263 -25.2906 -25.2712 -25.2528
   -25.1869 -25.1084 -25.1061 -25.0947 -24.9208 -12.9244 -12.9171 -12.9133
   -12.9116 -12.9054 -12.9045 -12.9036 -12.9026 -12.9014 -12.8968 -12.8963
   -12.8959 -12.8924 -12.8876 -12.8839  -4.9753  -4.6378  -4.3037  -2.1375
    -1.5429  -1.4221  -1.0821  -0.6408  -0.2299  -0.1217  -0.1175  -0.0478
     0.0545   0.1445   0.5072   0.5742   0.7421   0.9601   1.1235   1.2094
     1.2599   1.3811   1.4112   1.4506   1.6078   1.6195   1.6898   2.1870
     2.2448   2.2645   2.3931   2.5501   2.7476   2.9747   3.3875   3.5488
     3.7018   3.7899   3.8509   3.9152   4.0296   4.1259   4.1478   4.1955
     4.2699   4.2802   4.4562   4.6876   4.8765   4.8922   5.3181   5.5329

     the Fermi energy is     1.4623 ev

!    total energy              =   -2147.61299424 Ry
     Harris-Foulkes estimate   =   -2147.61299114 Ry
     estimated scf accuracy    <       0.00000077 Ry

     The total energy is the sum of the following terms:

     one-electron contribution =  -12871.02797175 Ry
     hartree contribution      =    6434.08248329 Ry
     xc contribution           =    -315.13007069 Ry
     ewald contribution        =    4604.55933585 Ry
     electric field correction =       0.00000005 Ry
     smearing contrib. (-TS)   =      -0.09677100 Ry

     convergence has been achieved in  17 iterations

 BEEF-vdW xc energy contributions
           1 :   -275.704432633128
           2 :    250.338675417341
           3 :   -207.517601759579
           4 :    159.270842019295
           5 :   -116.488317932711
           6 :    84.9836009291000
           7 :   -64.5921619185841
           8 :    51.1870701212558
           9 :   -40.0159885154220
          10 :    28.3748484324345
          11 :   -16.3935143712569
          12 :    5.97760824929247
          13 :    1.04258763465805
          14 :   -4.27928991345522
          15 :    4.93137145477891
          16 :   -4.85525523061398
          17 :    5.36150315289353
          18 :   -6.58274741257020
          19 :    7.73844290023106
          20 :   -7.96184577364198
          21 :    7.02040918060487
          22 :   -5.44517042888782
          23 :    4.07709800877961
          24 :   -3.45151478555903
          25 :    3.48977791591392
          26 :   -3.67636298222050
          27 :    3.52222702120940
          28 :   -2.93627986987099
          29 :    2.24222437855764
          30 :   -1.87239168384741
          31 :   -26.2439776560392
          32 :   -18.9992345424384

     Forces acting on atoms (Ry/au):

     negative rho (up, down):  5.601E-01 0.000E+00
     atom    1 type  1   force =    -0.00000015    0.01756368    0.00564538
     atom    2 type  1   force =     0.01521036   -0.00878275    0.00564594
     atom    3 type  1   force =    -0.01520985   -0.00878254    0.00564603
     atom    4 type  2   force =    -0.00000100   -0.00000366   -0.00119299
     atom    5 type  1   force =    -0.00000008    0.00303326   -0.00224680
     atom    6 type  1   force =     0.00262652   -0.00151678   -0.00224651
     atom    7 type  1   force =    -0.00262623   -0.00151656   -0.00224670
     atom    8 type  2   force =    -0.00000073   -0.00000092   -0.00765296
     atom    9 type  1   force =     0.00000054    0.00081249   -0.00034756
     atom   10 type  1   force =     0.00070391   -0.00040478   -0.00034758
     atom   11 type  1   force =    -0.00070369   -0.00040551   -0.00034773
     atom   12 type  2   force =     0.00000039    0.00000407   -0.00030852

     Total force =     0.033559     Total SCF correction =     0.002686

     entering subroutine stress ...

     negative rho (up, down):  5.601E-01 0.000E+00
          total   stress  (Ry/bohr**3)                   (kbar)     P=   -7.48
  -0.00006907  -0.00000000   0.00000000        -10.16     -0.00      0.00
  -0.00000000  -0.00006907   0.00000000         -0.00    -10.16      0.00
   0.00000000   0.00000000  -0.00001440          0.00      0.00     -2.12

 !ASE

     Writing output data file calc.save

     General routines

     Parallel routines

   This run was terminated on:  21:28:14   2Jan2019

   JOB DONE.
Job  /afs/slac/g/suncat/bin/suncat-tsmpirun -x LD_LIBRARY_PATH -wdir /scratch/qe649538_6xtit pw.x -in pw.inp

TID   HOST_NAME   COMMAND_LINE            STATUS            TERMINATION_TIME
00000 suncat0146 pw.x -in pw.inp   Done                     01/02/2019 21:28:14
00001 suncat0146 pw.x -in pw.inp   Done                     01/02/2019 21:28:14
00002 suncat0146 pw.x -in pw.inp   Done                     01/02/2019 21:28:14
00003 suncat0146 pw.x -in pw.inp   Done                     01/02/2019 21:28:14
00004 suncat0146 pw.x -in pw.inp   Done                     01/02/2019 21:28:14
00005 suncat0146 pw.x -in pw.inp   Done                     01/02/2019 21:28:14
00006 suncat0146 pw.x -in pw.inp   Done                     01/02/2019 21:28:14
00007 suncat0146 pw.x -in pw.inp   Done                     01/02/2019 21:28:14
00008 suncat0136 pw.x -in pw.inp   Done                     01/02/2019 21:28:14
00009 suncat0136 pw.x -in pw.inp   Done                     01/02/2019 21:28:14
00010 suncat0136 pw.x -in pw.inp   Done                     01/02/2019 21:28:14
00011 suncat0136 pw.x -in pw.inp   Done                     01/02/2019 21:28:14
00012 suncat0136 pw.x -in pw.inp   Done                     01/02/2019 21:28:14
00013 suncat0136 pw.x -in pw.inp   Done                     01/02/2019 21:28:14
00014 suncat0136 pw.x -in pw.inp   Done                     01/02/2019 21:28:14
00015 suncat0136 pw.x -in pw.inp   Done                     01/02/2019 21:28:14
00016 suncat0248 pw.x -in pw.inp   Done                     01/02/2019 21:28:14
00017 suncat0248 pw.x -in pw.inp   Done                     01/02/2019 21:28:14
00018 suncat0248 pw.x -in pw.inp   Done                     01/02/2019 21:28:14
00019 suncat0248 pw.x -in pw.inp   Done                     01/02/2019 21:28:14
00020 suncat0248 pw.x -in pw.inp   Done                     01/02/2019 21:28:14
00021 suncat0248 pw.x -in pw.inp   Done                     01/02/2019 21:28:14
00022 suncat0248 pw.x -in pw.inp   Done                     01/02/2019 21:28:14
00023 suncat0248 pw.x -in pw.inp   Done                     01/02/2019 21:28:14
00024 suncat0247 pw.x -in pw.inp   Done                     01/02/2019 21:28:14
00025 suncat0247 pw.x -in pw.inp   Done                     01/02/2019 21:28:14
00026 suncat0247 pw.x -in pw.inp   Done                     01/02/2019 21:28:14
00027 suncat0247 pw.x -in pw.inp   Done                     01/02/2019 21:28:14
00028 suncat0247 pw.x -in pw.inp   Done                     01/02/2019 21:28:14
00029 suncat0247 pw.x -in pw.inp   Done                     01/02/2019 21:28:14
00030 suncat0247 pw.x -in pw.inp   Done                     01/02/2019 21:28:14
00031 suncat0247 pw.x -in pw.inp   Done                     01/02/2019 21:28:14
00032 suncat0246 pw.x -in pw.inp   Done                     01/02/2019 21:28:14
00033 suncat0246 pw.x -in pw.inp   Done                     01/02/2019 21:28:14
00034 suncat0246 pw.x -in pw.inp   Done                     01/02/2019 21:28:14
00035 suncat0246 pw.x -in pw.inp   Done                     01/02/2019 21:28:14
00036 suncat0246 pw.x -in pw.inp   Done                     01/02/2019 21:28:14
00037 suncat0246 pw.x -in pw.inp   Done                     01/02/2019 21:28:14
00038 suncat0246 pw.x -in pw.inp   Done                     01/02/2019 21:28:14
00039 suncat0246 pw.x -in pw.inp   Done                     01/02/2019 21:28:14
00040 suncat0245 pw.x -in pw.inp   Done                     01/02/2019 21:28:14
00041 suncat0245 pw.x -in pw.inp   Done                     01/02/2019 21:28:14
00042 suncat0245 pw.x -in pw.inp   Done                     01/02/2019 21:28:14
00043 suncat0245 pw.x -in pw.inp   Done                     01/02/2019 21:28:14
00044 suncat0245 pw.x -in pw.inp   Done                     01/02/2019 21:28:14
00045 suncat0245 pw.x -in pw.inp   Done                     01/02/2019 21:28:14
00046 suncat0245 pw.x -in pw.inp   Done                     01/02/2019 21:28:14
00047 suncat0245 pw.x -in pw.inp   Done                     01/02/2019 21:28:14
00048 suncat0214 pw.x -in pw.inp   Done                     01/02/2019 21:28:14
00049 suncat0214 pw.x -in pw.inp   Done                     01/02/2019 21:28:14
00050 suncat0214 pw.x -in pw.inp   Done                     01/02/2019 21:28:14
00051 suncat0214 pw.x -in pw.inp   Done                     01/02/2019 21:28:14
00052 suncat0214 pw.x -in pw.inp   Done                     01/02/2019 21:28:14
00053 suncat0214 pw.x -in pw.inp   Done                     01/02/2019 21:28:14
00054 suncat0214 pw.x -in pw.inp   Done                     01/02/2019 21:28:14
00055 suncat0214 pw.x -in pw.inp   Done                     01/02/2019 21:28:14
00056 suncat0213 pw.x -in pw.inp   Done                     01/02/2019 21:28:14
00057 suncat0213 pw.x -in pw.inp   Done                     01/02/2019 21:28:14
00058 suncat0213 pw.x -in pw.inp   Done                     01/02/2019 21:28:14
00059 suncat0213 pw.x -in pw.inp   Done                     01/02/2019 21:28:14
00060 suncat0213 pw.x -in pw.inp   Done                     01/02/2019 21:28:14
00061 suncat0213 pw.x -in pw.inp   Done                     01/02/2019 21:28:14
00062 suncat0213 pw.x -in pw.inp   Done                     01/02/2019 21:28:14
00063 suncat0213 pw.x -in pw.inp   Done                     01/02/2019 21:28:14