     Program PWSCF v.5.1rc2 (svn rev. 11289) starts on 27Dec2018 at 17:25:31

     Current dimensions of program PWSCF are:
     Max number of different atomic species (ntypx) = 10
     Max number of k-points (npk) =  40000
     Max angular momentum in pseudopotentials (lmaxx) =  3
     Presently stress not available with electric field

     IMPORTANT: XC functional enforced from input :
     Exchange-correlation      = BEEF-VDW ( 1  4 27 13 2)
     Any further DFT definition will be discarded
     Please, verify this is what you really want

     Subspace diagonalization in iterative solution of the eigenvalue problem:
     a serial algorithm will be used

     bravais-lattice index     =            0
     lattice parameter (alat)  =       1.8897  a.u.
     unit-cell volume          =    4453.0797 (a.u.)^3
     number of atoms/cell      =           12
     number of atomic types    =            2
     number of electrons       =       189.00
     number of Kohn-Sham states=          124
     kinetic-energy cutoff     =      36.7493  Ry
     charge density cutoff     =     367.4932  Ry
     convergence threshold     =      1.0E-06
     mixing beta               =       0.1000
     number of iterations used =           10  plain     mixing
     Exchange-correlation      = BEEF-VDW ( 1  4 27 13 2)
     nstep                     =           50

     celldm(1)=   1.889726  celldm(2)=   0.000000  celldm(3)=   0.000000
     celldm(4)=   0.000000  celldm(5)=   0.000000  celldm(6)=   0.000000

     crystal axes: (cart. coord. in units of alat)
               a(1) = (   5.571225   0.000000   0.000000 )
               a(2) = (  -2.785613   4.824823   0.000000 )
               a(3) = (   0.000000   0.000000  24.548886 )

     reciprocal axes: (cart. coord. in units 2 pi/alat)
               b(1) = (  0.179494  0.103631  0.000000 )
               b(2) = (  0.000000  0.207262  0.000000 )
               b(3) = (  0.000000  0.000000  0.040735 )

     PseudoPot. # 1 for Pd read from file:
     /afs/slac.stanford.edu/u/if/mamunm/psp/gbrv1.5pbe/Pd.UPF
     MD5 check sum: 2d733d2bc2cbfd217af676df1668a4bc
     Pseudo is Ultrasoft + core correction, Zval = 16.0
     Generated by new atomic code, or converted to UPF format
     Using radial grid of  887 points,  6 beta functions with:
                l(1) =   0
                l(2) =   0
                l(3) =   1
                l(4) =   1
                l(5) =   2
                l(6) =   2
     Q(r) pseudized with  8 coefficients,  rinner =    1.130   1.130   1.130
                                                       1.130   1.130

     PseudoPot. # 2 for Re read from file:
     /afs/slac.stanford.edu/u/if/mamunm/psp/gbrv1.5pbe/Re.UPF
     MD5 check sum: 85f993410f3e006da9d71c142b4ad953
     Pseudo is Ultrasoft + core correction, Zval = 15.0
     Generated by new atomic code, or converted to UPF format
     Using radial grid of  981 points,  8 beta functions with:
                l(1) =   0
                l(2) =   0
                l(3) =   1
                l(4) =   1
                l(5) =   2
                l(6) =   2
                l(7) =   3
                l(8) =   3
     Q(r) pseudized with  8 coefficients,  rinner =    1.150   1.150   1.150
                                                       1.150   1.150   1.150
                                                       1.150

     vdW kernel table read from file vdW_kernel_table
     MD5 check sum: 095c7af220d748ca6e76c0b4c6cfb241

     atomic species   valence    mass     pseudopotential
        Pd1           16.00   106.42000     Pd( 1.00)
        Re1           15.00   186.20700     Re( 1.00)

     No symmetry found

   Cartesian axes

     site n.     atom                  positions (alat units)
         1           Pd1 tau(   1) = (   0.0000000   0.0000000  10.0000000  )
         2           Pd1 tau(   2) = (  -1.3928063   2.4124113  10.0000000  )
         3           Pd1 tau(   3) = (   1.3928063   2.4124113  10.0000000  )
         4           Re1 tau(   4) = (   2.7856126   0.0000000  10.0000000  )
         5           Pd1 tau(   5) = (   2.7856126   1.6082742  12.2744432  )
         6           Pd1 tau(   6) = (   1.3928063   4.0206855  12.2744432  )
         7           Pd1 tau(   7) = (  -1.3928063   4.0206855  12.2744432  )
         8           Re1 tau(   8) = (   0.0000000   1.6082742  12.2744432  )
         9           Pd1 tau(   9) = (  -0.0000000   3.2165484  14.5488864  )
        10           Pd1 tau(  10) = (   1.3928063   0.8041371  14.5488864  )
        11           Pd1 tau(  11) = (   4.1784190   0.8041371  14.5488864  )
        12           Re1 tau(  12) = (   2.7856126   3.2165484  14.5488864  )

     number of k points=    20  Fermi-Dirac smearing, width (Ry)=  0.0110
                       cart. coord. in units 2pi/alat
        k(    1) = (   0.0000000   0.0000000   0.0000000), wk =   0.0555556
        k(    2) = (   0.0000000   0.0345436   0.0000000), wk =   0.1111111
        k(    3) = (   0.0000000   0.0690872   0.0000000), wk =   0.1111111
        k(    4) = (   0.0000000  -0.1036308   0.0000000), wk =   0.0555556
        k(    5) = (   0.0299156   0.0172718   0.0000000), wk =   0.1111111
        k(    6) = (   0.0299156   0.0518154   0.0000000), wk =   0.1111111
        k(    7) = (   0.0299156   0.0863590   0.0000000), wk =   0.1111111
        k(    8) = (   0.0299156  -0.0863590   0.0000000), wk =   0.1111111
        k(    9) = (   0.0299156  -0.0518154   0.0000000), wk =   0.1111111
        k(   10) = (   0.0299156  -0.0172718   0.0000000), wk =   0.1111111
        k(   11) = (   0.0598312   0.0345436   0.0000000), wk =   0.1111111
        k(   12) = (   0.0598312   0.0690872   0.0000000), wk =   0.1111111
        k(   13) = (   0.0598312   0.1036308   0.0000000), wk =   0.1111111
        k(   14) = (   0.0598312  -0.0690872   0.0000000), wk =   0.1111111
        k(   15) = (   0.0598312  -0.0345436   0.0000000), wk =   0.1111111
        k(   16) = (   0.0598312  -0.0000000   0.0000000), wk =   0.1111111
        k(   17) = (  -0.0897469  -0.0518154   0.0000000), wk =   0.0555556
        k(   18) = (  -0.0897469  -0.0172718   0.0000000), wk =   0.1111111
        k(   19) = (  -0.0897469   0.0172718   0.0000000), wk =   0.1111111
        k(   20) = (  -0.0897469  -0.1554461   0.0000000), wk =   0.0555556

     Largest allocated arrays     est. size (Mb)     dimensions
     Largest temporary arrays     est. size (Mb)     dimensions

     Initial potential from superposition of free atoms
     Check: negative starting charge=   -1.072315

     starting charge  182.99980, renormalised to  189.00000

     negative rho (up, down):  1.107E+00 0.000E+00

     *
     * You are using vdW-DF for exchange-correlation in this calculation.
     * Please cite the following three references that made this development
     * possible:
     *
     *   M. Dion, H. Rydberg, E. Schroder, D. C. Langreth, and
     *   B. I. Lundqvist, Phys. Rev. Lett. 92, 246401 (2004).
     *
     *   T. Thonhauser, V. R. Cooper, S. Li, A. Puzder, P. Hyldgaard, and
     *   D. C. Langreth, Phys. Rev. B 76, 125112 (2007).
     *
     *   G. Roman-Perez and J. M. Soler, Phys. Rev. Lett. 103, 096102 (2009).
     *
     *
     * If you are using vdW-DF2, please also cite:
     *
     *   K. Lee, E. D. Murray, L. Kong, B. I. Lundqvist, and
     *   D. C. Langreth, Phys. Rev. B 82, 081101(R) (2010).
     *
     *
     * If you are calculating the stress with vdW-DF, please also cite:
     *
     *   R. Sabatini, E. Kucukbenli, B. Kolb, T. Thonhauser, and
     *   S. de Gironcoli, J. Phys.: Condens. Matter 24, 424209 (2012).
     *

     Carrying out vdW-DF run using the following parameters:

     Nqs =      20    Nr_points =    1024   r_max =   100.000
     q_mesh =
               0.00001000     0.04494208     0.09755937     0.15916263
               0.23128650     0.31572767     0.41458969     0.53033537
               0.66584808     0.82450364     1.01025438     1.22772762
               1.48234092     1.78043706     2.12944203     2.53805004
               3.01644009     3.57652955     4.23227104     5.00000000

     Gradients computed in reciprocal space

     Adding external electric field

     Computed dipole along edir(3) :
        Dipole               -0.0000 Ry au,         -0.0000 Debye
        Dipole field         -0.0000 Ry au

        Potential amp.        0.0000 Ry
        Total length         45.2309 bohr

     Starting wfc are  147 randomized atomic wfcs

     Self-consistent Calculation

     iteration #  1     ecut=    36.75 Ry     beta=0.10
     Davidson diagonalization with overlap
     ethr =  1.00E-02,  avg # of iterations =  7.8

[...]

     total energy              =   -2372.00906709 Ry
     Harris-Foulkes estimate   =   -2379.54471268 Ry
     estimated scf accuracy    <      43.27765663 Ry

[...]

     End of self-consistent calculation

          k = 0.0000 0.0000 0.0000 ( 16703 PWs)   bands (ev):

   -79.4781 -79.0486 -79.0486 -49.2092 -49.1592 -49.1592 -49.0798 -49.0798
   -49.0381 -49.0079 -48.8961 -48.8961 -48.8677 -48.8676 -48.8246 -48.8246
   -48.8044 -48.8034 -48.7618 -48.7587 -48.6233 -48.6233 -48.6198 -48.6198
   -48.5695 -48.5482 -48.4975 -48.4975 -48.4912 -48.4912 -41.1863 -41.0709
   -41.0709 -40.7110 -40.7110 -40.7097 -40.7097 -40.6865 -40.6814  -5.7038
    -4.2309  -4.2039  -3.9000  -3.9000  -3.7923  -3.5828  -3.5619  -3.5619
    -3.3756  -3.3756  -3.3485  -3.0979  -3.0979  -3.0972  -2.0977  -2.0977
    -2.0837  -1.8372  -1.8372  -1.6722  -1.5518  -1.4598  -1.4598  -1.3916
    -1.2249  -1.2249  -1.1740  -1.0315  -1.0315  -0.9898  -0.9898  -0.6080
    -0.6080  -0.2634   0.0453   0.0453   0.0640   0.0640   0.1681   0.1681
     0.3202   0.5476   0.8138   0.8138   0.8600   0.8801   1.1609   1.2092
     1.2624   1.6466   1.6466   1.9228   1.9228   2.2803   2.2803   2.3811
     2.4321   2.4321   2.5024   2.5766   2.5766   2.9699   2.9699   3.2518
     3.2518   3.5448   4.9302   4.9302   5.0314   5.0314   5.2732   5.2951
     6.0665   6.3091   6.7194   7.6417   7.9331   8.1547   8.6120   8.7669
     8.7669   8.7789   8.7789   9.1128

[...]

          k =-0.0897-0.0518 0.0000 ( 16784 PWs)   bands (ev):

[...]

     the Fermi energy is     1.6267 ev

!    total energy              =   -2374.21812687 Ry
     Harris-Foulkes estimate   =   -2374.21813038 Ry
     estimated scf accuracy    <       0.00000056 Ry

     The total energy is the sum of the following terms:

     one-electron contribution =  -19894.01556213 Ry
     hartree contribution      =    9976.95860617 Ry
     xc contribution           =    -454.41019883 Ry
     ewald contribution        =    7997.34416668 Ry
     electric field correction =       0.00000000 Ry
     smearing contrib. (-TS)   =      -0.09513876 Ry

     convergence has been achieved in  17 iterations

 BEEF-vdW xc energy contributions
           1 :   -398.599225041807
           2 :    366.691227742290
           3 :   -311.178453163421
           4 :    245.369538239086
           5 :   -182.814741381663
           6 :    133.123946085296
           7 :   -99.8414099202987
           8 :    80.8416022574314
[...]
     Generated by new atomic code, or converted to UPF format
     Using radial grid of  887 points,  6 beta functions with:
                l(1) =   0
                l(2) =   0
                l(3) =   1
                l(4) =   1
                l(5) =   2
                l(6) =   2
     Q(r) pseudized with  8 coefficients,  rinner =    1.130   1.130   1.130
                                                       1.130   1.130

     PseudoPot. # 2 for Re read from file:
     /afs/slac.stanford.edu/u/if/mamunm/psp/gbrv1.5pbe/Re.UPF
     MD5 check sum: 85f993410f3e006da9d71c142b4ad953
     Pseudo is Ultrasoft + core correction, Zval = 15.0
     Generated by new atomic code, or converted to UPF format
     Using radial grid of  981 points,  8 beta functions with:
                l(1) =   0
                l(2) =   0
                l(3) =   1
                l(4) =   1
                l(5) =   2
                l(6) =   2
                l(7) =   3
                l(8) =   3
     Q(r) pseudized with  8 coefficients,  rinner =    1.150   1.150   1.150
                                                       1.150   1.150   1.150
                                                       1.150

     vdW kernel table read from file vdW_kernel_table
     MD5 check sum: 095c7af220d748ca6e76c0b4c6cfb241

     atomic species   valence    mass     pseudopotential
        Pd1           16.00   106.42000     Pd( 1.00)
        Re1           15.00   186.20700     Re( 1.00)

     No symmetry found

   Cartesian axes

     site n.     atom                  positions (alat units)
         1           Pd1 tau(   1) = (   0.0000000   0.0000000  10.0000000  )
         2           Pd1 tau(   2) = (  -1.3928063   2.4124113  10.0000000  )
         3           Pd1 tau(   3) = (   1.3928063   2.4124113  10.0000000  )
         4           Re1 tau(   4) = (   2.7856126   0.0000000  10.0000000  )
         5           Pd1 tau(   5) = (   2.7856126   1.6082742  12.2744432  )
         6           Pd1 tau(   6) = (   1.3928063   4.0206855  12.2744432  )
         7           Pd1 tau(   7) = (  -1.3928063   4.0206855  12.2744432  )
         8           Re1 tau(   8) = (   0.0000000   1.6082742  12.2744432  )
         9           Pd1 tau(   9) = (  -0.0000017   3.1833107  14.5508903  )
        10           Pd1 tau(  10) = (   1.3640202   0.8207558  14.5508876  )
        11           Pd1 tau(  11) = (   4.2072014   0.8207593  14.5508896  )
        12           Re1 tau(  12) = (   2.7856173   3.2165508  14.4118189  )

     number of k points=    20  Fermi-Dirac smearing, width (Ry)=  0.0110
                       cart. coord. in units 2pi/alat
        k(    1) = (   0.0000000   0.0000000   0.0000000), wk =   0.0555556
        k(    2) = (   0.0000000   0.0345436   0.0000000), wk =   0.1111111
        k(    3) = (   0.0000000   0.0690872   0.0000000), wk =   0.1111111
        k(    4) = (   0.0000000  -0.1036308   0.0000000), wk =   0.0555556
        k(    5) = (   0.0299156   0.0172718   0.0000000), wk =   0.1111111
        k(    6) = (   0.0299156   0.0518154   0.0000000), wk =   0.1111111
        k(    7) = (   0.0299156   0.0863590   0.0000000), wk =   0.1111111
        k(    8) = (   0.0299156  -0.0863590   0.0000000), wk =   0.1111111
        k(    9) = (   0.0299156  -0.0518154   0.0000000), wk =   0.1111111
        k(   10) = (   0.0299156  -0.0172718   0.0000000), wk =   0.1111111
        k(   11) = (   0.0598312   0.0345436   0.0000000), wk =   0.1111111
        k(   12) = (   0.0598312   0.0690872   0.0000000), wk =   0.1111111
        k(   13) = (   0.0598312   0.1036308   0.0000000), wk =   0.1111111
        k(   14) = (   0.0598312  -0.0690872   0.0000000), wk =   0.1111111
        k(   15) = (   0.0598312  -0.0345436   0.0000000), wk =   0.1111111
        k(   16) = (   0.0598312  -0.0000000   0.0000000), wk =   0.1111111
        k(   17) = (  -0.0897469  -0.0518154   0.0000000), wk =   0.0555556
        k(   18) = (  -0.0897469  -0.0172718   0.0000000), wk =   0.1111111
        k(   19) = (  -0.0897469   0.0172718   0.0000000), wk =   0.1111111
        k(   20) = (  -0.0897469  -0.1554461   0.0000000), wk =   0.0555556

     Largest allocated arrays     est. size (Mb)     dimensions
     Largest temporary arrays     est. size (Mb)     dimensions

     Initial potential from superposition of free atoms
     Check: negative starting charge=   -1.067408

     starting charge  182.99980, renormalised to  189.00000

[...]

     *
     * You are using vdW-DF for exchange-correlation in this calculation.
     * Please cite the following three references that made this development
     * possible:
     *
     *   M. Dion, H. Rydberg, E. Schroder, D. C. Langreth, and
     *   B. I. Lundqvist, Phys. Rev. Lett. 92, 246401 (2004).
     *
     *   T. Thonhauser, V. R. Cooper, S. Li, A. Puzder, P. Hyldgaard, and
     *   D. C. Langreth, Phys. Rev. B 76, 125112 (2007).
     *
     *   G. Roman-Perez and J. M. Soler, Phys. Rev. Lett. 103, 096102 (2009).
     *
     *
     * If you are using vdW-DF2, please also cite:
     *
     *   K. Lee, E. D. Murray, L. Kong, B. I. Lundqvist, and
     *   D. C. Langreth, Phys. Rev. B 82, 081101(R) (2010).
     *
     *
     * If you are calculating the stress with vdW-DF, please also cite:
     *
     *   R. Sabatini, E. Kucukbenli, B. Kolb, T. Thonhauser, and
     *   S. de Gironcoli, J. Phys.: Condens. Matter 24, 424209 (2012).
     *

     Carrying out vdW-DF run using the following parameters:

     Nqs =      20    Nr_points =    1024   r_max =   100.000
     q_mesh =
               0.00001000     0.04494208     0.09755937     0.15916263
               0.23128650     0.31572767     0.41458969     0.53033537
               0.66584808     0.82450364     1.01025438     1.22772762
               1.48234092     1.78043706     2.12944203     2.53805004
               3.01644009     3.57652955     4.23227104     5.00000000

     Gradients computed in reciprocal space

[...]

     Starting wfc are  147 randomized atomic wfcs

     Self-consistent Calculation

[...]

     total energy              =   -2374.22964298 Ry
     Harris-Foulkes estimate   =   -2374.22964785 Ry
     estimated scf accuracy    <       0.00004886 Ry

     iteration # 17     ecut=    36.75 Ry     beta=0.10
     Davidson diagonalization with overlap
     ethr =  7.34E-09,  avg # of iterations =  1.9

[...]

     negative rho (up, down):  1.106E+00 0.000E+00

     Adding external electric field

     Computed dipole along edir(3) :
        Dipole                0.0145 Ry au,          0.0369 Debye
        Dipole field          0.0000 Ry au

        Potential amp.       -0.0037 Ry
        Total length         45.2309 bohr

     End of self-consistent calculation

[...]

          k = 0.0598-0.0000 0.0000 ( 16738 PWs)   bands (ev):

[...]

          k =-0.0897-0.1554 0.0000 ( 16784 PWs)   bands (ev):

   -79.4460 -79.0667 -78.9863 -49.2574 -49.2093 -49.1824 -49.1647 -49.1408
   -49.1078 -49.0110 -48.9766 -48.9211 -48.8362 -48.8307 -48.8040 -48.7957
   -48.7754 -48.7647 -48.7276 -48.7123 -48.6625 -48.6603 -48.6118 -48.6070
   -48.5348 -48.5254 -48.5149 -48.5024 -48.4817 -48.4781 -41.1672 -41.0476
   -41.0425 -40.7346 -40.7304 -40.7296 -40.6665 -40.6615 -40.6103  -4.3595
    -4.1024  -3.3438  -3.2899  -3.1551  -3.1076  -3.0883  -2.9459  -2.9261
    -2.8127  -2.7195  -2.5970  -2.4473  -2.4242  -2.4156  -2.2838  -2.1403
    -2.0248  -2.0219  -1.9930  -1.7462  -1.6499  -1.5822  -1.4310  -1.3059
    -1.2651  -1.2345  -1.2022  -1.0791  -1.0746  -1.0508  -1.0063  -0.9761
    -0.8968  -0.8663  -0.8298  -0.7071  -0.6654  -0.6450  -0.5064  -0.4294
    -0.3724  -0.3424  -0.1669  -0.1195  -0.0804   0.2308   0.2877   0.5613
     0.6758   0.6828   0.9561   1.1517   1.1958   1.3072   1.3768   1.3910
     1.4715   1.7640   1.9237   2.0105   2.0493   2.2126   2.8353   3.5209
     3.5430   3.8425   4.8476   4.9948   5.5801   6.0367   6.2789   7.1137
     7.1783   7.5649   7.6170   8.1590   8.1830   8.2737   8.2913   9.2443
     9.3796   9.4108   9.5966   9.9297

     the Fermi energy is     1.6502 ev

!    total energy              =   -2374.22963989 Ry
     Harris-Foulkes estimate   =   -2374.22964430 Ry
     estimated scf accuracy    <       0.00000061 Ry

     The total energy is the sum of the following terms:

     one-electron contribution =  -19980.82151193 Ry
     hartree contribution      =   10020.36609474 Ry
     xc contribution           =    -454.49610933 Ry
     ewald contribution        =    8040.81657290 Ry
     electric field correction =       0.00000059 Ry
     smearing contrib. (-TS)   =      -0.09468688 Ry

     convergence has been achieved in  17 iterations

 BEEF-vdW xc energy contributions
           1 :   -398.840934057976
           2 :    366.964861303952
           3 :   -311.496917289133
           4 :    245.714825342834
           5 :   -183.141409048901
           6 :    133.380403645927
           7 :   -99.9993518173858
           8 :    80.9157160786956
           9 :   -70.7265346530102
          10 :    63.7119946670541
          11 :   -56.1737933248896
          12 :    47.2785009170778
          13 :   -38.3941255392814
          14 :    31.5759391520490
          15 :   -28.1129533988634
          16 :    27.8155570717942
          17 :   -29.2318764700009
          18 :    30.4953904186008
          19 :   -30.2626372780284
          20 :    28.2485914786026
          21 :   -25.1564234902928
          22 :    22.1364506023255
          23 :   -20.1254244998358
          24 :    19.4120534126156
          25 :   -19.6062771613256
          26 :    19.9582427113500
          27 :   -19.8092874274231
          28 :    18.9195885889890
          29 :   -17.5205641974050
          30 :    16.1048116327742
          31 :   -36.7340496548587
          32 :   -27.2000789659845

     Forces acting on atoms (Ry/au):

     negative rho (up, down):  1.106E+00 0.000E+00
     atom    1 type  1   force =    -0.00000028    0.01844475   -0.00210352
     atom    2 type  1   force =     0.01597198   -0.00922181   -0.00210286
     atom    3 type  1   force =    -0.01597276   -0.00922221   -0.00210314
     atom    4 type  2   force =    -0.00000082   -0.00000373    0.02602865
     atom    5 type  1   force =    -0.00000046   -0.00672394   -0.00562156
     atom    6 type  1   force =    -0.00582307    0.00336214   -0.00562091
     atom    7 type  1   force =     0.00582316    0.00336223   -0.00562185
     atom    8 type  2   force =     0.00000458    0.00000271   -0.00198531
     atom    9 type  1   force =     0.00000015    0.00119310   -0.00059402
     atom   10 type  1   force =     0.00103153   -0.00059530   -0.00059384
     atom   11 type  1   force =    -0.00103185   -0.00059674   -0.00059407
     atom   12 type  2   force =    -0.00000215   -0.00000121    0.00091242

     Total force =     0.044179     Total SCF correction =     0.002595

     entering subroutine stress ...

     negative rho (up, down):  1.106E+00 0.000E+00
          total   stress  (Ry/bohr**3)                   (kbar)     P=  -17.28
  -0.00015583   0.00000000   0.00000000        -22.92      0.00      0.00
   0.00000000  -0.00015583   0.00000000          0.00    -22.92      0.00
   0.00000000   0.00000000  -0.00004084          0.00      0.00     -6.01

 !ASE

     Writing output data file calc.save

     General routines

     Parallel routines

   This run was terminated on:  18:11:34  27Dec2018

   JOB DONE.
Job  /afs/slac/g/suncat/bin/suncat-tsmpirun -x LD_LIBRARY_PATH -wdir /scratch/qe110471_MSYiY pw.x -in pw.inp

TID   HOST_NAME   COMMAND_LINE            STATUS            TERMINATION_TIME
00000 suncat0271 pw.x -in pw.inp   Done                     12/27/2018 18:11:34
00001 suncat0271 pw.x -in pw.inp   Done                     12/27/2018 18:11:34
00002 suncat0271 pw.x -in pw.inp   Done                     12/27/2018 18:11:34
00003 suncat0271 pw.x -in pw.inp   Done                     12/27/2018 18:11:34
00004 suncat0271 pw.x -in pw.inp   Done                     12/27/2018 18:11:34
00005 suncat0271 pw.x -in pw.inp   Done                     12/27/2018 18:11:34
00006 suncat0271 pw.x -in pw.inp   Done                     12/27/2018 18:11:34
00007 suncat0271 pw.x -in pw.inp   Done                     12/27/2018 18:11:34
00008 suncat0260 pw.x -in pw.inp   Done                     12/27/2018 18:11:34
00009 suncat0260 pw.x -in pw.inp   Done                     12/27/2018 18:11:34
00010 suncat0260 pw.x -in pw.inp   Done                     12/27/2018 18:11:34
00011 suncat0260 pw.x -in pw.inp   Done                     12/27/2018 18:11:34
00012 suncat0260 pw.x -in pw.inp   Done                     12/27/2018 18:11:34
00013 suncat0260 pw.x -in pw.inp   Done                     12/27/2018 18:11:34
00014 suncat0260 pw.x -in pw.inp   Done                     12/27/2018 18:11:34
00015 suncat0260 pw.x -in pw.inp   Done                     12/27/2018 18:11:34
00016 suncat0259 pw.x -in pw.inp   Done                     12/27/2018 18:11:34
00017 suncat0259 pw.x -in pw.inp   Done                     12/27/2018 18:11:34
00018 suncat0259 pw.x -in pw.inp   Done                     12/27/2018 18:11:34
00019 suncat0259 pw.x -in pw.inp   Done                     12/27/2018 18:11:34
00020 suncat0259 pw.x -in pw.inp   Done                     12/27/2018 18:11:34
00021 suncat0259 pw.x -in pw.inp   Done                     12/27/2018 18:11:34
00022 suncat0259 pw.x -in pw.inp   Done                     12/27/2018 18:11:34
00023 suncat0259 pw.x -in pw.inp   Done                     12/27/2018 18:11:34
00024 suncat0232 pw.x -in pw.inp   Done                     12/27/2018 18:11:34
00025 suncat0232 pw.x -in pw.inp   Done                     12/27/2018 18:11:34
00026 suncat0232 pw.x -in pw.inp   Done                     12/27/2018 18:11:34
00027 suncat0232 pw.x -in pw.inp   Done                     12/27/2018 18:11:34
00028 suncat0232 pw.x -in pw.inp   Done                     12/27/2018 18:11:34
00029 suncat0232 pw.x -in pw.inp   Done                     12/27/2018 18:11:34
00030 suncat0232 pw.x -in pw.inp   Done                     12/27/2018 18:11:34
00031 suncat0232 pw.x -in pw.inp   Done                     12/27/2018 18:11:34
00032 suncat0220 pw.x -in pw.inp   Done                     12/27/2018 18:11:34
00033 suncat0220 pw.x -in pw.inp   Done                     12/27/2018 18:11:34
00034 suncat0220 pw.x -in pw.inp   Done                     12/27/2018 18:11:34
00035 suncat0220 pw.x -in pw.inp   Done                     12/27/2018 18:11:34
00036 suncat0220 pw.x -in pw.inp   Done                     12/27/2018 18:11:34
00037 suncat0220 pw.x -in pw.inp   Done                     12/27/2018 18:11:34
00038 suncat0220 pw.x -in pw.inp   Done                     12/27/2018 18:11:34
00039 suncat0220 pw.x -in pw.inp   Done                     12/27/2018 18:11:34
00040 suncat0219 pw.x -in pw.inp   Done                     12/27/2018 18:11:34
00041 suncat0219 pw.x -in pw.inp   Done                     12/27/2018 18:11:34
00042 suncat0219 pw.x -in pw.inp   Done                     12/27/2018 18:11:34
00043 suncat0219 pw.x -in pw.inp   Done                     12/27/2018 18:11:34
00044 suncat0219 pw.x -in pw.inp   Done                     12/27/2018 18:11:34
00045 suncat0219 pw.x -in pw.inp   Done                     12/27/2018 18:11:34
00046 suncat0219 pw.x -in pw.inp   Done                     12/27/2018 18:11:34
00047 suncat0219 pw.x -in pw.inp   Done                     12/27/2018 18:11:34
00048 suncat0201 pw.x -in pw.inp   Done                     12/27/2018 18:11:34
00049 suncat0201 pw.x -in pw.inp   Done                     12/27/2018 18:11:34
00050 suncat0201 pw.x -in pw.inp   Done                     12/27/2018 18:11:34
00051 suncat0201 pw.x -in pw.inp   Done                     12/27/2018 18:11:34
00052 suncat0201 pw.x -in pw.inp   Done                     12/27/2018 18:11:34
00053 suncat0201 pw.x -in pw.inp   Done                     12/27/2018 18:11:34
00054 suncat0201 pw.x -in pw.inp   Done                     12/27/2018 18:11:34
00055 suncat0201 pw.x -in pw.inp   Done                     12/27/2018 18:11:34
00056 suncat0200 pw.x -in pw.inp   Done                     12/27/2018 18:11:34
00057 suncat0200 pw.x -in pw.inp   Done                     12/27/2018 18:11:34
00058 suncat0200 pw.x -in pw.inp   Done                     12/27/2018 18:11:34
00059 suncat0200 pw.x -in pw.inp   Done                     12/27/2018 18:11:34
00060 suncat0200 pw.x -in pw.inp   Done                     12/27/2018 18:11:34
00061 suncat0200 pw.x -in pw.inp   Done                     12/27/2018 18:11:34
00062 suncat0200 pw.x -in pw.inp   Done                     12/27/2018 18:11:34
00063 suncat0200 pw.x -in pw.inp   Done                     12/27/2018 18:11:34