     Program PWSCF v.5.1rc2 (svn rev. 11289) starts on 25Dec2018 at 13:28:10

     Current dimensions of program PWSCF are:
     Max number of different atomic species (ntypx) = 10
     Max number of k-points (npk) =  40000
     Max angular momentum in pseudopotentials (lmaxx) =  3
     Presently stress not available with electric field

     IMPORTANT: XC functional enforced from input :
     Exchange-correlation      = BEEF-VDW ( 1  4 27 13 2)
     Any further DFT definition will be discarded
     Please, verify this is what you really want

     Subspace diagonalization in iterative solution of the eigenvalue problem:
     a serial algorithm will be used

     bravais-lattice index     =            0
     lattice parameter (alat)  =       1.8897  a.u.
     unit-cell volume          =    3847.6520 (a.u.)^3
     number of atoms/cell      =           12
     number of atomic types    =            2
     number of electrons       =       174.00
     number of Kohn-Sham states=          117
     kinetic-energy cutoff     =      36.7493  Ry
     charge density cutoff     =     367.4932  Ry
     convergence threshold     =      1.0E-06
     mixing beta               =       0.1000
     number of iterations used =           10  plain     mixing
     Exchange-correlation      = BEEF-VDW ( 1  4 27 13 2)
     nstep                     =           50

     celldm(1)=   1.889726  celldm(2)=   0.000000  celldm(3)=   0.000000
     celldm(4)=   0.000000  celldm(5)=   0.000000  celldm(6)=   0.000000

     crystal axes: (cart. coord. in units of alat)
               a(1) = (   5.210059   0.000000   0.000000 )
               a(2) = (  -2.605029   4.512043   0.000000 )
               a(3) = (   0.000000   0.000000  24.253995 )

     reciprocal axes: (cart. coord. in units 2 pi/alat)
               b(1) = (  0.191936  0.110815  0.000000 )
               b(2) = (  0.000000  0.221629  0.000000 )
               b(3) = (  0.000000  0.000000  0.041230 )

     PseudoPot. # 1 for Cr read from file:
     /afs/slac.stanford.edu/u/if/mamunm/psp/gbrv1.5pbe/Cr.UPF
     MD5 check sum: 0d52af634a40206e4dee301ad30da4bf
     Pseudo is Ultrasoft + core correction, Zval = 14.0
     Generated by new atomic code, or converted to UPF format
     Using radial grid of  857 points,  6 beta functions with:
                l(1) =   0
                l(2) =   0
                l(3) =   1
                l(4) =   1
                l(5) =   2
                l(6) =   2
     Q(r) pseudized with  8 coefficients,  rinner =    0.950   0.950   0.950
                                                       0.950   0.950

     PseudoPot. # 2 for Ru read from file:
     /afs/slac.stanford.edu/u/if/mamunm/psp/gbrv1.5pbe/Ru.UPF
     MD5 check sum: 7158a806dd851261a58e6920c40ebe78
     Pseudo is Ultrasoft + core correction, Zval = 16.0
     Generated by new atomic code, or converted to UPF format
     Using radial grid of  967 points,  6 beta functions with:
                l(1) =   0
                l(2) =   0
                l(3) =   1
                l(4) =   1
                l(5) =   2
                l(6) =   2
     Q(r) pseudized with  8 coefficients,  rinner =    1.300   1.300   1.300
                                                       1.300   1.300

     vdW kernel table read from file vdW_kernel_table
     MD5 check sum: 095c7af220d748ca6e76c0b4c6cfb241

     atomic species   valence    mass     pseudopotential
        Cr1           14.00    51.99610     Cr( 1.00)
        Ru1           16.00   101.07000     Ru( 1.00)

     No symmetry found

   Cartesian axes

     site n.     atom                  positions (alat units)
         1           Cr1 tau(   1) = (   0.0000000   0.0000000  10.0000000  )
         2           Cr1 tau(   2) = (  -1.3025147   2.2560217  10.0000000  )
         3           Cr1 tau(   3) = (   1.3025147   2.2560217  10.0000000  )
         4           Ru1 tau(   4) = (   2.6050294   0.0000000  10.0000000  )
         5           Cr1 tau(   5) = (   2.6050294   1.5040144  12.1269976  )
         6           Cr1 tau(   6) = (   1.3025147   3.7600361  12.1269976  )
         7           Cr1 tau(   7) = (  -1.3025147   3.7600361  12.1269976  )
         8           Ru1 tau(   8) = (   0.0000000   1.5040144  12.1269976  )
         9           Cr1 tau(   9) = (  -0.0000000   3.0080289  14.2539953  )
        10           Cr1 tau(  10) = (   1.3025147   0.7520072  14.2539953  )
        11           Cr1 tau(  11) = (   3.9075442   0.7520072  14.2539953  )
        12           Ru1 tau(  12) = (   2.6050294   3.0080289  14.2539953  )

     number of k points=    20  Fermi-Dirac smearing, width (Ry)=  0.0110
                       cart. coord. in units 2pi/alat
        k(    1) = (   0.0000000   0.0000000   0.0000000), wk =   0.0555556
        k(    2) = (   0.0000000   0.0369382   0.0000000), wk =   0.1111111
        k(    3) = (   0.0000000   0.0738764   0.0000000), wk =   0.1111111
        k(    4) = (   0.0000000  -0.1108145   0.0000000), wk =   0.0555556
        k(    5) = (   0.0319894   0.0184691   0.0000000), wk =   0.1111111
        k(    6) = (   0.0319894   0.0554073   0.0000000), wk =   0.1111111
        k(    7) = (   0.0319894   0.0923454   0.0000000), wk =   0.1111111
        k(    8) = (   0.0319894  -0.0923454   0.0000000), wk =   0.1111111
        k(    9) = (   0.0319894  -0.0554073   0.0000000), wk =   0.1111111
        k(   10) = (   0.0319894  -0.0184691   0.0000000), wk =   0.1111111
        k(   11) = (   0.0639788   0.0369382   0.0000000), wk =   0.1111111
        k(   12) = (   0.0639788   0.0738764   0.0000000), wk =   0.1111111
        k(   13) = (   0.0639788   0.1108145   0.0000000), wk =   0.1111111
        k(   14) = (   0.0639788  -0.0738764   0.0000000), wk =   0.1111111
        k(   15) = (   0.0639788  -0.0369382   0.0000000), wk =   0.1111111
        k(   16) = (   0.0639788   0.0000000   0.0000000), wk =   0.1111111
        k(   17) = (  -0.0959682  -0.0554073   0.0000000), wk =   0.0555556
        k(   18) = (  -0.0959682  -0.0184691   0.0000000), wk =   0.1111111
        k(   19) = (  -0.0959682   0.0184691   0.0000000), wk =   0.1111111
        k(   20) = (  -0.0959682  -0.1662218   0.0000000), wk =   0.0555556

     Largest allocated arrays     est. size (Mb)     dimensions
     Largest temporary arrays     est. size (Mb)     dimensions

     Check: negative/imaginary core charge=   -0.000004    0.000000

     Initial potential from superposition of free atoms
     Check: negative starting charge=   -0.230338

     starting charge  161.99981, renormalised to  174.00000

     negative rho (up, down):  2.474E-01 0.000E+00

     *
     * You are using vdW-DF for exchange-correlation in this calculation.
     * Please cite the following three references that made this development
     * possible:
     *
     *   M. Dion, H. Rydberg, E. Schroder, D. C. Langreth, and
     *   B. I. Lundqvist, Phys. Rev. Lett. 92, 246401 (2004).
     *
     *   T. Thonhauser, V. R. Cooper, S. Li, A. Puzder, P. Hyldgaard, and
     *   D. C. Langreth, Phys. Rev. B 76, 125112 (2007).
     *
     *   G. Roman-Perez and J. M. Soler, Phys. Rev. Lett. 103, 096102 (2009).
     *
     *
     * If you are using vdW-DF2, please also cite:
     *
     *   K. Lee, E. D. Murray, L. Kong, B. I. Lundqvist, and
     *   D. C. Langreth, Phys. Rev. B 82, 081101(R) (2010).
     *
     *
     * If you are calculating the stress with vdW-DF, please also cite:
     *
     *   R. Sabatini, E. Kucukbenli, B. Kolb, T. Thonhauser, and
     *   S. de Gironcoli, J. Phys.: Condens. Matter 24, 424209 (2012).
     *

     Carrying out vdW-DF run using the following parameters:

     Nqs =      20    Nr_points =    1024   r_max =   100.000
     q_mesh =
               0.00001000     0.04494208     0.09755937     0.15916263
               0.23128650     0.31572767     0.41458969     0.53033537
               0.66584808     0.82450364     1.01025438     1.22772762
               1.48234092     1.78043706     2.12944203     2.53805004
               3.01644009     3.57652955     4.23227104     5.00000000

     Gradients computed in reciprocal space

     Adding external electric field

     Computed dipole along edir(3) :
        Dipole                0.0000 Ry au,          0.0000 Debye
        Dipole field          0.0000 Ry au

        Potential amp.       -0.0000 Ry
        Total length         44.6876 bohr

     Starting wfc are  129 randomized atomic wfcs

     Self-consistent Calculation

     iteration #  1     ecut=    36.75 Ry     beta=0.10
     Davidson diagonalization with overlap
     ethr =  1.00E-02,  avg # of iterations =  8.3

[...]

     total energy              =   -2173.66060833 Ry
     Harris-Foulkes estimate   =   -2178.41330769 Ry
     estimated scf accuracy    <      29.14494449 Ry

[...]

     End of self-consistent calculation

          k = 0.0000 0.0000 0.0000 ( 14525 PWs)   bands (ev):

   -71.4403 -71.1403 -71.1387 -70.2930 -70.2214 -70.2212 -70.2063 -70.1953
   -70.1403 -70.1403 -70.1371 -70.1370 -41.9384 -41.9383 -41.9029 -41.8586
   -41.7960 -41.7959 -41.7549 -41.7191 -41.7191 -41.6646 -41.6021 -41.5401
   -41.5401 -41.5266 -41.5266 -41.4546 -41.4181 -41.4180 -41.4155 -41.3563
   -41.3562 -41.3375 -41.3105 -41.2466 -41.2287 -41.2287 -41.2043 -41.2043
   -41.1261 -41.1261 -41.1039 -41.0071 -40.9329 -40.9329 -40.9213 -40.9213
    -5.2621  -3.6108  -3.1192  -3.1192  -3.0361  -2.7593  -2.7593  -2.1965
    -2.1965  -2.1909  -2.1909  -2.1742  -1.9956  -1.8364  -1.3241  -1.2436
    -1.2436  -0.4883  -0.3798  -0.3797  -0.1421   0.1402   0.3623   0.7267
     0.7268   0.8631   0.8748   0.8748   0.9056   0.9056   1.0781   1.0781
     1.1262   1.2003   1.2366   1.2366   1.7831   2.0075   2.0075   2.0333
     2.0333   2.1361   2.2080   2.3589   2.3589   2.7066   2.7066   3.0419
     3.0676   3.0676   3.2430   3.2612   3.2613   3.3672   3.3672   3.4264
     3.6861   3.6960   3.6960   3.7462   3.7463   3.8529   3.8984   3.9483
     3.9483   4.0018   4.0018   5.6678   5.7891

[...]

          k =-0.0960-0.0554 0.0000 ( 14410 PWs)   bands (ev):

[...]

     the Fermi energy is     1.4759 ev

!    total energy              =   -2171.52190248 Ry
     Harris-Foulkes estimate   =   -2171.52190661 Ry
     estimated scf accuracy    <       0.00000081 Ry

     The total energy is the sum of the following terms:

     one-electron contribution =  -19970.97318510 Ry
     hartree contribution      =    9978.12942076 Ry
     xc contribution           =    -289.72738221 Ry
     ewald contribution        =    8111.16223986 Ry
     electric field correction =       0.00000000 Ry
     smearing contrib. (-TS)   =      -0.11299580 Ry

     convergence has been achieved in  24 iterations

 BEEF-vdW xc energy contributions
           1 :   -251.024388185624
           2 :    227.277217882192
           3 :   -187.262364032764
           4 :    142.507333011788
           5 :   -103.752951915905
           6 :    77.1400524377325
           7 :   -63.0067786319055
           8 :    57.3780804489601
           9 :   -54.9264689962843
          10 :    51.7018621694272
          11 :   -46.4142859506955
          12 :    40.0391291528115
[...]
     MD5 check sum: 0d52af634a40206e4dee301ad30da4bf
     Pseudo is Ultrasoft + core correction, Zval = 14.0
     Generated by new atomic code, or converted to UPF format
     Using radial grid of  857 points,  6 beta functions with:
                l(1) =   0
                l(2) =   0
                l(3) =   1
                l(4) =   1
                l(5) =   2
                l(6) =   2
     Q(r) pseudized with  8 coefficients,  rinner =    0.950   0.950   0.950
                                                       0.950   0.950

     PseudoPot. # 2 for Ru read from file:
     /afs/slac.stanford.edu/u/if/mamunm/psp/gbrv1.5pbe/Ru.UPF
     MD5 check sum: 7158a806dd851261a58e6920c40ebe78
     Pseudo is Ultrasoft + core correction, Zval = 16.0
     Generated by new atomic code, or converted to UPF format
     Using radial grid of  967 points,  6 beta functions with:
                l(1) =   0
                l(2) =   0
                l(3) =   1
                l(4) =   1
                l(5) =   2
                l(6) =   2
     Q(r) pseudized with  8 coefficients,  rinner =    1.300   1.300   1.300
                                                       1.300   1.300

     vdW kernel table read from file vdW_kernel_table
     MD5 check sum: 095c7af220d748ca6e76c0b4c6cfb241

     atomic species   valence    mass     pseudopotential
        Cr1           14.00    51.99610     Cr( 1.00)
        Ru1           16.00   101.07000     Ru( 1.00)

     No symmetry found

   Cartesian axes

     site n.     atom                  positions (alat units)
         1           Cr1 tau(   1) = (   0.0000000   0.0000000  10.0000000  )
         2           Cr1 tau(   2) = (  -1.3025147   2.2560217  10.0000000  )
         3           Cr1 tau(   3) = (   1.3025147   2.2560217  10.0000000  )
         4           Ru1 tau(   4) = (   2.6050294   0.0000000  10.0000000  )
         5           Cr1 tau(   5) = (   2.6050294   1.5040144  12.1269976  )
         6           Cr1 tau(   6) = (   1.3025147   3.7600361  12.1269976  )
         7           Cr1 tau(   7) = (  -1.3025147   3.7600361  12.1269976  )
         8           Ru1 tau(   8) = (   0.0000000   1.5040144  12.1269976  )
         9           Cr1 tau(   9) = (   0.0000368   3.0366735  14.1393230  )
        10           Cr1 tau(  10) = (   1.3272958   0.7376883  14.1392468  )
        11           Cr1 tau(  11) = (   3.8827428   0.7376377  14.1392371  )
        12           Ru1 tau(  12) = (   2.6050906   3.0080310  14.2408752  )

     number of k points=    20  Fermi-Dirac smearing, width (Ry)=  0.0110
                       cart. coord. in units 2pi/alat
        k(    1) = (   0.0000000   0.0000000   0.0000000), wk =   0.0555556
        k(    2) = (   0.0000000   0.0369382   0.0000000), wk =   0.1111111
        k(    3) = (   0.0000000   0.0738764   0.0000000), wk =   0.1111111
        k(    4) = (   0.0000000  -0.1108145   0.0000000), wk =   0.0555556
        k(    5) = (   0.0319894   0.0184691   0.0000000), wk =   0.1111111
        k(    6) = (   0.0319894   0.0554073   0.0000000), wk =   0.1111111
        k(    7) = (   0.0319894   0.0923454   0.0000000), wk =   0.1111111
        k(    8) = (   0.0319894  -0.0923454   0.0000000), wk =   0.1111111
        k(    9) = (   0.0319894  -0.0554073   0.0000000), wk =   0.1111111
        k(   10) = (   0.0319894  -0.0184691   0.0000000), wk =   0.1111111
        k(   11) = (   0.0639788   0.0369382   0.0000000), wk =   0.1111111
        k(   12) = (   0.0639788   0.0738764   0.0000000), wk =   0.1111111
        k(   13) = (   0.0639788   0.1108145   0.0000000), wk =   0.1111111
        k(   14) = (   0.0639788  -0.0738764   0.0000000), wk =   0.1111111
        k(   15) = (   0.0639788  -0.0369382   0.0000000), wk =   0.1111111
        k(   16) = (   0.0639788   0.0000000   0.0000000), wk =   0.1111111
        k(   17) = (  -0.0959682  -0.0554073   0.0000000), wk =   0.0555556
        k(   18) = (  -0.0959682  -0.0184691   0.0000000), wk =   0.1111111
        k(   19) = (  -0.0959682   0.0184691   0.0000000), wk =   0.1111111
        k(   20) = (  -0.0959682  -0.1662218   0.0000000), wk =   0.0555556

     Largest allocated arrays     est. size (Mb)     dimensions
     Largest temporary arrays     est. size (Mb)     dimensions

     Check: negative/imaginary core charge=   -0.000004    0.000000

     Initial potential from superposition of free atoms
     Check: negative starting charge=   -0.230675

     starting charge  161.99981, renormalised to  174.00000

[...]

     *
     * You are using vdW-DF for exchange-correlation in this calculation.
     * Please cite the following three references that made this development
     * possible:
     *
     *   M. Dion, H. Rydberg, E. Schroder, D. C. Langreth, and
     *   B. I. Lundqvist, Phys. Rev. Lett. 92, 246401 (2004).
     *
     *   T. Thonhauser, V. R. Cooper, S. Li, A. Puzder, P. Hyldgaard, and
     *   D. C. Langreth, Phys. Rev. B 76, 125112 (2007).
     *
     *   G. Roman-Perez and J. M. Soler, Phys. Rev. Lett. 103, 096102 (2009).
     *
     *
     * If you are using vdW-DF2, please also cite:
     *
     *   K. Lee, E. D. Murray, L. Kong, B. I. Lundqvist, and
     *   D. C. Langreth, Phys. Rev. B 82, 081101(R) (2010).
     *
     *
     * If you are calculating the stress with vdW-DF, please also cite:
     *
     *   R. Sabatini, E. Kucukbenli, B. Kolb, T. Thonhauser, and
     *   S. de Gironcoli, J. Phys.: Condens. Matter 24, 424209 (2012).
     *

     Carrying out vdW-DF run using the following parameters:

     Nqs =      20    Nr_points =    1024   r_max =   100.000
     q_mesh =
               0.00001000     0.04494208     0.09755937     0.15916263
               0.23128650     0.31572767     0.41458969     0.53033537
               0.66584808     0.82450364     1.01025438     1.22772762
               1.48234092     1.78043706     2.12944203     2.53805004
               3.01644009     3.57652955     4.23227104     5.00000000

     Gradients computed in reciprocal space

[...]

     Starting wfc are  129 randomized atomic wfcs

     Self-consistent Calculation

[...]

     total energy              =   -2171.52944006 Ry
     Harris-Foulkes estimate   =   -2171.52944060 Ry
     estimated scf accuracy    <       0.00000163 Ry

     iteration # 24     ecut=    36.75 Ry     beta=0.10
     Davidson diagonalization with overlap
     ethr =  9.35E-10,  avg # of iterations =  2.0

[...]

     negative rho (up, down):  2.387E-01 0.000E+00

     Adding external electric field

     Computed dipole along edir(3) :
        Dipole                0.0170 Ry au,          0.0433 Debye
        Dipole field          0.0001 Ry au

        Potential amp.       -0.0050 Ry
        Total length         44.6876 bohr

     End of self-consistent calculation

[...]

          k = 0.0640 0.0000 0.0000 ( 14465 PWs)   bands (ev):

[...]

          k =-0.0960-0.1662 0.0000 ( 14410 PWs)   bands (ev):

   -71.4306 -71.1390 -71.0728 -70.2403 -70.2188 -70.1869 -70.1832 -70.1672
   -70.1458 -70.1079 -70.0871 -70.0672 -41.8217 -41.7943 -41.7828 -41.7420
   -41.7054 -41.6968 -41.6572 -41.6538 -41.6155 -41.5925 -41.5728 -41.5723
   -41.4871 -41.4773 -41.4614 -41.4369 -41.4335 -41.4179 -41.4006 -41.3605
   -41.3520 -41.3399 -41.3160 -41.2886 -41.2603 -41.2597 -41.2523 -41.1904
   -41.1392 -41.1040 -41.0959 -41.0717 -41.0041 -40.9700 -40.9646 -40.9070
    -3.6147  -3.4368  -2.5287  -2.4718  -2.3365  -2.2701  -1.9813  -1.8221
    -1.6907  -1.6209  -1.4975  -1.4013  -1.2981  -1.2189  -0.9360  -0.9238
    -0.8112  -0.7366  -0.6631  -0.4414  -0.1660  -0.1592  -0.0864  -0.0312
     0.0521   0.1801   0.4125   0.5632   0.5894   0.6261   0.7248   0.7934
     0.8090   0.8655   0.9360   0.9832   0.9975   1.1438   1.1531   1.2389
     1.6084   1.7030   1.8030   1.9109   1.9690   2.0636   2.1303   2.2251
     2.3111   2.3892   2.4518   2.4859   2.4977   2.6144   2.7095   2.7161
     2.8040   2.9093   3.2108   3.2487   3.5307   3.5849   3.7521   3.7899
     4.4393   4.5146   5.4382   5.7662   5.9879

     the Fermi energy is     1.4829 ev

!    total energy              =   -2171.52943551 Ry
     Harris-Foulkes estimate   =   -2171.52944008 Ry
     estimated scf accuracy    <       0.00000081 Ry

     The total energy is the sum of the following terms:

     one-electron contribution =  -20213.31032451 Ry
     hartree contribution      =   10099.49582767 Ry
     xc contribution           =    -289.91124391 Ry
     ewald contribution        =    8232.30496254 Ry
     electric field correction =       0.00000095 Ry
     smearing contrib. (-TS)   =      -0.10865825 Ry

     convergence has been achieved in  24 iterations

 BEEF-vdW xc energy contributions
           1 :   -251.212485878008
           2 :    227.526710323798
           3 :   -187.580035955824
           4 :    142.830307935540
           5 :   -103.985355092770
           6 :    77.2171135215087
           7 :   -62.9419869226538
           8 :    57.2596132535242
           9 :   -54.8644109045914
          10 :    51.7613529203200
          11 :   -46.5782351807809
          12 :    40.2234139537514
          13 :   -34.5154886973120
          14 :    30.7624079977996
          15 :   -29.0521720155591
          16 :    28.4561296876894
          17 :   -27.8051730925125
          18 :    26.4441348097382
          19 :   -24.5037389419116
          20 :    22.6070600029092
          21 :   -21.3046389579507
          22 :    20.6650098238365
          23 :   -20.2824287999074
          24 :    19.6377063129514
          25 :   -18.5085866452110
          26 :    17.1233514309138
          27 :   -15.9682587941032
          28 :    15.4125008597056
          29 :   -15.4296016564310
          30 :    15.6056411864665
          31 :   -25.1141364485608
          32 :   -18.3516145583754

     Forces acting on atoms (Ry/au):

     negative rho (up, down):  2.387E-01 0.000E+00
     atom    1 type  1   force =     0.00000218   -0.00510179    0.02096584
     atom    2 type  1   force =    -0.00442114    0.00255335    0.02096415
     atom    3 type  1   force =     0.00442521    0.00255278    0.02096364
     atom    4 type  2   force =     0.00000060    0.00000849   -0.00273418
     atom    5 type  1   force =     0.00000638    0.00402415   -0.01158080
     atom    6 type  1   force =     0.00348359   -0.00200983   -0.01157263
     atom    7 type  1   force =    -0.00347975   -0.00201559   -0.01158045
     atom    8 type  2   force =    -0.00003126   -0.00000398   -0.02498148
     atom    9 type  1   force =     0.00000025    0.00004328   -0.00013395
     atom   10 type  1   force =     0.00005084   -0.00002089   -0.00012090
     atom   11 type  1   force =    -0.00003723   -0.00001310   -0.00012303
     atom   12 type  2   force =     0.00000034   -0.00001687   -0.00006622

     Total force =     0.049790     Total SCF correction =     0.002732

     entering subroutine stress ...

     negative rho (up, down):  2.387E-01 0.000E+00
          total   stress  (Ry/bohr**3)                   (kbar)     P=  -21.27
  -0.00018358  -0.00000001  -0.00000001        -27.01     -0.00     -0.00
  -0.00000001  -0.00018355  -0.00000002         -0.00    -27.00     -0.00
  -0.00000001  -0.00000002  -0.00006666         -0.00     -0.00     -9.81

 !ASE

     Writing output data file calc.save

     General routines

     Parallel routines

   This run was terminated on:  15:18:34  25Dec2018

   JOB DONE.
Job  /afs/slac/g/suncat/bin/suncat-tsmpirun -x LD_LIBRARY_PATH -wdir /scratch/qe109531_DrTc8 pw.x -in pw.inp

TID   HOST_NAME   COMMAND_LINE            STATUS            TERMINATION_TIME
00000 suncat0108 pw.x -in pw.inp   Done                     12/25/2018 15:18:34
00001 suncat0108 pw.x -in pw.inp   Done                     12/25/2018 15:18:34
00002 suncat0108 pw.x -in pw.inp   Done                     12/25/2018 15:18:34
00003 suncat0108 pw.x -in pw.inp   Done                     12/25/2018 15:18:34
00004 suncat0108 pw.x -in pw.inp   Done                     12/25/2018 15:18:34
00005 suncat0108 pw.x -in pw.inp   Done                     12/25/2018 15:18:34
00006 suncat0108 pw.x -in pw.inp   Done                     12/25/2018 15:18:34
00007 suncat0108 pw.x -in pw.inp   Done                     12/25/2018 15:18:34
00008 suncat0107 pw.x -in pw.inp   Done                     12/25/2018 15:18:34
00009 suncat0107 pw.x -in pw.inp   Done                     12/25/2018 15:18:34
00010 suncat0107 pw.x -in pw.inp   Done                     12/25/2018 15:18:34
00011 suncat0107 pw.x -in pw.inp   Done                     12/25/2018 15:18:34
00012 suncat0107 pw.x -in pw.inp   Done                     12/25/2018 15:18:34
00013 suncat0107 pw.x -in pw.inp   Done                     12/25/2018 15:18:34
00014 suncat0107 pw.x -in pw.inp   Done                     12/25/2018 15:18:34
00015 suncat0107 pw.x -in pw.inp   Done                     12/25/2018 15:18:34
00016 suncat0106 pw.x -in pw.inp   Done                     12/25/2018 15:18:34
00017 suncat0106 pw.x -in pw.inp   Done                     12/25/2018 15:18:34
00018 suncat0106 pw.x -in pw.inp   Done                     12/25/2018 15:18:34
00019 suncat0106 pw.x -in pw.inp   Done                     12/25/2018 15:18:34
00020 suncat0106 pw.x -in pw.inp   Done                     12/25/2018 15:18:34
00021 suncat0106 pw.x -in pw.inp   Done                     12/25/2018 15:18:34
00022 suncat0106 pw.x -in pw.inp   Done                     12/25/2018 15:18:34
00023 suncat0106 pw.x -in pw.inp   Done                     12/25/2018 15:18:34
00024 suncat0105 pw.x -in pw.inp   Done                     12/25/2018 15:18:34
00025 suncat0105 pw.x -in pw.inp   Done                     12/25/2018 15:18:34
00026 suncat0105 pw.x -in pw.inp   Done                     12/25/2018 15:18:34
00027 suncat0105 pw.x -in pw.inp   Done                     12/25/2018 15:18:34
00028 suncat0105 pw.x -in pw.inp   Done                     12/25/2018 15:18:34
00029 suncat0105 pw.x -in pw.inp   Done                     12/25/2018 15:18:34
00030 suncat0105 pw.x -in pw.inp   Done                     12/25/2018 15:18:34
00031 suncat0105 pw.x -in pw.inp   Done                     12/25/2018 15:18:34
00032 suncat0238 pw.x -in pw.inp   Done                     12/25/2018 15:18:34
00033 suncat0238 pw.x -in pw.inp   Done                     12/25/2018 15:18:34
00034 suncat0238 pw.x -in pw.inp   Done                     12/25/2018 15:18:34
00035 suncat0238 pw.x -in pw.inp   Done                     12/25/2018 15:18:34
00036 suncat0238 pw.x -in pw.inp   Done                     12/25/2018 15:18:34
00037 suncat0238 pw.x -in pw.inp   Done                     12/25/2018 15:18:34
00038 suncat0238 pw.x -in pw.inp   Done                     12/25/2018 15:18:34
00039 suncat0238 pw.x -in pw.inp   Done                     12/25/2018 15:18:34
00040 suncat0237 pw.x -in pw.inp   Done                     12/25/2018 15:18:34
00041 suncat0237 pw.x -in pw.inp   Done                     12/25/2018 15:18:34
00042 suncat0237 pw.x -in pw.inp   Done                     12/25/2018 15:18:34
00043 suncat0237 pw.x -in pw.inp   Done                     12/25/2018 15:18:34
00044 suncat0237 pw.x -in pw.inp   Done                     12/25/2018 15:18:34
00045 suncat0237 pw.x -in pw.inp   Done                     12/25/2018 15:18:34
00046 suncat0237 pw.x -in pw.inp   Done                     12/25/2018 15:18:34
00047 suncat0237 pw.x -in pw.inp   Done                     12/25/2018 15:18:34
00048 suncat0236 pw.x -in pw.inp   Done                     12/25/2018 15:18:34
00049 suncat0236 pw.x -in pw.inp   Done                     12/25/2018 15:18:34
00050 suncat0236 pw.x -in pw.inp   Done                     12/25/2018 15:18:34
00051 suncat0236 pw.x -in pw.inp   Done                     12/25/2018 15:18:34
00052 suncat0236 pw.x -in pw.inp   Done                     12/25/2018 15:18:34
00053 suncat0236 pw.x -in pw.inp   Done                     12/25/2018 15:18:34
00054 suncat0236 pw.x -in pw.inp   Done                     12/25/2018 15:18:34
00055 suncat0236 pw.x -in pw.inp   Done                     12/25/2018 15:18:34
00056 suncat0235 pw.x -in pw.inp   Done                     12/25/2018 15:18:34
00057 suncat0235 pw.x -in pw.inp   Done                     12/25/2018 15:18:34
00058 suncat0235 pw.x -in pw.inp   Done                     12/25/2018 15:18:34
00059 suncat0235 pw.x -in pw.inp   Done                     12/25/2018 15:18:34
00060 suncat0235 pw.x -in pw.inp   Done                     12/25/2018 15:18:34
00061 suncat0235 pw.x -in pw.inp   Done                     12/25/2018 15:18:34
00062 suncat0235 pw.x -in pw.inp   Done                     12/25/2018 15:18:34
00063 suncat0235 pw.x -in pw.inp   Done                     12/25/2018 15:18:34