     Program PWSCF v.5.1rc2 (svn rev. 11289) starts on 31Dec2018 at  1:55:34

     Current dimensions of program PWSCF are:
     Max number of different atomic species (ntypx) = 10
     Max number of k-points (npk) =  40000
     Max angular momentum in pseudopotentials (lmaxx) =  3
     Presently stress not available with electric field

     IMPORTANT: XC functional enforced from input :
     Exchange-correlation      = BEEF-VDW ( 1  4 27 13 2)
     Any further DFT definition will be discarded
     Please, verify this is what you really want

     Subspace diagonalization in iterative solution of the eigenvalue problem:
     a serial algorithm will be used

     Generating pointlists ...
     new r_m :   0.4125 (alat units)  0.7795 (a.u.) for type    1
     new r_m :   0.4125 (alat units)  0.7795 (a.u.) for type    2

     bravais-lattice index     =            0
     lattice parameter (alat)  =       1.8897  a.u.
     unit-cell volume          =    3788.3383 (a.u.)^3
     number of atoms/cell      =           12
     number of atomic types    =            2
     number of electrons       =       204.00
     number of Kohn-Sham states=          132
     kinetic-energy cutoff     =      36.7493  Ry
     charge density cutoff     =     367.4932  Ry
     convergence threshold     =      1.0E-06
     mixing beta               =       0.1000
     number of iterations used =           10  plain     mixing
     Exchange-correlation      = BEEF-VDW ( 1  4 27 13 2)
     nstep                     =           50

     celldm(1)=   1.889726  celldm(2)=   0.000000  celldm(3)=   0.000000
     celldm(4)=   0.000000  celldm(5)=   0.000000  celldm(6)=   0.000000

     crystal axes: (cart. coord. in units of alat)
               a(1) = (   5.172975   0.000000   0.000000 )
               a(2) = (  -2.586487   4.479928   0.000000 )
               a(3) = (   0.000000   0.000000  24.223716 )

     reciprocal axes: (cart. coord. in units 2 pi/alat)
               b(1) = (  0.193312  0.111609  0.000000 )
               b(2) = (  0.000000  0.223218  0.000000 )
               b(3) = (  0.000000  0.000000  0.041282 )

     PseudoPot. # 1 for Ni read from file:
     /afs/slac.stanford.edu/u/if/mamunm/psp/gbrv1.5pbe/Ni.UPF
     MD5 check sum: 1ee80287db30b12d2bc1f57a5b5d6409
     Pseudo is Ultrasoft + core correction, Zval = 18.0
     Generated by new atomic code, or converted to UPF format
     Using radial grid of  865 points,  6 beta functions with:
                l(1) =   0
                l(2) =   0
                l(3) =   1
                l(4) =   1
                l(5) =   2
                l(6) =   2
     Q(r) pseudized with 10 coefficients,  rinner =    0.980   0.980   0.980
                                                       0.980   0.980

     PseudoPot. # 2 for Mo read from file:
     /afs/slac.stanford.edu/u/if/mamunm/psp/gbrv1.5pbe/Mo.UPF
     MD5 check sum: 30c4dcd161f5d35cd49bb5239c51a633
     Pseudo is Ultrasoft + core correction, Zval = 14.0
     Generated by new atomic code, or converted to UPF format
     Using radial grid of  889 points,  6 beta functions with:
                l(1) =   0
                l(2) =   0
                l(3) =   1
                l(4) =   1
                l(5) =   2
                l(6) =   2
     Q(r) pseudized with  6 coefficients,  rinner =    1.000   1.000   1.000
                                                       1.000   1.000

     vdW kernel table read from file vdW_kernel_table
     MD5 check sum: 095c7af220d748ca6e76c0b4c6cfb241

     atomic species   valence    mass     pseudopotential
        Ni1           18.00    58.69340     Ni( 1.00)
        Mo1           14.00    95.95000     Mo( 1.00)

     Starting magnetic structure
     atomic species   magnetization
        Ni1          0.111
        Mo1          0.143

     No symmetry found

   Cartesian axes

     site n.     atom                  positions (alat units)
         1           Ni1 tau(   1) = (   0.0000000   0.0000000  10.0000000  )
         2           Ni1 tau(   2) = (  -1.2932437   2.2399638  10.0000000  )
         3           Ni1 tau(   3) = (   1.2932437   2.2399638  10.0000000  )
         4           Mo1 tau(   4) = (   2.5864875   0.0000000  10.0000000  )
         5           Ni1 tau(   5) = (   2.5864875   1.4933092  12.1118582  )
         6           Ni1 tau(   6) = (   1.2932437   3.7332731  12.1118582  )
         7           Ni1 tau(   7) = (  -1.2932437   3.7332731  12.1118582  )
         8           Mo1 tau(   8) = (   0.0000000   1.4933092  12.1118582  )
         9           Ni1 tau(   9) = (  -0.0000000   2.9866185  14.2237163  )
        10           Ni1 tau(  10) = (   1.2932437   0.7466546  14.2237163  )
        11           Ni1 tau(  11) = (   3.8797312   0.7466546  14.2237163  )
        12           Mo1 tau(  12) = (   2.5864875   2.9866185  14.2237163  )

     number of k points=    40  Fermi-Dirac smearing, width (Ry)=  0.0110
                       cart. coord. in units 2pi/alat
        k(    1) = (   0.0000000   0.0000000   0.0000000), wk =   0.0277778
        k(    2) = (   0.0000000   0.0372030   0.0000000), wk =   0.0555556
        k(    3) = (   0.0000000   0.0744060   0.0000000), wk =   0.0555556
        k(    4) = (   0.0000000  -0.1116089   0.0000000), wk =   0.0277778
        k(    5) = (   0.0322187   0.0186015   0.0000000), wk =   0.0555556
        k(    6) = (   0.0322187   0.0558045   0.0000000), wk =   0.0555556
        k(    7) = (   0.0322187   0.0930075   0.0000000), wk =   0.0555556
        k(    8) = (   0.0322187  -0.0930075   0.0000000), wk =   0.0555556
        k(    9) = (   0.0322187  -0.0558045   0.0000000), wk =   0.0555556
        k(   10) = (   0.0322187  -0.0186015   0.0000000), wk =   0.0555556
        k(   11) = (   0.0644375   0.0372030   0.0000000), wk =   0.0555556
        k(   12) = (   0.0644375   0.0744060   0.0000000), wk =   0.0555556
        k(   13) = (   0.0644375   0.1116089   0.0000000), wk =   0.0555556
        k(   14) = (   0.0644375  -0.0744060   0.0000000), wk =   0.0555556
        k(   15) = (   0.0644375  -0.0372030   0.0000000), wk =   0.0555556
        k(   16) = (   0.0644375   0.0000000   0.0000000), wk =   0.0555556
        k(   17) = (  -0.0966562  -0.0558045   0.0000000), wk =   0.0277778
        k(   18) = (  -0.0966562  -0.0186015   0.0000000), wk =   0.0555556
        k(   19) = (  -0.0966562   0.0186015   0.0000000), wk =   0.0555556
        k(   20) = (  -0.0966562  -0.1674134   0.0000000), wk =   0.0277778
        k(   21) = (   0.0000000   0.0000000   0.0000000), wk =   0.0277778
        k(   22) = (   0.0000000   0.0372030   0.0000000), wk =   0.0555556
        k(   23) = (   0.0000000   0.0744060   0.0000000), wk =   0.0555556
        k(   24) = (   0.0000000  -0.1116089   0.0000000), wk =   0.0277778
        k(   25) = (   0.0322187   0.0186015   0.0000000), wk =   0.0555556
        k(   26) = (   0.0322187   0.0558045   0.0000000), wk =   0.0555556
        k(   27) = (   0.0322187   0.0930075   0.0000000), wk =   0.0555556
        k(   28) = (   0.0322187  -0.0930075   0.0000000), wk =   0.0555556
        k(   29) = (   0.0322187  -0.0558045   0.0000000), wk =   0.0555556
        k(   30) = (   0.0322187  -0.0186015   0.0000000), wk =   0.0555556
        k(   31) = (   0.0644375   0.0372030   0.0000000), wk =   0.0555556
        k(   32) = (   0.0644375   0.0744060   0.0000000), wk =   0.0555556
        k(   33) = (   0.0644375   0.1116089   0.0000000), wk =   0.0555556
        k(   34) = (   0.0644375  -0.0744060   0.0000000), wk =   0.0555556
        k(   35) = (   0.0644375  -0.0372030   0.0000000), wk =   0.0555556
        k(   36) = (   0.0644375   0.0000000   0.0000000), wk =   0.0555556
        k(   37) = (  -0.0966562  -0.0558045   0.0000000), wk =   0.0277778
        k(   38) = (  -0.0966562  -0.0186015   0.0000000), wk =   0.0555556
        k(   39) = (  -0.0966562   0.0186015   0.0000000), wk =   0.0555556
        k(   40) = (  -0.0966562  -0.1674134   0.0000000), wk =   0.0277778

     Largest allocated arrays     est. size (Mb)     dimensions
     Largest temporary arrays     est. size (Mb)     dimensions

     Check: negative/imaginary core charge=   -0.000002    0.000000

     Initial potential from superposition of free atoms
     Check: negative starting charge=(component1):   -0.001476
     Check: negative starting charge=(component2):   -0.001112

     starting charge  185.99681, renormalised to  204.00000

     negative rho (up, down):  1.619E-03 1.220E-03

     *
     * You are using vdW-DF for exchange-correlation in this calculation.
     * Please cite the following three references that made this development
     * possible:
     *
     *   M. Dion, H. Rydberg, E. Schroder, D. C. Langreth, and
     *   B. I. Lundqvist, Phys. Rev. Lett. 92, 246401 (2004).
     *
     *   T. Thonhauser, V. R. Cooper, S. Li, A. Puzder, P. Hyldgaard, and
     *   D. C. Langreth, Phys. Rev. B 76, 125112 (2007).
     *
     *   G. Roman-Perez and J. M. Soler, Phys. Rev. Lett. 103, 096102 (2009).
     *
     *
     * If you are using vdW-DF2, please also cite:
     *
     *   K. Lee, E. D. Murray, L. Kong, B. I. Lundqvist, and
     *   D. C. Langreth, Phys. Rev. B 82, 081101(R) (2010).
     *
     *
     * If you are calculating the stress with vdW-DF, please also cite:
     *
     *   R. Sabatini, E. Kucukbenli, B. Kolb, T. Thonhauser, and
     *   S. de Gironcoli, J. Phys.: Condens. Matter 24, 424209 (2012).
     *

     Carrying out vdW-DF run using the following parameters:

     Nqs =      20    Nr_points =    1024   r_max =   100.000
     q_mesh =
               0.00001000     0.04494208     0.09755937     0.15916263
               0.23128650     0.31572767     0.41458969     0.53033537
               0.66584808     0.82450364     1.01025438     1.22772762
               1.48234092     1.78043706     2.12944203     2.53805004
               3.01644009     3.57652955     4.23227104     5.00000000

     Gradients computed in reciprocal space

     Adding external electric field

     Computed dipole along edir(3) :
        Dipole               -0.0000 Ry au,         -0.0000 Debye
        Dipole field         -0.0000 Ry au

        Potential amp.        0.0000 Ry
        Total length         44.6318 bohr

[...]

     Starting wfc are  156 randomized atomic wfcs

     Self-consistent Calculation

     iteration #  1     ecut=    36.75 Ry     beta=0.10
     Davidson diagonalization with overlap
     ethr =  1.00E-02,  avg # of iterations =  8.2

[...]

     Magnetic moment per site:
     atom:    1    charge:    9.7602    magn:    1.0342    constr:    0.0000
     atom:    2    charge:    9.7602    magn:    1.0342    constr:    0.0000
     atom:    3    charge:    9.7602    magn:    1.0342    constr:    0.0000
     atom:    4    charge:    2.0359    magn:    0.2665    constr:    0.0000
     atom:    5    charge:    9.7679    magn:    1.0358    constr:    0.0000
     atom:    6    charge:    9.7679    magn:    1.0358    constr:    0.0000
     atom:    7    charge:    9.7679    magn:    1.0358    constr:    0.0000
     atom:    8    charge:    2.0412    magn:    0.2666    constr:    0.0000
[...]
        k(    4) = (   0.0000000  -0.1116089   0.0000000), wk =   0.0277778
        k(    5) = (   0.0322187   0.0186015   0.0000000), wk =   0.0555556
        k(    6) = (   0.0322187   0.0558045   0.0000000), wk =   0.0555556
        k(    7) = (   0.0322187   0.0930075   0.0000000), wk =   0.0555556
        k(    8) = (   0.0322187  -0.0930075   0.0000000), wk =   0.0555556
        k(    9) = (   0.0322187  -0.0558045   0.0000000), wk =   0.0555556
        k(   10) = (   0.0322187  -0.0186015   0.0000000), wk =   0.0555556
        k(   11) = (   0.0644375   0.0372030   0.0000000), wk =   0.0555556
        k(   12) = (   0.0644375   0.0744060   0.0000000), wk =   0.0555556
        k(   13) = (   0.0644375   0.1116089   0.0000000), wk =   0.0555556
        k(   14) = (   0.0644375  -0.0744060   0.0000000), wk =   0.0555556
        k(   15) = (   0.0644375  -0.0372030   0.0000000), wk =   0.0555556
        k(   16) = (   0.0644375   0.0000000   0.0000000), wk =   0.0555556
        k(   17) = (  -0.0966562  -0.0558045   0.0000000), wk =   0.0277778
        k(   18) = (  -0.0966562  -0.0186015   0.0000000), wk =   0.0555556
        k(   19) = (  -0.0966562   0.0186015   0.0000000), wk =   0.0555556
        k(   20) = (  -0.0966562  -0.1674134   0.0000000), wk =   0.0277778
        k(   21) = (   0.0000000   0.0000000   0.0000000), wk =   0.0277778
        k(   22) = (   0.0000000   0.0372030   0.0000000), wk =   0.0555556
        k(   23) = (   0.0000000   0.0744060   0.0000000), wk =   0.0555556
        k(   24) = (   0.0000000  -0.1116089   0.0000000), wk =   0.0277778
        k(   25) = (   0.0322187   0.0186015   0.0000000), wk =   0.0555556
        k(   26) = (   0.0322187   0.0558045   0.0000000), wk =   0.0555556
        k(   27) = (   0.0322187   0.0930075   0.0000000), wk =   0.0555556
        k(   28) = (   0.0322187  -0.0930075   0.0000000), wk =   0.0555556
        k(   29) = (   0.0322187  -0.0558045   0.0000000), wk =   0.0555556
        k(   30) = (   0.0322187  -0.0186015   0.0000000), wk =   0.0555556
        k(   31) = (   0.0644375   0.0372030   0.0000000), wk =   0.0555556
        k(   32) = (   0.0644375   0.0744060   0.0000000), wk =   0.0555556
        k(   33) = (   0.0644375   0.1116089   0.0000000), wk =   0.0555556
        k(   34) = (   0.0644375  -0.0744060   0.0000000), wk =   0.0555556
        k(   35) = (   0.0644375  -0.0372030   0.0000000), wk =   0.0555556
        k(   36) = (   0.0644375   0.0000000   0.0000000), wk =   0.0555556
        k(   37) = (  -0.0966562  -0.0558045   0.0000000), wk =   0.0277778
        k(   38) = (  -0.0966562  -0.0186015   0.0000000), wk =   0.0555556
        k(   39) = (  -0.0966562   0.0186015   0.0000000), wk =   0.0555556
        k(   40) = (  -0.0966562  -0.1674134   0.0000000), wk =   0.0277778

     Largest allocated arrays     est. size (Mb)     dimensions
     Largest temporary arrays     est. size (Mb)     dimensions

     Check: negative/imaginary core charge=   -0.000002    0.000000

     Initial potential from superposition of free atoms
     Check: negative starting charge=(component1):   -0.001463
     Check: negative starting charge=(component2):   -0.001102

     starting charge  185.99681, renormalised to  204.00000

[...]

     *
     * You are using vdW-DF for exchange-correlation in this calculation.
     * Please cite the following three references that made this development
     * possible:
     *
     *   M. Dion, H. Rydberg, E. Schroder, D. C. Langreth, and
     *   B. I. Lundqvist, Phys. Rev. Lett. 92, 246401 (2004).
     *
     *   T. Thonhauser, V. R. Cooper, S. Li, A. Puzder, P. Hyldgaard, and
     *   D. C. Langreth, Phys. Rev. B 76, 125112 (2007).
     *
     *   G. Roman-Perez and J. M. Soler, Phys. Rev. Lett. 103, 096102 (2009).
     *
     *
     * If you are using vdW-DF2, please also cite:
     *
     *   K. Lee, E. D. Murray, L. Kong, B. I. Lundqvist, and
     *   D. C. Langreth, Phys. Rev. B 82, 081101(R) (2010).
     *
     *
     * If you are calculating the stress with vdW-DF, please also cite:
     *
     *   R. Sabatini, E. Kucukbenli, B. Kolb, T. Thonhauser, and
     *   S. de Gironcoli, J. Phys.: Condens. Matter 24, 424209 (2012).
     *

     Carrying out vdW-DF run using the following parameters:

     Nqs =      20    Nr_points =    1024   r_max =   100.000
     q_mesh =
               0.00001000     0.04494208     0.09755937     0.15916263
               0.23128650     0.31572767     0.41458969     0.53033537
               0.66584808     0.82450364     1.01025438     1.22772762
               1.48234092     1.78043706     2.12944203     2.53805004
               3.01644009     3.57652955     4.23227104     5.00000000

     Gradients computed in reciprocal space

[...]

     Starting wfc are  156 randomized atomic wfcs

     Self-consistent Calculation

[...]

     total energy              =   -3519.59637418 Ry
     Harris-Foulkes estimate   =   -3519.59637254 Ry
     estimated scf accuracy    <       0.00000104 Ry

[...]

     iteration # 54     ecut=    36.75 Ry     beta=0.10
     Davidson diagonalization with overlap
     ethr =  5.11E-10,  avg # of iterations =  2.0

[...]

     negative rho (up, down):  1.383E-03 1.380E-03

[...]

     Adding external electric field

     Computed dipole along edir(3) :
        Dipole                0.0107 Ry au,          0.0272 Debye
        Dipole field          0.0000 Ry au

        Potential amp.       -0.0032 Ry
        Total length         44.6318 bohr

     Magnetic moment per site:
     atom:    1    charge:    9.3540    magn:    0.0015    constr:    0.0000
     atom:    2    charge:    9.3541    magn:    0.0015    constr:    0.0000
     atom:    3    charge:    9.3540    magn:    0.0015    constr:    0.0000
     atom:    4    charge:    1.8675    magn:    0.0045    constr:    0.0000
     atom:    5    charge:    9.3542    magn:    0.0065    constr:    0.0000
     atom:    6    charge:    9.3542    magn:    0.0065    constr:    0.0000
     atom:    7    charge:    9.3542    magn:    0.0065    constr:    0.0000
     atom:    8    charge:    1.8722    magn:   -0.0003    constr:    0.0000
     atom:    9    charge:    9.3396    magn:    0.0014    constr:    0.0000
     atom:   10    charge:    9.3397    magn:    0.0014    constr:    0.0000
     atom:   11    charge:    9.3397    magn:    0.0014    constr:    0.0000
     atom:   12    charge:    1.8675    magn:    0.0044    constr:    0.0000

     End of self-consistent calculation

 ------ SPIN UP ------------

[...]

 ------ SPIN DOWN ----------

[...]

          k = 0.0644 0.0000 0.0000 ( 14259 PWs)   bands (ev):

[...]

          k =-0.0967-0.1674 0.0000 ( 14214 PWs)   bands (ev):

  -102.5369-102.5335-102.5303-102.2524-102.2492-102.2458-102.1950-102.1919
  -102.1885 -63.0434 -63.0238 -63.0086 -62.9602 -62.9464 -62.9333 -62.8252
   -62.8086 -62.7954 -62.7907 -62.7715 -62.7711 -62.7578 -62.7558 -62.7361
   -62.6294 -62.6073 -62.5859 -62.5581 -62.5350 -62.5123 -62.4717 -62.4626
   -62.4515 -62.4085 -62.4006 -62.3909 -60.6183 -60.3358 -60.3296 -34.6614
   -34.6554 -34.6427 -34.3840 -34.3710 -34.3593 -34.3541 -34.3525 -34.3474
    -4.8164  -4.7716  -3.5148  -3.2043  -3.0659  -3.0598  -2.8519  -2.6225
    -2.4199  -2.3381  -2.2892  -2.0516  -2.0426  -2.0075  -1.9383  -1.7460
    -1.6886  -1.5716  -1.5678  -1.5425  -1.4866  -1.3453  -1.1361  -1.0619
    -0.9550  -0.9436  -0.9211  -0.9003  -0.8514  -0.8020  -0.7796  -0.7524
    -0.7177  -0.7090  -0.6503  -0.6256  -0.5925  -0.5006  -0.4809  -0.4164
    -0.3349  -0.3345  -0.2640  -0.2248  -0.1041  -0.0562   0.1919   0.2225
     0.2622   0.2681   0.4628   0.5839   0.7805   0.8737   1.0280   1.1890
     1.2211   1.2302   1.4847   1.5110   1.6462   1.6900   2.0036   2.5422
     2.5552   2.9346   3.5783   4.1589   4.7878   5.2071   5.4418   5.6502
     6.5454   6.6711   7.1138   7.1401   7.6045   7.6569   7.7942   7.8020
     8.6908   8.8267   8.8834   9.4143

     the Fermi energy is     1.1221 ev

!    total energy              =   -3519.59638025 Ry
     Harris-Foulkes estimate   =   -3519.59637462 Ry
     estimated scf accuracy    <       0.00000085 Ry

     The total energy is the sum of the following terms:

     one-electron contribution =  -29187.39189434 Ry
     hartree contribution      =   14599.04878469 Ry
     xc contribution           =    -390.67128313 Ry
     ewald contribution        =   11459.50460620 Ry
     electric field correction =       0.00000038 Ry
     smearing contrib. (-TS)   =      -0.08659405 Ry

     total magnetization       =     0.16 Bohr mag/cell
     absolute magnetization    =     0.19 Bohr mag/cell

     convergence has been achieved in  54 iterations

 BEEF-vdW xc energy contributions
           1 :   -342.882695736626
           2 :    311.220422993999
           3 :   -257.769967429505
           4 :    197.780526560410
           5 :   -145.490301305089
           6 :    108.983362427744
           7 :   -88.5449966164921
           8 :    78.7167356353390
           9 :   -72.4386123812976
          10 :    64.8359346155785
          11 :   -54.8558872852241
          12 :    44.4085174434836
          13 :   -36.1179893990581
          14 :    31.2951004582213
          15 :   -29.2799719319204
          16 :    28.2107140004075
          17 :   -26.4137903023088
          18 :    23.3783948920027
          19 :   -19.7797942917225
          20 :    16.7211416495879
          21 :   -14.8563375260030
          22 :    13.9938957924509
          23 :   -13.3724818826191
          24 :    12.2945955859049
          25 :   -10.6219351715844
          26 :    8.78990595980571
          27 :   -7.39958759866431
          28 :    6.72770895628287
          29 :   -6.52984088761968
          30 :    6.24842692088674
          31 :   -30.0378529043965
          32 :   -21.4027413491674

     Forces acting on atoms (Ry/au):

     negative rho (up, down):  1.383E-03 1.380E-03
     atom    1 type  1   force =    -0.00001141    0.00098614    0.01091188
     atom    2 type  1   force =     0.00086231   -0.00049652    0.01090429
     atom    3 type  1   force =    -0.00085949   -0.00048176    0.01090812
     atom    4 type  2   force =     0.00000112   -0.00000120    0.00021378
     atom    5 type  1   force =    -0.00000769    0.00043889   -0.00648648
     atom    6 type  1   force =     0.00037810   -0.00022509   -0.00647927
     atom    7 type  1   force =    -0.00038070   -0.00021785   -0.00648279
     atom    8 type  2   force =    -0.00000089   -0.00000019   -0.01497353
     atom    9 type  1   force =     0.00002717    0.00001654    0.00058080
     atom   10 type  1   force =    -0.00000587    0.00000120    0.00060589
     atom   11 type  1   force =     0.00000311   -0.00003136    0.00057647
     atom   12 type  2   force =    -0.00000576    0.00001119   -0.00027919

     Total force =     0.026682     Total SCF correction =     0.002412

     entering subroutine stress ...

     negative rho (up, down):  1.383E-03 1.380E-03
          total   stress  (Ry/bohr**3)                   (kbar)     P=  -68.37
  -0.00052031  -0.00000001   0.00000001        -76.54     -0.00      0.00
  -0.00000001  -0.00052032   0.00000000         -0.00    -76.54      0.00
   0.00000001   0.00000000  -0.00035367          0.00      0.00    -52.03

 !ASE

     Writing output data file calc.save

     General routines

     Parallel routines

   This run was terminated on:   9: 2:14  31Dec2018

   JOB DONE.
Job  /afs/slac/g/suncat/bin/suncat-tsmpirun -x LD_LIBRARY_PATH -wdir /scratch/qe648673_iTjBo pw.x -in pw.inp

TID   HOST_NAME   COMMAND_LINE            STATUS            TERMINATION_TIME
00000 suncat0028 pw.x -in pw.inp   Done                     12/31/2018 09:02:14
00001 suncat0028 pw.x -in pw.inp   Done                     12/31/2018 09:02:14
00002 suncat0028 pw.x -in pw.inp   Done                     12/31/2018 09:02:14
00003 suncat0028 pw.x -in pw.inp   Done                     12/31/2018 09:02:14
00004 suncat0028 pw.x -in pw.inp   Done                     12/31/2018 09:02:14
00005 suncat0028 pw.x -in pw.inp   Done                     12/31/2018 09:02:14
00006 suncat0028 pw.x -in pw.inp   Done                     12/31/2018 09:02:14
00007 suncat0028 pw.x -in pw.inp   Done                     12/31/2018 09:02:14
00008 suncat0027 pw.x -in pw.inp   Done                     12/31/2018 09:02:14
00009 suncat0027 pw.x -in pw.inp   Done                     12/31/2018 09:02:14
00010 suncat0027 pw.x -in pw.inp   Done                     12/31/2018 09:02:14
00011 suncat0027 pw.x -in pw.inp   Done                     12/31/2018 09:02:14
00012 suncat0027 pw.x -in pw.inp   Done                     12/31/2018 09:02:14
00013 suncat0027 pw.x -in pw.inp   Done                     12/31/2018 09:02:14
00014 suncat0027 pw.x -in pw.inp   Done                     12/31/2018 09:02:14
00015 suncat0027 pw.x -in pw.inp   Done                     12/31/2018 09:02:14
00016 suncat0026 pw.x -in pw.inp   Done                     12/31/2018 09:02:14
00017 suncat0026 pw.x -in pw.inp   Done                     12/31/2018 09:02:14
00018 suncat0026 pw.x -in pw.inp   Done                     12/31/2018 09:02:14
00019 suncat0026 pw.x -in pw.inp   Done                     12/31/2018 09:02:14
00020 suncat0026 pw.x -in pw.inp   Done                     12/31/2018 09:02:14
00021 suncat0026 pw.x -in pw.inp   Done                     12/31/2018 09:02:14
00022 suncat0026 pw.x -in pw.inp   Done                     12/31/2018 09:02:14
00023 suncat0026 pw.x -in pw.inp   Done                     12/31/2018 09:02:14
00024 suncat0021 pw.x -in pw.inp   Done                     12/31/2018 09:02:14
00025 suncat0021 pw.x -in pw.inp   Done                     12/31/2018 09:02:14
00026 suncat0021 pw.x -in pw.inp   Done                     12/31/2018 09:02:14
00027 suncat0021 pw.x -in pw.inp   Done                     12/31/2018 09:02:14
00028 suncat0021 pw.x -in pw.inp   Done                     12/31/2018 09:02:14
00029 suncat0021 pw.x -in pw.inp   Done                     12/31/2018 09:02:14
00030 suncat0021 pw.x -in pw.inp   Done                     12/31/2018 09:02:14
00031 suncat0021 pw.x -in pw.inp   Done                     12/31/2018 09:02:14
00032 suncat0010 pw.x -in pw.inp   Done                     12/31/2018 09:02:14
00033 suncat0010 pw.x -in pw.inp   Done                     12/31/2018 09:02:14
00034 suncat0010 pw.x -in pw.inp   Done                     12/31/2018 09:02:14
00035 suncat0010 pw.x -in pw.inp   Done                     12/31/2018 09:02:14
00036 suncat0010 pw.x -in pw.inp   Done                     12/31/2018 09:02:14
00037 suncat0010 pw.x -in pw.inp   Done                     12/31/2018 09:02:14
00038 suncat0010 pw.x -in pw.inp   Done                     12/31/2018 09:02:14
00039 suncat0010 pw.x -in pw.inp   Done                     12/31/2018 09:02:14
00040 suncat0191 pw.x -in pw.inp   Done                     12/31/2018 09:02:14
00041 suncat0191 pw.x -in pw.inp   Done                     12/31/2018 09:02:14
00042 suncat0191 pw.x -in pw.inp   Done                     12/31/2018 09:02:14
00043 suncat0191 pw.x -in pw.inp   Done                     12/31/2018 09:02:14
00044 suncat0191 pw.x -in pw.inp   Done                     12/31/2018 09:02:14
00045 suncat0191 pw.x -in pw.inp   Done                     12/31/2018 09:02:14
00046 suncat0191 pw.x -in pw.inp   Done                     12/31/2018 09:02:14
00047 suncat0191 pw.x -in pw.inp   Done                     12/31/2018 09:02:14
00048 suncat0007 pw.x -in pw.inp   Done                     12/31/2018 09:02:14
00049 suncat0007 pw.x -in pw.inp   Done                     12/31/2018 09:02:14
00050 suncat0007 pw.x -in pw.inp   Done                     12/31/2018 09:02:14
00051 suncat0007 pw.x -in pw.inp   Done                     12/31/2018 09:02:14
00052 suncat0007 pw.x -in pw.inp   Done                     12/31/2018 09:02:14
00053 suncat0007 pw.x -in pw.inp   Done                     12/31/2018 09:02:14
00054 suncat0007 pw.x -in pw.inp   Done                     12/31/2018 09:02:14
00055 suncat0007 pw.x -in pw.inp   Done                     12/31/2018 09:02:14
00056 suncat0100 pw.x -in pw.inp   Done                     12/31/2018 09:02:14
00057 suncat0100 pw.x -in pw.inp   Done                     12/31/2018 09:02:14
00058 suncat0100 pw.x -in pw.inp   Done                     12/31/2018 09:02:14
00059 suncat0100 pw.x -in pw.inp   Done                     12/31/2018 09:02:14
00060 suncat0100 pw.x -in pw.inp   Done                     12/31/2018 09:02:14
00061 suncat0100 pw.x -in pw.inp   Done                     12/31/2018 09:02:14
00062 suncat0100 pw.x -in pw.inp   Done                     12/31/2018 09:02:14
00063 suncat0100 pw.x -in pw.inp   Done                     12/31/2018 09:02:14