     Program PWSCF v.5.1rc2 (svn rev. 11289) starts on 27Dec2018 at 23:17:11

     Current dimensions of program PWSCF are:
     Max number of different atomic species (ntypx) = 10
     Max number of k-points (npk) =  40000
     Max angular momentum in pseudopotentials (lmaxx) =  3
     Presently stress not available with electric field

     IMPORTANT: XC functional enforced from input :
     Exchange-correlation      = BEEF-VDW ( 1  4 27 13 2)
     Any further DFT definition will be discarded
     Please, verify this is what you really want

     Subspace diagonalization in iterative solution of the eigenvalue problem:
     a serial algorithm will be used

     bravais-lattice index     =            0
     lattice parameter (alat)  =       1.8897  a.u.
     unit-cell volume          =    5674.9376 (a.u.)^3
     number of atoms/cell      =           12
     number of atomic types    =            2
     number of electrons       =       159.00
     number of Kohn-Sham states=          109
     kinetic-energy cutoff     =      36.7493  Ry
     charge density cutoff     =     367.4932  Ry
     convergence threshold     =      1.0E-06
     mixing beta               =       0.1000
     number of iterations used =           10  plain     mixing
     Exchange-correlation      = BEEF-VDW ( 1  4 27 13 2)
     nstep                     =           50

     celldm(1)=   1.889726  celldm(2)=   0.000000  celldm(3)=   0.000000
     celldm(4)=   0.000000  celldm(5)=   0.000000  celldm(6)=   0.000000

     crystal axes: (cart. coord. in units of alat)
               a(1) = (   6.222274   0.000000   0.000000 )
               a(2) = (  -3.111137   5.388647   0.000000 )
               a(3) = (   0.000000   0.000000  25.080465 )

     reciprocal axes: (cart. coord. in units 2 pi/alat)
               b(1) = (  0.160713  0.092788  0.000000 )
               b(2) = (  0.000000  0.185575  0.000000 )
               b(3) = (  0.000000  0.000000  0.039872 )

     PseudoPot. # 1 for Sc read from file:
     /afs/slac.stanford.edu/u/if/mamunm/psp/gbrv1.5pbe/Sc.UPF
     MD5 check sum: db30a2753ba66ef00f23801d899b7e7f
     Pseudo is Ultrasoft + core correction, Zval = 11.0
     Generated by new atomic code, or converted to UPF format
     Using radial grid of  849 points,  6 beta functions with:
                l(1) =   0
                l(2) =   0
                l(3) =   1
                l(4) =   1
                l(5) =   2
                l(6) =   2
     Q(r) pseudized with  6 coefficients,  rinner =    1.200   1.200   1.200
                                                       1.200   1.200

     PseudoPot. # 2 for Zn read from file:
     /afs/slac.stanford.edu/u/if/mamunm/psp/gbrv1.5pbe/Zn.UPF
     MD5 check sum: df62231357ef9e81f77b2b3087fa5675
     Pseudo is Ultrasoft, Zval = 20.0
     Generated by new atomic code, or converted to UPF format
     Using radial grid of  943 points,  6 beta functions with:
                l(1) =   0
                l(2) =   0
                l(3) =   1
                l(4) =   1
                l(5) =   2
                l(6) =   2
     Q(r) pseudized with  8 coefficients,  rinner =    1.100   1.100   1.100
                                                       1.100   1.100

     vdW kernel table read from file vdW_kernel_table
     MD5 check sum: 095c7af220d748ca6e76c0b4c6cfb241

     atomic species   valence    mass     pseudopotential
        Sc1           11.00    44.95591     Sc( 1.00)
        Zn1           20.00    65.38000     Zn( 1.00)

     No symmetry found

   Cartesian axes

     site n.     atom                  positions (alat units)
         1           Sc1 tau(   1) = (   0.0000000   0.0000000  10.0000000  )
         2           Sc1 tau(   2) = (  -1.5555685   2.6943237  10.0000000  )
         3           Sc1 tau(   3) = (   1.5555685   2.6943237  10.0000000  )
         4           Zn1 tau(   4) = (   3.1111370   0.0000000  10.0000000  )
         5           Sc1 tau(   5) = (   3.1111370   1.7962158  12.5402327  )
         6           Sc1 tau(   6) = (   1.5555685   4.4905395  12.5402327  )
         7           Sc1 tau(   7) = (  -1.5555685   4.4905395  12.5402327  )
         8           Zn1 tau(   8) = (   0.0000000   1.7962158  12.5402327  )
         9           Sc1 tau(   9) = (  -0.0000000   3.5924316  15.0804655  )
        10           Sc1 tau(  10) = (   1.5555685   0.8981079  15.0804655  )
        11           Sc1 tau(  11) = (   4.6667055   0.8981079  15.0804655  )
        12           Zn1 tau(  12) = (   3.1111370   3.5924316  15.0804655  )

     number of k points=    20  Fermi-Dirac smearing, width (Ry)=  0.0110
                       cart. coord. in units 2pi/alat
        k(    1) = (   0.0000000   0.0000000   0.0000000), wk =   0.0555556
        k(    2) = (   0.0000000   0.0309292   0.0000000), wk =   0.1111111
        k(    3) = (   0.0000000   0.0618584   0.0000000), wk =   0.1111111
        k(    4) = (   0.0000000  -0.0927877   0.0000000), wk =   0.0555556
        k(    5) = (   0.0267855   0.0154646   0.0000000), wk =   0.1111111
        k(    6) = (   0.0267855   0.0463938   0.0000000), wk =   0.1111111
        k(    7) = (   0.0267855   0.0773231   0.0000000), wk =   0.1111111
        k(    8) = (   0.0267855  -0.0773231   0.0000000), wk =   0.1111111
        k(    9) = (   0.0267855  -0.0463938   0.0000000), wk =   0.1111111
        k(   10) = (   0.0267855  -0.0154646   0.0000000), wk =   0.1111111
        k(   11) = (   0.0535710   0.0309292   0.0000000), wk =   0.1111111
        k(   12) = (   0.0535710   0.0618584   0.0000000), wk =   0.1111111
        k(   13) = (   0.0535710   0.0927877   0.0000000), wk =   0.1111111
        k(   14) = (   0.0535710  -0.0618584   0.0000000), wk =   0.1111111
        k(   15) = (   0.0535710  -0.0309292   0.0000000), wk =   0.1111111
        k(   16) = (   0.0535710   0.0000000   0.0000000), wk =   0.1111111
        k(   17) = (  -0.0803565  -0.0463938   0.0000000), wk =   0.0555556
        k(   18) = (  -0.0803565  -0.0154646   0.0000000), wk =   0.1111111
        k(   19) = (  -0.0803565   0.0154646   0.0000000), wk =   0.1111111
        k(   20) = (  -0.0803565  -0.1391815   0.0000000), wk =   0.0555556

     Largest allocated arrays     est. size (Mb)     dimensions
     Largest temporary arrays     est. size (Mb)     dimensions

     Initial potential from superposition of free atoms
     Check: negative starting charge=   -0.000506

     starting charge  158.97796, renormalised to  159.00000

     negative rho (up, down):  5.059E-04 0.000E+00

     *
     * You are using vdW-DF for exchange-correlation in this calculation.
     * Please cite the following three references that made this development
     * possible:
     *
     *   M. Dion, H. Rydberg, E. Schroder, D. C. Langreth, and
     *   B. I. Lundqvist, Phys. Rev. Lett. 92, 246401 (2004).
     *
     *   T. Thonhauser, V. R. Cooper, S. Li, A. Puzder, P. Hyldgaard, and
     *   D. C. Langreth, Phys. Rev. B 76, 125112 (2007).
     *
     *   G. Roman-Perez and J. M. Soler, Phys. Rev. Lett. 103, 096102 (2009).
     *
     *
     * If you are using vdW-DF2, please also cite:
     *
     *   K. Lee, E. D. Murray, L. Kong, B. I. Lundqvist, and
     *   D. C. Langreth, Phys. Rev. B 82, 081101(R) (2010).
     *
     *
     * If you are calculating the stress with vdW-DF, please also cite:
     *
     *   R. Sabatini, E. Kucukbenli, B. Kolb, T. Thonhauser, and
     *   S. de Gironcoli, J. Phys.: Condens. Matter 24, 424209 (2012).
     *

     Carrying out vdW-DF run using the following parameters:

     Nqs =      20    Nr_points =    1024   r_max =   100.000
     q_mesh =
               0.00001000     0.04494208     0.09755937     0.15916263
               0.23128650     0.31572767     0.41458969     0.53033537
               0.66584808     0.82450364     1.01025438     1.22772762
               1.48234092     1.78043706     2.12944203     2.53805004
               3.01644009     3.57652955     4.23227104     5.00000000

     Gradients computed in reciprocal space

     Adding external electric field

     Computed dipole along edir(3) :
        Dipole               -0.0000 Ry au,         -0.0000 Debye
        Dipole field         -0.0000 Ry au

        Potential amp.        0.0000 Ry
        Total length         46.2103 bohr

     Starting wfc are  156 randomized atomic wfcs

     Self-consistent Calculation

     iteration #  1     ecut=    36.75 Ry     beta=0.10
     Davidson diagonalization with overlap
     ethr =  1.00E-02,  avg # of iterations =  2.0

[...]

     total energy              =   -2241.11095360 Ry
     Harris-Foulkes estimate   =   -2242.03966009 Ry
     estimated scf accuracy    <       5.26596661 Ry

[...]

     End of self-consistent calculation

          k = 0.0000 0.0000 0.0000 ( 21367 PWs)   bands (ev):

  -125.4791-125.4785-125.3183 -79.6508 -79.6502 -79.6451 -79.6451 -79.6445
   -79.6445 -79.4830 -79.4830 -79.4810 -49.4911 -49.4895 -49.4392 -49.4391
   -49.4387 -49.4387 -49.1204 -49.0699 -49.0699 -28.2582 -28.2285 -28.2000
   -28.1714 -28.1604 -28.1604 -28.1369 -28.1369 -28.1285 -28.1285 -28.1193
   -28.1192 -27.9430 -27.9370 -27.9313 -27.8273 -27.8273 -27.8204 -27.8204
   -27.7560 -27.7560 -27.6870 -27.6542 -27.6542 -27.5634 -27.5245 -27.5245
    -6.3719  -6.3719  -6.3655  -6.3655  -6.3610  -6.3513  -6.3433  -6.3433
    -6.3237  -6.3237  -6.2001  -6.2001  -6.1961  -6.1633  -6.1633  -5.3883
    -4.2741  -3.4413  -1.6806  -1.5336  -1.3805  -0.4953  -0.4953  -0.2640
    -0.2640  -0.1390   0.0046   0.0046   0.0789   0.4055   0.4055   0.4786
     0.5245   0.5245   0.6854   0.8849   1.1584   1.2530   1.2530   1.2969
     1.2970   1.5147   1.5147   1.5646   1.7540   1.7540   1.8500   2.1434
     2.6619   2.8735   2.8736   2.8843   2.9281   2.9282   3.0044   3.0045
     3.1541   3.1541   3.3449   3.3913   3.3914

[...]

          k =-0.0804-0.0464 0.0000 ( 21348 PWs)   bands (ev):

[...]

     the Fermi energy is     0.4970 ev

!    total energy              =   -2241.60116734 Ry
     Harris-Foulkes estimate   =   -2241.60117037 Ry
     estimated scf accuracy    <       0.00000086 Ry

     The total energy is the sum of the following terms:

     one-electron contribution =  -12173.59871679 Ry
     hartree contribution      =    6069.54281888 Ry
     xc contribution           =    -255.02610843 Ry
     ewald contribution        =    4117.59595075 Ry
     electric field correction =       0.00000000 Ry
     smearing contrib. (-TS)   =      -0.11511175 Ry

     convergence has been achieved in  17 iterations

 BEEF-vdW xc energy contributions
           1 :   -221.348905135059
           2 :    197.853192233546
           3 :   -159.912245434948
           4 :    120.413982861684
           5 :   -89.4003825554653
           6 :    70.1385770946060
           7 :   -59.7291275330867
           8 :    52.8433261457244
           9 :   -45.6036986766411
          10 :    37.2908312920015
          11 :   -29.4971915208093
          12 :    24.0172008047419
          13 :   -21.2372229220537
          14 :    20.0196862819843
          15 :   -18.8005632077958
          16 :    16.7892990835022
          17 :   -14.3253157660631
[...]
     Generated by new atomic code, or converted to UPF format
     Using radial grid of  849 points,  6 beta functions with:
                l(1) =   0
                l(2) =   0
                l(3) =   1
                l(4) =   1
                l(5) =   2
                l(6) =   2
     Q(r) pseudized with  6 coefficients,  rinner =    1.200   1.200   1.200
                                                       1.200   1.200

     PseudoPot. # 2 for Zn read from file:
     /afs/slac.stanford.edu/u/if/mamunm/psp/gbrv1.5pbe/Zn.UPF
     MD5 check sum: df62231357ef9e81f77b2b3087fa5675
     Pseudo is Ultrasoft, Zval = 20.0
     Generated by new atomic code, or converted to UPF format
     Using radial grid of  943 points,  6 beta functions with:
                l(1) =   0
                l(2) =   0
                l(3) =   1
                l(4) =   1
                l(5) =   2
                l(6) =   2
     Q(r) pseudized with  8 coefficients,  rinner =    1.100   1.100   1.100
                                                       1.100   1.100

     vdW kernel table read from file vdW_kernel_table
     MD5 check sum: 095c7af220d748ca6e76c0b4c6cfb241

     atomic species   valence    mass     pseudopotential
        Sc1           11.00    44.95591     Sc( 1.00)
        Zn1           20.00    65.38000     Zn( 1.00)

     No symmetry found

   Cartesian axes

     site n.     atom                  positions (alat units)
         1           Sc1 tau(   1) = (   0.0000000   0.0000000  10.0000000  )
         2           Sc1 tau(   2) = (  -1.5555685   2.6943237  10.0000000  )
         3           Sc1 tau(   3) = (   1.5555685   2.6943237  10.0000000  )
         4           Zn1 tau(   4) = (   3.1111370   0.0000000  10.0000000  )
         5           Sc1 tau(   5) = (   3.1111370   1.7962158  12.5402327  )
         6           Sc1 tau(   6) = (   1.5555685   4.4905395  12.5402327  )
         7           Sc1 tau(   7) = (  -1.5555685   4.4905395  12.5402327  )
         8           Zn1 tau(   8) = (   0.0000000   1.7962158  12.5402327  )
         9           Sc1 tau(   9) = (  -0.0000503   3.5641453  15.1080617  )
        10           Sc1 tau(  10) = (   1.5310638   0.9122275  15.1080736  )
        11           Sc1 tau(  11) = (   4.6911932   0.9122654  15.1081171  )
        12           Zn1 tau(  12) = (   3.1112529   3.5925123  14.8885734  )

     number of k points=    20  Fermi-Dirac smearing, width (Ry)=  0.0110
                       cart. coord. in units 2pi/alat
        k(    1) = (   0.0000000   0.0000000   0.0000000), wk =   0.0555556
        k(    2) = (   0.0000000   0.0309292   0.0000000), wk =   0.1111111
        k(    3) = (   0.0000000   0.0618584   0.0000000), wk =   0.1111111
        k(    4) = (   0.0000000  -0.0927877   0.0000000), wk =   0.0555556
        k(    5) = (   0.0267855   0.0154646   0.0000000), wk =   0.1111111
        k(    6) = (   0.0267855   0.0463938   0.0000000), wk =   0.1111111
        k(    7) = (   0.0267855   0.0773231   0.0000000), wk =   0.1111111
        k(    8) = (   0.0267855  -0.0773231   0.0000000), wk =   0.1111111
        k(    9) = (   0.0267855  -0.0463938   0.0000000), wk =   0.1111111
        k(   10) = (   0.0267855  -0.0154646   0.0000000), wk =   0.1111111
        k(   11) = (   0.0535710   0.0309292   0.0000000), wk =   0.1111111
        k(   12) = (   0.0535710   0.0618584   0.0000000), wk =   0.1111111
        k(   13) = (   0.0535710   0.0927877   0.0000000), wk =   0.1111111
        k(   14) = (   0.0535710  -0.0618584   0.0000000), wk =   0.1111111
        k(   15) = (   0.0535710  -0.0309292   0.0000000), wk =   0.1111111
        k(   16) = (   0.0535710   0.0000000   0.0000000), wk =   0.1111111
        k(   17) = (  -0.0803565  -0.0463938   0.0000000), wk =   0.0555556
        k(   18) = (  -0.0803565  -0.0154646   0.0000000), wk =   0.1111111
        k(   19) = (  -0.0803565   0.0154646   0.0000000), wk =   0.1111111
        k(   20) = (  -0.0803565  -0.1391815   0.0000000), wk =   0.0555556

     Largest allocated arrays     est. size (Mb)     dimensions
     Largest temporary arrays     est. size (Mb)     dimensions

     Initial potential from superposition of free atoms
     Check: negative starting charge=   -0.000499

     starting charge  158.97796, renormalised to  159.00000

[...]

     *
     * You are using vdW-DF for exchange-correlation in this calculation.
     * Please cite the following three references that made this development
     * possible:
     *
     *   M. Dion, H. Rydberg, E. Schroder, D. C. Langreth, and
     *   B. I. Lundqvist, Phys. Rev. Lett. 92, 246401 (2004).
     *
     *   T. Thonhauser, V. R. Cooper, S. Li, A. Puzder, P. Hyldgaard, and
     *   D. C. Langreth, Phys. Rev. B 76, 125112 (2007).
     *
     *   G. Roman-Perez and J. M. Soler, Phys. Rev. Lett. 103, 096102 (2009).
     *
     *
     * If you are using vdW-DF2, please also cite:
     *
     *   K. Lee, E. D. Murray, L. Kong, B. I. Lundqvist, and
     *   D. C. Langreth, Phys. Rev. B 82, 081101(R) (2010).
     *
     *
     * If you are calculating the stress with vdW-DF, please also cite:
     *
     *   R. Sabatini, E. Kucukbenli, B. Kolb, T. Thonhauser, and
     *   S. de Gironcoli, J. Phys.: Condens. Matter 24, 424209 (2012).
     *

     Carrying out vdW-DF run using the following parameters:

     Nqs =      20    Nr_points =    1024   r_max =   100.000
     q_mesh =
               0.00001000     0.04494208     0.09755937     0.15916263
               0.23128650     0.31572767     0.41458969     0.53033537
               0.66584808     0.82450364     1.01025438     1.22772762
               1.48234092     1.78043706     2.12944203     2.53805004
               3.01644009     3.57652955     4.23227104     5.00000000

     Gradients computed in reciprocal space

[...]

     Starting wfc are  156 randomized atomic wfcs

     Self-consistent Calculation

[...]

     iteration # 11     ecut=    36.75 Ry     beta=0.10
     Davidson diagonalization with overlap
     c_bands:  1 eigenvalues not converged
     ethr =  6.66E-07,  avg # of iterations =  9.8

[...]

     total energy              =   -2241.61248090 Ry
     Harris-Foulkes estimate   =   -2241.61247997 Ry
     estimated scf accuracy    <       0.00000183 Ry

     iteration # 17     ecut=    36.75 Ry     beta=0.10
     Davidson diagonalization with overlap
     ethr =  1.15E-09,  avg # of iterations =  3.2

[...]

     negative rho (up, down):  4.374E-04 0.000E+00

     Adding external electric field

     Computed dipole along edir(3) :
        Dipole                0.0294 Ry au,          0.0746 Debye
        Dipole field          0.0001 Ry au

        Potential amp.       -0.0060 Ry
        Total length         46.2103 bohr

     End of self-consistent calculation

[...]

          k = 0.0536 0.0000 0.0000 ( 21355 PWs)   bands (ev):

[...]

          k =-0.0804-0.1392 0.0000 ( 21348 PWs)   bands (ev):

  -125.4973-125.4524-125.2806 -79.6785 -79.6558 -79.6558 -79.6243 -79.6184
   -79.6183 -79.4456 -79.4456 -79.4418 -49.4710 -49.4517 -49.4448 -49.4354
   -49.4277 -49.4106 -49.0696 -49.0527 -49.0358 -28.1790 -28.1674 -28.1564
   -28.1448 -28.1315 -28.1267 -28.1194 -28.1061 -28.0463 -28.0435 -28.0178
   -28.0153 -28.0045 -27.9846 -27.9666 -27.9580 -27.8234 -27.8124 -27.8094
   -27.6745 -27.6565 -27.6399 -27.6326 -27.6314 -27.6290 -27.6127 -27.5010
    -6.3761  -6.3648  -6.3639  -6.3510  -6.3455  -6.3338  -6.3154  -6.3073
    -6.3024  -6.3002  -6.1573  -6.1439  -6.1406  -6.1301  -6.1187  -4.2634
    -4.1020  -3.4379  -2.4463  -1.7561  -1.3660  -1.3265  -0.5883  -0.4974
    -0.3391  -0.1174   0.0559   0.2116   0.2700   0.3505   0.3985   0.4931
     0.6387   0.7124   0.8160   1.0496   1.0554   1.1072   1.1981   1.2389
     1.2650   1.3472   1.5988   1.6474   1.7647   1.8483   1.9400   2.0224
     2.1652   2.5939   2.6680   2.7114   2.7692   2.8318   2.8551   2.9479
     2.9830   3.0392   3.0420   3.1350   3.1967

     the Fermi energy is     0.5251 ev

!    total energy              =   -2241.61248233 Ry
     Harris-Foulkes estimate   =   -2241.61248157 Ry
     estimated scf accuracy    <       0.00000031 Ry

     The total energy is the sum of the following terms:

     one-electron contribution =  -12255.59929029 Ry
     hartree contribution      =    6110.65067623 Ry
     xc contribution           =    -255.03493486 Ry
     ewald contribution        =    4158.48452601 Ry
     electric field correction =       0.00000191 Ry
     smearing contrib. (-TS)   =      -0.11346132 Ry

     convergence has been achieved in  17 iterations

 BEEF-vdW xc energy contributions
           1 :   -221.547662494396
           2 :    198.061419536336
           3 :   -160.130546311689
           4 :    120.630280041743
           5 :   -89.5949943170416
           6 :    70.2978069354092
           7 :   -59.8579101380455
           8 :    52.9639864665067
           9 :   -45.7391663971610
          10 :    37.4465571220988
          11 :   -29.6582420058774
          12 :    24.1626869680083
          13 :   -21.3586943783281
          14 :    20.1282567946122
          15 :   -18.9186122913185
          16 :    16.9342849482990
          17 :   -14.4974716972574
          18 :    12.4812209201095
          19 :   -11.4637865424953
          20 :    11.3135395864871
          21 :   -11.4124152925689
          22 :    11.1918854220686
          23 :   -10.5106519950450
          24 :    9.63904957563881
          25 :   -8.96118784827860
          26 :    8.67910201577652
          27 :   -8.72429360452455
          28 :    8.87100692621820
          29 :   -8.90743666634282
          30 :    8.73789586248296
          31 :   -21.3848481534471
          32 :   -15.0121649088120

     Forces acting on atoms (Ry/au):

     negative rho (up, down):  4.374E-04 0.000E+00
     atom    1 type  1   force =    -0.00000326    0.01006758   -0.00538472
     atom    2 type  1   force =     0.00872421   -0.00503609   -0.00539405
     atom    3 type  1   force =    -0.00872280   -0.00503103   -0.00539124
     atom    4 type  2   force =     0.00001510   -0.00001839    0.01916980
     atom    5 type  1   force =     0.00000272   -0.00099125    0.00076951
     atom    6 type  1   force =    -0.00085882    0.00049612    0.00077231
     atom    7 type  1   force =     0.00086187    0.00049549    0.00076308
     atom    8 type  2   force =    -0.00000202    0.00000563    0.00011605
     atom    9 type  1   force =     0.00001321    0.00018822   -0.00130876
     atom   10 type  1   force =     0.00016006   -0.00008782   -0.00129971
     atom   11 type  1   force =    -0.00015760   -0.00010234   -0.00130569
     atom   12 type  2   force =    -0.00003267    0.00001388   -0.00150657

     Total force =     0.027768     Total SCF correction =     0.003123
     SCF correction compared to forces is large: reduce conv_thr to get better values

     entering subroutine stress ...

     negative rho (up, down):  4.374E-04 0.000E+00
          total   stress  (Ry/bohr**3)                   (kbar)     P=   -5.01
  -0.00004205   0.00000000  -0.00000000         -6.19      0.00     -0.00
   0.00000000  -0.00004205  -0.00000000          0.00     -6.19     -0.00
  -0.00000000  -0.00000000  -0.00001801         -0.00     -0.00     -2.65

 !ASE

     Writing output data file calc.save

     General routines

     Parallel routines

   This run was terminated on:   0:22:59  28Dec2018

   JOB DONE.
Job  /afs/slac/g/suncat/bin/suncat-tsmpirun -x LD_LIBRARY_PATH -wdir /scratch/qe110895_9KxWH pw.x -in pw.inp

TID   HOST_NAME   COMMAND_LINE            STATUS            TERMINATION_TIME
00000 suncat0081 pw.x -in pw.inp   Done                     12/28/2018 00:22:59
00001 suncat0081 pw.x -in pw.inp   Done                     12/28/2018 00:22:59
00002 suncat0081 pw.x -in pw.inp   Done                     12/28/2018 00:22:59
00003 suncat0081 pw.x -in pw.inp   Done                     12/28/2018 00:22:59
00004 suncat0081 pw.x -in pw.inp   Done                     12/28/2018 00:22:59
00005 suncat0081 pw.x -in pw.inp   Done                     12/28/2018 00:22:59
00006 suncat0081 pw.x -in pw.inp   Done                     12/28/2018 00:22:59
00007 suncat0081 pw.x -in pw.inp   Done                     12/28/2018 00:22:59
00008 suncat0079 pw.x -in pw.inp   Done                     12/28/2018 00:22:59
00009 suncat0079 pw.x -in pw.inp   Done                     12/28/2018 00:22:59
00010 suncat0079 pw.x -in pw.inp   Done                     12/28/2018 00:22:59
00011 suncat0079 pw.x -in pw.inp   Done                     12/28/2018 00:22:59
00012 suncat0079 pw.x -in pw.inp   Done                     12/28/2018 00:22:59
00013 suncat0079 pw.x -in pw.inp   Done                     12/28/2018 00:22:59
00014 suncat0079 pw.x -in pw.inp   Done                     12/28/2018 00:22:59
00015 suncat0079 pw.x -in pw.inp   Done                     12/28/2018 00:22:59
00016 suncat0076 pw.x -in pw.inp   Done                     12/28/2018 00:22:59
00017 suncat0076 pw.x -in pw.inp   Done                     12/28/2018 00:22:59
00018 suncat0076 pw.x -in pw.inp   Done                     12/28/2018 00:22:59
00019 suncat0076 pw.x -in pw.inp   Done                     12/28/2018 00:22:59
00020 suncat0076 pw.x -in pw.inp   Done                     12/28/2018 00:22:59
00021 suncat0076 pw.x -in pw.inp   Done                     12/28/2018 00:22:59
00022 suncat0076 pw.x -in pw.inp   Done                     12/28/2018 00:22:59
00023 suncat0076 pw.x -in pw.inp   Done                     12/28/2018 00:22:59
00024 suncat0073 pw.x -in pw.inp   Done                     12/28/2018 00:22:59
00025 suncat0073 pw.x -in pw.inp   Done                     12/28/2018 00:22:59
00026 suncat0073 pw.x -in pw.inp   Done                     12/28/2018 00:22:59
00027 suncat0073 pw.x -in pw.inp   Done                     12/28/2018 00:22:59
00028 suncat0073 pw.x -in pw.inp   Done                     12/28/2018 00:22:59
00029 suncat0073 pw.x -in pw.inp   Done                     12/28/2018 00:22:59
00030 suncat0073 pw.x -in pw.inp   Done                     12/28/2018 00:22:59
00031 suncat0073 pw.x -in pw.inp   Done                     12/28/2018 00:22:59
00032 suncat0064 pw.x -in pw.inp   Done                     12/28/2018 00:22:59
00033 suncat0064 pw.x -in pw.inp   Done                     12/28/2018 00:22:59
00034 suncat0064 pw.x -in pw.inp   Done                     12/28/2018 00:22:59
00035 suncat0064 pw.x -in pw.inp   Done                     12/28/2018 00:22:59
00036 suncat0064 pw.x -in pw.inp   Done                     12/28/2018 00:22:59
00037 suncat0064 pw.x -in pw.inp   Done                     12/28/2018 00:22:59
00038 suncat0064 pw.x -in pw.inp   Done                     12/28/2018 00:22:59
00039 suncat0064 pw.x -in pw.inp   Done                     12/28/2018 00:22:59
00040 suncat0058 pw.x -in pw.inp   Done                     12/28/2018 00:22:59
00041 suncat0058 pw.x -in pw.inp   Done                     12/28/2018 00:22:59
00042 suncat0058 pw.x -in pw.inp   Done                     12/28/2018 00:22:59
00043 suncat0058 pw.x -in pw.inp   Done                     12/28/2018 00:22:59
00044 suncat0058 pw.x -in pw.inp   Done                     12/28/2018 00:22:59
00045 suncat0058 pw.x -in pw.inp   Done                     12/28/2018 00:22:59
00046 suncat0058 pw.x -in pw.inp   Done                     12/28/2018 00:22:59
00047 suncat0058 pw.x -in pw.inp   Done                     12/28/2018 00:22:59
00048 suncat0040 pw.x -in pw.inp   Done                     12/28/2018 00:22:59
00049 suncat0040 pw.x -in pw.inp   Done                     12/28/2018 00:22:59
00050 suncat0040 pw.x -in pw.inp   Done                     12/28/2018 00:22:59
00051 suncat0040 pw.x -in pw.inp   Done                     12/28/2018 00:22:59
00052 suncat0040 pw.x -in pw.inp   Done                     12/28/2018 00:22:59
00053 suncat0040 pw.x -in pw.inp   Done                     12/28/2018 00:22:59
00054 suncat0040 pw.x -in pw.inp   Done                     12/28/2018 00:22:59
00055 suncat0040 pw.x -in pw.inp   Done                     12/28/2018 00:22:59
00056 suncat0179 pw.x -in pw.inp   Done                     12/28/2018 00:22:59
00057 suncat0179 pw.x -in pw.inp   Done                     12/28/2018 00:22:59
00058 suncat0179 pw.x -in pw.inp   Done                     12/28/2018 00:22:59
00059 suncat0179 pw.x -in pw.inp   Done                     12/28/2018 00:22:59
00060 suncat0179 pw.x -in pw.inp   Done                     12/28/2018 00:22:59
00061 suncat0179 pw.x -in pw.inp   Done                     12/28/2018 00:22:59
00062 suncat0179 pw.x -in pw.inp   Done                     12/28/2018 00:22:59
00063 suncat0179 pw.x -in pw.inp   Done                     12/28/2018 00:22:59