     Program PWSCF v.5.1rc2 (svn rev. 11289) starts on 19Dec2018 at  6:36:29

     Current dimensions of program PWSCF are:
     Max number of different atomic species (ntypx) = 10
     Max number of k-points (npk) =  40000
     Max angular momentum in pseudopotentials (lmaxx) =  3
     Presently stress not available with electric field

     IMPORTANT: XC functional enforced from input :
     Exchange-correlation      = BEEF-VDW ( 1  4 27 13 2)
     Any further DFT definition will be discarded
     Please, verify this is what you really want

     Subspace diagonalization in iterative solution of the eigenvalue problem:
     a serial algorithm will be used

     Found symmetry operation: I + (  0.5000  0.5000  0.0000)
     This is a supercell, fractional translations are disabled

     bravais-lattice index     =            0
     lattice parameter (alat)  =       1.8897  a.u.
     unit-cell volume          =    5254.5369 (a.u.)^3
     number of atoms/cell      =           12
     number of atomic types    =            2
     number of electrons       =       168.00
     number of Kohn-Sham states=          114
     kinetic-energy cutoff     =      36.7493  Ry
     charge density cutoff     =     367.4932  Ry
     convergence threshold     =      1.0E-06
     mixing beta               =       0.1000
     number of iterations used =           10  plain     mixing
     Exchange-correlation      = BEEF-VDW ( 1  4 27 13 2)
     nstep                     =           50

     celldm(1)=   1.889726  celldm(2)=   0.000000  celldm(3)=   0.000000
     celldm(4)=   0.000000  celldm(5)=   0.000000  celldm(6)=   0.000000

     crystal axes: (cart. coord. in units of alat)
               a(1) = (   5.780130   0.000000   0.000000 )
               a(2) = (   1.926709   5.449559   0.000000 )
               a(3) = (   0.000000   0.000000  24.719456 )

     reciprocal axes: (cart. coord. in units 2 pi/alat)
               b(1) = (  0.173006 -0.061167  0.000000 )
               b(2) = (  0.000000  0.183501  0.000000 )
               b(3) = (  0.000000  0.000000  0.040454 )

     PseudoPot. # 1 for Sn read from file:
     /afs/slac.stanford.edu/u/if/mamunm/psp/gbrv1.5pbe/Sn.UPF
     MD5 check sum: 469debedee59599fedebd795477fea03
     Pseudo is Ultrasoft + core correction, Zval = 14.0
     Generated by new atomic code, or converted to UPF format
     Using radial grid of  891 points,  6 beta functions with:
                l(1) =   0
                l(2) =   0
                l(3) =   1
                l(4) =   1
                l(5) =   2
                l(6) =   2
     Q(r) pseudized with  8 coefficients,  rinner =    1.350   1.350   1.350
                                                       1.350   1.350

     PseudoPot. # 2 for W  read from file:
     /afs/slac.stanford.edu/u/if/mamunm/psp/gbrv1.5pbe/W.UPF
     MD5 check sum: 9c083fa34c2a2ea0f02f1f893e16e1c8
     Pseudo is Ultrasoft + core correction, Zval = 14.0
     Generated by new atomic code, or converted to UPF format
     Using radial grid of  923 points,  8 beta functions with:
                l(1) =   0
                l(2) =   0
                l(3) =   0
                l(4) =   1
                l(5) =   1
                l(6) =   2
                l(7) =   2
                l(8) =   3
     Q(r) pseudized with  6 coefficients,  rinner =    1.350   1.350   1.350
                                                       1.350   1.350   1.350
                                                       1.350

     vdW kernel table read from file vdW_kernel_table
     MD5 check sum: 095c7af220d748ca6e76c0b4c6cfb241

     atomic species   valence    mass     pseudopotential
        Sn1           14.00   118.71000     Sn( 1.00)
        W1            14.00   183.84000     W ( 1.00)

     No symmetry found

   Cartesian axes

     site n.     atom                  positions (alat units)
         1           Sn1 tau(   1) = (   0.0000000   0.0000000  10.0000000  )
         2           Sn1 tau(   2) = (   3.8534194   2.7247795  10.0000000  )
         3           W1  tau(   3) = (   2.8900649   0.0000000  10.0000000  )
         4           W1  tau(   4) = (   0.9633545   2.7247795  10.0000000  )
         5           Sn1 tau(   5) = (   5.7801297   4.0871697  12.3597279  )
         6           Sn1 tau(   6) = (   1.9267104   1.3623902  12.3597279  )
         7           W1  tau(   7) = (   2.8900649   4.0871697  12.3597279  )
         8           W1  tau(   8) = (   4.8167752   1.3623902  12.3597279  )
         9           Sn1 tau(   9) = (   3.8534208   2.7247805  14.7194559  )
        10           Sn1 tau(  10) = (   0.0000014   0.0000010  14.7194559  )
        11           W1  tau(  11) = (   0.9633559   2.7247805  14.7194559  )
        12           W1  tau(  12) = (   2.8900663   0.0000010  14.7194559  )

     number of k points=    20  Fermi-Dirac smearing, width (Ry)=  0.0110
                       cart. coord. in units 2pi/alat
        k(    1) = (   0.0000000   0.0000000   0.0000000), wk =   0.0555556
        k(    2) = (   0.0000000   0.0305835   0.0000000), wk =   0.1111111
        k(    3) = (   0.0000000   0.0611670   0.0000000), wk =   0.1111111
        k(    4) = (   0.0000000  -0.0917505   0.0000000), wk =   0.0555556
        k(    5) = (   0.0288344  -0.0101945   0.0000000), wk =   0.1111111
        k(    6) = (   0.0288344   0.0203890   0.0000000), wk =   0.1111111
        k(    7) = (   0.0288344   0.0509725   0.0000000), wk =   0.1111111
        k(    8) = (   0.0288344  -0.1019450   0.0000000), wk =   0.1111111
        k(    9) = (   0.0288344  -0.0713615   0.0000000), wk =   0.1111111
        k(   10) = (   0.0288344  -0.0407780   0.0000000), wk =   0.1111111
        k(   11) = (   0.0576688  -0.0203890   0.0000000), wk =   0.1111111
        k(   12) = (   0.0576688   0.0101945   0.0000000), wk =   0.1111111
        k(   13) = (   0.0576688   0.0407780   0.0000000), wk =   0.1111111
        k(   14) = (   0.0576688  -0.1121395   0.0000000), wk =   0.1111111
        k(   15) = (   0.0576688  -0.0815560   0.0000000), wk =   0.1111111
        k(   16) = (   0.0576688  -0.0509725   0.0000000), wk =   0.1111111
        k(   17) = (  -0.0865032   0.0305835   0.0000000), wk =   0.0555556
        k(   18) = (  -0.0865032   0.0611670   0.0000000), wk =   0.1111111
        k(   19) = (  -0.0865032   0.0917505   0.0000000), wk =   0.1111111
        k(   20) = (  -0.0865032  -0.0611670   0.0000000), wk =   0.0555556

     Largest allocated arrays     est. size (Mb)     dimensions
     Largest temporary arrays     est. size (Mb)     dimensions

     Initial potential from superposition of free atoms
     Check: negative starting charge=   -0.383580

     starting charge  161.39769, renormalised to  168.00000

     negative rho (up, down):  3.993E-01 0.000E+00

     *
     * You are using vdW-DF for exchange-correlation in this calculation.
     * Please cite the following three references that made this development
     * possible:
     *
     *   M. Dion, H. Rydberg, E. Schroder, D. C. Langreth, and
     *   B. I. Lundqvist, Phys. Rev. Lett. 92, 246401 (2004).
     *
     *   T. Thonhauser, V. R. Cooper, S. Li, A. Puzder, P. Hyldgaard, and
     *   D. C. Langreth, Phys. Rev. B 76, 125112 (2007).
     *
     *   G. Roman-Perez and J. M. Soler, Phys. Rev. Lett. 103, 096102 (2009).
     *
     *
     * If you are using vdW-DF2, please also cite:
     *
     *   K. Lee, E. D. Murray, L. Kong, B. I. Lundqvist, and
     *   D. C. Langreth, Phys. Rev. B 82, 081101(R) (2010).
     *
     *
     * If you are calculating the stress with vdW-DF, please also cite:
     *
     *   R. Sabatini, E. Kucukbenli, B. Kolb, T. Thonhauser, and
     *   S. de Gironcoli, J. Phys.: Condens. Matter 24, 424209 (2012).
     *

     Carrying out vdW-DF run using the following parameters:

     Nqs =      20    Nr_points =    1024   r_max =   100.000
     q_mesh =
               0.00001000     0.04494208     0.09755937     0.15916263
               0.23128650     0.31572767     0.41458969     0.53033537
               0.66584808     0.82450364     1.01025438     1.22772762
               1.48234092     1.78043706     2.12944203     2.53805004
               3.01644009     3.57652955     4.23227104     5.00000000

     Gradients computed in reciprocal space

     Adding external electric field

     Computed dipole along edir(3) :
        Dipole               -0.0000 Ry au,         -0.0000 Debye
        Dipole field         -0.0000 Ry au

        Potential amp.        0.0000 Ry
        Total length         45.5452 bohr

     Starting wfc are  132 randomized atomic wfcs

     Self-consistent Calculation

     iteration #  1     ecut=    36.75 Ry     beta=0.10
     Davidson diagonalization with overlap
     ethr =  1.00E-02,  avg # of iterations =  8.3

[...]

     total energy              =   -1926.81821691 Ry
     Harris-Foulkes estimate   =   -1927.33741133 Ry
     estimated scf accuracy    <       3.37784507 Ry

[...]

     End of self-consistent calculation

          k = 0.0000 0.0000 0.0000 ( 19839 PWs)   bands (ev):

   -72.6490 -72.6486 -72.6453 -72.6449 -72.5407 -72.5370 -36.8005 -36.8001
   -36.7718 -36.7690 -36.7582 -36.7466 -36.7235 -36.6927 -36.6820 -36.6817
   -36.6674 -36.6595 -36.6570 -36.6397 -36.6394 -36.6306 -36.5944 -36.5146
   -19.8389 -19.8362 -19.7876 -19.7840 -19.7801 -19.7762 -19.7697 -19.7487
   -19.7262 -19.6929 -19.6877 -19.6785 -19.6667 -19.6551 -19.6336 -19.6297
   -19.6095 -19.6051 -19.6034 -19.6019 -19.5741 -19.5711 -19.5710 -19.5692
   -19.5620 -19.5563 -19.5349 -19.5216 -19.4931 -19.4832  -9.1151  -7.3865
    -5.9212  -5.7814  -5.2449  -5.1796  -2.5283  -2.4317  -1.7622  -1.4566
    -1.4385  -1.2661  -1.0298  -0.8557  -0.4282  -0.3392  -0.0949   0.0482
     0.0543   0.4329   0.7640   0.7805   0.8105   0.9531   1.4058   1.4317
     1.4423   1.5204   1.6122   1.8693   1.8916   1.9633   2.0072   2.2262
     2.2390   2.4400   2.8037   2.8716   3.3276   3.6536   3.8036   3.8480
     4.3437   4.3630   4.5728   4.8055   4.9198   5.1605   5.1628   5.2346
     5.3826   5.4306   5.6545   5.7280   6.1642   6.1713   6.2531   6.3717
     7.0467   7.4370

[...]

          k =-0.0865 0.0306 0.0000 ( 19794 PWs)   bands (ev):

[...]

     the Fermi energy is     1.8406 ev

!    total energy              =   -1926.06119160 Ry
     Harris-Foulkes estimate   =   -1926.06119438 Ry
     estimated scf accuracy    <       0.00000065 Ry

     The total energy is the sum of the following terms:

     one-electron contribution =  -13209.45828643 Ry
     hartree contribution      =    6630.15208999 Ry
     xc contribution           =    -522.65730796 Ry
     ewald contribution        =    5175.97627252 Ry
     electric field correction =       0.00000000 Ry
     smearing contrib. (-TS)   =      -0.07395973 Ry

     convergence has been achieved in  15 iterations

 BEEF-vdW xc energy contributions
           1 :   -459.744660174081
           2 :    423.552661318194
           3 :   -360.927225335640
           4 :    287.377575046740
           5 :   -218.335244563733
           6 :    164.115809083125
           7 :   -127.623761395014
           8 :    105.352006442867
[...]

[...]

     Program PWSCF v.5.1rc2 (svn rev. 11289) starts on 19Dec2018 at  6:53:16

[...]

     Found symmetry operation: I + (  0.5000  0.5000  0.0000)
     This is a supercell, fractional translations are disabled

[...]

   This run was terminated on:   6:59: 2  19Dec2018

[...]

     Program PWSCF v.5.1rc2 (svn rev. 11289) starts on 19Dec2018 at  6:59: 8

     Current dimensions of program PWSCF are:
     Max number of different atomic species (ntypx) = 10
     Max number of k-points (npk) =  40000
     Max angular momentum in pseudopotentials (lmaxx) =  3
     Presently stress not available with electric field

     IMPORTANT: XC functional enforced from input :
     Exchange-correlation      = BEEF-VDW ( 1  4 27 13 2)
     Any further DFT definition will be discarded
     Please, verify this is what you really want

     Subspace diagonalization in iterative solution of the eigenvalue problem:
     a serial algorithm will be used

     bravais-lattice index     =            0
     lattice parameter (alat)  =       1.8897  a.u.
     unit-cell volume          =    5254.5369 (a.u.)^3
     number of atoms/cell      =           12
     number of atomic types    =            2
     number of electrons       =       168.00
     number of Kohn-Sham states=          114
     kinetic-energy cutoff     =      36.7493  Ry
     charge density cutoff     =     367.4932  Ry
     convergence threshold     =      1.0E-06
     mixing beta               =       0.1000
     number of iterations used =           10  plain     mixing
     Exchange-correlation      = BEEF-VDW ( 1  4 27 13 2)
     nstep                     =           50

     celldm(1)=   1.889726  celldm(2)=   0.000000  celldm(3)=   0.000000
     celldm(4)=   0.000000  celldm(5)=   0.000000  celldm(6)=   0.000000

     crystal axes: (cart. coord. in units of alat)
               a(1) = (   5.780130   0.000000   0.000000 )
               a(2) = (   1.926709   5.449559   0.000000 )
               a(3) = (   0.000000   0.000000  24.719456 )

     reciprocal axes: (cart. coord. in units 2 pi/alat)
               b(1) = (  0.173006 -0.061167  0.000000 )
               b(2) = (  0.000000  0.183501  0.000000 )
               b(3) = (  0.000000  0.000000  0.040454 )

     PseudoPot. # 1 for Sn read from file:
     /afs/slac.stanford.edu/u/if/mamunm/psp/gbrv1.5pbe/Sn.UPF
     MD5 check sum: 469debedee59599fedebd795477fea03
     Pseudo is Ultrasoft + core correction, Zval = 14.0
     Generated by new atomic code, or converted to UPF format
     Using radial grid of  891 points,  6 beta functions with:
                l(1) =   0
                l(2) =   0
                l(3) =   1
                l(4) =   1
                l(5) =   2
                l(6) =   2
     Q(r) pseudized with  8 coefficients,  rinner =    1.350   1.350   1.350
                                                       1.350   1.350

     PseudoPot. # 2 for W  read from file:
     /afs/slac.stanford.edu/u/if/mamunm/psp/gbrv1.5pbe/W.UPF
     MD5 check sum: 9c083fa34c2a2ea0f02f1f893e16e1c8
     Pseudo is Ultrasoft + core correction, Zval = 14.0
     Generated by new atomic code, or converted to UPF format
     Using radial grid of  923 points,  8 beta functions with:
                l(1) =   0
                l(2) =   0
                l(3) =   0
                l(4) =   1
                l(5) =   1
                l(6) =   2
                l(7) =   2
                l(8) =   3
     Q(r) pseudized with  6 coefficients,  rinner =    1.350   1.350   1.350
                                                       1.350   1.350   1.350
                                                       1.350

     vdW kernel table read from file vdW_kernel_table
     MD5 check sum: 095c7af220d748ca6e76c0b4c6cfb241

     atomic species   valence    mass     pseudopotential
        Sn1           14.00   118.71000     Sn( 1.00)
        W1            14.00   183.84000     W ( 1.00)

     No symmetry found

   Cartesian axes

     site n.     atom                  positions (alat units)
         1           Sn1 tau(   1) = (   0.0000000   0.0000000  10.0000000  )
         2           Sn1 tau(   2) = (   3.8534194   2.7247795  10.0000000  )
         3           W1  tau(   3) = (   2.8900649   0.0000000  10.0000000  )
         4           W1  tau(   4) = (   0.9633545   2.7247795  10.0000000  )
         5           Sn1 tau(   5) = (   5.7801297   4.0871697  12.3597279  )
         6           Sn1 tau(   6) = (   1.9267104   1.3623902  12.3597279  )
         7           W1  tau(   7) = (   2.8900649   4.0871697  12.3597279  )
         8           W1  tau(   8) = (   4.8167752   1.3623902  12.3597279  )
         9           Sn1 tau(   9) = (   3.8534570   2.7247220  14.9307343  )
        10           Sn1 tau(  10) = (   5.7800984   0.0000466  14.9307300  )
        11           W1  tau(  11) = (   0.9633661   2.7247955  14.4984700  )
        12           W1  tau(  12) = (   4.8167617   5.4495477  14.4984694  )

     number of k points=    20  Fermi-Dirac smearing, width (Ry)=  0.0110
                       cart. coord. in units 2pi/alat
        k(    1) = (   0.0000000   0.0000000   0.0000000), wk =   0.0555556
        k(    2) = (   0.0000000   0.0305835   0.0000000), wk =   0.1111111
        k(    3) = (   0.0000000   0.0611670   0.0000000), wk =   0.1111111
        k(    4) = (   0.0000000  -0.0917505   0.0000000), wk =   0.0555556
        k(    5) = (   0.0288344  -0.0101945   0.0000000), wk =   0.1111111
        k(    6) = (   0.0288344   0.0203890   0.0000000), wk =   0.1111111
        k(    7) = (   0.0288344   0.0509725   0.0000000), wk =   0.1111111
        k(    8) = (   0.0288344  -0.1019450   0.0000000), wk =   0.1111111
        k(    9) = (   0.0288344  -0.0713615   0.0000000), wk =   0.1111111
        k(   10) = (   0.0288344  -0.0407780   0.0000000), wk =   0.1111111
        k(   11) = (   0.0576688  -0.0203890   0.0000000), wk =   0.1111111
        k(   12) = (   0.0576688   0.0101945   0.0000000), wk =   0.1111111
        k(   13) = (   0.0576688   0.0407780   0.0000000), wk =   0.1111111
        k(   14) = (   0.0576688  -0.1121395   0.0000000), wk =   0.1111111
        k(   15) = (   0.0576688  -0.0815560   0.0000000), wk =   0.1111111
        k(   16) = (   0.0576688  -0.0509725   0.0000000), wk =   0.1111111
        k(   17) = (  -0.0865032   0.0305835   0.0000000), wk =   0.0555556
        k(   18) = (  -0.0865032   0.0611670   0.0000000), wk =   0.1111111
        k(   19) = (  -0.0865032   0.0917505   0.0000000), wk =   0.1111111
        k(   20) = (  -0.0865032  -0.0611670   0.0000000), wk =   0.0555556

     Largest allocated arrays     est. size (Mb)     dimensions
     Largest temporary arrays     est. size (Mb)     dimensions

     Initial potential from superposition of free atoms
     Check: negative starting charge=   -0.384496

     starting charge  161.39769, renormalised to  168.00000

[...]

     *
     * You are using vdW-DF for exchange-correlation in this calculation.
     * Please cite the following three references that made this development
     * possible:
     *
     *   M. Dion, H. Rydberg, E. Schroder, D. C. Langreth, and
     *   B. I. Lundqvist, Phys. Rev. Lett. 92, 246401 (2004).
     *
     *   T. Thonhauser, V. R. Cooper, S. Li, A. Puzder, P. Hyldgaard, and
     *   D. C. Langreth, Phys. Rev. B 76, 125112 (2007).
     *
     *   G. Roman-Perez and J. M. Soler, Phys. Rev. Lett. 103, 096102 (2009).
     *
     *
     * If you are using vdW-DF2, please also cite:
     *
     *   K. Lee, E. D. Murray, L. Kong, B. I. Lundqvist, and
     *   D. C. Langreth, Phys. Rev. B 82, 081101(R) (2010).
     *
     *
     * If you are calculating the stress with vdW-DF, please also cite:
     *
     *   R. Sabatini, E. Kucukbenli, B. Kolb, T. Thonhauser, and
     *   S. de Gironcoli, J. Phys.: Condens. Matter 24, 424209 (2012).
     *

     Carrying out vdW-DF run using the following parameters:

     Nqs =      20    Nr_points =    1024   r_max =   100.000
     q_mesh =
               0.00001000     0.04494208     0.09755937     0.15916263
               0.23128650     0.31572767     0.41458969     0.53033537
               0.66584808     0.82450364     1.01025438     1.22772762
               1.48234092     1.78043706     2.12944203     2.53805004
               3.01644009     3.57652955     4.23227104     5.00000000

     Gradients computed in reciprocal space

[...]

     Starting wfc are  132 randomized atomic wfcs

     Self-consistent Calculation

[...]

     iteration #  8     ecut=    36.75 Ry     beta=0.10
     Davidson diagonalization with overlap
     c_bands:  1 eigenvalues not converged
     ethr =  1.67E-05,  avg # of iterations =  7.6

[...]

     total energy              =   -1926.10866928 Ry
     Harris-Foulkes estimate   =   -1926.10867046 Ry
     estimated scf accuracy    <       0.00000213 Ry

     iteration # 17     ecut=    36.75 Ry     beta=0.10
     Davidson diagonalization with overlap
     ethr =  1.27E-09,  avg # of iterations =  2.0

[...]

     negative rho (up, down):  4.007E-01 0.000E+00

     Adding external electric field

     Computed dipole along edir(3) :
        Dipole                0.0271 Ry au,          0.0688 Debye
        Dipole field          0.0001 Ry au

        Potential amp.       -0.0059 Ry
        Total length         45.5452 bohr

     End of self-consistent calculation

[...]

          k = 0.0577-0.0510 0.0000 ( 19775 PWs)   bands (ev):

[...]

          k =-0.0865-0.0612 0.0000 ( 19646 PWs)   bands (ev):

   -72.6498 -72.6464 -72.6356 -72.6326 -72.6204 -72.6158 -36.8337 -36.8096
   -36.8051 -36.7957 -36.7637 -36.7512 -36.7442 -36.7339 -36.7212 -36.6957
   -36.6893 -36.6818 -36.6717 -36.6604 -36.6595 -36.6290 -36.6174 -36.6007
   -19.7964 -19.7825 -19.7630 -19.7629 -19.7436 -19.7381 -19.7357 -19.7333
   -19.7222 -19.7152 -19.7097 -19.6847 -19.6837 -19.6669 -19.6624 -19.6616
   -19.6374 -19.6251 -19.6214 -19.6210 -19.6182 -19.6094 -19.6058 -19.5929
   -19.5656 -19.5587 -19.5585 -19.5538 -19.5290 -19.4897  -7.3846  -7.0423
    -6.1179  -6.0711  -4.9069  -4.5156  -4.4010  -3.3889  -3.2865  -2.8116
    -2.6143  -2.5271  -2.2251  -1.3060  -1.2268  -0.5629  -0.1527  -0.1211
     0.0142   0.0756   0.4497   0.4892   0.5602   0.7039   0.9092   1.2540
     1.3747   1.5050   1.7234   1.8484   2.1312   2.4969   2.5483   2.6983
     2.8229   2.9799   2.9801   3.0652   3.3613   3.9758   4.2885   4.3604
     4.6500   4.8317   4.8519   4.8886   5.2318   5.8976   6.0642   6.0754
     6.7372   6.9142   6.9155   7.2169   7.6017   7.7977   7.9466   8.2607
     8.2801   8.4007

     the Fermi energy is     1.8272 ev

!    total energy              =   -1926.10866786 Ry
     Harris-Foulkes estimate   =   -1926.10866936 Ry
     estimated scf accuracy    <       0.00000044 Ry

     The total energy is the sum of the following terms:

     one-electron contribution =  -13205.65701776 Ry
     hartree contribution      =    6628.09795079 Ry
     xc contribution           =    -522.66355095 Ry
     ewald contribution        =    5174.18508818 Ry
     electric field correction =       0.00000175 Ry
     smearing contrib. (-TS)   =      -0.07113987 Ry

     convergence has been achieved in  17 iterations

 BEEF-vdW xc energy contributions
           1 :   -459.753432552640
           2 :    423.564298570304
           3 :   -360.935167475414
           4 :    287.363774267791
           5 :   -218.279675867948
           6 :    164.010795563738
           7 :   -127.480250067202
           8 :    105.192448976536
           9 :   -90.5787382779413
          10 :    77.8003009144718
          11 :   -64.1761221007239
          12 :    50.3697289811831
          13 :   -38.7619645080852
          14 :    31.2902430693230
          15 :   -28.0727925854023
          16 :    27.4391361653959
          17 :   -27.0786204361427
          18 :    25.4203605175433
          19 :   -22.3774024085706
          20 :    19.0950581332371
          21 :   -16.9938150044045
          22 :    16.7805037855881
          23 :   -18.0371003899347
          24 :    19.5653229130023
          25 :   -20.1832290018854
          26 :    19.4273452837913
          27 :   -17.7403198291772
          28 :    16.0879035381669
          29 :   -15.3064724681905
          30 :    15.6099089431547
          31 :   -40.8228620805651
          32 :   -30.2691983435785

     Forces acting on atoms (Ry/au):

     negative rho (up, down):  4.007E-01 0.000E+00
     atom    1 type  1   force =    -0.00000582    0.00000895   -0.04392295
     atom    2 type  1   force =     0.00000405   -0.00000768   -0.04392231
     atom    3 type  2   force =    -0.00000133   -0.00000186    0.06547483
     atom    4 type  2   force =     0.00000196    0.00000117    0.06548094
     atom    5 type  1   force =    -0.00002651    0.00003862   -0.05011703
     atom    6 type  1   force =     0.00002517   -0.00003531   -0.05011497
     atom    7 type  2   force =    -0.00000436   -0.00000334    0.02755544
     atom    8 type  2   force =     0.00000396    0.00000277    0.02754656
     atom    9 type  1   force =    -0.00000160    0.00000416    0.00121640
     atom   10 type  1   force =     0.00000307   -0.00000443    0.00121527
     atom   11 type  2   force =     0.00000827    0.00000303   -0.00020695
     atom   12 type  2   force =    -0.00000686   -0.00000608   -0.00020523

     Total force =     0.137759     Total SCF correction =     0.002034

     entering subroutine stress ...

     negative rho (up, down):  4.007E-01 0.000E+00
          total   stress  (Ry/bohr**3)                   (kbar)     P=  -25.39
  -0.00022771  -0.00002075   0.00000000        -33.50     -3.05      0.00
  -0.00002075  -0.00021304   0.00000000         -3.05    -31.34      0.00
   0.00000000   0.00000000  -0.00007699          0.00      0.00    -11.33

 !ASE

     Writing output data file calc.save

     General routines

     Parallel routines

   This run was terminated on:   7: 5: 0  19Dec2018

   JOB DONE.
Job  /afs/slac/g/suncat/bin/suncat-tsmpirun -x LD_LIBRARY_PATH -wdir /scratch/qe530617_6zX45 pw.x -in pw.inp

TID   HOST_NAME   COMMAND_LINE            STATUS            TERMINATION_TIME
00000 suncat2063 pw.x -in pw.inp   Done                     12/19/2018 07:05:00
00001 suncat2063 pw.x -in pw.inp   Done                     12/19/2018 07:05:00
00002 suncat2063 pw.x -in pw.inp   Done                     12/19/2018 07:05:00
00003 suncat2063 pw.x -in pw.inp   Done                     12/19/2018 07:05:00
00004 suncat2063 pw.x -in pw.inp   Done                     12/19/2018 07:05:00
00005 suncat2063 pw.x -in pw.inp   Done                     12/19/2018 07:05:00
00006 suncat2063 pw.x -in pw.inp   Done                     12/19/2018 07:05:00
00007 suncat2063 pw.x -in pw.inp   Done                     12/19/2018 07:05:00
00008 suncat2063 pw.x -in pw.inp   Done                     12/19/2018 07:05:00
00009 suncat2063 pw.x -in pw.inp   Done                     12/19/2018 07:05:00
00010 suncat2063 pw.x -in pw.inp   Done                     12/19/2018 07:05:00
00011 suncat2063 pw.x -in pw.inp   Done                     12/19/2018 07:05:00
00012 suncat2063 pw.x -in pw.inp   Done                     12/19/2018 07:05:00
00013 suncat2063 pw.x -in pw.inp   Done                     12/19/2018 07:05:00
00014 suncat2063 pw.x -in pw.inp   Done                     12/19/2018 07:05:00
00015 suncat2063 pw.x -in pw.inp   Done                     12/19/2018 07:05:00
00016 suncat2042 pw.x -in pw.inp   Done                     12/19/2018 07:05:00
00017 suncat2042 pw.x -in pw.inp   Done                     12/19/2018 07:05:00
00018 suncat2042 pw.x -in pw.inp   Done                     12/19/2018 07:05:00
00019 suncat2042 pw.x -in pw.inp   Done                     12/19/2018 07:05:00
00020 suncat2042 pw.x -in pw.inp   Done                     12/19/2018 07:05:00
00021 suncat2042 pw.x -in pw.inp   Done                     12/19/2018 07:05:00
00022 suncat2042 pw.x -in pw.inp   Done                     12/19/2018 07:05:00
00023 suncat2042 pw.x -in pw.inp   Done                     12/19/2018 07:05:00
00024 suncat2042 pw.x -in pw.inp   Done                     12/19/2018 07:05:00
00025 suncat2042 pw.x -in pw.inp   Done                     12/19/2018 07:05:00
00026 suncat2042 pw.x -in pw.inp   Done                     12/19/2018 07:05:00
00027 suncat2042 pw.x -in pw.inp   Done                     12/19/2018 07:05:00
00028 suncat2042 pw.x -in pw.inp   Done                     12/19/2018 07:05:00
00029 suncat2042 pw.x -in pw.inp   Done                     12/19/2018 07:05:00
00030 suncat2042 pw.x -in pw.inp   Done                     12/19/2018 07:05:00
00031 suncat2042 pw.x -in pw.inp   Done                     12/19/2018 07:05:00