     Program PWSCF v.5.1rc2 (svn rev. 11289) starts on 20Dec2018 at  0:56:16

     Current dimensions of program PWSCF are:
     Max number of different atomic species (ntypx) = 10
     Max number of k-points (npk) =  40000
     Max angular momentum in pseudopotentials (lmaxx) =  3
     Presently stress not available with electric field

     IMPORTANT: XC functional enforced from input :
     Exchange-correlation      = BEEF-VDW ( 1  4 27 13 2)
     Any further DFT definition will be discarded
     Please, verify this is what you really want

     Subspace diagonalization in iterative solution of the eigenvalue problem:
     a serial algorithm will be used

     bravais-lattice index     =            0
     lattice parameter (alat)  =       1.8897  a.u.
     unit-cell volume          =    5931.3578 (a.u.)^3
     number of atoms/cell      =           12
     number of atomic types    =            2
     number of electrons       =       141.00
     number of Kohn-Sham states=          100
     kinetic-energy cutoff     =      36.7493  Ry
     charge density cutoff     =     367.4932  Ry
     convergence threshold     =      1.0E-06
     mixing beta               =       0.1000
     number of iterations used =           10  plain     mixing
     Exchange-correlation      = BEEF-VDW ( 1  4 27 13 2)
     nstep                     =           50

     celldm(1)=   1.889726  celldm(2)=   0.000000  celldm(3)=   0.000000
     celldm(4)=   0.000000  celldm(5)=   0.000000  celldm(6)=   0.000000

     crystal axes: (cart. coord. in units of alat)
               a(1) = (   6.348288   0.000000   0.000000 )
               a(2) = (  -3.174144   5.497779   0.000000 )
               a(3) = (   0.000000   0.000000  25.183356 )

     reciprocal axes: (cart. coord. in units 2 pi/alat)
               b(1) = (  0.157523  0.090946  0.000000 )
               b(2) = (  0.000000  0.181892  0.000000 )
               b(3) = (  0.000000  0.000000  0.039709 )

     PseudoPot. # 1 for Cd read from file:
     /afs/slac.stanford.edu/u/if/mamunm/psp/gbrv1.5pbe/Cd.UPF
     MD5 check sum: 17164a7926edb8e0dc231208abae86a6
     Pseudo is Ultrasoft + core correction, Zval = 12.0
     Generated by new atomic code, or converted to UPF format
     Using radial grid of  889 points,  6 beta functions with:
                l(1) =   0
                l(2) =   0
                l(3) =   1
                l(4) =   1
                l(5) =   2
                l(6) =   2
     Q(r) pseudized with  6 coefficients,  rinner =    1.000   1.000   1.000
                                                       1.000   1.000

     PseudoPot. # 2 for Sc read from file:
     /afs/slac.stanford.edu/u/if/mamunm/psp/gbrv1.5pbe/Sc.UPF
     MD5 check sum: db30a2753ba66ef00f23801d899b7e7f
     Pseudo is Ultrasoft + core correction, Zval = 11.0
     Generated by new atomic code, or converted to UPF format
     Using radial grid of  849 points,  6 beta functions with:
                l(1) =   0
                l(2) =   0
                l(3) =   1
                l(4) =   1
                l(5) =   2
                l(6) =   2
     Q(r) pseudized with  6 coefficients,  rinner =    1.200   1.200   1.200
                                                       1.200   1.200

     vdW kernel table read from file vdW_kernel_table
     MD5 check sum: 095c7af220d748ca6e76c0b4c6cfb241

     atomic species   valence    mass     pseudopotential
        Cd1           12.00   112.41400     Cd( 1.00)
        Sc1           11.00    44.95591     Sc( 1.00)

     No symmetry found

   Cartesian axes

     site n.     atom                  positions (alat units)
         1           Cd1 tau(   1) = (   0.0000000   0.0000000  10.0000000  )
         2           Cd1 tau(   2) = (  -1.5870721   2.7488895  10.0000000  )
         3           Cd1 tau(   3) = (   1.5870721   2.7488895  10.0000000  )
         4           Sc1 tau(   4) = (   3.1741442   0.0000000  10.0000000  )
         5           Cd1 tau(   5) = (   3.1741442   1.8325930  12.5916779  )
         6           Cd1 tau(   6) = (   1.5870721   4.5814825  12.5916779  )
         7           Cd1 tau(   7) = (  -1.5870721   4.5814825  12.5916779  )
         8           Sc1 tau(   8) = (   0.0000000   1.8325930  12.5916779  )
         9           Cd1 tau(   9) = (  -0.0000000   3.6651860  15.1833557  )
        10           Cd1 tau(  10) = (   1.5870721   0.9162965  15.1833557  )
        11           Cd1 tau(  11) = (   4.7612163   0.9162965  15.1833557  )
        12           Sc1 tau(  12) = (   3.1741442   3.6651860  15.1833557  )

     number of k points=    20  Fermi-Dirac smearing, width (Ry)=  0.0110
                       cart. coord. in units 2pi/alat
        k(    1) = (   0.0000000   0.0000000   0.0000000), wk =   0.0555556
        k(    2) = (   0.0000000   0.0303153   0.0000000), wk =   0.1111111
        k(    3) = (   0.0000000   0.0606305   0.0000000), wk =   0.1111111
        k(    4) = (   0.0000000  -0.0909458   0.0000000), wk =   0.0555556
        k(    5) = (   0.0262538   0.0151576   0.0000000), wk =   0.1111111
        k(    6) = (   0.0262538   0.0454729   0.0000000), wk =   0.1111111
        k(    7) = (   0.0262538   0.0757882   0.0000000), wk =   0.1111111
        k(    8) = (   0.0262538  -0.0757882   0.0000000), wk =   0.1111111
        k(    9) = (   0.0262538  -0.0454729   0.0000000), wk =   0.1111111
        k(   10) = (   0.0262538  -0.0151576   0.0000000), wk =   0.1111111
        k(   11) = (   0.0525076   0.0303153   0.0000000), wk =   0.1111111
        k(   12) = (   0.0525076   0.0606305   0.0000000), wk =   0.1111111
        k(   13) = (   0.0525076   0.0909458   0.0000000), wk =   0.1111111
        k(   14) = (   0.0525076  -0.0606305   0.0000000), wk =   0.1111111
        k(   15) = (   0.0525076  -0.0303153   0.0000000), wk =   0.1111111
        k(   16) = (   0.0525076   0.0000000   0.0000000), wk =   0.1111111
        k(   17) = (  -0.0787614  -0.0454729   0.0000000), wk =   0.0555556
        k(   18) = (  -0.0787614  -0.0151576   0.0000000), wk =   0.1111111
        k(   19) = (  -0.0787614   0.0151576   0.0000000), wk =   0.1111111
        k(   20) = (  -0.0787614  -0.1364187   0.0000000), wk =   0.0555556

     Largest allocated arrays     est. size (Mb)     dimensions
     Largest temporary arrays     est. size (Mb)     dimensions

     Initial potential from superposition of free atoms
     Check: negative starting charge=   -0.196755

     starting charge  136.49242, renormalised to  141.00000

     negative rho (up, down):  2.033E-01 0.000E+00

     *
     * You are using vdW-DF for exchange-correlation in this calculation.
     * Please cite the following three references that made this development
     * possible:
     *
     *   M. Dion, H. Rydberg, E. Schroder, D. C. Langreth, and
     *   B. I. Lundqvist, Phys. Rev. Lett. 92, 246401 (2004).
     *
     *   T. Thonhauser, V. R. Cooper, S. Li, A. Puzder, P. Hyldgaard, and
     *   D. C. Langreth, Phys. Rev. B 76, 125112 (2007).
     *
     *   G. Roman-Perez and J. M. Soler, Phys. Rev. Lett. 103, 096102 (2009).
     *
     *
     * If you are using vdW-DF2, please also cite:
     *
     *   K. Lee, E. D. Murray, L. Kong, B. I. Lundqvist, and
     *   D. C. Langreth, Phys. Rev. B 82, 081101(R) (2010).
     *
     *
     * If you are calculating the stress with vdW-DF, please also cite:
     *
     *   R. Sabatini, E. Kucukbenli, B. Kolb, T. Thonhauser, and
     *   S. de Gironcoli, J. Phys.: Condens. Matter 24, 424209 (2012).
     *

     Carrying out vdW-DF run using the following parameters:

     Nqs =      20    Nr_points =    1024   r_max =   100.000
     q_mesh =
               0.00001000     0.04494208     0.09755937     0.15916263
               0.23128650     0.31572767     0.41458969     0.53033537
               0.66584808     0.82450364     1.01025438     1.22772762
               1.48234092     1.78043706     2.12944203     2.53805004
               3.01644009     3.57652955     4.23227104     5.00000000

     Gradients computed in reciprocal space

     Adding external electric field

     Computed dipole along edir(3) :
        Dipole               -0.0000 Ry au,         -0.0000 Debye
        Dipole field         -0.0000 Ry au

        Potential amp.        0.0000 Ry
        Total length         46.3999 bohr

     Starting wfc are  120 randomized atomic wfcs

     Self-consistent Calculation

     iteration #  1     ecut=    36.75 Ry     beta=0.10
     Davidson diagonalization with overlap
     ethr =  1.00E-02,  avg # of iterations =  7.0

     Threshold (ethr) on eigenvalues was too large:
     Diagonalizing with lowered threshold

     Davidson diagonalization with overlap
     ethr =  9.03E-04,  avg # of iterations =  4.7

[...]

     total energy              =   -1329.44165353 Ry
     Harris-Foulkes estimate   =   -1329.63361798 Ry
     estimated scf accuracy    <       1.22715312 Ry

[...]

     End of self-consistent calculation

          k = 0.0000 0.0000 0.0000 ( 22369 PWs)   bands (ev):

   -50.0181 -50.0181 -49.8512 -28.7135 -28.7130 -28.5326 -28.5326 -28.5325
   -28.5325 -28.5010 -28.3982 -28.3982  -8.7610  -8.6810  -8.6728  -8.6728
    -8.6533  -8.6240  -8.5864  -8.5092  -8.5092  -8.5083  -8.5083  -8.4598
    -8.4598  -8.3967  -8.3575  -8.3575  -8.3532  -8.2648  -8.2485  -8.2485
    -8.1689  -8.1388  -8.0786  -8.0785  -8.0476  -8.0476  -8.0249  -8.0248
    -7.9934  -7.9933  -7.9879  -7.9317  -7.9317  -7.8826  -7.8826  -7.8716
    -7.8716  -7.7448  -7.7448  -7.7285  -7.6511  -7.6511  -7.6166  -7.5879
    -7.5708  -6.6743  -5.2131  -3.0708  -1.6259  -1.6259  -1.3634  -1.3634
    -0.9816  -0.4683  -0.4458  -0.4458  -0.2015  -0.0267  -0.0267   0.2482
     1.1558   1.2558   1.2558   1.3170   1.3170   1.6951   1.6951   1.8558
     1.8559   2.0469   2.1620   2.3959   2.3959   3.3523   3.3523   3.3553
     3.3553   3.4431   3.5525   3.6220   3.9621   3.9621   4.1952   4.3985
     4.5385   5.3748   5.5108   5.9981

[...]

          k =-0.0788-0.0455 0.0000 ( 22308 PWs)   bands (ev):

[...]

     the Fermi energy is     0.6148 ev

!    total energy              =   -1329.28693451 Ry
     Harris-Foulkes estimate   =   -1329.28695222 Ry
     estimated scf accuracy    <       0.00000031 Ry

     The total energy is the sum of the following terms:

     one-electron contribution =   -8156.97726130 Ry
     hartree contribution      =    4143.90141120 Ry
     xc contribution           =    -408.70286990 Ry
     ewald contribution        =    3092.55220092 Ry
     electric field correction =       0.00000000 Ry
     smearing contrib. (-TS)   =      -0.06041543 Ry

     convergence has been achieved in  17 iterations

 BEEF-vdW xc energy contributions
           1 :   -356.971552463475
           2 :    325.358103119530
           3 :   -272.556705537527
           4 :    214.223489117941
           5 :   -164.211967878306
           6 :    129.586076730483
           7 :   -109.726983114410
           8 :    99.0629329415420
           9 :   -91.2514966099198
          10 :    82.4268609139453
          11 :   -72.1613992880635
          12 :    62.3022192092702
          13 :   -54.9370272693397
[...]
     /afs/slac.stanford.edu/u/if/mamunm/psp/gbrv1.5pbe/Cd.UPF
     MD5 check sum: 17164a7926edb8e0dc231208abae86a6
     Pseudo is Ultrasoft + core correction, Zval = 12.0
     Generated by new atomic code, or converted to UPF format
     Using radial grid of  889 points,  6 beta functions with:
                l(1) =   0
                l(2) =   0
                l(3) =   1
                l(4) =   1
                l(5) =   2
                l(6) =   2
     Q(r) pseudized with  6 coefficients,  rinner =    1.000   1.000   1.000
                                                       1.000   1.000

     PseudoPot. # 2 for Sc read from file:
     /afs/slac.stanford.edu/u/if/mamunm/psp/gbrv1.5pbe/Sc.UPF
     MD5 check sum: db30a2753ba66ef00f23801d899b7e7f
     Pseudo is Ultrasoft + core correction, Zval = 11.0
     Generated by new atomic code, or converted to UPF format
     Using radial grid of  849 points,  6 beta functions with:
                l(1) =   0
                l(2) =   0
                l(3) =   1
                l(4) =   1
                l(5) =   2
                l(6) =   2
     Q(r) pseudized with  6 coefficients,  rinner =    1.200   1.200   1.200
                                                       1.200   1.200

     vdW kernel table read from file vdW_kernel_table
     MD5 check sum: 095c7af220d748ca6e76c0b4c6cfb241

     atomic species   valence    mass     pseudopotential
        Cd1           12.00   112.41400     Cd( 1.00)
        Sc1           11.00    44.95591     Sc( 1.00)

     No symmetry found

   Cartesian axes

     site n.     atom                  positions (alat units)
         1           Cd1 tau(   1) = (   0.0000000   0.0000000  10.0000000  )
         2           Cd1 tau(   2) = (  -1.5870721   2.7488895  10.0000000  )
         3           Cd1 tau(   3) = (   1.5870721   2.7488895  10.0000000  )
         4           Sc1 tau(   4) = (   3.1741442   0.0000000  10.0000000  )
         5           Cd1 tau(   5) = (   3.1741442   1.8325930  12.5916779  )
         6           Cd1 tau(   6) = (   1.5870721   4.5814825  12.5916779  )
         7           Cd1 tau(   7) = (  -1.5870721   4.5814825  12.5916779  )
         8           Sc1 tau(   8) = (   0.0000000   1.8325930  12.5916779  )
         9           Cd1 tau(   9) = (  -0.0000072   3.6842846  15.2405599  )
        10           Cd1 tau(  10) = (   1.6036051   0.9067197  15.2405947  )
        11           Cd1 tau(  11) = (   4.7447196   0.9067080  15.2405818  )
        12           Sc1 tau(  12) = (   3.1741289   3.6651225  15.0663641  )

     number of k points=    20  Fermi-Dirac smearing, width (Ry)=  0.0110
                       cart. coord. in units 2pi/alat
        k(    1) = (   0.0000000   0.0000000   0.0000000), wk =   0.0555556
        k(    2) = (   0.0000000   0.0303153   0.0000000), wk =   0.1111111
        k(    3) = (   0.0000000   0.0606305   0.0000000), wk =   0.1111111
        k(    4) = (   0.0000000  -0.0909458   0.0000000), wk =   0.0555556
        k(    5) = (   0.0262538   0.0151576   0.0000000), wk =   0.1111111
        k(    6) = (   0.0262538   0.0454729   0.0000000), wk =   0.1111111
        k(    7) = (   0.0262538   0.0757882   0.0000000), wk =   0.1111111
        k(    8) = (   0.0262538  -0.0757882   0.0000000), wk =   0.1111111
        k(    9) = (   0.0262538  -0.0454729   0.0000000), wk =   0.1111111
        k(   10) = (   0.0262538  -0.0151576   0.0000000), wk =   0.1111111
        k(   11) = (   0.0525076   0.0303153   0.0000000), wk =   0.1111111
        k(   12) = (   0.0525076   0.0606305   0.0000000), wk =   0.1111111
        k(   13) = (   0.0525076   0.0909458   0.0000000), wk =   0.1111111
        k(   14) = (   0.0525076  -0.0606305   0.0000000), wk =   0.1111111
        k(   15) = (   0.0525076  -0.0303153   0.0000000), wk =   0.1111111
        k(   16) = (   0.0525076   0.0000000   0.0000000), wk =   0.1111111
        k(   17) = (  -0.0787614  -0.0454729   0.0000000), wk =   0.0555556
        k(   18) = (  -0.0787614  -0.0151576   0.0000000), wk =   0.1111111
        k(   19) = (  -0.0787614   0.0151576   0.0000000), wk =   0.1111111
        k(   20) = (  -0.0787614  -0.1364187   0.0000000), wk =   0.0555556

     Largest allocated arrays     est. size (Mb)     dimensions
     Largest temporary arrays     est. size (Mb)     dimensions

     Initial potential from superposition of free atoms
     Check: negative starting charge=   -0.194607

     starting charge  136.49242, renormalised to  141.00000

[...]

     *
     * You are using vdW-DF for exchange-correlation in this calculation.
     * Please cite the following three references that made this development
     * possible:
     *
     *   M. Dion, H. Rydberg, E. Schroder, D. C. Langreth, and
     *   B. I. Lundqvist, Phys. Rev. Lett. 92, 246401 (2004).
     *
     *   T. Thonhauser, V. R. Cooper, S. Li, A. Puzder, P. Hyldgaard, and
     *   D. C. Langreth, Phys. Rev. B 76, 125112 (2007).
     *
     *   G. Roman-Perez and J. M. Soler, Phys. Rev. Lett. 103, 096102 (2009).
     *
     *
     * If you are using vdW-DF2, please also cite:
     *
     *   K. Lee, E. D. Murray, L. Kong, B. I. Lundqvist, and
     *   D. C. Langreth, Phys. Rev. B 82, 081101(R) (2010).
     *
     *
     * If you are calculating the stress with vdW-DF, please also cite:
     *
     *   R. Sabatini, E. Kucukbenli, B. Kolb, T. Thonhauser, and
     *   S. de Gironcoli, J. Phys.: Condens. Matter 24, 424209 (2012).
     *

     Carrying out vdW-DF run using the following parameters:

     Nqs =      20    Nr_points =    1024   r_max =   100.000
     q_mesh =
               0.00001000     0.04494208     0.09755937     0.15916263
               0.23128650     0.31572767     0.41458969     0.53033537
               0.66584808     0.82450364     1.01025438     1.22772762
               1.48234092     1.78043706     2.12944203     2.53805004
               3.01644009     3.57652955     4.23227104     5.00000000

     Gradients computed in reciprocal space

[...]

     Starting wfc are  120 randomized atomic wfcs

     Self-consistent Calculation

[...]

     Threshold (ethr) on eigenvalues was too large:
     Diagonalizing with lowered threshold

     Davidson diagonalization with overlap
     ethr =  9.58E-04,  avg # of iterations =  5.0

[...]

     total energy              =   -1329.29079656 Ry
     Harris-Foulkes estimate   =   -1329.29080134 Ry
     estimated scf accuracy    <       0.00000179 Ry

     iteration # 17     ecut=    36.75 Ry     beta=0.10
     Davidson diagonalization with overlap
     ethr =  1.27E-09,  avg # of iterations =  3.2

[...]

     negative rho (up, down):  2.019E-01 0.000E+00

     Adding external electric field

     Computed dipole along edir(3) :
        Dipole               -0.0334 Ry au,         -0.0850 Debye
        Dipole field         -0.0001 Ry au

        Potential amp.        0.0066 Ry
        Total length         46.3999 bohr

     End of self-consistent calculation

[...]

          k = 0.0525 0.0000 0.0000 ( 22339 PWs)   bands (ev):

[...]

          k =-0.0788-0.1364 0.0000 ( 22308 PWs)   bands (ev):

   -50.0459 -49.9692 -49.9138 -28.7421 -28.6557 -28.5636 -28.5603 -28.5598
   -28.4938 -28.4934 -28.4568 -28.4561  -8.6490  -8.5864  -8.5743  -8.5038
    -8.4933  -8.4829  -8.4484  -8.4291  -8.4053  -8.3955  -8.3879  -8.3873
    -8.3504  -8.3278  -8.2776  -8.2663  -8.2237  -8.2130  -8.2120  -8.1893
    -8.1735  -8.1711  -8.1603  -8.1496  -8.1420  -8.1364  -8.1340  -8.0788
    -8.0727  -8.0548  -8.0427  -8.0400  -8.0297  -8.0131  -7.9886  -7.9868
    -7.9725  -7.9668  -7.9612  -7.9495  -7.9057  -7.8885  -7.7819  -7.7226
    -7.6422  -5.3719  -5.1979  -3.9176  -3.8414  -2.6964  -2.4688  -1.9127
    -1.3571  -1.2396  -0.7131   0.2363   0.3727   0.5889   0.6194   0.6223
     0.9171   0.9889   1.1946   1.3440   1.5070   1.7212   2.0303   2.1827
     2.4649   2.5035   2.6422   2.6802   2.7500   3.0233   3.6466   4.1428
     4.2781   4.3297   4.3427   4.6349   4.6807   4.8107   4.9151   4.9431
     5.2230   5.4527   5.5361   5.6006

     the Fermi energy is     0.5872 ev

!    total energy              =   -1329.29077967 Ry
     Harris-Foulkes estimate   =   -1329.29079734 Ry
     estimated scf accuracy    <       0.00000029 Ry

     The total energy is the sum of the following terms:

     one-electron contribution =   -8137.20836730 Ry
     hartree contribution      =    4133.92387811 Ry
     xc contribution           =    -408.70137723 Ry
     ewald contribution        =    3082.75674886 Ry
     electric field correction =       0.00000237 Ry
     smearing contrib. (-TS)   =      -0.06166448 Ry

     convergence has been achieved in  17 iterations

 BEEF-vdW xc energy contributions
           1 :   -357.001971429049
           2 :    325.379268828370
           3 :   -272.567135559945
           4 :    214.231190594929
           5 :   -164.228619157655
           6 :    129.616746248480
           7 :   -109.764932132025
           8 :    99.0966856271380
           9 :   -91.2770949235411
          10 :    82.4512184166095
          11 :   -72.1938739920975
          12 :    62.3446256091420
          13 :   -54.9820279534763
          14 :    50.9076398110155
          15 :   -49.3266745402577
          16 :    48.5544798210271
          17 :   -47.0871440018153
          18 :    44.3689124096570
          19 :   -40.9035598979652
          20 :    37.7613014116663
          21 :   -35.8376576024630
          22 :    35.3057737678354
          23 :   -35.5571836419756
          24 :    35.6281156841691
          25 :   -34.8183946086532
          26 :    33.1000723657754
          27 :   -31.0658336338368
          28 :    29.4850385858327
          29 :   -28.7929094527796
          30 :    28.8529027820173
          31 :   -33.0820020517697
          32 :   -24.0850858301150

     Forces acting on atoms (Ry/au):

     negative rho (up, down):  2.019E-01 0.000E+00
     atom    1 type  1   force =     0.00000119   -0.00404564   -0.00497438
     atom    2 type  1   force =    -0.00350548    0.00202295   -0.00497179
     atom    3 type  1   force =     0.00350691    0.00202445   -0.00497297
     atom    4 type  2   force =    -0.00000022    0.00000550    0.01122832
     atom    5 type  1   force =    -0.00000358   -0.00309412   -0.00192129
     atom    6 type  1   force =    -0.00267391    0.00154190   -0.00192782
     atom    7 type  1   force =     0.00267280    0.00154440   -0.00192755
     atom    8 type  2   force =     0.00000206   -0.00000240    0.00520940
     atom    9 type  1   force =    -0.00000086    0.00068056    0.00148482
     atom   10 type  1   force =     0.00058904   -0.00033805    0.00148263
     atom   11 type  1   force =    -0.00059062   -0.00033633    0.00148443
     atom   12 type  2   force =     0.00000266   -0.00000320   -0.00019380

     Total force =     0.018009     Total SCF correction =     0.001675

     entering subroutine stress ...

     negative rho (up, down):  2.019E-01 0.000E+00
          total   stress  (Ry/bohr**3)                   (kbar)     P=   -5.78
  -0.00005219  -0.00000000  -0.00000000         -7.68     -0.00     -0.00
  -0.00000000  -0.00005218   0.00000000         -0.00     -7.68      0.00
  -0.00000000   0.00000000  -0.00001354         -0.00      0.00     -1.99

 !ASE

     Writing output data file calc.save

     General routines

     Parallel routines

   This run was terminated on:   1:49:35  20Dec2018

   JOB DONE.
Job  /afs/slac/g/suncat/bin/suncat-tsmpirun -x LD_LIBRARY_PATH -wdir /scratch/qe773467_rROY2 pw.x -in pw.inp

TID   HOST_NAME   COMMAND_LINE            STATUS            TERMINATION_TIME
00000 suncat0013 pw.x -in pw.inp   Done                     12/20/2018 01:49:35
00001 suncat0013 pw.x -in pw.inp   Done                     12/20/2018 01:49:35
00002 suncat0013 pw.x -in pw.inp   Done                     12/20/2018 01:49:35
00003 suncat0013 pw.x -in pw.inp   Done                     12/20/2018 01:49:35
00004 suncat0013 pw.x -in pw.inp   Done                     12/20/2018 01:49:35
00005 suncat0013 pw.x -in pw.inp   Done                     12/20/2018 01:49:35
00006 suncat0013 pw.x -in pw.inp   Done                     12/20/2018 01:49:35
00007 suncat0013 pw.x -in pw.inp   Done                     12/20/2018 01:49:35
00008 suncat0199 pw.x -in pw.inp   Done                     12/20/2018 01:49:35
00009 suncat0199 pw.x -in pw.inp   Done                     12/20/2018 01:49:35
00010 suncat0199 pw.x -in pw.inp   Done                     12/20/2018 01:49:35
00011 suncat0199 pw.x -in pw.inp   Done                     12/20/2018 01:49:35
00012 suncat0199 pw.x -in pw.inp   Done                     12/20/2018 01:49:35
00013 suncat0199 pw.x -in pw.inp   Done                     12/20/2018 01:49:35
00014 suncat0199 pw.x -in pw.inp   Done                     12/20/2018 01:49:35
00015 suncat0199 pw.x -in pw.inp   Done                     12/20/2018 01:49:35
00016 suncat0010 pw.x -in pw.inp   Done                     12/20/2018 01:49:35
00017 suncat0010 pw.x -in pw.inp   Done                     12/20/2018 01:49:35
00018 suncat0010 pw.x -in pw.inp   Done                     12/20/2018 01:49:35
00019 suncat0010 pw.x -in pw.inp   Done                     12/20/2018 01:49:35
00020 suncat0010 pw.x -in pw.inp   Done                     12/20/2018 01:49:35
00021 suncat0010 pw.x -in pw.inp   Done                     12/20/2018 01:49:35
00022 suncat0010 pw.x -in pw.inp   Done                     12/20/2018 01:49:35
00023 suncat0010 pw.x -in pw.inp   Done                     12/20/2018 01:49:35
00024 suncat0198 pw.x -in pw.inp   Done                     12/20/2018 01:49:35
00025 suncat0198 pw.x -in pw.inp   Done                     12/20/2018 01:49:35
00026 suncat0198 pw.x -in pw.inp   Done                     12/20/2018 01:49:35
00027 suncat0198 pw.x -in pw.inp   Done                     12/20/2018 01:49:35
00028 suncat0198 pw.x -in pw.inp   Done                     12/20/2018 01:49:35
00029 suncat0198 pw.x -in pw.inp   Done                     12/20/2018 01:49:35
00030 suncat0198 pw.x -in pw.inp   Done                     12/20/2018 01:49:35
00031 suncat0198 pw.x -in pw.inp   Done                     12/20/2018 01:49:35
00032 suncat0196 pw.x -in pw.inp   Done                     12/20/2018 01:49:35
00033 suncat0196 pw.x -in pw.inp   Done                     12/20/2018 01:49:35
00034 suncat0196 pw.x -in pw.inp   Done                     12/20/2018 01:49:35
00035 suncat0196 pw.x -in pw.inp   Done                     12/20/2018 01:49:35
00036 suncat0196 pw.x -in pw.inp   Done                     12/20/2018 01:49:35
00037 suncat0196 pw.x -in pw.inp   Done                     12/20/2018 01:49:35
00038 suncat0196 pw.x -in pw.inp   Done                     12/20/2018 01:49:35
00039 suncat0196 pw.x -in pw.inp   Done                     12/20/2018 01:49:35
00040 suncat0195 pw.x -in pw.inp   Done                     12/20/2018 01:49:35
00041 suncat0195 pw.x -in pw.inp   Done                     12/20/2018 01:49:35
00042 suncat0195 pw.x -in pw.inp   Done                     12/20/2018 01:49:35
00043 suncat0195 pw.x -in pw.inp   Done                     12/20/2018 01:49:35
00044 suncat0195 pw.x -in pw.inp   Done                     12/20/2018 01:49:35
00045 suncat0195 pw.x -in pw.inp   Done                     12/20/2018 01:49:35
00046 suncat0195 pw.x -in pw.inp   Done                     12/20/2018 01:49:35
00047 suncat0195 pw.x -in pw.inp   Done                     12/20/2018 01:49:35
00048 suncat0194 pw.x -in pw.inp   Done                     12/20/2018 01:49:35
00049 suncat0194 pw.x -in pw.inp   Done                     12/20/2018 01:49:35
00050 suncat0194 pw.x -in pw.inp   Done                     12/20/2018 01:49:35
00051 suncat0194 pw.x -in pw.inp   Done                     12/20/2018 01:49:35
00052 suncat0194 pw.x -in pw.inp   Done                     12/20/2018 01:49:35
00053 suncat0194 pw.x -in pw.inp   Done                     12/20/2018 01:49:35
00054 suncat0194 pw.x -in pw.inp   Done                     12/20/2018 01:49:35
00055 suncat0194 pw.x -in pw.inp   Done                     12/20/2018 01:49:35
00056 suncat0193 pw.x -in pw.inp   Done                     12/20/2018 01:49:35
00057 suncat0193 pw.x -in pw.inp   Done                     12/20/2018 01:49:35
00058 suncat0193 pw.x -in pw.inp   Done                     12/20/2018 01:49:35
00059 suncat0193 pw.x -in pw.inp   Done                     12/20/2018 01:49:35
00060 suncat0193 pw.x -in pw.inp   Done                     12/20/2018 01:49:35
00061 suncat0193 pw.x -in pw.inp   Done                     12/20/2018 01:49:35
00062 suncat0193 pw.x -in pw.inp   Done                     12/20/2018 01:49:35
00063 suncat0193 pw.x -in pw.inp   Done                     12/20/2018 01:49:35