     Program PWSCF v.5.1rc2 (svn rev. 11289) starts on 19Dec2018 at 18:48:45

     Current dimensions of program PWSCF are:
     Max number of different atomic species (ntypx) = 10
     Max number of k-points (npk) =  40000
     Max angular momentum in pseudopotentials (lmaxx) =  3
     Presently stress not available with electric field

     IMPORTANT: XC functional enforced from input :
     Exchange-correlation      = BEEF-VDW ( 1  4 27 13 2)
     Any further DFT definition will be discarded
     Please, verify this is what you really want

     Subspace diagonalization in iterative solution of the eigenvalue problem:
     a serial algorithm will be used

     bravais-lattice index     =            0
     lattice parameter (alat)  =       1.8897  a.u.
     unit-cell volume          =    4838.5018 (a.u.)^3
     number of atoms/cell      =           12
     number of atomic types    =            2
     number of electrons       =       141.00
     number of Kohn-Sham states=          100
     kinetic-energy cutoff     =      36.7493  Ry
     charge density cutoff     =     367.4932  Ry
     convergence threshold     =      1.0E-06
     mixing beta               =       0.1000
     number of iterations used =           10  plain     mixing
     Exchange-correlation      = BEEF-VDW ( 1  4 27 13 2)
     nstep                     =           50

     celldm(1)=   1.889726  celldm(2)=   0.000000  celldm(3)=   0.000000
     celldm(4)=   0.000000  celldm(5)=   0.000000  celldm(6)=   0.000000

     crystal axes: (cart. coord. in units of alat)
               a(1) = (   5.786631   0.000000   0.000000 )
               a(2) = (  -2.893315   5.011369   0.000000 )
               a(3) = (   0.000000   0.000000  24.724764 )

     reciprocal axes: (cart. coord. in units 2 pi/alat)
               b(1) = (  0.172812  0.099773  0.000000 )
               b(2) = (  0.000000  0.199546  0.000000 )
               b(3) = (  0.000000  0.000000  0.040445 )

     PseudoPot. # 1 for Au read from file:
     /afs/slac.stanford.edu/u/if/mamunm/psp/gbrv1.5pbe/Au.UPF
     MD5 check sum: 9d7f43293ad2c663164586bc4b293ffc
     Pseudo is Ultrasoft + core correction, Zval = 11.0
     Generated by new atomic code, or converted to UPF format
     Using radial grid of  985 points,  7 beta functions with:
                l(1) =   0
                l(2) =   0
                l(3) =   1
                l(4) =   1
                l(5) =   2
                l(6) =   2
                l(7) =   3
     Q(r) pseudized with  6 coefficients,  rinner =    1.900   1.900   1.900
                                                       1.900   1.900   1.900
                                                       1.900

     PseudoPot. # 2 for Cr read from file:
     /afs/slac.stanford.edu/u/if/mamunm/psp/gbrv1.5pbe/Cr.UPF
     MD5 check sum: 0d52af634a40206e4dee301ad30da4bf
     Pseudo is Ultrasoft + core correction, Zval = 14.0
     Generated by new atomic code, or converted to UPF format
     Using radial grid of  857 points,  6 beta functions with:
                l(1) =   0
                l(2) =   0
                l(3) =   1
                l(4) =   1
                l(5) =   2
                l(6) =   2
     Q(r) pseudized with  8 coefficients,  rinner =    0.950   0.950   0.950
                                                       0.950   0.950

     vdW kernel table read from file vdW_kernel_table
     MD5 check sum: 095c7af220d748ca6e76c0b4c6cfb241

     atomic species   valence    mass     pseudopotential
        Au1           11.00   196.96657     Au( 1.00)
        Cr1           14.00    51.99610     Cr( 1.00)

     No symmetry found

   Cartesian axes

     site n.     atom                  positions (alat units)
         1           Au1 tau(   1) = (   0.0000000   0.0000000  10.0000000  )
         2           Au1 tau(   2) = (  -1.4466576   2.5056845  10.0000000  )
         3           Au1 tau(   3) = (   1.4466576   2.5056845  10.0000000  )
         4           Cr1 tau(   4) = (   2.8933153   0.0000000  10.0000000  )
         5           Au1 tau(   5) = (   2.8933153   1.6704564  12.3623820  )
         6           Au1 tau(   6) = (   1.4466576   4.1761409  12.3623820  )
         7           Au1 tau(   7) = (  -1.4466576   4.1761409  12.3623820  )
         8           Cr1 tau(   8) = (   0.0000000   1.6704564  12.3623820  )
         9           Au1 tau(   9) = (  -0.0000000   3.3409127  14.7247641  )
        10           Au1 tau(  10) = (   1.4466576   0.8352282  14.7247641  )
        11           Au1 tau(  11) = (   4.3399729   0.8352282  14.7247641  )
        12           Cr1 tau(  12) = (   2.8933153   3.3409127  14.7247641  )

     number of k points=    20  Fermi-Dirac smearing, width (Ry)=  0.0110
                       cart. coord. in units 2pi/alat
        k(    1) = (   0.0000000   0.0000000   0.0000000), wk =   0.0555556
        k(    2) = (   0.0000000   0.0332577   0.0000000), wk =   0.1111111
        k(    3) = (   0.0000000   0.0665154   0.0000000), wk =   0.1111111
        k(    4) = (   0.0000000  -0.0997731   0.0000000), wk =   0.0555556
        k(    5) = (   0.0288020   0.0166289   0.0000000), wk =   0.1111111
        k(    6) = (   0.0288020   0.0498866   0.0000000), wk =   0.1111111
        k(    7) = (   0.0288020   0.0831443   0.0000000), wk =   0.1111111
        k(    8) = (   0.0288020  -0.0831443   0.0000000), wk =   0.1111111
        k(    9) = (   0.0288020  -0.0498866   0.0000000), wk =   0.1111111
        k(   10) = (   0.0288020  -0.0166289   0.0000000), wk =   0.1111111
        k(   11) = (   0.0576040   0.0332577   0.0000000), wk =   0.1111111
        k(   12) = (   0.0576040   0.0665154   0.0000000), wk =   0.1111111
        k(   13) = (   0.0576040   0.0997731   0.0000000), wk =   0.1111111
        k(   14) = (   0.0576040  -0.0665154   0.0000000), wk =   0.1111111
        k(   15) = (   0.0576040  -0.0332577   0.0000000), wk =   0.1111111
        k(   16) = (   0.0576040   0.0000000   0.0000000), wk =   0.1111111
        k(   17) = (  -0.0864061  -0.0498866   0.0000000), wk =   0.0555556
        k(   18) = (  -0.0864061  -0.0166289   0.0000000), wk =   0.1111111
        k(   19) = (  -0.0864061   0.0166289   0.0000000), wk =   0.1111111
        k(   20) = (  -0.0864061  -0.1496597   0.0000000), wk =   0.0555556

     Largest allocated arrays     est. size (Mb)     dimensions
     Largest temporary arrays     est. size (Mb)     dimensions

     Check: negative/imaginary core charge=   -0.000002    0.000000

     Initial potential from superposition of free atoms
     Check: negative starting charge=   -0.003942

     starting charge  137.99885, renormalised to  141.00000

     negative rho (up, down):  4.028E-03 0.000E+00

     *
     * You are using vdW-DF for exchange-correlation in this calculation.
     * Please cite the following three references that made this development
     * possible:
     *
     *   M. Dion, H. Rydberg, E. Schroder, D. C. Langreth, and
     *   B. I. Lundqvist, Phys. Rev. Lett. 92, 246401 (2004).
     *
     *   T. Thonhauser, V. R. Cooper, S. Li, A. Puzder, P. Hyldgaard, and
     *   D. C. Langreth, Phys. Rev. B 76, 125112 (2007).
     *
     *   G. Roman-Perez and J. M. Soler, Phys. Rev. Lett. 103, 096102 (2009).
     *
     *
     * If you are using vdW-DF2, please also cite:
     *
     *   K. Lee, E. D. Murray, L. Kong, B. I. Lundqvist, and
     *   D. C. Langreth, Phys. Rev. B 82, 081101(R) (2010).
     *
     *
     * If you are calculating the stress with vdW-DF, please also cite:
     *
     *   R. Sabatini, E. Kucukbenli, B. Kolb, T. Thonhauser, and
     *   S. de Gironcoli, J. Phys.: Condens. Matter 24, 424209 (2012).
     *

     Carrying out vdW-DF run using the following parameters:

     Nqs =      20    Nr_points =    1024   r_max =   100.000
     q_mesh =
               0.00001000     0.04494208     0.09755937     0.15916263
               0.23128650     0.31572767     0.41458969     0.53033537
               0.66584808     0.82450364     1.01025438     1.22772762
               1.48234092     1.78043706     2.12944203     2.53805004
               3.01644009     3.57652955     4.23227104     5.00000000

     Gradients computed in reciprocal space

     Adding external electric field

     Computed dipole along edir(3) :
        Dipole                0.0000 Ry au,          0.0000 Debye
        Dipole field          0.0000 Ry au

        Potential amp.       -0.0000 Ry
        Total length         45.5550 bohr

     Starting wfc are  111 randomized atomic wfcs

     Self-consistent Calculation

     iteration #  1     ecut=    36.75 Ry     beta=0.10
     Davidson diagonalization with overlap
     ethr =  1.00E-02,  avg # of iterations =  8.2

[...]

     total energy              =   -1572.20719231 Ry
     Harris-Foulkes estimate   =   -1581.59975618 Ry
     estimated scf accuracy    <      51.71542855 Ry

[...]

     End of self-consistent calculation

          k = 0.0000 0.0000 0.0000 ( 18175 PWs)   bands (ev):

   -71.2864 -71.1761 -71.1760 -42.6773 -42.5551 -42.5551 -42.4959 -42.4954
   -42.4921 -42.4921 -42.4919 -42.4919  -7.6768  -6.2650  -5.9106  -5.7162
    -5.5583  -5.4984  -5.4984  -5.2976  -5.2976  -5.2329  -5.0881  -5.0620
    -5.0620  -4.9063  -4.9063  -4.3514  -4.0669  -4.0669  -3.9000  -3.9000
    -3.6846  -3.6193  -3.4672  -3.4561  -3.2417  -3.2417  -3.1584  -3.1584
    -3.0514  -3.0514  -2.8833  -2.8833  -2.8419  -2.8419  -2.6115  -2.3152
    -2.3152  -2.2343  -2.2343  -2.0119  -2.0119  -1.7663  -1.5606  -1.5606
    -1.4322  -1.2406  -1.2362  -1.1787  -0.2521   0.1802   0.4648   0.4648
     0.5511   0.5511   0.5847   0.5847   0.6868   0.6868   0.8880   0.8880
     0.9435   0.9741   1.0953   1.0953   1.2782   1.2782   1.3426   2.2424
     2.2424   2.4009   2.4009   2.6760   2.7028   4.2113   4.2113   4.4667
     4.8223   4.8223   4.8897   5.1089   5.6727   5.6728   5.8904   6.0134
     6.3294   6.7917   7.0980   8.4758

[...]

          k =-0.0864-0.0499 0.0000 ( 18188 PWs)   bands (ev):

[...]

     the Fermi energy is     0.5885 ev

!    total energy              =   -1578.74273666 Ry
     Harris-Foulkes estimate   =   -1578.74273662 Ry
     estimated scf accuracy    <       0.00000053 Ry

     The total energy is the sum of the following terms:

     one-electron contribution =  -10018.06978492 Ry
     hartree contribution      =    5077.94749290 Ry
     xc contribution           =    -645.52619811 Ry
     ewald contribution        =    4007.05636803 Ry
     electric field correction =       0.00000004 Ry
     smearing contrib. (-TS)   =      -0.15061460 Ry

     convergence has been achieved in  21 iterations

 BEEF-vdW xc energy contributions
           1 :   -574.676819815873
           2 :    532.451955926438
           3 :   -457.657343582910
           4 :    365.852794304456
           5 :   -273.242150879271
           6 :    192.196118973413
           7 :   -129.069484086865
           8 :    84.4864833362587
           9 :   -55.3046844848803
          10 :    37.0159759199188
          11 :   -25.5822761933567
          12 :    18.2473962085138
          13 :   -13.4720400293887
          14 :    10.4359425670468
[...]
     /afs/slac.stanford.edu/u/if/mamunm/psp/gbrv1.5pbe/Au.UPF
     MD5 check sum: 9d7f43293ad2c663164586bc4b293ffc
     Pseudo is Ultrasoft + core correction, Zval = 11.0
     Generated by new atomic code, or converted to UPF format
     Using radial grid of  985 points,  7 beta functions with:
                l(1) =   0
                l(2) =   0
                l(3) =   1
                l(4) =   1
                l(5) =   2
                l(6) =   2
                l(7) =   3
     Q(r) pseudized with  6 coefficients,  rinner =    1.900   1.900   1.900
                                                       1.900   1.900   1.900
                                                       1.900

     PseudoPot. # 2 for Cr read from file:
     /afs/slac.stanford.edu/u/if/mamunm/psp/gbrv1.5pbe/Cr.UPF
     MD5 check sum: 0d52af634a40206e4dee301ad30da4bf
     Pseudo is Ultrasoft + core correction, Zval = 14.0
     Generated by new atomic code, or converted to UPF format
     Using radial grid of  857 points,  6 beta functions with:
                l(1) =   0
                l(2) =   0
                l(3) =   1
                l(4) =   1
                l(5) =   2
                l(6) =   2
     Q(r) pseudized with  8 coefficients,  rinner =    0.950   0.950   0.950
                                                       0.950   0.950

     vdW kernel table read from file vdW_kernel_table
     MD5 check sum: 095c7af220d748ca6e76c0b4c6cfb241

     atomic species   valence    mass     pseudopotential
        Au1           11.00   196.96657     Au( 1.00)
        Cr1           14.00    51.99610     Cr( 1.00)

     No symmetry found

   Cartesian axes

     site n.     atom                  positions (alat units)
         1           Au1 tau(   1) = (   0.0000000   0.0000000  10.0000000  )
         2           Au1 tau(   2) = (  -1.4466576   2.5056845  10.0000000  )
         3           Au1 tau(   3) = (   1.4466576   2.5056845  10.0000000  )
         4           Cr1 tau(   4) = (   2.8933153   0.0000000  10.0000000  )
         5           Au1 tau(   5) = (   2.8933153   1.6704564  12.3623820  )
         6           Au1 tau(   6) = (   1.4466576   4.1761409  12.3623820  )
         7           Au1 tau(   7) = (  -1.4466576   4.1761409  12.3623820  )
         8           Cr1 tau(   8) = (   0.0000000   1.6704564  12.3623820  )
         9           Au1 tau(   9) = (  -0.0000045   3.3223761  14.7957623  )
        10           Au1 tau(  10) = (   1.4305972   0.8444948  14.7957700  )
        11           Au1 tau(  11) = (   4.3560234   0.8444938  14.7957618  )
        12           Cr1 tau(  12) = (   2.8933141   3.3409122  14.5430137  )

     number of k points=    20  Fermi-Dirac smearing, width (Ry)=  0.0110
                       cart. coord. in units 2pi/alat
        k(    1) = (   0.0000000   0.0000000   0.0000000), wk =   0.0555556
        k(    2) = (   0.0000000   0.0332577   0.0000000), wk =   0.1111111
        k(    3) = (   0.0000000   0.0665154   0.0000000), wk =   0.1111111
        k(    4) = (   0.0000000  -0.0997731   0.0000000), wk =   0.0555556
        k(    5) = (   0.0288020   0.0166289   0.0000000), wk =   0.1111111
        k(    6) = (   0.0288020   0.0498866   0.0000000), wk =   0.1111111
        k(    7) = (   0.0288020   0.0831443   0.0000000), wk =   0.1111111
        k(    8) = (   0.0288020  -0.0831443   0.0000000), wk =   0.1111111
        k(    9) = (   0.0288020  -0.0498866   0.0000000), wk =   0.1111111
        k(   10) = (   0.0288020  -0.0166289   0.0000000), wk =   0.1111111
        k(   11) = (   0.0576040   0.0332577   0.0000000), wk =   0.1111111
        k(   12) = (   0.0576040   0.0665154   0.0000000), wk =   0.1111111
        k(   13) = (   0.0576040   0.0997731   0.0000000), wk =   0.1111111
        k(   14) = (   0.0576040  -0.0665154   0.0000000), wk =   0.1111111
        k(   15) = (   0.0576040  -0.0332577   0.0000000), wk =   0.1111111
        k(   16) = (   0.0576040   0.0000000   0.0000000), wk =   0.1111111
        k(   17) = (  -0.0864061  -0.0498866   0.0000000), wk =   0.0555556
        k(   18) = (  -0.0864061  -0.0166289   0.0000000), wk =   0.1111111
        k(   19) = (  -0.0864061   0.0166289   0.0000000), wk =   0.1111111
        k(   20) = (  -0.0864061  -0.1496597   0.0000000), wk =   0.0555556

     Largest allocated arrays     est. size (Mb)     dimensions
     Largest temporary arrays     est. size (Mb)     dimensions

     Check: negative/imaginary core charge=   -0.000002    0.000000

     Initial potential from superposition of free atoms
     Check: negative starting charge=   -0.003910

     starting charge  137.99885, renormalised to  141.00000

[...]

     *
     * You are using vdW-DF for exchange-correlation in this calculation.
     * Please cite the following three references that made this development
     * possible:
     *
     *   M. Dion, H. Rydberg, E. Schroder, D. C. Langreth, and
     *   B. I. Lundqvist, Phys. Rev. Lett. 92, 246401 (2004).
     *
     *   T. Thonhauser, V. R. Cooper, S. Li, A. Puzder, P. Hyldgaard, and
     *   D. C. Langreth, Phys. Rev. B 76, 125112 (2007).
     *
     *   G. Roman-Perez and J. M. Soler, Phys. Rev. Lett. 103, 096102 (2009).
     *
     *
     * If you are using vdW-DF2, please also cite:
     *
     *   K. Lee, E. D. Murray, L. Kong, B. I. Lundqvist, and
     *   D. C. Langreth, Phys. Rev. B 82, 081101(R) (2010).
     *
     *
     * If you are calculating the stress with vdW-DF, please also cite:
     *
     *   R. Sabatini, E. Kucukbenli, B. Kolb, T. Thonhauser, and
     *   S. de Gironcoli, J. Phys.: Condens. Matter 24, 424209 (2012).
     *

     Carrying out vdW-DF run using the following parameters:

     Nqs =      20    Nr_points =    1024   r_max =   100.000
     q_mesh =
               0.00001000     0.04494208     0.09755937     0.15916263
               0.23128650     0.31572767     0.41458969     0.53033537
               0.66584808     0.82450364     1.01025438     1.22772762
               1.48234092     1.78043706     2.12944203     2.53805004
               3.01644009     3.57652955     4.23227104     5.00000000

     Gradients computed in reciprocal space

[...]

     Starting wfc are  111 randomized atomic wfcs

     Self-consistent Calculation

[...]

     total energy              =   -1578.76740895 Ry
     Harris-Foulkes estimate   =   -1578.76740913 Ry
     estimated scf accuracy    <       0.00000361 Ry

     iteration # 24     ecut=    36.75 Ry     beta=0.10
     Davidson diagonalization with overlap
     ethr =  2.56E-09,  avg # of iterations =  2.0

[...]

     negative rho (up, down):  2.882E-03 0.000E+00

     Adding external electric field

     Computed dipole along edir(3) :
        Dipole               -0.0346 Ry au,         -0.0880 Debye
        Dipole field         -0.0001 Ry au

        Potential amp.        0.0082 Ry
        Total length         45.5550 bohr

     End of self-consistent calculation

[...]

          k = 0.0576 0.0000 0.0000 ( 18209 PWs)   bands (ev):

[...]

          k =-0.0864-0.1497 0.0000 ( 18188 PWs)   bands (ev):

   -71.3422 -71.2471 -71.2267 -42.7367 -42.6102 -42.6098 -42.5676 -42.5627
   -42.5624 -42.5461 -42.5457 -42.5417  -6.4012  -6.0467  -5.3478  -5.1656
    -5.1039  -5.0953  -4.9388  -4.8813  -4.8259  -4.7095  -4.6516  -4.6169
    -4.3798  -4.3368  -4.2982  -4.2967  -4.2498  -4.2373  -4.0088  -3.9004
    -3.6266  -3.6176  -3.5755  -3.5498  -3.5440  -3.4822  -3.4479  -3.3712
    -3.3514  -3.3498  -3.3155  -3.2315  -3.2124  -3.1308  -3.0944  -3.0583
    -2.9562  -2.8895  -2.8805  -2.7950  -2.6846  -2.6660  -2.5442  -2.4932
    -2.1996  -2.0509  -1.7814  -1.7431  -1.4685  -1.3342  -0.5854  -0.3481
    -0.0501   0.1532   0.3006   0.3523   0.3643   0.3978   0.4531   0.4695
     0.4699   0.5744   0.6580   0.9006   1.0288   1.2998   1.6463   1.8611
     2.1460   2.6811   3.8262   3.8264   3.9362   4.3118   5.7962   5.8407
     6.2785   6.4680   6.5111   6.5994   6.6064   6.7152   6.9371   7.0223
     7.2130   7.4519   7.7229   7.7738

     the Fermi energy is     0.5299 ev

!    total energy              =   -1578.76740888 Ry
     Harris-Foulkes estimate   =   -1578.76740904 Ry
     estimated scf accuracy    <       0.00000037 Ry

     The total energy is the sum of the following terms:

     one-electron contribution =  -10020.72110105 Ry
     hartree contribution      =    5079.03374680 Ry
     xc contribution           =    -645.53020313 Ry
     ewald contribution        =    4008.60052451 Ry
     electric field correction =       0.00000312 Ry
     smearing contrib. (-TS)   =      -0.15037911 Ry

     convergence has been achieved in  24 iterations

 BEEF-vdW xc energy contributions
           1 :   -575.187369770985
           2 :    532.943753153962
           3 :   -458.126142247815
           4 :    366.310080216207
           5 :   -273.707241031368
           6 :    192.687324907968
           7 :   -129.594698473458
           8 :    85.0360240627421
           9 :   -55.8526881597079
          10 :    37.5344044292357
          11 :   -26.0597538788596
          12 :    18.6994250921615
          13 :   -13.9336541613438
          14 :    10.9406750888478
          15 :   -9.11721419295054
          16 :    7.84217364604410
          17 :   -6.47677520186051
          18 :    4.48519111613280
          19 :   -1.59187659310180
          20 :   -2.08547119250022
          21 :    5.98348022526159
          22 :   -9.20089578628142
          23 :    10.7964174454339
          24 :   -10.2002090542794
          25 :    7.54250648930349
          26 :   -3.69728176940441
          27 :  -3.754537403165159E-002
          28 :    2.49080155783975
          29 :   -3.12076168267060
          30 :    2.19676830887192
          31 :   -46.5565631467973
          32 :   -33.8578728790911

     Forces acting on atoms (Ry/au):

     negative rho (up, down):  2.882E-03 0.000E+00
     atom    1 type  1   force =    -0.00000026    0.01025463   -0.01105318
     atom    2 type  1   force =     0.00888033   -0.00512754   -0.01105324
     atom    3 type  1   force =    -0.00888010   -0.00512715   -0.01105459
     atom    4 type  2   force =     0.00000043   -0.00000020    0.02099012
     atom    5 type  1   force =    -0.00000013   -0.00948606    0.00209321
     atom    6 type  1   force =    -0.00821405    0.00474280    0.00209203
     atom    7 type  1   force =     0.00821400    0.00474317    0.00209201
     atom    8 type  2   force =    -0.00000013   -0.00000003    0.00394146
     atom    9 type  1   force =    -0.00000011    0.00071640    0.00044961
     atom   10 type  1   force =     0.00062152   -0.00035859    0.00044890
     atom   11 type  1   force =    -0.00062139   -0.00035741    0.00045045
     atom   12 type  2   force =    -0.00000012    0.00000000    0.00060321

     Total force =     0.037732     Total SCF correction =     0.001483

     entering subroutine stress ...

     negative rho (up, down):  2.882E-03 0.000E+00
          total   stress  (Ry/bohr**3)                   (kbar)     P=  -12.22
  -0.00012858  -0.00000000   0.00000000        -18.91     -0.00      0.00
  -0.00000000  -0.00012858   0.00000000         -0.00    -18.91      0.00
   0.00000000   0.00000000   0.00000800          0.00      0.00      1.18

 !ASE

     Writing output data file calc.save

     General routines

     Parallel routines

   This run was terminated on:  19:34:21  19Dec2018

   JOB DONE.
Job  /afs/slac/g/suncat/bin/suncat-tsmpirun -x LD_LIBRARY_PATH -wdir /scratch/qe773338_zgJyI pw.x -in pw.inp

TID   HOST_NAME   COMMAND_LINE            STATUS            TERMINATION_TIME
00000 suncat0087 pw.x -in pw.inp   Done                     12/19/2018 19:34:21
00001 suncat0087 pw.x -in pw.inp   Done                     12/19/2018 19:34:21
00002 suncat0087 pw.x -in pw.inp   Done                     12/19/2018 19:34:21
00003 suncat0087 pw.x -in pw.inp   Done                     12/19/2018 19:34:21
00004 suncat0087 pw.x -in pw.inp   Done                     12/19/2018 19:34:21
00005 suncat0087 pw.x -in pw.inp   Done                     12/19/2018 19:34:21
00006 suncat0087 pw.x -in pw.inp   Done                     12/19/2018 19:34:21
00007 suncat0087 pw.x -in pw.inp   Done                     12/19/2018 19:34:21
00008 suncat0086 pw.x -in pw.inp   Done                     12/19/2018 19:34:21
00009 suncat0086 pw.x -in pw.inp   Done                     12/19/2018 19:34:21
00010 suncat0086 pw.x -in pw.inp   Done                     12/19/2018 19:34:21
00011 suncat0086 pw.x -in pw.inp   Done                     12/19/2018 19:34:21
00012 suncat0086 pw.x -in pw.inp   Done                     12/19/2018 19:34:21
00013 suncat0086 pw.x -in pw.inp   Done                     12/19/2018 19:34:21
00014 suncat0086 pw.x -in pw.inp   Done                     12/19/2018 19:34:21
00015 suncat0086 pw.x -in pw.inp   Done                     12/19/2018 19:34:21
00016 suncat0085 pw.x -in pw.inp   Done                     12/19/2018 19:34:21
00017 suncat0085 pw.x -in pw.inp   Done                     12/19/2018 19:34:21
00018 suncat0085 pw.x -in pw.inp   Done                     12/19/2018 19:34:21
00019 suncat0085 pw.x -in pw.inp   Done                     12/19/2018 19:34:21
00020 suncat0085 pw.x -in pw.inp   Done                     12/19/2018 19:34:21
00021 suncat0085 pw.x -in pw.inp   Done                     12/19/2018 19:34:21
00022 suncat0085 pw.x -in pw.inp   Done                     12/19/2018 19:34:21
00023 suncat0085 pw.x -in pw.inp   Done                     12/19/2018 19:34:21
00024 suncat0084 pw.x -in pw.inp   Done                     12/19/2018 19:34:21
00025 suncat0084 pw.x -in pw.inp   Done                     12/19/2018 19:34:21
00026 suncat0084 pw.x -in pw.inp   Done                     12/19/2018 19:34:21
00027 suncat0084 pw.x -in pw.inp   Done                     12/19/2018 19:34:21
00028 suncat0084 pw.x -in pw.inp   Done                     12/19/2018 19:34:21
00029 suncat0084 pw.x -in pw.inp   Done                     12/19/2018 19:34:21
00030 suncat0084 pw.x -in pw.inp   Done                     12/19/2018 19:34:21
00031 suncat0084 pw.x -in pw.inp   Done                     12/19/2018 19:34:21
00032 suncat0178 pw.x -in pw.inp   Done                     12/19/2018 19:34:21
00033 suncat0178 pw.x -in pw.inp   Done                     12/19/2018 19:34:21
00034 suncat0178 pw.x -in pw.inp   Done                     12/19/2018 19:34:21
00035 suncat0178 pw.x -in pw.inp   Done                     12/19/2018 19:34:21
00036 suncat0178 pw.x -in pw.inp   Done                     12/19/2018 19:34:21
00037 suncat0178 pw.x -in pw.inp   Done                     12/19/2018 19:34:21
00038 suncat0178 pw.x -in pw.inp   Done                     12/19/2018 19:34:21
00039 suncat0178 pw.x -in pw.inp   Done                     12/19/2018 19:34:21
00040 suncat0177 pw.x -in pw.inp   Done                     12/19/2018 19:34:21
00041 suncat0177 pw.x -in pw.inp   Done                     12/19/2018 19:34:21
00042 suncat0177 pw.x -in pw.inp   Done                     12/19/2018 19:34:21
00043 suncat0177 pw.x -in pw.inp   Done                     12/19/2018 19:34:21
00044 suncat0177 pw.x -in pw.inp   Done                     12/19/2018 19:34:21
00045 suncat0177 pw.x -in pw.inp   Done                     12/19/2018 19:34:21
00046 suncat0177 pw.x -in pw.inp   Done                     12/19/2018 19:34:21
00047 suncat0177 pw.x -in pw.inp   Done                     12/19/2018 19:34:21
00048 suncat0172 pw.x -in pw.inp   Done                     12/19/2018 19:34:21
00049 suncat0172 pw.x -in pw.inp   Done                     12/19/2018 19:34:21
00050 suncat0172 pw.x -in pw.inp   Done                     12/19/2018 19:34:21
00051 suncat0172 pw.x -in pw.inp   Done                     12/19/2018 19:34:21
00052 suncat0172 pw.x -in pw.inp   Done                     12/19/2018 19:34:21
00053 suncat0172 pw.x -in pw.inp   Done                     12/19/2018 19:34:21
00054 suncat0172 pw.x -in pw.inp   Done                     12/19/2018 19:34:21
00055 suncat0172 pw.x -in pw.inp   Done                     12/19/2018 19:34:21
00056 suncat0171 pw.x -in pw.inp   Done                     12/19/2018 19:34:21
00057 suncat0171 pw.x -in pw.inp   Done                     12/19/2018 19:34:21
00058 suncat0171 pw.x -in pw.inp   Done                     12/19/2018 19:34:21
00059 suncat0171 pw.x -in pw.inp   Done                     12/19/2018 19:34:21
00060 suncat0171 pw.x -in pw.inp   Done                     12/19/2018 19:34:21
00061 suncat0171 pw.x -in pw.inp   Done                     12/19/2018 19:34:21
00062 suncat0171 pw.x -in pw.inp   Done                     12/19/2018 19:34:21
00063 suncat0171 pw.x -in pw.inp   Done                     12/19/2018 19:34:21