     Program PWSCF v.5.1rc2 (svn rev. 11289) starts on 30Dec2018 at  7:15: 9

     Current dimensions of program PWSCF are:
     Max number of different atomic species (ntypx) = 10
     Max number of k-points (npk) =  40000
     Max angular momentum in pseudopotentials (lmaxx) =  3
     Presently stress not available with electric field

     IMPORTANT: XC functional enforced from input :
     Exchange-correlation      = BEEF-VDW ( 1  4 27 13 2)
     Any further DFT definition will be discarded
     Please, verify this is what you really want

     Subspace diagonalization in iterative solution of the eigenvalue problem:
     a serial algorithm will be used

     bravais-lattice index     =            0
     lattice parameter (alat)  =       1.8897  a.u.
     unit-cell volume          =    5358.8939 (a.u.)^3
     number of atoms/cell      =           12
     number of atomic types    =            2
     number of electrons       =       150.00
     number of Kohn-Sham states=          105
     kinetic-energy cutoff     =      36.7493  Ry
     charge density cutoff     =     367.4932  Ry
     convergence threshold     =      1.0E-06
     mixing beta               =       0.1000
     number of iterations used =           10  plain     mixing
     Exchange-correlation      = BEEF-VDW ( 1  4 27 13 2)
     nstep                     =           50

     celldm(1)=   1.889726  celldm(2)=   0.000000  celldm(3)=   0.000000
     celldm(4)=   0.000000  celldm(5)=   0.000000  celldm(6)=   0.000000

     crystal axes: (cart. coord. in units of alat)
               a(1) = (   6.062333   0.000000   0.000000 )
               a(2) = (  -3.031166   5.250134   0.000000 )
               a(3) = (   0.000000   0.000000  24.949874 )

     reciprocal axes: (cart. coord. in units 2 pi/alat)
               b(1) = (  0.164953  0.095236  0.000000 )
               b(2) = (  0.000000  0.190471  0.000000 )
               b(3) = (  0.000000  0.000000  0.040080 )

     PseudoPot. # 1 for Hf read from file:
     /afs/slac.stanford.edu/u/if/mamunm/psp/gbrv1.5pbe/Hf.UPF
     MD5 check sum: 8ee9378dfe14276e333edf04c5e4aa26
     Pseudo is Ultrasoft + core correction, Zval = 12.0
     Generated by new atomic code, or converted to UPF format
     Using radial grid of  921 points,  8 beta functions with:
                l(1) =   0
                l(2) =   0
                l(3) =   0
                l(4) =   1
                l(5) =   1
                l(6) =   2
                l(7) =   2
                l(8) =   3
     Q(r) pseudized with  6 coefficients,  rinner =    1.200   1.200   1.200
                                                       1.200   1.200   1.200
                                                       1.200

     PseudoPot. # 2 for Cr read from file:
     /afs/slac.stanford.edu/u/if/mamunm/psp/gbrv1.5pbe/Cr.UPF
     MD5 check sum: 0d52af634a40206e4dee301ad30da4bf
     Pseudo is Ultrasoft + core correction, Zval = 14.0
     Generated by new atomic code, or converted to UPF format
     Using radial grid of  857 points,  6 beta functions with:
                l(1) =   0
                l(2) =   0
                l(3) =   1
                l(4) =   1
                l(5) =   2
                l(6) =   2
     Q(r) pseudized with  8 coefficients,  rinner =    0.950   0.950   0.950
                                                       0.950   0.950

     vdW kernel table read from file vdW_kernel_table
     MD5 check sum: 095c7af220d748ca6e76c0b4c6cfb241

     atomic species   valence    mass     pseudopotential
        Hf1           12.00   178.49000     Hf( 1.00)
        Cr1           14.00    51.99610     Cr( 1.00)

     No symmetry found

   Cartesian axes

     site n.     atom                  positions (alat units)
         1           Hf1 tau(   1) = (   0.0000000   0.0000000  10.0000000  )
         2           Hf1 tau(   2) = (  -1.5155832   2.6250672  10.0000000  )
         3           Hf1 tau(   3) = (   1.5155832   2.6250672  10.0000000  )
         4           Cr1 tau(   4) = (   3.0311665   0.0000000  10.0000000  )
         5           Hf1 tau(   5) = (   3.0311665   1.7500448  12.4749371  )
         6           Hf1 tau(   6) = (   1.5155832   4.3751120  12.4749371  )
         7           Hf1 tau(   7) = (  -1.5155832   4.3751120  12.4749371  )
         8           Cr1 tau(   8) = (   0.0000000   1.7500448  12.4749371  )
         9           Hf1 tau(   9) = (  -0.0000000   3.5000896  14.9498741  )
        10           Hf1 tau(  10) = (   1.5155832   0.8750224  14.9498741  )
        11           Hf1 tau(  11) = (   4.5467497   0.8750224  14.9498741  )
        12           Cr1 tau(  12) = (   3.0311665   3.5000896  14.9498741  )

     number of k points=    20  Fermi-Dirac smearing, width (Ry)=  0.0110
                       cart. coord. in units 2pi/alat
        k(    1) = (   0.0000000   0.0000000   0.0000000), wk =   0.0555556
        k(    2) = (   0.0000000   0.0317452   0.0000000), wk =   0.1111111
        k(    3) = (   0.0000000   0.0634904   0.0000000), wk =   0.1111111
        k(    4) = (   0.0000000  -0.0952357   0.0000000), wk =   0.0555556
        k(    5) = (   0.0274922   0.0158726   0.0000000), wk =   0.1111111
        k(    6) = (   0.0274922   0.0476178   0.0000000), wk =   0.1111111
        k(    7) = (   0.0274922   0.0793630   0.0000000), wk =   0.1111111
        k(    8) = (   0.0274922  -0.0793630   0.0000000), wk =   0.1111111
        k(    9) = (   0.0274922  -0.0476178   0.0000000), wk =   0.1111111
        k(   10) = (   0.0274922  -0.0158726   0.0000000), wk =   0.1111111
        k(   11) = (   0.0549843   0.0317452   0.0000000), wk =   0.1111111
        k(   12) = (   0.0549843   0.0634904   0.0000000), wk =   0.1111111
        k(   13) = (   0.0549843   0.0952357   0.0000000), wk =   0.1111111
        k(   14) = (   0.0549843  -0.0634904   0.0000000), wk =   0.1111111
        k(   15) = (   0.0549843  -0.0317452   0.0000000), wk =   0.1111111
        k(   16) = (   0.0549843   0.0000000   0.0000000), wk =   0.1111111
        k(   17) = (  -0.0824765  -0.0476178   0.0000000), wk =   0.0555556
        k(   18) = (  -0.0824765  -0.0158726   0.0000000), wk =   0.1111111
        k(   19) = (  -0.0824765   0.0158726   0.0000000), wk =   0.1111111
        k(   20) = (  -0.0824765  -0.1428535   0.0000000), wk =   0.0555556

     Largest allocated arrays     est. size (Mb)     dimensions
     Largest temporary arrays     est. size (Mb)     dimensions

     Check: negative/imaginary core charge=   -0.000004    0.000000

     Initial potential from superposition of free atoms
     Check: negative starting charge=   -0.967091

     starting charge  128.99994, renormalised to  150.00000

     negative rho (up, down):  1.125E+00 0.000E+00

     *
     * You are using vdW-DF for exchange-correlation in this calculation.
     * Please cite the following three references that made this development
     * possible:
     *
     *   M. Dion, H. Rydberg, E. Schroder, D. C. Langreth, and
     *   B. I. Lundqvist, Phys. Rev. Lett. 92, 246401 (2004).
     *
     *   T. Thonhauser, V. R. Cooper, S. Li, A. Puzder, P. Hyldgaard, and
     *   D. C. Langreth, Phys. Rev. B 76, 125112 (2007).
     *
     *   G. Roman-Perez and J. M. Soler, Phys. Rev. Lett. 103, 096102 (2009).
     *
     *
     * If you are using vdW-DF2, please also cite:
     *
     *   K. Lee, E. D. Murray, L. Kong, B. I. Lundqvist, and
     *   D. C. Langreth, Phys. Rev. B 82, 081101(R) (2010).
     *
     *
     * If you are calculating the stress with vdW-DF, please also cite:
     *
     *   R. Sabatini, E. Kucukbenli, B. Kolb, T. Thonhauser, and
     *   S. de Gironcoli, J. Phys.: Condens. Matter 24, 424209 (2012).
     *

     Carrying out vdW-DF run using the following parameters:

     Nqs =      20    Nr_points =    1024   r_max =   100.000
     q_mesh =
               0.00001000     0.04494208     0.09755937     0.15916263
               0.23128650     0.31572767     0.41458969     0.53033537
               0.66584808     0.82450364     1.01025438     1.22772762
               1.48234092     1.78043706     2.12944203     2.53805004
               3.01644009     3.57652955     4.23227104     5.00000000

     Gradients computed in reciprocal space

     Adding external electric field

     Computed dipole along edir(3) :
        Dipole                0.0000 Ry au,          0.0000 Debye
        Dipole field          0.0000 Ry au

        Potential amp.       -0.0000 Ry
        Total length         45.9697 bohr

     Starting wfc are  147 randomized atomic wfcs

     Self-consistent Calculation

     iteration #  1     ecut=    36.75 Ry     beta=0.10
     Davidson diagonalization with overlap
     ethr =  1.00E-02,  avg # of iterations =  8.3

[...]

     total energy              =   -1953.40901902 Ry
     Harris-Foulkes estimate   =   -1998.69460573 Ry
     estimated scf accuracy    <     253.47283158 Ry

[...]

     iteration # 25     ecut=    36.75 Ry     beta=0.10
     Davidson diagonalization with overlap
     c_bands:  1 eigenvalues not converged
     c_bands:  1 eigenvalues not converged
     ethr =  3.21E-07,  avg # of iterations =  9.7

[...]

     End of self-consistent calculation

          k = 0.0000 0.0000 0.0000 ( 20083 PWs)   bands (ev):

   -70.2205 -70.0700 -70.0698 -61.0427 -61.0413 -60.9902 -60.9901 -60.9896
   -60.9896 -60.6105 -60.5592 -60.5591 -41.5086 -41.5086 -41.4839 -41.4081
   -41.4076 -41.3501 -41.3501 -41.3498 -41.3498 -30.0451 -30.0030 -29.8173
   -29.7669 -29.7669 -29.7094 -29.7094 -29.6701 -29.6701 -29.6676 -29.5894
   -29.5677 -29.5677 -29.3301 -29.3114 -29.2684 -29.2684 -29.1987 -29.1987
   -29.1736 -29.1736 -29.0816 -29.0388 -29.0388 -28.8924 -28.8214 -28.8214
    -5.2028  -3.7943  -2.4938  -1.9248  -1.7643  -1.5950  -1.5950  -1.3298
    -1.3298  -1.1793  -0.8772  -0.8772  -0.6071  -0.5238  -0.5238   0.0921
     0.3330   0.3330   1.0780   1.1481   1.1950   1.1950   1.4124   1.6182
     1.6214   1.7401   1.7401   1.8850   1.8851   1.9350   2.0933   2.0933
     2.2572   2.2572   2.3038   2.3038   2.3966   2.5749   2.5749   2.9404
     2.9404   3.0654   3.0654   3.1021   3.2376   3.2750   3.2750   3.6789
     4.8348   4.8864   4.8864   4.9163   4.9397   5.2335   5.4892   5.4892
     5.5781

[...]

          k =-0.0825-0.0476 0.0000 ( 20180 PWs)   bands (ev):

[...]

     the Fermi energy is     1.3825 ev

!    total energy              =   -1973.48438267 Ry
     Harris-Foulkes estimate   =   -1973.48438165 Ry
     estimated scf accuracy    <       0.00000084 Ry

     The total energy is the sum of the following terms:

     one-electron contribution =  -10361.99163353 Ry
     hartree contribution      =    5166.99495806 Ry
     xc contribution           =    -765.75972396 Ry
     ewald contribution        =    3987.40942687 Ry
     electric field correction =       0.00000006 Ry
     smearing contrib. (-TS)   =      -0.13741017 Ry

     convergence has been achieved in  32 iterations

 BEEF-vdW xc energy contributions
           1 :   -688.927984446577
           2 :    638.631147386350
           3 :   -550.010305542691
           4 :    442.240932795709
           5 :   -334.907620803073
[...]
     MD5 check sum: 8ee9378dfe14276e333edf04c5e4aa26
     Pseudo is Ultrasoft + core correction, Zval = 12.0
     Generated by new atomic code, or converted to UPF format
     Using radial grid of  921 points,  8 beta functions with:
                l(1) =   0
                l(2) =   0
                l(3) =   0
                l(4) =   1
                l(5) =   1
                l(6) =   2
                l(7) =   2
                l(8) =   3
     Q(r) pseudized with  6 coefficients,  rinner =    1.200   1.200   1.200
                                                       1.200   1.200   1.200
                                                       1.200

     PseudoPot. # 2 for Cr read from file:
     /afs/slac.stanford.edu/u/if/mamunm/psp/gbrv1.5pbe/Cr.UPF
     MD5 check sum: 0d52af634a40206e4dee301ad30da4bf
     Pseudo is Ultrasoft + core correction, Zval = 14.0
     Generated by new atomic code, or converted to UPF format
     Using radial grid of  857 points,  6 beta functions with:
                l(1) =   0
                l(2) =   0
                l(3) =   1
                l(4) =   1
                l(5) =   2
                l(6) =   2
     Q(r) pseudized with  8 coefficients,  rinner =    0.950   0.950   0.950
                                                       0.950   0.950

     vdW kernel table read from file vdW_kernel_table
     MD5 check sum: 095c7af220d748ca6e76c0b4c6cfb241

     atomic species   valence    mass     pseudopotential
        Hf1           12.00   178.49000     Hf( 1.00)
        Cr1           14.00    51.99610     Cr( 1.00)

     No symmetry found

   Cartesian axes

     site n.     atom                  positions (alat units)
         1           Hf1 tau(   1) = (   0.0000000   0.0000000  10.0000000  )
         2           Hf1 tau(   2) = (  -1.5155832   2.6250672  10.0000000  )
         3           Hf1 tau(   3) = (   1.5155832   2.6250672  10.0000000  )
         4           Cr1 tau(   4) = (   3.0311665   0.0000000  10.0000000  )
         5           Hf1 tau(   5) = (   3.0311665   1.7500448  12.4749371  )
         6           Hf1 tau(   6) = (   1.5155832   4.3751120  12.4749371  )
         7           Hf1 tau(   7) = (  -1.5155832   4.3751120  12.4749371  )
         8           Cr1 tau(   8) = (   0.0000000   1.7500448  12.4749371  )
         9           Hf1 tau(   9) = (  -0.0000014   3.4511875  14.9029132  )
        10           Hf1 tau(  10) = (   1.4732308   0.8994776  14.9028975  )
        11           Hf1 tau(  11) = (   4.5891039   0.8994822  14.9029007  )
        12           Cr1 tau(  12) = (   3.0311672   3.5000784  14.5734132  )

     number of k points=    20  Fermi-Dirac smearing, width (Ry)=  0.0110
                       cart. coord. in units 2pi/alat
        k(    1) = (   0.0000000   0.0000000   0.0000000), wk =   0.0555556
        k(    2) = (   0.0000000   0.0317452   0.0000000), wk =   0.1111111
        k(    3) = (   0.0000000   0.0634904   0.0000000), wk =   0.1111111
        k(    4) = (   0.0000000  -0.0952357   0.0000000), wk =   0.0555556
        k(    5) = (   0.0274922   0.0158726   0.0000000), wk =   0.1111111
        k(    6) = (   0.0274922   0.0476178   0.0000000), wk =   0.1111111
        k(    7) = (   0.0274922   0.0793630   0.0000000), wk =   0.1111111
        k(    8) = (   0.0274922  -0.0793630   0.0000000), wk =   0.1111111
        k(    9) = (   0.0274922  -0.0476178   0.0000000), wk =   0.1111111
        k(   10) = (   0.0274922  -0.0158726   0.0000000), wk =   0.1111111
        k(   11) = (   0.0549843   0.0317452   0.0000000), wk =   0.1111111
        k(   12) = (   0.0549843   0.0634904   0.0000000), wk =   0.1111111
        k(   13) = (   0.0549843   0.0952357   0.0000000), wk =   0.1111111
        k(   14) = (   0.0549843  -0.0634904   0.0000000), wk =   0.1111111
        k(   15) = (   0.0549843  -0.0317452   0.0000000), wk =   0.1111111
        k(   16) = (   0.0549843   0.0000000   0.0000000), wk =   0.1111111
        k(   17) = (  -0.0824765  -0.0476178   0.0000000), wk =   0.0555556
        k(   18) = (  -0.0824765  -0.0158726   0.0000000), wk =   0.1111111
        k(   19) = (  -0.0824765   0.0158726   0.0000000), wk =   0.1111111
        k(   20) = (  -0.0824765  -0.1428535   0.0000000), wk =   0.0555556

     Largest allocated arrays     est. size (Mb)     dimensions
     Largest temporary arrays     est. size (Mb)     dimensions

     Check: negative/imaginary core charge=   -0.000004    0.000000

     Initial potential from superposition of free atoms
     Check: negative starting charge=   -0.973442

     starting charge  128.99994, renormalised to  150.00000

[...]

     *
     * You are using vdW-DF for exchange-correlation in this calculation.
     * Please cite the following three references that made this development
     * possible:
     *
     *   M. Dion, H. Rydberg, E. Schroder, D. C. Langreth, and
     *   B. I. Lundqvist, Phys. Rev. Lett. 92, 246401 (2004).
     *
     *   T. Thonhauser, V. R. Cooper, S. Li, A. Puzder, P. Hyldgaard, and
     *   D. C. Langreth, Phys. Rev. B 76, 125112 (2007).
     *
     *   G. Roman-Perez and J. M. Soler, Phys. Rev. Lett. 103, 096102 (2009).
     *
     *
     * If you are using vdW-DF2, please also cite:
     *
     *   K. Lee, E. D. Murray, L. Kong, B. I. Lundqvist, and
     *   D. C. Langreth, Phys. Rev. B 82, 081101(R) (2010).
     *
     *
     * If you are calculating the stress with vdW-DF, please also cite:
     *
     *   R. Sabatini, E. Kucukbenli, B. Kolb, T. Thonhauser, and
     *   S. de Gironcoli, J. Phys.: Condens. Matter 24, 424209 (2012).
     *

     Carrying out vdW-DF run using the following parameters:

     Nqs =      20    Nr_points =    1024   r_max =   100.000
     q_mesh =
               0.00001000     0.04494208     0.09755937     0.15916263
               0.23128650     0.31572767     0.41458969     0.53033537
               0.66584808     0.82450364     1.01025438     1.22772762
               1.48234092     1.78043706     2.12944203     2.53805004
               3.01644009     3.57652955     4.23227104     5.00000000

     Gradients computed in reciprocal space

[...]

     Starting wfc are  147 randomized atomic wfcs

     Self-consistent Calculation

[...]

     total energy              =   -1973.54294831 Ry
     Harris-Foulkes estimate   =   -1973.54294711 Ry
     estimated scf accuracy    <       0.00000140 Ry

     iteration # 28     ecut=    36.75 Ry     beta=0.10
     Davidson diagonalization with overlap
     ethr =  9.36E-10,  avg # of iterations =  1.4

[...]

     negative rho (up, down):  1.028E+00 0.000E+00

     Adding external electric field

     Computed dipole along edir(3) :
        Dipole                0.0648 Ry au,          0.1648 Debye
        Dipole field          0.0002 Ry au

        Potential amp.       -0.0140 Ry
        Total length         45.9697 bohr

     End of self-consistent calculation

[...]

          k = 0.0550 0.0000 0.0000 ( 20169 PWs)   bands (ev):

[...]

          k =-0.0825-0.1429 0.0000 ( 20180 PWs)   bands (ev):

   -70.1990 -69.9925 -69.9362 -61.0056 -60.9805 -60.9654 -60.9636 -60.9463
   -60.9289 -60.4328 -60.4156 -60.3982 -41.4898 -41.4894 -41.4613 -41.3184
   -41.2801 -41.2796 -41.2533 -41.2529 -41.2337 -29.8467 -29.7916 -29.7202
   -29.6816 -29.6373 -29.6131 -29.5965 -29.5628 -29.5584 -29.5506 -29.5107
   -29.4840 -29.4803 -29.4542 -29.4450 -29.4337 -29.2773 -29.1939 -29.1695
   -29.0273 -28.9799 -28.9348 -28.9271 -28.9235 -28.9209 -28.8906 -28.6978
    -3.5448  -3.3968  -2.2897  -1.9816  -1.2559  -1.1353  -0.9257  -0.8821
    -0.8276  -0.6408  -0.0853   0.0971   0.1661   0.2537   0.2700   0.3137
     0.5191   0.5684   0.5969   0.6772   0.7564   0.8086   0.9403   0.9740
     1.0416   1.1026   1.2102   1.2592   1.3431   1.4377   1.5584   1.6232
     1.6817   1.7465   1.8599   1.9997   2.2766   2.3619   2.5773   2.5974
     2.6244   3.0756   3.1382   3.2711   3.3628   3.3779   3.5028   3.5755
     3.6547   4.2847   4.4926   4.5086   4.6160   4.7355   4.9225   5.0388
     5.1403

     the Fermi energy is     1.4333 ev

!    total energy              =   -1973.54295488 Ry
     Harris-Foulkes estimate   =   -1973.54294811 Ry
     estimated scf accuracy    <       0.00000047 Ry

     The total energy is the sum of the following terms:

     one-electron contribution =  -10562.92022921 Ry
     hartree contribution      =    5267.85752085 Ry
     xc contribution           =    -765.98904934 Ry
     ewald contribution        =    4087.63848154 Ry
     electric field correction =       0.00000985 Ry
     smearing contrib. (-TS)   =      -0.12968857 Ry

     convergence has been achieved in  28 iterations

 BEEF-vdW xc energy contributions
           1 :   -690.152647632090
           2 :    639.921123719133
           3 :   -551.362639344581
           4 :    443.570966340938
           5 :   -336.102297377927
           6 :    243.225302744708
           7 :   -171.464300506231
           8 :    120.625547786964
           9 :   -86.8610103750195
          10 :    65.6540260268853
          11 :   -53.3644584235689
          12 :    47.1896655055568
          13 :   -44.4291654046682
          14 :    42.0792821580447
          15 :   -37.2811340717982
          16 :    28.3352998183258
          17 :   -15.5534977487157
          18 :    1.27048723199277
          19 :    11.1178927013650
          20 :   -18.6424524600025
          21 :    20.0003895213442
          22 :   -15.9541263147551
          23 :    8.78053103143691
          24 :   -1.18949030462409
          25 :   -4.67198779443424
          26 :    7.68328994942885
          27 :   -7.65189966044466
          28 :    4.94813390221066
          29 :  -0.232212901376670
          30 :   -5.58633080176230
          31 :   -51.1011719333883
          32 :   -36.7600700842106

     Forces acting on atoms (Ry/au):

     negative rho (up, down):  1.028E+00 0.000E+00
     atom    1 type  1   force =    -0.00000053    0.02233116   -0.00027417
     atom    2 type  1   force =     0.01933756   -0.01116642   -0.00027405
     atom    3 type  1   force =    -0.01933740   -0.01116611   -0.00027391
     atom    4 type  2   force =    -0.00000016   -0.00000009    0.04019856
     atom    5 type  1   force =    -0.00000020   -0.00716084   -0.01343540
     atom    6 type  1   force =    -0.00620165    0.00357992   -0.01343283
     atom    7 type  1   force =     0.00620156    0.00357969   -0.01343333
     atom    8 type  2   force =     0.00000006    0.00000015    0.00294485
     atom    9 type  1   force =     0.00000087   -0.00027450   -0.00036420
     atom   10 type  1   force =    -0.00023752    0.00013901   -0.00036251
     atom   11 type  1   force =     0.00023675    0.00013747   -0.00036303
     atom   12 type  2   force =     0.00000068    0.00000056   -0.00092998

     Total force =     0.061786     Total SCF correction =     0.001765

     entering subroutine stress ...

     negative rho (up, down):  1.028E+00 0.000E+00
          total   stress  (Ry/bohr**3)                   (kbar)     P=  -12.06
  -0.00009352   0.00000000  -0.00000000        -13.76      0.00     -0.00
   0.00000000  -0.00009352   0.00000000          0.00    -13.76      0.00
  -0.00000000   0.00000000  -0.00005884         -0.00      0.00     -8.66

 !ASE

     Writing output data file calc.save

     General routines

     Parallel routines

   This run was terminated on:  10:52:34  30Dec2018

   JOB DONE.
Job  /afs/slac/g/suncat/bin/suncat-tsmpirun -x LD_LIBRARY_PATH -wdir /scratch/qe648463_Rla4D pw.x -in pw.inp

TID   HOST_NAME   COMMAND_LINE            STATUS            TERMINATION_TIME
00000 suncat0251 pw.x -in pw.inp   Done                     12/30/2018 10:52:34
00001 suncat0251 pw.x -in pw.inp   Done                     12/30/2018 10:52:34
00002 suncat0251 pw.x -in pw.inp   Done                     12/30/2018 10:52:34
00003 suncat0251 pw.x -in pw.inp   Done                     12/30/2018 10:52:34
00004 suncat0251 pw.x -in pw.inp   Done                     12/30/2018 10:52:34
00005 suncat0251 pw.x -in pw.inp   Done                     12/30/2018 10:52:34
00006 suncat0251 pw.x -in pw.inp   Done                     12/30/2018 10:52:34
00007 suncat0251 pw.x -in pw.inp   Done                     12/30/2018 10:52:34
00008 suncat0244 pw.x -in pw.inp   Done                     12/30/2018 10:52:34
00009 suncat0244 pw.x -in pw.inp   Done                     12/30/2018 10:52:34
00010 suncat0244 pw.x -in pw.inp   Done                     12/30/2018 10:52:34
00011 suncat0244 pw.x -in pw.inp   Done                     12/30/2018 10:52:34
00012 suncat0244 pw.x -in pw.inp   Done                     12/30/2018 10:52:34
00013 suncat0244 pw.x -in pw.inp   Done                     12/30/2018 10:52:34
00014 suncat0244 pw.x -in pw.inp   Done                     12/30/2018 10:52:34
00015 suncat0244 pw.x -in pw.inp   Done                     12/30/2018 10:52:34
00016 suncat0243 pw.x -in pw.inp   Done                     12/30/2018 10:52:34
00017 suncat0243 pw.x -in pw.inp   Done                     12/30/2018 10:52:34
00018 suncat0243 pw.x -in pw.inp   Done                     12/30/2018 10:52:34
00019 suncat0243 pw.x -in pw.inp   Done                     12/30/2018 10:52:34
00020 suncat0243 pw.x -in pw.inp   Done                     12/30/2018 10:52:34
00021 suncat0243 pw.x -in pw.inp   Done                     12/30/2018 10:52:34
00022 suncat0243 pw.x -in pw.inp   Done                     12/30/2018 10:52:34
00023 suncat0243 pw.x -in pw.inp   Done                     12/30/2018 10:52:34
00024 suncat0242 pw.x -in pw.inp   Done                     12/30/2018 10:52:34
00025 suncat0242 pw.x -in pw.inp   Done                     12/30/2018 10:52:34
00026 suncat0242 pw.x -in pw.inp   Done                     12/30/2018 10:52:34
00027 suncat0242 pw.x -in pw.inp   Done                     12/30/2018 10:52:34
00028 suncat0242 pw.x -in pw.inp   Done                     12/30/2018 10:52:34
00029 suncat0242 pw.x -in pw.inp   Done                     12/30/2018 10:52:34
00030 suncat0242 pw.x -in pw.inp   Done                     12/30/2018 10:52:34
00031 suncat0242 pw.x -in pw.inp   Done                     12/30/2018 10:52:34
00032 suncat0209 pw.x -in pw.inp   Done                     12/30/2018 10:52:34
00033 suncat0209 pw.x -in pw.inp   Done                     12/30/2018 10:52:34
00034 suncat0209 pw.x -in pw.inp   Done                     12/30/2018 10:52:34
00035 suncat0209 pw.x -in pw.inp   Done                     12/30/2018 10:52:34
00036 suncat0209 pw.x -in pw.inp   Done                     12/30/2018 10:52:34
00037 suncat0209 pw.x -in pw.inp   Done                     12/30/2018 10:52:34
00038 suncat0209 pw.x -in pw.inp   Done                     12/30/2018 10:52:34
00039 suncat0209 pw.x -in pw.inp   Done                     12/30/2018 10:52:34
00040 suncat0205 pw.x -in pw.inp   Done                     12/30/2018 10:52:34
00041 suncat0205 pw.x -in pw.inp   Done                     12/30/2018 10:52:34
00042 suncat0205 pw.x -in pw.inp   Done                     12/30/2018 10:52:34
00043 suncat0205 pw.x -in pw.inp   Done                     12/30/2018 10:52:34
00044 suncat0205 pw.x -in pw.inp   Done                     12/30/2018 10:52:34
00045 suncat0205 pw.x -in pw.inp   Done                     12/30/2018 10:52:34
00046 suncat0205 pw.x -in pw.inp   Done                     12/30/2018 10:52:34
00047 suncat0205 pw.x -in pw.inp   Done                     12/30/2018 10:52:34
00048 suncat0204 pw.x -in pw.inp   Done                     12/30/2018 10:52:34
00049 suncat0204 pw.x -in pw.inp   Done                     12/30/2018 10:52:34
00050 suncat0204 pw.x -in pw.inp   Done                     12/30/2018 10:52:34
00051 suncat0204 pw.x -in pw.inp   Done                     12/30/2018 10:52:34
00052 suncat0204 pw.x -in pw.inp   Done                     12/30/2018 10:52:34
00053 suncat0204 pw.x -in pw.inp   Done                     12/30/2018 10:52:34
00054 suncat0204 pw.x -in pw.inp   Done                     12/30/2018 10:52:34
00055 suncat0204 pw.x -in pw.inp   Done                     12/30/2018 10:52:34
00056 suncat0203 pw.x -in pw.inp   Done                     12/30/2018 10:52:34
00057 suncat0203 pw.x -in pw.inp   Done                     12/30/2018 10:52:34
00058 suncat0203 pw.x -in pw.inp   Done                     12/30/2018 10:52:34
00059 suncat0203 pw.x -in pw.inp   Done                     12/30/2018 10:52:34
00060 suncat0203 pw.x -in pw.inp   Done                     12/30/2018 10:52:34
00061 suncat0203 pw.x -in pw.inp   Done                     12/30/2018 10:52:34
00062 suncat0203 pw.x -in pw.inp   Done                     12/30/2018 10:52:34
00063 suncat0203 pw.x -in pw.inp   Done                     12/30/2018 10:52:34