     Program PWSCF v.5.1rc2 (svn rev. 11289) starts on 30Dec2018 at 12:12:48

     Current dimensions of program PWSCF are:
     Max number of different atomic species (ntypx) = 10
     Max number of k-points (npk) =  40000
     Max angular momentum in pseudopotentials (lmaxx) =  3
     Presently stress not available with electric field

     IMPORTANT: XC functional enforced from input :
     Exchange-correlation      = BEEF-VDW ( 1  4 27 13 2)
     Any further DFT definition will be discarded
     Please, verify this is what you really want

     Subspace diagonalization in iterative solution of the eigenvalue problem:
     a serial algorithm will be used

     bravais-lattice index     =            0
     lattice parameter (alat)  =       1.8897  a.u.
     unit-cell volume          =    7103.2547 (a.u.)^3
     number of atoms/cell      =           12
     number of atomic types    =            2
     number of electrons       =       141.00
     number of Kohn-Sham states=          100
     kinetic-energy cutoff     =      36.7493  Ry
     charge density cutoff     =     367.4932  Ry
     convergence threshold     =      1.0E-06
     mixing beta               =       0.1000
     number of iterations used =           10  plain     mixing
     Exchange-correlation      = BEEF-VDW ( 1  4 27 13 2)
     nstep                     =           50

     celldm(1)=   1.889726  celldm(2)=   0.000000  celldm(3)=   0.000000
     celldm(4)=   0.000000  celldm(5)=   0.000000  celldm(6)=   0.000000

     crystal axes: (cart. coord. in units of alat)
               a(1) = (   6.887260   0.000000   0.000000 )
               a(2) = (  -3.443630   5.964542   0.000000 )
               a(3) = (   0.000000   0.000000  25.623424 )

     reciprocal axes: (cart. coord. in units 2 pi/alat)
               b(1) = (  0.145196  0.083829  0.000000 )
               b(2) = (  0.000000  0.167657  0.000000 )
               b(3) = (  0.000000  0.000000  0.039027 )

     PseudoPot. # 1 for La read from file:
     /afs/slac.stanford.edu/u/if/mamunm/psp/gbrv1.5pbe/La.UPF
     MD5 check sum: 5937b0c7494ba0601a847275249473aa
     Pseudo is Ultrasoft + core correction, Zval = 11.0
     Generated by new atomic code, or converted to UPF format
     Using radial grid of  995 points,  8 beta functions with:
                l(1) =   0
                l(2) =   0
                l(3) =   1
                l(4) =   1
                l(5) =   2
                l(6) =   2
                l(7) =   3
                l(8) =   3
     Q(r) pseudized with  8 coefficients,  rinner =    1.700   1.700   1.700
                                                       1.700   1.700   1.700
                                                       1.700

     PseudoPot. # 2 for Cr read from file:
     /afs/slac.stanford.edu/u/if/mamunm/psp/gbrv1.5pbe/Cr.UPF
     MD5 check sum: 0d52af634a40206e4dee301ad30da4bf
     Pseudo is Ultrasoft + core correction, Zval = 14.0
     Generated by new atomic code, or converted to UPF format
     Using radial grid of  857 points,  6 beta functions with:
                l(1) =   0
                l(2) =   0
                l(3) =   1
                l(4) =   1
                l(5) =   2
                l(6) =   2
     Q(r) pseudized with  8 coefficients,  rinner =    0.950   0.950   0.950
                                                       0.950   0.950

     vdW kernel table read from file vdW_kernel_table
     MD5 check sum: 095c7af220d748ca6e76c0b4c6cfb241

     atomic species   valence    mass     pseudopotential
        La1           11.00   138.90547     La( 1.00)
        Cr1           14.00    51.99610     Cr( 1.00)

     No symmetry found

   Cartesian axes

     site n.     atom                  positions (alat units)
         1           La1 tau(   1) = (   0.0000000   0.0000000  10.0000000  )
         2           La1 tau(   2) = (  -1.7218151   2.9822712  10.0000000  )
         3           La1 tau(   3) = (   1.7218151   2.9822712  10.0000000  )
         4           Cr1 tau(   4) = (   3.4436301   0.0000000  10.0000000  )
         5           La1 tau(   5) = (   3.4436301   1.9881808  12.8117122  )
         6           La1 tau(   6) = (   1.7218151   4.9704519  12.8117122  )
         7           La1 tau(   7) = (  -1.7218151   4.9704519  12.8117122  )
         8           Cr1 tau(   8) = (   0.0000000   1.9881808  12.8117122  )
         9           La1 tau(   9) = (  -0.0000000   3.9763615  15.6234244  )
        10           La1 tau(  10) = (   1.7218151   0.9940904  15.6234244  )
        11           La1 tau(  11) = (   5.1654452   0.9940904  15.6234244  )
        12           Cr1 tau(  12) = (   3.4436301   3.9763615  15.6234244  )

     number of k points=    20  Fermi-Dirac smearing, width (Ry)=  0.0110
                       cart. coord. in units 2pi/alat
        k(    1) = (   0.0000000   0.0000000   0.0000000), wk =   0.0555556
        k(    2) = (   0.0000000   0.0279429   0.0000000), wk =   0.1111111
        k(    3) = (   0.0000000   0.0558858   0.0000000), wk =   0.1111111
        k(    4) = (   0.0000000  -0.0838287   0.0000000), wk =   0.0555556
        k(    5) = (   0.0241993   0.0139715   0.0000000), wk =   0.1111111
        k(    6) = (   0.0241993   0.0419144   0.0000000), wk =   0.1111111
        k(    7) = (   0.0241993   0.0698573   0.0000000), wk =   0.1111111
        k(    8) = (   0.0241993  -0.0698573   0.0000000), wk =   0.1111111
        k(    9) = (   0.0241993  -0.0419144   0.0000000), wk =   0.1111111
        k(   10) = (   0.0241993  -0.0139715   0.0000000), wk =   0.1111111
        k(   11) = (   0.0483985   0.0279429   0.0000000), wk =   0.1111111
        k(   12) = (   0.0483985   0.0558858   0.0000000), wk =   0.1111111
        k(   13) = (   0.0483985   0.0838287   0.0000000), wk =   0.1111111
        k(   14) = (   0.0483985  -0.0558858   0.0000000), wk =   0.1111111
        k(   15) = (   0.0483985  -0.0279429   0.0000000), wk =   0.1111111
        k(   16) = (   0.0483985   0.0000000   0.0000000), wk =   0.1111111
        k(   17) = (  -0.0725978  -0.0419144   0.0000000), wk =   0.0555556
        k(   18) = (  -0.0725978  -0.0139715   0.0000000), wk =   0.1111111
        k(   19) = (  -0.0725978   0.0139715   0.0000000), wk =   0.1111111
        k(   20) = (  -0.0725978  -0.1257431   0.0000000), wk =   0.0555556

     Largest allocated arrays     est. size (Mb)     dimensions
     Largest temporary arrays     est. size (Mb)     dimensions

     Check: negative/imaginary core charge=   -0.000001    0.000000

     Initial potential from superposition of free atoms
     Check: negative starting charge=   -0.627152

     starting charge  137.71134, renormalised to  141.00000

     negative rho (up, down):  6.421E-01 0.000E+00

     *
     * You are using vdW-DF for exchange-correlation in this calculation.
     * Please cite the following three references that made this development
     * possible:
     *
     *   M. Dion, H. Rydberg, E. Schroder, D. C. Langreth, and
     *   B. I. Lundqvist, Phys. Rev. Lett. 92, 246401 (2004).
     *
     *   T. Thonhauser, V. R. Cooper, S. Li, A. Puzder, P. Hyldgaard, and
     *   D. C. Langreth, Phys. Rev. B 76, 125112 (2007).
     *
     *   G. Roman-Perez and J. M. Soler, Phys. Rev. Lett. 103, 096102 (2009).
     *
     *
     * If you are using vdW-DF2, please also cite:
     *
     *   K. Lee, E. D. Murray, L. Kong, B. I. Lundqvist, and
     *   D. C. Langreth, Phys. Rev. B 82, 081101(R) (2010).
     *
     *
     * If you are calculating the stress with vdW-DF, please also cite:
     *
     *   R. Sabatini, E. Kucukbenli, B. Kolb, T. Thonhauser, and
     *   S. de Gironcoli, J. Phys.: Condens. Matter 24, 424209 (2012).
     *

     Carrying out vdW-DF run using the following parameters:

     Nqs =      20    Nr_points =    1024   r_max =   100.000
     q_mesh =
               0.00001000     0.04494208     0.09755937     0.15916263
               0.23128650     0.31572767     0.41458969     0.53033537
               0.66584808     0.82450364     1.01025438     1.22772762
               1.48234092     1.78043706     2.12944203     2.53805004
               3.01644009     3.57652955     4.23227104     5.00000000

     Gradients computed in reciprocal space

     Adding external electric field

     Computed dipole along edir(3) :
        Dipole               -0.0000 Ry au,         -0.0000 Debye
        Dipole field         -0.0000 Ry au

        Potential amp.        0.0000 Ry
        Total length         47.2107 bohr

     Starting wfc are  210 randomized atomic wfcs

     Self-consistent Calculation

     iteration #  1     ecut=    36.75 Ry     beta=0.10
     Davidson diagonalization with overlap
     ethr =  1.00E-02,  avg # of iterations =  2.0

[...]

     total energy              =   -1461.91800337 Ry
     Harris-Foulkes estimate   =   -1465.99664452 Ry
     estimated scf accuracy    <      22.55244652 Ry

[...]

     iteration # 15     ecut=    36.75 Ry     beta=0.10
     Davidson diagonalization with overlap
     c_bands:  1 eigenvalues not converged
     c_bands:  1 eigenvalues not converged
     ethr =  4.59E-05,  avg # of iterations = 14.2

[...]

     End of self-consistent calculation

          k = 0.0000 0.0000 0.0000 ( 26745 PWs)   bands (ev):

   -69.5610 -69.4811 -69.4811 -40.8617 -40.8617 -40.8479 -40.8174 -40.8173
   -40.7838 -40.7838 -40.7838 -40.7838 -31.2740 -31.2469 -31.0159 -31.0159
   -31.0095 -31.0095 -30.8101 -30.5902 -30.5902 -15.9986 -15.8382 -15.5390
   -15.3321 -15.3321 -15.1897 -15.1640 -15.1640 -15.1483 -15.1483 -14.9531
   -14.6859 -14.6859 -14.4116 -14.4116 -14.2831 -14.1958 -14.0697 -14.0420
   -14.0420 -14.0042 -14.0042 -13.9470 -13.9470 -13.7329 -13.6183 -13.6183
    -1.4814  -0.9219  -0.6945  -0.5304   0.1544   0.3575   0.3575   0.3730
     0.5287   0.6547   0.6547   0.7843   0.7843   0.8319   0.8319   0.9926
     1.5045   1.5045   1.7865   1.8704   1.8704   1.9061   2.0546   2.3378
     2.3877   2.5075   2.5075   2.6179   2.6179   2.7051   2.7051   2.9996
     2.9996   3.0175   3.0175   3.1725   3.1726   3.2353   3.2428   3.2711
     3.3712   3.4135   3.4300   3.4575   3.4575   3.4752   3.4752   3.5743
     3.5745   3.5989   3.6233   3.6234

[...]

          k =-0.0726-0.0419 0.0000 ( 26666 PWs)   bands (ev):

[...]

     the Fermi energy is     1.9226 ev

!    total energy              =   -1464.42505795 Ry
     Harris-Foulkes estimate   =   -1464.42506196 Ry
     estimated scf accuracy    <       0.00000075 Ry

     The total energy is the sum of the following terms:

     one-electron contribution =   -6757.08006211 Ry
     hartree contribution      =    3387.38283136 Ry
     xc contribution           =    -526.62970255 Ry
     ewald contribution        =    2432.06374784 Ry
     electric field correction =       0.00000000 Ry
     smearing contrib. (-TS)   =      -0.16187250 Ry

     convergence has been achieved in  27 iterations

 BEEF-vdW xc energy contributions
           1 :   -465.331537776135
           2 :    426.962693903746
           3 :   -359.636192920997
           4 :    278.547564600070
           5 :   -199.413926184613
           6 :    133.954024096389
[...]
                l(1) =   0
                l(2) =   0
                l(3) =   1
                l(4) =   1
                l(5) =   2
                l(6) =   2
                l(7) =   3
                l(8) =   3
     Q(r) pseudized with  8 coefficients,  rinner =    1.700   1.700   1.700
                                                       1.700   1.700   1.700
                                                       1.700

     PseudoPot. # 2 for Cr read from file:
     /afs/slac.stanford.edu/u/if/mamunm/psp/gbrv1.5pbe/Cr.UPF
     MD5 check sum: 0d52af634a40206e4dee301ad30da4bf
     Pseudo is Ultrasoft + core correction, Zval = 14.0
     Generated by new atomic code, or converted to UPF format
     Using radial grid of  857 points,  6 beta functions with:
                l(1) =   0
                l(2) =   0
                l(3) =   1
                l(4) =   1
                l(5) =   2
                l(6) =   2
     Q(r) pseudized with  8 coefficients,  rinner =    0.950   0.950   0.950
                                                       0.950   0.950

     vdW kernel table read from file vdW_kernel_table
     MD5 check sum: 095c7af220d748ca6e76c0b4c6cfb241

     atomic species   valence    mass     pseudopotential
        La1           11.00   138.90547     La( 1.00)
        Cr1           14.00    51.99610     Cr( 1.00)

     No symmetry found

   Cartesian axes

     site n.     atom                  positions (alat units)
         1           La1 tau(   1) = (   0.0000000   0.0000000  10.0000000  )
         2           La1 tau(   2) = (  -1.7218151   2.9822712  10.0000000  )
         3           La1 tau(   3) = (   1.7218151   2.9822712  10.0000000  )
         4           Cr1 tau(   4) = (   3.4436301   0.0000000  10.0000000  )
         5           La1 tau(   5) = (   3.4436301   1.9881808  12.8117122  )
         6           La1 tau(   6) = (   1.7218151   4.9704519  12.8117122  )
         7           La1 tau(   7) = (  -1.7218151   4.9704519  12.8117122  )
         8           Cr1 tau(   8) = (   0.0000000   1.9881808  12.8117122  )
         9           La1 tau(   9) = (   0.0000618   3.8658211  15.6234432  )
        10           La1 tau(  10) = (   1.6261116   1.0493870  15.6234879  )
        11           La1 tau(  11) = (   5.2611978   1.0493733  15.6234042  )
        12           Cr1 tau(  12) = (   3.4437486   3.9764129  15.0488701  )

     number of k points=    20  Fermi-Dirac smearing, width (Ry)=  0.0110
                       cart. coord. in units 2pi/alat
        k(    1) = (   0.0000000   0.0000000   0.0000000), wk =   0.0555556
        k(    2) = (   0.0000000   0.0279429   0.0000000), wk =   0.1111111
        k(    3) = (   0.0000000   0.0558858   0.0000000), wk =   0.1111111
        k(    4) = (   0.0000000  -0.0838287   0.0000000), wk =   0.0555556
        k(    5) = (   0.0241993   0.0139715   0.0000000), wk =   0.1111111
        k(    6) = (   0.0241993   0.0419144   0.0000000), wk =   0.1111111
        k(    7) = (   0.0241993   0.0698573   0.0000000), wk =   0.1111111
        k(    8) = (   0.0241993  -0.0698573   0.0000000), wk =   0.1111111
        k(    9) = (   0.0241993  -0.0419144   0.0000000), wk =   0.1111111
        k(   10) = (   0.0241993  -0.0139715   0.0000000), wk =   0.1111111
        k(   11) = (   0.0483985   0.0279429   0.0000000), wk =   0.1111111
        k(   12) = (   0.0483985   0.0558858   0.0000000), wk =   0.1111111
        k(   13) = (   0.0483985   0.0838287   0.0000000), wk =   0.1111111
        k(   14) = (   0.0483985  -0.0558858   0.0000000), wk =   0.1111111
        k(   15) = (   0.0483985  -0.0279429   0.0000000), wk =   0.1111111
        k(   16) = (   0.0483985   0.0000000   0.0000000), wk =   0.1111111
        k(   17) = (  -0.0725978  -0.0419144   0.0000000), wk =   0.0555556
        k(   18) = (  -0.0725978  -0.0139715   0.0000000), wk =   0.1111111
        k(   19) = (  -0.0725978   0.0139715   0.0000000), wk =   0.1111111
        k(   20) = (  -0.0725978  -0.1257431   0.0000000), wk =   0.0555556

     Largest allocated arrays     est. size (Mb)     dimensions
     Largest temporary arrays     est. size (Mb)     dimensions

     Check: negative/imaginary core charge=   -0.000001    0.000000

     Initial potential from superposition of free atoms
     Check: negative starting charge=   -0.625684

     starting charge  137.71134, renormalised to  141.00000

[...]

     *
     * You are using vdW-DF for exchange-correlation in this calculation.
     * Please cite the following three references that made this development
     * possible:
     *
     *   M. Dion, H. Rydberg, E. Schroder, D. C. Langreth, and
     *   B. I. Lundqvist, Phys. Rev. Lett. 92, 246401 (2004).
     *
     *   T. Thonhauser, V. R. Cooper, S. Li, A. Puzder, P. Hyldgaard, and
     *   D. C. Langreth, Phys. Rev. B 76, 125112 (2007).
     *
     *   G. Roman-Perez and J. M. Soler, Phys. Rev. Lett. 103, 096102 (2009).
     *
     *
     * If you are using vdW-DF2, please also cite:
     *
     *   K. Lee, E. D. Murray, L. Kong, B. I. Lundqvist, and
     *   D. C. Langreth, Phys. Rev. B 82, 081101(R) (2010).
     *
     *
     * If you are calculating the stress with vdW-DF, please also cite:
     *
     *   R. Sabatini, E. Kucukbenli, B. Kolb, T. Thonhauser, and
     *   S. de Gironcoli, J. Phys.: Condens. Matter 24, 424209 (2012).
     *

     Carrying out vdW-DF run using the following parameters:

     Nqs =      20    Nr_points =    1024   r_max =   100.000
     q_mesh =
               0.00001000     0.04494208     0.09755937     0.15916263
               0.23128650     0.31572767     0.41458969     0.53033537
               0.66584808     0.82450364     1.01025438     1.22772762
               1.48234092     1.78043706     2.12944203     2.53805004
               3.01644009     3.57652955     4.23227104     5.00000000

     Gradients computed in reciprocal space

[...]

     Starting wfc are  210 randomized atomic wfcs

     Self-consistent Calculation

[...]

     iteration # 17     ecut=    36.75 Ry     beta=0.10
     Davidson diagonalization with overlap
     c_bands:  1 eigenvalues not converged
     c_bands:  1 eigenvalues not converged
     c_bands:  1 eigenvalues not converged
     ethr =  9.14E-06,  avg # of iterations = 17.4

[...]

     total energy              =   -1464.45698555 Ry
     Harris-Foulkes estimate   =   -1464.45698677 Ry
     estimated scf accuracy    <       0.00000275 Ry

     iteration # 28     ecut=    36.75 Ry     beta=0.10
     Davidson diagonalization with overlap
     ethr =  1.95E-09,  avg # of iterations =  2.0

[...]

     negative rho (up, down):  3.883E-01 0.000E+00

     Adding external electric field

     Computed dipole along edir(3) :
        Dipole                0.1004 Ry au,          0.2552 Debye
        Dipole field          0.0002 Ry au

        Potential amp.       -0.0168 Ry
        Total length         47.2107 bohr

     End of self-consistent calculation

[...]

          k = 0.0484 0.0000 0.0000 ( 26765 PWs)   bands (ev):

[...]

          k =-0.0726-0.1257 0.0000 ( 26666 PWs)   bands (ev):

   -69.4895 -69.4172 -69.3350 -40.7888 -40.7859 -40.7859 -40.7525 -40.7218
   -40.7218 -40.6703 -40.6703 -40.6265 -31.1897 -31.1199 -31.0429 -31.0278
   -30.9671 -30.9547 -30.5483 -30.4765 -30.3967 -15.6025 -15.4656 -15.3018
   -15.1194 -15.0545 -14.9560 -14.9384 -14.8897 -14.8067 -14.7909 -14.7722
   -14.7084 -14.6953 -14.6920 -14.5922 -14.5233 -14.4898 -14.2634 -14.0948
   -14.0742 -14.0108 -13.9843 -13.9151 -13.8794 -13.8468 -13.7906 -13.4873
    -0.2167  -0.1988   0.3035   0.5249   0.6411   0.7331   0.9871   1.0464
     1.0851   1.1292   1.1791   1.2333   1.2817   1.3662   1.5241   1.5287
     1.6277   1.6558   1.7037   1.8061   1.8443   1.8778   1.9291   1.9715
     1.9899   2.1486   2.1551   2.3193   2.3844   2.4439   2.5035   2.6322
     2.7172   2.7460   2.7707   2.8520   3.0006   3.0747   3.0851   3.1157
     3.1601   3.3104   3.3469   3.4042   3.4851   3.5448   3.5517   3.5751
     3.6164   3.6404   3.6436   3.6736

     the Fermi energy is     1.9851 ev

!    total energy              =   -1464.45698026 Ry
     Harris-Foulkes estimate   =   -1464.45698568 Ry
     estimated scf accuracy    <       0.00000028 Ry

     The total energy is the sum of the following terms:

     one-electron contribution =   -6915.65309050 Ry
     hartree contribution      =    3467.13863421 Ry
     xc contribution           =    -526.78559392 Ry
     ewald contribution        =    2510.99885816 Ry
     electric field correction =       0.00001783 Ry
     smearing contrib. (-TS)   =      -0.15580604 Ry

     convergence has been achieved in  28 iterations

 BEEF-vdW xc energy contributions
           1 :   -465.491076670315
           2 :    427.176885053926
           3 :   -359.909131263582
           4 :    278.819001077582
           5 :   -199.591068389302
           6 :    133.968657998355
           7 :   -87.5467436428555
           8 :    60.0482021916222
           9 :   -47.2551916933882
          10 :    43.4055336861943
          11 :   -43.1172791604423
          12 :    42.4231659372924
          13 :   -39.0233683274324
          14 :    32.1332709188415
          15 :   -22.2525680049781
          16 :    10.9127440993108
          17 :  -0.270261637896965
          18 :   -7.53803786570109
          19 :    11.1267686948337
          20 :   -10.3696277156306
          21 :    6.42550923687133
          22 :   -1.26357054565210
          23 :   -3.09362732791703
          24 :    5.27415669789571
          25 :   -4.93094603106067
          26 :    2.68034550452182
          27 :   0.298770261390359
          28 :   -2.78825606801831
          29 :    3.95959535324960
          30 :   -3.58940778369544
          31 :   -40.2787132344412
          32 :   -28.9228284628109

     Forces acting on atoms (Ry/au):

     negative rho (up, down):  3.883E-01 0.000E+00
     atom    1 type  1   force =     0.00000077    0.02102863   -0.00931302
     atom    2 type  1   force =     0.01820798   -0.01051452   -0.00931665
     atom    3 type  1   force =    -0.01820912   -0.01051503   -0.00931327
     atom    4 type  2   force =     0.00000055    0.00000113    0.03799108
     atom    5 type  1   force =    -0.00000511   -0.00801741   -0.00383701
     atom    6 type  1   force =    -0.00693861    0.00400562   -0.00384393
     atom    7 type  1   force =     0.00693986    0.00401584   -0.00383425
     atom    8 type  2   force =     0.00000378   -0.00000252    0.00313013
     atom    9 type  1   force =    -0.00000020    0.00069618   -0.00092417
     atom   10 type  1   force =     0.00060223   -0.00034996   -0.00093437
     atom   11 type  1   force =    -0.00060118   -0.00034531   -0.00092673
     atom   12 type  2   force =    -0.00000095   -0.00000266    0.00112217

     Total force =     0.057289     Total SCF correction =     0.001484

     entering subroutine stress ...

     negative rho (up, down):  3.883E-01 0.000E+00
          total   stress  (Ry/bohr**3)                   (kbar)     P=   -3.00
  -0.00002496   0.00000000  -0.00000000         -3.67      0.00     -0.00
   0.00000000  -0.00002496  -0.00000000          0.00     -3.67     -0.00
  -0.00000000  -0.00000000  -0.00001131         -0.00     -0.00     -1.66

 !ASE

     Writing output data file calc.save

     General routines

     Parallel routines

   This run was terminated on:  18:16:26  30Dec2018

   JOB DONE.
Job  /afs/slac/g/suncat/bin/suncat-tsmpirun -x LD_LIBRARY_PATH -wdir /scratch/qe648547_kv1ih pw.x -in pw.inp

TID   HOST_NAME   COMMAND_LINE            STATUS            TERMINATION_TIME
00000 suncat0088 pw.x -in pw.inp   Done                     12/30/2018 18:16:26
00001 suncat0088 pw.x -in pw.inp   Done                     12/30/2018 18:16:26
00002 suncat0088 pw.x -in pw.inp   Done                     12/30/2018 18:16:26
00003 suncat0088 pw.x -in pw.inp   Done                     12/30/2018 18:16:26
00004 suncat0088 pw.x -in pw.inp   Done                     12/30/2018 18:16:26
00005 suncat0088 pw.x -in pw.inp   Done                     12/30/2018 18:16:26
00006 suncat0088 pw.x -in pw.inp   Done                     12/30/2018 18:16:26
00007 suncat0088 pw.x -in pw.inp   Done                     12/30/2018 18:16:26
00008 suncat0087 pw.x -in pw.inp   Done                     12/30/2018 18:16:26
00009 suncat0087 pw.x -in pw.inp   Done                     12/30/2018 18:16:26
00010 suncat0087 pw.x -in pw.inp   Done                     12/30/2018 18:16:26
00011 suncat0087 pw.x -in pw.inp   Done                     12/30/2018 18:16:26
00012 suncat0087 pw.x -in pw.inp   Done                     12/30/2018 18:16:26
00013 suncat0087 pw.x -in pw.inp   Done                     12/30/2018 18:16:26
00014 suncat0087 pw.x -in pw.inp   Done                     12/30/2018 18:16:26
00015 suncat0087 pw.x -in pw.inp   Done                     12/30/2018 18:16:26
00016 suncat0086 pw.x -in pw.inp   Done                     12/30/2018 18:16:26
00017 suncat0086 pw.x -in pw.inp   Done                     12/30/2018 18:16:26
00018 suncat0086 pw.x -in pw.inp   Done                     12/30/2018 18:16:26
00019 suncat0086 pw.x -in pw.inp   Done                     12/30/2018 18:16:26
00020 suncat0086 pw.x -in pw.inp   Done                     12/30/2018 18:16:26
00021 suncat0086 pw.x -in pw.inp   Done                     12/30/2018 18:16:26
00022 suncat0086 pw.x -in pw.inp   Done                     12/30/2018 18:16:26
00023 suncat0086 pw.x -in pw.inp   Done                     12/30/2018 18:16:26
00024 suncat0084 pw.x -in pw.inp   Done                     12/30/2018 18:16:26
00025 suncat0084 pw.x -in pw.inp   Done                     12/30/2018 18:16:26
00026 suncat0084 pw.x -in pw.inp   Done                     12/30/2018 18:16:26
00027 suncat0084 pw.x -in pw.inp   Done                     12/30/2018 18:16:26
00028 suncat0084 pw.x -in pw.inp   Done                     12/30/2018 18:16:26
00029 suncat0084 pw.x -in pw.inp   Done                     12/30/2018 18:16:26
00030 suncat0084 pw.x -in pw.inp   Done                     12/30/2018 18:16:26
00031 suncat0084 pw.x -in pw.inp   Done                     12/30/2018 18:16:26
00032 suncat0083 pw.x -in pw.inp   Done                     12/30/2018 18:16:26
00033 suncat0083 pw.x -in pw.inp   Done                     12/30/2018 18:16:26
00034 suncat0083 pw.x -in pw.inp   Done                     12/30/2018 18:16:26
00035 suncat0083 pw.x -in pw.inp   Done                     12/30/2018 18:16:26
00036 suncat0083 pw.x -in pw.inp   Done                     12/30/2018 18:16:26
00037 suncat0083 pw.x -in pw.inp   Done                     12/30/2018 18:16:26
00038 suncat0083 pw.x -in pw.inp   Done                     12/30/2018 18:16:26
00039 suncat0083 pw.x -in pw.inp   Done                     12/30/2018 18:16:26
00040 suncat0082 pw.x -in pw.inp   Done                     12/30/2018 18:16:26
00041 suncat0082 pw.x -in pw.inp   Done                     12/30/2018 18:16:26
00042 suncat0082 pw.x -in pw.inp   Done                     12/30/2018 18:16:26
00043 suncat0082 pw.x -in pw.inp   Done                     12/30/2018 18:16:26
00044 suncat0082 pw.x -in pw.inp   Done                     12/30/2018 18:16:26
00045 suncat0082 pw.x -in pw.inp   Done                     12/30/2018 18:16:26
00046 suncat0082 pw.x -in pw.inp   Done                     12/30/2018 18:16:26
00047 suncat0082 pw.x -in pw.inp   Done                     12/30/2018 18:16:26
00048 suncat0081 pw.x -in pw.inp   Done                     12/30/2018 18:16:26
00049 suncat0081 pw.x -in pw.inp   Done                     12/30/2018 18:16:26
00050 suncat0081 pw.x -in pw.inp   Done                     12/30/2018 18:16:26
00051 suncat0081 pw.x -in pw.inp   Done                     12/30/2018 18:16:26
00052 suncat0081 pw.x -in pw.inp   Done                     12/30/2018 18:16:26
00053 suncat0081 pw.x -in pw.inp   Done                     12/30/2018 18:16:26
00054 suncat0081 pw.x -in pw.inp   Done                     12/30/2018 18:16:26
00055 suncat0081 pw.x -in pw.inp   Done                     12/30/2018 18:16:26
00056 suncat0080 pw.x -in pw.inp   Done                     12/30/2018 18:16:26
00057 suncat0080 pw.x -in pw.inp   Done                     12/30/2018 18:16:26
00058 suncat0080 pw.x -in pw.inp   Done                     12/30/2018 18:16:26
00059 suncat0080 pw.x -in pw.inp   Done                     12/30/2018 18:16:26
00060 suncat0080 pw.x -in pw.inp   Done                     12/30/2018 18:16:26
00061 suncat0080 pw.x -in pw.inp   Done                     12/30/2018 18:16:26
00062 suncat0080 pw.x -in pw.inp   Done                     12/30/2018 18:16:26
00063 suncat0080 pw.x -in pw.inp   Done                     12/30/2018 18:16:26