     Program PWSCF v.5.1rc2 (svn rev. 11289) starts on 20Dec2018 at  6:36:56

     Current dimensions of program PWSCF are:
     Max number of different atomic species (ntypx) = 10
     Max number of k-points (npk) =  40000
     Max angular momentum in pseudopotentials (lmaxx) =  3
     Presently stress not available with electric field

     IMPORTANT: XC functional enforced from input :
     Exchange-correlation      = BEEF-VDW ( 1  4 27 13 2)
     Any further DFT definition will be discarded
     Please, verify this is what you really want

     Subspace diagonalization in iterative solution of the eigenvalue problem:
     a serial algorithm will be used

     Generating pointlists ...
     new r_m :   0.4125 (alat units)  0.7795 (a.u.) for type    1
     new r_m :   0.4125 (alat units)  0.7795 (a.u.) for type    2

     bravais-lattice index     =            0
     lattice parameter (alat)  =       1.8897  a.u.
     unit-cell volume          =    3634.5280 (a.u.)^3
     number of atoms/cell      =           12
     number of atomic types    =            2
     number of electrons       =       198.00
     number of Kohn-Sham states=          129
     kinetic-energy cutoff     =      36.7493  Ry
     charge density cutoff     =     367.4932  Ry
     convergence threshold     =      1.0E-06
     mixing beta               =       0.1000
     number of iterations used =           10  plain     mixing
     Exchange-correlation      = BEEF-VDW ( 1  4 27 13 2)
     nstep                     =           50

     celldm(1)=   1.889726  celldm(2)=   0.000000  celldm(3)=   0.000000
     celldm(4)=   0.000000  celldm(5)=   0.000000  celldm(6)=   0.000000

     crystal axes: (cart. coord. in units of alat)
               a(1) = (   5.075239   0.000000   0.000000 )
               a(2) = (  -2.537620   4.395286   0.000000 )
               a(3) = (   0.000000   0.000000  24.143916 )

     reciprocal axes: (cart. coord. in units 2 pi/alat)
               b(1) = (  0.197035  0.113758  0.000000 )
               b(2) = (  0.000000  0.227516  0.000000 )
               b(3) = (  0.000000  0.000000  0.041418 )

     PseudoPot. # 1 for Co read from file:
     /afs/slac.stanford.edu/u/if/mamunm/psp/gbrv1.5pbe/Co.UPF
     MD5 check sum: 5f91765df6ddd3222702df6e7b74a16d
     Pseudo is Ultrasoft + core correction, Zval = 17.0
     Generated by new atomic code, or converted to UPF format
     Using radial grid of  863 points,  6 beta functions with:
                l(1) =   0
                l(2) =   0
                l(3) =   1
                l(4) =   1
                l(5) =   2
                l(6) =   2
     Q(r) pseudized with  8 coefficients,  rinner =    1.200   1.200   1.200
                                                       1.200   1.200

     PseudoPot. # 2 for Ir read from file:
     /afs/slac.stanford.edu/u/if/mamunm/psp/gbrv1.5pbe/Ir.UPF
     MD5 check sum: 8836f839c3459d2b385c504ce6d91f2c
     Pseudo is Ultrasoft + core correction, Zval = 15.0
     Generated by new atomic code, or converted to UPF format
     Using radial grid of  983 points,  7 beta functions with:
                l(1) =   0
                l(2) =   0
                l(3) =   1
                l(4) =   1
                l(5) =   1
                l(6) =   2
                l(7) =   2
     Q(r) pseudized with  8 coefficients,  rinner =    1.400   1.400   1.400
                                                       1.400   1.400

     vdW kernel table read from file vdW_kernel_table
     MD5 check sum: 095c7af220d748ca6e76c0b4c6cfb241

     atomic species   valence    mass     pseudopotential
        Co1           17.00    58.93319     Co( 1.00)
        Ir1           15.00   192.21700     Ir( 1.00)

     Starting magnetic structure
     atomic species   magnetization
        Co1          0.118
        Ir1          0.133

     No symmetry found

   Cartesian axes

     site n.     atom                  positions (alat units)
         1           Co1 tau(   1) = (   0.0000000   0.0000000  10.0000000  )
         2           Co1 tau(   2) = (  -1.2688099   2.1976432  10.0000000  )
         3           Co1 tau(   3) = (   1.2688099   2.1976432  10.0000000  )
         4           Ir1 tau(   4) = (   2.5376197   0.0000000  10.0000000  )
         5           Co1 tau(   5) = (   2.5376197   1.4650954  12.0719578  )
         6           Co1 tau(   6) = (   1.2688099   3.6627386  12.0719578  )
         7           Co1 tau(   7) = (  -1.2688099   3.6627386  12.0719578  )
         8           Ir1 tau(   8) = (   0.0000000   1.4650954  12.0719578  )
         9           Co1 tau(   9) = (  -0.0000000   2.9301909  14.1439157  )
        10           Co1 tau(  10) = (   1.2688099   0.7325477  14.1439157  )
        11           Co1 tau(  11) = (   3.8064296   0.7325477  14.1439157  )
        12           Ir1 tau(  12) = (   2.5376197   2.9301909  14.1439157  )

     number of k points=    40  Fermi-Dirac smearing, width (Ry)=  0.0110
                       cart. coord. in units 2pi/alat
        k(    1) = (   0.0000000   0.0000000   0.0000000), wk =   0.0277778
        k(    2) = (   0.0000000   0.0379194   0.0000000), wk =   0.0555556
        k(    3) = (   0.0000000   0.0758388   0.0000000), wk =   0.0555556
        k(    4) = (   0.0000000  -0.1137582   0.0000000), wk =   0.0277778
        k(    5) = (   0.0328392   0.0189597   0.0000000), wk =   0.0555556
        k(    6) = (   0.0328392   0.0568791   0.0000000), wk =   0.0555556
        k(    7) = (   0.0328392   0.0947985   0.0000000), wk =   0.0555556
        k(    8) = (   0.0328392  -0.0947985   0.0000000), wk =   0.0555556
        k(    9) = (   0.0328392  -0.0568791   0.0000000), wk =   0.0555556
        k(   10) = (   0.0328392  -0.0189597   0.0000000), wk =   0.0555556
        k(   11) = (   0.0656783   0.0379194   0.0000000), wk =   0.0555556
        k(   12) = (   0.0656783   0.0758388   0.0000000), wk =   0.0555556
        k(   13) = (   0.0656783   0.1137582   0.0000000), wk =   0.0555556
        k(   14) = (   0.0656783  -0.0758388   0.0000000), wk =   0.0555556
        k(   15) = (   0.0656783  -0.0379194   0.0000000), wk =   0.0555556
        k(   16) = (   0.0656783   0.0000000   0.0000000), wk =   0.0555556
        k(   17) = (  -0.0985175  -0.0568791   0.0000000), wk =   0.0277778
        k(   18) = (  -0.0985175  -0.0189597   0.0000000), wk =   0.0555556
        k(   19) = (  -0.0985175   0.0189597   0.0000000), wk =   0.0555556
        k(   20) = (  -0.0985175  -0.1706373   0.0000000), wk =   0.0277778
        k(   21) = (   0.0000000   0.0000000   0.0000000), wk =   0.0277778
        k(   22) = (   0.0000000   0.0379194   0.0000000), wk =   0.0555556
        k(   23) = (   0.0000000   0.0758388   0.0000000), wk =   0.0555556
        k(   24) = (   0.0000000  -0.1137582   0.0000000), wk =   0.0277778
        k(   25) = (   0.0328392   0.0189597   0.0000000), wk =   0.0555556
        k(   26) = (   0.0328392   0.0568791   0.0000000), wk =   0.0555556
        k(   27) = (   0.0328392   0.0947985   0.0000000), wk =   0.0555556
        k(   28) = (   0.0328392  -0.0947985   0.0000000), wk =   0.0555556
        k(   29) = (   0.0328392  -0.0568791   0.0000000), wk =   0.0555556
        k(   30) = (   0.0328392  -0.0189597   0.0000000), wk =   0.0555556
        k(   31) = (   0.0656783   0.0379194   0.0000000), wk =   0.0555556
        k(   32) = (   0.0656783   0.0758388   0.0000000), wk =   0.0555556
        k(   33) = (   0.0656783   0.1137582   0.0000000), wk =   0.0555556
        k(   34) = (   0.0656783  -0.0758388   0.0000000), wk =   0.0555556
        k(   35) = (   0.0656783  -0.0379194   0.0000000), wk =   0.0555556
        k(   36) = (   0.0656783   0.0000000   0.0000000), wk =   0.0555556
        k(   37) = (  -0.0985175  -0.0568791   0.0000000), wk =   0.0277778
        k(   38) = (  -0.0985175  -0.0189597   0.0000000), wk =   0.0555556
        k(   39) = (  -0.0985175   0.0189597   0.0000000), wk =   0.0555556
        k(   40) = (  -0.0985175  -0.1706373   0.0000000), wk =   0.0277778

     Largest allocated arrays     est. size (Mb)     dimensions
     Largest temporary arrays     est. size (Mb)     dimensions

     Check: negative/imaginary core charge=   -0.000005    0.000000

     Initial potential from superposition of free atoms
     Check: negative starting charge=(component1):   -0.617838
     Check: negative starting charge=(component2):   -0.472430

     starting charge  187.49984, renormalised to  198.00000

     negative rho (up, down):  6.524E-01 4.989E-01

     *
     * You are using vdW-DF for exchange-correlation in this calculation.
     * Please cite the following three references that made this development
     * possible:
     *
     *   M. Dion, H. Rydberg, E. Schroder, D. C. Langreth, and
     *   B. I. Lundqvist, Phys. Rev. Lett. 92, 246401 (2004).
     *
     *   T. Thonhauser, V. R. Cooper, S. Li, A. Puzder, P. Hyldgaard, and
     *   D. C. Langreth, Phys. Rev. B 76, 125112 (2007).
     *
     *   G. Roman-Perez and J. M. Soler, Phys. Rev. Lett. 103, 096102 (2009).
     *
     *
     * If you are using vdW-DF2, please also cite:
     *
     *   K. Lee, E. D. Murray, L. Kong, B. I. Lundqvist, and
     *   D. C. Langreth, Phys. Rev. B 82, 081101(R) (2010).
     *
     *
     * If you are calculating the stress with vdW-DF, please also cite:
     *
     *   R. Sabatini, E. Kucukbenli, B. Kolb, T. Thonhauser, and
     *   S. de Gironcoli, J. Phys.: Condens. Matter 24, 424209 (2012).
     *

     Carrying out vdW-DF run using the following parameters:

     Nqs =      20    Nr_points =    1024   r_max =   100.000
     q_mesh =
               0.00001000     0.04494208     0.09755937     0.15916263
               0.23128650     0.31572767     0.41458969     0.53033537
               0.66584808     0.82450364     1.01025438     1.22772762
               1.48234092     1.78043706     2.12944203     2.53805004
               3.01644009     3.57652955     4.23227104     5.00000000

     Gradients computed in reciprocal space

     Adding external electric field

     Computed dipole along edir(3) :
        Dipole                0.0000 Ry au,          0.0000 Debye
        Dipole field          0.0000 Ry au

        Potential amp.       -0.0000 Ry
        Total length         44.4848 bohr

[...]

     Starting wfc are  153 randomized atomic wfcs

     Self-consistent Calculation

     iteration #  1     ecut=    36.75 Ry     beta=0.10
     Davidson diagonalization with overlap
     ethr =  1.00E-02,  avg # of iterations =  7.4

[...]

     Magnetic moment per site:
     atom:    1    charge:    8.4535    magn:    0.9638    constr:    0.0000
     atom:    2    charge:    8.4535    magn:    0.9638    constr:    0.0000
     atom:    3    charge:    8.4535    magn:    0.9638    constr:    0.0000
     atom:    4    charge:    1.6287    magn:    0.1982    constr:    0.0000
     atom:    5    charge:    8.4570    magn:    0.9583    constr:    0.0000
     atom:    6    charge:    8.4570    magn:    0.9583    constr:    0.0000
     atom:    7    charge:    8.4570    magn:    0.9583    constr:    0.0000
[...]
        k(    5) = (   0.0328392   0.0189597   0.0000000), wk =   0.0555556
        k(    6) = (   0.0328392   0.0568791   0.0000000), wk =   0.0555556
        k(    7) = (   0.0328392   0.0947985   0.0000000), wk =   0.0555556
        k(    8) = (   0.0328392  -0.0947985   0.0000000), wk =   0.0555556
        k(    9) = (   0.0328392  -0.0568791   0.0000000), wk =   0.0555556
        k(   10) = (   0.0328392  -0.0189597   0.0000000), wk =   0.0555556
        k(   11) = (   0.0656783   0.0379194   0.0000000), wk =   0.0555556
        k(   12) = (   0.0656783   0.0758388   0.0000000), wk =   0.0555556
        k(   13) = (   0.0656783   0.1137582   0.0000000), wk =   0.0555556
        k(   14) = (   0.0656783  -0.0758388   0.0000000), wk =   0.0555556
        k(   15) = (   0.0656783  -0.0379194   0.0000000), wk =   0.0555556
        k(   16) = (   0.0656783   0.0000000   0.0000000), wk =   0.0555556
        k(   17) = (  -0.0985175  -0.0568791   0.0000000), wk =   0.0277778
        k(   18) = (  -0.0985175  -0.0189597   0.0000000), wk =   0.0555556
        k(   19) = (  -0.0985175   0.0189597   0.0000000), wk =   0.0555556
        k(   20) = (  -0.0985175  -0.1706373   0.0000000), wk =   0.0277778
        k(   21) = (   0.0000000   0.0000000   0.0000000), wk =   0.0277778
        k(   22) = (   0.0000000   0.0379194   0.0000000), wk =   0.0555556
        k(   23) = (   0.0000000   0.0758388   0.0000000), wk =   0.0555556
        k(   24) = (   0.0000000  -0.1137582   0.0000000), wk =   0.0277778
        k(   25) = (   0.0328392   0.0189597   0.0000000), wk =   0.0555556
        k(   26) = (   0.0328392   0.0568791   0.0000000), wk =   0.0555556
        k(   27) = (   0.0328392   0.0947985   0.0000000), wk =   0.0555556
        k(   28) = (   0.0328392  -0.0947985   0.0000000), wk =   0.0555556
        k(   29) = (   0.0328392  -0.0568791   0.0000000), wk =   0.0555556
        k(   30) = (   0.0328392  -0.0189597   0.0000000), wk =   0.0555556
        k(   31) = (   0.0656783   0.0379194   0.0000000), wk =   0.0555556
        k(   32) = (   0.0656783   0.0758388   0.0000000), wk =   0.0555556
        k(   33) = (   0.0656783   0.1137582   0.0000000), wk =   0.0555556
        k(   34) = (   0.0656783  -0.0758388   0.0000000), wk =   0.0555556
        k(   35) = (   0.0656783  -0.0379194   0.0000000), wk =   0.0555556
        k(   36) = (   0.0656783   0.0000000   0.0000000), wk =   0.0555556
        k(   37) = (  -0.0985175  -0.0568791   0.0000000), wk =   0.0277778
        k(   38) = (  -0.0985175  -0.0189597   0.0000000), wk =   0.0555556
        k(   39) = (  -0.0985175   0.0189597   0.0000000), wk =   0.0555556
        k(   40) = (  -0.0985175  -0.1706373   0.0000000), wk =   0.0277778

     Largest allocated arrays     est. size (Mb)     dimensions
     Largest temporary arrays     est. size (Mb)     dimensions

     Check: negative/imaginary core charge=   -0.000005    0.000000

     Initial potential from superposition of free atoms
     Check: negative starting charge=(component1):   -0.617899
     Check: negative starting charge=(component2):   -0.472477

     starting charge  187.49984, renormalised to  198.00000

[...]

     *
     * You are using vdW-DF for exchange-correlation in this calculation.
     * Please cite the following three references that made this development
     * possible:
     *
     *   M. Dion, H. Rydberg, E. Schroder, D. C. Langreth, and
     *   B. I. Lundqvist, Phys. Rev. Lett. 92, 246401 (2004).
     *
     *   T. Thonhauser, V. R. Cooper, S. Li, A. Puzder, P. Hyldgaard, and
     *   D. C. Langreth, Phys. Rev. B 76, 125112 (2007).
     *
     *   G. Roman-Perez and J. M. Soler, Phys. Rev. Lett. 103, 096102 (2009).
     *
     *
     * If you are using vdW-DF2, please also cite:
     *
     *   K. Lee, E. D. Murray, L. Kong, B. I. Lundqvist, and
     *   D. C. Langreth, Phys. Rev. B 82, 081101(R) (2010).
     *
     *
     * If you are calculating the stress with vdW-DF, please also cite:
     *
     *   R. Sabatini, E. Kucukbenli, B. Kolb, T. Thonhauser, and
     *   S. de Gironcoli, J. Phys.: Condens. Matter 24, 424209 (2012).
     *

     Carrying out vdW-DF run using the following parameters:

     Nqs =      20    Nr_points =    1024   r_max =   100.000
     q_mesh =
               0.00001000     0.04494208     0.09755937     0.15916263
               0.23128650     0.31572767     0.41458969     0.53033537
               0.66584808     0.82450364     1.01025438     1.22772762
               1.48234092     1.78043706     2.12944203     2.53805004
               3.01644009     3.57652955     4.23227104     5.00000000

     Gradients computed in reciprocal space

[...]

     Starting wfc are  153 randomized atomic wfcs

     Self-consistent Calculation

[...]

     total energy              =   -3245.66034863 Ry
     Harris-Foulkes estimate   =   -3245.66034808 Ry
     estimated scf accuracy    <       0.00000110 Ry

[...]

     iteration # 34     ecut=    36.75 Ry     beta=0.10
     Davidson diagonalization with overlap
     ethr =  5.56E-10,  avg # of iterations =  1.2

[...]

     negative rho (up, down):  5.333E-01 4.324E-01

[...]

     Adding external electric field

     Computed dipole along edir(3) :
        Dipole               -0.0096 Ry au,         -0.0244 Debye
        Dipole field         -0.0000 Ry au

        Potential amp.        0.0030 Ry
        Total length         44.4848 bohr

     Magnetic moment per site:
     atom:    1    charge:    8.2856    magn:    0.9966    constr:    0.0000
     atom:    2    charge:    8.2855    magn:    0.9966    constr:    0.0000
     atom:    3    charge:    8.2856    magn:    0.9965    constr:    0.0000
     atom:    4    charge:    1.6125    magn:    0.0316    constr:    0.0000
     atom:    5    charge:    8.2856    magn:    1.0174    constr:    0.0000
     atom:    6    charge:    8.2854    magn:    1.0175    constr:    0.0000
     atom:    7    charge:    8.2854    magn:    1.0175    constr:    0.0000
     atom:    8    charge:    1.6212    magn:    0.0357    constr:    0.0000
     atom:    9    charge:    8.2874    magn:    1.0010    constr:    0.0000
     atom:   10    charge:    8.2872    magn:    1.0012    constr:    0.0000
     atom:   11    charge:    8.2873    magn:    1.0011    constr:    0.0000
     atom:   12    charge:    1.6123    magn:    0.0319    constr:    0.0000

     End of self-consistent calculation

 ------ SPIN UP ------------

[...]

 ------ SPIN DOWN ----------

[...]

          k = 0.0657 0.0000 0.0000 ( 13697 PWs)   bands (ev):

[...]

          k =-0.0985-0.1706 0.0000 ( 13658 PWs)   bands (ev):

   -92.7486 -92.7409 -92.7334 -92.5761 -92.5739 -92.5686 -92.5652 -92.5615
   -92.5585 -56.1822 -56.1410 -56.1330 -56.1235 -56.1207 -56.1036 -56.0957
   -56.0662 -56.0121 -56.0052 -56.0021 -55.9779 -55.9636 -55.9545 -55.9530
   -55.9519 -55.9518 -55.9196 -55.9094 -55.8807 -55.8735 -55.8727 -55.8697
   -55.8658 -55.8517 -55.8307 -55.8286 -47.4982 -47.4968 -47.4916 -47.2266
   -47.2215 -47.1958 -47.1907 -47.0817 -47.0404  -5.4834  -5.0949  -3.9503
    -3.3810  -3.3095  -3.1332  -2.7631  -2.5250  -2.4947  -2.4487  -2.0449
    -1.9719  -1.9413  -1.8412  -1.6194  -1.4467  -1.3572  -1.3017  -1.2285
    -0.9375  -0.7411  -0.6744  -0.5637  -0.5162  -0.4575  -0.3399  -0.1975
    -0.0392   0.0409   0.0846   0.1360   0.1540   0.2827   0.3071   0.3218
     0.3573   0.4311   0.5168   0.6781   0.7245   1.0562   1.0773   1.0819
     1.1137   1.1722   1.2634   1.3661   1.4662   1.4807   1.5153   1.6456
     1.6768   1.7764   1.8143   1.8423   1.8679   1.9929   2.0388   2.2588
     2.3781   2.3894   2.5697   2.5736   2.9401   3.5403   3.7481   3.8778
     4.8083   4.8838   5.3650   5.7953   5.9329   7.0454   7.0620   7.5809
     7.5983   8.0923   8.1124   8.2956   8.3018   9.3358   9.3571   9.3690
     9.9179

     the Fermi energy is     1.3481 ev

!    total energy              =   -3245.66034987 Ry
     Harris-Foulkes estimate   =   -3245.66034854 Ry
     estimated scf accuracy    <       0.00000088 Ry

     The total energy is the sum of the following terms:

     one-electron contribution =  -28010.76887386 Ry
     hartree contribution      =   14018.80934533 Ry
     xc contribution           =    -460.21247862 Ry
     ewald contribution        =   11206.60251543 Ry
     electric field correction =       0.00000032 Ry
     smearing contrib. (-TS)   =      -0.09085847 Ry

     total magnetization       =    18.20 Bohr mag/cell
     absolute magnetization    =    19.99 Bohr mag/cell

     convergence has been achieved in  34 iterations

 BEEF-vdW xc energy contributions
           1 :   -406.257921333794
           2 :    371.742427825853
           3 :   -312.129877568468
           4 :    242.143488023265
           5 :   -176.000113392538
           6 :    122.710623084036
           7 :   -84.4316257454985
           8 :    58.0095326807504
           9 :   -38.3418060667088
          10 :    21.5275624215046
          11 :   -6.34058066896506
          12 :   -6.27368080465413
          13 :    14.8286701449300
          14 :   -18.8069246457946
          15 :    19.1468601014357
          16 :   -17.6426963140910
          17 :    15.8634485566275
          18 :   -14.4062585140102
          19 :    12.9248784633915
          20 :   -10.8036437285467
          21 :    7.90656398425250
          22 :   -4.85918418093360
          23 :    2.68727563774985
          24 :   -2.11900562146042
          25 :    3.05948778164810
          26 :   -4.61301411252964
          27 :    5.62507408503950
          28 :   -5.38410898061937
          29 :    4.02221343769031
          30 :   -2.37967993362560
          31 :   -34.4296865114613
          32 :   -24.5561337194362

     Forces acting on atoms (Ry/au):

     negative rho (up, down):  5.333E-01 4.324E-01
     atom    1 type  1   force =     0.00001096   -0.01007232   -0.00511218
     atom    2 type  1   force =    -0.00868294    0.00506943   -0.00515150
     atom    3 type  1   force =     0.00867441    0.00505063   -0.00516695
     atom    4 type  2   force =    -0.00000160   -0.00001011   -0.01425789
     atom    5 type  1   force =     0.00002046    0.00262083    0.00542871
     atom    6 type  1   force =     0.00230473   -0.00128464    0.00539737
     atom    7 type  1   force =    -0.00230906   -0.00131110    0.00538227
     atom    8 type  2   force =    -0.00000277   -0.00000857    0.00940001
     atom    9 type  1   force =    -0.00004474   -0.00045099    0.00122401
     atom   10 type  1   force =    -0.00045329    0.00018121    0.00127695
     atom   11 type  1   force =     0.00043840    0.00022459    0.00127708
     atom   12 type  2   force =     0.00004546   -0.00000897    0.00030212

     Total force =     0.028077     Total SCF correction =     0.005292
     SCF correction compared to forces is large: reduce conv_thr to get better values

     entering subroutine stress ...

     negative rho (up, down):  5.333E-01 4.324E-01
          total   stress  (Ry/bohr**3)                   (kbar)     P=   -2.03
  -0.00001736   0.00000002   0.00000001         -2.55      0.00      0.00
   0.00000002  -0.00001725  -0.00000006          0.00     -2.54     -0.01
   0.00000001  -0.00000006  -0.00000684          0.00     -0.01     -1.01

 !ASE

     Writing output data file calc.save

     General routines

     Parallel routines

   This run was terminated on:   8:34:27  20Dec2018

   JOB DONE.
Job  /afs/slac/g/suncat/bin/suncat-tsmpirun -x LD_LIBRARY_PATH -wdir /scratch/qe773514_g09Ke pw.x -in pw.inp

TID   HOST_NAME   COMMAND_LINE            STATUS            TERMINATION_TIME
00000 suncat0178 pw.x -in pw.inp   Done                     12/20/2018 08:34:27
00001 suncat0178 pw.x -in pw.inp   Done                     12/20/2018 08:34:27
00002 suncat0178 pw.x -in pw.inp   Done                     12/20/2018 08:34:27
00003 suncat0178 pw.x -in pw.inp   Done                     12/20/2018 08:34:27
00004 suncat0178 pw.x -in pw.inp   Done                     12/20/2018 08:34:27
00005 suncat0178 pw.x -in pw.inp   Done                     12/20/2018 08:34:27
00006 suncat0178 pw.x -in pw.inp   Done                     12/20/2018 08:34:27
00007 suncat0178 pw.x -in pw.inp   Done                     12/20/2018 08:34:27
00008 suncat0177 pw.x -in pw.inp   Done                     12/20/2018 08:34:27
00009 suncat0177 pw.x -in pw.inp   Done                     12/20/2018 08:34:27
00010 suncat0177 pw.x -in pw.inp   Done                     12/20/2018 08:34:27
00011 suncat0177 pw.x -in pw.inp   Done                     12/20/2018 08:34:27
00012 suncat0177 pw.x -in pw.inp   Done                     12/20/2018 08:34:27
00013 suncat0177 pw.x -in pw.inp   Done                     12/20/2018 08:34:27
00014 suncat0177 pw.x -in pw.inp   Done                     12/20/2018 08:34:27
00015 suncat0177 pw.x -in pw.inp   Done                     12/20/2018 08:34:27
00016 suncat0172 pw.x -in pw.inp   Done                     12/20/2018 08:34:27
00017 suncat0172 pw.x -in pw.inp   Done                     12/20/2018 08:34:27
00018 suncat0172 pw.x -in pw.inp   Done                     12/20/2018 08:34:27
00019 suncat0172 pw.x -in pw.inp   Done                     12/20/2018 08:34:27
00020 suncat0172 pw.x -in pw.inp   Done                     12/20/2018 08:34:27
00021 suncat0172 pw.x -in pw.inp   Done                     12/20/2018 08:34:27
00022 suncat0172 pw.x -in pw.inp   Done                     12/20/2018 08:34:27
00023 suncat0172 pw.x -in pw.inp   Done                     12/20/2018 08:34:27
00024 suncat0171 pw.x -in pw.inp   Done                     12/20/2018 08:34:27
00025 suncat0171 pw.x -in pw.inp   Done                     12/20/2018 08:34:27
00026 suncat0171 pw.x -in pw.inp   Done                     12/20/2018 08:34:27
00027 suncat0171 pw.x -in pw.inp   Done                     12/20/2018 08:34:27
00028 suncat0171 pw.x -in pw.inp   Done                     12/20/2018 08:34:27
00029 suncat0171 pw.x -in pw.inp   Done                     12/20/2018 08:34:27
00030 suncat0171 pw.x -in pw.inp   Done                     12/20/2018 08:34:27
00031 suncat0171 pw.x -in pw.inp   Done                     12/20/2018 08:34:27
00032 suncat0217 pw.x -in pw.inp   Done                     12/20/2018 08:34:27
00033 suncat0217 pw.x -in pw.inp   Done                     12/20/2018 08:34:27
00034 suncat0217 pw.x -in pw.inp   Done                     12/20/2018 08:34:27
00035 suncat0217 pw.x -in pw.inp   Done                     12/20/2018 08:34:27
00036 suncat0217 pw.x -in pw.inp   Done                     12/20/2018 08:34:27
00037 suncat0217 pw.x -in pw.inp   Done                     12/20/2018 08:34:27
00038 suncat0217 pw.x -in pw.inp   Done                     12/20/2018 08:34:27
00039 suncat0217 pw.x -in pw.inp   Done                     12/20/2018 08:34:27
00040 suncat0216 pw.x -in pw.inp   Done                     12/20/2018 08:34:27
00041 suncat0216 pw.x -in pw.inp   Done                     12/20/2018 08:34:27
00042 suncat0216 pw.x -in pw.inp   Done                     12/20/2018 08:34:27
00043 suncat0216 pw.x -in pw.inp   Done                     12/20/2018 08:34:27
00044 suncat0216 pw.x -in pw.inp   Done                     12/20/2018 08:34:27
00045 suncat0216 pw.x -in pw.inp   Done                     12/20/2018 08:34:27
00046 suncat0216 pw.x -in pw.inp   Done                     12/20/2018 08:34:27
00047 suncat0216 pw.x -in pw.inp   Done                     12/20/2018 08:34:27
00048 suncat0215 pw.x -in pw.inp   Done                     12/20/2018 08:34:27
00049 suncat0215 pw.x -in pw.inp   Done                     12/20/2018 08:34:27
00050 suncat0215 pw.x -in pw.inp   Done                     12/20/2018 08:34:27
00051 suncat0215 pw.x -in pw.inp   Done                     12/20/2018 08:34:27
00052 suncat0215 pw.x -in pw.inp   Done                     12/20/2018 08:34:27
00053 suncat0215 pw.x -in pw.inp   Done                     12/20/2018 08:34:27
00054 suncat0215 pw.x -in pw.inp   Done                     12/20/2018 08:34:27
00055 suncat0215 pw.x -in pw.inp   Done                     12/20/2018 08:34:27
00056 suncat0210 pw.x -in pw.inp   Done                     12/20/2018 08:34:27
00057 suncat0210 pw.x -in pw.inp   Done                     12/20/2018 08:34:27
00058 suncat0210 pw.x -in pw.inp   Done                     12/20/2018 08:34:27
00059 suncat0210 pw.x -in pw.inp   Done                     12/20/2018 08:34:27
00060 suncat0210 pw.x -in pw.inp   Done                     12/20/2018 08:34:27
00061 suncat0210 pw.x -in pw.inp   Done                     12/20/2018 08:34:27
00062 suncat0210 pw.x -in pw.inp   Done                     12/20/2018 08:34:27
00063 suncat0210 pw.x -in pw.inp   Done                     12/20/2018 08:34:27