     Program PWSCF v.5.1rc2 (svn rev. 11289) starts on 25Dec2018 at 19:36:49

     Current dimensions of program PWSCF are:
     Max number of different atomic species (ntypx) = 10
     Max number of k-points (npk) =  40000
     Max angular momentum in pseudopotentials (lmaxx) =  3
     Presently stress not available with electric field

     IMPORTANT: XC functional enforced from input :
     Exchange-correlation      = BEEF-VDW ( 1  4 27 13 2)
     Any further DFT definition will be discarded
     Please, verify this is what you really want

     Subspace diagonalization in iterative solution of the eigenvalue problem:
     a serial algorithm will be used

     Generating pointlists ...
     new r_m :   0.4125 (alat units)  0.7795 (a.u.) for type    1
     new r_m :   0.4125 (alat units)  0.7795 (a.u.) for type    2

     bravais-lattice index     =            0
     lattice parameter (alat)  =       1.8897  a.u.
     unit-cell volume          =    4797.2183 (a.u.)^3
     number of atoms/cell      =           12
     number of atomic types    =            2
     number of electrons       =       177.00
     number of Kohn-Sham states=          118
     kinetic-energy cutoff     =      36.7493  Ry
     charge density cutoff     =     367.4932  Ry
     convergence threshold     =      1.0E-06
     mixing beta               =       0.1000
     number of iterations used =           10  plain     mixing
     Exchange-correlation      = BEEF-VDW ( 1  4 27 13 2)
     nstep                     =           50

     celldm(1)=   1.889726  celldm(2)=   0.000000  celldm(3)=   0.000000
     celldm(4)=   0.000000  celldm(5)=   0.000000  celldm(6)=   0.000000

     crystal axes: (cart. coord. in units of alat)
               a(1) = (   5.764041   0.000000   0.000000 )
               a(2) = (  -2.882021   4.991806   0.000000 )
               a(3) = (   0.000000   0.000000  24.706320 )

     reciprocal axes: (cart. coord. in units 2 pi/alat)
               b(1) = (  0.173489  0.100164  0.000000 )
               b(2) = (  0.000000  0.200328  0.000000 )
               b(3) = (  0.000000  0.000000  0.040475 )

     PseudoPot. # 1 for Fe read from file:
     /afs/slac.stanford.edu/u/if/mamunm/psp/gbrv1.5pbe/Fe.UPF
     MD5 check sum: a130daea23fe5165f5d574ae7f82ed95
     Pseudo is Ultrasoft + core correction, Zval = 16.0
     Generated by new atomic code, or converted to UPF format
     Using radial grid of  861 points,  6 beta functions with:
                l(1) =   0
                l(2) =   0
                l(3) =   1
                l(4) =   1
                l(5) =   2
                l(6) =   2
     Q(r) pseudized with  8 coefficients,  rinner =    1.000   1.000   1.000
                                                       1.000   1.000

     PseudoPot. # 2 for La read from file:
     /afs/slac.stanford.edu/u/if/mamunm/psp/gbrv1.5pbe/La.UPF
     MD5 check sum: 5937b0c7494ba0601a847275249473aa
     Pseudo is Ultrasoft + core correction, Zval = 11.0
     Generated by new atomic code, or converted to UPF format
     Using radial grid of  995 points,  8 beta functions with:
                l(1) =   0
                l(2) =   0
                l(3) =   1
                l(4) =   1
                l(5) =   2
                l(6) =   2
                l(7) =   3
                l(8) =   3
     Q(r) pseudized with  8 coefficients,  rinner =    1.700   1.700   1.700
                                                       1.700   1.700   1.700
                                                       1.700

     vdW kernel table read from file vdW_kernel_table
     MD5 check sum: 095c7af220d748ca6e76c0b4c6cfb241

     atomic species   valence    mass     pseudopotential
        Fe1           16.00    55.84500     Fe( 1.00)
        La1           11.00   138.90547     La( 1.00)

     Starting magnetic structure
     atomic species   magnetization
        Fe1          0.125
        La1          0.182

     No symmetry found

   Cartesian axes

     site n.     atom                  positions (alat units)
         1           Fe1 tau(   1) = (   0.0000000   0.0000000  10.0000000  )
         2           Fe1 tau(   2) = (  -1.4410103   2.4959031  10.0000000  )
         3           Fe1 tau(   3) = (   1.4410103   2.4959031  10.0000000  )
         4           La1 tau(   4) = (   2.8820207   0.0000000  10.0000000  )
         5           Fe1 tau(   5) = (   2.8820207   1.6639354  12.3531600  )
         6           Fe1 tau(   6) = (   1.4410103   4.1598386  12.3531600  )
         7           Fe1 tau(   7) = (  -1.4410103   4.1598386  12.3531600  )
         8           La1 tau(   8) = (   0.0000000   1.6639354  12.3531600  )
         9           Fe1 tau(   9) = (  -0.0000000   3.3278708  14.7063201  )
        10           Fe1 tau(  10) = (   1.4410103   0.8319677  14.7063201  )
        11           Fe1 tau(  11) = (   4.3230310   0.8319677  14.7063201  )
        12           La1 tau(  12) = (   2.8820207   3.3278708  14.7063201  )

     number of k points=    40  Fermi-Dirac smearing, width (Ry)=  0.0110
                       cart. coord. in units 2pi/alat
        k(    1) = (   0.0000000   0.0000000   0.0000000), wk =   0.0277778
        k(    2) = (   0.0000000   0.0333880   0.0000000), wk =   0.0555556
        k(    3) = (   0.0000000   0.0667761   0.0000000), wk =   0.0555556
        k(    4) = (   0.0000000  -0.1001641   0.0000000), wk =   0.0277778
        k(    5) = (   0.0289149   0.0166940   0.0000000), wk =   0.0555556
        k(    6) = (   0.0289149   0.0500821   0.0000000), wk =   0.0555556
        k(    7) = (   0.0289149   0.0834701   0.0000000), wk =   0.0555556
        k(    8) = (   0.0289149  -0.0834701   0.0000000), wk =   0.0555556
        k(    9) = (   0.0289149  -0.0500821   0.0000000), wk =   0.0555556
        k(   10) = (   0.0289149  -0.0166940   0.0000000), wk =   0.0555556
        k(   11) = (   0.0578298   0.0333880   0.0000000), wk =   0.0555556
        k(   12) = (   0.0578298   0.0667761   0.0000000), wk =   0.0555556
        k(   13) = (   0.0578298   0.1001641   0.0000000), wk =   0.0555556
        k(   14) = (   0.0578298  -0.0667761   0.0000000), wk =   0.0555556
        k(   15) = (   0.0578298  -0.0333880   0.0000000), wk =   0.0555556
        k(   16) = (   0.0578298   0.0000000   0.0000000), wk =   0.0555556
        k(   17) = (  -0.0867447  -0.0500821   0.0000000), wk =   0.0277778
        k(   18) = (  -0.0867447  -0.0166940   0.0000000), wk =   0.0555556
        k(   19) = (  -0.0867447   0.0166940   0.0000000), wk =   0.0555556
        k(   20) = (  -0.0867447  -0.1502462   0.0000000), wk =   0.0277778
        k(   21) = (   0.0000000   0.0000000   0.0000000), wk =   0.0277778
        k(   22) = (   0.0000000   0.0333880   0.0000000), wk =   0.0555556
        k(   23) = (   0.0000000   0.0667761   0.0000000), wk =   0.0555556
        k(   24) = (   0.0000000  -0.1001641   0.0000000), wk =   0.0277778
        k(   25) = (   0.0289149   0.0166940   0.0000000), wk =   0.0555556
        k(   26) = (   0.0289149   0.0500821   0.0000000), wk =   0.0555556
        k(   27) = (   0.0289149   0.0834701   0.0000000), wk =   0.0555556
        k(   28) = (   0.0289149  -0.0834701   0.0000000), wk =   0.0555556
        k(   29) = (   0.0289149  -0.0500821   0.0000000), wk =   0.0555556
        k(   30) = (   0.0289149  -0.0166940   0.0000000), wk =   0.0555556
        k(   31) = (   0.0578298   0.0333880   0.0000000), wk =   0.0555556
        k(   32) = (   0.0578298   0.0667761   0.0000000), wk =   0.0555556
        k(   33) = (   0.0578298   0.1001641   0.0000000), wk =   0.0555556
        k(   34) = (   0.0578298  -0.0667761   0.0000000), wk =   0.0555556
        k(   35) = (   0.0578298  -0.0333880   0.0000000), wk =   0.0555556
        k(   36) = (   0.0578298   0.0000000   0.0000000), wk =   0.0555556
        k(   37) = (  -0.0867447  -0.0500821   0.0000000), wk =   0.0277778
        k(   38) = (  -0.0867447  -0.0166940   0.0000000), wk =   0.0555556
        k(   39) = (  -0.0867447   0.0166940   0.0000000), wk =   0.0555556
        k(   40) = (  -0.0867447  -0.1502462   0.0000000), wk =   0.0277778

     Largest allocated arrays     est. size (Mb)     dimensions
     Largest temporary arrays     est. size (Mb)     dimensions

     Check: negative/imaginary core charge=   -0.000006    0.000000

     Initial potential from superposition of free atoms
     Check: negative starting charge=(component1):   -0.125223
     Check: negative starting charge=(component2):   -0.086592

     starting charge  167.90374, renormalised to  177.00000

     negative rho (up, down):  1.320E-01 9.128E-02

     *
     * You are using vdW-DF for exchange-correlation in this calculation.
     * Please cite the following three references that made this development
     * possible:
     *
     *   M. Dion, H. Rydberg, E. Schroder, D. C. Langreth, and
     *   B. I. Lundqvist, Phys. Rev. Lett. 92, 246401 (2004).
     *
     *   T. Thonhauser, V. R. Cooper, S. Li, A. Puzder, P. Hyldgaard, and
     *   D. C. Langreth, Phys. Rev. B 76, 125112 (2007).
     *
     *   G. Roman-Perez and J. M. Soler, Phys. Rev. Lett. 103, 096102 (2009).
     *
     *
     * If you are using vdW-DF2, please also cite:
     *
     *   K. Lee, E. D. Murray, L. Kong, B. I. Lundqvist, and
     *   D. C. Langreth, Phys. Rev. B 82, 081101(R) (2010).
     *
     *
     * If you are calculating the stress with vdW-DF, please also cite:
     *
     *   R. Sabatini, E. Kucukbenli, B. Kolb, T. Thonhauser, and
     *   S. de Gironcoli, J. Phys.: Condens. Matter 24, 424209 (2012).
     *

     Carrying out vdW-DF run using the following parameters:

     Nqs =      20    Nr_points =    1024   r_max =   100.000
     q_mesh =
               0.00001000     0.04494208     0.09755937     0.15916263
               0.23128650     0.31572767     0.41458969     0.53033537
               0.66584808     0.82450364     1.01025438     1.22772762
               1.48234092     1.78043706     2.12944203     2.53805004
               3.01644009     3.57652955     4.23227104     5.00000000

     Gradients computed in reciprocal space

     Adding external electric field

     Computed dipole along edir(3) :
        Dipole               -0.0000 Ry au,         -0.0000 Debye
        Dipole field         -0.0000 Ry au

        Potential amp.        0.0000 Ry
        Total length         45.5210 bohr

[...]

     Starting wfc are  177 randomized atomic wfcs

     Self-consistent Calculation

     iteration #  1     ecut=    36.75 Ry     beta=0.10
     Davidson diagonalization with overlap
     ethr =  1.00E-02,  avg # of iterations =  2.7

[...]

     Magnetic moment per site:
     atom:    1    charge:    7.2235    magn:    0.9165    constr:    0.0000
     atom:    2    charge:    7.2235    magn:    0.9165    constr:    0.0000
     atom:    3    charge:    7.2235    magn:    0.9165    constr:    0.0000
     atom:    4    charge:    0.1392    magn:    0.0215    constr:    0.0000
     atom:    5    charge:    7.2430    magn:    0.8918    constr:    0.0000
     atom:    6    charge:    7.2430    magn:    0.8918    constr:    0.0000
[...]
        k(    6) = (   0.0289149   0.0500821   0.0000000), wk =   0.0555556
        k(    7) = (   0.0289149   0.0834701   0.0000000), wk =   0.0555556
        k(    8) = (   0.0289149  -0.0834701   0.0000000), wk =   0.0555556
        k(    9) = (   0.0289149  -0.0500821   0.0000000), wk =   0.0555556
        k(   10) = (   0.0289149  -0.0166940   0.0000000), wk =   0.0555556
        k(   11) = (   0.0578298   0.0333880   0.0000000), wk =   0.0555556
        k(   12) = (   0.0578298   0.0667761   0.0000000), wk =   0.0555556
        k(   13) = (   0.0578298   0.1001641   0.0000000), wk =   0.0555556
        k(   14) = (   0.0578298  -0.0667761   0.0000000), wk =   0.0555556
        k(   15) = (   0.0578298  -0.0333880   0.0000000), wk =   0.0555556
        k(   16) = (   0.0578298   0.0000000   0.0000000), wk =   0.0555556
        k(   17) = (  -0.0867447  -0.0500821   0.0000000), wk =   0.0277778
        k(   18) = (  -0.0867447  -0.0166940   0.0000000), wk =   0.0555556
        k(   19) = (  -0.0867447   0.0166940   0.0000000), wk =   0.0555556
        k(   20) = (  -0.0867447  -0.1502462   0.0000000), wk =   0.0277778
        k(   21) = (   0.0000000   0.0000000   0.0000000), wk =   0.0277778
        k(   22) = (   0.0000000   0.0333880   0.0000000), wk =   0.0555556
        k(   23) = (   0.0000000   0.0667761   0.0000000), wk =   0.0555556
        k(   24) = (   0.0000000  -0.1001641   0.0000000), wk =   0.0277778
        k(   25) = (   0.0289149   0.0166940   0.0000000), wk =   0.0555556
        k(   26) = (   0.0289149   0.0500821   0.0000000), wk =   0.0555556
        k(   27) = (   0.0289149   0.0834701   0.0000000), wk =   0.0555556
        k(   28) = (   0.0289149  -0.0834701   0.0000000), wk =   0.0555556
        k(   29) = (   0.0289149  -0.0500821   0.0000000), wk =   0.0555556
        k(   30) = (   0.0289149  -0.0166940   0.0000000), wk =   0.0555556
        k(   31) = (   0.0578298   0.0333880   0.0000000), wk =   0.0555556
        k(   32) = (   0.0578298   0.0667761   0.0000000), wk =   0.0555556
        k(   33) = (   0.0578298   0.1001641   0.0000000), wk =   0.0555556
        k(   34) = (   0.0578298  -0.0667761   0.0000000), wk =   0.0555556
        k(   35) = (   0.0578298  -0.0333880   0.0000000), wk =   0.0555556
        k(   36) = (   0.0578298   0.0000000   0.0000000), wk =   0.0555556
        k(   37) = (  -0.0867447  -0.0500821   0.0000000), wk =   0.0277778
        k(   38) = (  -0.0867447  -0.0166940   0.0000000), wk =   0.0555556
        k(   39) = (  -0.0867447   0.0166940   0.0000000), wk =   0.0555556
        k(   40) = (  -0.0867447  -0.1502462   0.0000000), wk =   0.0277778

     Largest allocated arrays     est. size (Mb)     dimensions
     Largest temporary arrays     est. size (Mb)     dimensions

     Check: negative/imaginary core charge=   -0.000006    0.000000

     Initial potential from superposition of free atoms
     Check: negative starting charge=(component1):   -0.125875
     Check: negative starting charge=(component2):   -0.087055

     starting charge  167.90374, renormalised to  177.00000

[...]

     *
     * You are using vdW-DF for exchange-correlation in this calculation.
     * Please cite the following three references that made this development
     * possible:
     *
     *   M. Dion, H. Rydberg, E. Schroder, D. C. Langreth, and
     *   B. I. Lundqvist, Phys. Rev. Lett. 92, 246401 (2004).
     *
     *   T. Thonhauser, V. R. Cooper, S. Li, A. Puzder, P. Hyldgaard, and
     *   D. C. Langreth, Phys. Rev. B 76, 125112 (2007).
     *
     *   G. Roman-Perez and J. M. Soler, Phys. Rev. Lett. 103, 096102 (2009).
     *
     *
     * If you are using vdW-DF2, please also cite:
     *
     *   K. Lee, E. D. Murray, L. Kong, B. I. Lundqvist, and
     *   D. C. Langreth, Phys. Rev. B 82, 081101(R) (2010).
     *
     *
     * If you are calculating the stress with vdW-DF, please also cite:
     *
     *   R. Sabatini, E. Kucukbenli, B. Kolb, T. Thonhauser, and
     *   S. de Gironcoli, J. Phys.: Condens. Matter 24, 424209 (2012).
     *

     Carrying out vdW-DF run using the following parameters:

     Nqs =      20    Nr_points =    1024   r_max =   100.000
     q_mesh =
               0.00001000     0.04494208     0.09755937     0.15916263
               0.23128650     0.31572767     0.41458969     0.53033537
               0.66584808     0.82450364     1.01025438     1.22772762
               1.48234092     1.78043706     2.12944203     2.53805004
               3.01644009     3.57652955     4.23227104     5.00000000

     Gradients computed in reciprocal space

[...]

     Starting wfc are  177 randomized atomic wfcs

     Self-consistent Calculation

[...]

     iteration # 21     ecut=    36.75 Ry     beta=0.10
     Davidson diagonalization with overlap
     c_bands:  1 eigenvalues not converged
     c_bands:  1 eigenvalues not converged
     c_bands:  1 eigenvalues not converged
     ethr =  9.83E-07,  avg # of iterations =  4.4

[...]

     total energy              =   -2573.81246532 Ry
     Harris-Foulkes estimate   =   -2573.81246307 Ry
     estimated scf accuracy    <       0.00000147 Ry

[...]

     iteration # 34     ecut=    36.75 Ry     beta=0.10
     Davidson diagonalization with overlap
     ethr =  8.33E-10,  avg # of iterations =  2.8

[...]

     negative rho (up, down):  7.852E-02 4.537E-02

[...]

     Adding external electric field

     Computed dipole along edir(3) :
        Dipole                0.3029 Ry au,          0.7700 Debye
        Dipole field          0.0008 Ry au

        Potential amp.       -0.0722 Ry
        Total length         45.5210 bohr

     Magnetic moment per site:
     atom:    1    charge:    7.0982    magn:    1.2393    constr:    0.0000
     atom:    2    charge:    7.0981    magn:    1.2394    constr:    0.0000
     atom:    3    charge:    7.0982    magn:    1.2394    constr:    0.0000
     atom:    4    charge:    0.1762    magn:   -0.0303    constr:    0.0000
     atom:    5    charge:    7.0726    magn:    1.1957    constr:    0.0000
     atom:    6    charge:    7.0726    magn:    1.1957    constr:    0.0000
     atom:    7    charge:    7.0726    magn:    1.1957    constr:    0.0000
     atom:    8    charge:    0.1755    magn:   -0.0219    constr:    0.0000
     atom:    9    charge:    7.0946    magn:    1.1712    constr:    0.0000
     atom:   10    charge:    7.0945    magn:    1.1712    constr:    0.0000
     atom:   11    charge:    7.0944    magn:    1.1712    constr:    0.0000
     atom:   12    charge:    0.1609    magn:   -0.0203    constr:    0.0000

     End of self-consistent calculation

 ------ SPIN UP ------------

[...]

 ------ SPIN DOWN ----------

[...]

          k = 0.0578 0.0000 0.0000 ( 18063 PWs)   bands (ev):

[...]

          k =-0.0867-0.1502 0.0000 ( 18028 PWs)   bands (ev):

   -83.6390 -83.6342 -83.6313 -83.5989 -83.5855 -83.5831 -83.5810 -83.5662
   -83.5660 -49.8638 -49.8311 -49.8200 -49.8059 -49.8041 -49.8000 -49.7871
   -49.7716 -49.7644 -49.7622 -49.7262 -49.7149 -49.7121 -49.6959 -49.6865
   -49.6821 -49.6807 -49.6671 -49.6458 -49.6368 -49.6223 -49.6172 -49.6150
   -49.5977 -49.5956 -49.5862 -49.5827 -31.2530 -30.4627 -29.9879 -14.9793
   -14.9586 -14.9303 -14.4726 -14.4088 -14.3782 -14.0247 -13.9916 -13.9577
    -2.5952  -2.1635  -1.3128  -0.7258  -0.5485  -0.4304  -0.3130  -0.2959
     0.0056   0.0062   0.2672   0.4829   0.5112   0.5563   0.6684   0.7338
     0.7780   0.8307   0.9215   0.9949   1.0912   1.1347   1.2294   1.2843
     1.4201   1.4516   1.5115   1.6578   1.7181   1.7523   1.8394   1.9000
     1.9648   2.0222   2.0463   2.1018   2.1929   2.2483   2.3046   2.3654
     2.3771   2.4358   2.4460   2.5276   2.6303   2.7898   2.8200   2.9866
     2.9891   3.0173   3.1112   3.1883   3.2044   3.4661   3.6259   3.6747
     3.7537   3.7968   3.8348   3.8356   3.9150   3.9469   4.1147   4.3373
     4.3639   4.3996   4.6630   4.6716   4.7173   4.7387

     the Fermi energy is     1.8492 ev

!    total energy              =   -2573.81247124 Ry
     Harris-Foulkes estimate   =   -2573.81246799 Ry
     estimated scf accuracy    <       0.00000080 Ry

     The total energy is the sum of the following terms:

     one-electron contribution =  -17490.08415836 Ry
     hartree contribution      =    8752.62090475 Ry
     xc contribution           =    -425.27388571 Ry
     ewald contribution        =    6589.02021227 Ry
     electric field correction =       0.00024038 Ry
     smearing contrib. (-TS)   =      -0.09578457 Ry

     total magnetization       =    21.13 Bohr mag/cell
     absolute magnetization    =    25.41 Bohr mag/cell

     convergence has been achieved in  34 iterations

 BEEF-vdW xc energy contributions
           1 :   -373.939723592275
           2 :    340.249392630218
           3 :   -282.873615219686
           4 :    217.191946427871
           5 :   -157.587271876425
           6 :    112.601993937649
           7 :   -83.6056088977140
           8 :    66.7381467847829
           9 :   -56.4085037825204
          10 :    48.2599756180942
          11 :   -40.3760530442864
          12 :    32.7438555895661
          13 :   -25.9541322908849
          14 :    20.1947999843411
          15 :   -15.0771912952094
          16 :    10.1021038635238
          17 :   -5.21302905221785
          18 :   0.944238138323158
          19 :    1.91379573695644
          20 :   -2.86604926566656
          21 :    2.08314113354987
          22 :  -0.375613356279871
          23 :   -1.18867812257042
          24 :    1.77172334974921
          25 :   -1.10416537243293
          26 :  -0.474994640178579
          27 :    2.24929229991460
          28 :   -3.49649381956471
          29 :    3.81587500848320
          30 :   -3.27894944385548
          31 :   -32.4698586546582
          32 :   -23.0239937567530

     Forces acting on atoms (Ry/au):

     negative rho (up, down):  7.852E-02 4.537E-02
     atom    1 type  1   force =    -0.00000261   -0.02500727    0.01759227
     atom    2 type  1   force =    -0.02166449    0.01248916    0.01759698
     atom    3 type  1   force =     0.02166271    0.01248964    0.01758779
     atom    4 type  2   force =    -0.00000262   -0.00001499   -0.06402835
     atom    5 type  1   force =     0.00000686    0.02278635    0.00452630
     atom    6 type  1   force =     0.01973949   -0.01139057    0.00453026
     atom    7 type  1   force =    -0.01974162   -0.01139923    0.00451130
     atom    8 type  2   force =     0.00000921    0.00001157   -0.00333922
     atom    9 type  1   force =     0.00001502    0.00040398    0.00028227
     atom   10 type  1   force =     0.00032610   -0.00017131    0.00031287
     atom   11 type  1   force =    -0.00033500   -0.00019511    0.00030876
     atom   12 type  2   force =    -0.00001305   -0.00000222    0.00011875

     Total force =     0.092388     Total SCF correction =     0.003168

     entering subroutine stress ...

     negative rho (up, down):  7.852E-02 4.537E-02
          total   stress  (Ry/bohr**3)                   (kbar)     P=   -4.97
  -0.00005413   0.00000001  -0.00000000         -7.96      0.00     -0.00
   0.00000001  -0.00005415  -0.00000002          0.00     -7.97     -0.00
  -0.00000000  -0.00000002   0.00000692         -0.00     -0.00      1.02

 !ASE

     Writing output data file calc.save

     General routines

     Parallel routines

   This run was terminated on:   8: 0:35  26Dec2018

   JOB DONE.
Job  /afs/slac/g/suncat/bin/suncat-tsmpirun -x LD_LIBRARY_PATH -wdir /scratch/qe109627_kO7ag pw.x -in pw.inp

TID   HOST_NAME   COMMAND_LINE            STATUS            TERMINATION_TIME
00000 suncat0024 pw.x -in pw.inp   Done                     12/26/2018 08:00:35
00001 suncat0024 pw.x -in pw.inp   Done                     12/26/2018 08:00:35
00002 suncat0024 pw.x -in pw.inp   Done                     12/26/2018 08:00:35
00003 suncat0024 pw.x -in pw.inp   Done                     12/26/2018 08:00:35
00004 suncat0024 pw.x -in pw.inp   Done                     12/26/2018 08:00:35
00005 suncat0024 pw.x -in pw.inp   Done                     12/26/2018 08:00:35
00006 suncat0024 pw.x -in pw.inp   Done                     12/26/2018 08:00:35
00007 suncat0024 pw.x -in pw.inp   Done                     12/26/2018 08:00:35
00008 suncat0023 pw.x -in pw.inp   Done                     12/26/2018 08:00:35
00009 suncat0023 pw.x -in pw.inp   Done                     12/26/2018 08:00:35
00010 suncat0023 pw.x -in pw.inp   Done                     12/26/2018 08:00:35
00011 suncat0023 pw.x -in pw.inp   Done                     12/26/2018 08:00:35
00012 suncat0023 pw.x -in pw.inp   Done                     12/26/2018 08:00:35
00013 suncat0023 pw.x -in pw.inp   Done                     12/26/2018 08:00:35
00014 suncat0023 pw.x -in pw.inp   Done                     12/26/2018 08:00:35
00015 suncat0023 pw.x -in pw.inp   Done                     12/26/2018 08:00:35
00016 suncat0022 pw.x -in pw.inp   Done                     12/26/2018 08:00:35
00017 suncat0022 pw.x -in pw.inp   Done                     12/26/2018 08:00:35
00018 suncat0022 pw.x -in pw.inp   Done                     12/26/2018 08:00:35
00019 suncat0022 pw.x -in pw.inp   Done                     12/26/2018 08:00:35
00020 suncat0022 pw.x -in pw.inp   Done                     12/26/2018 08:00:35
00021 suncat0022 pw.x -in pw.inp   Done                     12/26/2018 08:00:35
00022 suncat0022 pw.x -in pw.inp   Done                     12/26/2018 08:00:35
00023 suncat0022 pw.x -in pw.inp   Done                     12/26/2018 08:00:35
00024 suncat0018 pw.x -in pw.inp   Done                     12/26/2018 08:00:35
00025 suncat0018 pw.x -in pw.inp   Done                     12/26/2018 08:00:35
00026 suncat0018 pw.x -in pw.inp   Done                     12/26/2018 08:00:35
00027 suncat0018 pw.x -in pw.inp   Done                     12/26/2018 08:00:35
00028 suncat0018 pw.x -in pw.inp   Done                     12/26/2018 08:00:35
00029 suncat0018 pw.x -in pw.inp   Done                     12/26/2018 08:00:35
00030 suncat0018 pw.x -in pw.inp   Done                     12/26/2018 08:00:35
00031 suncat0018 pw.x -in pw.inp   Done                     12/26/2018 08:00:35
00032 suncat0017 pw.x -in pw.inp   Done                     12/26/2018 08:00:35
00033 suncat0017 pw.x -in pw.inp   Done                     12/26/2018 08:00:35
00034 suncat0017 pw.x -in pw.inp   Done                     12/26/2018 08:00:35
00035 suncat0017 pw.x -in pw.inp   Done                     12/26/2018 08:00:35
00036 suncat0017 pw.x -in pw.inp   Done                     12/26/2018 08:00:35
00037 suncat0017 pw.x -in pw.inp   Done                     12/26/2018 08:00:35
00038 suncat0017 pw.x -in pw.inp   Done                     12/26/2018 08:00:35
00039 suncat0017 pw.x -in pw.inp   Done                     12/26/2018 08:00:35
00040 suncat0016 pw.x -in pw.inp   Done                     12/26/2018 08:00:35
00041 suncat0016 pw.x -in pw.inp   Done                     12/26/2018 08:00:35
00042 suncat0016 pw.x -in pw.inp   Done                     12/26/2018 08:00:35
00043 suncat0016 pw.x -in pw.inp   Done                     12/26/2018 08:00:35
00044 suncat0016 pw.x -in pw.inp   Done                     12/26/2018 08:00:35
00045 suncat0016 pw.x -in pw.inp   Done                     12/26/2018 08:00:35
00046 suncat0016 pw.x -in pw.inp   Done                     12/26/2018 08:00:35
00047 suncat0016 pw.x -in pw.inp   Done                     12/26/2018 08:00:35
00048 suncat0014 pw.x -in pw.inp   Done                     12/26/2018 08:00:35
00049 suncat0014 pw.x -in pw.inp   Done                     12/26/2018 08:00:35
00050 suncat0014 pw.x -in pw.inp   Done                     12/26/2018 08:00:35
00051 suncat0014 pw.x -in pw.inp   Done                     12/26/2018 08:00:35
00052 suncat0014 pw.x -in pw.inp   Done                     12/26/2018 08:00:35
00053 suncat0014 pw.x -in pw.inp   Done                     12/26/2018 08:00:35
00054 suncat0014 pw.x -in pw.inp   Done                     12/26/2018 08:00:35
00055 suncat0014 pw.x -in pw.inp   Done                     12/26/2018 08:00:35
00056 suncat0198 pw.x -in pw.inp   Done                     12/26/2018 08:00:35
00057 suncat0198 pw.x -in pw.inp   Done                     12/26/2018 08:00:35
00058 suncat0198 pw.x -in pw.inp   Done                     12/26/2018 08:00:35
00059 suncat0198 pw.x -in pw.inp   Done                     12/26/2018 08:00:35
00060 suncat0198 pw.x -in pw.inp   Done                     12/26/2018 08:00:35
00061 suncat0198 pw.x -in pw.inp   Done                     12/26/2018 08:00:35
00062 suncat0198 pw.x -in pw.inp   Done                     12/26/2018 08:00:35
00063 suncat0198 pw.x -in pw.inp   Done                     12/26/2018 08:00:35