     Program PWSCF v.5.1rc2 (svn rev. 11289) starts on 31Dec2018 at  7:38:36

     Current dimensions of program PWSCF are:
     Max number of different atomic species (ntypx) = 10
     Max number of k-points (npk) =  40000
     Max angular momentum in pseudopotentials (lmaxx) =  3
     Presently stress not available with electric field

     IMPORTANT: XC functional enforced from input :
     Exchange-correlation      = BEEF-VDW ( 1  4 27 13 2)
     Any further DFT definition will be discarded
     Please, verify this is what you really want

     Subspace diagonalization in iterative solution of the eigenvalue problem:
     a serial algorithm will be used

     bravais-lattice index     =            0
     lattice parameter (alat)  =       1.8897  a.u.
     unit-cell volume          =    4437.5025 (a.u.)^3
     number of atoms/cell      =           12
     number of atomic types    =            2
     number of electrons       =       183.00
     number of Kohn-Sham states=          121
     kinetic-energy cutoff     =      36.7493  Ry
     charge density cutoff     =     367.4932  Ry
     convergence threshold     =      1.0E-06
     mixing beta               =       0.1000
     number of iterations used =           10  plain     mixing
     Exchange-correlation      = BEEF-VDW ( 1  4 27 13 2)
     nstep                     =           50

     celldm(1)=   1.889726  celldm(2)=   0.000000  celldm(3)=   0.000000
     celldm(4)=   0.000000  celldm(5)=   0.000000  celldm(6)=   0.000000

     crystal axes: (cart. coord. in units of alat)
               a(1) = (   5.562298   0.000000   0.000000 )
               a(2) = (  -2.781149   4.817092   0.000000 )
               a(3) = (   0.000000   0.000000  24.541598 )

     reciprocal axes: (cart. coord. in units 2 pi/alat)
               b(1) = (  0.179782  0.103797  0.000000 )
               b(2) = (  0.000000  0.207594  0.000000 )
               b(3) = (  0.000000  0.000000  0.040747 )

     PseudoPot. # 1 for Os read from file:
     /afs/slac.stanford.edu/u/if/mamunm/psp/gbrv1.5pbe/Os.UPF
     MD5 check sum: a3fb40a04f0c37c25c34bbc47164c9a8
     Pseudo is Ultrasoft + core correction, Zval = 16.0
     Generated by new atomic code, or converted to UPF format
     Using radial grid of  983 points,  8 beta functions with:
                l(1) =   0
                l(2) =   0
                l(3) =   1
                l(4) =   1
                l(5) =   2
                l(6) =   2
                l(7) =   3
                l(8) =   3
     Q(r) pseudized with  8 coefficients,  rinner =    1.150   1.150   1.150
                                                       1.150   1.150   1.150
                                                       1.150

     PseudoPot. # 2 for Nb read from file:
     /afs/slac.stanford.edu/u/if/mamunm/psp/gbrv1.5pbe/Nb.UPF
     MD5 check sum: 573aab8a2fa660278ed4a62cd769473f
     Pseudo is Ultrasoft + core correction, Zval = 13.0
     Generated by new atomic code, or converted to UPF format
     Using radial grid of  887 points,  6 beta functions with:
                l(1) =   0
                l(2) =   0
                l(3) =   1
                l(4) =   1
                l(5) =   2
                l(6) =   2
     Q(r) pseudized with  6 coefficients,  rinner =    1.000   1.000   1.000
                                                       1.000   1.000

     vdW kernel table read from file vdW_kernel_table
     MD5 check sum: 095c7af220d748ca6e76c0b4c6cfb241

     atomic species   valence    mass     pseudopotential
        Os1           16.00   190.23000     Os( 1.00)
        Nb1           13.00    92.90637     Nb( 1.00)

     No symmetry found

   Cartesian axes

     site n.     atom                  positions (alat units)
         1           Os1 tau(   1) = (   0.0000000   0.0000000  10.0000000  )
         2           Os1 tau(   2) = (  -1.3905746   2.4085458  10.0000000  )
         3           Os1 tau(   3) = (   1.3905746   2.4085458  10.0000000  )
         4           Nb1 tau(   4) = (   2.7811491   0.0000000  10.0000000  )
         5           Os1 tau(   5) = (   2.7811491   1.6056972  12.2707988  )
         6           Os1 tau(   6) = (   1.3905746   4.0142430  12.2707988  )
         7           Os1 tau(   7) = (  -1.3905746   4.0142430  12.2707988  )
         8           Nb1 tau(   8) = (   0.0000000   1.6056972  12.2707988  )
         9           Os1 tau(   9) = (  -0.0000000   3.2113944  14.5415975  )
        10           Os1 tau(  10) = (   1.3905746   0.8028486  14.5415975  )
        11           Os1 tau(  11) = (   4.1717237   0.8028486  14.5415975  )
        12           Nb1 tau(  12) = (   2.7811491   3.2113944  14.5415975  )

     number of k points=    20  Fermi-Dirac smearing, width (Ry)=  0.0110
                       cart. coord. in units 2pi/alat
        k(    1) = (   0.0000000   0.0000000   0.0000000), wk =   0.0555556
        k(    2) = (   0.0000000   0.0345990   0.0000000), wk =   0.1111111
        k(    3) = (   0.0000000   0.0691980   0.0000000), wk =   0.1111111
        k(    4) = (   0.0000000  -0.1037971   0.0000000), wk =   0.0555556
        k(    5) = (   0.0299636   0.0172995   0.0000000), wk =   0.1111111
        k(    6) = (   0.0299636   0.0518985   0.0000000), wk =   0.1111111
        k(    7) = (   0.0299636   0.0864976   0.0000000), wk =   0.1111111
        k(    8) = (   0.0299636  -0.0864976   0.0000000), wk =   0.1111111
        k(    9) = (   0.0299636  -0.0518985   0.0000000), wk =   0.1111111
        k(   10) = (   0.0299636  -0.0172995   0.0000000), wk =   0.1111111
        k(   11) = (   0.0599273   0.0345990   0.0000000), wk =   0.1111111
        k(   12) = (   0.0599273   0.0691980   0.0000000), wk =   0.1111111
        k(   13) = (   0.0599273   0.1037971   0.0000000), wk =   0.1111111
        k(   14) = (   0.0599273  -0.0691980   0.0000000), wk =   0.1111111
        k(   15) = (   0.0599273  -0.0345990   0.0000000), wk =   0.1111111
        k(   16) = (   0.0599273   0.0000000   0.0000000), wk =   0.1111111
        k(   17) = (  -0.0898909  -0.0518985   0.0000000), wk =   0.0555556
        k(   18) = (  -0.0898909  -0.0172995   0.0000000), wk =   0.1111111
        k(   19) = (  -0.0898909   0.0172995   0.0000000), wk =   0.1111111
        k(   20) = (  -0.0898909  -0.1556956   0.0000000), wk =   0.0555556

     Largest allocated arrays     est. size (Mb)     dimensions
     Largest temporary arrays     est. size (Mb)     dimensions

     Initial potential from superposition of free atoms
     Check: negative starting charge=   -1.109247

     starting charge  178.49147, renormalised to  183.00000

     negative rho (up, down):  1.137E+00 0.000E+00

     *
     * You are using vdW-DF for exchange-correlation in this calculation.
     * Please cite the following three references that made this development
     * possible:
     *
     *   M. Dion, H. Rydberg, E. Schroder, D. C. Langreth, and
     *   B. I. Lundqvist, Phys. Rev. Lett. 92, 246401 (2004).
     *
     *   T. Thonhauser, V. R. Cooper, S. Li, A. Puzder, P. Hyldgaard, and
     *   D. C. Langreth, Phys. Rev. B 76, 125112 (2007).
     *
     *   G. Roman-Perez and J. M. Soler, Phys. Rev. Lett. 103, 096102 (2009).
     *
     *
     * If you are using vdW-DF2, please also cite:
     *
     *   K. Lee, E. D. Murray, L. Kong, B. I. Lundqvist, and
     *   D. C. Langreth, Phys. Rev. B 82, 081101(R) (2010).
     *
     *
     * If you are calculating the stress with vdW-DF, please also cite:
     *
     *   R. Sabatini, E. Kucukbenli, B. Kolb, T. Thonhauser, and
     *   S. de Gironcoli, J. Phys.: Condens. Matter 24, 424209 (2012).
     *

     Carrying out vdW-DF run using the following parameters:

     Nqs =      20    Nr_points =    1024   r_max =   100.000
     q_mesh =
               0.00001000     0.04494208     0.09755937     0.15916263
               0.23128650     0.31572767     0.41458969     0.53033537
               0.66584808     0.82450364     1.01025438     1.22772762
               1.48234092     1.78043706     2.12944203     2.53805004
               3.01644009     3.57652955     4.23227104     5.00000000

     Gradients computed in reciprocal space

     Adding external electric field

     Computed dipole along edir(3) :
        Dipole               -0.0000 Ry au,         -0.0000 Debye
        Dipole field         -0.0000 Ry au

        Potential amp.        0.0000 Ry
        Total length         45.2175 bohr

     Starting wfc are  156 randomized atomic wfcs

     Self-consistent Calculation

     iteration #  1     ecut=    36.75 Ry     beta=0.10
     Davidson diagonalization with overlap
     ethr =  1.00E-02,  avg # of iterations =  3.0

[...]

     total energy              =   -2154.01038405 Ry
     Harris-Foulkes estimate   =   -2154.60715360 Ry
     estimated scf accuracy    <       3.70445109 Ry

[...]

     End of self-consistent calculation

          k = 0.0000 0.0000 0.0000 ( 16703 PWs)   bands (ev):

   -83.8642 -83.8303 -83.8303 -83.5201 -83.5193 -83.4870 -83.4870 -83.4868
   -83.4868 -52.6401 -52.6388 -52.5094 -43.4706 -43.2809 -43.2809 -43.2672
   -43.1811 -43.1811 -43.1203 -43.0755 -42.9647 -42.8769 -42.8769 -42.8684
   -42.8684 -42.8227 -42.8111 -42.8111 -42.7716 -42.7715 -42.7466 -42.7252
   -42.7252 -42.5638 -42.5530 -42.5416 -42.5416 -42.5377 -42.5377 -28.7895
   -28.7667 -28.5759 -28.5759 -28.5746 -28.5746 -28.5604 -28.5604 -28.4898
    -5.6892  -3.9452  -3.5890  -3.2002  -3.2002  -2.9814  -2.9307  -2.9307
    -2.4686  -2.3150  -2.3150  -2.2281  -2.1139  -2.1139  -1.8990  -0.8263
    -0.6008  -0.6008   0.0175   0.0175   0.1918   0.3549   0.4846   0.7802
     0.8311   0.8311   1.1288   1.1288   1.1914   1.1914   1.4726   1.4726
     1.5363   1.5363   1.9932   2.1996   2.6045   2.7899   2.7899   3.0016
     3.0016   3.2446   3.2603   3.2603   3.2939   4.0785   4.0786   4.3863
     4.4229   4.5407   4.5407   4.8220   4.8220   5.1321   5.3440   5.4974
     5.4974   5.5386   5.6139   5.8048   5.8048   6.3137   6.3137   6.5235
     6.5235   6.8281   6.8281   6.9730   6.9794   7.0174   7.0174   7.2340
     7.6235

[...]

          k =-0.0899-0.0519 0.0000 ( 16676 PWs)   bands (ev):

[...]

     the Fermi energy is     2.7241 ev

!    total energy              =   -2153.68392341 Ry
     Harris-Foulkes estimate   =   -2153.68391849 Ry
     estimated scf accuracy    <       0.00000036 Ry

     The total energy is the sum of the following terms:

     one-electron contribution =  -18517.98659980 Ry
     hartree contribution      =    9244.55383086 Ry
     xc contribution           =    -405.24240972 Ry
     ewald contribution        =    7525.06789288 Ry
     electric field correction =       0.00000000 Ry
     smearing contrib. (-TS)   =      -0.07663764 Ry

     convergence has been achieved in  16 iterations

 BEEF-vdW xc energy contributions
           1 :   -353.947649157859
           2 :    327.172658093183
           3 :   -280.095517577006
           4 :    223.283736860014
           5 :   -167.958740928712
           6 :    122.790683910238
           7 :   -91.9685303046974
           8 :    74.9459454006876
           9 :   -67.6988824111306
[...]
     Generated by new atomic code, or converted to UPF format
     Using radial grid of  983 points,  8 beta functions with:
                l(1) =   0
                l(2) =   0
                l(3) =   1
                l(4) =   1
                l(5) =   2
                l(6) =   2
                l(7) =   3
                l(8) =   3
     Q(r) pseudized with  8 coefficients,  rinner =    1.150   1.150   1.150
                                                       1.150   1.150   1.150
                                                       1.150

     PseudoPot. # 2 for Nb read from file:
     /afs/slac.stanford.edu/u/if/mamunm/psp/gbrv1.5pbe/Nb.UPF
     MD5 check sum: 573aab8a2fa660278ed4a62cd769473f
     Pseudo is Ultrasoft + core correction, Zval = 13.0
     Generated by new atomic code, or converted to UPF format
     Using radial grid of  887 points,  6 beta functions with:
                l(1) =   0
                l(2) =   0
                l(3) =   1
                l(4) =   1
                l(5) =   2
                l(6) =   2
     Q(r) pseudized with  6 coefficients,  rinner =    1.000   1.000   1.000
                                                       1.000   1.000

     vdW kernel table read from file vdW_kernel_table
     MD5 check sum: 095c7af220d748ca6e76c0b4c6cfb241

     atomic species   valence    mass     pseudopotential
        Os1           16.00   190.23000     Os( 1.00)
        Nb1           13.00    92.90637     Nb( 1.00)

     No symmetry found

   Cartesian axes

     site n.     atom                  positions (alat units)
         1           Os1 tau(   1) = (   0.0000000   0.0000000  10.0000000  )
         2           Os1 tau(   2) = (  -1.3905746   2.4085458  10.0000000  )
         3           Os1 tau(   3) = (   1.3905746   2.4085458  10.0000000  )
         4           Nb1 tau(   4) = (   2.7811491   0.0000000  10.0000000  )
         5           Os1 tau(   5) = (   2.7811491   1.6056972  12.2707988  )
         6           Os1 tau(   6) = (   1.3905746   4.0142430  12.2707988  )
         7           Os1 tau(   7) = (  -1.3905746   4.0142430  12.2707988  )
         8           Nb1 tau(   8) = (   0.0000000   1.6056972  12.2707988  )
         9           Os1 tau(   9) = (  -0.0000034   3.2210041  14.4385744  )
        10           Os1 tau(  10) = (   1.3988973   0.7980393  14.4385824  )
        11           Os1 tau(  11) = (   4.1634030   0.7980445  14.4385701  )
        12           Nb1 tau(  12) = (   2.7811502   3.2113943  14.4391516  )

     number of k points=    20  Fermi-Dirac smearing, width (Ry)=  0.0110
                       cart. coord. in units 2pi/alat
        k(    1) = (   0.0000000   0.0000000   0.0000000), wk =   0.0555556
        k(    2) = (   0.0000000   0.0345990   0.0000000), wk =   0.1111111
        k(    3) = (   0.0000000   0.0691980   0.0000000), wk =   0.1111111
        k(    4) = (   0.0000000  -0.1037971   0.0000000), wk =   0.0555556
        k(    5) = (   0.0299636   0.0172995   0.0000000), wk =   0.1111111
        k(    6) = (   0.0299636   0.0518985   0.0000000), wk =   0.1111111
        k(    7) = (   0.0299636   0.0864976   0.0000000), wk =   0.1111111
        k(    8) = (   0.0299636  -0.0864976   0.0000000), wk =   0.1111111
        k(    9) = (   0.0299636  -0.0518985   0.0000000), wk =   0.1111111
        k(   10) = (   0.0299636  -0.0172995   0.0000000), wk =   0.1111111
        k(   11) = (   0.0599273   0.0345990   0.0000000), wk =   0.1111111
        k(   12) = (   0.0599273   0.0691980   0.0000000), wk =   0.1111111
        k(   13) = (   0.0599273   0.1037971   0.0000000), wk =   0.1111111
        k(   14) = (   0.0599273  -0.0691980   0.0000000), wk =   0.1111111
        k(   15) = (   0.0599273  -0.0345990   0.0000000), wk =   0.1111111
        k(   16) = (   0.0599273   0.0000000   0.0000000), wk =   0.1111111
        k(   17) = (  -0.0898909  -0.0518985   0.0000000), wk =   0.0555556
        k(   18) = (  -0.0898909  -0.0172995   0.0000000), wk =   0.1111111
        k(   19) = (  -0.0898909   0.0172995   0.0000000), wk =   0.1111111
        k(   20) = (  -0.0898909  -0.1556956   0.0000000), wk =   0.0555556

     Largest allocated arrays     est. size (Mb)     dimensions
     Largest temporary arrays     est. size (Mb)     dimensions

     Initial potential from superposition of free atoms
     Check: negative starting charge=   -1.112648

     starting charge  178.49147, renormalised to  183.00000

[...]

     *
     * You are using vdW-DF for exchange-correlation in this calculation.
     * Please cite the following three references that made this development
     * possible:
     *
     *   M. Dion, H. Rydberg, E. Schroder, D. C. Langreth, and
     *   B. I. Lundqvist, Phys. Rev. Lett. 92, 246401 (2004).
     *
     *   T. Thonhauser, V. R. Cooper, S. Li, A. Puzder, P. Hyldgaard, and
     *   D. C. Langreth, Phys. Rev. B 76, 125112 (2007).
     *
     *   G. Roman-Perez and J. M. Soler, Phys. Rev. Lett. 103, 096102 (2009).
     *
     *
     * If you are using vdW-DF2, please also cite:
     *
     *   K. Lee, E. D. Murray, L. Kong, B. I. Lundqvist, and
     *   D. C. Langreth, Phys. Rev. B 82, 081101(R) (2010).
     *
     *
     * If you are calculating the stress with vdW-DF, please also cite:
     *
     *   R. Sabatini, E. Kucukbenli, B. Kolb, T. Thonhauser, and
     *   S. de Gironcoli, J. Phys.: Condens. Matter 24, 424209 (2012).
     *

     Carrying out vdW-DF run using the following parameters:

     Nqs =      20    Nr_points =    1024   r_max =   100.000
     q_mesh =
               0.00001000     0.04494208     0.09755937     0.15916263
               0.23128650     0.31572767     0.41458969     0.53033537
               0.66584808     0.82450364     1.01025438     1.22772762
               1.48234092     1.78043706     2.12944203     2.53805004
               3.01644009     3.57652955     4.23227104     5.00000000

     Gradients computed in reciprocal space

[...]

     Starting wfc are  156 randomized atomic wfcs

     Self-consistent Calculation

[...]

     total energy              =   -2153.70033931 Ry
     Harris-Foulkes estimate   =   -2153.70033796 Ry
     estimated scf accuracy    <       0.00000152 Ry

     iteration # 16     ecut=    36.75 Ry     beta=0.10
     Davidson diagonalization with overlap
     ethr =  8.29E-10,  avg # of iterations =  2.0

[...]

     negative rho (up, down):  1.118E+00 0.000E+00

     Adding external electric field

     Computed dipole along edir(3) :
        Dipole                0.0280 Ry au,          0.0713 Debye
        Dipole field          0.0001 Ry au

        Potential amp.       -0.0072 Ry
        Total length         45.2175 bohr

     End of self-consistent calculation

[...]

          k = 0.0599 0.0000 0.0000 ( 16646 PWs)   bands (ev):

[...]

          k =-0.0899-0.1557 0.0000 ( 16676 PWs)   bands (ev):

   -83.8575 -83.8461 -83.8346 -83.4861 -83.4750 -83.4676 -83.4642 -83.4567
   -83.4457 -52.6565 -52.4970 -52.4243 -43.3976 -43.2988 -43.2462 -43.2314
   -43.1615 -43.1497 -43.1113 -43.1062 -42.9643 -42.9265 -42.9157 -42.8184
   -42.7730 -42.7577 -42.7449 -42.7316 -42.7261 -42.7126 -42.7007 -42.6841
   -42.6776 -42.6709 -42.6645 -42.6561 -42.6367 -42.5320 -42.5083 -28.8050
   -28.6471 -28.6131 -28.5928 -28.5350 -28.5134 -28.4906 -28.4653 -28.4147
    -4.1252  -3.7563  -2.5085  -2.4576  -2.2437  -2.2186  -2.0763  -2.0278
    -1.9679  -1.5899  -1.5197  -1.3409  -1.3151  -1.0075  -0.9719  -0.8163
    -0.7866  -0.6064  -0.4590  -0.2276  -0.1358   0.0232   0.3598   0.4817
     0.5016   0.5750   0.6760   0.6903   0.7505   0.7956   0.8887   0.9970
     1.0632   1.0745   1.3434   1.3932   1.4262   1.6869   1.7291   2.0024
     2.0607   2.1165   2.1836   2.5456   2.8076   2.8584   2.8976   2.9173
     3.4497   3.4827   3.5817   3.7560   3.8323   4.1774   4.2519   4.4283
     4.5914   4.8658   5.0420   5.0735   5.1226   5.8834   6.0135   6.0451
     6.2814   6.6940   7.1034   7.6122   7.8470   8.1350   8.4772   8.5719
     8.5951

     the Fermi energy is     2.7501 ev

!    total energy              =   -2153.70034388 Ry
     Harris-Foulkes estimate   =   -2153.70034013 Ry
     estimated scf accuracy    <       0.00000061 Ry

     The total energy is the sum of the following terms:

     one-electron contribution =  -18792.28834937 Ry
     hartree contribution      =    9381.81956201 Ry
     xc contribution           =    -405.51802558 Ry
     ewald contribution        =    7662.36098132 Ry
     electric field correction =       0.00000223 Ry
     smearing contrib. (-TS)   =      -0.07451448 Ry

     convergence has been achieved in  16 iterations

 BEEF-vdW xc energy contributions
           1 :   -354.325822307920
           2 :    327.644325652411
           3 :   -280.697951042532
           4 :    223.970531324944
           5 :   -168.616002968494
           6 :    123.288718118302
           7 :   -92.2245657896170
           8 :    74.9675228984302
           9 :   -67.5857598898967
          10 :    64.7306690968165
          11 :   -61.7216505461768
          12 :    55.9297843105161
          13 :   -47.1205058535598
          14 :    36.8419426691813
          15 :   -27.2983549771403
          16 :    20.2418164312796
          17 :   -16.3078530534784
          18 :    14.9530758444012
          19 :   -14.8960221203678
          20 :    14.7772805049713
          21 :   -13.7289846733059
          22 :    11.6282980885571
          23 :   -8.98629871515368
          24 :    6.58242087466601
          25 :   -5.04926220901069
          26 :    4.59518865174135
          27 :   -4.96552848282818
          28 :    5.61883712954312
          29 :   -6.00780164343513
          30 :    5.82121189227547
          31 :   -34.5284913090163
          32 :   -26.3245617814121

     Forces acting on atoms (Ry/au):

     negative rho (up, down):  1.118E+00 0.000E+00
     atom    1 type  1   force =     0.00000113   -0.00404260    0.02206184
     atom    2 type  1   force =    -0.00350071    0.00202220    0.02206188
     atom    3 type  1   force =     0.00350099    0.00202094    0.02206161
     atom    4 type  2   force =     0.00000030   -0.00000000    0.01934600
     atom    5 type  1   force =    -0.00000148    0.00461177   -0.02376637
     atom    6 type  1   force =     0.00399274   -0.00230695   -0.02376824
     atom    7 type  1   force =    -0.00399459   -0.00230550   -0.02376776
     atom    8 type  2   force =     0.00000109   -0.00000026   -0.02002602
     atom    9 type  1   force =     0.00000273    0.00095834    0.00131857
     atom   10 type  1   force =     0.00083054   -0.00047678    0.00131455
     atom   11 type  1   force =    -0.00083119   -0.00048032    0.00132040
     atom   12 type  2   force =    -0.00000156   -0.00000083    0.00184353

     Total force =     0.063674     Total SCF correction =     0.005057

     entering subroutine stress ...

     negative rho (up, down):  1.118E+00 0.000E+00
          total   stress  (Ry/bohr**3)                   (kbar)     P=  -25.42
  -0.00021500  -0.00000000   0.00000000        -31.63     -0.00      0.00
  -0.00000000  -0.00021500   0.00000000         -0.00    -31.63      0.00
   0.00000000   0.00000000  -0.00008841          0.00      0.00    -13.01

 !ASE

     Writing output data file calc.save

     General routines

     Parallel routines

   This run was terminated on:   8:37:57  31Dec2018

   JOB DONE.
Job  /afs/slac/g/suncat/bin/suncat-tsmpirun -x LD_LIBRARY_PATH -wdir /scratch/qe648706_03GOI pw.x -in pw.inp

TID   HOST_NAME   COMMAND_LINE            STATUS            TERMINATION_TIME
00000 suncat0056 pw.x -in pw.inp   Done                     12/31/2018 08:37:57
00001 suncat0056 pw.x -in pw.inp   Done                     12/31/2018 08:37:57
00002 suncat0056 pw.x -in pw.inp   Done                     12/31/2018 08:37:57
00003 suncat0056 pw.x -in pw.inp   Done                     12/31/2018 08:37:57
00004 suncat0056 pw.x -in pw.inp   Done                     12/31/2018 08:37:57
00005 suncat0056 pw.x -in pw.inp   Done                     12/31/2018 08:37:57
00006 suncat0056 pw.x -in pw.inp   Done                     12/31/2018 08:37:57
00007 suncat0056 pw.x -in pw.inp   Done                     12/31/2018 08:37:57
00008 suncat0052 pw.x -in pw.inp   Done                     12/31/2018 08:37:57
00009 suncat0052 pw.x -in pw.inp   Done                     12/31/2018 08:37:57
00010 suncat0052 pw.x -in pw.inp   Done                     12/31/2018 08:37:57
00011 suncat0052 pw.x -in pw.inp   Done                     12/31/2018 08:37:57
00012 suncat0052 pw.x -in pw.inp   Done                     12/31/2018 08:37:57
00013 suncat0052 pw.x -in pw.inp   Done                     12/31/2018 08:37:57
00014 suncat0052 pw.x -in pw.inp   Done                     12/31/2018 08:37:57
00015 suncat0052 pw.x -in pw.inp   Done                     12/31/2018 08:37:57
00016 suncat0048 pw.x -in pw.inp   Done                     12/31/2018 08:37:57
00017 suncat0048 pw.x -in pw.inp   Done                     12/31/2018 08:37:57
00018 suncat0048 pw.x -in pw.inp   Done                     12/31/2018 08:37:57
00019 suncat0048 pw.x -in pw.inp   Done                     12/31/2018 08:37:57
00020 suncat0048 pw.x -in pw.inp   Done                     12/31/2018 08:37:57
00021 suncat0048 pw.x -in pw.inp   Done                     12/31/2018 08:37:57
00022 suncat0048 pw.x -in pw.inp   Done                     12/31/2018 08:37:57
00023 suncat0048 pw.x -in pw.inp   Done                     12/31/2018 08:37:57
00024 suncat0047 pw.x -in pw.inp   Done                     12/31/2018 08:37:57
00025 suncat0047 pw.x -in pw.inp   Done                     12/31/2018 08:37:57
00026 suncat0047 pw.x -in pw.inp   Done                     12/31/2018 08:37:57
00027 suncat0047 pw.x -in pw.inp   Done                     12/31/2018 08:37:57
00028 suncat0047 pw.x -in pw.inp   Done                     12/31/2018 08:37:57
00029 suncat0047 pw.x -in pw.inp   Done                     12/31/2018 08:37:57
00030 suncat0047 pw.x -in pw.inp   Done                     12/31/2018 08:37:57
00031 suncat0047 pw.x -in pw.inp   Done                     12/31/2018 08:37:57
00032 suncat0041 pw.x -in pw.inp   Done                     12/31/2018 08:37:57
00033 suncat0041 pw.x -in pw.inp   Done                     12/31/2018 08:37:57
00034 suncat0041 pw.x -in pw.inp   Done                     12/31/2018 08:37:57
00035 suncat0041 pw.x -in pw.inp   Done                     12/31/2018 08:37:57
00036 suncat0041 pw.x -in pw.inp   Done                     12/31/2018 08:37:57
00037 suncat0041 pw.x -in pw.inp   Done                     12/31/2018 08:37:57
00038 suncat0041 pw.x -in pw.inp   Done                     12/31/2018 08:37:57
00039 suncat0041 pw.x -in pw.inp   Done                     12/31/2018 08:37:57
00040 suncat0039 pw.x -in pw.inp   Done                     12/31/2018 08:37:57
00041 suncat0039 pw.x -in pw.inp   Done                     12/31/2018 08:37:57
00042 suncat0039 pw.x -in pw.inp   Done                     12/31/2018 08:37:57
00043 suncat0039 pw.x -in pw.inp   Done                     12/31/2018 08:37:57
00044 suncat0039 pw.x -in pw.inp   Done                     12/31/2018 08:37:57
00045 suncat0039 pw.x -in pw.inp   Done                     12/31/2018 08:37:57
00046 suncat0039 pw.x -in pw.inp   Done                     12/31/2018 08:37:57
00047 suncat0039 pw.x -in pw.inp   Done                     12/31/2018 08:37:57
00048 suncat0207 pw.x -in pw.inp   Done                     12/31/2018 08:37:57
00049 suncat0207 pw.x -in pw.inp   Done                     12/31/2018 08:37:57
00050 suncat0207 pw.x -in pw.inp   Done                     12/31/2018 08:37:57
00051 suncat0207 pw.x -in pw.inp   Done                     12/31/2018 08:37:57
00052 suncat0207 pw.x -in pw.inp   Done                     12/31/2018 08:37:57
00053 suncat0207 pw.x -in pw.inp   Done                     12/31/2018 08:37:57
00054 suncat0207 pw.x -in pw.inp   Done                     12/31/2018 08:37:57
00055 suncat0207 pw.x -in pw.inp   Done                     12/31/2018 08:37:57
00056 suncat0206 pw.x -in pw.inp   Done                     12/31/2018 08:37:57
00057 suncat0206 pw.x -in pw.inp   Done                     12/31/2018 08:37:57
00058 suncat0206 pw.x -in pw.inp   Done                     12/31/2018 08:37:57
00059 suncat0206 pw.x -in pw.inp   Done                     12/31/2018 08:37:57
00060 suncat0206 pw.x -in pw.inp   Done                     12/31/2018 08:37:57
00061 suncat0206 pw.x -in pw.inp   Done                     12/31/2018 08:37:57
00062 suncat0206 pw.x -in pw.inp   Done                     12/31/2018 08:37:57
00063 suncat0206 pw.x -in pw.inp   Done                     12/31/2018 08:37:57