     Program PWSCF v.5.1rc2 (svn rev. 11289) starts on 31Dec2018 at 13: 7:19

     Current dimensions of program PWSCF are:
     Max number of different atomic species (ntypx) = 10
     Max number of k-points (npk) =  40000
     Max angular momentum in pseudopotentials (lmaxx) =  3
     Presently stress not available with electric field

     IMPORTANT: XC functional enforced from input :
     Exchange-correlation      = BEEF-VDW ( 1  4 27 13 2)
     Any further DFT definition will be discarded
     Please, verify this is what you really want

     Subspace diagonalization in iterative solution of the eigenvalue problem:
     a serial algorithm will be used

     Generating pointlists ...
     new r_m :   0.4125 (alat units)  0.7795 (a.u.) for type    1
     new r_m :   0.4125 (alat units)  0.7795 (a.u.) for type    2

     bravais-lattice index     =            0
     lattice parameter (alat)  =       1.8897  a.u.
     unit-cell volume          =    4503.1797 (a.u.)^3
     number of atoms/cell      =           12
     number of atomic types    =            2
     number of electrons       =       189.00
     number of Kohn-Sham states=          124
     kinetic-energy cutoff     =      36.7493  Ry
     charge density cutoff     =     367.4932  Ry
     convergence threshold     =      1.0E-06
     mixing beta               =       0.1000
     number of iterations used =           10  plain     mixing
     Exchange-correlation      = BEEF-VDW ( 1  4 27 13 2)
     nstep                     =           50

     celldm(1)=   1.889726  celldm(2)=   0.000000  celldm(3)=   0.000000
     celldm(4)=   0.000000  celldm(5)=   0.000000  celldm(6)=   0.000000

     crystal axes: (cart. coord. in units of alat)
               a(1) = (   5.599816   0.000000   0.000000 )
               a(2) = (  -2.799908   4.849583   0.000000 )
               a(3) = (   0.000000   0.000000  24.572230 )

     reciprocal axes: (cart. coord. in units 2 pi/alat)
               b(1) = (  0.178577  0.103102  0.000000 )
               b(2) = (  0.000000  0.206203  0.000000 )
               b(3) = (  0.000000  0.000000  0.040696 )

     PseudoPot. # 1 for Pd read from file:
     /afs/slac.stanford.edu/u/if/mamunm/psp/gbrv1.5pbe/Pd.UPF
     MD5 check sum: 2d733d2bc2cbfd217af676df1668a4bc
     Pseudo is Ultrasoft + core correction, Zval = 16.0
     Generated by new atomic code, or converted to UPF format
     Using radial grid of  887 points,  6 beta functions with:
                l(1) =   0
                l(2) =   0
                l(3) =   1
                l(4) =   1
                l(5) =   2
                l(6) =   2
     Q(r) pseudized with  8 coefficients,  rinner =    1.130   1.130   1.130
                                                       1.130   1.130

     PseudoPot. # 2 for Mn read from file:
     /afs/slac.stanford.edu/u/if/mamunm/psp/gbrv1.5pbe/Mn.UPF
     MD5 check sum: 82ef2b46521d7a7d9e736dc3972e4928
     Pseudo is Ultrasoft + core correction, Zval = 15.0
     Generated by new atomic code, or converted to UPF format
     Using radial grid of  859 points,  6 beta functions with:
                l(1) =   0
                l(2) =   0
                l(3) =   1
                l(4) =   1
                l(5) =   2
                l(6) =   2
     Q(r) pseudized with  8 coefficients,  rinner =    0.950   0.950   0.950
                                                       0.950   0.950

     vdW kernel table read from file vdW_kernel_table
     MD5 check sum: 095c7af220d748ca6e76c0b4c6cfb241

     atomic species   valence    mass     pseudopotential
        Pd1           16.00   106.42000     Pd( 1.00)
        Mn1           15.00    54.93804     Mn( 1.00)

     Starting magnetic structure
     atomic species   magnetization
        Pd1          0.125
        Mn1          0.133

     No symmetry found

   Cartesian axes

     site n.     atom                  positions (alat units)
         1           Pd1 tau(   1) = (   0.0000000   0.0000000  10.0000000  )
         2           Pd1 tau(   2) = (  -1.3999539   2.4247913  10.0000000  )
         3           Pd1 tau(   3) = (   1.3999539   2.4247913  10.0000000  )
         4           Mn1 tau(   4) = (   2.7999079   0.0000000  10.0000000  )
         5           Pd1 tau(   5) = (   2.7999079   1.6165276  12.2861152  )
         6           Pd1 tau(   6) = (   1.3999539   4.0413189  12.2861152  )
         7           Pd1 tau(   7) = (  -1.3999539   4.0413189  12.2861152  )
         8           Mn1 tau(   8) = (  -0.0000000   1.6165276  12.2861152  )
         9           Pd1 tau(   9) = (  -0.0000000   3.2330551  14.5722304  )
        10           Pd1 tau(  10) = (   1.3999539   0.8082638  14.5722304  )
        11           Pd1 tau(  11) = (   4.1998618   0.8082638  14.5722304  )
        12           Mn1 tau(  12) = (   2.7999079   3.2330551  14.5722304  )

     number of k points=    40  Fermi-Dirac smearing, width (Ry)=  0.0110
                       cart. coord. in units 2pi/alat
        k(    1) = (   0.0000000   0.0000000   0.0000000), wk =   0.0277778
        k(    2) = (   0.0000000   0.0343672   0.0000000), wk =   0.0555556
        k(    3) = (   0.0000000   0.0687344   0.0000000), wk =   0.0555556
        k(    4) = (   0.0000000  -0.1031017   0.0000000), wk =   0.0277778
        k(    5) = (   0.0297629   0.0171836   0.0000000), wk =   0.0555556
        k(    6) = (   0.0297629   0.0515508   0.0000000), wk =   0.0555556
        k(    7) = (   0.0297629   0.0859180   0.0000000), wk =   0.0555556
        k(    8) = (   0.0297629  -0.0859180   0.0000000), wk =   0.0555556
        k(    9) = (   0.0297629  -0.0515508   0.0000000), wk =   0.0555556
        k(   10) = (   0.0297629  -0.0171836   0.0000000), wk =   0.0555556
        k(   11) = (   0.0595258   0.0343672   0.0000000), wk =   0.0555556
        k(   12) = (   0.0595258   0.0687344   0.0000000), wk =   0.0555556
        k(   13) = (   0.0595258   0.1031017   0.0000000), wk =   0.0555556
        k(   14) = (   0.0595258  -0.0687344   0.0000000), wk =   0.0555556
        k(   15) = (   0.0595258  -0.0343672   0.0000000), wk =   0.0555556
        k(   16) = (   0.0595258   0.0000000   0.0000000), wk =   0.0555556
        k(   17) = (  -0.0892887  -0.0515508   0.0000000), wk =   0.0277778
        k(   18) = (  -0.0892887  -0.0171836   0.0000000), wk =   0.0555556
        k(   19) = (  -0.0892887   0.0171836   0.0000000), wk =   0.0555556
        k(   20) = (  -0.0892887  -0.1546525   0.0000000), wk =   0.0277778
        k(   21) = (   0.0000000   0.0000000   0.0000000), wk =   0.0277778
        k(   22) = (   0.0000000   0.0343672   0.0000000), wk =   0.0555556
        k(   23) = (   0.0000000   0.0687344   0.0000000), wk =   0.0555556
        k(   24) = (   0.0000000  -0.1031017   0.0000000), wk =   0.0277778
        k(   25) = (   0.0297629   0.0171836   0.0000000), wk =   0.0555556
        k(   26) = (   0.0297629   0.0515508   0.0000000), wk =   0.0555556
        k(   27) = (   0.0297629   0.0859180   0.0000000), wk =   0.0555556
        k(   28) = (   0.0297629  -0.0859180   0.0000000), wk =   0.0555556
        k(   29) = (   0.0297629  -0.0515508   0.0000000), wk =   0.0555556
        k(   30) = (   0.0297629  -0.0171836   0.0000000), wk =   0.0555556
        k(   31) = (   0.0595258   0.0343672   0.0000000), wk =   0.0555556
        k(   32) = (   0.0595258   0.0687344   0.0000000), wk =   0.0555556
        k(   33) = (   0.0595258   0.1031017   0.0000000), wk =   0.0555556
        k(   34) = (   0.0595258  -0.0687344   0.0000000), wk =   0.0555556
        k(   35) = (   0.0595258  -0.0343672   0.0000000), wk =   0.0555556
        k(   36) = (   0.0595258   0.0000000   0.0000000), wk =   0.0555556
        k(   37) = (  -0.0892887  -0.0515508   0.0000000), wk =   0.0277778
        k(   38) = (  -0.0892887  -0.0171836   0.0000000), wk =   0.0555556
        k(   39) = (  -0.0892887   0.0171836   0.0000000), wk =   0.0555556
        k(   40) = (  -0.0892887  -0.1546525   0.0000000), wk =   0.0277778

     Largest allocated arrays     est. size (Mb)     dimensions
     Largest temporary arrays     est. size (Mb)     dimensions

     Check: negative/imaginary core charge=   -0.000003    0.000000

     Initial potential from superposition of free atoms
     Check: negative starting charge=(component1):   -0.382174
     Check: negative starting charge=(component2):   -0.297243

     starting charge  182.99968, renormalised to  189.00000

     negative rho (up, down):  3.947E-01 3.070E-01

     *
     * You are using vdW-DF for exchange-correlation in this calculation.
     * Please cite the following three references that made this development
     * possible:
     *
     *   M. Dion, H. Rydberg, E. Schroder, D. C. Langreth, and
     *   B. I. Lundqvist, Phys. Rev. Lett. 92, 246401 (2004).
     *
     *   T. Thonhauser, V. R. Cooper, S. Li, A. Puzder, P. Hyldgaard, and
     *   D. C. Langreth, Phys. Rev. B 76, 125112 (2007).
     *
     *   G. Roman-Perez and J. M. Soler, Phys. Rev. Lett. 103, 096102 (2009).
     *
     *
     * If you are using vdW-DF2, please also cite:
     *
     *   K. Lee, E. D. Murray, L. Kong, B. I. Lundqvist, and
     *   D. C. Langreth, Phys. Rev. B 82, 081101(R) (2010).
     *
     *
     * If you are calculating the stress with vdW-DF, please also cite:
     *
     *   R. Sabatini, E. Kucukbenli, B. Kolb, T. Thonhauser, and
     *   S. de Gironcoli, J. Phys.: Condens. Matter 24, 424209 (2012).
     *

     Carrying out vdW-DF run using the following parameters:

     Nqs =      20    Nr_points =    1024   r_max =   100.000
     q_mesh =
               0.00001000     0.04494208     0.09755937     0.15916263
               0.23128650     0.31572767     0.41458969     0.53033537
               0.66584808     0.82450364     1.01025438     1.22772762
               1.48234092     1.78043706     2.12944203     2.53805004
               3.01644009     3.57652955     4.23227104     5.00000000

     Gradients computed in reciprocal space

     Adding external electric field

     Computed dipole along edir(3) :
        Dipole                0.0000 Ry au,          0.0000 Debye
        Dipole field          0.0000 Ry au

        Potential amp.       -0.0000 Ry
        Total length         45.2739 bohr

[...]

     Starting wfc are  147 randomized atomic wfcs

     Self-consistent Calculation

     iteration #  1     ecut=    36.75 Ry     beta=0.10
     Davidson diagonalization with overlap
     ethr =  1.00E-02,  avg # of iterations =  7.4

[...]

     Magnetic moment per site:
     atom:    1    charge:    3.3353    magn:    0.4023    constr:    0.0000
     atom:    2    charge:    3.3353    magn:    0.4023    constr:    0.0000
     atom:    3    charge:    3.3353    magn:    0.4023    constr:    0.0000
     atom:    4    charge:    6.1773    magn:    0.8033    constr:    0.0000
     atom:    5    charge:    3.3323    magn:    0.4017    constr:    0.0000
     atom:    6    charge:    3.3323    magn:    0.4017    constr:    0.0000
     atom:    7    charge:    3.3323    magn:    0.4017    constr:    0.0000
     atom:    8    charge:    6.1679    magn:    0.8075    constr:    0.0000
[...]
        k(    4) = (   0.0000000  -0.1031017   0.0000000), wk =   0.0277778
        k(    5) = (   0.0297629   0.0171836   0.0000000), wk =   0.0555556
        k(    6) = (   0.0297629   0.0515508   0.0000000), wk =   0.0555556
        k(    7) = (   0.0297629   0.0859180   0.0000000), wk =   0.0555556
        k(    8) = (   0.0297629  -0.0859180   0.0000000), wk =   0.0555556
        k(    9) = (   0.0297629  -0.0515508   0.0000000), wk =   0.0555556
        k(   10) = (   0.0297629  -0.0171836   0.0000000), wk =   0.0555556
        k(   11) = (   0.0595258   0.0343672   0.0000000), wk =   0.0555556
        k(   12) = (   0.0595258   0.0687344   0.0000000), wk =   0.0555556
        k(   13) = (   0.0595258   0.1031017   0.0000000), wk =   0.0555556
        k(   14) = (   0.0595258  -0.0687344   0.0000000), wk =   0.0555556
        k(   15) = (   0.0595258  -0.0343672   0.0000000), wk =   0.0555556
        k(   16) = (   0.0595258   0.0000000   0.0000000), wk =   0.0555556
        k(   17) = (  -0.0892887  -0.0515508   0.0000000), wk =   0.0277778
        k(   18) = (  -0.0892887  -0.0171836   0.0000000), wk =   0.0555556
        k(   19) = (  -0.0892887   0.0171836   0.0000000), wk =   0.0555556
        k(   20) = (  -0.0892887  -0.1546525   0.0000000), wk =   0.0277778
        k(   21) = (   0.0000000   0.0000000   0.0000000), wk =   0.0277778
        k(   22) = (   0.0000000   0.0343672   0.0000000), wk =   0.0555556
        k(   23) = (   0.0000000   0.0687344   0.0000000), wk =   0.0555556
        k(   24) = (   0.0000000  -0.1031017   0.0000000), wk =   0.0277778
        k(   25) = (   0.0297629   0.0171836   0.0000000), wk =   0.0555556
        k(   26) = (   0.0297629   0.0515508   0.0000000), wk =   0.0555556
        k(   27) = (   0.0297629   0.0859180   0.0000000), wk =   0.0555556
        k(   28) = (   0.0297629  -0.0859180   0.0000000), wk =   0.0555556
        k(   29) = (   0.0297629  -0.0515508   0.0000000), wk =   0.0555556
        k(   30) = (   0.0297629  -0.0171836   0.0000000), wk =   0.0555556
        k(   31) = (   0.0595258   0.0343672   0.0000000), wk =   0.0555556
        k(   32) = (   0.0595258   0.0687344   0.0000000), wk =   0.0555556
        k(   33) = (   0.0595258   0.1031017   0.0000000), wk =   0.0555556
        k(   34) = (   0.0595258  -0.0687344   0.0000000), wk =   0.0555556
        k(   35) = (   0.0595258  -0.0343672   0.0000000), wk =   0.0555556
        k(   36) = (   0.0595258   0.0000000   0.0000000), wk =   0.0555556
        k(   37) = (  -0.0892887  -0.0515508   0.0000000), wk =   0.0277778
        k(   38) = (  -0.0892887  -0.0171836   0.0000000), wk =   0.0555556
        k(   39) = (  -0.0892887   0.0171836   0.0000000), wk =   0.0555556
        k(   40) = (  -0.0892887  -0.1546525   0.0000000), wk =   0.0277778

     Largest allocated arrays     est. size (Mb)     dimensions
     Largest temporary arrays     est. size (Mb)     dimensions

     Check: negative/imaginary core charge=   -0.000003    0.000000

     Initial potential from superposition of free atoms
     Check: negative starting charge=(component1):   -0.381944
     Check: negative starting charge=(component2):   -0.297063

     starting charge  182.99968, renormalised to  189.00000

[...]

     *
     * You are using vdW-DF for exchange-correlation in this calculation.
     * Please cite the following three references that made this development
     * possible:
     *
     *   M. Dion, H. Rydberg, E. Schroder, D. C. Langreth, and
     *   B. I. Lundqvist, Phys. Rev. Lett. 92, 246401 (2004).
     *
     *   T. Thonhauser, V. R. Cooper, S. Li, A. Puzder, P. Hyldgaard, and
     *   D. C. Langreth, Phys. Rev. B 76, 125112 (2007).
     *
     *   G. Roman-Perez and J. M. Soler, Phys. Rev. Lett. 103, 096102 (2009).
     *
     *
     * If you are using vdW-DF2, please also cite:
     *
     *   K. Lee, E. D. Murray, L. Kong, B. I. Lundqvist, and
     *   D. C. Langreth, Phys. Rev. B 82, 081101(R) (2010).
     *
     *
     * If you are calculating the stress with vdW-DF, please also cite:
     *
     *   R. Sabatini, E. Kucukbenli, B. Kolb, T. Thonhauser, and
     *   S. de Gironcoli, J. Phys.: Condens. Matter 24, 424209 (2012).
     *

     Carrying out vdW-DF run using the following parameters:

     Nqs =      20    Nr_points =    1024   r_max =   100.000
     q_mesh =
               0.00001000     0.04494208     0.09755937     0.15916263
               0.23128650     0.31572767     0.41458969     0.53033537
               0.66584808     0.82450364     1.01025438     1.22772762
               1.48234092     1.78043706     2.12944203     2.53805004
               3.01644009     3.57652955     4.23227104     5.00000000

     Gradients computed in reciprocal space

[...]

     Starting wfc are  147 randomized atomic wfcs

     Self-consistent Calculation

[...]

     total energy              =   -2434.60553505 Ry
     Harris-Foulkes estimate   =   -2434.60553411 Ry
     estimated scf accuracy    <       0.00000137 Ry

[...]

     iteration # 23     ecut=    36.75 Ry     beta=0.10
     Davidson diagonalization with overlap
     ethr =  7.23E-10,  avg # of iterations =  2.0

[...]

     negative rho (up, down):  3.555E-01 3.536E-01

[...]

     Adding external electric field

     Computed dipole along edir(3) :
        Dipole               -0.0092 Ry au,         -0.0235 Debye
        Dipole field         -0.0000 Ry au

        Potential amp.        0.0023 Ry
        Total length         45.2739 bohr

     Magnetic moment per site:
     atom:    1    charge:    3.3028    magn:    0.0291    constr:    0.0000
     atom:    2    charge:    3.3028    magn:    0.0291    constr:    0.0000
     atom:    3    charge:    3.3028    magn:    0.0291    constr:    0.0000
     atom:    4    charge:    6.0163    magn:    1.6894    constr:    0.0000
     atom:    5    charge:    3.3027    magn:    0.0396    constr:    0.0000
     atom:    6    charge:    3.3027    magn:    0.0396    constr:    0.0000
     atom:    7    charge:    3.3027    magn:    0.0396    constr:    0.0000
     atom:    8    charge:    6.0103    magn:    1.6479    constr:    0.0000
     atom:    9    charge:    3.3012    magn:    0.0290    constr:    0.0000
     atom:   10    charge:    3.3012    magn:    0.0290    constr:    0.0000
     atom:   11    charge:    3.3012    magn:    0.0290    constr:    0.0000
     atom:   12    charge:    6.0119    magn:    1.6821    constr:    0.0000

     End of self-consistent calculation

 ------ SPIN UP ------------

[...]

 ------ SPIN DOWN ----------

[...]

          k = 0.0595 0.0000 0.0000 ( 16934 PWs)   bands (ev):

[...]

          k =-0.0893-0.1547 0.0000 ( 16944 PWs)   bands (ev):

   -76.0484 -76.0209 -75.8230 -48.8696 -48.8022 -48.7984 -48.7843 -48.7783
   -48.7768 -48.7658 -48.7625 -48.6850 -48.6391 -48.6222 -48.5819 -48.5726
   -48.5693 -48.5643 -48.5626 -48.5484 -48.5375 -48.5220 -48.4576 -48.4449
   -48.4048 -48.3995 -48.3907 -48.3878 -48.3770 -48.3727 -44.8431 -44.8252
   -44.8233 -44.8132 -44.8001 -44.7983 -44.6158 -44.6140 -44.5772  -3.6555
    -3.4944  -2.8886  -2.7963  -2.7844  -2.6233  -2.5545  -2.4806  -2.4374
    -2.2771  -2.2467  -2.2170  -2.1010  -1.9652  -1.9396  -1.8999  -1.8730
    -1.8304  -1.6282  -1.4958  -1.3014  -1.2465  -1.1657  -1.1573  -1.0976
    -1.0053  -0.9696  -0.9092  -0.9037  -0.8944  -0.8642  -0.8346  -0.7636
    -0.7442  -0.6073  -0.5501  -0.4348  -0.3952  -0.3343  -0.2628  -0.1932
    -0.1464  -0.0647  -0.0331   0.2935   0.4382   0.6092   0.7570   0.8039
     1.0465   1.5244   1.5587   2.1814   2.2180   2.3639   2.4545   2.4614
     2.5546   2.6328   2.6600   2.7525   2.8783   2.9189   3.2134   3.3773
     3.4263   3.6895   4.4263   4.4282   4.8524   5.3019   5.4158   6.3590
     6.4771   6.7663   6.7746   7.3381   7.3476   7.4515   7.4534   8.5608
     8.5662   8.5780   8.6151   9.1295

     the Fermi energy is     0.9964 ev

!    total energy              =   -2434.60553746 Ry
     Harris-Foulkes estimate   =   -2434.60553541 Ry
     estimated scf accuracy    <       0.00000043 Ry

     The total energy is the sum of the following terms:

     one-electron contribution =  -19971.10465884 Ry
     hartree contribution      =   10020.81924495 Ry
     xc contribution           =    -375.95020186 Ry
     ewald contribution        =    7891.68851272 Ry
     electric field correction =       0.00000024 Ry
     smearing contrib. (-TS)   =      -0.05843466 Ry

     total magnetization       =    14.41 Bohr mag/cell
     absolute magnetization    =    14.85 Bohr mag/cell

     convergence has been achieved in  23 iterations

 BEEF-vdW xc energy contributions
           1 :   -327.647163799620
           2 :    298.537455330514
           3 :   -249.373317382803
           4 :    193.859884010317
           5 :   -144.555734420048
           6 :    108.783360233227
           7 :   -87.6158733084280
           8 :    77.4221907596211
           9 :   -72.6168636252527
          10 :    68.2980589395448
          11 :   -61.9122860327212
          12 :    53.5699328088489
          13 :   -45.1530950297599
          14 :    38.7817335098540
          15 :   -35.4595519646995
          16 :    34.5881238079039
          17 :   -34.5307408150728
          18 :    33.7365953203618
          19 :   -31.6231354535669
          20 :    28.6819544819926
          21 :   -25.9079283212783
          22 :    24.0697241593945
          23 :   -23.3046090090124
          24 :    23.1713119400246
          25 :   -23.0034440014147
          26 :    22.3006069089687
          27 :   -20.9671964909782
          28 :    19.3132880263977
          29 :   -17.8420078964405
          30 :    16.9319737509051
          31 :   -31.2275670466751
          32 :   -22.8269716529114

     Forces acting on atoms (Ry/au):

     negative rho (up, down):  3.555E-01 3.536E-01
     atom    1 type  1   force =    -0.00000017    0.00706874   -0.00264934
     atom    2 type  1   force =     0.00612173   -0.00353470   -0.00264939
     atom    3 type  1   force =    -0.00612181   -0.00353436   -0.00264918
     atom    4 type  2   force =     0.00000013    0.00000038    0.00764695
     atom    5 type  1   force =    -0.00000006   -0.00296804    0.00032085
     atom    6 type  1   force =    -0.00257034    0.00148406    0.00032035
     atom    7 type  1   force =     0.00257032    0.00148404    0.00032069
     atom    8 type  2   force =     0.00000012   -0.00000005    0.00101359
     atom    9 type  1   force =    -0.00000028    0.00038160   -0.00040360
     atom   10 type  1   force =     0.00033159   -0.00019072   -0.00040362
     atom   11 type  1   force =    -0.00033132   -0.00019027   -0.00040359
     atom   12 type  2   force =     0.00000010   -0.00000070   -0.00046370

     Total force =     0.016073     Total SCF correction =     0.001843
     SCF correction compared to forces is large: reduce conv_thr to get better values

     entering subroutine stress ...

     negative rho (up, down):  3.555E-01 3.536E-01
          total   stress  (Ry/bohr**3)                   (kbar)     P=   -7.97
  -0.00007238  -0.00000000  -0.00000000        -10.65     -0.00     -0.00
  -0.00000000  -0.00007238  -0.00000000         -0.00    -10.65     -0.00
  -0.00000000  -0.00000000  -0.00001786         -0.00     -0.00     -2.63

 !ASE

     Writing output data file calc.save

     General routines

     Parallel routines

   This run was terminated on:  16:37:48  31Dec2018

   JOB DONE.
Job  /afs/slac/g/suncat/bin/suncat-tsmpirun -x LD_LIBRARY_PATH -wdir /scratch/qe648775_CL1Lv pw.x -in pw.inp

TID   HOST_NAME   COMMAND_LINE            STATUS            TERMINATION_TIME
00000 suncat0056 pw.x -in pw.inp   Done                     12/31/2018 16:37:48
00001 suncat0056 pw.x -in pw.inp   Done                     12/31/2018 16:37:48
00002 suncat0056 pw.x -in pw.inp   Done                     12/31/2018 16:37:48
00003 suncat0056 pw.x -in pw.inp   Done                     12/31/2018 16:37:48
00004 suncat0056 pw.x -in pw.inp   Done                     12/31/2018 16:37:48
00005 suncat0056 pw.x -in pw.inp   Done                     12/31/2018 16:37:48
00006 suncat0056 pw.x -in pw.inp   Done                     12/31/2018 16:37:48
00007 suncat0056 pw.x -in pw.inp   Done                     12/31/2018 16:37:48
00008 suncat0052 pw.x -in pw.inp   Done                     12/31/2018 16:37:48
00009 suncat0052 pw.x -in pw.inp   Done                     12/31/2018 16:37:48
00010 suncat0052 pw.x -in pw.inp   Done                     12/31/2018 16:37:48
00011 suncat0052 pw.x -in pw.inp   Done                     12/31/2018 16:37:48
00012 suncat0052 pw.x -in pw.inp   Done                     12/31/2018 16:37:48
00013 suncat0052 pw.x -in pw.inp   Done                     12/31/2018 16:37:48
00014 suncat0052 pw.x -in pw.inp   Done                     12/31/2018 16:37:48
00015 suncat0052 pw.x -in pw.inp   Done                     12/31/2018 16:37:48
00016 suncat0048 pw.x -in pw.inp   Done                     12/31/2018 16:37:48
00017 suncat0048 pw.x -in pw.inp   Done                     12/31/2018 16:37:48
00018 suncat0048 pw.x -in pw.inp   Done                     12/31/2018 16:37:48
00019 suncat0048 pw.x -in pw.inp   Done                     12/31/2018 16:37:48
00020 suncat0048 pw.x -in pw.inp   Done                     12/31/2018 16:37:48
00021 suncat0048 pw.x -in pw.inp   Done                     12/31/2018 16:37:48
00022 suncat0048 pw.x -in pw.inp   Done                     12/31/2018 16:37:48
00023 suncat0048 pw.x -in pw.inp   Done                     12/31/2018 16:37:48
00024 suncat0047 pw.x -in pw.inp   Done                     12/31/2018 16:37:48
00025 suncat0047 pw.x -in pw.inp   Done                     12/31/2018 16:37:48
00026 suncat0047 pw.x -in pw.inp   Done                     12/31/2018 16:37:48
00027 suncat0047 pw.x -in pw.inp   Done                     12/31/2018 16:37:48
00028 suncat0047 pw.x -in pw.inp   Done                     12/31/2018 16:37:48
00029 suncat0047 pw.x -in pw.inp   Done                     12/31/2018 16:37:48
00030 suncat0047 pw.x -in pw.inp   Done                     12/31/2018 16:37:48
00031 suncat0047 pw.x -in pw.inp   Done                     12/31/2018 16:37:48
00032 suncat0041 pw.x -in pw.inp   Done                     12/31/2018 16:37:48
00033 suncat0041 pw.x -in pw.inp   Done                     12/31/2018 16:37:48
00034 suncat0041 pw.x -in pw.inp   Done                     12/31/2018 16:37:48
00035 suncat0041 pw.x -in pw.inp   Done                     12/31/2018 16:37:48
00036 suncat0041 pw.x -in pw.inp   Done                     12/31/2018 16:37:48
00037 suncat0041 pw.x -in pw.inp   Done                     12/31/2018 16:37:48
00038 suncat0041 pw.x -in pw.inp   Done                     12/31/2018 16:37:48
00039 suncat0041 pw.x -in pw.inp   Done                     12/31/2018 16:37:48
00040 suncat0039 pw.x -in pw.inp   Done                     12/31/2018 16:37:48
00041 suncat0039 pw.x -in pw.inp   Done                     12/31/2018 16:37:48
00042 suncat0039 pw.x -in pw.inp   Done                     12/31/2018 16:37:48
00043 suncat0039 pw.x -in pw.inp   Done                     12/31/2018 16:37:48
00044 suncat0039 pw.x -in pw.inp   Done                     12/31/2018 16:37:48
00045 suncat0039 pw.x -in pw.inp   Done                     12/31/2018 16:37:48
00046 suncat0039 pw.x -in pw.inp   Done                     12/31/2018 16:37:48
00047 suncat0039 pw.x -in pw.inp   Done                     12/31/2018 16:37:48
00048 suncat0207 pw.x -in pw.inp   Done                     12/31/2018 16:37:48
00049 suncat0207 pw.x -in pw.inp   Done                     12/31/2018 16:37:48
00050 suncat0207 pw.x -in pw.inp   Done                     12/31/2018 16:37:48
00051 suncat0207 pw.x -in pw.inp   Done                     12/31/2018 16:37:48
00052 suncat0207 pw.x -in pw.inp   Done                     12/31/2018 16:37:48
00053 suncat0207 pw.x -in pw.inp   Done                     12/31/2018 16:37:48
00054 suncat0207 pw.x -in pw.inp   Done                     12/31/2018 16:37:48
00055 suncat0207 pw.x -in pw.inp   Done                     12/31/2018 16:37:48
00056 suncat0206 pw.x -in pw.inp   Done                     12/31/2018 16:37:48
00057 suncat0206 pw.x -in pw.inp   Done                     12/31/2018 16:37:48
00058 suncat0206 pw.x -in pw.inp   Done                     12/31/2018 16:37:48
00059 suncat0206 pw.x -in pw.inp   Done                     12/31/2018 16:37:48
00060 suncat0206 pw.x -in pw.inp   Done                     12/31/2018 16:37:48
00061 suncat0206 pw.x -in pw.inp   Done                     12/31/2018 16:37:48
00062 suncat0206 pw.x -in pw.inp   Done                     12/31/2018 16:37:48
00063 suncat0206 pw.x -in pw.inp   Done                     12/31/2018 16:37:48