     Program PWSCF v.5.1rc2 (svn rev. 11289) starts on 30Dec2018 at 12:10: 9

     Current dimensions of program PWSCF are:
     Max number of different atomic species (ntypx) = 10
     Max number of k-points (npk) =  40000
     Max angular momentum in pseudopotentials (lmaxx) =  3
     Presently stress not available with electric field

     IMPORTANT: XC functional enforced from input :
     Exchange-correlation      = BEEF-VDW ( 1  4 27 13 2)
     Any further DFT definition will be discarded
     Please, verify this is what you really want

     Subspace diagonalization in iterative solution of the eigenvalue problem:
     a serial algorithm will be used

     bravais-lattice index     =            0
     lattice parameter (alat)  =       1.8897  a.u.
     unit-cell volume          =    7516.8836 (a.u.)^3
     number of atoms/cell      =           12
     number of atomic types    =            2
     number of electrons       =       132.00
     number of Kohn-Sham states=           96
     kinetic-energy cutoff     =      36.7493  Ry
     charge density cutoff     =     367.4932  Ry
     convergence threshold     =      1.0E-06
     mixing beta               =       0.1000
     number of iterations used =           10  plain     mixing
     Exchange-correlation      = BEEF-VDW ( 1  4 27 13 2)
     nstep                     =           50

     celldm(1)=   1.889726  celldm(2)=   0.000000  celldm(3)=   0.000000
     celldm(4)=   0.000000  celldm(5)=   0.000000  celldm(6)=   0.000000

     crystal axes: (cart. coord. in units of alat)
               a(1) = (   7.064973   0.000000   0.000000 )
               a(2) = (  -3.532486   6.118446   0.000000 )
               a(3) = (   0.000000   0.000000  25.768526 )

     reciprocal axes: (cart. coord. in units 2 pi/alat)
               b(1) = (  0.141543  0.081720  0.000000 )
               b(2) = (  0.000000  0.163440  0.000000 )
               b(3) = (  0.000000  0.000000  0.038807 )

     PseudoPot. # 1 for La read from file:
     /afs/slac.stanford.edu/u/if/mamunm/psp/gbrv1.5pbe/La.UPF
     MD5 check sum: 5937b0c7494ba0601a847275249473aa
     Pseudo is Ultrasoft + core correction, Zval = 11.0
     Generated by new atomic code, or converted to UPF format
     Using radial grid of  995 points,  8 beta functions with:
                l(1) =   0
                l(2) =   0
                l(3) =   1
                l(4) =   1
                l(5) =   2
                l(6) =   2
                l(7) =   3
                l(8) =   3
     Q(r) pseudized with  8 coefficients,  rinner =    1.700   1.700   1.700
                                                       1.700   1.700   1.700
                                                       1.700

     PseudoPot. # 2 for Au read from file:
     /afs/slac.stanford.edu/u/if/mamunm/psp/gbrv1.5pbe/Au.UPF
     MD5 check sum: 9d7f43293ad2c663164586bc4b293ffc
     Pseudo is Ultrasoft + core correction, Zval = 11.0
     Generated by new atomic code, or converted to UPF format
     Using radial grid of  985 points,  7 beta functions with:
                l(1) =   0
                l(2) =   0
                l(3) =   1
                l(4) =   1
                l(5) =   2
                l(6) =   2
                l(7) =   3
     Q(r) pseudized with  6 coefficients,  rinner =    1.900   1.900   1.900
                                                       1.900   1.900   1.900
                                                       1.900

     vdW kernel table read from file vdW_kernel_table
     MD5 check sum: 095c7af220d748ca6e76c0b4c6cfb241

     atomic species   valence    mass     pseudopotential
        La1           11.00   138.90547     La( 1.00)
        Au1           11.00   196.96657     Au( 1.00)

     No symmetry found

   Cartesian axes

     site n.     atom                  positions (alat units)
         1           La1 tau(   1) = (   0.0000000   0.0000000  10.0000000  )
         2           La1 tau(   2) = (  -1.7662432   3.0592230  10.0000000  )
         3           La1 tau(   3) = (   1.7662432   3.0592230  10.0000000  )
         4           Au1 tau(   4) = (   3.5324865   0.0000000  10.0000000  )
         5           La1 tau(   5) = (   3.5324865   2.0394820  12.8842631  )
         6           La1 tau(   6) = (   1.7662432   5.0987051  12.8842631  )
         7           La1 tau(   7) = (  -1.7662432   5.0987051  12.8842631  )
         8           Au1 tau(   8) = (   0.0000000   2.0394820  12.8842631  )
         9           La1 tau(   9) = (  -0.0000000   4.0789641  15.7685263  )
        10           La1 tau(  10) = (   1.7662432   1.0197410  15.7685263  )
        11           La1 tau(  11) = (   5.2987297   1.0197410  15.7685263  )
        12           Au1 tau(  12) = (   3.5324865   4.0789641  15.7685263  )

     number of k points=    20  Fermi-Dirac smearing, width (Ry)=  0.0110
                       cart. coord. in units 2pi/alat
        k(    1) = (   0.0000000   0.0000000   0.0000000), wk =   0.0555556
        k(    2) = (   0.0000000   0.0272400   0.0000000), wk =   0.1111111
        k(    3) = (   0.0000000   0.0544801   0.0000000), wk =   0.1111111
        k(    4) = (   0.0000000  -0.0817201   0.0000000), wk =   0.0555556
        k(    5) = (   0.0235906   0.0136200   0.0000000), wk =   0.1111111
        k(    6) = (   0.0235906   0.0408600   0.0000000), wk =   0.1111111
        k(    7) = (   0.0235906   0.0681001   0.0000000), wk =   0.1111111
        k(    8) = (   0.0235906  -0.0681001   0.0000000), wk =   0.1111111
        k(    9) = (   0.0235906  -0.0408600   0.0000000), wk =   0.1111111
        k(   10) = (   0.0235906  -0.0136200   0.0000000), wk =   0.1111111
        k(   11) = (   0.0471811   0.0272400   0.0000000), wk =   0.1111111
        k(   12) = (   0.0471811   0.0544801   0.0000000), wk =   0.1111111
        k(   13) = (   0.0471811   0.0817201   0.0000000), wk =   0.1111111
        k(   14) = (   0.0471811  -0.0544801   0.0000000), wk =   0.1111111
        k(   15) = (   0.0471811  -0.0272400   0.0000000), wk =   0.1111111
        k(   16) = (   0.0471811   0.0000000   0.0000000), wk =   0.1111111
        k(   17) = (  -0.0707717  -0.0408600   0.0000000), wk =   0.0555556
        k(   18) = (  -0.0707717  -0.0136200   0.0000000), wk =   0.1111111
        k(   19) = (  -0.0707717   0.0136200   0.0000000), wk =   0.1111111
        k(   20) = (  -0.0707717  -0.1225801   0.0000000), wk =   0.0555556

     Largest allocated arrays     est. size (Mb)     dimensions
     Largest temporary arrays     est. size (Mb)     dimensions

     Check: negative/imaginary core charge=   -0.000001    0.000000

     Initial potential from superposition of free atoms
     Check: negative starting charge=   -0.625471

     starting charge  131.71102, renormalised to  132.00000

     negative rho (up, down):  6.268E-01 0.000E+00

     *
     * You are using vdW-DF for exchange-correlation in this calculation.
     * Please cite the following three references that made this development
     * possible:
     *
     *   M. Dion, H. Rydberg, E. Schroder, D. C. Langreth, and
     *   B. I. Lundqvist, Phys. Rev. Lett. 92, 246401 (2004).
     *
     *   T. Thonhauser, V. R. Cooper, S. Li, A. Puzder, P. Hyldgaard, and
     *   D. C. Langreth, Phys. Rev. B 76, 125112 (2007).
     *
     *   G. Roman-Perez and J. M. Soler, Phys. Rev. Lett. 103, 096102 (2009).
     *
     *
     * If you are using vdW-DF2, please also cite:
     *
     *   K. Lee, E. D. Murray, L. Kong, B. I. Lundqvist, and
     *   D. C. Langreth, Phys. Rev. B 82, 081101(R) (2010).
     *
     *
     * If you are calculating the stress with vdW-DF, please also cite:
     *
     *   R. Sabatini, E. Kucukbenli, B. Kolb, T. Thonhauser, and
     *   S. de Gironcoli, J. Phys.: Condens. Matter 24, 424209 (2012).
     *

     Carrying out vdW-DF run using the following parameters:

     Nqs =      20    Nr_points =    1024   r_max =   100.000
     q_mesh =
               0.00001000     0.04494208     0.09755937     0.15916263
               0.23128650     0.31572767     0.41458969     0.53033537
               0.66584808     0.82450364     1.01025438     1.22772762
               1.48234092     1.78043706     2.12944203     2.53805004
               3.01644009     3.57652955     4.23227104     5.00000000

     Gradients computed in reciprocal space

     Adding external electric field

     Computed dipole along edir(3) :
        Dipole                0.0000 Ry au,          0.0000 Debye
        Dipole field          0.0000 Ry au

        Potential amp.       -0.0000 Ry
        Total length         47.4781 bohr

     Starting wfc are  207 randomized atomic wfcs

     Self-consistent Calculation

     iteration #  1     ecut=    36.75 Ry     beta=0.10
     Davidson diagonalization with overlap
     ethr =  1.00E-02,  avg # of iterations =  1.2

[...]

     total energy              =   -1285.66021352 Ry
     Harris-Foulkes estimate   =   -1287.44738297 Ry
     estimated scf accuracy    <       9.92172731 Ry

[...]

     iteration #  9     ecut=    36.75 Ry     beta=0.10
     Davidson diagonalization with overlap
     c_bands:  1 eigenvalues not converged
     ethr =  1.18E-05,  avg # of iterations =  4.3

[...]

     End of self-consistent calculation

          k = 0.0000 0.0000 0.0000 ( 28203 PWs)   bands (ev):

   -31.4941 -31.4770 -31.3036 -31.3036 -31.2996 -31.2996 -31.0858 -30.9187
   -30.9179 -15.9156 -15.8001 -15.5785 -15.4530 -15.4529 -15.3593 -15.3237
   -15.3236 -15.3173 -15.3172 -15.1799 -14.9671 -14.9671 -14.7262 -14.7261
   -14.6348 -14.5708 -14.4054 -14.3508 -14.3507 -14.3306 -14.3306 -14.3100
   -14.3100 -14.1523 -14.0089 -14.0087  -2.6034  -2.2513  -2.2513  -2.2370
    -2.2348  -2.1523  -2.1523  -2.1092  -2.1092  -2.1009  -2.1009  -2.0781
    -1.8814  -1.8626  -1.8626  -1.8505  -1.8505  -1.4637  -0.3672   0.1627
     0.7720   1.0384   1.1852   1.5519   1.5520   1.6742   1.6742   1.8583
     1.8583   1.9620   1.9620   2.0848   2.1330   2.4665   2.4665   2.8100
     2.8100   2.8218   2.9835   3.0005   3.1251   3.1253   3.1356   3.1718
     3.1892   3.2157   3.2158   3.2273   3.2273   3.2939   3.2940   3.3081
     3.3287   3.3355   3.3795   3.3797   3.3891   3.4006   3.4009   3.4631

[...]

          k =-0.0708-0.0409 0.0000 ( 28306 PWs)   bands (ev):

[...]

     the Fermi energy is     1.9450 ev

!    total energy              =   -1286.43608071 Ry
     Harris-Foulkes estimate   =   -1286.43608225 Ry
     estimated scf accuracy    <       0.00000041 Ry

     The total energy is the sum of the following terms:

     one-electron contribution =   -5300.09401414 Ry
     hartree contribution      =    2684.37356401 Ry
     xc contribution           =    -648.59146755 Ry
     ewald contribution        =    1977.99703246 Ry
     electric field correction =       0.00000000 Ry
     smearing contrib. (-TS)   =      -0.12119549 Ry

     convergence has been achieved in  22 iterations

 BEEF-vdW xc energy contributions
           1 :   -576.206506645055
           2 :    531.802174283819
           3 :   -452.873849524605
           4 :    355.682197814132
           5 :   -257.743567217971
           6 :    173.176647682870
[...]
                l(1) =   0
                l(2) =   0
                l(3) =   1
                l(4) =   1
                l(5) =   2
                l(6) =   2
                l(7) =   3
                l(8) =   3
     Q(r) pseudized with  8 coefficients,  rinner =    1.700   1.700   1.700
                                                       1.700   1.700   1.700
                                                       1.700

     PseudoPot. # 2 for Au read from file:
     /afs/slac.stanford.edu/u/if/mamunm/psp/gbrv1.5pbe/Au.UPF
     MD5 check sum: 9d7f43293ad2c663164586bc4b293ffc
     Pseudo is Ultrasoft + core correction, Zval = 11.0
     Generated by new atomic code, or converted to UPF format
     Using radial grid of  985 points,  7 beta functions with:
                l(1) =   0
                l(2) =   0
                l(3) =   1
                l(4) =   1
                l(5) =   2
                l(6) =   2
                l(7) =   3
     Q(r) pseudized with  6 coefficients,  rinner =    1.900   1.900   1.900
                                                       1.900   1.900   1.900
                                                       1.900

     vdW kernel table read from file vdW_kernel_table
     MD5 check sum: 095c7af220d748ca6e76c0b4c6cfb241

     atomic species   valence    mass     pseudopotential
        La1           11.00   138.90547     La( 1.00)
        Au1           11.00   196.96657     Au( 1.00)

     No symmetry found

   Cartesian axes

     site n.     atom                  positions (alat units)
         1           La1 tau(   1) = (   0.0000000   0.0000000  10.0000000  )
         2           La1 tau(   2) = (  -1.7662432   3.0592230  10.0000000  )
         3           La1 tau(   3) = (   1.7662432   3.0592230  10.0000000  )
         4           Au1 tau(   4) = (   3.5324865   0.0000000  10.0000000  )
         5           La1 tau(   5) = (   3.5324865   2.0394820  12.8842631  )
         6           La1 tau(   6) = (   1.7662432   5.0987051  12.8842631  )
         7           La1 tau(   7) = (  -1.7662432   5.0987051  12.8842631  )
         8           Au1 tau(   8) = (   0.0000000   2.0394820  12.8842631  )
         9           La1 tau(   9) = (  -0.0000119   3.9930621  15.8110947  )
        10           La1 tau(  10) = (   1.6918638   1.0626985  15.8114375  )
        11           La1 tau(  11) = (   5.3731206   1.0626871  15.8114455  )
        12           Au1 tau(  12) = (   3.5324659   4.0790288  15.4171614  )

     number of k points=    20  Fermi-Dirac smearing, width (Ry)=  0.0110
                       cart. coord. in units 2pi/alat
        k(    1) = (   0.0000000   0.0000000   0.0000000), wk =   0.0555556
        k(    2) = (   0.0000000   0.0272400   0.0000000), wk =   0.1111111
        k(    3) = (   0.0000000   0.0544801   0.0000000), wk =   0.1111111
        k(    4) = (   0.0000000  -0.0817201   0.0000000), wk =   0.0555556
        k(    5) = (   0.0235906   0.0136200   0.0000000), wk =   0.1111111
        k(    6) = (   0.0235906   0.0408600   0.0000000), wk =   0.1111111
        k(    7) = (   0.0235906   0.0681001   0.0000000), wk =   0.1111111
        k(    8) = (   0.0235906  -0.0681001   0.0000000), wk =   0.1111111
        k(    9) = (   0.0235906  -0.0408600   0.0000000), wk =   0.1111111
        k(   10) = (   0.0235906  -0.0136200   0.0000000), wk =   0.1111111
        k(   11) = (   0.0471811   0.0272400   0.0000000), wk =   0.1111111
        k(   12) = (   0.0471811   0.0544801   0.0000000), wk =   0.1111111
        k(   13) = (   0.0471811   0.0817201   0.0000000), wk =   0.1111111
        k(   14) = (   0.0471811  -0.0544801   0.0000000), wk =   0.1111111
        k(   15) = (   0.0471811  -0.0272400   0.0000000), wk =   0.1111111
        k(   16) = (   0.0471811   0.0000000   0.0000000), wk =   0.1111111
        k(   17) = (  -0.0707717  -0.0408600   0.0000000), wk =   0.0555556
        k(   18) = (  -0.0707717  -0.0136200   0.0000000), wk =   0.1111111
        k(   19) = (  -0.0707717   0.0136200   0.0000000), wk =   0.1111111
        k(   20) = (  -0.0707717  -0.1225801   0.0000000), wk =   0.0555556

     Largest allocated arrays     est. size (Mb)     dimensions
     Largest temporary arrays     est. size (Mb)     dimensions

     Check: negative/imaginary core charge=   -0.000001    0.000000

     Initial potential from superposition of free atoms
     Check: negative starting charge=   -0.626714

     starting charge  131.71102, renormalised to  132.00000

[...]

     *
     * You are using vdW-DF for exchange-correlation in this calculation.
     * Please cite the following three references that made this development
     * possible:
     *
     *   M. Dion, H. Rydberg, E. Schroder, D. C. Langreth, and
     *   B. I. Lundqvist, Phys. Rev. Lett. 92, 246401 (2004).
     *
     *   T. Thonhauser, V. R. Cooper, S. Li, A. Puzder, P. Hyldgaard, and
     *   D. C. Langreth, Phys. Rev. B 76, 125112 (2007).
     *
     *   G. Roman-Perez and J. M. Soler, Phys. Rev. Lett. 103, 096102 (2009).
     *
     *
     * If you are using vdW-DF2, please also cite:
     *
     *   K. Lee, E. D. Murray, L. Kong, B. I. Lundqvist, and
     *   D. C. Langreth, Phys. Rev. B 82, 081101(R) (2010).
     *
     *
     * If you are calculating the stress with vdW-DF, please also cite:
     *
     *   R. Sabatini, E. Kucukbenli, B. Kolb, T. Thonhauser, and
     *   S. de Gironcoli, J. Phys.: Condens. Matter 24, 424209 (2012).
     *

     Carrying out vdW-DF run using the following parameters:

     Nqs =      20    Nr_points =    1024   r_max =   100.000
     q_mesh =
               0.00001000     0.04494208     0.09755937     0.15916263
               0.23128650     0.31572767     0.41458969     0.53033537
               0.66584808     0.82450364     1.01025438     1.22772762
               1.48234092     1.78043706     2.12944203     2.53805004
               3.01644009     3.57652955     4.23227104     5.00000000

     Gradients computed in reciprocal space

[...]

     Starting wfc are  207 randomized atomic wfcs

     Self-consistent Calculation

[...]

     iteration # 12     ecut=    36.75 Ry     beta=0.10
     Davidson diagonalization with overlap
     c_bands:  1 eigenvalues not converged
     ethr =  1.01E-06,  avg # of iterations = 10.3

[...]

     total energy              =   -1286.45403474 Ry
     Harris-Foulkes estimate   =   -1286.45403512 Ry
     estimated scf accuracy    <       0.00000135 Ry

     iteration # 19     ecut=    36.75 Ry     beta=0.10
     Davidson diagonalization with overlap
     ethr =  1.02E-09,  avg # of iterations =  5.0

[...]

     negative rho (up, down):  4.164E-01 0.000E+00

     Adding external electric field

     Computed dipole along edir(3) :
        Dipole                0.0498 Ry au,          0.1266 Debye
        Dipole field          0.0001 Ry au

        Potential amp.       -0.0079 Ry
        Total length         47.4781 bohr

     End of self-consistent calculation

[...]

          k = 0.0472 0.0000 0.0000 ( 28267 PWs)   bands (ev):

[...]

          k =-0.0708-0.1226 0.0000 ( 28306 PWs)   bands (ev):

   -31.4198 -31.3844 -31.3280 -31.3177 -31.2697 -31.2609 -30.9914 -30.9379
   -30.8788 -15.5961 -15.5179 -15.4294 -15.2925 -15.2340 -15.1587 -15.1568
   -15.0884 -15.0616 -15.0464 -14.9947 -14.9920 -14.9734 -14.9352 -14.8781
   -14.8186 -14.8142 -14.6492 -14.5239 -14.4787 -14.4654 -14.3526 -14.3398
   -14.2990 -14.2901 -14.2613 -14.0167  -2.2445  -2.1754  -2.1558  -2.1195
    -2.1155  -2.0980  -2.0509  -2.0117  -1.9962  -1.9959  -1.9347  -1.8770
    -1.8756  -1.8092  -1.8075  -1.5180  -1.5006  -1.2207   0.4358   0.6017
     0.7281   0.9854   1.2843   1.4732   1.5642   1.6056   1.6836   1.7525
     1.8720   2.0335   2.0991   2.1962   2.2898   2.3122   2.3560   2.5379
     2.5657   2.5843   2.7598   2.7782   2.7910   2.9624   3.0096   3.0853
     3.0924   3.1435   3.1630   3.2373   3.2789   3.2854   3.3556   3.3570
     3.3731   3.3751   3.3994   3.4085   3.4363   3.4742   3.4909   3.4920

     the Fermi energy is     1.9881 ev

!    total energy              =   -1286.45403279 Ry
     Harris-Foulkes estimate   =   -1286.45403491 Ry
     estimated scf accuracy    <       0.00000052 Ry

     The total energy is the sum of the following terms:

     one-electron contribution =   -5342.50372457 Ry
     hartree contribution      =    2705.66266464 Ry
     xc contribution           =    -648.60899138 Ry
     ewald contribution        =    1999.11635435 Ry
     electric field correction =       0.00000414 Ry
     smearing contrib. (-TS)   =      -0.12033998 Ry

     convergence has been achieved in  19 iterations

 BEEF-vdW xc energy contributions
           1 :   -576.372632563728
           2 :    531.997530460764
           3 :   -453.101083373501
           4 :    355.911605607342
           5 :   -257.929831230918
           6 :    173.285386978158
           7 :   -110.029668352110
           8 :    69.6893916425203
           9 :   -48.6349921327338
          10 :    40.4216566230889
          11 :   -38.2294696991237
          12 :    36.6672461773529
          13 :   -32.6007755808681
          14 :    25.0971074150422
          15 :   -14.8695424239513
          16 :    3.57876903425711
          17 :    6.81730144203459
          18 :   -14.6159039863636
          19 :    18.7839851862951
          20 :   -19.1853825534962
          21 :    16.5708932337728
          22 :   -12.3315357230682
          23 :    8.06655494498511
          24 :   -5.09288667556405
          25 :    4.06264296705342
          26 :   -4.83607843594223
          27 :    6.64635378288096
          28 :   -8.47101021608682
          29 :    9.44738173215467
          30 :   -9.17942319564315
          31 :   -47.8508314507101
          32 :   -34.4668045946262

     Forces acting on atoms (Ry/au):

     negative rho (up, down):  4.164E-01 0.000E+00
     atom    1 type  1   force =    -0.00000233    0.01327851   -0.00478303
     atom    2 type  1   force =     0.01148606   -0.00663961   -0.00476843
     atom    3 type  1   force =    -0.01148541   -0.00663677   -0.00476387
     atom    4 type  2   force =     0.00000035    0.00000608    0.02310678
     atom    5 type  1   force =    -0.00000084   -0.00584524   -0.00179592
     atom    6 type  1   force =    -0.00505636    0.00293184   -0.00179905
     atom    7 type  1   force =     0.00505651    0.00293297   -0.00180031
     atom    8 type  2   force =    -0.00000163   -0.00000228   -0.00058376
     atom    9 type  1   force =     0.00000148   -0.00026848   -0.00092680
     atom   10 type  1   force =    -0.00021658    0.00012493   -0.00095140
     atom   11 type  1   force =     0.00021745    0.00012586   -0.00095242
     atom   12 type  2   force =     0.00000131   -0.00000780    0.00001821

     Total force =     0.035298     Total SCF correction =     0.001592

     entering subroutine stress ...

     negative rho (up, down):  4.164E-01 0.000E+00
          total   stress  (Ry/bohr**3)                   (kbar)     P=   -3.06
  -0.00002651  -0.00000000  -0.00000000         -3.90     -0.00     -0.00
  -0.00000000  -0.00002650  -0.00000000         -0.00     -3.90     -0.00
  -0.00000000  -0.00000000  -0.00000940         -0.00     -0.00     -1.38

 !ASE

     Writing output data file calc.save

     General routines

     Parallel routines

   This run was terminated on:  15:51:18  30Dec2018

   JOB DONE.
Job  /afs/slac/g/suncat/bin/suncat-tsmpirun -x LD_LIBRARY_PATH -wdir /scratch/qe648543_LqphE pw.x -in pw.inp

TID   HOST_NAME   COMMAND_LINE            STATUS            TERMINATION_TIME
00000 suncat0188 pw.x -in pw.inp   Done                     12/30/2018 15:51:18
00001 suncat0188 pw.x -in pw.inp   Done                     12/30/2018 15:51:18
00002 suncat0188 pw.x -in pw.inp   Done                     12/30/2018 15:51:18
00003 suncat0188 pw.x -in pw.inp   Done                     12/30/2018 15:51:18
00004 suncat0188 pw.x -in pw.inp   Done                     12/30/2018 15:51:18
00005 suncat0188 pw.x -in pw.inp   Done                     12/30/2018 15:51:18
00006 suncat0188 pw.x -in pw.inp   Done                     12/30/2018 15:51:18
00007 suncat0188 pw.x -in pw.inp   Done                     12/30/2018 15:51:18
00008 suncat0129 pw.x -in pw.inp   Done                     12/30/2018 15:51:18
00009 suncat0129 pw.x -in pw.inp   Done                     12/30/2018 15:51:18
00010 suncat0129 pw.x -in pw.inp   Done                     12/30/2018 15:51:18
00011 suncat0129 pw.x -in pw.inp   Done                     12/30/2018 15:51:18
00012 suncat0129 pw.x -in pw.inp   Done                     12/30/2018 15:51:18
00013 suncat0129 pw.x -in pw.inp   Done                     12/30/2018 15:51:18
00014 suncat0129 pw.x -in pw.inp   Done                     12/30/2018 15:51:18
00015 suncat0129 pw.x -in pw.inp   Done                     12/30/2018 15:51:18
00016 suncat0116 pw.x -in pw.inp   Done                     12/30/2018 15:51:18
00017 suncat0116 pw.x -in pw.inp   Done                     12/30/2018 15:51:18
00018 suncat0116 pw.x -in pw.inp   Done                     12/30/2018 15:51:18
00019 suncat0116 pw.x -in pw.inp   Done                     12/30/2018 15:51:18
00020 suncat0116 pw.x -in pw.inp   Done                     12/30/2018 15:51:18
00021 suncat0116 pw.x -in pw.inp   Done                     12/30/2018 15:51:18
00022 suncat0116 pw.x -in pw.inp   Done                     12/30/2018 15:51:18
00023 suncat0116 pw.x -in pw.inp   Done                     12/30/2018 15:51:18
00024 suncat0114 pw.x -in pw.inp   Done                     12/30/2018 15:51:18
00025 suncat0114 pw.x -in pw.inp   Done                     12/30/2018 15:51:18
00026 suncat0114 pw.x -in pw.inp   Done                     12/30/2018 15:51:18
00027 suncat0114 pw.x -in pw.inp   Done                     12/30/2018 15:51:18
00028 suncat0114 pw.x -in pw.inp   Done                     12/30/2018 15:51:18
00029 suncat0114 pw.x -in pw.inp   Done                     12/30/2018 15:51:18
00030 suncat0114 pw.x -in pw.inp   Done                     12/30/2018 15:51:18
00031 suncat0114 pw.x -in pw.inp   Done                     12/30/2018 15:51:18
00032 suncat0113 pw.x -in pw.inp   Done                     12/30/2018 15:51:18
00033 suncat0113 pw.x -in pw.inp   Done                     12/30/2018 15:51:18
00034 suncat0113 pw.x -in pw.inp   Done                     12/30/2018 15:51:18
00035 suncat0113 pw.x -in pw.inp   Done                     12/30/2018 15:51:18
00036 suncat0113 pw.x -in pw.inp   Done                     12/30/2018 15:51:18
00037 suncat0113 pw.x -in pw.inp   Done                     12/30/2018 15:51:18
00038 suncat0113 pw.x -in pw.inp   Done                     12/30/2018 15:51:18
00039 suncat0113 pw.x -in pw.inp   Done                     12/30/2018 15:51:18
00040 suncat0267 pw.x -in pw.inp   Done                     12/30/2018 15:51:18
00041 suncat0267 pw.x -in pw.inp   Done                     12/30/2018 15:51:18
00042 suncat0267 pw.x -in pw.inp   Done                     12/30/2018 15:51:18
00043 suncat0267 pw.x -in pw.inp   Done                     12/30/2018 15:51:18
00044 suncat0267 pw.x -in pw.inp   Done                     12/30/2018 15:51:18
00045 suncat0267 pw.x -in pw.inp   Done                     12/30/2018 15:51:18
00046 suncat0267 pw.x -in pw.inp   Done                     12/30/2018 15:51:18
00047 suncat0267 pw.x -in pw.inp   Done                     12/30/2018 15:51:18
00048 suncat0254 pw.x -in pw.inp   Done                     12/30/2018 15:51:18
00049 suncat0254 pw.x -in pw.inp   Done                     12/30/2018 15:51:18
00050 suncat0254 pw.x -in pw.inp   Done                     12/30/2018 15:51:18
00051 suncat0254 pw.x -in pw.inp   Done                     12/30/2018 15:51:18
00052 suncat0254 pw.x -in pw.inp   Done                     12/30/2018 15:51:18
00053 suncat0254 pw.x -in pw.inp   Done                     12/30/2018 15:51:18
00054 suncat0254 pw.x -in pw.inp   Done                     12/30/2018 15:51:18
00055 suncat0254 pw.x -in pw.inp   Done                     12/30/2018 15:51:18
00056 suncat0253 pw.x -in pw.inp   Done                     12/30/2018 15:51:18
00057 suncat0253 pw.x -in pw.inp   Done                     12/30/2018 15:51:18
00058 suncat0253 pw.x -in pw.inp   Done                     12/30/2018 15:51:18
00059 suncat0253 pw.x -in pw.inp   Done                     12/30/2018 15:51:18
00060 suncat0253 pw.x -in pw.inp   Done                     12/30/2018 15:51:18
00061 suncat0253 pw.x -in pw.inp   Done                     12/30/2018 15:51:18
00062 suncat0253 pw.x -in pw.inp   Done                     12/30/2018 15:51:18
00063 suncat0253 pw.x -in pw.inp   Done                     12/30/2018 15:51:18