     Program PWSCF v.5.1rc2 (svn rev. 11289) starts on 25Dec2018 at  2: 4:37

     Current dimensions of program PWSCF are:
     Max number of different atomic species (ntypx) = 10
     Max number of k-points (npk) =  40000
     Max angular momentum in pseudopotentials (lmaxx) =  3
     Presently stress not available with electric field

     IMPORTANT: XC functional enforced from input :
     Exchange-correlation      = BEEF-VDW ( 1  4 27 13 2)
     Any further DFT definition will be discarded
     Please, verify this is what you really want

     Subspace diagonalization in iterative solution of the eigenvalue problem:
     a serial algorithm will be used

     Found symmetry operation: I + ( -0.5000  0.0000  0.0000)
     This is a supercell, fractional translations are disabled

     bravais-lattice index     =            0
     lattice parameter (alat)  =       1.8897  a.u.
     unit-cell volume          =    6044.1883 (a.u.)^3
     number of atoms/cell      =           12
     number of atomic types    =            2
     number of electrons       =       150.00
     number of Kohn-Sham states=          105
     kinetic-energy cutoff     =      36.7493  Ry
     charge density cutoff     =     367.4932  Ry
     convergence threshold     =      1.0E-06
     mixing beta               =       0.1000
     number of iterations used =           10  plain     mixing
     Exchange-correlation      = BEEF-VDW ( 1  4 27 13 2)
     nstep                     =           50

     celldm(1)=   1.889726  celldm(2)=   0.000000  celldm(3)=   0.000000
     celldm(4)=   0.000000  celldm(5)=   0.000000  celldm(6)=   0.000000

     crystal axes: (cart. coord. in units of alat)
               a(1) = (   5.847718   0.000000   0.000000 )
               a(2) = (  -2.923859   6.094638   0.000000 )
               a(3) = (   0.000000   0.000000  25.130841 )

     reciprocal axes: (cart. coord. in units 2 pi/alat)
               b(1) = (  0.171007  0.082039  0.000000 )
               b(2) = (  0.000000  0.164079  0.000000 )
               b(3) = (  0.000000  0.000000  0.039792 )

     PseudoPot. # 1 for La read from file:
     /afs/slac.stanford.edu/u/if/mamunm/psp/gbrv1.5pbe/La.UPF
     MD5 check sum: 5937b0c7494ba0601a847275249473aa
     Pseudo is Ultrasoft + core correction, Zval = 11.0
     Generated by new atomic code, or converted to UPF format
     Using radial grid of  995 points,  8 beta functions with:
                l(1) =   0
                l(2) =   0
                l(3) =   1
                l(4) =   1
                l(5) =   2
                l(6) =   2
                l(7) =   3
                l(8) =   3
     Q(r) pseudized with  8 coefficients,  rinner =    1.700   1.700   1.700
                                                       1.700   1.700   1.700
                                                       1.700

     PseudoPot. # 2 for W  read from file:
     /afs/slac.stanford.edu/u/if/mamunm/psp/gbrv1.5pbe/W.UPF
     MD5 check sum: 9c083fa34c2a2ea0f02f1f893e16e1c8
     Pseudo is Ultrasoft + core correction, Zval = 14.0
     Generated by new atomic code, or converted to UPF format
     Using radial grid of  923 points,  8 beta functions with:
                l(1) =   0
                l(2) =   0
                l(3) =   0
                l(4) =   1
                l(5) =   1
                l(6) =   2
                l(7) =   2
                l(8) =   3
     Q(r) pseudized with  6 coefficients,  rinner =    1.350   1.350   1.350
                                                       1.350   1.350   1.350
                                                       1.350

     vdW kernel table read from file vdW_kernel_table
     MD5 check sum: 095c7af220d748ca6e76c0b4c6cfb241

     atomic species   valence    mass     pseudopotential
        La1           11.00   138.90547     La( 1.00)
        W1            14.00   183.84000     W ( 1.00)

     No symmetry found

   Cartesian axes

     site n.     atom                  positions (alat units)
         1           La1 tau(   1) = (   0.0000000   0.0000000  10.0000000  )
         2           La1 tau(   2) = (   2.9238590   0.0000000  10.0000000  )
         3           W1  tau(   3) = (   1.4619295   3.0473192  10.0000000  )
         4           W1  tau(   4) = (  -1.4619295   3.0473192  10.0000000  )
         5           La1 tau(   5) = (   2.9238590   1.4027004  12.5654206  )
         6           La1 tau(   6) = (   0.0000000   1.4027004  12.5654206  )
         7           W1  tau(   7) = (  -1.4619295   4.4500195  12.5654206  )
         8           W1  tau(   8) = (   1.4619295   4.4500195  12.5654206  )
         9           La1 tau(   9) = (   0.0000000   2.8054008  15.1308413  )
        10           La1 tau(  10) = (   2.9238590   2.8054008  15.1308413  )
        11           W1  tau(  11) = (   1.4619295   5.8527199  15.1308413  )
        12           W1  tau(  12) = (  -1.4619295   5.8527199  15.1308413  )

     number of k points=    20  Fermi-Dirac smearing, width (Ry)=  0.0110
                       cart. coord. in units 2pi/alat
        k(    1) = (   0.0000000   0.0000000   0.0000000), wk =   0.0555556
        k(    2) = (   0.0000000   0.0273464   0.0000000), wk =   0.1111111
        k(    3) = (   0.0000000   0.0546929   0.0000000), wk =   0.1111111
        k(    4) = (   0.0000000  -0.0820393   0.0000000), wk =   0.0555556
        k(    5) = (   0.0285011   0.0136732   0.0000000), wk =   0.1111111
        k(    6) = (   0.0285011   0.0410197   0.0000000), wk =   0.1111111
        k(    7) = (   0.0285011   0.0683661   0.0000000), wk =   0.1111111
        k(    8) = (   0.0285011  -0.0683661   0.0000000), wk =   0.1111111
        k(    9) = (   0.0285011  -0.0410197   0.0000000), wk =   0.1111111
        k(   10) = (   0.0285011  -0.0136732   0.0000000), wk =   0.1111111
        k(   11) = (   0.0570023   0.0273464   0.0000000), wk =   0.1111111
        k(   12) = (   0.0570023   0.0546929   0.0000000), wk =   0.1111111
        k(   13) = (   0.0570023   0.0820393   0.0000000), wk =   0.1111111
        k(   14) = (   0.0570023  -0.0546929   0.0000000), wk =   0.1111111
        k(   15) = (   0.0570023  -0.0273464   0.0000000), wk =   0.1111111
        k(   16) = (   0.0570023   0.0000000   0.0000000), wk =   0.1111111
        k(   17) = (  -0.0855034  -0.0410197   0.0000000), wk =   0.0555556
        k(   18) = (  -0.0855034  -0.0136732   0.0000000), wk =   0.1111111
        k(   19) = (  -0.0855034   0.0136732   0.0000000), wk =   0.1111111
        k(   20) = (  -0.0855034  -0.1230590   0.0000000), wk =   0.0555556

     Largest allocated arrays     est. size (Mb)     dimensions
     Largest temporary arrays     est. size (Mb)     dimensions

     Initial potential from superposition of free atoms
     Check: negative starting charge=   -0.786678

     starting charge  149.20555, renormalised to  150.00000

     negative rho (up, down):  7.909E-01 0.000E+00

     *
     * You are using vdW-DF for exchange-correlation in this calculation.
     * Please cite the following three references that made this development
     * possible:
     *
     *   M. Dion, H. Rydberg, E. Schroder, D. C. Langreth, and
     *   B. I. Lundqvist, Phys. Rev. Lett. 92, 246401 (2004).
     *
     *   T. Thonhauser, V. R. Cooper, S. Li, A. Puzder, P. Hyldgaard, and
     *   D. C. Langreth, Phys. Rev. B 76, 125112 (2007).
     *
     *   G. Roman-Perez and J. M. Soler, Phys. Rev. Lett. 103, 096102 (2009).
     *
     *
     * If you are using vdW-DF2, please also cite:
     *
     *   K. Lee, E. D. Murray, L. Kong, B. I. Lundqvist, and
     *   D. C. Langreth, Phys. Rev. B 82, 081101(R) (2010).
     *
     *
     * If you are calculating the stress with vdW-DF, please also cite:
     *
     *   R. Sabatini, E. Kucukbenli, B. Kolb, T. Thonhauser, and
     *   S. de Gironcoli, J. Phys.: Condens. Matter 24, 424209 (2012).
     *

     Carrying out vdW-DF run using the following parameters:

     Nqs =      20    Nr_points =    1024   r_max =   100.000
     q_mesh =
               0.00001000     0.04494208     0.09755937     0.15916263
               0.23128650     0.31572767     0.41458969     0.53033537
               0.66584808     0.82450364     1.01025438     1.22772762
               1.48234092     1.78043706     2.12944203     2.53805004
               3.01644009     3.57652955     4.23227104     5.00000000

     Gradients computed in reciprocal space

     Adding external electric field

     Computed dipole along edir(3) :
        Dipole                0.0000 Ry au,          0.0000 Debye
        Dipole field          0.0000 Ry au

        Potential amp.       -0.0000 Ry
        Total length         46.3031 bohr

     Starting wfc are  198 randomized atomic wfcs

     Self-consistent Calculation

     iteration #  1     ecut=    36.75 Ry     beta=0.10
     Davidson diagonalization with overlap
     ethr =  1.00E-02,  avg # of iterations =  2.0

[...]

     total energy              =   -1582.32681577 Ry
     Harris-Foulkes estimate   =   -1587.61875493 Ry
     estimated scf accuracy    <      29.02444358 Ry

[...]

     iteration # 13     ecut=    36.75 Ry     beta=0.10
     Davidson diagonalization with overlap
     c_bands:  1 eigenvalues not converged
     c_bands:  1 eigenvalues not converged
     c_bands:  1 eigenvalues not converged
     c_bands:  1 eigenvalues not converged
     ethr =  2.97E-06,  avg # of iterations = 12.9

[...]

     End of self-consistent calculation

          k = 0.0000 0.0000 0.0000 ( 22783 PWs)   bands (ev):

   -72.0084 -71.9845 -71.8309 -71.8305 -71.8070 -71.8066 -36.2525 -36.1548
   -36.1053 -36.0402 -36.0388 -36.0252 -35.9770 -35.9260 -35.8830 -35.8806
   -35.8803 -35.8368 -35.8334 -35.8137 -35.8095 -35.7726 -35.5977 -35.5967
   -30.8078 -30.6621 -30.1711 -30.0316 -29.8924 -29.4024 -16.3475 -16.2106
   -15.7952 -15.7406 -15.0543 -14.4568 -14.2378 -14.1201 -13.7672 -13.6452
   -13.5229 -13.4054 -12.9290 -12.7444 -12.1430 -12.0436 -11.9644 -11.5352
    -3.1786  -1.9644  -1.6934  -1.3797  -1.1898  -0.5694  -0.3601  -0.0037
     0.0450   0.0946   0.1628   0.1745   0.2884   0.4490   0.6452   0.8360
     0.9824   1.0090   1.1611   1.3126   1.7931   1.8078   2.3283   2.3339
     2.5067   2.5864   2.8149   2.9118   2.9698   3.1689   3.1840   3.5184
     3.6551   3.6942   3.7474   3.8533   3.8747   3.9344   4.0056   4.0358
     4.0520   4.1114   4.2288   4.2878   4.3319   4.3869   4.4316   4.4539
     4.4557   4.4811   4.4870   4.5001   4.5537   4.5811   4.6872   4.8376
     4.9261

[...]

          k =-0.0855-0.0410 0.0000 ( 22758 PWs)   bands (ev):

[...]

     the Fermi energy is     2.4073 ev

!    total energy              =   -1585.86153236 Ry
     Harris-Foulkes estimate   =   -1585.86153731 Ry
     estimated scf accuracy    <       0.00000064 Ry

     The total energy is the sum of the following terms:

     one-electron contribution =   -8909.73527259 Ry
     hartree contribution      =    4454.90167374 Ry
     xc contribution           =    -560.39856063 Ry
     ewald contribution        =    3429.46675832 Ry
     electric field correction =       0.00000000 Ry
     smearing contrib. (-TS)   =      -0.09613120 Ry

[...]
                l(1) =   0
                l(2) =   0
                l(3) =   1
                l(4) =   1
                l(5) =   2
                l(6) =   2
                l(7) =   3
                l(8) =   3
     Q(r) pseudized with  8 coefficients,  rinner =    1.700   1.700   1.700
                                                       1.700   1.700   1.700
                                                       1.700

     PseudoPot. # 2 for W  read from file:
     /afs/slac.stanford.edu/u/if/mamunm/psp/gbrv1.5pbe/W.UPF
     MD5 check sum: 9c083fa34c2a2ea0f02f1f893e16e1c8
     Pseudo is Ultrasoft + core correction, Zval = 14.0
     Generated by new atomic code, or converted to UPF format
     Using radial grid of  923 points,  8 beta functions with:
                l(1) =   0
                l(2) =   0
                l(3) =   0
                l(4) =   1
                l(5) =   1
                l(6) =   2
                l(7) =   2
                l(8) =   3
     Q(r) pseudized with  6 coefficients,  rinner =    1.350   1.350   1.350
                                                       1.350   1.350   1.350
                                                       1.350

     vdW kernel table read from file vdW_kernel_table
     MD5 check sum: 095c7af220d748ca6e76c0b4c6cfb241

     atomic species   valence    mass     pseudopotential
        La1           11.00   138.90547     La( 1.00)
        W1            14.00   183.84000     W ( 1.00)

     No symmetry found

   Cartesian axes

     site n.     atom                  positions (alat units)
         1           La1 tau(   1) = (   0.0000000   0.0000000  10.0000000  )
         2           La1 tau(   2) = (   2.9238590   0.0000000  10.0000000  )
         3           W1  tau(   3) = (   1.4619295   3.0473192  10.0000000  )
         4           W1  tau(   4) = (  -1.4619295   3.0473192  10.0000000  )
         5           La1 tau(   5) = (   2.9238590   1.4027004  12.5654206  )
         6           La1 tau(   6) = (   0.0000000   1.4027004  12.5654206  )
         7           W1  tau(   7) = (  -1.4619295   4.4500195  12.5654206  )
         8           W1  tau(   8) = (   1.4619295   4.4500195  12.5654206  )
         9           La1 tau(   9) = (   0.0002563   3.0368157  15.4644510  )
        10           La1 tau(  10) = (   2.9240999   3.0367687  15.4644589  )
        11           W1  tau(  11) = (   1.4621059   5.7187255  14.7664443  )
        12           W1  tau(  12) = (  -1.4618048   5.7187357  14.7664582  )

     number of k points=    20  Fermi-Dirac smearing, width (Ry)=  0.0110
                       cart. coord. in units 2pi/alat
        k(    1) = (   0.0000000   0.0000000   0.0000000), wk =   0.0555556
        k(    2) = (   0.0000000   0.0273464   0.0000000), wk =   0.1111111
        k(    3) = (   0.0000000   0.0546929   0.0000000), wk =   0.1111111
        k(    4) = (   0.0000000  -0.0820393   0.0000000), wk =   0.0555556
        k(    5) = (   0.0285011   0.0136732   0.0000000), wk =   0.1111111
        k(    6) = (   0.0285011   0.0410197   0.0000000), wk =   0.1111111
        k(    7) = (   0.0285011   0.0683661   0.0000000), wk =   0.1111111
        k(    8) = (   0.0285011  -0.0683661   0.0000000), wk =   0.1111111
        k(    9) = (   0.0285011  -0.0410197   0.0000000), wk =   0.1111111
        k(   10) = (   0.0285011  -0.0136732   0.0000000), wk =   0.1111111
        k(   11) = (   0.0570023   0.0273464   0.0000000), wk =   0.1111111
        k(   12) = (   0.0570023   0.0546929   0.0000000), wk =   0.1111111
        k(   13) = (   0.0570023   0.0820393   0.0000000), wk =   0.1111111
        k(   14) = (   0.0570023  -0.0546929   0.0000000), wk =   0.1111111
        k(   15) = (   0.0570023  -0.0273464   0.0000000), wk =   0.1111111
        k(   16) = (   0.0570023   0.0000000   0.0000000), wk =   0.1111111
        k(   17) = (  -0.0855034  -0.0410197   0.0000000), wk =   0.0555556
        k(   18) = (  -0.0855034  -0.0136732   0.0000000), wk =   0.1111111
        k(   19) = (  -0.0855034   0.0136732   0.0000000), wk =   0.1111111
        k(   20) = (  -0.0855034  -0.1230590   0.0000000), wk =   0.0555556

     Largest allocated arrays     est. size (Mb)     dimensions
     Largest temporary arrays     est. size (Mb)     dimensions

     Initial potential from superposition of free atoms
     Check: negative starting charge=   -0.787537

     starting charge  149.20555, renormalised to  150.00000

[...]

     *
     * You are using vdW-DF for exchange-correlation in this calculation.
     * Please cite the following three references that made this development
     * possible:
     *
     *   M. Dion, H. Rydberg, E. Schroder, D. C. Langreth, and
     *   B. I. Lundqvist, Phys. Rev. Lett. 92, 246401 (2004).
     *
     *   T. Thonhauser, V. R. Cooper, S. Li, A. Puzder, P. Hyldgaard, and
     *   D. C. Langreth, Phys. Rev. B 76, 125112 (2007).
     *
     *   G. Roman-Perez and J. M. Soler, Phys. Rev. Lett. 103, 096102 (2009).
     *
     *
     * If you are using vdW-DF2, please also cite:
     *
     *   K. Lee, E. D. Murray, L. Kong, B. I. Lundqvist, and
     *   D. C. Langreth, Phys. Rev. B 82, 081101(R) (2010).
     *
     *
     * If you are calculating the stress with vdW-DF, please also cite:
     *
     *   R. Sabatini, E. Kucukbenli, B. Kolb, T. Thonhauser, and
     *   S. de Gironcoli, J. Phys.: Condens. Matter 24, 424209 (2012).
     *

     Carrying out vdW-DF run using the following parameters:

     Nqs =      20    Nr_points =    1024   r_max =   100.000
     q_mesh =
               0.00001000     0.04494208     0.09755937     0.15916263
               0.23128650     0.31572767     0.41458969     0.53033537
               0.66584808     0.82450364     1.01025438     1.22772762
               1.48234092     1.78043706     2.12944203     2.53805004
               3.01644009     3.57652955     4.23227104     5.00000000

     Gradients computed in reciprocal space

[...]

     Starting wfc are  198 randomized atomic wfcs

     Self-consistent Calculation

[...]

     iteration # 11     ecut=    36.75 Ry     beta=0.10
     Davidson diagonalization with overlap
     c_bands:  1 eigenvalues not converged
     ethr =  2.01E-06,  avg # of iterations = 11.9

[...]

     total energy              =   -1585.97643728 Ry
     Harris-Foulkes estimate   =   -1585.97643976 Ry
     estimated scf accuracy    <       0.00000113 Ry

     iteration # 20     ecut=    36.75 Ry     beta=0.10
     Davidson diagonalization with overlap
     ethr =  7.50E-10,  avg # of iterations =  3.5

[...]

     negative rho (up, down):  5.941E-01 0.000E+00

     Adding external electric field

     Computed dipole along edir(3) :
        Dipole                0.2986 Ry au,          0.7591 Debye
        Dipole field          0.0006 Ry au

        Potential amp.       -0.0575 Ry
        Total length         46.3031 bohr

     End of self-consistent calculation

[...]

          k = 0.0570 0.0000 0.0000 ( 22687 PWs)   bands (ev):

[...]

          k =-0.0855-0.1231 0.0000 ( 22758 PWs)   bands (ev):

   -71.5850 -71.5849 -71.5587 -71.5587 -71.3203 -71.3203 -35.9890 -35.9890
   -35.6686 -35.6686 -35.6510 -35.6510 -35.6207 -35.6207 -35.5758 -35.5758
   -35.5634 -35.5633 -35.3934 -35.3934 -35.3923 -35.3923 -35.1314 -35.1313
   -30.1825 -30.1824 -30.0882 -30.0882 -29.5495 -29.5495 -14.7898 -14.7898
   -14.2173 -14.2172 -14.1375 -14.1375 -13.8794 -13.8794 -13.7347 -13.7346
   -13.6684 -13.6684 -13.5869 -13.5869 -13.1105 -13.1104 -12.4694 -12.4694
    -1.4117  -1.4117  -0.2230  -0.2230   0.2430   0.2430   0.5665   0.5665
     0.7949   0.7949   0.9917   0.9917   1.2916   1.2916   1.4568   1.4568
     1.6369   1.6369   1.8348   1.8348   1.9786   1.9786   2.1684   2.1685
     2.2638   2.2639   2.5354   2.5355   2.7099   2.7099   2.9146   2.9146
     3.0783   3.0783   3.4899   3.4899   3.6398   3.6398   3.9099   3.9099
     4.1562   4.1563   4.2202   4.2202   4.4470   4.4470   4.5763   4.5763
     4.7075   4.7075   4.8393   4.8393   4.8839   4.8839   4.9615   4.9615
     5.0358

     the Fermi energy is     2.6932 ev

!    total energy              =   -1585.97642881 Ry
     Harris-Foulkes estimate   =   -1585.97644066 Ry
     estimated scf accuracy    <       0.00000066 Ry

     The total energy is the sum of the following terms:

     one-electron contribution =   -8981.90846933 Ry
     hartree contribution      =    4492.51002942 Ry
     xc contribution           =    -560.54723789 Ry
     ewald contribution        =    3464.06053296 Ry
     electric field correction =       0.00018542 Ry
     smearing contrib. (-TS)   =      -0.09146940 Ry

     convergence has been achieved in  20 iterations

 BEEF-vdW xc energy contributions
           1 :   -495.347233828013
           2 :    457.240106589359
           3 :   -389.628337326178
           4 :    306.689083441630
           5 :   -223.668237452439
           6 :    152.728099087247
           7 :   -100.455511258818
           8 :    67.4718908719050
           9 :   -49.8458238030339
          10 :    41.5059050319461
          11 :   -36.6639325171867
          12 :    31.4188167224909
          13 :   -24.2032986885268
          14 :    15.2882038298337
          15 :   -5.88167263334185
          16 :   -2.67900120475633
          17 :    9.39408724097211
          18 :   -13.7360310242901
          19 :    15.5966177118817
          20 :   -15.2041845973175
          21 :    13.0834753975900
          22 :   -10.0244289209822
          23 :    6.97237147336500
          24 :   -4.80228748063837
          25 :    4.04227380005887
          26 :   -4.68341226356927
          27 :    6.19018102291261
          28 :   -7.73089726002831
          29 :    8.53518281592073
          30 :   -8.21983187921717
          31 :   -43.2206818043101
          32 :   -31.6875950976000

     Forces acting on atoms (Ry/au):

     negative rho (up, down):  5.941E-01 0.000E+00
     atom    1 type  1   force =     0.00000538   -0.02541503   -0.04195888
     atom    2 type  1   force =     0.00000315   -0.02541140   -0.04196008
     atom    3 type  2   force =     0.00000431    0.02382747    0.06464388
     atom    4 type  2   force =     0.00000563    0.02383145    0.06464621
     atom    5 type  1   force =    -0.00001486    0.01933230    0.00172854
     atom    6 type  1   force =    -0.00001573    0.01933197    0.00172749
     atom    7 type  2   force =    -0.00001469   -0.01973326   -0.02176702
     atom    8 type  2   force =    -0.00000856   -0.01973811   -0.02176957
     atom    9 type  1   force =    -0.00000019    0.00141298   -0.00106712
     atom   10 type  1   force =     0.00000952    0.00141102   -0.00106854
     atom   11 type  2   force =     0.00001369    0.00057972   -0.00157368
     atom   12 type  2   force =     0.00001234    0.00057089   -0.00158122

     Total force =     0.129609     Total SCF correction =     0.002909

     entering subroutine stress ...

     negative rho (up, down):  5.941E-01 0.000E+00
          total   stress  (Ry/bohr**3)                   (kbar)     P=  -12.08
  -0.00003951   0.00000001   0.00000000         -5.81      0.00      0.00
   0.00000001  -0.00013579   0.00000594          0.00    -19.98      0.87
   0.00000000   0.00000594  -0.00007096          0.00      0.87    -10.44

 !ASE

     Writing output data file calc.save

     General routines

     Parallel routines

   This run was terminated on:   4:44: 0  25Dec2018

   JOB DONE.
Job  /afs/slac/g/suncat/bin/suncat-tsmpirun -x LD_LIBRARY_PATH -wdir /scratch/qe109090_IOQyy pw.x -in pw.inp

TID   HOST_NAME   COMMAND_LINE            STATUS            TERMINATION_TIME
00000 suncat0081 pw.x -in pw.inp   Done                     12/25/2018 04:44:00
00001 suncat0081 pw.x -in pw.inp   Done                     12/25/2018 04:44:00
00002 suncat0081 pw.x -in pw.inp   Done                     12/25/2018 04:44:00
00003 suncat0081 pw.x -in pw.inp   Done                     12/25/2018 04:44:00
00004 suncat0081 pw.x -in pw.inp   Done                     12/25/2018 04:44:00
00005 suncat0081 pw.x -in pw.inp   Done                     12/25/2018 04:44:00
00006 suncat0081 pw.x -in pw.inp   Done                     12/25/2018 04:44:00
00007 suncat0081 pw.x -in pw.inp   Done                     12/25/2018 04:44:00
00008 suncat0080 pw.x -in pw.inp   Done                     12/25/2018 04:44:00
00009 suncat0080 pw.x -in pw.inp   Done                     12/25/2018 04:44:00
00010 suncat0080 pw.x -in pw.inp   Done                     12/25/2018 04:44:00
00011 suncat0080 pw.x -in pw.inp   Done                     12/25/2018 04:44:00
00012 suncat0080 pw.x -in pw.inp   Done                     12/25/2018 04:44:00
00013 suncat0080 pw.x -in pw.inp   Done                     12/25/2018 04:44:00
00014 suncat0080 pw.x -in pw.inp   Done                     12/25/2018 04:44:00
00015 suncat0080 pw.x -in pw.inp   Done                     12/25/2018 04:44:00
00016 suncat0172 pw.x -in pw.inp   Done                     12/25/2018 04:44:00
00017 suncat0172 pw.x -in pw.inp   Done                     12/25/2018 04:44:00
00018 suncat0172 pw.x -in pw.inp   Done                     12/25/2018 04:44:00
00019 suncat0172 pw.x -in pw.inp   Done                     12/25/2018 04:44:00
00020 suncat0172 pw.x -in pw.inp   Done                     12/25/2018 04:44:00
00021 suncat0172 pw.x -in pw.inp   Done                     12/25/2018 04:44:00
00022 suncat0172 pw.x -in pw.inp   Done                     12/25/2018 04:44:00
00023 suncat0172 pw.x -in pw.inp   Done                     12/25/2018 04:44:00
00024 suncat0171 pw.x -in pw.inp   Done                     12/25/2018 04:44:00
00025 suncat0171 pw.x -in pw.inp   Done                     12/25/2018 04:44:00
00026 suncat0171 pw.x -in pw.inp   Done                     12/25/2018 04:44:00
00027 suncat0171 pw.x -in pw.inp   Done                     12/25/2018 04:44:00
00028 suncat0171 pw.x -in pw.inp   Done                     12/25/2018 04:44:00
00029 suncat0171 pw.x -in pw.inp   Done                     12/25/2018 04:44:00
00030 suncat0171 pw.x -in pw.inp   Done                     12/25/2018 04:44:00
00031 suncat0171 pw.x -in pw.inp   Done                     12/25/2018 04:44:00
00032 suncat0270 pw.x -in pw.inp   Done                     12/25/2018 04:44:00
00033 suncat0270 pw.x -in pw.inp   Done                     12/25/2018 04:44:00
00034 suncat0270 pw.x -in pw.inp   Done                     12/25/2018 04:44:00
00035 suncat0270 pw.x -in pw.inp   Done                     12/25/2018 04:44:00
00036 suncat0270 pw.x -in pw.inp   Done                     12/25/2018 04:44:00
00037 suncat0270 pw.x -in pw.inp   Done                     12/25/2018 04:44:00
00038 suncat0270 pw.x -in pw.inp   Done                     12/25/2018 04:44:00
00039 suncat0270 pw.x -in pw.inp   Done                     12/25/2018 04:44:00
00040 suncat0268 pw.x -in pw.inp   Done                     12/25/2018 04:44:00
00041 suncat0268 pw.x -in pw.inp   Done                     12/25/2018 04:44:00
00042 suncat0268 pw.x -in pw.inp   Done                     12/25/2018 04:44:00
00043 suncat0268 pw.x -in pw.inp   Done                     12/25/2018 04:44:00
00044 suncat0268 pw.x -in pw.inp   Done                     12/25/2018 04:44:00
00045 suncat0268 pw.x -in pw.inp   Done                     12/25/2018 04:44:00
00046 suncat0268 pw.x -in pw.inp   Done                     12/25/2018 04:44:00
00047 suncat0268 pw.x -in pw.inp   Done                     12/25/2018 04:44:00
00048 suncat0207 pw.x -in pw.inp   Done                     12/25/2018 04:44:00
00049 suncat0207 pw.x -in pw.inp   Done                     12/25/2018 04:44:00
00050 suncat0207 pw.x -in pw.inp   Done                     12/25/2018 04:44:00
00051 suncat0207 pw.x -in pw.inp   Done                     12/25/2018 04:44:00
00052 suncat0207 pw.x -in pw.inp   Done                     12/25/2018 04:44:00
00053 suncat0207 pw.x -in pw.inp   Done                     12/25/2018 04:44:00
00054 suncat0207 pw.x -in pw.inp   Done                     12/25/2018 04:44:00
00055 suncat0207 pw.x -in pw.inp   Done                     12/25/2018 04:44:00
00056 suncat0206 pw.x -in pw.inp   Done                     12/25/2018 04:44:00
00057 suncat0206 pw.x -in pw.inp   Done                     12/25/2018 04:44:00
00058 suncat0206 pw.x -in pw.inp   Done                     12/25/2018 04:44:00
00059 suncat0206 pw.x -in pw.inp   Done                     12/25/2018 04:44:00
00060 suncat0206 pw.x -in pw.inp   Done                     12/25/2018 04:44:00
00061 suncat0206 pw.x -in pw.inp   Done                     12/25/2018 04:44:00
00062 suncat0206 pw.x -in pw.inp   Done                     12/25/2018 04:44:00
00063 suncat0206 pw.x -in pw.inp   Done                     12/25/2018 04:44:00