     Program PWSCF v.5.1rc2 (svn rev. 11289) starts on 27Dec2018 at 20:20:43

     Current dimensions of program PWSCF are:
     Max number of different atomic species (ntypx) = 10
     Max number of k-points (npk) =  40000
     Max angular momentum in pseudopotentials (lmaxx) =  3
     Presently stress not available with electric field

     IMPORTANT: XC functional enforced from input :
     Exchange-correlation      = BEEF-VDW ( 1  4 27 13 2)
     Any further DFT definition will be discarded
     Please, verify this is what you really want

     Subspace diagonalization in iterative solution of the eigenvalue problem:
     a serial algorithm will be used

     bravais-lattice index     =            0
     lattice parameter (alat)  =       1.8897  a.u.
     unit-cell volume          =    4328.9635 (a.u.)^3
     number of atoms/cell      =           12
     number of atomic types    =            2
     number of electrons       =       195.00
     number of Kohn-Sham states=          127
     kinetic-energy cutoff     =      36.7493  Ry
     charge density cutoff     =     367.4932  Ry
     convergence threshold     =      1.0E-06
     mixing beta               =       0.1000
     number of iterations used =           10  plain     mixing
     Exchange-correlation      = BEEF-VDW ( 1  4 27 13 2)
     nstep                     =           50

     celldm(1)=   1.889726  celldm(2)=   0.000000  celldm(3)=   0.000000
     celldm(4)=   0.000000  celldm(5)=   0.000000  celldm(6)=   0.000000

     crystal axes: (cart. coord. in units of alat)
               a(1) = (   5.499591   0.000000   0.000000 )
               a(2) = (  -2.749796   4.762786   0.000000 )
               a(3) = (   0.000000   0.000000  24.490398 )

     reciprocal axes: (cart. coord. in units 2 pi/alat)
               b(1) = (  0.181832  0.104981  0.000000 )
               b(2) = (  0.000000  0.209961  0.000000 )
               b(3) = (  0.000000  0.000000  0.040832 )

     PseudoPot. # 1 for Re read from file:
     /afs/slac.stanford.edu/u/if/mamunm/psp/gbrv1.5pbe/Re.UPF
     MD5 check sum: 85f993410f3e006da9d71c142b4ad953
     Pseudo is Ultrasoft + core correction, Zval = 15.0
     Generated by new atomic code, or converted to UPF format
     Using radial grid of  981 points,  8 beta functions with:
                l(1) =   0
                l(2) =   0
                l(3) =   1
                l(4) =   1
                l(5) =   2
                l(6) =   2
                l(7) =   3
                l(8) =   3
     Q(r) pseudized with  8 coefficients,  rinner =    1.150   1.150   1.150
                                                       1.150   1.150   1.150
                                                       1.150

     PseudoPot. # 2 for Zn read from file:
     /afs/slac.stanford.edu/u/if/mamunm/psp/gbrv1.5pbe/Zn.UPF
     MD5 check sum: df62231357ef9e81f77b2b3087fa5675
     Pseudo is Ultrasoft, Zval = 20.0
     Generated by new atomic code, or converted to UPF format
     Using radial grid of  943 points,  6 beta functions with:
                l(1) =   0
                l(2) =   0
                l(3) =   1
                l(4) =   1
                l(5) =   2
                l(6) =   2
     Q(r) pseudized with  8 coefficients,  rinner =    1.100   1.100   1.100
                                                       1.100   1.100

     vdW kernel table read from file vdW_kernel_table
     MD5 check sum: 095c7af220d748ca6e76c0b4c6cfb241

     atomic species   valence    mass     pseudopotential
        Re1           15.00   186.20700     Re( 1.00)
        Zn1           20.00    65.38000     Zn( 1.00)

     No symmetry found

   Cartesian axes

     site n.     atom                  positions (alat units)
         1           Re1 tau(   1) = (   0.0000000   0.0000000  10.0000000  )
         2           Re1 tau(   2) = (  -1.3748979   2.3813929  10.0000000  )
         3           Re1 tau(   3) = (   1.3748979   2.3813929  10.0000000  )
         4           Zn1 tau(   4) = (   2.7497957   0.0000000  10.0000000  )
         5           Re1 tau(   5) = (   2.7497957   1.5875953  12.2451988  )
         6           Re1 tau(   6) = (   1.3748979   3.9689882  12.2451988  )
         7           Re1 tau(   7) = (  -1.3748979   3.9689882  12.2451988  )
         8           Zn1 tau(   8) = (   0.0000000   1.5875953  12.2451988  )
         9           Re1 tau(   9) = (  -0.0000000   3.1751906  14.4903976  )
        10           Re1 tau(  10) = (   1.3748979   0.7937976  14.4903976  )
        11           Re1 tau(  11) = (   4.1246936   0.7937976  14.4903976  )
        12           Zn1 tau(  12) = (   2.7497957   3.1751906  14.4903976  )

     number of k points=    20  Fermi-Dirac smearing, width (Ry)=  0.0110
                       cart. coord. in units 2pi/alat
        k(    1) = (   0.0000000   0.0000000   0.0000000), wk =   0.0555556
        k(    2) = (   0.0000000   0.0349935   0.0000000), wk =   0.1111111
        k(    3) = (   0.0000000   0.0699870   0.0000000), wk =   0.1111111
        k(    4) = (   0.0000000  -0.1049806   0.0000000), wk =   0.0555556
        k(    5) = (   0.0303053   0.0174968   0.0000000), wk =   0.1111111
        k(    6) = (   0.0303053   0.0524903   0.0000000), wk =   0.1111111
        k(    7) = (   0.0303053   0.0874838   0.0000000), wk =   0.1111111
        k(    8) = (   0.0303053  -0.0874838   0.0000000), wk =   0.1111111
        k(    9) = (   0.0303053  -0.0524903   0.0000000), wk =   0.1111111
        k(   10) = (   0.0303053  -0.0174968   0.0000000), wk =   0.1111111
        k(   11) = (   0.0606106   0.0349935   0.0000000), wk =   0.1111111
        k(   12) = (   0.0606106   0.0699870   0.0000000), wk =   0.1111111
        k(   13) = (   0.0606106   0.1049806   0.0000000), wk =   0.1111111
        k(   14) = (   0.0606106  -0.0699870   0.0000000), wk =   0.1111111
        k(   15) = (   0.0606106  -0.0349935   0.0000000), wk =   0.1111111
        k(   16) = (   0.0606106   0.0000000   0.0000000), wk =   0.1111111
        k(   17) = (  -0.0909158  -0.0524903   0.0000000), wk =   0.0555556
        k(   18) = (  -0.0909158  -0.0174968   0.0000000), wk =   0.1111111
        k(   19) = (  -0.0909158   0.0174968   0.0000000), wk =   0.1111111
        k(   20) = (  -0.0909158  -0.1574709   0.0000000), wk =   0.0555556

     Largest allocated arrays     est. size (Mb)     dimensions
     Largest temporary arrays     est. size (Mb)     dimensions

     Initial potential from superposition of free atoms
     Check: negative starting charge=   -1.154506

     starting charge  190.49917, renormalised to  195.00000

     negative rho (up, down):  1.182E+00 0.000E+00

     *
     * You are using vdW-DF for exchange-correlation in this calculation.
     * Please cite the following three references that made this development
     * possible:
     *
     *   M. Dion, H. Rydberg, E. Schroder, D. C. Langreth, and
     *   B. I. Lundqvist, Phys. Rev. Lett. 92, 246401 (2004).
     *
     *   T. Thonhauser, V. R. Cooper, S. Li, A. Puzder, P. Hyldgaard, and
     *   D. C. Langreth, Phys. Rev. B 76, 125112 (2007).
     *
     *   G. Roman-Perez and J. M. Soler, Phys. Rev. Lett. 103, 096102 (2009).
     *
     *
     * If you are using vdW-DF2, please also cite:
     *
     *   K. Lee, E. D. Murray, L. Kong, B. I. Lundqvist, and
     *   D. C. Langreth, Phys. Rev. B 82, 081101(R) (2010).
     *
     *
     * If you are calculating the stress with vdW-DF, please also cite:
     *
     *   R. Sabatini, E. Kucukbenli, B. Kolb, T. Thonhauser, and
     *   S. de Gironcoli, J. Phys.: Condens. Matter 24, 424209 (2012).
     *

     Carrying out vdW-DF run using the following parameters:

     Nqs =      20    Nr_points =    1024   r_max =   100.000
     q_mesh =
               0.00001000     0.04494208     0.09755937     0.15916263
               0.23128650     0.31572767     0.41458969     0.53033537
               0.66584808     0.82450364     1.01025438     1.22772762
               1.48234092     1.78043706     2.12944203     2.53805004
               3.01644009     3.57652955     4.23227104     5.00000000

     Gradients computed in reciprocal space

     Adding external electric field

     Computed dipole along edir(3) :
        Dipole                0.0000 Ry au,          0.0000 Debye
        Dipole field          0.0000 Ry au

        Potential amp.       -0.0000 Ry
        Total length         45.1231 bohr

     Starting wfc are  156 randomized atomic wfcs

     Self-consistent Calculation

     iteration #  1     ecut=    36.75 Ry     beta=0.10
     Davidson diagonalization with overlap
     ethr =  1.00E-02,  avg # of iterations =  5.2

[...]

     total energy              =   -3091.89986313 Ry
     Harris-Foulkes estimate   =   -3123.21721153 Ry
     estimated scf accuracy    <     170.57186984 Ry

[...]

     End of self-consistent calculation

          k = 0.0000 0.0000 0.0000 ( 16187 PWs)   bands (ev):

  -124.4430-123.9705-123.9704 -78.7530 -78.6952 -78.6952 -78.6194 -78.6194
   -78.6099 -78.4085 -78.4070 -78.3534 -78.3534 -78.3530 -78.3530 -78.1453
   -78.1453 -78.1453 -78.1453 -78.1273 -78.1270 -40.9162 -40.6826 -40.6826
   -40.6325 -40.5024 -40.5024 -40.4949 -40.4532 -40.2514 -40.2374 -40.2374
   -40.1549 -40.1549 -40.1391 -40.0503 -40.0503 -40.0442 -40.0442 -39.9523
   -39.9373 -39.9373 -39.8437 -39.8213 -39.6926 -39.6926 -39.6883 -39.6883
    -7.3157  -5.7678  -5.7678  -5.7290  -5.6383  -5.6383  -5.5497  -5.2637
    -5.2222  -5.2222  -5.1667  -5.1667  -4.9920  -4.9920  -4.9172  -4.9172
    -4.7039  -4.6225  -4.1636  -3.2627  -3.1500  -2.4390  -2.4390  -2.1225
    -1.8226  -1.8226  -1.6206  -1.6206  -1.6095  -1.4200  -1.4200  -0.4218
    -0.4218  -0.1008  -0.0132  -0.0132   0.3833   0.7191   0.7191   0.7597
     1.2456   1.5242   1.5242   1.7631   2.0183   2.4155   2.4155   2.7386
     2.7386   2.8286   2.9355   2.9355   3.1959   3.1959   3.4028   3.4757
     3.4757   3.6187   3.6187   4.0487   4.0487   4.3801   4.6281   4.6281
     4.7064   4.9451   5.4256   5.4256   5.8270   6.2908   6.3973   6.5623
     6.5665   6.5665   6.7293   7.3389   7.4526   7.4950   8.2334

[...]

          k =-0.0909-0.0525 0.0000 ( 16280 PWs)   bands (ev):

[...]

     the Fermi energy is     2.1608 ev

!    total energy              =   -3117.44393089 Ry
     Harris-Foulkes estimate   =   -3117.44392985 Ry
     estimated scf accuracy    <       0.00000017 Ry

     The total energy is the sum of the following terms:

     one-electron contribution =  -22569.52680015 Ry
     hartree contribution      =   11267.97531923 Ry
     xc contribution           =    -616.86725256 Ry
     ewald contribution        =    8801.03599666 Ry
     electric field correction =       0.00000000 Ry
     smearing contrib. (-TS)   =      -0.06119407 Ry

     convergence has been achieved in  17 iterations

 BEEF-vdW xc energy contributions
           1 :   -548.511844533591
           2 :    507.274815445849
           3 :   -434.416163010136
           4 :    345.510440344400
           5 :   -256.746882373387
           6 :    180.213151045902
           7 :   -121.491210545262
           8 :    80.0528700908012
[...]
     Generated by new atomic code, or converted to UPF format
     Using radial grid of  981 points,  8 beta functions with:
                l(1) =   0
                l(2) =   0
                l(3) =   1
                l(4) =   1
                l(5) =   2
                l(6) =   2
                l(7) =   3
                l(8) =   3
     Q(r) pseudized with  8 coefficients,  rinner =    1.150   1.150   1.150
                                                       1.150   1.150   1.150
                                                       1.150

     PseudoPot. # 2 for Zn read from file:
     /afs/slac.stanford.edu/u/if/mamunm/psp/gbrv1.5pbe/Zn.UPF
     MD5 check sum: df62231357ef9e81f77b2b3087fa5675
     Pseudo is Ultrasoft, Zval = 20.0
     Generated by new atomic code, or converted to UPF format
     Using radial grid of  943 points,  6 beta functions with:
                l(1) =   0
                l(2) =   0
                l(3) =   1
                l(4) =   1
                l(5) =   2
                l(6) =   2
     Q(r) pseudized with  8 coefficients,  rinner =    1.100   1.100   1.100
                                                       1.100   1.100

     vdW kernel table read from file vdW_kernel_table
     MD5 check sum: 095c7af220d748ca6e76c0b4c6cfb241

     atomic species   valence    mass     pseudopotential
        Re1           15.00   186.20700     Re( 1.00)
        Zn1           20.00    65.38000     Zn( 1.00)

     No symmetry found

   Cartesian axes

     site n.     atom                  positions (alat units)
         1           Re1 tau(   1) = (   0.0000000   0.0000000  10.0000000  )
         2           Re1 tau(   2) = (  -1.3748979   2.3813929  10.0000000  )
         3           Re1 tau(   3) = (   1.3748979   2.3813929  10.0000000  )
         4           Zn1 tau(   4) = (   2.7497957   0.0000000  10.0000000  )
         5           Re1 tau(   5) = (   2.7497957   1.5875953  12.2451988  )
         6           Re1 tau(   6) = (   1.3748979   3.9689882  12.2451988  )
         7           Re1 tau(   7) = (  -1.3748979   3.9689882  12.2451988  )
         8           Zn1 tau(   8) = (   0.0000000   1.5875953  12.2451988  )
         9           Re1 tau(   9) = (  -0.0000035   3.2659486  14.4209757  )
        10           Re1 tau(  10) = (   1.4534983   0.7484201  14.4209652  )
        11           Re1 tau(  11) = (   4.0460982   0.7484126  14.4209721  )
        12           Zn1 tau(  12) = (   2.7498138   3.1751836  14.7172418  )

     number of k points=    20  Fermi-Dirac smearing, width (Ry)=  0.0110
                       cart. coord. in units 2pi/alat
        k(    1) = (   0.0000000   0.0000000   0.0000000), wk =   0.0555556
        k(    2) = (   0.0000000   0.0349935   0.0000000), wk =   0.1111111
        k(    3) = (   0.0000000   0.0699870   0.0000000), wk =   0.1111111
        k(    4) = (   0.0000000  -0.1049806   0.0000000), wk =   0.0555556
        k(    5) = (   0.0303053   0.0174968   0.0000000), wk =   0.1111111
        k(    6) = (   0.0303053   0.0524903   0.0000000), wk =   0.1111111
        k(    7) = (   0.0303053   0.0874838   0.0000000), wk =   0.1111111
        k(    8) = (   0.0303053  -0.0874838   0.0000000), wk =   0.1111111
        k(    9) = (   0.0303053  -0.0524903   0.0000000), wk =   0.1111111
        k(   10) = (   0.0303053  -0.0174968   0.0000000), wk =   0.1111111
        k(   11) = (   0.0606106   0.0349935   0.0000000), wk =   0.1111111
        k(   12) = (   0.0606106   0.0699870   0.0000000), wk =   0.1111111
        k(   13) = (   0.0606106   0.1049806   0.0000000), wk =   0.1111111
        k(   14) = (   0.0606106  -0.0699870   0.0000000), wk =   0.1111111
        k(   15) = (   0.0606106  -0.0349935   0.0000000), wk =   0.1111111
        k(   16) = (   0.0606106   0.0000000   0.0000000), wk =   0.1111111
        k(   17) = (  -0.0909158  -0.0524903   0.0000000), wk =   0.0555556
        k(   18) = (  -0.0909158  -0.0174968   0.0000000), wk =   0.1111111
        k(   19) = (  -0.0909158   0.0174968   0.0000000), wk =   0.1111111
        k(   20) = (  -0.0909158  -0.1574709   0.0000000), wk =   0.0555556

     Largest allocated arrays     est. size (Mb)     dimensions
     Largest temporary arrays     est. size (Mb)     dimensions

     Initial potential from superposition of free atoms
     Check: negative starting charge=   -1.156156

     starting charge  190.49917, renormalised to  195.00000

[...]

     *
     * You are using vdW-DF for exchange-correlation in this calculation.
     * Please cite the following three references that made this development
     * possible:
     *
     *   M. Dion, H. Rydberg, E. Schroder, D. C. Langreth, and
     *   B. I. Lundqvist, Phys. Rev. Lett. 92, 246401 (2004).
     *
     *   T. Thonhauser, V. R. Cooper, S. Li, A. Puzder, P. Hyldgaard, and
     *   D. C. Langreth, Phys. Rev. B 76, 125112 (2007).
     *
     *   G. Roman-Perez and J. M. Soler, Phys. Rev. Lett. 103, 096102 (2009).
     *
     *
     * If you are using vdW-DF2, please also cite:
     *
     *   K. Lee, E. D. Murray, L. Kong, B. I. Lundqvist, and
     *   D. C. Langreth, Phys. Rev. B 82, 081101(R) (2010).
     *
     *
     * If you are calculating the stress with vdW-DF, please also cite:
     *
     *   R. Sabatini, E. Kucukbenli, B. Kolb, T. Thonhauser, and
     *   S. de Gironcoli, J. Phys.: Condens. Matter 24, 424209 (2012).
     *

     Carrying out vdW-DF run using the following parameters:

     Nqs =      20    Nr_points =    1024   r_max =   100.000
     q_mesh =
               0.00001000     0.04494208     0.09755937     0.15916263
               0.23128650     0.31572767     0.41458969     0.53033537
               0.66584808     0.82450364     1.01025438     1.22772762
               1.48234092     1.78043706     2.12944203     2.53805004
               3.01644009     3.57652955     4.23227104     5.00000000

     Gradients computed in reciprocal space

[...]

     Starting wfc are  156 randomized atomic wfcs

     Self-consistent Calculation

[...]

     total energy              =   -3117.46776217 Ry
     Harris-Foulkes estimate   =   -3117.46776199 Ry
     estimated scf accuracy    <       0.00000393 Ry

     iteration # 17     ecut=    36.75 Ry     beta=0.10
     Davidson diagonalization with overlap
     ethr =  2.02E-09,  avg # of iterations =  2.0

[...]

     negative rho (up, down):  1.199E+00 0.000E+00

     Adding external electric field

     Computed dipole along edir(3) :
        Dipole                0.0466 Ry au,          0.1185 Debye
        Dipole field          0.0001 Ry au

        Potential amp.       -0.0122 Ry
        Total length         45.1231 bohr

     End of self-consistent calculation

[...]

          k = 0.0606 0.0000 0.0000 ( 16298 PWs)   bands (ev):

[...]

          k =-0.0909-0.1575 0.0000 ( 16280 PWs)   bands (ev):

  -124.4161-123.9149-123.8453 -78.6730 -78.6511 -78.6327 -78.5889 -78.5882
   -78.5848 -78.3945 -78.3469 -78.3357 -78.3288 -78.3099 -78.2919 -78.0898
   -78.0895 -78.0717 -78.0204 -78.0203 -78.0087 -40.7439 -40.6149 -40.5634
   -40.5056 -40.4462 -40.4451 -40.3897 -40.3762 -40.3380 -40.2550 -40.1721
   -40.1086 -40.0496 -40.0461 -40.0301 -39.9791 -39.9758 -39.9626 -39.9601
   -39.9441 -39.8988 -39.8921 -39.8554 -39.8499 -39.8394 -39.6738 -39.6519
    -5.7505  -5.5341  -5.5282  -5.4903  -5.4553  -5.4142  -5.2151  -5.0549
    -4.9643  -4.9625  -4.8895  -4.8642  -4.8206  -4.7880  -4.7771  -4.7011
    -4.6728  -3.6277  -3.3545  -3.3080  -3.1507  -2.6420  -2.5806  -1.8646
    -1.7161  -1.6954  -1.3862  -1.3359  -1.2375  -1.1689  -0.9477  -0.6942
    -0.5184  -0.4018  -0.2456  -0.2090   0.1652   0.2021   0.2729   0.3038
     0.4617   0.6005   0.6489   0.9623   1.0099   1.1035   1.2017   1.3491
     2.0245   2.1729   2.3321   2.4200   2.5008   2.6771   2.7373   2.8474
     3.0141   3.1679   3.3070   3.4230   3.6841   3.9209   4.1956   4.4014
     4.5265   4.7376   5.3186   5.7285   6.2107   6.8449   7.2981   7.3075
     7.3187   8.0345   8.0993   8.1110   8.5499   8.7413   8.9020

     the Fermi energy is     2.2368 ev

!    total energy              =   -3117.46776458 Ry
     Harris-Foulkes estimate   =   -3117.46776281 Ry
     estimated scf accuracy    <       0.00000086 Ry

     The total energy is the sum of the following terms:

     one-electron contribution =  -22497.50783925 Ry
     hartree contribution      =   11232.26745988 Ry
     xc contribution           =    -616.99740880 Ry
     ewald contribution        =    8764.82902895 Ry
     electric field correction =       0.00000631 Ry
     smearing contrib. (-TS)   =      -0.05901167 Ry

     convergence has been achieved in  17 iterations

 BEEF-vdW xc energy contributions
           1 :   -548.640943558176
           2 :    507.427437502513
           3 :   -434.606477514718
           4 :    345.730830073093
           5 :   -256.958454615394
           6 :    180.350382988444
           7 :   -121.487320236316
           8 :    79.8778021609747
           9 :   -51.3837459131258
          10 :    31.1567269008746
          11 :   -15.7095522743152
          12 :    3.51412991381005
          13 :    5.58944567512310
          14 :   -11.3974173465691
          15 :    14.0543386190201
          16 :   -14.2125643724675
          17 :    12.8055601819914
          18 :   -10.7579761775124
          19 :    8.82839404065112
          20 :   -7.57590839487250
          21 :    7.33243781316185
          22 :   -8.11804304394707
          23 :    9.56347556730668
          24 :   -10.9745464621559
          25 :    11.5988346363386
          26 :   -10.9945422203792
          27 :    9.28231209849275
          28 :   -7.10079954586809
          29 :    5.26637479509338
          30 :   -4.33424487014452
          31 :   -44.8543636787604
          32 :   -32.7286208084521

     Forces acting on atoms (Ry/au):

     negative rho (up, down):  1.199E+00 0.000E+00
     atom    1 type  1   force =    -0.00000204   -0.03899618    0.02185266
     atom    2 type  1   force =    -0.03377520    0.01949634    0.02185092
     atom    3 type  1   force =     0.03377034    0.01949467    0.02185341
     atom    4 type  2   force =     0.00000108   -0.00000303   -0.03699195
     atom    5 type  1   force =     0.00000263    0.01244917   -0.00876599
     atom    6 type  1   force =     0.01078384   -0.00621988   -0.00876386
     atom    7 type  1   force =    -0.01078582   -0.00622481   -0.00877198
     atom    8 type  2   force =     0.00000928    0.00001394   -0.00300164
     atom    9 type  1   force =     0.00000443   -0.00027336    0.00002404
     atom   10 type  1   force =    -0.00023946    0.00013445    0.00002438
     atom   11 type  1   force =     0.00023605    0.00013190    0.00002630
     atom   12 type  2   force =    -0.00000513   -0.00000321    0.00066370

     Total force =     0.089824     Total SCF correction =     0.004373

     entering subroutine stress ...

     negative rho (up, down):  1.199E+00 0.000E+00
          total   stress  (Ry/bohr**3)                   (kbar)     P=  -36.36
  -0.00033970   0.00000000  -0.00000000        -49.97      0.00     -0.00
   0.00000000  -0.00033970   0.00000000          0.00    -49.97      0.00
  -0.00000000   0.00000000  -0.00006220         -0.00      0.00     -9.15

 !ASE

     Writing output data file calc.save

     General routines

     Parallel routines

   This run was terminated on:  22:18:11  27Dec2018

   JOB DONE.
Job  /afs/slac/g/suncat/bin/suncat-tsmpirun -x LD_LIBRARY_PATH -wdir /scratch/qe110660_0UuUG pw.x -in pw.inp

TID   HOST_NAME   COMMAND_LINE            STATUS            TERMINATION_TIME
00000 suncat0266 pw.x -in pw.inp   Done                     12/27/2018 22:18:11
00001 suncat0266 pw.x -in pw.inp   Done                     12/27/2018 22:18:11
00002 suncat0266 pw.x -in pw.inp   Done                     12/27/2018 22:18:11
00003 suncat0266 pw.x -in pw.inp   Done                     12/27/2018 22:18:11
00004 suncat0266 pw.x -in pw.inp   Done                     12/27/2018 22:18:11
00005 suncat0266 pw.x -in pw.inp   Done                     12/27/2018 22:18:11
00006 suncat0266 pw.x -in pw.inp   Done                     12/27/2018 22:18:11
00007 suncat0266 pw.x -in pw.inp   Done                     12/27/2018 22:18:11
00008 suncat0264 pw.x -in pw.inp   Done                     12/27/2018 22:18:11
00009 suncat0264 pw.x -in pw.inp   Done                     12/27/2018 22:18:11
00010 suncat0264 pw.x -in pw.inp   Done                     12/27/2018 22:18:11
00011 suncat0264 pw.x -in pw.inp   Done                     12/27/2018 22:18:11
00012 suncat0264 pw.x -in pw.inp   Done                     12/27/2018 22:18:11
00013 suncat0264 pw.x -in pw.inp   Done                     12/27/2018 22:18:11
00014 suncat0264 pw.x -in pw.inp   Done                     12/27/2018 22:18:11
00015 suncat0264 pw.x -in pw.inp   Done                     12/27/2018 22:18:11
00016 suncat0256 pw.x -in pw.inp   Done                     12/27/2018 22:18:11
00017 suncat0256 pw.x -in pw.inp   Done                     12/27/2018 22:18:11
00018 suncat0256 pw.x -in pw.inp   Done                     12/27/2018 22:18:11
00019 suncat0256 pw.x -in pw.inp   Done                     12/27/2018 22:18:11
00020 suncat0256 pw.x -in pw.inp   Done                     12/27/2018 22:18:11
00021 suncat0256 pw.x -in pw.inp   Done                     12/27/2018 22:18:11
00022 suncat0256 pw.x -in pw.inp   Done                     12/27/2018 22:18:11
00023 suncat0256 pw.x -in pw.inp   Done                     12/27/2018 22:18:11
00024 suncat0255 pw.x -in pw.inp   Done                     12/27/2018 22:18:11
00025 suncat0255 pw.x -in pw.inp   Done                     12/27/2018 22:18:11
00026 suncat0255 pw.x -in pw.inp   Done                     12/27/2018 22:18:11
00027 suncat0255 pw.x -in pw.inp   Done                     12/27/2018 22:18:11
00028 suncat0255 pw.x -in pw.inp   Done                     12/27/2018 22:18:11
00029 suncat0255 pw.x -in pw.inp   Done                     12/27/2018 22:18:11
00030 suncat0255 pw.x -in pw.inp   Done                     12/27/2018 22:18:11
00031 suncat0255 pw.x -in pw.inp   Done                     12/27/2018 22:18:11
00032 suncat0234 pw.x -in pw.inp   Done                     12/27/2018 22:18:11
00033 suncat0234 pw.x -in pw.inp   Done                     12/27/2018 22:18:11
00034 suncat0234 pw.x -in pw.inp   Done                     12/27/2018 22:18:11
00035 suncat0234 pw.x -in pw.inp   Done                     12/27/2018 22:18:11
00036 suncat0234 pw.x -in pw.inp   Done                     12/27/2018 22:18:11
00037 suncat0234 pw.x -in pw.inp   Done                     12/27/2018 22:18:11
00038 suncat0234 pw.x -in pw.inp   Done                     12/27/2018 22:18:11
00039 suncat0234 pw.x -in pw.inp   Done                     12/27/2018 22:18:11
00040 suncat0233 pw.x -in pw.inp   Done                     12/27/2018 22:18:11
00041 suncat0233 pw.x -in pw.inp   Done                     12/27/2018 22:18:11
00042 suncat0233 pw.x -in pw.inp   Done                     12/27/2018 22:18:11
00043 suncat0233 pw.x -in pw.inp   Done                     12/27/2018 22:18:11
00044 suncat0233 pw.x -in pw.inp   Done                     12/27/2018 22:18:11
00045 suncat0233 pw.x -in pw.inp   Done                     12/27/2018 22:18:11
00046 suncat0233 pw.x -in pw.inp   Done                     12/27/2018 22:18:11
00047 suncat0233 pw.x -in pw.inp   Done                     12/27/2018 22:18:11
00048 suncat0222 pw.x -in pw.inp   Done                     12/27/2018 22:18:11
00049 suncat0222 pw.x -in pw.inp   Done                     12/27/2018 22:18:11
00050 suncat0222 pw.x -in pw.inp   Done                     12/27/2018 22:18:11
00051 suncat0222 pw.x -in pw.inp   Done                     12/27/2018 22:18:11
00052 suncat0222 pw.x -in pw.inp   Done                     12/27/2018 22:18:11
00053 suncat0222 pw.x -in pw.inp   Done                     12/27/2018 22:18:11
00054 suncat0222 pw.x -in pw.inp   Done                     12/27/2018 22:18:11
00055 suncat0222 pw.x -in pw.inp   Done                     12/27/2018 22:18:11
00056 suncat0221 pw.x -in pw.inp   Done                     12/27/2018 22:18:11
00057 suncat0221 pw.x -in pw.inp   Done                     12/27/2018 22:18:11
00058 suncat0221 pw.x -in pw.inp   Done                     12/27/2018 22:18:11
00059 suncat0221 pw.x -in pw.inp   Done                     12/27/2018 22:18:11
00060 suncat0221 pw.x -in pw.inp   Done                     12/27/2018 22:18:11
00061 suncat0221 pw.x -in pw.inp   Done                     12/27/2018 22:18:11
00062 suncat0221 pw.x -in pw.inp   Done                     12/27/2018 22:18:11
00063 suncat0221 pw.x -in pw.inp   Done                     12/27/2018 22:18:11