     Program PWSCF v.5.1rc2 (svn rev. 11289) starts on  2Jan2019 at 15:38:25

     Current dimensions of program PWSCF are:
     Max number of different atomic species (ntypx) = 10
     Max number of k-points (npk) =  40000
     Max angular momentum in pseudopotentials (lmaxx) =  3
     Presently stress not available with electric field

     IMPORTANT: XC functional enforced from input :
     Exchange-correlation      = BEEF-VDW ( 1  4 27 13 2)
     Any further DFT definition will be discarded
     Please, verify this is what you really want

     Subspace diagonalization in iterative solution of the eigenvalue problem:
     a serial algorithm will be used

     bravais-lattice index     =            0
     lattice parameter (alat)  =       1.8897  a.u.
     unit-cell volume          =    4738.1591 (a.u.)^3
     number of atoms/cell      =           12
     number of atomic types    =            2
     number of electrons       =       216.00
     number of Kohn-Sham states=          138
     kinetic-energy cutoff     =      36.7493  Ry
     charge density cutoff     =     367.4932  Ry
     convergence threshold     =      1.0E-06
     mixing beta               =       0.1000
     number of iterations used =           10  plain     mixing
     Exchange-correlation      = BEEF-VDW ( 1  4 27 13 2)
     nstep                     =           50

     celldm(1)=   1.889726  celldm(2)=   0.000000  celldm(3)=   0.000000
     celldm(4)=   0.000000  celldm(5)=   0.000000  celldm(6)=   0.000000

     crystal axes: (cart. coord. in units of alat)
               a(1) = (   5.731530   0.000000   0.000000 )
               a(2) = (  -2.865765   4.963651   0.000000 )
               a(3) = (   0.000000   0.000000  24.679775 )

     reciprocal axes: (cart. coord. in units 2 pi/alat)
               b(1) = (  0.174473  0.100732  0.000000 )
               b(2) = (  0.000000  0.201465  0.000000 )
               b(3) = (  0.000000  0.000000  0.040519 )

     PseudoPot. # 1 for Zn read from file:
     /afs/slac.stanford.edu/u/if/mamunm/psp/gbrv1.5pbe/Zn.UPF
     MD5 check sum: df62231357ef9e81f77b2b3087fa5675
     Pseudo is Ultrasoft, Zval = 20.0
     Generated by new atomic code, or converted to UPF format
     Using radial grid of  943 points,  6 beta functions with:
                l(1) =   0
                l(2) =   0
                l(3) =   1
                l(4) =   1
                l(5) =   2
                l(6) =   2
     Q(r) pseudized with  8 coefficients,  rinner =    1.100   1.100   1.100
                                                       1.100   1.100

     PseudoPot. # 2 for Hf read from file:
     /afs/slac.stanford.edu/u/if/mamunm/psp/gbrv1.5pbe/Hf.UPF
     MD5 check sum: 8ee9378dfe14276e333edf04c5e4aa26
     Pseudo is Ultrasoft + core correction, Zval = 12.0
     Generated by new atomic code, or converted to UPF format
     Using radial grid of  921 points,  8 beta functions with:
                l(1) =   0
                l(2) =   0
                l(3) =   0
                l(4) =   1
                l(5) =   1
                l(6) =   2
                l(7) =   2
                l(8) =   3
     Q(r) pseudized with  6 coefficients,  rinner =    1.200   1.200   1.200
                                                       1.200   1.200   1.200
                                                       1.200

     vdW kernel table read from file vdW_kernel_table
     MD5 check sum: 095c7af220d748ca6e76c0b4c6cfb241

     atomic species   valence    mass     pseudopotential
        Zn1           20.00    65.38000     Zn( 1.00)
        Hf1           12.00   178.49000     Hf( 1.00)

     No symmetry found

   Cartesian axes

     site n.     atom                  positions (alat units)
         1           Zn1 tau(   1) = (   0.0000000   0.0000000  10.0000000  )
         2           Zn1 tau(   2) = (  -1.4328826   2.4818255  10.0000000  )
         3           Zn1 tau(   3) = (   1.4328826   2.4818255  10.0000000  )
         4           Hf1 tau(   4) = (   2.8657652   0.0000000  10.0000000  )
         5           Zn1 tau(   5) = (   2.8657652   1.6545503  12.3398875  )
         6           Zn1 tau(   6) = (   1.4328826   4.1363758  12.3398875  )
         7           Zn1 tau(   7) = (  -1.4328826   4.1363758  12.3398875  )
         8           Hf1 tau(   8) = (   0.0000000   1.6545503  12.3398875  )
         9           Zn1 tau(   9) = (  -0.0000000   3.3091007  14.6797750  )
        10           Zn1 tau(  10) = (   1.4328826   0.8272752  14.6797750  )
        11           Zn1 tau(  11) = (   4.2986478   0.8272752  14.6797750  )
        12           Hf1 tau(  12) = (   2.8657652   3.3091007  14.6797750  )

     number of k points=    20  Fermi-Dirac smearing, width (Ry)=  0.0110
                       cart. coord. in units 2pi/alat
        k(    1) = (   0.0000000   0.0000000   0.0000000), wk =   0.0555556
        k(    2) = (   0.0000000   0.0335774   0.0000000), wk =   0.1111111
        k(    3) = (   0.0000000   0.0671549   0.0000000), wk =   0.1111111
        k(    4) = (   0.0000000  -0.1007323   0.0000000), wk =   0.0555556
        k(    5) = (   0.0290789   0.0167887   0.0000000), wk =   0.1111111
        k(    6) = (   0.0290789   0.0503662   0.0000000), wk =   0.1111111
        k(    7) = (   0.0290789   0.0839436   0.0000000), wk =   0.1111111
        k(    8) = (   0.0290789  -0.0839436   0.0000000), wk =   0.1111111
        k(    9) = (   0.0290789  -0.0503662   0.0000000), wk =   0.1111111
        k(   10) = (   0.0290789  -0.0167887   0.0000000), wk =   0.1111111
        k(   11) = (   0.0581578   0.0335774   0.0000000), wk =   0.1111111
        k(   12) = (   0.0581578   0.0671549   0.0000000), wk =   0.1111111
        k(   13) = (   0.0581578   0.1007323   0.0000000), wk =   0.1111111
        k(   14) = (   0.0581578  -0.0671549   0.0000000), wk =   0.1111111
        k(   15) = (   0.0581578  -0.0335774   0.0000000), wk =   0.1111111
        k(   16) = (   0.0581578   0.0000000   0.0000000), wk =   0.1111111
        k(   17) = (  -0.0872367  -0.0503662   0.0000000), wk =   0.0555556
        k(   18) = (  -0.0872367  -0.0167887   0.0000000), wk =   0.1111111
        k(   19) = (  -0.0872367   0.0167887   0.0000000), wk =   0.1111111
        k(   20) = (  -0.0872367  -0.1510985   0.0000000), wk =   0.0555556

     Largest allocated arrays     est. size (Mb)     dimensions
     Largest temporary arrays     est. size (Mb)     dimensions

     Check: negative/imaginary core charge=   -0.000003    0.000000

     Initial potential from superposition of free atoms
     Check: negative starting charge=   -0.322300

     starting charge  209.99873, renormalised to  216.00000

     negative rho (up, down):  3.315E-01 0.000E+00

     *
     * You are using vdW-DF for exchange-correlation in this calculation.
     * Please cite the following three references that made this development
     * possible:
     *
     *   M. Dion, H. Rydberg, E. Schroder, D. C. Langreth, and
     *   B. I. Lundqvist, Phys. Rev. Lett. 92, 246401 (2004).
     *
     *   T. Thonhauser, V. R. Cooper, S. Li, A. Puzder, P. Hyldgaard, and
     *   D. C. Langreth, Phys. Rev. B 76, 125112 (2007).
     *
     *   G. Roman-Perez and J. M. Soler, Phys. Rev. Lett. 103, 096102 (2009).
     *
     *
     * If you are using vdW-DF2, please also cite:
     *
     *   K. Lee, E. D. Murray, L. Kong, B. I. Lundqvist, and
     *   D. C. Langreth, Phys. Rev. B 82, 081101(R) (2010).
     *
     *
     * If you are calculating the stress with vdW-DF, please also cite:
     *
     *   R. Sabatini, E. Kucukbenli, B. Kolb, T. Thonhauser, and
     *   S. de Gironcoli, J. Phys.: Condens. Matter 24, 424209 (2012).
     *

     Carrying out vdW-DF run using the following parameters:

     Nqs =      20    Nr_points =    1024   r_max =   100.000
     q_mesh =
               0.00001000     0.04494208     0.09755937     0.15916263
               0.23128650     0.31572767     0.41458969     0.53033537
               0.66584808     0.82450364     1.01025438     1.22772762
               1.48234092     1.78043706     2.12944203     2.53805004
               3.01644009     3.57652955     4.23227104     5.00000000

     Gradients computed in reciprocal space

     Adding external electric field

     Computed dipole along edir(3) :
        Dipole               -0.0000 Ry au,         -0.0000 Debye
        Dipole field         -0.0000 Ry au

        Potential amp.        0.0000 Ry
        Total length         45.4721 bohr

     Starting wfc are  156 randomized atomic wfcs

     Self-consistent Calculation

     iteration #  1     ecut=    36.75 Ry     beta=0.10
     Davidson diagonalization with overlap
     ethr =  1.00E-02,  avg # of iterations =  7.2

[...]

     total energy              =   -4627.79512663 Ry
     Harris-Foulkes estimate   =   -4658.35463129 Ry
     estimated scf accuracy    <     171.11022384 Ry

[...]

     End of self-consistent calculation

          k = 0.0000 0.0000 0.0000 ( 17909 PWs)   bands (ev):

  -125.2780-125.2775-125.2774-125.2774-125.2768-125.2768-125.2533-125.2527
  -125.2527 -79.4594 -79.4587 -79.4584 -79.4584 -79.4578 -79.4578 -79.4509
   -79.4504 -79.4484 -79.4484 -79.4479 -79.4479 -79.4440 -79.4434 -79.4416
   -79.4416 -79.4410 -79.4410 -79.4361 -79.4361 -79.4325 -79.4320 -79.4271
   -79.4271 -79.4074 -79.4030 -79.4030 -61.9967 -61.9967 -61.8630 -30.6606
   -30.6596 -30.4525 -30.4277 -30.4277 -30.4269 -30.4269 -30.3571 -30.3571
    -7.6593  -6.7187  -6.7147  -6.7001  -6.6585  -6.6411  -6.6411  -6.6052
    -6.6008  -6.6008  -6.5716  -6.5599  -6.5599  -6.5268  -6.5268  -6.3819
    -6.3055  -6.3055  -6.2957  -6.2957  -6.2267  -6.1874  -6.1720  -6.1210
    -6.1210  -6.1077  -6.1077  -6.1021  -6.1021  -6.0418  -6.0418  -6.0336
    -5.9975  -5.9975  -5.9811  -5.9811  -5.9255  -5.9255  -5.8337  -5.8337
    -5.8176  -5.7628  -5.7628  -5.7341  -5.7310  -5.7001  -5.5828  -3.3675
    -1.9039  -1.9039  -1.4235  -1.4235  -1.1257  -0.7108  -0.7108  -0.6727
     0.0236   0.2949   0.2949   0.4950   1.3089   1.6946   1.6946   1.7912
     1.7912   2.3555   2.3555   2.7197   2.7197   2.9997   3.4025   4.0150
     4.0450   4.0450   4.5177   4.5427   5.0658   5.1034   5.5102   5.6004
     5.6004   5.6302   5.6302   5.7934   6.6190   6.8129   6.8129   7.6477
     7.8660   7.8660

[...]

          k =-0.0872-0.0504 0.0000 ( 17808 PWs)   bands (ev):

[...]

     the Fermi energy is     1.0075 ev

!    total energy              =   -4646.60950308 Ry
     Harris-Foulkes estimate   =   -4646.62467225 Ry
     estimated scf accuracy    <       0.00000087 Ry

     The total energy is the sum of the following terms:

     one-electron contribution =  -27271.67952433 Ry
     hartree contribution      =   13620.47016686 Ry
     xc contribution           =    -622.66240718 Ry
     ewald contribution        =    9627.31554692 Ry
     electric field correction =       0.00000002 Ry
     smearing contrib. (-TS)   =      -0.05328536 Ry

     convergence has been achieved in  16 iterations

 BEEF-vdW xc energy contributions
           1 :   -556.331586374549
           2 :    509.238442620546
           3 :   -428.693224146395
[...]
     Q(r) pseudized with  8 coefficients,  rinner =    1.100   1.100   1.100
                                                       1.100   1.100

     PseudoPot. # 2 for Hf read from file:
     /afs/slac.stanford.edu/u/if/mamunm/psp/gbrv1.5pbe/Hf.UPF
     MD5 check sum: 8ee9378dfe14276e333edf04c5e4aa26
     Pseudo is Ultrasoft + core correction, Zval = 12.0
     Generated by new atomic code, or converted to UPF format
     Using radial grid of  921 points,  8 beta functions with:
                l(1) =   0
                l(2) =   0
                l(3) =   0
                l(4) =   1
                l(5) =   1
                l(6) =   2
                l(7) =   2
                l(8) =   3
     Q(r) pseudized with  6 coefficients,  rinner =    1.200   1.200   1.200
                                                       1.200   1.200   1.200
                                                       1.200

     vdW kernel table read from file vdW_kernel_table
     MD5 check sum: 095c7af220d748ca6e76c0b4c6cfb241

     atomic species   valence    mass     pseudopotential
        Zn1           20.00    65.38000     Zn( 1.00)
        Hf1           12.00   178.49000     Hf( 1.00)

     No symmetry found

   Cartesian axes

     site n.     atom                  positions (alat units)
         1           Zn1 tau(   1) = (   0.0000000   0.0000000  10.0000000  )
         2           Zn1 tau(   2) = (  -1.4328826   2.4818255  10.0000000  )
         3           Zn1 tau(   3) = (   1.4328826   2.4818255  10.0000000  )
         4           Hf1 tau(   4) = (   2.8657652   0.0000000  10.0000000  )
         5           Zn1 tau(   5) = (   2.8657652   1.6545503  12.3398875  )
         6           Zn1 tau(   6) = (   1.4328826   4.1363758  12.3398875  )
         7           Zn1 tau(   7) = (  -1.4328826   4.1363758  12.3398875  )
         8           Hf1 tau(   8) = (   0.0000000   1.6545503  12.3398875  )
         9           Zn1 tau(   9) = (   0.0000007   3.3687122  14.7004246  )
        10           Zn1 tau(  10) = (   1.4845096   0.7974672  14.7004241  )
        11           Zn1 tau(  11) = (   4.2470185   0.7974680  14.7004216  )
        12           Hf1 tau(  12) = (   2.8657648   3.3091005  14.6305149  )

     number of k points=    20  Fermi-Dirac smearing, width (Ry)=  0.0110
                       cart. coord. in units 2pi/alat
        k(    1) = (   0.0000000   0.0000000   0.0000000), wk =   0.0555556
        k(    2) = (   0.0000000   0.0335774   0.0000000), wk =   0.1111111
        k(    3) = (   0.0000000   0.0671549   0.0000000), wk =   0.1111111
        k(    4) = (   0.0000000  -0.1007323   0.0000000), wk =   0.0555556
        k(    5) = (   0.0290789   0.0167887   0.0000000), wk =   0.1111111
        k(    6) = (   0.0290789   0.0503662   0.0000000), wk =   0.1111111
        k(    7) = (   0.0290789   0.0839436   0.0000000), wk =   0.1111111
        k(    8) = (   0.0290789  -0.0839436   0.0000000), wk =   0.1111111
        k(    9) = (   0.0290789  -0.0503662   0.0000000), wk =   0.1111111
        k(   10) = (   0.0290789  -0.0167887   0.0000000), wk =   0.1111111
        k(   11) = (   0.0581578   0.0335774   0.0000000), wk =   0.1111111
        k(   12) = (   0.0581578   0.0671549   0.0000000), wk =   0.1111111
        k(   13) = (   0.0581578   0.1007323   0.0000000), wk =   0.1111111
        k(   14) = (   0.0581578  -0.0671549   0.0000000), wk =   0.1111111
        k(   15) = (   0.0581578  -0.0335774   0.0000000), wk =   0.1111111
        k(   16) = (   0.0581578   0.0000000   0.0000000), wk =   0.1111111
        k(   17) = (  -0.0872367  -0.0503662   0.0000000), wk =   0.0555556
        k(   18) = (  -0.0872367  -0.0167887   0.0000000), wk =   0.1111111
        k(   19) = (  -0.0872367   0.0167887   0.0000000), wk =   0.1111111
        k(   20) = (  -0.0872367  -0.1510985   0.0000000), wk =   0.0555556

     Largest allocated arrays     est. size (Mb)     dimensions
     Largest temporary arrays     est. size (Mb)     dimensions

     Check: negative/imaginary core charge=   -0.000003    0.000000

     Initial potential from superposition of free atoms
     Check: negative starting charge=   -0.322164

     starting charge  209.99873, renormalised to  216.00000

[...]

     *
     * You are using vdW-DF for exchange-correlation in this calculation.
     * Please cite the following three references that made this development
     * possible:
     *
     *   M. Dion, H. Rydberg, E. Schroder, D. C. Langreth, and
     *   B. I. Lundqvist, Phys. Rev. Lett. 92, 246401 (2004).
     *
     *   T. Thonhauser, V. R. Cooper, S. Li, A. Puzder, P. Hyldgaard, and
     *   D. C. Langreth, Phys. Rev. B 76, 125112 (2007).
     *
     *   G. Roman-Perez and J. M. Soler, Phys. Rev. Lett. 103, 096102 (2009).
     *
     *
     * If you are using vdW-DF2, please also cite:
     *
     *   K. Lee, E. D. Murray, L. Kong, B. I. Lundqvist, and
     *   D. C. Langreth, Phys. Rev. B 82, 081101(R) (2010).
     *
     *
     * If you are calculating the stress with vdW-DF, please also cite:
     *
     *   R. Sabatini, E. Kucukbenli, B. Kolb, T. Thonhauser, and
     *   S. de Gironcoli, J. Phys.: Condens. Matter 24, 424209 (2012).
     *

     Carrying out vdW-DF run using the following parameters:

     Nqs =      20    Nr_points =    1024   r_max =   100.000
     q_mesh =
               0.00001000     0.04494208     0.09755937     0.15916263
               0.23128650     0.31572767     0.41458969     0.53033537
               0.66584808     0.82450364     1.01025438     1.22772762
               1.48234092     1.78043706     2.12944203     2.53805004
               3.01644009     3.57652955     4.23227104     5.00000000

     Gradients computed in reciprocal space

[...]

     Starting wfc are  156 randomized atomic wfcs

     Self-consistent Calculation

[...]

     total energy              =   -4646.63759035 Ry
     Harris-Foulkes estimate   =   -4646.63758946 Ry
     estimated scf accuracy    <       0.00001127 Ry

     iteration # 18     ecut=    36.75 Ry     beta=0.10
     Davidson diagonalization with overlap
     ethr =  5.22E-09,  avg # of iterations =  1.0

[...]

     negative rho (up, down):  3.424E-01 0.000E+00

     Adding external electric field

     Computed dipole along edir(3) :
        Dipole               -0.0094 Ry au,         -0.0240 Debye
        Dipole field         -0.0000 Ry au

        Potential amp.        0.0023 Ry
        Total length         45.4721 bohr

     End of self-consistent calculation

[...]

          k = 0.0582 0.0000 0.0000 ( 17837 PWs)   bands (ev):

[...]

          k =-0.0872-0.1511 0.0000 ( 17808 PWs)   bands (ev):

  -125.2878-125.2876-125.2874-125.2690-125.2685-125.2684-125.2594-125.2592
  -125.2590 -79.4694 -79.4691 -79.4688 -79.4593 -79.4560 -79.4557 -79.4554
   -79.4552 -79.4518 -79.4495 -79.4484 -79.4481 -79.4417 -79.4403 -79.4396
   -79.4394 -79.4388 -79.4380 -79.4362 -79.4361 -79.4357 -79.4347 -79.4337
   -79.4332 -79.4139 -79.4123 -79.4106 -62.0006 -61.9445 -61.9000 -30.6634
   -30.6103 -30.4835 -30.4338 -30.4324 -30.3941 -30.3916 -30.3810 -30.3760
    -6.6495  -6.6017  -6.5306  -6.5086  -6.5038  -6.4846  -6.4744  -6.4565
    -6.4405  -6.4268  -6.4089  -6.3887  -6.3569  -6.3482  -6.3240  -6.3043
    -6.2939  -6.2643  -6.2611  -6.2180  -6.2115  -6.1912  -6.1798  -6.1760
    -6.1754  -6.1668  -6.1485  -6.0936  -6.0876  -6.0752  -6.0746  -6.0541
    -6.0460  -6.0437  -6.0397  -6.0341  -6.0252  -6.0099  -5.9957  -5.9911
    -5.9793  -5.9161  -5.8438  -5.8059  -5.7312  -5.6469  -5.6119  -4.4834
    -3.9478  -3.0628  -2.3851  -1.9885  -1.6543  -1.3917  -1.0421   0.1079
     0.4130   0.6128   0.6485   0.6801   1.0030   1.1181   1.4918   1.7049
     1.9629   2.4108   3.1899   3.7763   3.9027   3.9876   4.1447   4.2523
     4.3973   4.6749   4.7939   5.2968   5.4104   5.4564   5.6741   5.9145
     5.9557   5.9602   6.2220   6.2551   6.4458   6.5283   6.8549   7.1074
     7.2000   7.2937

     the Fermi energy is     0.9990 ev

!    total energy              =   -4646.63759491 Ry
     Harris-Foulkes estimate   =   -4646.63759077 Ry
     estimated scf accuracy    <       0.00000096 Ry

     The total energy is the sum of the following terms:

     one-electron contribution =  -27245.22185627 Ry
     hartree contribution      =   13607.21385608 Ry
     xc contribution           =    -622.69373187 Ry
     ewald contribution        =    9614.11856466 Ry
     electric field correction =       0.00000024 Ry
     smearing contrib. (-TS)   =      -0.05442774 Ry

     convergence has been achieved in  18 iterations

 BEEF-vdW xc energy contributions
           1 :   -557.085721172481
           2 :    509.993215730373
           3 :   -429.449039616860
           4 :    336.452773610279
           5 :   -250.557555935064
           6 :    183.076720860947
           7 :   -135.350725592386
           8 :    101.939152356265
           9 :   -76.0527893108167
          10 :    53.7871368664535
          11 :   -35.1106056992990
          12 :    21.8655073129220
          13 :   -14.8616304219744
          14 :    12.3205080262913
          15 :   -10.6389643739896
          16 :    6.64348378894124
          17 :   0.449323418592371
          18 :   -8.76824295142364
          19 :    15.2757015783986
          20 :   -17.8523009488069
          21 :    16.5250073881493
          22 :   -13.1440601553425
          23 :    9.94539998783841
          24 :   -8.14555749395345
          25 :    7.52234340751613
          26 :   -7.10374145992751
          27 :    6.26299150959733
          28 :   -5.31560858681200
          29 :    5.19576623250350
          30 :   -6.55259454449038
          31 :   -41.8503614525210
          32 :   -29.1270462735996

     Forces acting on atoms (Ry/au):

     negative rho (up, down):  3.424E-01 0.000E+00
     atom    1 type  1   force =     0.00000022   -0.01159025   -0.00295027
     atom    2 type  1   force =    -0.01003788    0.00579492   -0.00295102
     atom    3 type  1   force =     0.01003769    0.00579492   -0.00295012
     atom    4 type  2   force =     0.00000014    0.00000006    0.00715540
     atom    5 type  1   force =    -0.00000018   -0.00111190   -0.00326045
     atom    6 type  1   force =    -0.00096295    0.00055566   -0.00326056
     atom    7 type  1   force =     0.00096298    0.00055592   -0.00326030
     atom    8 type  2   force =     0.00000001    0.00000000    0.01114454
     atom    9 type  1   force =    -0.00000035    0.00115396   -0.00023200
     atom   10 type  1   force =     0.00099954   -0.00057669   -0.00023136
     atom   11 type  1   force =    -0.00099928   -0.00057669   -0.00023157
     atom   12 type  2   force =     0.00000007    0.00000009    0.00102770

     Total force =     0.025404     Total SCF correction =     0.004956
     SCF correction compared to forces is large: reduce conv_thr to get better values

     entering subroutine stress ...

     negative rho (up, down):  3.424E-01 0.000E+00
          total   stress  (Ry/bohr**3)                   (kbar)     P=  -12.52
  -0.00010318   0.00000000   0.00000000        -15.18      0.00      0.00
   0.00000000  -0.00010318   0.00000000          0.00    -15.18      0.00
   0.00000000   0.00000000  -0.00004900          0.00      0.00     -7.21

 !ASE

     Writing output data file calc.save

     General routines

     Parallel routines

   This run was terminated on:  16:45:33   2Jan2019

   JOB DONE.
Job  /afs/slac/g/suncat/bin/suncat-tsmpirun -x LD_LIBRARY_PATH -wdir /scratch/qe649476_p4ZXK pw.x -in pw.inp

TID   HOST_NAME   COMMAND_LINE            STATUS            TERMINATION_TIME
00000 suncat0154 pw.x -in pw.inp   Done                     01/02/2019 16:45:33
00001 suncat0154 pw.x -in pw.inp   Done                     01/02/2019 16:45:33
00002 suncat0154 pw.x -in pw.inp   Done                     01/02/2019 16:45:33
00003 suncat0154 pw.x -in pw.inp   Done                     01/02/2019 16:45:33
00004 suncat0154 pw.x -in pw.inp   Done                     01/02/2019 16:45:33
00005 suncat0154 pw.x -in pw.inp   Done                     01/02/2019 16:45:33
00006 suncat0154 pw.x -in pw.inp   Done                     01/02/2019 16:45:33
00007 suncat0154 pw.x -in pw.inp   Done                     01/02/2019 16:45:33
00008 suncat0143 pw.x -in pw.inp   Done                     01/02/2019 16:45:33
00009 suncat0143 pw.x -in pw.inp   Done                     01/02/2019 16:45:33
00010 suncat0143 pw.x -in pw.inp   Done                     01/02/2019 16:45:33
00011 suncat0143 pw.x -in pw.inp   Done                     01/02/2019 16:45:33
00012 suncat0143 pw.x -in pw.inp   Done                     01/02/2019 16:45:33
00013 suncat0143 pw.x -in pw.inp   Done                     01/02/2019 16:45:33
00014 suncat0143 pw.x -in pw.inp   Done                     01/02/2019 16:45:33
00015 suncat0143 pw.x -in pw.inp   Done                     01/02/2019 16:45:33
00016 suncat0108 pw.x -in pw.inp   Done                     01/02/2019 16:45:33
00017 suncat0108 pw.x -in pw.inp   Done                     01/02/2019 16:45:33
00018 suncat0108 pw.x -in pw.inp   Done                     01/02/2019 16:45:33
00019 suncat0108 pw.x -in pw.inp   Done                     01/02/2019 16:45:33
00020 suncat0108 pw.x -in pw.inp   Done                     01/02/2019 16:45:33
00021 suncat0108 pw.x -in pw.inp   Done                     01/02/2019 16:45:33
00022 suncat0108 pw.x -in pw.inp   Done                     01/02/2019 16:45:33
00023 suncat0108 pw.x -in pw.inp   Done                     01/02/2019 16:45:33
00024 suncat0252 pw.x -in pw.inp   Done                     01/02/2019 16:45:33
00025 suncat0252 pw.x -in pw.inp   Done                     01/02/2019 16:45:33
00026 suncat0252 pw.x -in pw.inp   Done                     01/02/2019 16:45:33
00027 suncat0252 pw.x -in pw.inp   Done                     01/02/2019 16:45:33
00028 suncat0252 pw.x -in pw.inp   Done                     01/02/2019 16:45:33
00029 suncat0252 pw.x -in pw.inp   Done                     01/02/2019 16:45:33
00030 suncat0252 pw.x -in pw.inp   Done                     01/02/2019 16:45:33
00031 suncat0252 pw.x -in pw.inp   Done                     01/02/2019 16:45:33
00032 suncat0226 pw.x -in pw.inp   Done                     01/02/2019 16:45:33
00033 suncat0226 pw.x -in pw.inp   Done                     01/02/2019 16:45:33
00034 suncat0226 pw.x -in pw.inp   Done                     01/02/2019 16:45:33
00035 suncat0226 pw.x -in pw.inp   Done                     01/02/2019 16:45:33
00036 suncat0226 pw.x -in pw.inp   Done                     01/02/2019 16:45:33
00037 suncat0226 pw.x -in pw.inp   Done                     01/02/2019 16:45:33
00038 suncat0226 pw.x -in pw.inp   Done                     01/02/2019 16:45:33
00039 suncat0226 pw.x -in pw.inp   Done                     01/02/2019 16:45:33
00040 suncat0225 pw.x -in pw.inp   Done                     01/02/2019 16:45:33
00041 suncat0225 pw.x -in pw.inp   Done                     01/02/2019 16:45:33
00042 suncat0225 pw.x -in pw.inp   Done                     01/02/2019 16:45:33
00043 suncat0225 pw.x -in pw.inp   Done                     01/02/2019 16:45:33
00044 suncat0225 pw.x -in pw.inp   Done                     01/02/2019 16:45:33
00045 suncat0225 pw.x -in pw.inp   Done                     01/02/2019 16:45:33
00046 suncat0225 pw.x -in pw.inp   Done                     01/02/2019 16:45:33
00047 suncat0225 pw.x -in pw.inp   Done                     01/02/2019 16:45:33
00048 suncat0224 pw.x -in pw.inp   Done                     01/02/2019 16:45:33
00049 suncat0224 pw.x -in pw.inp   Done                     01/02/2019 16:45:33
00050 suncat0224 pw.x -in pw.inp   Done                     01/02/2019 16:45:33
00051 suncat0224 pw.x -in pw.inp   Done                     01/02/2019 16:45:33
00052 suncat0224 pw.x -in pw.inp   Done                     01/02/2019 16:45:33
00053 suncat0224 pw.x -in pw.inp   Done                     01/02/2019 16:45:33
00054 suncat0224 pw.x -in pw.inp   Done                     01/02/2019 16:45:33
00055 suncat0224 pw.x -in pw.inp   Done                     01/02/2019 16:45:33
00056 suncat0223 pw.x -in pw.inp   Done                     01/02/2019 16:45:33
00057 suncat0223 pw.x -in pw.inp   Done                     01/02/2019 16:45:33
00058 suncat0223 pw.x -in pw.inp   Done                     01/02/2019 16:45:33
00059 suncat0223 pw.x -in pw.inp   Done                     01/02/2019 16:45:33
00060 suncat0223 pw.x -in pw.inp   Done                     01/02/2019 16:45:33
00061 suncat0223 pw.x -in pw.inp   Done                     01/02/2019 16:45:33
00062 suncat0223 pw.x -in pw.inp   Done                     01/02/2019 16:45:33
00063 suncat0223 pw.x -in pw.inp   Done                     01/02/2019 16:45:33