     Program PWSCF v.5.1rc2 (svn rev. 11289) starts on 19Dec2018 at 17:34:53

     Current dimensions of program PWSCF are:
     Max number of different atomic species (ntypx) = 10
     Max number of k-points (npk) =  40000
     Max angular momentum in pseudopotentials (lmaxx) =  3
     Presently stress not available with electric field

     IMPORTANT: XC functional enforced from input :
     Exchange-correlation      = BEEF-VDW ( 1  4 27 13 2)
     Any further DFT definition will be discarded
     Please, verify this is what you really want

     Subspace diagonalization in iterative solution of the eigenvalue problem:
     a serial algorithm will be used

     bravais-lattice index     =            0
     lattice parameter (alat)  =       1.8897  a.u.
     unit-cell volume          =    4279.0890 (a.u.)^3
     number of atoms/cell      =           12
     number of atomic types    =            2
     number of electrons       =        72.00
     number of Kohn-Sham states=           66
     kinetic-energy cutoff     =      36.7493  Ry
     charge density cutoff     =     367.4932  Ry
     convergence threshold     =      1.0E-06
     mixing beta               =       0.1000
     number of iterations used =           10  plain     mixing
     Exchange-correlation      = BEEF-VDW ( 1  4 27 13 2)
     nstep                     =           50

     celldm(1)=   1.889726  celldm(2)=   0.000000  celldm(3)=   0.000000
     celldm(4)=   0.000000  celldm(5)=   0.000000  celldm(6)=   0.000000

     crystal axes: (cart. coord. in units of alat)
               a(1) = (   5.470475   0.000000   0.000000 )
               a(2) = (  -2.735237   4.737570   0.000000 )
               a(3) = (   0.000000   0.000000  24.466624 )

     reciprocal axes: (cart. coord. in units 2 pi/alat)
               b(1) = (  0.182799  0.105539  0.000000 )
               b(2) = (  0.000000  0.211079  0.000000 )
               b(3) = (  0.000000  0.000000  0.040872 )

     PseudoPot. # 1 for Al read from file:
     /afs/slac.stanford.edu/u/if/mamunm/psp/gbrv1.5pbe/Al.UPF
     MD5 check sum: 0a6289f5291fc8f409219462bc851e1f
     Pseudo is Ultrasoft + core correction, Zval =  3.0
     Generated by new atomic code, or converted to UPF format
     Using radial grid of  893 points,  3 beta functions with:
                l(1) =   0
                l(2) =   1
                l(3) =   2
     Q(r) pseudized with  8 coefficients,  rinner =    0.900   0.900   0.900
                                                       0.900   0.900

     PseudoPot. # 2 for Ir read from file:
     /afs/slac.stanford.edu/u/if/mamunm/psp/gbrv1.5pbe/Ir.UPF
     MD5 check sum: 8836f839c3459d2b385c504ce6d91f2c
     Pseudo is Ultrasoft + core correction, Zval = 15.0
     Generated by new atomic code, or converted to UPF format
     Using radial grid of  983 points,  7 beta functions with:
                l(1) =   0
                l(2) =   0
                l(3) =   1
                l(4) =   1
                l(5) =   1
                l(6) =   2
                l(7) =   2
     Q(r) pseudized with  8 coefficients,  rinner =    1.400   1.400   1.400
                                                       1.400   1.400

     vdW kernel table read from file vdW_kernel_table
     MD5 check sum: 095c7af220d748ca6e76c0b4c6cfb241

     atomic species   valence    mass     pseudopotential
        Al1            3.00    26.98154     Al( 1.00)
        Ir1           15.00   192.21700     Ir( 1.00)

     No symmetry found

   Cartesian axes

     site n.     atom                  positions (alat units)
         1           Al1 tau(   1) = (   0.0000000   0.0000000  10.0000000  )
         2           Al1 tau(   2) = (  -1.3676187   2.3687851  10.0000000  )
         3           Al1 tau(   3) = (   1.3676187   2.3687851  10.0000000  )
         4           Ir1 tau(   4) = (   2.7352374   0.0000000  10.0000000  )
         5           Al1 tau(   5) = (   2.7352374   1.5791900  12.2333120  )
         6           Al1 tau(   6) = (   1.3676187   3.9479751  12.2333120  )
         7           Al1 tau(   7) = (  -1.3676187   3.9479751  12.2333120  )
         8           Ir1 tau(   8) = (   0.0000000   1.5791900  12.2333120  )
         9           Al1 tau(   9) = (  -0.0000000   3.1583801  14.4666239  )
        10           Al1 tau(  10) = (   1.3676187   0.7895950  14.4666239  )
        11           Al1 tau(  11) = (   4.1028561   0.7895950  14.4666239  )
        12           Ir1 tau(  12) = (   2.7352374   3.1583801  14.4666239  )

     number of k points=    20  Fermi-Dirac smearing, width (Ry)=  0.0110
                       cart. coord. in units 2pi/alat
        k(    1) = (   0.0000000   0.0000000   0.0000000), wk =   0.0555556
        k(    2) = (   0.0000000   0.0351798   0.0000000), wk =   0.1111111
        k(    3) = (   0.0000000   0.0703596   0.0000000), wk =   0.1111111
        k(    4) = (   0.0000000  -0.1055393   0.0000000), wk =   0.0555556
        k(    5) = (   0.0304666   0.0175899   0.0000000), wk =   0.1111111
        k(    6) = (   0.0304666   0.0527697   0.0000000), wk =   0.1111111
        k(    7) = (   0.0304666   0.0879494   0.0000000), wk =   0.1111111
        k(    8) = (   0.0304666  -0.0879494   0.0000000), wk =   0.1111111
        k(    9) = (   0.0304666  -0.0527697   0.0000000), wk =   0.1111111
        k(   10) = (   0.0304666  -0.0175899   0.0000000), wk =   0.1111111
        k(   11) = (   0.0609332   0.0351798   0.0000000), wk =   0.1111111
        k(   12) = (   0.0609332   0.0703596   0.0000000), wk =   0.1111111
        k(   13) = (   0.0609332   0.1055393   0.0000000), wk =   0.1111111
        k(   14) = (   0.0609332  -0.0703596   0.0000000), wk =   0.1111111
        k(   15) = (   0.0609332  -0.0351798   0.0000000), wk =   0.1111111
        k(   16) = (   0.0609332   0.0000000   0.0000000), wk =   0.1111111
        k(   17) = (  -0.0913997  -0.0527697   0.0000000), wk =   0.0555556
        k(   18) = (  -0.0913997  -0.0175899   0.0000000), wk =   0.1111111
        k(   19) = (  -0.0913997   0.0175899   0.0000000), wk =   0.1111111
        k(   20) = (  -0.0913997  -0.1583090   0.0000000), wk =   0.0555556

     Largest allocated arrays     est. size (Mb)     dimensions
     Largest temporary arrays     est. size (Mb)     dimensions

     Initial potential from superposition of free atoms
     Check: negative starting charge=   -1.087312

     starting charge   70.47772, renormalised to   72.00000

     negative rho (up, down):  1.111E+00 0.000E+00

     *
     * You are using vdW-DF for exchange-correlation in this calculation.
     * Please cite the following three references that made this development
     * possible:
     *
     *   M. Dion, H. Rydberg, E. Schroder, D. C. Langreth, and
     *   B. I. Lundqvist, Phys. Rev. Lett. 92, 246401 (2004).
     *
     *   T. Thonhauser, V. R. Cooper, S. Li, A. Puzder, P. Hyldgaard, and
     *   D. C. Langreth, Phys. Rev. B 76, 125112 (2007).
     *
     *   G. Roman-Perez and J. M. Soler, Phys. Rev. Lett. 103, 096102 (2009).
     *
     *
     * If you are using vdW-DF2, please also cite:
     *
     *   K. Lee, E. D. Murray, L. Kong, B. I. Lundqvist, and
     *   D. C. Langreth, Phys. Rev. B 82, 081101(R) (2010).
     *
     *
     * If you are calculating the stress with vdW-DF, please also cite:
     *
     *   R. Sabatini, E. Kucukbenli, B. Kolb, T. Thonhauser, and
     *   S. de Gironcoli, J. Phys.: Condens. Matter 24, 424209 (2012).
     *

     Carrying out vdW-DF run using the following parameters:

     Nqs =      20    Nr_points =    1024   r_max =   100.000
     q_mesh =
               0.00001000     0.04494208     0.09755937     0.15916263
               0.23128650     0.31572767     0.41458969     0.53033537
               0.66584808     0.82450364     1.01025438     1.22772762
               1.48234092     1.78043706     2.12944203     2.53805004
               3.01644009     3.57652955     4.23227104     5.00000000

     Gradients computed in reciprocal space

     Adding external electric field

     Computed dipole along edir(3) :
        Dipole                0.0000 Ry au,          0.0000 Debye
        Dipole field          0.0000 Ry au

        Potential amp.       -0.0000 Ry
        Total length         45.0793 bohr

     Starting wfc are   72 randomized atomic wfcs

     Self-consistent Calculation

     iteration #  1     ecut=    36.75 Ry     beta=0.10
     Davidson diagonalization with overlap
     ethr =  1.00E-02,  avg # of iterations =  7.0

[...]

     total energy              =    -612.02615985 Ry
     Harris-Foulkes estimate   =    -613.34093372 Ry
     estimated scf accuracy    <       7.81390961 Ry

[...]

     End of self-consistent calculation

          k = 0.0000 0.0000 0.0000 ( 16037 PWs)   bands (ev):

   -48.9951 -48.9951 -48.9143 -48.6931 -48.6931 -48.6930 -48.6930 -48.4964
   -48.4963 -10.8349  -8.9420  -6.6795  -5.6917  -5.6917  -4.8141  -4.8141
    -4.7548  -4.5684  -4.5684  -4.3768  -3.3492  -3.3492  -3.2150  -2.7143
    -2.7143  -2.3973  -2.0919  -1.8493  -1.7757  -1.7757  -1.4876  -1.4876
    -1.2356  -1.2356  -1.0205  -0.8492  -0.8492  -0.3786   1.4178   1.4579
     1.7862   1.7862   2.1225   2.1225   2.6370   2.7185   2.7185   3.6600
     3.9577   4.3963   4.6306   5.0082   5.0082   5.0622   5.2974   5.4873
     5.4873   6.6142   6.6949   6.7306   7.3038   7.3038   8.0377   8.1775
     8.3975   8.3976

[...]

          k =-0.0914-0.0528 0.0000 ( 16144 PWs)   bands (ev):

[...]

     the Fermi energy is     0.0178 ev

!    total energy              =    -612.19333189 Ry
     Harris-Foulkes estimate   =    -612.19334570 Ry
     estimated scf accuracy    <       0.00000049 Ry

     The total energy is the sum of the following terms:

     one-electron contribution =   -3099.55352355 Ry
     hartree contribution      =    1560.04541101 Ry
     xc contribution           =    -196.32585670 Ry
     ewald contribution        =    1123.66488031 Ry
     electric field correction =       0.00000000 Ry
     smearing contrib. (-TS)   =      -0.02424297 Ry

     convergence has been achieved in  14 iterations

 BEEF-vdW xc energy contributions
           1 :   -171.354001792484
           2 :    157.090373452120
           3 :   -132.730920498133
           4 :    104.468301367974
           5 :   -77.8463228359513
           6 :    56.0857718432475
           7 :   -39.9694987271814
           8 :    28.7853734580934
           9 :   -21.3644123410359
          10 :    16.5697365579601
          11 :   -13.2992651080929
          12 :    10.4673753400792
          13 :   -7.26584329455230
          14 :    3.53768202118565
          15 :   0.137039157666692
          16 :   -2.83736970607390
          17 :    3.94087895508136
          18 :   -3.54195845873079
          19 :    2.36129580145575
          20 :   -1.27059249708179
          21 :   0.818151079582833
          22 :   -1.06401214261859
          23 :    1.73700696165108
          24 :   -2.49789468788077
          25 :    3.09367750696418
          26 :   -3.36492000214491
          27 :    3.21414016210068
          28 :   -2.63847436173506
          29 :    1.80314675053845
[...]
     celldm(4)=   0.000000  celldm(5)=   0.000000  celldm(6)=   0.000000

     crystal axes: (cart. coord. in units of alat)
               a(1) = (   5.470475   0.000000   0.000000 )
               a(2) = (  -2.735237   4.737570   0.000000 )
               a(3) = (   0.000000   0.000000  24.466624 )

     reciprocal axes: (cart. coord. in units 2 pi/alat)
               b(1) = (  0.182799  0.105539  0.000000 )
               b(2) = (  0.000000  0.211079  0.000000 )
               b(3) = (  0.000000  0.000000  0.040872 )

     PseudoPot. # 1 for Al read from file:
     /afs/slac.stanford.edu/u/if/mamunm/psp/gbrv1.5pbe/Al.UPF
     MD5 check sum: 0a6289f5291fc8f409219462bc851e1f
     Pseudo is Ultrasoft + core correction, Zval =  3.0
     Generated by new atomic code, or converted to UPF format
     Using radial grid of  893 points,  3 beta functions with:
                l(1) =   0
                l(2) =   1
                l(3) =   2
     Q(r) pseudized with  8 coefficients,  rinner =    0.900   0.900   0.900
                                                       0.900   0.900

     PseudoPot. # 2 for Ir read from file:
     /afs/slac.stanford.edu/u/if/mamunm/psp/gbrv1.5pbe/Ir.UPF
     MD5 check sum: 8836f839c3459d2b385c504ce6d91f2c
     Pseudo is Ultrasoft + core correction, Zval = 15.0
     Generated by new atomic code, or converted to UPF format
     Using radial grid of  983 points,  7 beta functions with:
                l(1) =   0
                l(2) =   0
                l(3) =   1
                l(4) =   1
                l(5) =   1
                l(6) =   2
                l(7) =   2
     Q(r) pseudized with  8 coefficients,  rinner =    1.400   1.400   1.400
                                                       1.400   1.400

     vdW kernel table read from file vdW_kernel_table
     MD5 check sum: 095c7af220d748ca6e76c0b4c6cfb241

     atomic species   valence    mass     pseudopotential
        Al1            3.00    26.98154     Al( 1.00)
        Ir1           15.00   192.21700     Ir( 1.00)

     No symmetry found

   Cartesian axes

     site n.     atom                  positions (alat units)
         1           Al1 tau(   1) = (   0.0000000   0.0000000  10.0000000  )
         2           Al1 tau(   2) = (  -1.3676187   2.3687851  10.0000000  )
         3           Al1 tau(   3) = (   1.3676187   2.3687851  10.0000000  )
         4           Ir1 tau(   4) = (   2.7352374   0.0000000  10.0000000  )
         5           Al1 tau(   5) = (   2.7352374   1.5791900  12.2333120  )
         6           Al1 tau(   6) = (   1.3676187   3.9479751  12.2333120  )
         7           Al1 tau(   7) = (  -1.3676187   3.9479751  12.2333120  )
         8           Ir1 tau(   8) = (   0.0000000   1.5791900  12.2333120  )
         9           Al1 tau(   9) = (   0.0000002   3.1385555  14.5635649  )
        10           Al1 tau(  10) = (   1.3504498   0.7995090  14.5635648  )
        11           Al1 tau(  11) = (   4.1200258   0.7995090  14.5635648  )
        12           Ir1 tau(  12) = (   2.7352362   3.1583831  14.3968074  )

     number of k points=    20  Fermi-Dirac smearing, width (Ry)=  0.0110
                       cart. coord. in units 2pi/alat
        k(    1) = (   0.0000000   0.0000000   0.0000000), wk =   0.0555556
        k(    2) = (   0.0000000   0.0351798   0.0000000), wk =   0.1111111
        k(    3) = (   0.0000000   0.0703596   0.0000000), wk =   0.1111111
        k(    4) = (   0.0000000  -0.1055393   0.0000000), wk =   0.0555556
        k(    5) = (   0.0304666   0.0175899   0.0000000), wk =   0.1111111
        k(    6) = (   0.0304666   0.0527697   0.0000000), wk =   0.1111111
        k(    7) = (   0.0304666   0.0879494   0.0000000), wk =   0.1111111
        k(    8) = (   0.0304666  -0.0879494   0.0000000), wk =   0.1111111
        k(    9) = (   0.0304666  -0.0527697   0.0000000), wk =   0.1111111
        k(   10) = (   0.0304666  -0.0175899   0.0000000), wk =   0.1111111
        k(   11) = (   0.0609332   0.0351798   0.0000000), wk =   0.1111111
        k(   12) = (   0.0609332   0.0703596   0.0000000), wk =   0.1111111
        k(   13) = (   0.0609332   0.1055393   0.0000000), wk =   0.1111111
        k(   14) = (   0.0609332  -0.0703596   0.0000000), wk =   0.1111111
        k(   15) = (   0.0609332  -0.0351798   0.0000000), wk =   0.1111111
        k(   16) = (   0.0609332   0.0000000   0.0000000), wk =   0.1111111
        k(   17) = (  -0.0913997  -0.0527697   0.0000000), wk =   0.0555556
        k(   18) = (  -0.0913997  -0.0175899   0.0000000), wk =   0.1111111
        k(   19) = (  -0.0913997   0.0175899   0.0000000), wk =   0.1111111
        k(   20) = (  -0.0913997  -0.1583090   0.0000000), wk =   0.0555556

     Largest allocated arrays     est. size (Mb)     dimensions
     Largest temporary arrays     est. size (Mb)     dimensions

     Initial potential from superposition of free atoms
     Check: negative starting charge=   -1.085941

     starting charge   70.47772, renormalised to   72.00000

[...]

     *
     * You are using vdW-DF for exchange-correlation in this calculation.
     * Please cite the following three references that made this development
     * possible:
     *
     *   M. Dion, H. Rydberg, E. Schroder, D. C. Langreth, and
     *   B. I. Lundqvist, Phys. Rev. Lett. 92, 246401 (2004).
     *
     *   T. Thonhauser, V. R. Cooper, S. Li, A. Puzder, P. Hyldgaard, and
     *   D. C. Langreth, Phys. Rev. B 76, 125112 (2007).
     *
     *   G. Roman-Perez and J. M. Soler, Phys. Rev. Lett. 103, 096102 (2009).
     *
     *
     * If you are using vdW-DF2, please also cite:
     *
     *   K. Lee, E. D. Murray, L. Kong, B. I. Lundqvist, and
     *   D. C. Langreth, Phys. Rev. B 82, 081101(R) (2010).
     *
     *
     * If you are calculating the stress with vdW-DF, please also cite:
     *
     *   R. Sabatini, E. Kucukbenli, B. Kolb, T. Thonhauser, and
     *   S. de Gironcoli, J. Phys.: Condens. Matter 24, 424209 (2012).
     *

     Carrying out vdW-DF run using the following parameters:

     Nqs =      20    Nr_points =    1024   r_max =   100.000
     q_mesh =
               0.00001000     0.04494208     0.09755937     0.15916263
               0.23128650     0.31572767     0.41458969     0.53033537
               0.66584808     0.82450364     1.01025438     1.22772762
               1.48234092     1.78043706     2.12944203     2.53805004
               3.01644009     3.57652955     4.23227104     5.00000000

     Gradients computed in reciprocal space

[...]

     Starting wfc are   72 randomized atomic wfcs

     Self-consistent Calculation

[...]

     total energy              =    -612.19950615 Ry
     Harris-Foulkes estimate   =    -612.19950474 Ry
     estimated scf accuracy    <       0.00000138 Ry

     iteration # 15     ecut=    36.75 Ry     beta=0.10
     Davidson diagonalization with overlap
     ethr =  1.92E-09,  avg # of iterations =  3.1

[...]

     negative rho (up, down):  9.799E-01 0.000E+00

     Adding external electric field

     Computed dipole along edir(3) :
        Dipole                0.0479 Ry au,          0.1219 Debye
        Dipole field          0.0001 Ry au

        Potential amp.       -0.0127 Ry
        Total length         45.0793 bohr

     End of self-consistent calculation

[...]

          k = 0.0609 0.0000 0.0000 ( 16110 PWs)   bands (ev):

[...]

          k =-0.0914-0.1583 0.0000 ( 16144 PWs)   bands (ev):

   -48.8774 -48.8773 -48.7873 -48.6831 -48.6830 -48.6410 -48.6409 -48.5017
   -48.4365  -9.0644  -8.9435  -7.4883  -7.0841  -6.3119  -5.6709  -5.0489
    -4.9350  -4.7240  -4.3558  -3.7998  -3.6328  -3.1896  -3.0860  -3.0690
    -2.9234  -2.4646  -2.4152  -2.0565  -1.9472  -1.4799  -1.3267  -1.0803
    -1.0063  -0.7197  -0.0821   0.0806   0.2366   0.8983   1.8332   2.2708
     2.3709   2.5079   2.5866   3.1455   3.2870   3.5976   3.7020   4.0422
     4.5467   4.8851   5.1136   5.2206   5.4402   5.5236   5.6329   5.6738
     5.7812   6.0830   6.2444   6.3466   6.4601   6.6476   6.6734   6.8768
     7.0036   7.1302

     the Fermi energy is     0.0810 ev

!    total energy              =    -612.19950009 Ry
     Harris-Foulkes estimate   =    -612.19950621 Ry
     estimated scf accuracy    <       0.00000040 Ry

     The total energy is the sum of the following terms:

     one-electron contribution =   -3101.71443886 Ry
     hartree contribution      =    1561.25667023 Ry
     xc contribution           =    -196.27545325 Ry
     ewald contribution        =    1124.55824129 Ry
     electric field correction =       0.00000675 Ry
     smearing contrib. (-TS)   =      -0.02452624 Ry

     convergence has been achieved in  15 iterations

 BEEF-vdW xc energy contributions
           1 :   -171.306937377959
           2 :    157.032272682985
           3 :   -132.657031808187
           4 :    104.380121750304
           5 :   -77.7447376759692
           6 :    55.9657459258362
           7 :   -39.8243188753515
           8 :    28.6168107945020
           9 :   -21.1864484207814
          10 :    16.3988933384558
          11 :   -13.1392446728429
          12 :    10.3038382639084
          13 :   -7.07836587883250
          14 :    3.31846753261226
          15 :   0.375575111578115
          16 :   -3.07355343554033
          17 :    4.16277324544433
          18 :   -3.75659298772570
          19 :    2.58650213089214
          20 :   -1.51841948803724
          21 :    1.08531526886850
          22 :   -1.33660770264447
          23 :    2.00238722402551
          24 :   -2.75156914576559
          25 :    3.33672363665693
          26 :   -3.59777594107425
          27 :    3.43568165342145
          28 :   -2.85067895165656
          29 :    2.01318145193588
          30 :   -1.25369960777081
          31 :   -16.7484934806644
          32 :   -12.4555111671524

     Forces acting on atoms (Ry/au):

     negative rho (up, down):  9.799E-01 0.000E+00
     atom    1 type  1   force =    -0.00000002    0.01044896   -0.01587293
     atom    2 type  1   force =     0.00904906   -0.00522450   -0.01587296
     atom    3 type  1   force =    -0.00904910   -0.00522449   -0.01587293
     atom    4 type  2   force =     0.00000033   -0.00000016    0.02374019
     atom    5 type  1   force =    -0.00000005   -0.00513445    0.00649282
     atom    6 type  1   force =    -0.00444669    0.00256726    0.00649278
     atom    7 type  1   force =     0.00444661    0.00256728    0.00649282
     atom    8 type  2   force =     0.00000024    0.00000015    0.00405470
     atom    9 type  1   force =    -0.00000006   -0.00003110   -0.00006694
     atom   10 type  1   force =    -0.00002701    0.00001563   -0.00006691
     atom   11 type  1   force =     0.00002684    0.00001562   -0.00006691
     atom   12 type  2   force =    -0.00000014   -0.00000019    0.00054627

     Total force =     0.043235     Total SCF correction =     0.001286

     entering subroutine stress ...

     negative rho (up, down):  9.799E-01 0.000E+00
          total   stress  (Ry/bohr**3)                   (kbar)     P=  -22.97
  -0.00024008   0.00000000   0.00000000        -35.32      0.00      0.00
   0.00000000  -0.00024008  -0.00000000          0.00    -35.32     -0.00
   0.00000000  -0.00000000   0.00001166          0.00     -0.00      1.72

 !ASE

     Writing output data file calc.save

     General routines

     Parallel routines

   This run was terminated on:  18:11: 1  19Dec2018

   JOB DONE.
Job  /afs/slac/g/suncat/bin/suncat-tsmpirun -x LD_LIBRARY_PATH -wdir /scratch/qe773269_Fb3dK pw.x -in pw.inp

TID   HOST_NAME   COMMAND_LINE            STATUS            TERMINATION_TIME
00000 suncat0083 pw.x -in pw.inp   Done                     12/19/2018 18:11:01
00001 suncat0083 pw.x -in pw.inp   Done                     12/19/2018 18:11:01
00002 suncat0083 pw.x -in pw.inp   Done                     12/19/2018 18:11:01
00003 suncat0083 pw.x -in pw.inp   Done                     12/19/2018 18:11:01
00004 suncat0083 pw.x -in pw.inp   Done                     12/19/2018 18:11:01
00005 suncat0083 pw.x -in pw.inp   Done                     12/19/2018 18:11:01
00006 suncat0083 pw.x -in pw.inp   Done                     12/19/2018 18:11:01
00007 suncat0083 pw.x -in pw.inp   Done                     12/19/2018 18:11:01
00008 suncat0082 pw.x -in pw.inp   Done                     12/19/2018 18:11:01
00009 suncat0082 pw.x -in pw.inp   Done                     12/19/2018 18:11:01
00010 suncat0082 pw.x -in pw.inp   Done                     12/19/2018 18:11:01
00011 suncat0082 pw.x -in pw.inp   Done                     12/19/2018 18:11:01
00012 suncat0082 pw.x -in pw.inp   Done                     12/19/2018 18:11:01
00013 suncat0082 pw.x -in pw.inp   Done                     12/19/2018 18:11:01
00014 suncat0082 pw.x -in pw.inp   Done                     12/19/2018 18:11:01
00015 suncat0082 pw.x -in pw.inp   Done                     12/19/2018 18:11:01
00016 suncat0081 pw.x -in pw.inp   Done                     12/19/2018 18:11:01
00017 suncat0081 pw.x -in pw.inp   Done                     12/19/2018 18:11:01
00018 suncat0081 pw.x -in pw.inp   Done                     12/19/2018 18:11:01
00019 suncat0081 pw.x -in pw.inp   Done                     12/19/2018 18:11:01
00020 suncat0081 pw.x -in pw.inp   Done                     12/19/2018 18:11:01
00021 suncat0081 pw.x -in pw.inp   Done                     12/19/2018 18:11:01
00022 suncat0081 pw.x -in pw.inp   Done                     12/19/2018 18:11:01
00023 suncat0081 pw.x -in pw.inp   Done                     12/19/2018 18:11:01
00024 suncat0080 pw.x -in pw.inp   Done                     12/19/2018 18:11:01
00025 suncat0080 pw.x -in pw.inp   Done                     12/19/2018 18:11:01
00026 suncat0080 pw.x -in pw.inp   Done                     12/19/2018 18:11:01
00027 suncat0080 pw.x -in pw.inp   Done                     12/19/2018 18:11:01
00028 suncat0080 pw.x -in pw.inp   Done                     12/19/2018 18:11:01
00029 suncat0080 pw.x -in pw.inp   Done                     12/19/2018 18:11:01
00030 suncat0080 pw.x -in pw.inp   Done                     12/19/2018 18:11:01
00031 suncat0080 pw.x -in pw.inp   Done                     12/19/2018 18:11:01
00032 suncat0070 pw.x -in pw.inp   Done                     12/19/2018 18:11:01
00033 suncat0070 pw.x -in pw.inp   Done                     12/19/2018 18:11:01
00034 suncat0070 pw.x -in pw.inp   Done                     12/19/2018 18:11:01
00035 suncat0070 pw.x -in pw.inp   Done                     12/19/2018 18:11:01
00036 suncat0070 pw.x -in pw.inp   Done                     12/19/2018 18:11:01
00037 suncat0070 pw.x -in pw.inp   Done                     12/19/2018 18:11:01
00038 suncat0070 pw.x -in pw.inp   Done                     12/19/2018 18:11:01
00039 suncat0070 pw.x -in pw.inp   Done                     12/19/2018 18:11:01
00040 suncat0069 pw.x -in pw.inp   Done                     12/19/2018 18:11:01
00041 suncat0069 pw.x -in pw.inp   Done                     12/19/2018 18:11:01
00042 suncat0069 pw.x -in pw.inp   Done                     12/19/2018 18:11:01
00043 suncat0069 pw.x -in pw.inp   Done                     12/19/2018 18:11:01
00044 suncat0069 pw.x -in pw.inp   Done                     12/19/2018 18:11:01
00045 suncat0069 pw.x -in pw.inp   Done                     12/19/2018 18:11:01
00046 suncat0069 pw.x -in pw.inp   Done                     12/19/2018 18:11:01
00047 suncat0069 pw.x -in pw.inp   Done                     12/19/2018 18:11:01
00048 suncat0068 pw.x -in pw.inp   Done                     12/19/2018 18:11:01
00049 suncat0068 pw.x -in pw.inp   Done                     12/19/2018 18:11:01
00050 suncat0068 pw.x -in pw.inp   Done                     12/19/2018 18:11:01
00051 suncat0068 pw.x -in pw.inp   Done                     12/19/2018 18:11:01
00052 suncat0068 pw.x -in pw.inp   Done                     12/19/2018 18:11:01
00053 suncat0068 pw.x -in pw.inp   Done                     12/19/2018 18:11:01
00054 suncat0068 pw.x -in pw.inp   Done                     12/19/2018 18:11:01
00055 suncat0068 pw.x -in pw.inp   Done                     12/19/2018 18:11:01
00056 suncat0066 pw.x -in pw.inp   Done                     12/19/2018 18:11:01
00057 suncat0066 pw.x -in pw.inp   Done                     12/19/2018 18:11:01
00058 suncat0066 pw.x -in pw.inp   Done                     12/19/2018 18:11:01
00059 suncat0066 pw.x -in pw.inp   Done                     12/19/2018 18:11:01
00060 suncat0066 pw.x -in pw.inp   Done                     12/19/2018 18:11:01
00061 suncat0066 pw.x -in pw.inp   Done                     12/19/2018 18:11:01
00062 suncat0066 pw.x -in pw.inp   Done                     12/19/2018 18:11:01
00063 suncat0066 pw.x -in pw.inp   Done                     12/19/2018 18:11:01